********************************************************************************
Field Output Report, written Tue May  6 15:02:28 2025

Source 1
---------

   ODB: D:/AISI_1020/Vel_40/aisi_1020_2a_8_red_1500_cal_75_vel_40_fric_025.odb
   Step: Step-1
   Frame: Increment   2592232: Step Time =   0.3342

Loc 1 : Nodal values from source 1

Output sorted by column "Node Label".

Field Output reported at nodes for region: DIE_2A_8_D0_36-1.Region_1
   Computation algorithm: EXTRAPOLATE_COMPUTE_AVERAGE
   Averaged at nodes
   Averaging regions: ODB_REGIONS

      Node Label     COORD.COOR1     COORD.COOR2
                          @Loc 1          @Loc 1
-------------------------------------------------
               1     16.3673E-03     154.645E-03


Field Output reported at nodes for region: DIE_2A_8_D0_36-1.Region_2
   Computation algorithm: EXTRAPOLATE_COMPUTE_AVERAGE
   Averaged at nodes
   Averaging regions: ODB_REGIONS

      Node Label     COORD.COOR1     COORD.COOR2
                          @Loc 1          @Loc 1
-------------------------------------------------
               1     16.3673E-03     154.645E-03


Field Output reported at nodes for part: WIRE_1-1
   Computation algorithm: EXTRAPOLATE_COMPUTE_AVERAGE
   Averaged at nodes
   Averaging regions: ODB_REGIONS

      Node Label     COORD.COOR1     COORD.COOR2    ER.Max. Prin    ER.Mid. Prin    ER.Min. Prin         ER.ER11         ER.ER22         ER.ER33         ER.ER12    PE.Max. Prin    PE.Mid. Prin    PE.Min. Prin         PE.PE11         PE.PE22         PE.PE33         PE.PE12     S.Max. Prin     S.Mid. Prin     S.Min. Prin           S.S11           S.S22           S.S33           S.S12            TEMP
                          @Loc 1          @Loc 1          @Loc 1          @Loc 1          @Loc 1          @Loc 1          @Loc 1          @Loc 1          @Loc 1          @Loc 1          @Loc 1          @Loc 1          @Loc 1          @Loc 1          @Loc 1          @Loc 1          @Loc 1          @Loc 1          @Loc 1          @Loc 1          @Loc 1          @Loc 1          @Loc 1          @Loc 1
-----------------------------------------------------------------------------------------------------------------------------------------------------------------------------------------------------------------------------------------------------------------------------------------------------------------------------------------------------------------------------------------------------------------
               1     15.2950E-03     76.4922E-03         3.20211         1.39300        -4.92567     391.577E-03        -2.11515         1.39300        -7.72120     326.660E-03    -162.623E-03    -164.037E-03    -161.953E-03     325.990E-03    -164.037E-03     36.1809E-03     159.582E+06     120.576E+06    -4.54309E+06    -4.54174E+06     120.575E+06     159.582E+06     405.815E+03         62.7296
               2     956.773E-09     76.1347E-03         4.53253         2.13807        -7.73901         1.31647        -4.52295         2.13807        -10.7878     328.263E-03    -163.927E-03    -164.336E-03    -164.336E-03     328.263E-03    -163.927E-03    -626.556E-06    -151.471E+06    -152.162E+06    -325.632E+06    -152.047E+06    -325.629E+06    -151.589E+06     178.552E+03         46.3196
               3     1.07434E-06     180.411E-18         8.86337         7.59347        -22.3125         7.47063        -22.1897         8.86337         3.82550     376.162E-03    -187.993E-03    -188.169E-03    -187.992E-03     376.161E-03    -188.169E-03     1.38417E-03    -77.3328E+06    -78.2406E+06    -278.630E+06    -78.2450E+06    -278.626E+06    -77.3328E+06     933.970E+03         49.8256
               4     15.2261E-03     180.411E-18         7.46272         4.85367        -19.2102         4.85169        -19.2082         7.46272    -435.707E-03     383.453E-03    -166.020E-03    -217.433E-03    -215.017E-03     381.037E-03    -166.020E-03     76.0440E-03     169.101E+06     123.889E+06     7.60452E+06      7.8023E+06     123.691E+06     169.101E+06    -4.79161E+06         64.0508
               5     15.3098E-03     152.999E-03     393.825E-03    -219.867E-03    -304.664E-03     98.8653E-03    -9.70495E-03    -219.867E-03     689.999E-03     286.626E-03    -122.731E-03    -163.896E-03    -122.712E-03     286.608E-03    -163.896E-03    -5.51217E-03     57.5104E+06     27.6328E+06    -22.8337E+06    -21.1930E+06     25.9921E+06     57.5104E+06    -8.95020E+06         83.0619
               6     1.89672E-06     151.782E-03         4.02811    -373.031E-03        -1.83740     421.937E-03         1.76878    -373.031E-03         5.70878     364.863E-03    -181.909E-03    -182.953E-03    -182.924E-03     364.833E-03    -181.909E-03    -8.01803E-03     61.7418E+06     59.8590E+06    -10.3209E+06     59.5889E+06    -10.0508E+06     61.7418E+06    -4.34524E+06         47.7775
               7     14.4441E-03     76.4442E-03         2.32205         1.21339        -3.90773     482.084E-03        -2.27187         1.41749        -2.64542     327.158E-03    -163.180E-03    -163.978E-03    -162.327E-03     326.305E-03    -163.978E-03     40.6345E-03     142.013E+06     110.659E+06    -9.10201E+06    -9.10087E+06     110.658E+06     142.013E+06     358.493E+03         61.5002
               8     13.5946E-03     76.3847E-03         2.67035         1.26374        -4.36653     557.182E-03        -2.45747         1.46784        -3.40773     327.200E-03    -163.337E-03    -163.863E-03    -162.537E-03     326.401E-03    -163.863E-03     39.1386E-03     109.430E+06     91.4287E+06    -17.5982E+06    -17.5939E+06     91.4244E+06     109.430E+06     599.080E+03         58.6766
               9     12.7439E-03     76.3404E-03         2.72575         1.12644        -4.32694     581.714E-03        -2.57971         1.52324        -3.94073     326.637E-03    -162.842E-03    -163.795E-03    -162.315E-03     326.110E-03    -163.795E-03     32.0923E-03     87.7209E+06     78.3249E+06    -25.0865E+06    -25.0749E+06     78.3133E+06     87.7209E+06     1.06983E+06         55.4887
              10     11.8935E-03     76.2979E-03         1.80751         1.18737        -3.51499     658.690E-03        -2.76298         1.58418        -1.90442     326.561E-03    -162.775E-03    -163.786E-03    -162.359E-03     326.144E-03    -163.786E-03     28.4227E-03     77.2517E+06     73.1125E+06    -32.6673E+06    -32.6445E+06     73.0897E+06     77.2517E+06     1.52771E+06         52.5806
              11     11.0433E-03     76.2631E-03         2.31618         1.65025        -4.52189     702.074E-03        -2.90778         1.65025     620.755E-03     326.625E-03    -162.800E-03    -163.824E-03    -162.500E-03     326.325E-03    -163.824E-03     24.1711E-03     70.0563E+06     50.9833E+06    -40.9824E+06    -40.9400E+06     50.9409E+06     70.0563E+06     1.91836E+06         50.3341
              12     10.1936E-03     76.2326E-03         2.16249         1.46342        -4.21150     832.290E-03        -3.13777         1.71989         2.07831     326.676E-03    -162.790E-03    -163.886E-03    -162.573E-03     326.459E-03    -163.886E-03     20.4990E-03     59.7332E+06     7.36375E+06    -49.6243E+06    -49.5508E+06     7.29017E+06     59.7332E+06     1.95348E+06         48.8128
              13     9.34322E-03     76.2067E-03         2.62858         1.52034        -4.76806         1.24891        -3.64486         1.77681         2.69312     326.771E-03    -162.831E-03    -163.940E-03    -162.684E-03     326.624E-03    -163.940E-03     16.8938E-03     45.5818E+06    -37.9167E+06    -59.2068E+06    -58.5612E+06    -38.5623E+06     45.5818E+06     1.87359E+06         47.8791
              14     8.49358E-03     76.1846E-03         3.17334         1.79624        -5.62585         1.81333        -4.26584         1.79624         1.46650     326.928E-03    -162.945E-03    -163.983E-03    -162.849E-03     326.832E-03    -163.983E-03     13.5788E-03     30.5803E+06    -66.4916E+06    -79.7635E+06    -68.0296E+06    -78.2254E+06     30.5803E+06     1.77789E+06         47.3382
              15     7.64386E-03     76.1680E-03         2.74672         1.76694        -5.21515         2.22899        -4.69742         1.76694    -918.978E-03     327.041E-03    -163.031E-03    -164.009E-03    -162.975E-03     326.985E-03    -164.009E-03     10.3906E-03     14.5274E+06    -77.6502E+06    -111.733E+06    -77.7441E+06    -111.639E+06     14.5274E+06     1.64881E+06         47.0254
              16     6.79374E-03     76.1546E-03         3.51932         1.69723        -5.96079         2.37325        -4.81472         1.69723        -2.86274     327.138E-03    -163.113E-03    -164.025E-03    -163.083E-03     327.107E-03    -164.025E-03     7.61044E-03    -3.24238E+06    -88.0112E+06    -143.439E+06    -88.0613E+06    -143.389E+06    -3.24238E+06     1.60414E+06         46.8325
              17     5.94506E-03     76.1442E-03         3.36446         1.60879        -5.75409         2.24034        -4.62997         1.60879        -3.04958     327.233E-03    -163.207E-03    -164.025E-03    -163.194E-03     327.219E-03    -164.025E-03     4.99414E-03    -23.3215E+06    -99.0697E+06    -173.392E+06    -99.0963E+06    -173.366E+06    -23.3215E+06     1.31467E+06         46.6996
              18     5.09524E-03     76.1389E-03         2.45915         1.52875        -4.80516         1.94023        -4.28624         1.52875        -1.06682     327.319E-03    -163.304E-03    -164.015E-03    -163.300E-03     327.315E-03    -164.015E-03     2.84408E-03    -44.7572E+06    -109.553E+06    -202.103E+06    -109.567E+06    -202.090E+06    -44.7572E+06     1.07945E+06         46.5977
              19     4.24533E-03     76.1344E-03         3.19951         1.47667        -5.53348         1.65090        -3.98487         1.47667         1.87834     327.482E-03    -163.492E-03    -163.990E-03    -163.491E-03     327.481E-03    -163.990E-03     1.21522E-03    -67.6100E+06    -119.605E+06    -232.220E+06    -119.615E+06    -232.211E+06    -67.6100E+06     887.448E+03         46.5147
              20     3.39682E-03     76.1328E-03         3.15560         1.46635        -5.53169         1.40820        -3.78428         1.46635         6.88359     327.518E-03    -163.567E-03    -163.950E-03    -163.567E-03     327.517E-03    -163.950E-03    -9.32197E-06    -91.5275E+06    -129.654E+06    -261.062E+06    -129.658E+06    -261.058E+06    -91.5275E+06     670.474E+03         46.4465
              21     2.54747E-03     76.1327E-03         3.41632         1.50329        -5.89785         1.32461        -3.80614         1.50329         7.64773     327.444E-03    -163.509E-03    -163.935E-03    -163.509E-03     327.443E-03    -163.935E-03    -801.201E-06    -114.487E+06    -138.478E+06    -284.319E+06    -138.481E+06    -284.317E+06    -114.487E+06     431.646E+03         46.3924
              22     1.69791E-03     76.1345E-03         4.62477         1.57962        -7.22225         1.39264        -3.99012         1.57962         10.5481     327.605E-03    -163.618E-03    -163.987E-03    -163.618E-03     327.605E-03    -163.987E-03    -891.159E-06    -133.710E+06    -145.404E+06    -303.889E+06    -145.404E+06    -303.889E+06    -133.710E+06     153.184E+03         46.3529
              23     848.437E-06     76.1327E-03         4.72029         1.88216        -7.64594         1.37020        -4.29585         1.88216     195.128E-03     328.016E-03    -163.831E-03    -164.185E-03    -164.036E-03     328.016E-03    -163.980E-03    -620.239E-06    -146.668E+06    -150.248E+06    -319.192E+06    -150.190E+06    -319.190E+06    -146.727E+06     154.758E+03         46.3282
              24    -850.858E-09     74.7453E-03         6.38422         2.60025        -9.98279         1.70553        -5.30410         2.60025        -14.7488     327.242E-03    -163.518E-03    -163.724E-03    -163.724E-03     327.242E-03    -163.518E-03    -269.478E-06    -151.391E+06    -152.012E+06    -325.609E+06    -151.895E+06    -325.607E+06    -151.509E+06     2.73897E+03         46.3186
              25     1.10407E-06     73.3628E-03         8.45184         1.94382        -11.1454         1.31452        -4.00807         1.94382        -18.7597     327.325E-03    -163.515E-03    -163.810E-03    -163.659E-03     327.325E-03    -163.665E-03     21.3344E-06    -151.244E+06    -152.312E+06    -325.580E+06    -151.748E+06    -325.579E+06    -151.810E+06     423.652E+03         46.3182
              26    -1.36421E-06     71.9756E-03         10.0938         1.27453        -12.0656     475.944E-03        -2.44774         1.27453        -21.9392     328.273E-03    -164.017E-03    -164.255E-03    -164.017E-03     328.272E-03    -164.255E-03    -625.974E-06    -150.069E+06    -151.207E+06    -324.118E+06    -150.642E+06    -324.117E+06    -150.635E+06     417.316E+03         46.3191
              27     1.22299E-06     70.5877E-03         11.4099     284.958E-03        -12.3450    -292.940E-03    -642.200E-03     284.958E-03        -23.6936     328.074E-03    -163.694E-03    -164.380E-03    -164.292E-03     328.073E-03    -163.782E-03    -914.513E-06    -150.728E+06    -152.276E+06    -324.897E+06    -151.303E+06    -324.894E+06    -151.704E+06    -122.513E+03         46.3217
              28    -216.268E-09     69.2002E-03         11.8976    -676.812E-03        -11.7313    -795.284E-03     961.554E-03    -676.812E-03        -23.5585     326.923E-03    -162.793E-03    -164.130E-03    -163.391E-03     326.923E-03    -163.532E-03    -104.471E-06    -149.796E+06    -151.160E+06    -323.598E+06    -150.204E+06    -323.578E+06    -150.771E+06     864.447E+03         46.3255
              29    -1.03206E-06     67.8177E-03         10.8821    -756.652E-03        -10.6851    -901.539E-03         1.09857    -756.652E-03        -21.4742     326.933E-03    -162.938E-03    -163.995E-03    -162.938E-03     326.932E-03    -163.995E-03    -402.155E-06    -148.039E+06    -149.135E+06    -322.246E+06    -148.470E+06    -322.204E+06    -148.746E+06    -201.401E+03         46.3297
              30     485.648E-09     66.4304E-03         9.74239        -1.32415        -8.95518        -1.52612         2.31334        -1.32415        -18.1435     328.370E-03    -163.661E-03    -164.709E-03    -164.391E-03     328.370E-03    -163.979E-03    -384.473E-06    -149.745E+06    -150.795E+06    -324.240E+06    -150.127E+06    -324.200E+06    -150.453E+06    -291.047E+03         46.3328
              31     760.002E-09     65.0417E-03         8.35324        -2.34301        -6.38388        -2.02033         3.98968        -2.34301        -13.3894     328.470E-03    -163.861E-03    -164.608E-03    -164.608E-03     328.469E-03    -163.861E-03    -655.901E-06    -150.025E+06    -151.121E+06    -324.235E+06    -151.143E+06    -324.212E+06    -150.025E+06     422.870E+03         46.3334
              32    -721.685E-09     63.6555E-03         5.88819        -2.31293        -3.91219        -2.11154         4.08754        -2.31293        -7.26854     327.514E-03    -163.742E-03    -163.772E-03    -163.771E-03     327.513E-03    -163.742E-03    -508.546E-06    -149.557E+06    -150.978E+06    -324.051E+06    -150.320E+06    -324.042E+06    -150.224E+06    -313.651E+03         46.3321
              33     737.774E-09     62.2692E-03         4.57743        -2.19137        -2.66900        -2.22318         4.13161        -2.19137    -638.734E-03     327.881E-03    -163.734E-03    -164.147E-03    -163.747E-03     327.881E-03    -164.134E-03     291.630E-06    -149.933E+06    -150.769E+06    -323.641E+06    -149.935E+06    -323.638E+06    -150.769E+06     582.409E+03         46.3304
              34    -1.41610E-06     60.8813E-03         4.99227        -1.99785        -3.15774        -1.88325         3.71778        -1.99785         5.37559     327.672E-03    -163.502E-03    -164.170E-03    -163.501E-03     327.671E-03    -164.170E-03    -954.358E-06    -149.638E+06    -150.174E+06    -323.086E+06    -150.006E+06    -323.085E+06    -149.807E+06    -54.7081E+03         46.3293
              35     963.246E-09     59.4979E-03         5.84382        -1.18803        -4.71670        -1.72108         2.84820        -1.18803         9.48456     327.305E-03    -163.245E-03    -164.061E-03    -163.791E-03     327.304E-03    -163.514E-03    -874.234E-06    -150.237E+06    -150.787E+06    -323.262E+06    -150.604E+06    -323.261E+06    -150.420E+06    -137.606E+03         46.3288
              36    -33.3299E-09     58.1095E-03         6.96213        -1.02602        -5.87875        -1.68810         2.77148        -1.02602         12.0381     328.047E-03    -163.548E-03    -164.499E-03    -164.095E-03     328.047E-03    -163.951E-03     449.870E-06    -150.187E+06    -150.537E+06    -321.858E+06    -150.189E+06    -321.855E+06    -150.537E+06     493.851E+03         46.3287
              37    -651.277E-09     56.7208E-03         8.28692        -1.31563        -6.76581        -2.03876         3.55987        -1.31563         13.9571     328.049E-03    -163.795E-03    -164.255E-03    -163.851E-03     328.049E-03    -164.198E-03     243.480E-06    -150.144E+06    -150.411E+06    -320.595E+06    -150.247E+06    -320.592E+06    -150.311E+06     190.730E+03         46.3285
              38     751.148E-09     55.3361E-03         7.46957    -732.985E-03        -6.28271        -2.16077         3.34763    -732.985E-03         12.5998     327.244E-03    -163.493E-03    -163.751E-03    -163.550E-03     327.244E-03    -163.694E-03    -167.967E-06    -150.791E+06    -151.733E+06    -321.168E+06    -150.892E+06    -321.166E+06    -151.633E+06    -514.573E+03         46.3283
              39    -1.10011E-06     53.9507E-03         4.31566     661.394E-03        -4.41355        -1.04985     951.958E-03     661.394E-03         8.28605     327.262E-03    -163.273E-03    -163.989E-03    -163.788E-03     327.262E-03    -163.474E-03    -439.030E-06    -150.570E+06    -153.009E+06    -321.592E+06    -152.168E+06    -321.591E+06    -151.412E+06    -117.682E+03         46.3289
              40     1.99563E-06     52.5648E-03         2.05530     972.466E-03        -2.40977    -755.197E-03     400.724E-03     972.466E-03         3.35131     327.703E-03    -163.503E-03    -164.200E-03    -164.018E-03     327.703E-03    -163.684E-03    -416.974E-06    -150.229E+06    -153.356E+06    -321.395E+06    -151.826E+06    -321.395E+06    -151.760E+06     176.303E+03         46.3310
              41    -2.32018E-06     51.1776E-03         3.91741    -317.437E-03        -2.75627        -2.14565         3.30680    -317.437E-03        -3.12390     327.485E-03    -163.220E-03    -164.265E-03    -163.220E-03     327.484E-03    -164.265E-03    -496.820E-06    -150.116E+06    -152.760E+06    -320.806E+06    -151.230E+06    -320.806E+06    -151.647E+06    -54.9799E+03         46.3346
              42     868.188E-09     49.7925E-03         7.20658        -1.18938        -5.06879        -2.76818         4.90597        -1.18938        -9.34347     327.625E-03    -163.109E-03    -164.516E-03    -163.653E-03     327.624E-03    -163.972E-03    -815.995E-06    -150.919E+06    -153.604E+06    -321.261E+06    -152.032E+06    -321.261E+06    -152.491E+06    -69.5491E+03         46.3395
              43     39.9732E-09     48.4046E-03         7.97029    -507.668E-03        -6.58279        -1.63616         3.02367    -507.668E-03        -13.4966     327.684E-03    -163.452E-03    -164.232E-03    -164.232E-03     327.684E-03    -163.452E-03    -402.494E-06    -149.595E+06    -152.637E+06    -319.812E+06    -151.070E+06    -319.807E+06    -151.167E+06     639.413E+03         46.3453
              44     379.968E-09     47.0186E-03         8.13889     209.666E-03        -7.42501    -483.640E-03         1.19751     209.666E-03        -15.4620     327.621E-03    -163.688E-03    -163.933E-03    -163.933E-03     327.621E-03    -163.688E-03    -42.2455E-06    -149.902E+06    -151.391E+06    -319.723E+06    -151.399E+06    -319.696E+06    -149.921E+06    -734.864E+03         46.3520
              45    -362.714E-09     45.6325E-03         8.03945    -8.92039E-03        -7.04387    -218.871E-03         1.21446    -8.92039E-03        -15.0105     328.075E-03    -163.850E-03    -164.226E-03    -164.226E-03     328.075E-03    -163.850E-03    -518.664E-06    -151.352E+06    -152.329E+06    -321.553E+06    -151.383E+06    -321.522E+06    -152.329E+06    -499.059E+03         46.3594
              46     976.767E-09     44.2451E-03         6.64128    -805.276E-03        -4.96476    -371.786E-03         2.04830    -805.276E-03        -11.2742     328.058E-03    -163.844E-03    -164.215E-03    -164.214E-03     328.058E-03    -163.844E-03    -662.843E-06    -150.009E+06    -152.461E+06    -320.521E+06    -151.514E+06    -320.509E+06    -150.968E+06     426.237E+03         46.3679
              47    -950.884E-09     42.8580E-03         4.71388        -1.08970        -2.77692    -641.043E-03         3.24979        -1.76148        -4.14273     327.627E-03    -163.767E-03    -163.860E-03    -163.860E-03     327.627E-03    -163.767E-03    -639.578E-06    -149.409E+06    -152.113E+06    -320.125E+06    -150.905E+06    -320.122E+06    -150.620E+06    -199.625E+03         46.3783
              48     1.09091E-06     41.4725E-03         4.09054    -463.077E-03        -2.90822    -85.0260E-03         1.93913        -1.13486         4.04617     328.353E-03    -164.105E-03    -164.248E-03    -164.194E-03     328.352E-03    -164.158E-03     358.176E-06    -149.216E+06    -151.739E+06    -319.823E+06    -150.529E+06    -319.822E+06    -150.427E+06     256.456E+03         46.3917
              49    -1.16523E-06     40.0819E-03         5.99062     96.9227E-03        -5.67310     985.737E-03    -668.219E-03     96.9227E-03         11.5328     328.652E-03    -164.266E-03    -164.386E-03    -164.264E-03     328.651E-03    -164.386E-03    -204.549E-06    -148.283E+06    -150.169E+06    -318.736E+06    -149.595E+06    -318.736E+06    -148.857E+06    -5.75775E+03         46.4088
              50     1.04710E-06     38.6965E-03         9.37750    -306.486E-03        -8.85903     732.972E-03    -214.502E-03    -306.486E-03         18.1099     328.124E-03    -163.793E-03    -164.331E-03    -164.263E-03     328.122E-03    -163.860E-03    -44.8407E-06    -149.966E+06    -150.935E+06    -319.988E+06    -150.361E+06    -319.988E+06    -150.540E+06    -237.855E+03         46.4300
              51    -240.383E-09     37.3084E-03         12.4810        -1.08137        -11.3317    -335.482E-03         1.48473        -1.08137         23.7287     328.729E-03    -164.111E-03    -164.618E-03    -164.582E-03     328.728E-03    -164.146E-03     385.819E-06    -149.871E+06    -151.007E+06    -319.111E+06    -150.277E+06    -319.100E+06    -150.613E+06     708.193E+03         46.4554
              52     174.524E-09     35.9208E-03         13.7996    -957.551E-03        -13.0546    -695.019E-03         1.44002    -957.551E-03         26.7589     329.475E-03    -164.710E-03    -164.766E-03    -164.730E-03     329.475E-03    -164.745E-03    -168.349E-06    -147.580E+06    -149.641E+06    -317.336E+06    -148.920E+06    -317.315E+06    -148.322E+06     4.78056E+03         46.4852
              53    -121.492E-09     34.5308E-03         13.1272    -171.037E-03        -13.4844    -245.730E-03    -111.528E-03    -171.037E-03         26.5800     330.231E-03    -165.040E-03    -165.192E-03    -165.060E-03     330.231E-03    -165.171E-03     81.4487E-06    -149.740E+06    -152.695E+06    -318.932E+06    -151.074E+06    -318.917E+06    -151.376E+06    -291.076E+03         46.5196
              54    -117.400E-09     33.1405E-03         11.4905    -28.0715E-03        -12.1966    -628.585E-03    -77.5976E-03    -28.0715E-03         23.6142     330.543E-03    -165.101E-03    -165.442E-03    -165.101E-03     330.543E-03    -165.442E-03    -354.095E-06    -150.430E+06    -153.315E+06    -318.473E+06    -151.685E+06    -318.468E+06    -152.066E+06     746.153E+03         46.5595
              55    -220.538E-09     31.7494E-03         9.62806        -1.27585        -9.42051        -2.04394         2.25149        -1.27585         18.3667     330.521E-03    -165.016E-03    -165.505E-03    -165.296E-03     330.521E-03    -165.225E-03    -311.175E-06    -150.001E+06    -152.788E+06    -316.946E+06    -151.250E+06    -316.946E+06    -151.539E+06     123.410E+03         46.6051
              56     680.661E-09     30.3605E-03         7.73043        -2.28593        -6.84742        -2.92403         3.80704        -2.28593         12.8307     331.742E-03    -165.624E-03    -166.119E-03    -165.904E-03     331.742E-03    -165.838E-03     55.3771E-06    -150.105E+06    -152.967E+06    -316.908E+06    -151.431E+06    -316.906E+06    -151.643E+06     363.687E+03         46.6554
              57    -1.02517E-06     28.9659E-03         4.59573        -1.88843        -4.42093        -2.70689         2.88168        -1.88843         7.02926     333.344E-03    -166.527E-03    -166.818E-03    -166.603E-03     333.344E-03    -166.741E-03    -311.621E-06    -151.218E+06    -153.273E+06    -317.229E+06    -152.545E+06    -317.227E+06    -151.949E+06     582.811E+03         46.7073
              58     1.14871E-06     27.5706E-03         1.26806    -784.929E-03        -2.63353        -1.45552    -17.3951E-03    -677.482E-03         1.14150     333.918E-03    -166.846E-03    -167.072E-03    -167.072E-03     333.917E-03    -166.846E-03     53.1671E-06    -150.616E+06    -152.884E+06    -316.774E+06    -152.163E+06    -316.764E+06    -151.347E+06    -640.921E+03         46.7562
              59    -876.763E-09     26.1737E-03         1.12669    -176.668E-03        -3.48878    -780.079E-03        -1.68946    -69.2215E-03        -4.30217     334.254E-03    -167.046E-03    -167.207E-03    -167.207E-03     334.253E-03    -167.046E-03     854.826E-06    -150.641E+06    -154.181E+06    -317.971E+06    -152.187E+06    -317.961E+06    -152.644E+06    -934.154E+03         46.7957
              60     874.536E-09     24.7793E-03         3.37650    -692.549E-03        -5.44325        -1.14728    -919.471E-03    -692.549E-03        -8.77583     334.827E-03    -167.305E-03    -167.522E-03    -167.522E-03     334.827E-03    -167.305E-03     221.896E-06    -150.633E+06    -154.293E+06    -318.886E+06    -152.296E+06    -318.879E+06    -152.636E+06     658.209E+03         46.8170
              61    -503.656E-09     23.3824E-03         4.72224    -676.087E-03        -7.12402    -872.107E-03        -1.52968    -676.087E-03        -11.7045     335.327E-03    -167.512E-03    -167.815E-03    -167.718E-03     335.327E-03    -167.609E-03     47.6704E-06    -150.667E+06    -153.781E+06    -318.756E+06    -152.332E+06    -318.749E+06    -152.124E+06     393.341E+03         46.8082
              62     325.106E-09     21.9853E-03         4.64140     58.9820E-03        -8.16984     133.051E-03        -3.66149     58.9820E-03        -12.1407     335.582E-03    -167.638E-03    -167.945E-03    -167.638E-03     335.582E-03    -167.945E-03    -102.070E-06    -150.533E+06    -152.662E+06    -317.893E+06    -151.215E+06    -317.884E+06    -151.990E+06     464.125E+03         46.7544
              63    -669.502E-09     20.5864E-03         4.21438     615.417E-03        -8.53965     886.593E-03        -5.21186     615.417E-03        -11.1620     334.870E-03    -167.283E-03    -167.587E-03    -167.283E-03     334.870E-03    -167.587E-03    -107.811E-06    -150.795E+06    -151.558E+06    -318.036E+06    -151.486E+06    -318.017E+06    -150.885E+06    -158.109E+03         46.6384
              64     511.159E-09     19.1914E-03         3.69175         1.19902        -8.87300         1.41216        -6.59340         1.19902        -9.54747     332.911E-03    -166.376E-03    -166.535E-03    -166.441E-03     332.911E-03    -166.470E-03    -86.4790E-06    -151.393E+06    -152.210E+06    -318.061E+06    -151.408E+06    -318.046E+06    -152.210E+06    -352.959E+03         46.4437
              65    -406.477E-09     17.7980E-03         3.36509         1.70647        -9.35767         2.16245        -8.15502         1.70647        -7.29028     328.793E-03    -164.308E-03    -164.484E-03    -164.483E-03     328.792E-03    -164.308E-03    -1.00212E-03    -150.642E+06    -152.593E+06    -317.789E+06    -151.874E+06    -317.780E+06    -151.369E+06        -488.188         46.1603
              66     612.501E-09     16.4160E-03         3.77452         2.83727        -11.1513         3.34323        -10.7200         2.83727        -4.04723     322.134E-03    -160.945E-03    -161.189E-03    -161.187E-03     322.132E-03    -160.945E-03    -2.08013E-03    -150.803E+06    -153.215E+06    -317.295E+06    -152.031E+06    -317.291E+06    -151.991E+06    -497.224E+03         45.7917
              67    -395.904E-09     15.0414E-03         4.37258         3.90985        -12.9987         4.34486        -12.9710         3.90985    -395.388E-03     313.207E-03    -156.503E-03    -156.704E-03    -156.632E-03     313.202E-03    -156.570E-03    -2.91882E-03    -151.844E+06    -153.515E+06    -316.773E+06    -152.329E+06    -316.771E+06    -153.033E+06     557.319E+03         45.3627
              68     289.053E-09     13.6822E-03         5.17013         4.90727        -15.0126         5.11561        -14.9581         4.90727         1.92459     302.079E-03    -150.892E-03    -151.188E-03    -151.112E-03     302.071E-03    -150.959E-03    -3.87692E-03    -152.931E+06    -153.587E+06    -314.819E+06    -153.416E+06    -314.817E+06    -153.104E+06     568.448E+03         44.9227
              69     102.051E-09     12.3398E-03         6.48357         6.09943        -17.7160         6.33243        -17.5648         6.09943         3.77542     290.177E-03    -144.857E-03    -145.320E-03    -145.308E-03     290.165E-03    -144.857E-03    -4.53227E-03    -154.635E+06    -155.313E+06    -314.301E+06    -155.148E+06    -314.292E+06    -154.809E+06    -742.887E+03         44.5413
              70     301.941E-09     11.0132E-03         7.15056         6.59177        -18.9477         6.82493        -18.6221         6.59177         5.68437     280.591E-03    -140.043E-03    -140.548E-03    -140.537E-03     280.581E-03    -140.043E-03    -4.17979E-03    -156.193E+06    -157.126E+06    -317.268E+06    -156.705E+06    -317.259E+06    -156.623E+06    -862.084E+03         44.2946
              71     158.639E-09     9.69628E-03         7.29814         6.68339        -19.3185         6.79074        -18.8111         6.68339         7.27074     276.789E-03    -138.225E-03    -138.564E-03    -138.558E-03     276.783E-03    -138.225E-03    -3.00582E-03    -152.470E+06    -154.040E+06    -320.152E+06    -153.627E+06    -320.135E+06    -152.900E+06    -1.21296E+06         44.2480
              72    -25.9168E-09     8.38055E-03         7.90139         6.94346        -20.3485         7.18969        -19.6368         6.94346         8.82148     280.991E-03    -140.397E-03    -140.594E-03    -140.592E-03     280.989E-03    -140.397E-03    -1.39609E-03    -146.430E+06    -148.465E+06    -324.318E+06    -147.588E+06    -324.301E+06    -147.325E+06    -1.03740E+06         44.4419
              73     252.365E-09     7.05155E-03         8.46538         7.31322        -21.3260         7.43366        -20.2942         7.31322         10.8598     293.590E-03    -146.516E-03    -147.074E-03    -146.643E-03     293.589E-03    -146.946E-03     897.907E-06    -133.060E+06    -134.117E+06    -322.203E+06    -133.079E+06    -322.183E+06    -134.117E+06     1.53314E+06         44.8855
              74    -967.872E-09     5.70102E-03         9.12453         8.11164        -22.8761         7.97268        -21.7243         8.11164         11.9055     312.964E-03    -155.780E-03    -157.184E-03    -156.752E-03     312.962E-03    -156.210E-03     1.54920E-03    -114.676E+06    -115.416E+06    -313.737E+06    -115.291E+06    -313.700E+06    -114.839E+06     2.72170E+06         45.5639
              75     2.66196E-06     4.32123E-03         10.4846         9.86981        -26.1805         9.47285        -25.1687         9.86981         11.9689     336.682E-03    -167.558E-03    -169.124E-03    -169.113E-03     336.671E-03    -167.558E-03     3.91738E-03    -97.3625E+06    -98.5106E+06    -301.073E+06    -97.9790E+06    -301.034E+06    -97.9330E+06     2.80740E+06         46.4598
              76    -1.64734E-06     2.89850E-03         11.6303         10.9153        -28.4120         10.4291        -27.7193         11.4238         10.2159     358.447E-03    -178.067E-03    -180.380E-03    -178.646E-03     358.433E-03    -179.787E-03     5.13461E-03    -86.5710E+06    -87.3364E+06    -289.302E+06    -86.5997E+06    -289.273E+06    -87.3364E+06     2.34713E+06         47.5866
              77    -1.21883E-06     1.45514E-03         10.3634         9.21989        -25.4357         8.92982        -25.1456         10.3634         6.13301     371.861E-03    -185.027E-03    -186.835E-03    -185.024E-03     371.858E-03    -186.835E-03     2.39976E-03    -80.6732E+06    -81.3220E+06    -281.992E+06    -81.1373E+06    -281.982E+06    -80.8681E+06     1.36211E+06         49.0190
              78     827.562E-06     180.411E-18         8.87513         7.99905        -22.7455         8.17816        -22.6835         8.63400         1.71673     375.554E-03    -187.578E-03    -187.976E-03    -187.574E-03     375.550E-03    -187.976E-03     2.66833E-03    -76.9728E+06    -78.4935E+06    -279.398E+06    -78.4969E+06    -279.394E+06    -76.9728E+06     814.014E+03         49.7888
              79     1.65596E-03     180.411E-18         9.39734         8.59983        -23.9501         9.38680        -23.9396         8.59983     633.214E-03     372.350E-03    -185.094E-03    -187.255E-03    -185.090E-03     372.345E-03    -187.255E-03     3.17826E-03    -75.0431E+06    -78.1867E+06    -279.222E+06    -78.1950E+06    -279.214E+06    -75.0431E+06     1.19326E+06         49.6874
              80     2.48933E-03     180.411E-18         9.86416         8.94517        -24.8679         9.85134        -24.8551         8.94517         1.27723     365.920E-03    -180.115E-03    -185.804E-03    -180.110E-03     365.914E-03    -185.804E-03     3.38849E-03    -70.2765E+06    -77.7524E+06    -279.490E+06    -77.7771E+06    -279.465E+06    -70.2765E+06     2.17998E+06         49.5354
              81     3.32542E-03     180.411E-18         9.72479         9.16448        -25.0072         9.71921        -25.0017         9.16448     880.870E-03     357.592E-03    -173.926E-03    -183.666E-03    -173.914E-03     357.579E-03    -183.666E-03     5.05222E-03    -65.7634E+06    -77.4397E+06    -273.465E+06    -77.4579E+06    -273.446E+06    -65.7634E+06     1.58604E+06         49.3475
              82     4.16854E-03     180.411E-18         9.49620         9.25733        -24.8802         9.49348        -24.8775         9.25733     459.468E-03     348.256E-03    -167.212E-03    -181.044E-03    -167.195E-03     348.239E-03    -181.044E-03     5.86576E-03    -64.3628E+06    -76.0280E+06    -252.953E+06    -76.0306E+06    -252.950E+06    -64.3628E+06     646.686E+03         49.1463
              83     5.01825E-03     180.411E-18         9.30435         9.00990        -24.4289         9.05094        -24.4287         9.26319     114.632E-03     338.951E-03    -160.787E-03    -178.163E-03    -160.769E-03     338.933E-03    -178.163E-03     6.01274E-03    -64.1114E+06    -73.8352E+06    -225.792E+06    -73.8503E+06    -225.776E+06    -64.1114E+06    -567.347E+03         48.9617
              84     5.87231E-03     180.411E-18         9.17943         8.27057        -23.5735         8.27035        -23.5733         9.17943     8.72204E-03     330.666E-03    -155.430E-03    -175.236E-03    -155.407E-03     330.642E-03    -175.236E-03     6.71456E-03    -63.6445E+06    -70.3928E+06    -195.448E+06    -70.4565E+06    -195.384E+06    -63.6445E+06    -2.63232E+06         48.8354
              85     6.73062E-03     180.411E-18         9.02118         7.57231        -22.7449         7.57208        -22.7447         9.02118    -167.858E-03     323.921E-03    -151.490E-03    -172.431E-03    -151.458E-03     323.889E-03    -172.431E-03     7.75387E-03    -62.9865E+06    -65.5808E+06    -160.148E+06    -65.6148E+06    -159.932E+06    -63.1682E+06    -4.21477E+06         48.8265
              86     7.59192E-03     180.411E-18         8.83589         7.19575        -22.2228         7.19553        -22.2225         8.83589    -15.0080E-03     319.029E-03    -149.154E-03    -169.875E-03    -149.116E-03     318.991E-03    -169.875E-03     8.42575E-03    -57.6004E+06    -63.0057E+06    -119.816E+06    -58.6834E+06    -118.733E+06    -63.0057E+06    -7.03337E+06         49.0147
              87     8.45445E-03     180.411E-18         8.65518         6.93327        -21.8135         6.93310        -21.8133         8.65518     6.33640E-03     316.593E-03    -148.917E-03    -167.675E-03    -148.866E-03     316.541E-03    -167.675E-03     9.71123E-03    -42.0136E+06    -57.5480E+06    -79.9563E+06    -48.9532E+06    -68.2612E+06    -62.3036E+06    -9.57117E+06         49.4989
              88     9.31564E-03     180.411E-18         8.48629         6.73065        -21.4739         6.73055        -21.4738         8.48629    -30.6849E-03     314.917E-03    -149.049E-03    -165.869E-03    -148.992E-03     314.861E-03    -165.869E-03     10.2192E-03     207.906E+03    -42.8808E+06    -57.1496E+06    -38.2478E+06    -4.42506E+06    -57.1496E+06    -8.42264E+06         50.3885
              89     10.1759E-03     180.411E-18         8.32739         6.49203        -21.1287         6.49195        -21.1287         8.32739     90.5180E-03     312.245E-03    -147.804E-03    -164.441E-03    -147.741E-03     312.182E-03    -164.441E-03     10.7667E-03     41.1146E+06    -25.5330E+06    -40.1368E+06    -30.2035E+06     40.6946E+06    -35.0463E+06    -5.05908E+06         51.7768
              90     11.0415E-03     180.411E-18         8.16994         6.13081        -20.6936         6.13070        -20.6935         8.16994     111.524E-03     310.276E-03    -146.982E-03    -163.294E-03    -146.929E-03     310.223E-03    -163.294E-03     9.60826E-03     57.6042E+06     971.064E+03    -26.4008E+06    -26.3236E+06     57.5270E+06     971.064E+03    -1.48092E+06         53.6949
              91     11.9064E-03     180.411E-18         8.00928         5.77197        -20.2632         5.77110        -20.2623         8.00928    -146.806E-03     312.821E-03    -150.384E-03    -162.437E-03    -150.346E-03     312.783E-03    -162.437E-03     8.35569E-03     71.4268E+06     36.4180E+06    -23.6364E+06    -23.6251E+06     71.4154E+06     36.4180E+06      949.09E+03         56.0579
              92     12.7672E-03     180.411E-18         7.84849         5.46258        -19.8765         5.46115        -19.8751         7.84849    -380.793E-03     324.578E-03    -158.055E-03    -166.523E-03    -162.184E-03     324.414E-03    -162.230E-03     16.5687E-03     83.0651E+06     68.5356E+06    -22.4743E+06    -22.2542E+06     80.5607E+06     70.8199E+06     4.04778E+06         58.6366
              93     13.5980E-03     180.411E-18         7.69014         5.14379        -19.4878         5.14249        -19.4865         7.69014    -358.862E-03     343.740E-03    -162.979E-03    -180.761E-03    -179.838E-03     342.817E-03    -162.979E-03     41.0758E-03     102.111E+06     87.1769E+06    -21.7314E+06    -21.4875E+06     86.9330E+06     102.111E+06     4.71154E+06         61.1083
              94     14.4088E-03     180.411E-18         7.53717         4.91924        -19.2519         4.91757        -19.2502         7.53717    -400.239E-03     368.823E-03    -164.814E-03    -204.009E-03    -202.020E-03     366.833E-03    -164.814E-03     67.1616E-03     142.599E+06     107.343E+06    -6.47137E+06    -6.33848E+06     107.210E+06     142.599E+06    -1.02047E+06         63.1626
              95     15.2623E-03     1.49417E-03         7.41615         4.82435        -18.9217         4.82124        -18.9186         7.41615    -533.452E-03     375.685E-03    -165.113E-03    -210.572E-03    -208.996E-03     374.108E-03    -165.113E-03     58.5477E-03     160.008E+06     115.216E+06    -4.02663E+06    -3.91862E+06     115.108E+06     160.008E+06    -1.64961E+06         63.5239
              96     15.2886E-03     2.93050E-03         7.27960         4.70841        -18.4326         4.70623        -18.4304         7.27960    -367.774E-03     355.071E-03    -164.022E-03    -191.049E-03    -190.440E-03     354.462E-03    -164.022E-03     36.3189E-03     157.807E+06     111.844E+06    -10.0498E+06    -10.0405E+06     111.835E+06     157.807E+06     633.025E+03         62.7764
              97     15.2948E-03     4.33249E-03         7.06110         4.60746        -18.0684         4.60732        -18.0682         7.06110    -112.374E-03     341.169E-03    -163.734E-03    -177.436E-03    -177.079E-03     340.813E-03    -163.734E-03     26.7765E-03     163.917E+06     116.381E+06    -4.44491E+06    -4.44302E+06     116.379E+06     163.917E+06    -431.143E+03         62.4761
              98     15.2958E-03     5.74184E-03         6.76752         4.59238        -17.7295         4.59227        -17.7294         6.76752    -95.9314E-03     339.693E-03    -163.627E-03    -176.065E-03    -175.792E-03     339.419E-03    -163.627E-03     23.6949E-03     163.122E+06     115.793E+06    -3.95331E+06    -3.95030E+06     115.790E+06     163.122E+06    -598.896E+03         62.3553
              99     15.2957E-03     7.14714E-03         6.41303         4.48395        -17.2004         4.48392        -17.2003         6.41303    -25.0996E-03     338.264E-03    -163.661E-03    -174.603E-03    -174.282E-03     337.942E-03    -163.661E-03     25.6619E-03     161.626E+06     114.975E+06    -4.25875E+06    -4.25607E+06     114.972E+06     161.626E+06    -565.770E+03         62.2672
             100     15.2951E-03     8.55385E-03         6.01796         4.26935        -16.3906         4.26850        -16.3897         6.01796    -174.057E-03     336.068E-03    -163.744E-03    -172.323E-03    -171.923E-03     335.668E-03    -163.744E-03     28.3881E-03     160.166E+06     114.570E+06    -4.42000E+06    -4.41849E+06     114.568E+06     160.166E+06    -190.707E+03         62.1584
             101     15.2950E-03     9.94983E-03         5.58190         4.10942        -15.4705         4.10637        -15.4674         5.58190    -473.745E-03     334.255E-03    -163.810E-03    -170.445E-03    -169.978E-03     333.788E-03    -163.810E-03     30.6911E-03     159.492E+06     114.809E+06    -4.19856E+06    -4.19823E+06     114.809E+06     159.492E+06     196.997E+03         62.0229
             102     15.2949E-03     11.3493E-03         5.08387         3.93386        -14.4897         3.92721        -14.4831         5.08387    -687.149E-03     332.832E-03    -163.854E-03    -168.978E-03    -168.463E-03     332.317E-03    -163.854E-03     32.0880E-03     158.823E+06     114.671E+06    -4.44399E+06    -4.44376E+06     114.671E+06     158.823E+06     158.757E+03         61.8696
             103     15.2948E-03     12.7438E-03         4.51353         3.69199        -13.4887         3.67441        -13.4711         4.51353        -1.05713     330.785E-03    -163.914E-03    -166.871E-03    -166.303E-03     330.217E-03    -163.914E-03     33.6202E-03     159.446E+06     115.484E+06    -3.82993E+06    -3.82924E+06     115.483E+06     159.446E+06     250.005E+03         61.7095
             104     15.2952E-03     14.1346E-03         3.89188         3.56408        -12.6248         3.52877        -12.5894         3.89188        -1.49525     329.396E-03    -163.951E-03    -165.445E-03    -164.835E-03     328.786E-03    -163.951E-03     34.7057E-03     159.306E+06     115.469E+06    -4.12038E+06    -4.11905E+06     115.468E+06     159.306E+06    -10.2682E+03         61.5538
             105     15.2947E-03     15.5241E-03         3.47857         3.25209        -11.7849         3.41522        -11.7303         3.26083        -1.81073     328.690E-03    -163.971E-03    -164.719E-03    -164.113E-03     328.084E-03    -163.971E-03     34.5400E-03     158.691E+06     114.988E+06    -4.78433E+06    -4.78184E+06     114.985E+06     158.691E+06     122.890E+03         61.4103
             106     15.2952E-03     16.9135E-03         3.37292         2.64936        -10.9104         3.28814        -10.8256         2.64936        -2.17458     327.878E-03    -163.806E-03    -164.073E-03    -163.248E-03     327.243E-03    -163.996E-03     35.2575E-03     159.404E+06     115.751E+06    -4.13560E+06    -4.13380E+06     115.749E+06     159.404E+06     354.276E+03         61.2849
             107     15.2947E-03     18.3013E-03         3.27994         2.07009        -10.0371         3.17133        -9.92852         2.07009        -2.39367     326.620E-03    -162.587E-03    -164.034E-03    -161.958E-03     325.992E-03    -164.034E-03     34.9768E-03     159.059E+06     115.592E+06    -4.39329E+06    -4.39202E+06     115.591E+06     159.059E+06     302.038E+03         61.1810
             108     15.2949E-03     19.6863E-03         3.03600         1.54611        -9.00854         2.90539        -8.87793         1.54611        -2.48214     324.464E-03    -160.370E-03    -164.094E-03    -159.747E-03     323.841E-03    -164.094E-03     34.6627E-03     158.300E+06     114.932E+06    -5.05975E+06    -5.05849E+06     114.931E+06     158.300E+06     262.513E+03         61.1008
             109     15.2950E-03     21.0669E-03         2.82135         1.09074        -7.93060         2.64859        -7.75784         1.09074        -2.69099     323.942E-03    -159.834E-03    -164.108E-03    -159.174E-03     323.281E-03    -164.108E-03     35.7014E-03     159.190E+06     115.809E+06    -4.21153E+06    -4.21040E+06     115.807E+06     159.190E+06    -273.089E+03         61.0467
             110     15.2949E-03     22.4502E-03         2.65798     686.002E-03        -6.89471         2.44352        -6.68025     686.002E-03        -2.82208     324.108E-03    -160.007E-03    -164.101E-03    -159.426E-03     323.527E-03    -164.101E-03     33.5028E-03     158.846E+06     115.543E+06    -4.52799E+06    -4.52658E+06     115.542E+06     158.846E+06    -391.919E+03         61.0164
             111     15.2948E-03     23.8314E-03         2.39596     309.377E-03        -5.85401         2.13223        -5.59028     309.377E-03        -2.88699     323.477E-03    -159.361E-03    -164.116E-03    -158.762E-03     322.879E-03    -164.116E-03     33.9329E-03     158.766E+06     115.481E+06    -4.55324E+06    -4.55096E+06     115.478E+06     158.766E+06     214.488E+03         61.0068
             112     15.2953E-03     25.2158E-03         2.09978    -35.3769E-03        -4.89499         1.77744        -4.57266    -35.3769E-03        -2.92169     323.843E-03    -159.737E-03    -164.106E-03    -159.087E-03     323.193E-03    -164.106E-03     35.4215E-03     158.855E+06     115.616E+06    -4.39400E+06    -4.39103E+06     115.613E+06     158.855E+06     103.162E+03         61.0174
             113     15.2946E-03     26.5978E-03         1.91464    -317.403E-03        -4.13043         1.49904        -3.71482    -317.403E-03        -3.03792     323.750E-03    -159.635E-03    -164.116E-03    -159.031E-03     323.147E-03    -164.116E-03     34.1308E-03     157.852E+06     114.999E+06    -5.03496E+06    -5.03267E+06     114.997E+06     157.852E+06     38.5195E+03         61.0436
             114     15.2948E-03     27.9790E-03         1.98610    -533.019E-03        -3.66412         1.45411        -3.13212    -533.019E-03        -3.29513     322.816E-03    -158.675E-03    -164.141E-03    -158.070E-03     322.211E-03    -164.141E-03     34.1105E-03     158.254E+06     115.581E+06    -4.52348E+06    -4.52173E+06     115.579E+06     158.254E+06     442.344E+03         61.0822
             115     15.2952E-03     29.3591E-03         2.02126    -713.564E-03        -3.23590         1.45650        -2.67114    -713.564E-03        -3.25509     324.154E-03    -160.055E-03    -164.099E-03    -159.407E-03     323.506E-03    -164.099E-03     35.4075E-03     158.787E+06     116.161E+06    -4.09542E+06    -4.09014E+06     116.156E+06     158.787E+06    -378.769E+03         61.1301
             116     15.2945E-03     30.7456E-03         1.69605    -852.718E-03        -2.43908         1.02065        -1.76368    -852.718E-03        -2.97963     325.870E-03    -161.816E-03    -164.055E-03    -161.189E-03     325.243E-03    -164.055E-03     34.9415E-03     157.650E+06     115.294E+06    -5.10358E+06    -5.09551E+06     115.285E+06     157.650E+06    -98.7215E+03         61.1804
             117     15.2949E-03     32.1321E-03         1.59416    -913.875E-03        -1.77974     409.532E-03    -595.113E-03    -913.875E-03        -3.12031     325.567E-03    -161.497E-03    -164.071E-03    -160.840E-03     324.910E-03    -164.071E-03     35.7190E-03     158.155E+06     115.918E+06    -4.50742E+06    -4.50334E+06     115.914E+06     158.155E+06     215.596E+03         61.2290
             118     15.2946E-03     33.5163E-03         1.91812    -884.764E-03        -1.52844     82.9902E-03     306.692E-03    -884.764E-03        -3.40759     325.592E-03    -161.519E-03    -164.073E-03    -160.834E-03     324.907E-03    -164.073E-03     36.4995E-03     157.951E+06     116.065E+06    -4.30962E+06    -4.30654E+06     116.062E+06     157.951E+06     141.138E+03         61.2762
             119     15.2948E-03     34.9007E-03         2.28258    -801.085E-03        -1.45221    -75.2243E-03     905.602E-03    -801.085E-03        -3.59578     325.902E-03    -161.841E-03    -164.061E-03    -161.190E-03     325.251E-03    -164.061E-03     35.6105E-03     156.659E+06     115.089E+06    -4.98569E+06    -4.98271E+06     115.086E+06     156.659E+06     155.983E+03         61.3215
             120     15.2946E-03     36.2866E-03         2.55536    -710.621E-03        -1.45861    -251.474E-03         1.34823    -710.621E-03        -3.66615     325.855E-03    -161.795E-03    -164.060E-03    -161.144E-03     325.204E-03    -164.060E-03     35.6058E-03     156.438E+06     114.945E+06    -4.50656E+06    -4.50580E+06     114.945E+06     156.438E+06    -246.241E+03         61.3649
             121     15.2947E-03     37.6713E-03         2.92446    -628.767E-03        -1.55532    -528.977E-03         1.89812    -628.767E-03        -3.75090     326.155E-03    -162.106E-03    -164.048E-03    -161.444E-03     325.493E-03    -164.048E-03     35.9424E-03     156.380E+06     115.041E+06    -4.44232E+06    -4.44079E+06     115.040E+06     156.380E+06     264.739E+03         61.4080
             122     15.2949E-03     39.0578E-03         3.34758    -573.994E-03        -1.80667    -779.662E-03         2.32057    -573.994E-03        -4.11758     326.497E-03    -162.462E-03    -164.034E-03    -161.806E-03     325.840E-03    -164.034E-03     35.8102E-03     156.823E+06     115.602E+06    -4.43234E+06    -4.43084E+06     115.601E+06     156.823E+06     315.359E+03         61.4513
             123     15.2948E-03     40.4439E-03         3.51088    -536.709E-03        -1.96541    -881.132E-03         2.42660    -536.709E-03        -4.36446     326.395E-03    -162.357E-03    -164.038E-03    -161.717E-03     325.756E-03    -164.038E-03     35.3302E-03     156.560E+06     115.149E+06    -4.78794E+06    -4.78686E+06     115.147E+06     156.560E+06    -239.609E+03         61.4943
             124     15.2947E-03     41.8295E-03         3.63067    -483.871E-03        -2.07346    -834.183E-03         2.39140    -483.871E-03        -4.69753     326.401E-03    -162.357E-03    -164.044E-03    -161.709E-03     325.753E-03    -164.044E-03     35.5728E-03     156.337E+06     114.396E+06    -4.51639E+06    -4.51469E+06     114.394E+06     156.337E+06    -445.315E+03         61.5376
             125     15.2947E-03     43.2160E-03         3.67502    -427.282E-03        -2.02690    -672.886E-03         2.32101    -427.282E-03        -4.85259     326.629E-03    -162.591E-03    -164.038E-03    -161.934E-03     325.972E-03    -164.038E-03     35.8192E-03     155.712E+06     112.784E+06    -4.04438E+06    -4.04351E+06     112.783E+06     155.712E+06    -309.844E+03         61.5809
             126     15.2947E-03     44.6029E-03         3.81015    -391.802E-03        -1.99868    -822.464E-03         2.63393    -391.802E-03        -4.64027     326.527E-03    -162.484E-03    -164.043E-03    -161.836E-03     325.879E-03    -164.043E-03     35.5954E-03     156.582E+06     113.281E+06    -3.38714E+06    -3.38498E+06     113.278E+06     156.582E+06     216.554E+03         61.6224
             127     15.2948E-03     45.9873E-03         4.29129    -395.671E-03        -2.38987        -1.23999         3.14141    -395.671E-03        -5.04361     326.609E-03    -162.573E-03    -164.037E-03    -161.934E-03     325.971E-03    -164.037E-03     35.3235E-03     157.189E+06     114.993E+06    -4.75970E+06    -4.75559E+06     114.989E+06     157.189E+06     701.240E+03         61.6623
             128     15.2951E-03     47.3744E-03         4.54426    -438.415E-03        -2.59345        -1.14189         3.09270    -438.415E-03        -5.72302     326.735E-03    -162.705E-03    -164.030E-03    -162.088E-03     326.118E-03    -164.030E-03     34.7282E-03     158.545E+06     116.818E+06    -4.68441E+06    -4.68180E+06     116.816E+06     158.545E+06     206.186E+03         61.7019
             129     15.2948E-03     48.7614E-03         4.46343    -516.366E-03        -2.46339    -810.760E-03         2.81080    -516.366E-03        -5.90389     326.743E-03    -162.713E-03    -164.030E-03    -162.092E-03     326.122E-03    -164.030E-03     34.8345E-03     159.299E+06     117.032E+06    -4.43404E+06    -4.43187E+06     117.030E+06     159.299E+06     166.879E+03         61.7432
             130     15.2952E-03     50.1463E-03         4.46763    -657.312E-03        -2.48491    -746.124E-03         2.72884    -657.312E-03        -6.02119     326.974E-03    -162.952E-03    -164.023E-03    -162.346E-03     326.369E-03    -164.023E-03     34.4228E-03     159.327E+06     116.915E+06    -4.80156E+06    -4.79918E+06     116.913E+06     159.327E+06     129.853E+03         61.7881
             131     15.2948E-03     51.5353E-03         4.55933    -854.677E-03        -2.63522    -827.778E-03         2.75189    -854.677E-03        -6.24041     326.746E-03    -162.713E-03    -164.033E-03    -162.106E-03     326.139E-03    -164.033E-03     34.4261E-03     159.465E+06     117.035E+06    -4.52231E+06    -4.52134E+06     117.034E+06     159.465E+06    -54.2358E+03         61.8350
             132     15.2950E-03     52.9212E-03         4.68160        -1.04158        -2.87861    -909.474E-03         2.71247        -1.04158        -6.63238     326.404E-03    -162.361E-03    -164.043E-03    -161.717E-03     325.760E-03    -164.043E-03     35.4662E-03     158.738E+06     116.071E+06    -5.03710E+06    -5.03667E+06     116.071E+06     158.738E+06     68.4445E+03         61.8834
             133     15.2950E-03     54.3067E-03         4.72177        -1.16421        -3.01499    -590.588E-03         2.29737        -1.16421        -7.14549     326.666E-03    -162.630E-03    -164.036E-03    -161.982E-03     326.018E-03    -164.036E-03     35.6004E-03     159.108E+06     116.221E+06    -4.44955E+06    -4.44939E+06     116.221E+06     159.108E+06    -138.879E+03         61.9320
             134     15.2949E-03     55.6949E-03         4.53497        -1.22898        -2.87688    -149.527E-03         1.80762        -1.22898        -7.14544     326.819E-03    -162.786E-03    -164.034E-03    -162.125E-03     326.158E-03    -164.034E-03     35.9541E-03     158.833E+06     115.984E+06    -4.46403E+06    -4.46396E+06     115.984E+06     158.833E+06    -43.9704E+03         61.9788
             135     15.2950E-03     57.0809E-03         4.32934        -1.26978        -2.78266    -151.650E-03         1.69833        -1.26978        -6.86456     326.756E-03    -162.720E-03    -164.035E-03    -162.045E-03     326.080E-03    -164.035E-03     36.3466E-03     158.638E+06     115.966E+06    -4.49629E+06    -4.49579E+06     115.966E+06     158.638E+06     193.936E+03         62.0245
             136     15.2949E-03     58.4675E-03         4.33482        -1.27428        -2.99374    -405.228E-03         1.74631        -1.27428        -7.00538     326.847E-03    -162.814E-03    -164.034E-03    -162.149E-03     326.183E-03    -164.034E-03     36.0462E-03     158.550E+06     115.989E+06    -4.57127E+06    -4.57038E+06     115.988E+06     158.550E+06     18.3690E+03         62.0700
             137     15.2949E-03     59.8537E-03         4.40466        -1.19412        -3.24809    -327.491E-03         1.48407        -1.19412        -7.41848     326.910E-03    -162.875E-03    -164.035E-03    -162.225E-03     326.260E-03    -164.035E-03     35.6655E-03     158.412E+06     115.757E+06    -4.55625E+06    -4.55579E+06     115.756E+06     158.412E+06    -91.0841E+03         62.1161
             138     15.2949E-03     61.2405E-03         4.26912        -1.02968        -3.26341     63.9217E-03     941.789E-03        -1.02968        -7.46779     326.839E-03    -162.802E-03    -164.037E-03    -162.149E-03     326.186E-03    -164.037E-03     35.7371E-03     158.568E+06     115.803E+06    -4.38720E+06    -4.38713E+06     115.803E+06     158.568E+06     54.1461E+03         62.1631
             139     15.2950E-03     62.6275E-03         4.01288    -842.030E-03        -3.25579     215.462E-03     541.627E-03    -842.030E-03        -7.26090     326.705E-03    -162.668E-03    -164.038E-03    -162.000E-03     326.038E-03    -164.038E-03     36.1245E-03     158.364E+06     115.706E+06    -4.50878E+06    -4.50877E+06     115.706E+06     158.364E+06    -29.4312E+03         62.2102
             140     15.2949E-03     64.0141E-03         3.88899    -679.614E-03        -3.47179     191.487E-03     225.712E-03    -679.614E-03        -7.35773     326.676E-03    -162.637E-03    -164.039E-03    -161.959E-03     325.998E-03    -164.039E-03     36.3959E-03     158.485E+06     116.003E+06    -4.35621E+06    -4.35572E+06     116.002E+06     158.485E+06     149.188E+03         62.2572
             141     15.2950E-03     65.4000E-03         3.80034    -531.927E-03        -3.72792     295.016E-03    -222.594E-03    -531.927E-03        -7.50260     326.897E-03    -162.863E-03    -164.034E-03    -162.188E-03     326.222E-03    -164.034E-03     36.3460E-03     158.504E+06     116.306E+06    -4.44141E+06    -4.44080E+06     116.305E+06     158.504E+06     260.341E+03         62.3045
             142     15.2949E-03     66.7870E-03         3.60056    -358.016E-03        -3.85559     370.373E-03    -625.397E-03    -358.016E-03        -7.38788     326.927E-03    -162.896E-03    -164.031E-03    -162.235E-03     326.266E-03    -164.031E-03     35.9610E-03     158.698E+06     116.787E+06    -4.44898E+06    -4.44875E+06     116.786E+06     158.698E+06     166.041E+03         62.3518
             143     15.2951E-03     68.1735E-03         3.43899    -125.837E-03        -3.94679     314.771E-03    -822.569E-03    -125.837E-03        -7.29768     327.001E-03    -162.974E-03    -164.027E-03    -162.311E-03     326.338E-03    -164.027E-03     36.0217E-03     158.497E+06     116.667E+06    -4.50616E+06    -4.50534E+06     116.667E+06     158.497E+06    -134.375E+03         62.3995
             144     15.2949E-03     69.5601E-03         3.38203     167.735E-03        -4.01242     277.195E-03    -907.578E-03     167.735E-03        -7.29880     326.786E-03    -162.753E-03    -164.033E-03    -162.129E-03     326.162E-03    -164.033E-03     34.9208E-03     157.959E+06     116.342E+06    -4.56191E+06    -4.56076E+06     116.341E+06     157.959E+06    -50.5383E+03         62.4482
             145     15.2950E-03     70.9461E-03         3.35316     481.009E-03        -4.06509     259.934E-03    -971.861E-03     481.009E-03        -7.31527     326.043E-03    -161.988E-03    -164.055E-03    -161.373E-03     325.428E-03    -164.055E-03     34.6066E-03     158.131E+06     116.951E+06    -4.51012E+06    -4.50946E+06     116.951E+06     158.131E+06     280.722E+03         62.4999
             146     15.2950E-03     72.3306E-03         3.24645     759.876E-03        -4.13034     172.976E-03        -1.05686     759.876E-03        -7.27355     326.309E-03    -162.263E-03    -164.046E-03    -161.628E-03     325.673E-03    -164.046E-03     35.2191E-03     158.545E+06     117.954E+06    -4.49868E+06    -4.49842E+06     117.953E+06     158.545E+06     84.9631E+03         62.5566
             147     15.2950E-03     73.7179E-03         3.16110     994.317E-03        -4.34214     28.7147E-03        -1.20975     994.317E-03        -7.40030     326.956E-03    -162.929E-03    -164.027E-03    -162.292E-03     326.319E-03    -164.027E-03     35.2770E-03     158.927E+06     118.835E+06    -4.52650E+06    -4.52642E+06     118.835E+06     158.927E+06     21.7087E+03         62.6154
             148     15.2951E-03     75.1061E-03         3.19417         1.20662        -4.66806     100.380E-03        -1.57427         1.20662        -7.67171     326.848E-03    -162.817E-03    -164.031E-03    -162.153E-03     326.184E-03    -164.031E-03     36.0389E-03     159.293E+06     119.661E+06    -4.39861E+06    -4.39769E+06     119.660E+06     159.293E+06      290.81E+03         62.6730
             149     15.2951E-03     77.8778E-03         3.08164         1.52410        -5.14425     522.554E-03        -2.58516         1.52410        -7.61348     326.790E-03    -162.757E-03    -164.032E-03    -162.096E-03     326.129E-03    -164.032E-03     35.9569E-03     159.643E+06     121.086E+06    -4.67797E+06    -4.67727E+06     121.085E+06     159.643E+06     291.120E+03         62.7864
             150     15.2951E-03     79.2655E-03         2.94737         1.61021        -5.36804     549.943E-03        -2.97061         1.61021        -7.53063     326.729E-03    -162.697E-03    -164.032E-03    -162.041E-03     326.073E-03    -164.032E-03     35.8211E-03     159.837E+06     121.944E+06    -4.43548E+06    -4.43468E+06     121.943E+06     159.837E+06     308.109E+03         62.8437
             151     15.2951E-03     80.6512E-03         2.93575         1.69010        -5.56756     646.956E-03        -3.27877         1.69010        -7.54128     326.616E-03    -162.580E-03    -164.035E-03    -161.913E-03     325.949E-03    -164.035E-03     36.1017E-03     160.284E+06     123.287E+06    -4.68360E+06    -4.68302E+06     123.286E+06     160.284E+06     194.598E+03         62.9017
             152     15.2951E-03     82.0380E-03         2.94689         1.76266        -5.67088     817.420E-03        -3.54141         1.76266        -7.42888     326.769E-03    -162.738E-03    -164.031E-03    -162.072E-03     326.103E-03    -164.031E-03     36.0820E-03     160.898E+06     124.549E+06    -4.45284E+06    -4.45113E+06     124.548E+06     160.898E+06     335.657E+03         62.9612
             153     15.2952E-03     83.4246E-03         2.87065         1.79069        -5.68505     892.430E-03        -3.70683         1.79069        -7.21424     326.725E-03    -162.693E-03    -164.032E-03    -162.034E-03     326.066E-03    -164.032E-03     35.8782E-03     161.347E+06     125.968E+06    -4.62035E+06    -4.61800E+06     125.966E+06     161.347E+06     538.500E+03         63.0216
             154     15.2952E-03     84.8108E-03         2.79965         1.75566        -5.80422     847.665E-03        -3.85223         1.75566        -7.20662     326.549E-03    -162.512E-03    -164.036E-03    -161.855E-03     325.892E-03    -164.036E-03     35.8238E-03     161.834E+06     127.415E+06    -4.74811E+06    -4.74745E+06     127.415E+06     161.834E+06     180.699E+03         63.0826
             155     15.2952E-03     86.1971E-03         2.89061         1.68064        -6.04932         1.02969        -4.18840         1.68064        -7.25047     326.618E-03    -162.584E-03    -164.034E-03    -161.915E-03     325.949E-03    -164.034E-03     36.1695E-03     162.594E+06     128.821E+06    -4.44225E+06    -4.43903E+06     128.817E+06     162.594E+06     437.615E+03         63.1448
             156     15.2953E-03     87.5842E-03         2.91810         1.59229        -6.12870         1.24398        -4.45457         1.59229        -7.02428     326.785E-03    -162.755E-03    -164.030E-03    -162.080E-03     326.110E-03    -164.030E-03     36.3213E-03     163.560E+06     130.507E+06    -4.79023E+06    -4.78637E+06     130.503E+06     163.560E+06     673.699E+03         63.2081
             157     15.2953E-03     88.9704E-03         2.91162         1.47903        -6.09398         1.35637        -4.53872         1.47903        -6.80706     326.660E-03    -162.630E-03    -164.031E-03    -161.965E-03     325.995E-03    -164.031E-03     36.0477E-03     164.328E+06     131.863E+06    -4.67878E+06    -4.67661E+06     131.861E+06     164.328E+06     533.106E+03         63.2726
             158     15.2955E-03     90.3567E-03         2.84580         1.31959        -6.02603         1.41812        -4.59835         1.31959        -6.51775     326.504E-03    -162.474E-03    -164.030E-03    -161.808E-03     325.838E-03    -164.030E-03     36.0614E-03     165.053E+06     133.621E+06    -4.74788E+06    -4.74455E+06     133.618E+06     165.053E+06     677.888E+03         63.3384
             159     15.2955E-03     91.7430E-03         2.64937         1.14761        -5.91709         1.32839        -4.59610         1.14761        -6.18744     326.508E-03    -162.480E-03    -164.028E-03    -161.813E-03     325.841E-03    -164.028E-03     36.1007E-03     166.333E+06     136.277E+06    -4.96812E+06    -4.96500E+06     136.274E+06     166.333E+06     661.404E+03         63.4056
             160     15.2957E-03     93.1294E-03         2.65757         1.02650        -5.93941         1.40350        -4.68534         1.02650        -6.06527     326.573E-03    -162.549E-03    -164.025E-03    -161.880E-03     325.904E-03    -164.025E-03     36.1552E-03     167.485E+06     138.921E+06    -4.64199E+06    -4.63740E+06     138.917E+06     167.485E+06     792.363E+03         63.4741
             161     15.2955E-03     94.5160E-03         2.64281     981.484E-03        -5.81932         1.55256        -4.72908     981.484E-03        -5.66580     326.545E-03    -162.523E-03    -164.022E-03    -161.858E-03     325.880E-03    -164.022E-03     36.0329E-03     168.323E+06     141.679E+06    -4.76497E+06    -4.75900E+06     141.673E+06     168.323E+06     933.607E+03         63.5439
             162     15.2959E-03     95.9019E-03         2.50858     978.955E-03        -5.51900         1.51043        -4.52085     978.955E-03        -5.29659     326.331E-03    -162.311E-03    -164.020E-03    -161.652E-03     325.672E-03    -164.020E-03     35.8698E-03     169.207E+06     144.334E+06    -4.99885E+06    -4.99606E+06     144.331E+06     169.207E+06     525.805E+03         63.6152
             163     15.2959E-03     97.2878E-03         2.37380     968.806E-03        -5.33299         1.40291        -4.36210     968.806E-03        -5.11416     326.396E-03    -162.386E-03    -164.010E-03    -161.726E-03     325.736E-03    -164.010E-03     35.9053E-03     170.045E+06     146.833E+06    -4.77994E+06    -4.77703E+06     146.831E+06     170.045E+06     543.644E+03         63.6879
             164     15.2961E-03     98.6744E-03         2.19807     966.375E-03        -5.19361         1.28647        -4.28200     966.375E-03        -4.86096     326.621E-03    -162.624E-03    -163.997E-03    -161.958E-03     325.956E-03    -163.997E-03     36.0579E-03     171.318E+06     149.522E+06    -4.94902E+06    -4.94433E+06     149.517E+06     171.318E+06     847.386E+03         63.7614
             165     15.2963E-03     100.061E-03         2.20826         1.00325        -5.15125         1.32042        -4.26341         1.00325        -4.79358     326.500E-03    -162.508E-03    -163.991E-03    -161.835E-03     325.826E-03    -163.991E-03     36.2680E-03     172.883E+06     152.644E+06    -4.75429E+06    -4.74598E+06     152.635E+06     172.883E+06     1.09713E+06         63.8354
             166     15.2965E-03     101.448E-03         2.25135         1.05134        -5.13015         1.43149        -4.31029         1.05134        -4.63618     326.015E-03    -162.024E-03    -163.991E-03    -161.351E-03     325.342E-03    -163.991E-03     36.2145E-03     173.765E+06     156.100E+06    -4.88444E+06    -4.87502E+06     156.090E+06     173.765E+06     1.20702E+06         63.9107
             167     15.2967E-03     102.832E-03         2.06494         1.08546        -4.91965         1.29891        -4.15362         1.08546        -4.36336     325.770E-03    -161.793E-03    -163.976E-03    -161.116E-03     325.093E-03    -163.976E-03     36.3079E-03     174.253E+06     159.371E+06    -5.14604E+06    -5.13981E+06     159.365E+06     174.253E+06     1.01204E+06         63.9890
             168     15.2972E-03     104.218E-03         1.83584         1.12178        -4.59298         1.02683        -3.78397         1.12178        -4.25940     325.962E-03    -162.017E-03    -163.945E-03    -161.338E-03     325.283E-03    -163.945E-03     36.3879E-03     175.711E+06     163.002E+06    -4.89172E+06    -4.88388E+06     162.994E+06     175.711E+06     1.14379E+06         64.0715
             169     15.2977E-03     105.604E-03         1.77880         1.17636        -4.34284     870.450E-03        -3.43448         1.17636        -4.34777     325.932E-03    -162.014E-03    -163.918E-03    -161.336E-03     325.255E-03    -163.918E-03     36.3402E-03     177.266E+06     165.938E+06    -5.33212E+06    -5.32741E+06     165.933E+06     177.266E+06     731.970E+03         64.1581
             170     15.2982E-03     106.990E-03         1.84000         1.22524        -4.14590     889.819E-03        -3.19573         1.22524        -4.37480     325.675E-03    -161.783E-03    -163.892E-03    -161.103E-03     324.996E-03    -163.892E-03     36.3724E-03     177.795E+06     167.776E+06     -5.0234E+06    -5.02265E+06     167.775E+06     177.795E+06     339.520E+03         64.2496
             171     15.2986E-03     108.375E-03         1.73524         1.22767        -3.80908     783.705E-03        -2.85755         1.22767        -4.17514     325.464E-03    -161.603E-03    -163.861E-03    -160.931E-03     324.792E-03    -163.861E-03     36.1756E-03     178.045E+06     169.358E+06    -4.92630E+06    -4.92462E+06     169.357E+06     178.045E+06     536.222E+03         64.3475
             172     15.2993E-03     109.759E-03         1.47232         1.18908        -3.29602     427.411E-03        -2.25111         1.18908        -3.92522     325.270E-03    -161.437E-03    -163.833E-03    -160.765E-03     324.598E-03    -163.833E-03     36.1478E-03     179.931E+06     171.806E+06    -5.20388E+06    -5.20098E+06     171.803E+06     179.931E+06     710.414E+03         64.4527
             173     15.2999E-03     111.145E-03         1.33296         1.14877        -2.89104     76.0480E-03        -1.63413         1.14877        -3.84252     325.064E-03    -161.261E-03    -163.803E-03    -160.592E-03     324.395E-03    -163.803E-03     36.0532E-03     181.176E+06     174.049E+06    -5.02788E+06    -5.02577E+06     174.047E+06     181.176E+06     561.385E+03         64.5671
             174     15.3004E-03     112.528E-03         1.41424         1.12486        -2.78573     27.9906E-03        -1.39948         1.12486        -3.94876     325.009E-03    -161.242E-03    -163.767E-03    -160.573E-03     324.340E-03    -163.767E-03     36.0478E-03     180.605E+06     175.890E+06    -5.19776E+06    -5.19688E+06     175.889E+06     180.605E+06     390.736E+03         64.6911
             175     15.3008E-03     113.914E-03         1.52276         1.09545        -2.71588     300.058E-03        -1.49318         1.09545        -3.82925     324.999E-03    -161.261E-03    -163.738E-03    -160.588E-03     324.326E-03    -163.738E-03     36.1486E-03     180.856E+06     178.029E+06    -5.16436E+06    -5.16338E+06     178.028E+06     180.856E+06     419.097E+03         64.8241
             176     15.3012E-03     115.298E-03         1.42835         1.00855        -2.42873     397.093E-03        -1.39747         1.00855        -3.41262     324.871E-03    -161.160E-03    -163.711E-03    -160.484E-03     324.195E-03    -163.711E-03     36.2262E-03     180.586E+06     178.207E+06    -5.37609E+06    -5.37510E+06     178.206E+06     180.586E+06    -50.2587E+03         64.9669
             177     15.3017E-03     116.682E-03         1.31840     823.403E-03        -2.09515     219.036E-03    -995.787E-03     823.403E-03        -3.17428     324.823E-03    -161.139E-03    -163.684E-03    -160.463E-03     324.147E-03    -163.684E-03     36.2234E-03     181.081E+06     177.902E+06    -4.91805E+06    -4.91690E+06     177.901E+06     181.081E+06    -15.4758E+03         65.1469
             178     15.3022E-03     118.067E-03         1.25803     559.283E-03        -1.84417    -12.5270E-03    -573.614E-03     559.283E-03        -3.03783     324.606E-03    -160.952E-03    -163.655E-03    -160.284E-03     323.939E-03    -163.655E-03     35.9865E-03     179.685E+06     177.520E+06    -5.49333E+06    -5.48987E+06     177.517E+06     179.685E+06    -298.786E+03         65.4342
             179     15.3026E-03     119.449E-03         1.23926     299.511E-03        -1.60424    -168.864E-03    -196.115E-03     299.511E-03        -2.83473     324.423E-03    -160.801E-03    -163.622E-03    -160.132E-03     323.754E-03    -163.622E-03     36.0177E-03     176.742E+06     176.560E+06    -4.73023E+06    -4.72729E+06     176.557E+06     176.742E+06    -506.879E+03         65.8317
             180     15.3029E-03     120.834E-03         1.36010     96.1784E-03        -1.40539    -142.674E-03     97.3840E-03     96.1784E-03        -2.75468     324.552E-03    -160.960E-03    -163.592E-03    -160.291E-03     323.883E-03    -163.592E-03     36.0211E-03     174.792E+06     174.173E+06    -5.42206E+06    -5.41572E+06     174.769E+06     174.189E+06    -746.665E+03         66.2706
             181     15.3031E-03     122.218E-03         1.40692    -79.1605E-03        -1.20178    -8.98191E-03     214.125E-03    -79.1605E-03        -2.59867     324.677E-03    -161.114E-03    -163.563E-03    -160.447E-03     324.010E-03    -163.563E-03     35.9776E-03     171.869E+06     171.028E+06    -4.79558E+06    -4.78514E+06     171.620E+06     171.267E+06    -1.35107E+06         66.7458
             182     15.3035E-03     123.602E-03         1.36354    -258.261E-03    -949.244E-03     15.6922E-03     398.606E-03    -258.261E-03        -2.26716     324.748E-03    -161.213E-03    -163.535E-03    -160.542E-03     324.076E-03    -163.535E-03     36.0986E-03     167.513E+06     167.126E+06    -5.16850E+06    -5.15250E+06     167.259E+06     167.364E+06    -1.60858E+06         67.2710
             183     15.3036E-03     124.987E-03         1.44279    -455.708E-03    -841.877E-03    -92.9840E-03     693.896E-03    -455.708E-03        -2.13947     325.002E-03    -161.498E-03    -163.504E-03    -160.817E-03     324.321E-03    -163.504E-03     36.3777E-03     164.355E+06     163.654E+06    -3.95124E+06    -3.93799E+06     163.789E+06     164.206E+06    -684.251E+03         67.8271
             184     15.3040E-03     126.371E-03         1.54562    -642.520E-03    -808.936E-03    -174.845E-03     925.072E-03    -656.060E-03        -2.05875     325.471E-03    -161.988E-03    -163.483E-03    -161.303E-03     324.786E-03    -163.483E-03     36.5347E-03     163.789E+06     161.464E+06    -5.22293E+06    -5.21260E+06     161.454E+06     163.789E+06    -545.643E+03         68.4042
             185     15.3042E-03     127.757E-03         1.64177    -704.160E-03    -822.484E-03    -174.995E-03         1.11260    -822.484E-03        -1.96080     326.024E-03    -162.572E-03    -163.452E-03    -161.885E-03     325.338E-03    -163.452E-03     36.5938E-03     162.102E+06     157.818E+06    -4.80466E+06    -4.79034E+06     157.804E+06     162.102E+06    -1.51838E+06         69.0082
             186     15.3045E-03     129.143E-03         1.68403    -604.518E-03    -950.121E-03    -116.492E-03         1.19601    -950.121E-03        -1.87425     326.770E-03    -163.161E-03    -163.609E-03    -162.659E-03     326.081E-03    -163.422E-03     36.7222E-03     161.753E+06     154.551E+06    -4.29015E+06    -4.28369E+06     154.545E+06     161.753E+06    -944.460E+03         69.6632
             187     15.3048E-03     130.531E-03         1.72173    -423.229E-03        -1.02910    -129.408E-03         1.42790        -1.02910        -1.40785     327.933E-03    -163.394E-03    -164.539E-03    -163.832E-03     327.226E-03    -163.394E-03     37.2768E-03     164.340E+06     151.785E+06    -4.91879E+06    -4.91520E+06     151.781E+06     164.340E+06    -733.235E+03         70.4027
             188     15.3053E-03     131.921E-03         2.03809    -495.728E-03        -1.06506    -348.879E-03         1.89124        -1.06506        -1.18083     329.227E-03    -163.338E-03    -165.889E-03    -165.172E-03     328.510E-03    -163.338E-03     37.6566E-03     161.353E+06     144.395E+06    -6.29523E+06    -6.17731E+06     144.277E+06     161.353E+06    -3.38735E+06         71.2817
             189     15.3056E-03     133.311E-03         2.27527    -594.469E-03        -1.08478    -478.702E-03         2.15950        -1.08478        -1.11761     330.912E-03    -163.235E-03    -167.678E-03    -166.955E-03     330.189E-03    -163.235E-03     37.9451E-03     150.832E+06     132.300E+06    -3.58542E+06    -3.45373E+06     132.168E+06     150.832E+06    -3.94462E+06         72.3342
             190     15.3060E-03     134.705E-03         2.33230    -599.999E-03        -1.08018    -525.155E-03         2.25746        -1.08018    -922.776E-03     333.202E-03    -163.134E-03    -170.067E-03    -169.347E-03     332.481E-03    -163.134E-03     38.0656E-03     145.806E+06     125.380E+06    -3.26592E+06    -3.24965E+06     125.363E+06     145.806E+06    -945.874E+03         73.5402
             191     15.3067E-03     136.102E-03         2.29588    -675.317E-03        -1.04238    -582.459E-03         2.20302        -1.04238        -1.02168     335.893E-03    -163.053E-03    -172.840E-03    -172.116E-03     335.169E-03    -163.053E-03     38.3538E-03     147.796E+06     123.100E+06    -5.70542E+06    -5.68159E+06     123.077E+06     147.796E+06    -1.15533E+06         74.8081
             192     15.3071E-03     137.505E-03         2.14752    -543.542E-03    -955.776E-03    -468.275E-03         2.07225    -955.776E-03    -855.452E-03     339.038E-03    -162.934E-03    -176.104E-03    -175.357E-03     338.292E-03    -162.934E-03     39.1997E-03     143.387E+06     116.565E+06    -4.87253E+06    -4.78757E+06     116.480E+06     143.387E+06    -3.13124E+06         75.9973
             193     15.3073E-03     138.912E-03         2.35923    -575.777E-03    -898.921E-03    -629.766E-03         2.32941    -815.108E-03    -590.898E-03     342.099E-03    -162.815E-03    -179.284E-03    -178.535E-03     341.350E-03    -162.815E-03     39.5097E-03     136.324E+06     106.769E+06    -3.80267E+06    -3.71922E+06     106.685E+06     136.324E+06    -2.98290E+06         77.0193
             194     15.3076E-03     140.321E-03         2.54759    -668.924E-03    -807.071E-03    -764.908E-03         2.50543    -668.924E-03    -729.280E-03     345.045E-03    -162.721E-03    -182.324E-03    -181.581E-03     344.302E-03    -162.721E-03     39.5755E-03     134.194E+06     98.3195E+06    -4.00622E+06    -3.91731E+06     98.2306E+06     134.194E+06    -2.92642E+06         77.9225
             195     15.3081E-03     141.736E-03         2.33823    -556.725E-03    -652.451E-03    -618.208E-03         2.30398    -556.725E-03    -596.694E-03     347.421E-03    -162.650E-03    -184.772E-03    -184.040E-03     346.689E-03    -162.650E-03     39.4490E-03     134.951E+06     89.2118E+06    -3.36702E+06    -3.26888E+06     89.1136E+06     134.951E+06    -2.99442E+06         78.7854
             196     15.3087E-03     143.153E-03         2.04346    -478.148E-03    -591.224E-03    -578.406E-03         2.03065    -478.148E-03    -363.854E-03     350.163E-03    -162.553E-03    -187.609E-03    -186.837E-03     349.391E-03    -162.553E-03     40.7112E-03     133.100E+06     78.3544E+06    -3.96788E+06    -3.80730E+06     78.1938E+06     133.100E+06    -3.46206E+06         79.6474
             197     15.3092E-03     144.574E-03         1.72245    -377.303E-03    -490.295E-03    -440.978E-03         1.71444    -418.612E-03    -152.925E-03     352.982E-03    -162.436E-03    -190.546E-03    -189.805E-03     352.242E-03    -162.436E-03     40.0322E-03     130.756E+06     66.7090E+06    -3.52156E+06    -3.37537E+06     66.5628E+06     130.756E+06    -3.03152E+06         80.6819
             198     15.3106E-03     146.000E-03         1.75880    -329.743E-03    -543.231E-03    -489.190E-03         1.74607    -371.052E-03     294.226E-03     353.699E-03    -162.363E-03    -191.336E-03    -190.627E-03     352.989E-03    -162.363E-03     39.2845E-03     126.439E+06     54.6397E+06    -4.31548E+06    -4.14782E+06     54.4720E+06     126.439E+06    -2.85784E+06         81.7851
             199     15.3110E-03     147.424E-03         1.84672    -339.720E-03    -712.780E-03    -697.649E-03         1.83159    -339.720E-03     372.214E-03     352.893E-03    -162.320E-03    -190.573E-03    -189.874E-03     352.193E-03    -162.320E-03     38.9327E-03     122.565E+06     47.8546E+06    -1.18944E+06    -1.02069E+06     47.6858E+06     122.565E+06    -1.60675E+06         82.7807
             200     15.3126E-03     148.844E-03         1.44228    -315.873E-03    -521.378E-03    -508.379E-03         1.43390    -320.497E-03     244.357E-03     350.562E-03    -162.288E-03    -188.274E-03    -187.695E-03     349.983E-03    -162.288E-03     35.2468E-03     112.510E+06     43.3333E+06    -3.54801E+06    -3.30900E+06     43.0943E+06     112.510E+06    -1.96984E+06         83.7872
             201     15.3126E-03     150.259E-03     896.342E-03    -267.979E-03    -302.449E-03    -224.947E-03     853.310E-03    -302.449E-03     371.881E-03     343.650E-03    -162.371E-03    -181.279E-03    -180.854E-03     343.225E-03    -162.371E-03     29.7060E-03     99.4462E+06     36.4529E+06     376.698E+03     634.339E+03     36.1953E+06     99.4462E+06    -2.03799E+06         84.4401
             202     15.3141E-03     151.665E-03     520.164E-03    -226.327E-03    -298.572E-03    -29.4765E-03     280.915E-03    -256.174E-03     590.558E-03     312.555E-03    -142.597E-03    -169.959E-03    -149.200E-03     312.379E-03    -163.179E-03     10.3601E-03     77.7278E+06     30.4513E+06    -1.52545E+06    -668.262E+03     29.5941E+06     77.7278E+06    -3.97788E+06         83.8181
             203     14.3892E-03     152.943E-03     363.499E-03    -14.8866E-03    -276.504E-03     144.538E-03     161.676E-03    -234.105E-03     349.089E-03     288.686E-03    -123.709E-03    -164.977E-03    -123.408E-03     288.385E-03    -164.977E-03    -18.2980E-03     59.5039E+06     7.94507E+06    -30.2587E+06    -16.5299E+06    -5.78367E+06     59.5039E+06    -3.57979E+06         74.7314
             204     13.4896E-03     152.841E-03     443.861E-03     162.708E-03    -266.944E-03     265.396E-03     341.173E-03    -266.944E-03     213.657E-03     292.930E-03    -125.808E-03    -167.121E-03    -124.608E-03     291.729E-03    -167.121E-03    -43.1828E-03     79.6513E+06     12.4942E+06    -23.8507E+06    -10.5924E+06    -764.142E+03     79.6513E+06    -1.94313E+06         60.7686
             205     12.6084E-03     152.726E-03     468.280E-03     101.931E-03    -304.577E-03     324.808E-03     245.403E-03    -304.577E-03     342.047E-03     298.514E-03    -129.282E-03    -169.232E-03    -127.020E-03     296.253E-03    -169.232E-03    -61.7756E-03     91.2058E+06     16.1651E+06    -21.0998E+06    -7.69235E+06     2.75769E+06     91.2058E+06    -6.13635E+06         52.3666
             206     11.7341E-03     152.616E-03     375.746E-03    -45.2266E-03    -334.765E-03     107.850E-03     222.669E-03    -334.765E-03     306.800E-03     306.368E-03    -135.086E-03    -171.283E-03    -132.093E-03     303.376E-03    -171.283E-03    -72.3862E-03     96.9791E+06     8.77182E+06    -18.5779E+06    -4.45368E+06    -5.35235E+06     96.9791E+06    -6.93369E+06         48.4569
             207     10.8700E-03     152.506E-03     184.668E-03    -144.006E-03    -351.828E-03    -110.494E-03     151.155E-03    -351.828E-03     187.519E-03     315.191E-03    -142.014E-03    -173.177E-03    -138.587E-03     311.763E-03    -173.177E-03    -78.8711E-03     108.590E+06     14.4614E+06    -11.8888E+06    -438.942E+03     3.01150E+06     108.590E+06    -8.73862E+06         46.9356
             208     10.0133E-03     152.404E-03    -8.30488E-03    -207.661E-03    -366.689E-03    -168.160E-03    -47.8058E-03    -366.689E-03     135.353E-03     323.348E-03    -148.499E-03    -174.848E-03    -144.930E-03     319.778E-03    -174.848E-03    -81.7658E-03     111.766E+06     9.29952E+06    -11.3616E+06     2.92207E+06    -4.98412E+06     111.766E+06    -8.98785E+06         46.4848
             209     9.16258E-03     152.306E-03     266.352E-03    -336.192E-03    -530.970E-03    -397.906E-03     177.957E-03    -380.860E-03     457.817E-03     330.571E-03    -154.266E-03    -176.304E-03    -150.808E-03     327.112E-03    -176.304E-03    -81.5855E-03     112.946E+06     10.5315E+06    -7.18513E+06     4.17670E+06    -830.366E+03     112.946E+06    -8.19110E+06         46.4658
             210     8.31635E-03     152.217E-03     698.057E-03    -380.500E-03    -730.304E-03    -670.980E-03     638.734E-03    -380.500E-03     512.363E-03     337.117E-03    -159.549E-03    -177.568E-03    -156.350E-03     333.918E-03    -177.568E-03    -79.4191E-03     110.266E+06     13.1457E+06    -9.90663E+06     5.91145E+06    -2.67234E+06     110.266E+06    -10.6059E+06         46.6083
             211     7.47518E-03     152.134E-03         1.05027    -351.613E-03    -874.357E-03    -860.517E-03         1.03643    -351.613E-03     311.505E-03     343.236E-03    -164.596E-03    -178.641E-03    -161.739E-03     340.379E-03    -178.641E-03    -75.9069E-03     109.057E+06     17.7120E+06    -9.94892E+06     9.41754E+06    -1.65448E+06     109.057E+06    -12.5474E+06         46.8026
             212     6.63744E-03     152.062E-03         1.21719    -279.512E-03        -1.01334    -998.512E-03         1.20237    -279.512E-03    -83.0946E-03     348.686E-03    -169.212E-03    -179.474E-03    -166.793E-03     346.266E-03    -179.474E-03    -70.5168E-03     104.111E+06     21.4067E+06    -9.87707E+06     14.1117E+06    -2.58206E+06     104.111E+06    -13.2239E+06         47.0005
             213     5.80325E-03     151.994E-03         1.00247    -155.113E-03        -1.07908        -1.03249     955.887E-03    -155.113E-03    -582.939E-03     352.624E-03    -172.525E-03    -180.098E-03    -170.554E-03     350.653E-03    -180.098E-03    -64.1301E-03     97.1168E+06     26.6329E+06    -8.64392E+06     20.3744E+06    -2.38541E+06     97.1168E+06    -13.3197E+06         47.1807
             214     4.97098E-03     151.939E-03     705.880E-03     9.71666E-03        -1.20362    -843.350E-03     345.611E-03     9.71666E-03        -1.26206     355.426E-03    -174.804E-03    -180.621E-03    -173.276E-03     353.898E-03    -180.621E-03    -56.6513E-03     88.3599E+06     30.9041E+06    -8.11872E+06     26.2350E+06    -3.44953E+06     88.3599E+06    -12.6336E+06         47.3377
             215     4.14060E-03     151.890E-03     407.932E-03     70.1487E-03        -1.18612    -326.995E-03    -544.645E-03     163.599E-03        -1.11101     357.597E-03    -176.464E-03    -181.134E-03    -175.363E-03     356.496E-03    -181.134E-03    -48.2760E-03     79.4697E+06     35.1376E+06    -7.08117E+06     31.3364E+06    -3.27998E+06     79.4697E+06    -12.0334E+06         47.4730
             216     3.30816E-03     151.852E-03     335.576E-03     146.271E-03        -1.16763     207.699E-03        -1.13320     239.722E-03    -423.197E-03     360.243E-03    -178.664E-03    -181.579E-03    -177.887E-03     359.466E-03    -181.579E-03    -40.6933E-03     70.4764E+06     40.2688E+06    -5.94380E+06     37.2041E+06    -2.87906E+06     70.4764E+06    -11.4717E+06         47.5868
             217     2.48053E-03     151.822E-03     684.862E-03     238.396E-03        -1.29237     301.784E-03    -909.297E-03     238.396E-03     846.936E-03     362.629E-03    -180.852E-03    -181.777E-03    -180.374E-03     362.151E-03    -181.777E-03    -31.7681E-03     62.6745E+06     46.6528E+06    -7.07077E+06     44.2342E+06    -4.65213E+06     62.6745E+06    -11.0303E+06         47.6749
             218     1.65395E-03     151.797E-03     760.925E-03     193.831E-03    -717.220E-03     268.550E-03    -224.845E-03     193.831E-03     719.063E-03     363.036E-03    -181.154E-03    -181.881E-03    -180.931E-03     362.812E-03    -181.881E-03    -21.4622E-03     59.0519E+06     52.6843E+06    -7.84737E+06     51.2379E+06    -6.40102E+06     59.0519E+06    -9.03327E+06         47.7336
             219     826.119E-06     151.784E-03         2.31157    -105.488E-03    -975.731E-03     386.166E-03     949.669E-03    -105.488E-03         2.51732     363.849E-03    -181.389E-03    -182.460E-03    -181.834E-03     363.772E-03    -181.938E-03    -12.2314E-03     59.7243E+06     57.4828E+06    -8.88388E+06     56.8961E+06    -8.29712E+06     59.7243E+06    -5.90414E+06         47.7665
             220    -1.00902E-06     150.339E-03         2.61950    -265.763E-03        -1.40405    -253.953E-03         1.46940    -265.763E-03         3.15018     348.686E-03    -174.011E-03    -174.675E-03    -174.657E-03     348.668E-03    -174.011E-03    -5.91825E-03     28.3892E+06     26.0603E+06    -24.6675E+06     26.4114E+06    -23.6312E+06     27.0017E+06    -5.98482E+06         47.1673
             221     1.27427E-06     148.941E-03         1.82371     555.699E-03        -2.31479     108.469E-03        -1.18286         1.13901         1.06497     321.637E-03    -160.625E-03    -161.012E-03    -161.008E-03     321.633E-03    -160.625E-03    -1.08529E-03    -37.3218E+06    -43.1549E+06    -61.6763E+06    -42.5591E+06    -56.4389E+06    -43.1549E+06     -7.4147E+06         45.8229
             222    -851.710E-09     147.580E-03         1.86155     467.528E-03        -2.09442     593.517E-03        -1.40970         1.05084    -73.8437E-03     304.485E-03    -151.941E-03    -152.544E-03    -152.186E-03     304.484E-03    -152.298E-03     1.35091E-03    -91.6811E+06    -111.425E+06    -116.227E+06    -111.672E+06    -96.2359E+06    -111.425E+06    -8.54700E+06         44.5451
             223     242.949E-09     146.232E-03         4.09264        -1.28808        -1.90640        -1.33048         3.51672        -1.28808        -3.20598     294.963E-03    -147.215E-03    -147.748E-03    -147.386E-03     294.958E-03    -147.572E-03     2.52777E-03    -135.085E+06    -178.371E+06    -180.306E+06    -178.128E+06    -137.263E+06    -178.371E+06    -9.05372E+06         43.6767
             224     40.8831E-09     144.893E-03         7.54719        -2.69069        -3.76583        -3.25790         7.03927        -2.69069        -4.64663     290.175E-03    -144.975E-03    -145.200E-03    -145.191E-03     290.165E-03    -144.975E-03     4.06226E-03    -170.189E+06    -237.154E+06    -238.062E+06    -236.495E+06    -170.865E+06    -238.045E+06    -5.63084E+06         43.1846
             225     18.3897E-09     143.558E-03         6.56713        -2.17204        -3.40293        -2.41921         5.58341        -2.17204        -5.30719     287.710E-03    -143.664E-03    -144.046E-03    -143.702E-03     287.699E-03    -143.997E-03     4.33817E-03    -189.376E+06    -238.124E+06    -239.971E+06    -238.921E+06    -189.534E+06    -239.015E+06    -2.54695E+06         42.9461
             226    -603.156E-09     142.226E-03         4.52384     225.791E-03        -3.40901     450.034E-03     664.795E-03     225.791E-03        -6.69982     286.520E-03    -142.801E-03    -143.719E-03    -142.789E-03     286.508E-03    -143.719E-03     4.57567E-03    -184.257E+06    -194.487E+06    -212.525E+06    -195.005E+06    -201.777E+06    -194.487E+06    -2.47186E+06         42.8585
             227    -429.828E-09     140.896E-03         3.55608         1.37139        -3.85641     996.189E-03        -1.29651         1.37139        -6.89044     286.402E-03    -142.775E-03    -143.628E-03    -143.034E-03     286.393E-03    -143.359E-03     4.07151E-03    -161.154E+06    -161.908E+06    -212.064E+06    -161.576E+06    -211.936E+06    -161.614E+06    -1.96041E+06         42.8622
             228     890.391E-09     139.564E-03         4.89388    -473.377E-03        -3.59924    -863.332E-03         2.15797    -473.377E-03        -7.30601     286.563E-03    -142.838E-03    -143.726E-03    -143.715E-03     286.552E-03    -142.838E-03     4.24884E-03    -148.451E+06    -148.848E+06    -220.019E+06    -148.791E+06    -219.973E+06    -148.554E+06    -1.73042E+06         42.9375
             229     162.814E-09     138.233E-03         8.31334        -2.94181        -4.21539        -2.55121         6.64916        -2.94181        -8.34684     286.692E-03    -142.785E-03    -143.907E-03    -143.390E-03     286.678E-03    -143.288E-03     4.96388E-03    -149.467E+06    -149.725E+06    -232.488E+06    -149.749E+06    -232.361E+06    -149.571E+06    -3.20704E+06         43.0864
             230    -1.05065E-06     136.902E-03         8.85824        -3.17125        -4.79766        -3.31071         7.37129        -3.17125        -8.48211     288.541E-03    -144.014E-03    -144.527E-03    -144.000E-03     288.527E-03    -144.527E-03     4.99193E-03    -151.661E+06    -152.116E+06    -246.168E+06    -151.912E+06    -246.072E+06    -151.961E+06    -2.58060E+06         43.3135
             231     1.01360E-06     135.566E-03         6.73387        -1.38139        -4.88764        -1.92679         3.77302        -1.38139        -9.37708     292.495E-03    -146.211E-03    -146.284E-03    -146.198E-03     292.482E-03    -146.284E-03     4.80558E-03    -154.897E+06    -155.323E+06    -257.012E+06    -155.096E+06    -256.939E+06    -155.197E+06    -2.44975E+06         43.6115
             232    -1.13553E-06     134.225E-03         5.84842    -185.975E-03        -5.06074    -80.2427E-03     867.923E-03    -185.975E-03        -10.8303     296.806E-03    -148.122E-03    -148.685E-03    -148.113E-03     296.798E-03    -148.685E-03     3.85322E-03    -160.303E+06    -161.194E+06    -271.502E+06    -160.580E+06    -271.350E+06    -161.068E+06    -4.10565E+06         43.9596
             233     262.701E-09     132.880E-03         6.54107    -689.784E-03        -5.45729    -772.894E-03         1.85667    -689.784E-03        -11.4450     301.693E-03    -150.272E-03    -151.421E-03    -150.917E-03     301.688E-03    -150.771E-03     3.06935E-03    -167.211E+06    -168.252E+06    -289.331E+06    -167.323E+06    -289.219E+06    -168.252E+06    -3.51419E+06         44.3344
             234     847.257E-09     131.523E-03         8.47855        -2.17970        -6.13788        -2.70586         5.04653        -2.17970        -12.2584     307.015E-03    -152.890E-03    -154.126E-03    -154.121E-03     307.010E-03    -152.890E-03     3.02305E-03    -171.233E+06    -173.201E+06    -302.041E+06    -172.958E+06    -302.008E+06    -171.509E+06    -1.96784E+06         44.7140
             235     171.554E-09     130.164E-03         9.90883        -3.03281        -6.44489        -2.84130         6.30524        -3.03281        -13.4972     311.747E-03    -155.443E-03    -156.304E-03    -156.024E-03     311.742E-03    -155.718E-03     2.87250E-03    -172.829E+06    -175.663E+06    -310.639E+06    -174.549E+06    -310.611E+06    -173.972E+06    -1.91403E+06         45.0768
             236    -658.897E-09     128.794E-03         8.69765        -2.21189        -6.16512        -1.99240         4.52493        -2.21189        -13.3204     316.237E-03    -157.564E-03    -158.674E-03    -157.560E-03     316.234E-03    -158.674E-03     2.45930E-03    -171.499E+06    -173.750E+06    -317.515E+06    -171.520E+06    -317.494E+06    -173.750E+06    -1.25705E+06         45.4055
             237    -777.811E-09     127.423E-03         7.61388        -1.43566        -6.01672        -1.74350         3.34067        -1.43566        -12.6469     320.637E-03    -159.707E-03    -160.930E-03    -160.094E-03     320.636E-03    -160.542E-03     892.085E-06    -172.805E+06    -174.142E+06    -323.738E+06    -173.055E+06    -323.716E+06    -173.914E+06    -1.31300E+06         45.6879
             238     1.44221E-06     126.043E-03         7.46119        -1.64495        -5.35094        -1.28245         3.39270        -1.64495        -11.9281     323.546E-03    -161.416E-03    -162.130E-03    -161.804E-03     323.546E-03    -161.742E-03     530.229E-06    -175.449E+06    -175.870E+06    -329.458E+06    -175.891E+06    -329.436E+06    -175.449E+06    -1.12864E+06         45.9168
             239    -1.99519E-06     124.659E-03         6.82381        -1.59455        -4.78129        -1.20723         3.24974        -1.59455        -10.7087     325.597E-03    -162.504E-03    -163.093E-03    -162.767E-03     325.596E-03    -162.830E-03     689.540E-06    -172.403E+06    -172.921E+06    -331.426E+06    -172.922E+06    -331.425E+06    -172.403E+06    -61.8842E+03         46.0918
             240     2.44664E-06     123.276E-03         5.48852    -650.065E-03        -4.61876    -771.459E-03         1.64122    -650.065E-03        -9.60113     327.286E-03    -163.059E-03    -164.227E-03    -164.227E-03     327.286E-03    -163.059E-03    -185.471E-06    -171.210E+06    -171.625E+06    -335.576E+06    -171.542E+06    -335.570E+06    -171.299E+06    -870.320E+03         46.2154
             241    -910.379E-09     121.888E-03         4.25464     568.361E-03        -4.57970     864.717E-03        -1.18978     568.361E-03        -8.27032     328.091E-03    -163.241E-03    -164.850E-03    -164.146E-03     328.091E-03    -163.945E-03     395.385E-06    -171.267E+06    -171.357E+06    -339.256E+06    -171.274E+06    -339.249E+06    -171.357E+06    -297.877E+03         46.2919
             242    -282.831E-09     120.502E-03         3.93554         1.08162        -4.93115         1.21669        -2.21231         1.08162        -8.11560     329.022E-03    -164.043E-03    -164.979E-03    -164.274E-03     329.021E-03    -164.746E-03    -182.496E-06    -168.148E+06    -168.564E+06    -338.907E+06    -168.150E+06    -338.905E+06    -168.564E+06     179.721E+03         46.3292
             243     673.555E-09     119.111E-03         4.32956     801.556E-03        -5.21068     436.494E-03        -1.31761     801.556E-03        -9.33088     328.909E-03    -164.022E-03    -164.887E-03    -164.254E-03     328.908E-03    -164.654E-03    -178.739E-06    -167.697E+06    -168.348E+06    -342.589E+06    -167.955E+06    -342.568E+06    -168.111E+06    -1.54596E+06         46.3356
             244    -1.74235E-06     117.726E-03         5.03279     112.287E-03        -5.22233     135.432E-03    -324.971E-03     112.287E-03        -10.2336     328.221E-03    -163.581E-03    -164.641E-03    -163.579E-03     328.220E-03    -164.641E-03    -493.862E-06    -168.843E+06    -170.462E+06    -347.070E+06    -169.110E+06    -347.040E+06    -170.224E+06    -461.801E+03         46.3218
             245     998.740E-09     116.338E-03         5.42373     352.671E-03        -5.87501     737.103E-03        -1.18838     352.671E-03        -10.9835     327.868E-03    -163.557E-03    -164.311E-03    -163.882E-03     327.867E-03    -163.985E-03    -871.793E-06    -165.691E+06    -169.209E+06    -346.166E+06    -167.837E+06    -346.156E+06    -167.072E+06     616.902E+03         46.3007
             246    -418.879E-09     114.951E-03         5.46258         2.09243        -7.86390         1.91393        -4.31525         2.09243        -11.6023     327.228E-03    -163.263E-03    -163.964E-03    -163.964E-03     327.227E-03    -163.263E-03    -351.700E-06    -164.422E+06    -167.453E+06    -346.981E+06    -166.569E+06    -346.971E+06    -165.317E+06    -1.18880E+06         46.2815
             247     1.04590E-06     113.568E-03         5.26558         2.07758        -7.82724         2.33116        -4.89282         2.07758        -10.8971     327.090E-03    -163.173E-03    -163.917E-03    -163.917E-03     327.089E-03    -163.173E-03    -424.729E-06    -165.462E+06    -166.467E+06    -350.110E+06    -165.473E+06    -350.099E+06    -166.467E+06    -450.650E+03         46.2686
             248    -418.712E-09     112.181E-03         4.73775     496.358E-03        -5.69629         1.29093        -2.24947     496.358E-03        -9.60583     327.361E-03    -163.418E-03    -163.943E-03    -163.942E-03     327.360E-03    -163.418E-03    -344.321E-06    -163.074E+06    -163.905E+06    -350.198E+06    -163.800E+06    -350.193E+06    -163.185E+06    -109.391E+03         46.2633
             249     691.591E-09     110.795E-03         3.68220     539.712E-03        -4.86379     778.235E-03        -1.95982     539.712E-03        -7.88429     327.353E-03    -163.357E-03    -163.996E-03    -163.996E-03     327.353E-03    -163.357E-03    -371.978E-06    -162.745E+06    -163.535E+06    -351.913E+06    -163.472E+06    -351.907E+06    -162.815E+06    -1.12556E+06         46.2647
             250     130.443E-09     109.409E-03         3.49125         1.87972        -6.33153         2.39982        -5.24010         1.87972        -5.36101     327.295E-03    -162.960E-03    -164.335E-03    -163.443E-03     327.295E-03    -163.852E-03     205.201E-06    -163.059E+06    -163.306E+06    -352.748E+06    -163.064E+06    -352.743E+06    -163.306E+06    -125.063E+03         46.2707
             251    -1.64658E-06     108.023E-03         4.02554         3.08708        -8.12863         3.84212        -7.94521         3.08708        -2.14719     327.736E-03    -163.246E-03    -164.490E-03    -163.597E-03     327.736E-03    -164.138E-03    -631.420E-06    -160.132E+06    -160.861E+06    -352.805E+06    -160.142E+06    -352.795E+06    -160.861E+06    -464.230E+03         46.2788
             252     2.23742E-06     106.637E-03         2.89341         2.55650        -6.53115         2.77166        -6.40940         2.55650         1.10890     327.827E-03    -163.517E-03    -164.310E-03    -164.309E-03     327.826E-03    -163.517E-03    -582.187E-06    -158.403E+06    -159.146E+06    -353.404E+06    -158.611E+06    -353.387E+06    -158.956E+06     49.0359E+03         46.2866
             253    -1.48641E-06     105.249E-03         1.60187     814.574E-03        -3.66745     840.516E-03        -2.90609     814.574E-03         3.15624     327.365E-03    -162.983E-03    -164.382E-03    -163.423E-03     327.365E-03    -163.942E-03     175.785E-06    -157.831E+06    -158.602E+06    -349.894E+06    -158.612E+06    -349.885E+06    -157.831E+06     972.148E+03         46.2922
             254    -134.761E-09     103.866E-03         1.77245     380.153E-03        -3.39412     631.946E-03        -2.25361     380.153E-03         4.20301     327.986E-03    -163.305E-03    -164.682E-03    -163.722E-03     327.986E-03    -164.264E-03    -560.299E-06    -156.361E+06    -158.629E+06    -346.538E+06    -156.944E+06    -346.537E+06    -158.047E+06     428.316E+03         46.2953
             255     825.171E-09     102.477E-03         2.23415     869.685E-03        -4.57063     733.958E-03        -3.07044     869.685E-03         5.57808     328.414E-03    -163.989E-03    -164.425E-03    -164.407E-03     328.414E-03    -164.007E-03    -687.791E-06    -155.591E+06    -158.977E+06    -343.936E+06    -157.295E+06    -343.932E+06    -157.277E+06     832.938E+03         46.2967
             256    -834.836E-09     101.090E-03         2.43753     671.288E-03        -4.78372     302.973E-03        -2.64917     671.288E-03         6.57271     327.606E-03    -163.521E-03    -164.085E-03    -163.521E-03     327.606E-03    -164.085E-03    -266.280E-06    -155.987E+06    -159.156E+06    -341.253E+06    -157.690E+06    -341.251E+06    -157.456E+06     457.239E+03         46.2975
             257    -108.164E-09     99.7042E-03         2.26568     593.357E-03        -4.45785     349.728E-03        -2.54190     593.357E-03         6.03495     327.596E-03    -163.516E-03    -164.079E-03    -163.533E-03     327.596E-03    -164.062E-03    -150.178E-06    -156.460E+06    -158.353E+06    -340.138E+06    -156.888E+06    -340.135E+06    -157.928E+06     575.663E+03         46.2983
             258     143.316E-09     98.3181E-03         2.06126         1.34762        -5.09030     920.857E-03        -3.94990         1.34762         5.03490     327.726E-03    -163.797E-03    -163.930E-03    -163.929E-03     327.725E-03    -163.797E-03    -1.00439E-03    -156.534E+06    -157.478E+06    -338.220E+06    -156.962E+06    -338.216E+06    -157.054E+06     712.030E+03         46.2987
             259     47.4372E-09     96.9326E-03         2.19536         1.97335        -5.98436         1.50270        -5.41061         2.09226         4.09542     327.373E-03    -163.593E-03    -163.780E-03    -163.709E-03     327.372E-03    -163.663E-03    -797.398E-06    -154.898E+06    -156.187E+06    -337.033E+06    -155.667E+06    -337.033E+06    -155.418E+06     285.299E+03         46.2988
             260    -155.535E-09     95.5451E-03         1.77717         1.57445        -5.00000         1.32001        -4.74556         1.77717         2.45634     327.819E-03    -163.856E-03    -163.962E-03    -163.892E-03     327.819E-03    -163.926E-03     198.746E-06    -155.400E+06    -156.845E+06    -337.458E+06    -156.169E+06    -337.457E+06    -156.076E+06     131.986E+03         46.3000
             261     210.485E-09     94.1577E-03         1.31868     998.833E-03        -3.98346     801.961E-03        -3.78659         1.31868    -615.687E-03     327.876E-03    -163.868E-03    -164.008E-03    -163.904E-03     327.876E-03    -163.972E-03    -425.986E-06    -155.340E+06    -156.311E+06    -336.846E+06    -155.638E+06    -336.843E+06    -156.016E+06     519.089E+03         46.3023
             262    -381.535E-09     92.7739E-03         1.54152         1.13459        -4.50934     631.625E-03        -3.83547         1.37062        -3.60530     327.741E-03    -163.689E-03    -164.052E-03    -163.948E-03     327.740E-03    -163.792E-03    -782.023E-06    -154.347E+06    -154.812E+06    -335.164E+06    -154.814E+06    -335.161E+06    -154.347E+06     559.743E+03         46.3043
             263     826.457E-09     91.3853E-03         2.42404         1.01955        -5.15012     761.874E-03        -3.48796         1.01955        -6.19455     327.820E-03    -163.756E-03    -164.064E-03    -164.064E-03     327.820E-03    -163.756E-03    -380.366E-06    -153.501E+06    -154.056E+06    -333.419E+06    -154.056E+06    -333.419E+06    -153.501E+06     95.1610E+03         46.3049
             264    -738.757E-09     89.9981E-03         3.80794         1.71043        -7.19314         1.53297        -4.91817         1.71043        -8.82394     327.315E-03    -163.494E-03    -163.820E-03    -163.543E-03     327.315E-03    -163.772E-03    -15.1086E-06    -153.552E+06    -154.112E+06    -332.714E+06    -154.113E+06    -332.713E+06    -153.552E+06    -121.732E+03         46.3039
             265     270.302E-09     88.6147E-03         4.79586         2.89853        -9.45843         2.56683        -7.22939         2.89853        -10.3436     327.603E-03    -163.501E-03    -164.102E-03    -163.824E-03     327.603E-03    -163.779E-03    -194.766E-06    -153.855E+06    -154.226E+06    -332.184E+06    -154.031E+06    -332.183E+06    -154.051E+06     99.0985E+03         46.3032
             266     278.160E-09     87.2260E-03         4.80979         1.87703        -8.25935         2.11937        -5.56893         1.87703        -10.3180     327.919E-03    -163.782E-03    -164.136E-03    -164.106E-03     327.918E-03    -163.813E-03    -547.923E-06    -152.886E+06    -153.420E+06    -330.839E+06    -153.225E+06    -330.838E+06    -153.082E+06     77.1991E+03         46.3044
             267    -324.275E-09     85.8412E-03         4.33041     230.594E-03        -5.91362     590.067E-03        -2.17328     230.594E-03        -9.71509     327.436E-03    -163.568E-03    -163.868E-03    -163.567E-03     327.436E-03    -163.868E-03    -646.186E-06    -152.095E+06    -153.221E+06    -329.537E+06    -152.432E+06    -329.536E+06    -152.884E+06    -66.4766E+03         46.3076
             268    -142.399E-09     84.4542E-03         3.91340     535.566E-03        -5.80508     673.766E-03        -2.56544     535.566E-03        -8.84493     327.653E-03    -163.442E-03    -164.211E-03    -163.442E-03     327.653E-03    -164.211E-03    -37.2365E-06    -151.939E+06    -152.816E+06    -328.143E+06    -152.027E+06    -328.143E+06    -152.728E+06     90.4109E+03         46.3116
             269    -701.308E-09     83.0673E-03         4.37625         2.56999        -8.32631         2.97155        -6.92161         2.56999        -7.16363     328.442E-03    -163.820E-03    -164.621E-03    -164.122E-03     328.441E-03    -164.319E-03    -262.571E-06    -151.741E+06    -152.291E+06    -327.135E+06    -151.829E+06    -327.135E+06    -152.203E+06    -222.478E+03         46.3149
             270     1.21010E-06     81.6798E-03         4.67951         3.88318        -9.96940         4.20220        -9.49209         3.88318        -5.15299     328.094E-03    -163.778E-03    -164.315E-03    -164.315E-03     328.093E-03    -163.778E-03    -806.621E-06    -151.529E+06    -152.907E+06    -327.587E+06    -152.445E+06    -327.587E+06    -151.991E+06    -373.330E+03         46.3170
             271    -798.966E-09     80.2933E-03         3.19404         2.77284        -7.29811         2.59104        -6.69511         2.77284        -4.45034     327.050E-03    -163.299E-03    -163.750E-03    -163.534E-03     327.050E-03    -163.515E-03    -584.369E-06    -151.754E+06    -152.844E+06    -326.987E+06    -152.674E+06    -326.983E+06    -151.929E+06     383.418E+03         46.3183
             272     431.622E-09     78.9090E-03         2.29313         1.12943        -4.68234     854.656E-03        -3.24387         1.12943        -5.44293     327.306E-03    -163.524E-03    -163.782E-03    -163.566E-03     327.306E-03    -163.740E-03    -208.159E-06    -151.476E+06    -151.697E+06    -325.324E+06    -151.482E+06    -325.318E+06    -151.697E+06     155.169E+03         46.3194
             273    -359.397E-09     77.5212E-03         3.11115         1.03006        -5.28376     726.669E-03        -2.89928         1.03006        -7.56972     328.362E-03    -163.986E-03    -164.376E-03    -164.375E-03     328.362E-03    -163.986E-03    -381.103E-06    -151.559E+06    -152.179E+06    -325.701E+06    -152.137E+06    -325.697E+06    -151.606E+06     42.8283E+03         46.3200
             274     14.4447E-03     75.0575E-03         2.23033         1.00704        -3.51960     85.1362E-03        -1.60392         1.23655        -2.50988     327.068E-03    -163.093E-03    -163.975E-03    -162.238E-03     326.213E-03    -163.975E-03     40.6405E-03     141.932E+06     110.163E+06    -8.82097E+06    -8.81797E+06     110.160E+06     141.932E+06     496.368E+03         61.4552
             275     13.5938E-03     74.9974E-03         2.49146         1.06910        -3.88266     150.307E-03        -1.77102         1.29862        -3.10045     327.102E-03    -163.235E-03    -163.867E-03    -162.433E-03     326.301E-03    -163.867E-03     39.1456E-03     109.453E+06     90.9319E+06    -17.2622E+06    -17.2576E+06     90.9273E+06     109.453E+06     673.138E+03         58.6593
             276     12.7441E-03     74.9542E-03         2.55349         1.02285        -3.95236     368.951E-03        -2.10562         1.36064        -3.64273     326.767E-03    -162.967E-03    -163.800E-03    -162.436E-03     326.235E-03    -163.800E-03     32.2281E-03     87.5150E+06     77.3209E+06    -25.1163E+06    -25.1043E+06     77.3089E+06     87.5150E+06     1.01335E+06         55.4999
             277     11.8937E-03     74.9119E-03         1.69692         1.07646        -3.19601     666.114E-03        -2.50300         1.41425        -1.57099     326.544E-03    -162.757E-03    -163.786E-03    -162.332E-03     326.118E-03    -163.786E-03     28.7181E-03     76.7291E+06     72.0248E+06    -32.9975E+06    -32.9761E+06     72.0033E+06     76.7291E+06     1.47180E+06         52.6089
             278     11.0432E-03     74.8767E-03         2.44873         1.45389        -4.35980     966.844E-03        -2.87791         1.45389     903.052E-03     326.594E-03    -162.765E-03    -163.829E-03    -162.467E-03     326.296E-03    -163.829E-03     24.0678E-03     70.0367E+06     50.6979E+06    -40.9807E+06    -40.9480E+06     50.6652E+06     70.0367E+06     1.66787E+06         50.3657
             279     10.1931E-03     74.8459E-03         2.27275         1.38953        -4.14953         1.16632        -3.13369         1.48013         2.18657     326.781E-03    -162.893E-03    -163.888E-03    -162.680E-03     326.568E-03    -163.888E-03     20.3671E-03     60.1440E+06     7.86962E+06    -49.4031E+06    -49.3503E+06     7.81684E+06     60.1440E+06     1.66672E+06         48.8391
             280     9.34373E-03     74.8203E-03         2.46152         1.41005        -4.39106         1.21720        -3.23733         1.50065         2.59601     326.828E-03    -162.895E-03    -163.933E-03    -162.748E-03     326.681E-03    -163.933E-03     16.8734E-03     45.5653E+06    -38.0047E+06    -59.0254E+06    -58.6033E+06    -38.4268E+06     45.5653E+06     1.46641E+06         47.8976
             281     8.49345E-03     74.7986E-03         2.78591         1.52109        -4.86306         1.27176        -3.34892         1.52109         1.33316     326.848E-03    -162.872E-03    -163.976E-03    -162.777E-03     326.753E-03    -163.976E-03     13.5585E-03      30.621E+06    -66.7909E+06    -79.4123E+06    -68.0630E+06    -78.1402E+06      30.621E+06     1.50518E+06         47.3497
             282     7.64365E-03     74.7810E-03         2.11827         1.53315        -4.24442         1.47183        -3.59797         1.53315    -993.499E-03     327.059E-03    -163.055E-03    -164.003E-03    -162.999E-03     327.002E-03    -164.003E-03     10.4267E-03     14.4165E+06    -77.8333E+06    -111.728E+06    -77.9139E+06    -111.648E+06     14.4165E+06     1.48005E+06         47.0322
             283     6.79486E-03     74.7679E-03         2.90162         1.52519        -5.05801         1.66835        -3.82474         1.52519        -2.72034     327.165E-03    -163.152E-03    -164.013E-03    -163.122E-03     327.135E-03    -164.013E-03     7.57724E-03    -3.38613E+06    -88.1287E+06    -143.331E+06    -88.1669E+06    -143.293E+06    -3.38613E+06     1.42916E+06         46.8365
             284     5.94416E-03     74.7582E-03         2.90489         1.49930        -5.06629         1.72000        -3.88140         1.49930        -2.92667     327.207E-03    -163.195E-03    -164.011E-03    -163.182E-03     327.193E-03    -164.011E-03     4.91372E-03    -22.9389E+06    -98.4433E+06    -172.643E+06    -98.4675E+06    -172.619E+06    -22.9389E+06     1.21039E+06         46.7019
             285     5.09502E-03     74.7518E-03         2.13641         1.47208        -4.29958         1.60538        -3.76855         1.47208        -1.10006     327.383E-03    -163.391E-03    -163.992E-03    -163.387E-03     327.379E-03    -163.992E-03     2.60672E-03    -44.6021E+06    -109.138E+06    -201.892E+06    -109.146E+06    -201.885E+06    -44.6021E+06     785.435E+03         46.5989
             286     4.24647E-03     74.7479E-03         2.80756         1.47700        -5.01984         1.31761        -3.52989         1.47700         1.55258     327.341E-03    -163.373E-03    -163.969E-03    -163.372E-03     327.341E-03    -163.969E-03     1.04487E-03    -67.4731E+06    -119.755E+06    -232.223E+06    -119.760E+06    -232.218E+06    -67.4731E+06     704.477E+03         46.5151
             287     3.39637E-03     74.7463E-03         2.80387         1.55611        -5.14328         1.05207        -3.39148         1.55611         6.56389     327.313E-03    -163.345E-03    -163.968E-03    -163.344E-03     327.313E-03    -163.968E-03    -30.6902E-06    -91.2547E+06    -129.738E+06    -260.898E+06    -129.743E+06    -260.894E+06    -91.2547E+06     672.625E+03         46.4464
             288     2.54690E-03     74.7468E-03         3.05276         1.71080        -5.59560         1.16115        -3.70399         1.71080         7.10997     327.642E-03    -163.657E-03    -163.985E-03    -163.686E-03     327.642E-03    -163.956E-03    -622.342E-06    -114.165E+06    -138.487E+06    -283.842E+06    -138.491E+06    -283.839E+06    -114.165E+06      578.74E+03         46.3920
             289     1.69838E-03     74.7468E-03         4.78692         1.89796        -7.55489         1.51589        -4.28385         1.89796         10.8503     327.837E-03    -163.823E-03    -164.013E-03    -163.978E-03     327.836E-03    -163.858E-03    -785.993E-06    -133.685E+06    -145.405E+06    -303.560E+06    -145.407E+06    -303.558E+06    -133.685E+06     223.093E+03         46.3522
             290     849.696E-06     74.7477E-03         6.08751         2.29688        -9.32348         1.69042        -4.92639         2.29688    -856.943E-03     327.513E-03    -163.635E-03    -163.878E-03    -163.864E-03     327.513E-03    -163.649E-03    -531.441E-06    -146.917E+06    -150.208E+06    -319.380E+06    -150.150E+06    -319.379E+06    -146.976E+06    -43.7152E+03         46.3274
             291     14.4447E-03     73.6719E-03         2.10532     914.721E-03        -3.22472     30.3728E-03        -1.25401         1.01896        -2.38578     327.004E-03    -163.030E-03    -163.974E-03    -162.178E-03     326.151E-03    -163.974E-03     40.5009E-03     141.806E+06     109.465E+06    -8.80669E+06    -8.80407E+06     109.463E+06     141.806E+06     365.756E+03         61.4092
             292     13.5941E-03     73.6110E-03         2.40548     963.553E-03        -3.62199     138.857E-03        -1.45961         1.06779        -3.03567     326.896E-03    -163.021E-03    -163.875E-03    -162.208E-03     326.083E-03    -163.875E-03     39.3631E-03     109.331E+06     90.3481E+06    -17.1571E+06    -17.1481E+06     90.3391E+06     109.331E+06     866.186E+03         58.6407
             293     12.7434E-03     73.5672E-03         2.44715     931.829E-03        -3.68264     365.478E-03        -1.78157         1.11243        -3.47115     326.804E-03    -162.990E-03    -163.814E-03    -162.463E-03     326.277E-03    -163.814E-03     32.1027E-03     87.0818E+06     76.4024E+06    -25.2312E+06    -25.2168E+06     76.3880E+06     87.0818E+06     1.07564E+06         55.5094
             294     11.8933E-03     73.5259E-03         1.50437     967.908E-03        -2.81968     588.685E-03        -2.08460         1.14851        -1.32126     326.747E-03    -162.951E-03    -163.796E-03    -162.526E-03     326.322E-03    -163.796E-03     28.7396E-03     76.9401E+06     71.4654E+06    -32.6246E+06    -32.6056E+06     71.4465E+06     76.9401E+06     1.32526E+06         52.6361
             295     11.0435E-03     73.4897E-03         2.38338         1.17308        -3.94483     840.272E-03        -2.40172         1.17308         1.01004     326.646E-03    -162.815E-03    -163.830E-03    -162.514E-03     326.344E-03    -163.830E-03     24.2019E-03     70.4900E+06     50.8457E+06    -40.3047E+06    -40.2815E+06     50.8225E+06     70.4900E+06     1.43247E+06         50.3970
             296     10.1936E-03     73.4598E-03         2.14695         1.18325        -3.74818         1.07536        -2.67660         1.18325         2.20742     326.732E-03    -162.843E-03    -163.888E-03    -162.627E-03     326.516E-03    -163.888E-03     20.4767E-03     60.1177E+06     7.92888E+06    -49.0998E+06    -49.0623E+06     7.89144E+06     60.1177E+06     1.36762E+06         48.8655
             297     9.34322E-03     73.4332E-03         2.34485         1.18390        -3.97112         1.13672        -2.76299         1.18390         2.61940     326.898E-03    -162.966E-03    -163.933E-03    -162.817E-03     326.750E-03    -163.933E-03     16.9429E-03     45.5762E+06    -38.1068E+06    -58.5584E+06    -58.1940E+06    -38.4712E+06     45.5762E+06     1.23196E+06         47.9162
             298     8.49390E-03     73.4127E-03         2.60466         1.19008        -4.26813         1.00652        -2.67000         1.19008         1.47596     326.963E-03    -162.997E-03    -163.966E-03    -162.902E-03     326.868E-03    -163.966E-03     13.5328E-03     30.6596E+06    -66.8742E+06    -79.1807E+06    -67.7947E+06    -78.2602E+06     30.6596E+06     1.32203E+06         47.3616
             299     7.64400E-03     73.3944E-03         1.61372         1.21583        -3.33778     837.566E-03        -2.56163         1.21583    -760.260E-03     326.957E-03    -162.965E-03    -163.992E-03    -162.908E-03     326.900E-03    -163.992E-03     10.4959E-03     14.4629E+06    -77.7391E+06    -111.675E+06    -77.8152E+06    -111.599E+06     14.4629E+06     1.45235E+06         47.0393
             300     6.79371E-03     73.3813E-03         2.24124         1.26088        -4.03709     820.923E-03        -2.61677         1.26088        -2.28246     327.156E-03    -163.151E-03    -164.005E-03    -163.121E-03     327.126E-03    -164.005E-03     7.59085E-03    -3.38160E+06    -87.9400E+06    -143.060E+06    -87.9660E+06    -143.034E+06    -3.38160E+06     1.07844E+06         46.8407
             301     5.94536E-03     73.3718E-03         2.31749         1.31435        -4.19282     918.767E-03        -2.79410         1.31435        -2.27686     327.316E-03    -163.322E-03    -163.994E-03    -163.308E-03     327.302E-03    -163.994E-03     5.01499E-03    -22.6010E+06    -98.3395E+06    -172.218E+06    -98.3507E+06    -172.207E+06    -22.6010E+06     832.828E+03         46.7044
             302     5.09581E-03     73.3648E-03         1.55992         1.30392        -3.45295     968.118E-03        -2.93252         1.37529    -174.443E-03     327.283E-03    -163.315E-03    -163.968E-03    -163.310E-03     327.278E-03    -163.968E-03     2.77608E-03    -44.4551E+06    -109.331E+06    -201.670E+06    -109.339E+06    -201.662E+06    -44.4551E+06     866.583E+03         46.6004
             303     4.24570E-03     73.3619E-03         2.56899         1.37632        -4.56987         1.05764        -3.12990         1.44770         2.39808     327.265E-03    -163.314E-03    -163.952E-03    -163.313E-03     327.264E-03    -163.952E-03     960.238E-06    -67.7656E+06    -120.005E+06    -232.445E+06    -120.011E+06    -232.438E+06    -67.7656E+06     728.321E+03         46.5160
             304     3.39648E-03     73.3605E-03         3.27204         1.52117        -5.46553         1.24383        -3.43732         1.52117         7.34272     327.371E-03    -163.427E-03    -163.944E-03    -163.427E-03     327.371E-03    -163.944E-03    -241.301E-06    -90.8878E+06    -129.562E+06    -260.610E+06    -129.565E+06    -260.606E+06    -90.8878E+06     564.261E+03         46.4468
             305     2.54729E-03     73.3598E-03         3.31379         1.57257        -5.60461         1.47152        -3.76234         1.57257         7.20575     327.586E-03    -163.645E-03    -163.941E-03    -163.675E-03     327.586E-03    -163.911E-03    -750.878E-06    -113.877E+06    -138.311E+06    -283.561E+06    -138.314E+06    -283.558E+06    -113.877E+06     492.957E+03         46.3920
             306     1.69809E-03     73.3598E-03         5.15604         1.59483        -7.50419         1.57340        -3.92154         1.59483         11.2670     327.692E-03    -163.705E-03    -163.987E-03    -163.860E-03     327.691E-03    -163.831E-03    -845.166E-06    -133.302E+06    -145.191E+06    -303.198E+06    -145.194E+06    -303.195E+06    -133.302E+06     336.670E+03         46.3520
             307     849.232E-06     73.3612E-03         7.60248         1.77206        -10.1331         1.42897        -3.95960         1.77206        -1.93991     327.503E-03    -163.584E-03    -163.920E-03    -163.781E-03     327.503E-03    -163.722E-03    -426.900E-06    -146.310E+06    -150.106E+06    -318.854E+06    -149.825E+06    -318.852E+06    -146.593E+06     337.441E+03         46.3269
             308     14.4445E-03     72.2856E-03         2.16698     769.170E-03        -3.10756     277.372E-03        -1.21795     769.170E-03        -2.32345     326.833E-03    -162.832E-03    -164.000E-03    -161.945E-03     325.945E-03    -164.000E-03     41.2193E-03     141.263E+06     108.412E+06    -8.95274E+06    -8.95145E+06     108.411E+06     141.263E+06     294.069E+03         61.3612
             309     13.5938E-03     72.2249E-03         2.45798     784.749E-03        -3.48370     400.048E-03        -1.42577     784.749E-03        -2.93825     327.177E-03    -163.270E-03    -163.907E-03    -162.413E-03     326.320E-03    -163.907E-03     40.3928E-03     109.149E+06     89.5264E+06    -17.2633E+06    -17.2561E+06     89.5192E+06     109.149E+06     721.992E+03         58.6196
             310     12.7435E-03     72.1808E-03         2.35206     754.810E-03        -3.39472     447.460E-03        -1.53277     797.465E-03        -3.38735     327.013E-03    -163.176E-03    -163.837E-03    -162.637E-03     326.475E-03    -163.837E-03     32.4546E-03     87.5409E+06     76.4150E+06    -24.6734E+06    -24.6639E+06     76.4054E+06     87.5409E+06     870.169E+03         55.5171
             311     11.8935E-03     72.1386E-03         1.36276     765.944E-03        -2.46022     534.937E-03        -1.67505     808.600E-03        -1.26326     326.850E-03    -163.039E-03    -163.811E-03    -162.613E-03     326.424E-03    -163.811E-03     28.7581E-03     77.0876E+06     71.2334E+06    -32.1289E+06    -32.1173E+06     71.2218E+06     77.0876E+06     1.01124E+06         52.6616
             312     11.0432E-03     72.1037E-03         2.37983     816.413E-03        -3.56102     615.701E-03        -1.79689     816.413E-03         1.15007     326.655E-03    -162.812E-03    -163.842E-03    -162.507E-03     326.349E-03    -163.842E-03     24.3960E-03     70.2365E+06     50.5107E+06    -40.2116E+06    -40.1950E+06     50.4942E+06     70.2365E+06     1.17733E+06         50.4268
             313     10.1930E-03     72.0728E-03         1.90562     821.210E-03        -3.11597     681.097E-03        -1.89145     821.210E-03         2.56903     326.760E-03    -162.858E-03    -163.902E-03    -162.636E-03     326.538E-03    -163.902E-03     20.7682E-03     59.9735E+06     7.66307E+06    -48.8564E+06    -48.8311E+06     7.63772E+06     59.9735E+06     1.11055E+06         48.8908
             314     9.34352E-03     72.0473E-03         2.18837     821.237E-03        -3.41682     781.103E-03        -2.00955     821.237E-03         3.09394     326.948E-03    -163.000E-03    -163.947E-03    -162.848E-03     326.796E-03    -163.947E-03     17.1726E-03     45.7035E+06    -38.1862E+06    -58.3517E+06    -57.8614E+06    -38.6766E+06     45.7035E+06     1.22230E+06         47.9342
             315     8.49357E-03     72.0251E-03         2.55133     818.800E-03        -3.79413     778.641E-03        -2.02144     818.800E-03         1.99689     327.078E-03    -163.102E-03    -163.976E-03    -163.004E-03     326.979E-03    -163.976E-03     13.8031E-03     30.8785E+06    -66.3173E+06    -79.1338E+06    -67.3161E+06    -78.1350E+06     30.8785E+06     1.22125E+06         47.3730
             316     7.64414E-03     72.0090E-03         1.43793     827.497E-03        -2.70976     615.697E-03        -1.88752     827.497E-03    -307.422E-03     327.116E-03    -163.128E-03    -163.988E-03    -163.069E-03     327.058E-03    -163.988E-03     10.6266E-03     14.8521E+06    -77.2899E+06    -111.429E+06    -77.3331E+06    -111.386E+06     14.8521E+06     1.11451E+06         47.0463
             317     6.79469E-03     71.9945E-03         2.00146     861.379E-03        -3.33118     439.749E-03        -1.76947     861.379E-03        -1.76983     327.124E-03    -163.130E-03    -163.994E-03    -163.099E-03     327.093E-03    -163.994E-03     7.65003E-03    -2.80804E+06    -87.6063E+06    -142.595E+06    -87.6329E+06    -142.568E+06    -2.80804E+06     1.10663E+06         46.8449
             318     5.94448E-03     71.9847E-03         2.03091     921.221E-03        -3.44317     404.734E-03        -1.81699     921.221E-03        -1.62420     327.196E-03    -163.206E-03    -163.989E-03    -163.192E-03     327.182E-03    -163.989E-03     5.04682E-03    -22.7587E+06     -98.501E+06    -172.286E+06    -98.5180E+06    -172.269E+06    -22.7587E+06     969.547E+03         46.7071
             319     5.09511E-03     71.9790E-03         1.25387     915.403E-03        -2.68448     613.555E-03        -2.11554     986.780E-03     684.416E-03     327.264E-03    -163.289E-03    -163.975E-03    -163.284E-03     327.259E-03    -163.975E-03     2.84599E-03    -44.4064E+06    -109.245E+06    -201.550E+06    -109.253E+06    -201.542E+06    -44.4064E+06     785.910E+03         46.6022
             320     4.24619E-03     71.9752E-03         2.54945     949.030E-03        -4.04292     979.604E-03        -2.54445         1.02041         3.29166     327.448E-03    -163.507E-03    -163.941E-03    -163.506E-03     327.447E-03    -163.941E-03     965.189E-06    -67.4676E+06    -119.615E+06    -232.020E+06    -119.619E+06    -232.016E+06    -67.4676E+06     553.832E+03         46.5174
             321     3.39699E-03     71.9741E-03         3.90190     999.458E-03        -5.47911         1.19313        -2.77034     999.458E-03         8.45768     327.532E-03    -163.658E-03    -163.874E-03    -163.658E-03     327.532E-03    -163.874E-03    -288.304E-06    -91.2659E+06    -129.716E+06    -260.729E+06    -129.718E+06    -260.726E+06    -91.2659E+06     420.881E+03         46.4480
             322     2.54774E-03     71.9734E-03         3.64967     942.644E-03        -5.22486         1.13682        -2.71201     942.644E-03         7.89655     327.279E-03    -163.451E-03    -163.828E-03    -163.450E-03     327.279E-03    -163.828E-03    -724.562E-06    -113.862E+06    -138.086E+06    -283.283E+06    -138.088E+06    -283.280E+06    -113.862E+06     428.767E+03         46.3931
             323     1.69840E-03     71.9738E-03         5.55385     891.812E-03        -7.10381     966.025E-03        -2.51598     891.812E-03         11.9641     327.317E-03    -163.416E-03    -163.901E-03    -163.415E-03     327.316E-03    -163.901E-03    -531.231E-06    -133.285E+06    -144.922E+06    -302.881E+06    -144.925E+06    -302.878E+06    -133.285E+06     268.625E+03         46.3529
             324     848.759E-06     71.9747E-03         8.90367         1.07394        -10.6497     673.149E-03        -2.41921         1.07394        -2.69533     327.904E-03    -163.788E-03    -164.116E-03    -163.788E-03     327.904E-03    -164.116E-03    -461.310E-06    -145.948E+06    -149.671E+06    -318.238E+06    -149.390E+06    -318.236E+06    -146.230E+06     267.691E+03         46.3278
             325     14.4426E-03     70.8998E-03         2.28045     478.154E-03        -3.01429     368.059E-03        -1.10191     478.154E-03        -2.33098     326.698E-03    -162.685E-03    -164.013E-03    -161.832E-03     325.845E-03    -164.013E-03     40.3758E-03     141.054E+06     107.686E+06    -8.85236E+06    -8.85127E+06     107.685E+06     141.054E+06     276.643E+03         61.3151
             326     13.5923E-03     70.8373E-03         2.54274     468.633E-03        -3.31439     482.124E-03        -1.25378     468.633E-03        -2.85211     327.176E-03    -163.252E-03    -163.924E-03    -162.435E-03     326.358E-03    -163.924E-03     39.3969E-03     109.298E+06     89.1735E+06    -16.9757E+06    -16.9740E+06     89.1718E+06     109.298E+06     351.251E+03         58.5996
             327     12.7430E-03     70.7937E-03         2.29899     456.046E-03        -3.09727     474.632E-03        -1.27291     456.046E-03        -3.46163     326.959E-03    -163.102E-03    -163.856E-03    -162.577E-03     326.433E-03    -163.856E-03     32.0476E-03      87.766E+06     76.0790E+06    -24.4131E+06    -24.4078E+06     76.0737E+06      87.766E+06     676.834E+03         55.5243
             328     11.8929E-03     70.7519E-03         1.31307     445.284E-03        -2.12757     440.809E-03        -1.25531     445.284E-03        -1.43165     326.828E-03    -162.994E-03    -163.834E-03    -162.568E-03     326.402E-03    -163.834E-03     28.7568E-03     76.9628E+06     70.7725E+06    -32.0254E+06    -32.0185E+06     70.7657E+06     76.9628E+06     828.048E+03         52.6855
             329     11.0430E-03     70.7172E-03         2.34382     436.755E-03        -3.15992     418.554E-03        -1.23465     436.755E-03     927.380E-03     326.755E-03    -162.889E-03    -163.865E-03    -162.586E-03     326.451E-03    -163.865E-03     24.3197E-03     70.1896E+06     50.2538E+06    -40.0698E+06    -40.0602E+06     50.2442E+06     70.1896E+06     881.063E+03         50.4549
             330     10.1930E-03     70.6864E-03         1.76672     430.929E-03        -2.58082     389.940E-03        -1.20404     430.929E-03         2.26963     326.828E-03    -162.905E-03    -163.922E-03    -162.684E-03     326.607E-03    -163.922E-03     20.7256E-03     60.0234E+06     7.55595E+06    -48.7802E+06    -48.7571E+06     7.53281E+06     60.0234E+06     1.04680E+06         48.9147
             331     9.34297E-03     70.6601E-03         2.00404     427.531E-03        -2.82595     383.093E-03        -1.20501     427.531E-03         2.76882     326.947E-03    -162.980E-03    -163.968E-03    -162.829E-03     326.796E-03    -163.968E-03     17.1119E-03     45.5853E+06    -38.5892E+06    -58.3461E+06    -57.9522E+06    -38.9831E+06     45.5853E+06     1.05099E+06         47.9509
             332     8.49329E-03     70.6393E-03         2.38940     419.165E-03        -3.21555     504.788E-03        -1.33094     419.165E-03         1.93296     327.115E-03    -163.117E-03    -163.998E-03    -163.019E-03     327.016E-03    -163.998E-03     13.8174E-03     30.7363E+06    -66.7034E+06    -78.9639E+06    -67.4460E+06    -78.2213E+06     30.7363E+06     1.01475E+06         47.3834
             333     7.64371E-03     70.6210E-03         1.51551     397.755E-03        -2.33547     611.159E-03        -1.43112     397.755E-03    -26.4500E-03     327.288E-03    -163.285E-03    -164.002E-03    -163.226E-03     327.228E-03    -164.002E-03     10.7045E-03     14.7265E+06    -77.3031E+06    -111.268E+06    -77.3344E+06    -111.237E+06     14.7265E+06     893.474E+03         47.0523
             334     6.79445E-03     70.6086E-03         2.04797     373.685E-03        -2.85790     496.336E-03        -1.30626     373.685E-03        -1.27007     327.220E-03    -163.225E-03    -163.995E-03    -163.193E-03     327.188E-03    -163.995E-03     7.76210E-03    -2.80392E+06    -87.7028E+06    -142.762E+06    -87.7233E+06    -142.741E+06    -2.80392E+06     984.906E+03         46.8485
             335     5.94508E-03     70.5984E-03         1.95062     362.674E-03        -2.76334     355.805E-03        -1.16852     362.674E-03        -1.33211     327.127E-03    -163.137E-03    -163.990E-03    -163.123E-03     327.113E-03    -163.990E-03     5.00959E-03    -22.3508E+06    -98.1910E+06    -171.783E+06    -98.2095E+06    -171.765E+06    -22.3508E+06     1.04450E+06         46.7094
             336     5.09551E-03     70.5922E-03         1.14137     352.667E-03        -1.96093     442.906E-03        -1.26247     352.667E-03     652.759E-03     327.273E-03    -163.294E-03    -163.979E-03    -163.290E-03     327.269E-03    -163.979E-03     2.72136E-03    -44.2271E+06    -108.872E+06    -201.112E+06    -108.880E+06    -201.104E+06    -44.2271E+06     784.548E+03         46.6042
             337     4.24583E-03     70.5887E-03         2.36340     316.387E-03        -3.17523     584.566E-03        -1.39639     316.387E-03         3.08989     327.423E-03    -163.474E-03    -163.949E-03    -163.473E-03     327.422E-03    -163.949E-03     1.24810E-03    -67.7512E+06    -119.499E+06    -231.982E+06    -119.504E+06    -231.978E+06    -67.7512E+06     630.859E+03         46.5195
             338     3.39696E-03     70.5869E-03         3.94684     246.000E-03        -4.72463     587.441E-03        -1.36523     246.000E-03         8.37273     327.470E-03    -163.571E-03    -163.899E-03    -163.570E-03     327.470E-03    -163.899E-03     225.438E-06    -91.6856E+06    -129.329E+06    -260.443E+06    -129.330E+06    -260.441E+06    -91.6856E+06     358.591E+03         46.4503
             339     2.54787E-03     70.5879E-03         3.72697     150.081E-03        -4.43180     469.016E-03        -1.17385     150.081E-03         7.94278     327.407E-03    -163.513E-03    -163.894E-03    -163.546E-03     327.407E-03    -163.861E-03    -449.956E-06    -114.094E+06    -138.174E+06    -283.419E+06    -138.176E+06    -283.417E+06    -114.094E+06     166.793E+03         46.3955
             340     1.69763E-03     70.5885E-03         5.99442     56.5881E-03        -6.63145     218.492E-03    -855.518E-03     56.5881E-03         12.5161     327.434E-03    -163.514E-03    -163.920E-03    -163.547E-03     327.434E-03    -163.887E-03    -518.718E-06    -133.260E+06    -144.997E+06    -302.383E+06    -145.001E+06    -302.379E+06    -133.260E+06     226.945E+03         46.3555
             341     848.568E-06     70.5869E-03         10.0403     150.551E-03        -10.8150    -118.553E-03    -656.225E-03     150.551E-03        -2.89180     327.800E-03    -163.649E-03    -164.151E-03    -163.948E-03     327.800E-03    -163.852E-03    -634.136E-06    -146.380E+06    -150.025E+06    -318.014E+06    -149.541E+06    -318.010E+06    -146.868E+06     53.7866E+03         46.3304
             342     14.4456E-03     69.5137E-03         2.24716     158.942E-03        -2.85210     241.830E-03    -846.769E-03     158.942E-03        -2.34719     327.054E-03    -163.075E-03    -163.979E-03    -162.229E-03     326.208E-03    -163.979E-03     40.3142E-03     141.133E+06     107.346E+06    -8.78471E+06    -8.78410E+06     107.345E+06     141.133E+06    -944.336E-03         61.2746
             343     13.5947E-03     69.4512E-03         2.54380     140.773E-03        -3.10990     238.289E-03    -804.390E-03     140.773E-03        -2.90645     326.879E-03    -162.995E-03    -163.884E-03    -162.199E-03     326.082E-03    -163.884E-03     38.8627E-03     109.366E+06     88.6951E+06    -17.0061E+06    -17.0040E+06     88.6931E+06     109.366E+06     335.238E+03         58.5845
             344     12.7432E-03     69.4073E-03         2.26602     121.905E-03        -2.80864     255.328E-03    -797.948E-03     121.905E-03        -3.60050     326.478E-03    -162.642E-03    -163.836E-03    -162.141E-03     325.977E-03    -163.836E-03     31.2819E-03     87.6018E+06     75.3167E+06    -24.4870E+06    -24.4835E+06     75.3131E+06     87.6018E+06     533.107E+03         55.5339
             345     11.8928E-03     69.3653E-03         1.30150     105.866E-03        -1.82154     164.620E-03    -684.661E-03     105.866E-03        -1.65091     326.566E-03    -162.730E-03    -163.836E-03    -162.321E-03     326.156E-03    -163.836E-03     28.2075E-03     77.0368E+06     70.4200E+06    -31.7799E+06    -31.7754E+06     70.4156E+06     77.0368E+06     608.331E+03         52.7099
             346     11.0427E-03     69.3302E-03         2.27879     96.8553E-03        -2.78426     65.0589E-03    -570.522E-03     96.8553E-03     472.760E-03     326.743E-03    -162.866E-03    -163.877E-03    -162.569E-03     326.446E-03    -163.877E-03     24.0550E-03     70.1952E+06     49.8952E+06    -39.9329E+06    -39.9221E+06     49.8844E+06     70.1952E+06     925.475E+03         50.4825
             347     10.1929E-03     69.2998E-03         1.71803     89.2667E-03        -2.20728     136.523E-03    -625.782E-03     89.2667E-03         1.67141     326.871E-03    -162.938E-03    -163.933E-03    -162.720E-03     326.654E-03    -163.933E-03     20.5567E-03     60.0950E+06     7.62898E+06    -48.6961E+06    -48.6686E+06     7.60149E+06     60.0950E+06     1.14460E+06         48.9377
             348     9.34304E-03     69.2738E-03         2.02339     67.3185E-03        -2.48277     373.850E-03    -833.222E-03     67.3185E-03         2.19817     327.018E-03    -163.044E-03    -163.974E-03    -162.895E-03     326.868E-03    -163.974E-03     16.9897E-03     45.4724E+06    -38.5250E+06    -58.2542E+06    -57.9555E+06    -38.8237E+06     45.4724E+06     988.154E+03         47.9666
             349     8.49337E-03     69.2521E-03         2.35994     20.3138E-03        -2.78431     568.717E-03    -993.086E-03     20.3138E-03         1.65902     327.155E-03    -163.156E-03    -163.998E-03    -163.062E-03     327.060E-03    -163.998E-03     13.5326E-03     30.3827E+06    -66.9946E+06    -78.9327E+06    -67.5483E+06    -78.3791E+06     30.3827E+06     784.654E+03         47.3925
             350     7.64380E-03     69.2347E-03         1.63662    -49.9992E-03        -2.00611     627.414E-03    -996.906E-03    -49.9992E-03     56.5007E-03     327.134E-03    -163.124E-03    -164.010E-03    -163.067E-03     327.077E-03    -164.010E-03     10.4451E-03     14.3982E+06    -77.3830E+06    -111.433E+06    -77.4095E+06    -111.407E+06     14.3982E+06     797.180E+03         47.0571
             351     6.79420E-03     69.2213E-03         2.11223    -137.483E-03        -2.40230     586.914E-03    -876.983E-03    -137.483E-03    -931.500E-03     327.199E-03    -163.183E-03    -164.016E-03    -163.152E-03     327.168E-03    -164.016E-03     7.67245E-03    -3.27202E+06    -87.8062E+06    -142.990E+06    -87.8176E+06    -142.979E+06    -3.27202E+06     749.734E+03         46.8511
             352     5.94477E-03     69.2123E-03         1.99781    -230.592E-03        -2.19583     386.835E-03    -584.850E-03    -230.592E-03        -1.12867     327.244E-03    -163.234E-03    -164.010E-03    -163.220E-03     327.229E-03    -164.010E-03     5.27804E-03    -22.6490E+06    -98.3102E+06    -171.738E+06    -98.3195E+06    -171.729E+06    -22.6490E+06     798.995E+03         46.7113
             353     5.09519E-03     69.2057E-03         1.23925    -307.510E-03        -1.36752     52.9007E-03    -181.169E-03    -307.510E-03     517.010E-03     327.229E-03    -163.228E-03    -164.001E-03    -163.223E-03     327.224E-03    -164.001E-03     3.09437E-03    -44.4452E+06    -108.790E+06    -200.791E+06    -108.798E+06    -200.783E+06    -44.4452E+06     726.052E+03         46.6061
             354     4.24610E-03     69.2023E-03         2.38149    -355.246E-03        -2.48471    -195.339E-03     92.1155E-03    -355.246E-03         2.78967     327.272E-03    -163.266E-03    -164.005E-03    -163.265E-03     327.270E-03    -164.005E-03     1.44347E-03    -67.6885E+06    -119.217E+06    -231.486E+06    -119.220E+06    -231.483E+06    -67.6885E+06     547.838E+03         46.5217
             355     3.39604E-03     69.2009E-03         4.04594    -386.841E-03        -4.15266    -268.206E-03     161.492E-03    -386.841E-03         8.10379     327.524E-03    -163.521E-03    -164.003E-03    -163.520E-03     327.524E-03    -164.003E-03     259.000E-06    -91.3392E+06    -129.366E+06    -260.075E+06    -129.367E+06    -260.074E+06    -91.3392E+06     416.375E+03         46.4532
             356     2.54658E-03     69.2010E-03         3.83717    -427.718E-03        -3.94152    -272.339E-03     167.994E-03    -427.718E-03         7.67791     327.884E-03    -163.802E-03    -164.082E-03    -163.961E-03     327.883E-03    -163.922E-03    -794.803E-06    -114.480E+06    -138.134E+06    -283.226E+06    -138.136E+06    -283.224E+06    -114.480E+06     258.098E+03         46.3990
             357     1.69904E-03     69.2017E-03         6.16542    -515.735E-03        -6.20050    -266.974E-03     231.896E-03    -515.735E-03         12.3056     327.749E-03    -163.724E-03    -164.025E-03    -164.011E-03     327.748E-03    -163.738E-03    -873.632E-06    -133.354E+06    -144.808E+06    -302.405E+06    -144.813E+06    -302.400E+06    -133.354E+06     125.850E+03         46.3593
             358     849.754E-06     69.2015E-03         10.4575    -627.355E-03        -10.3620    -528.899E-03     624.413E-03    -627.355E-03        -2.77936     327.201E-03    -163.196E-03    -164.005E-03    -163.622E-03     327.201E-03    -163.579E-03    -292.830E-06    -145.432E+06    -149.418E+06    -317.415E+06    -148.944E+06    -317.401E+06    -145.920E+06     448.943E+03         46.3343
             359     14.4440E-03     68.1260E-03         2.20997    -141.670E-03        -2.65822     213.205E-03    -661.451E-03    -141.670E-03        -2.51430     327.236E-03    -163.269E-03    -163.967E-03    -162.391E-03     326.359E-03    -163.967E-03     41.1430E-03     141.034E+06     106.914E+06    -9.03475E+06    -9.03430E+06     106.913E+06     141.034E+06    -24.0190E+03         61.2361
             360     13.5941E-03     68.0656E-03         2.55540    -169.463E-03        -2.90472     36.0592E-03    -385.382E-03    -169.463E-03        -3.14496     327.037E-03    -163.177E-03    -163.860E-03    -162.349E-03     326.209E-03    -163.860E-03     39.7402E-03     108.701E+06     87.8506E+06    -17.3817E+06    -17.3799E+06     87.8489E+06     108.701E+06     138.741E+03         58.5706
             361     12.7442E-03     68.0213E-03         2.29247    -189.623E-03        -2.57649    -82.1172E-03    -201.907E-03    -189.623E-03        -3.73629     326.541E-03    -162.737E-03    -163.804E-03    -162.217E-03     326.022E-03    -163.804E-03     31.8348E-03     87.2392E+06     75.1413E+06    -24.6991E+06    -24.6974E+06     75.1395E+06     87.2392E+06     163.257E+03         55.5453
             362     11.8934E-03     67.9797E-03         1.26000    -205.054E-03        -1.50369    -121.781E-03    -121.908E-03    -205.054E-03        -1.63465     326.390E-03    -162.584E-03    -163.806E-03    -162.175E-03     325.981E-03    -163.806E-03     28.1712E-03     76.6579E+06     69.8787E+06    -32.1650E+06    -32.1615E+06     69.8752E+06     76.6579E+06     488.617E+03         52.7361
             363     11.0429E-03     67.9433E-03         2.37296    -222.065E-03        -2.57811    -69.8196E-03    -135.326E-03    -222.065E-03     591.766E-03     326.499E-03    -162.640E-03    -163.859E-03    -162.346E-03     326.205E-03    -163.859E-03     23.8794E-03     69.6114E+06     49.1801E+06    -40.4210E+06    -40.4104E+06     49.1696E+06     69.6114E+06     925.512E+03         50.5112
             364     10.1928E-03     67.9132E-03         1.81245    -250.547E-03        -1.96984     107.659E-03    -265.058E-03    -250.547E-03         1.80673     326.805E-03    -162.881E-03    -163.924E-03    -162.671E-03     326.595E-03    -163.924E-03     20.1863E-03     59.6789E+06     7.50565E+06    -49.0298E+06    -49.0092E+06     7.48514E+06     59.6789E+06     1.00666E+06         48.9610
             365     9.34302E-03     67.8869E-03         2.11240    -302.571E-03        -2.20868     353.781E-03    -450.061E-03    -302.571E-03         2.28869     326.963E-03    -162.994E-03    -163.969E-03    -162.845E-03     326.814E-03    -163.969E-03     17.0000E-03     45.5073E+06    -38.0499E+06    -58.0732E+06    -57.8092E+06    -38.3139E+06     45.5073E+06     933.129E+03         47.9820
             366     8.49361E-03     67.8651E-03         2.44042    -381.954E-03        -2.45319     481.086E-03    -493.860E-03    -381.954E-03         1.75809     327.079E-03    -163.080E-03    -163.999E-03    -162.981E-03     326.980E-03    -163.999E-03     13.8022E-03     30.2507E+06    -66.5822E+06    -79.2245E+06    -67.3582E+06    -78.4485E+06     30.2507E+06     766.479E+03         47.4011
             367     7.64393E-03     67.8484E-03         1.61619    -483.389E-03        -1.53595     471.974E-03    -391.731E-03    -483.389E-03     7.08508E-03     327.117E-03    -163.100E-03    -164.017E-03    -163.042E-03     327.058E-03    -164.017E-03     10.5633E-03     14.0750E+06    -77.2329E+06    -111.741E+06    -77.2527E+06    -111.722E+06     14.0750E+06     763.867E+03         47.0613
             368     6.79400E-03     67.8350E-03         2.15572    -603.773E-03        -1.96110     408.131E-03    -213.518E-03    -603.773E-03        -1.01510     327.089E-03    -163.057E-03    -164.032E-03    -163.027E-03     327.059E-03    -164.032E-03     7.57379E-03    -3.52542E+06    -87.2528E+06    -142.559E+06    -87.2635E+06    -142.548E+06    -3.52542E+06     660.634E+03         46.8531
             369     5.94440E-03     67.8254E-03         2.23005    -732.732E-03        -1.90762     145.000E-03     177.432E-03    -732.732E-03    -971.280E-03     327.185E-03    -163.140E-03    -164.045E-03    -163.126E-03     327.171E-03    -164.045E-03     5.15417E-03    -23.0520E+06    -97.7319E+06    -171.947E+06    -97.7355E+06    -171.943E+06    -23.0520E+06     340.258E+03         46.7126
             370     5.09514E-03     67.8194E-03         1.60066    -786.152E-03        -1.22617    -304.186E-03     734.863E-03    -842.336E-03     665.120E-03     327.312E-03    -163.260E-03    -164.052E-03    -163.254E-03     327.306E-03    -164.052E-03     3.01611E-03    -44.0004E+06    -108.188E+06    -201.098E+06    -108.191E+06    -201.095E+06    -44.0004E+06     329.930E+03         46.6077
             371     4.24507E-03     67.8161E-03         2.78104    -851.300E-03        -2.35085    -717.109E-03         1.20349    -907.484E-03         2.82647     327.468E-03    -163.420E-03    -164.048E-03    -163.419E-03     327.467E-03    -164.048E-03     1.14169E-03    -66.9102E+06    -118.792E+06    -231.125E+06    -118.797E+06    -231.121E+06    -66.9102E+06     635.955E+03         46.5239
             372     3.39620E-03     67.8144E-03         4.44123    -925.099E-03        -3.96486    -941.799E-03         1.41818    -925.099E-03         8.03130     327.647E-03    -163.625E-03    -164.023E-03    -163.625E-03     327.647E-03    -164.023E-03    -73.3871E-06    -90.7916E+06    -128.695E+06    -259.544E+06    -128.699E+06    -259.541E+06    -90.7916E+06     550.964E+03         46.4559
             373     2.54785E-03     67.8132E-03         4.32555    -903.979E-03        -3.90787        -1.01940         1.43708    -903.979E-03         7.81852     327.800E-03    -163.717E-03    -164.083E-03    -163.844E-03     327.800E-03    -163.956E-03    -593.022E-06    -114.003E+06    -137.516E+06    -282.878E+06    -137.518E+06    -282.876E+06    -114.003E+06     386.076E+03         46.4023
             374     1.69811E-03     67.8150E-03         6.46829    -861.321E-03        -6.13446    -954.217E-03         1.28805    -861.321E-03         12.2965     327.846E-03    -163.718E-03    -164.128E-03    -164.041E-03     327.845E-03    -163.805E-03    -521.954E-06    -133.604E+06    -144.518E+06    -302.453E+06    -144.523E+06    -302.448E+06    -133.604E+06     291.256E+03         46.3630
             375     849.532E-06     67.8157E-03         9.95409    -797.278E-03        -9.71020    -877.946E-03         1.12184    -797.278E-03        -1.93361     327.364E-03    -163.320E-03    -164.045E-03    -163.516E-03     327.364E-03    -163.848E-03    -419.350E-06    -144.905E+06    -148.148E+06    -316.911E+06    -147.819E+06    -316.886E+06    -145.259E+06    -58.6391E+03         46.3384
             376     14.4449E-03     66.7394E-03         2.25412    -381.140E-03        -2.44197     270.650E-03    -458.493E-03    -381.140E-03        -2.75506     327.143E-03    -163.169E-03    -163.974E-03    -162.316E-03     326.290E-03    -163.974E-03     40.6025E-03     141.264E+06     106.795E+06    -8.90403E+06    -8.90362E+06     106.795E+06     141.264E+06     181.308E+03         61.1981
             377     13.5941E-03     66.6789E-03         2.64160    -423.473E-03        -2.71666     60.2321E-03    -135.292E-03    -423.473E-03        -3.45113     327.025E-03    -163.158E-03    -163.867E-03    -162.350E-03     326.217E-03    -163.867E-03     39.3538E-03     108.556E+06     87.7191E+06    -17.1440E+06    -17.1433E+06     87.7184E+06     108.556E+06    -25.2442E+03         58.5562
             378     12.7436E-03     66.6346E-03         2.35276    -315.607E-03        -2.50017    -65.7587E-03     62.2955E-03    -459.552E-03        -4.09449     326.771E-03    -162.968E-03    -163.803E-03    -162.434E-03     326.237E-03    -163.803E-03     32.3053E-03     86.4702E+06     74.6427E+06    -24.8105E+06    -24.8100E+06     74.6422E+06     86.4702E+06    -125.453E+03         55.5559
             379     11.8939E-03     66.5935E-03         1.29513    -355.019E-03        -1.37908     22.0462E-03     37.9477E-03    -498.964E-03        -1.90877     326.698E-03    -162.911E-03    -163.787E-03    -162.490E-03     326.277E-03    -163.787E-03     28.5911E-03     75.8539E+06     68.8468E+06    -32.3226E+06    -32.3199E+06     68.8442E+06     75.8539E+06     349.439E+03         52.7625
             380     11.0434E-03     66.5576E-03         2.55579    -555.685E-03        -2.40944     227.164E-03    -80.8170E-03    -555.685E-03     538.028E-03     326.495E-03    -162.669E-03    -163.826E-03    -162.371E-03     326.197E-03    -163.826E-03     24.0636E-03     69.1801E+06     48.5777E+06    -40.1536E+06    -40.1456E+06     48.5696E+06     69.1801E+06     800.435E+03         50.5409
             381     10.1933E-03     66.5262E-03         1.89186    -522.481E-03        -1.75137     251.102E-03    -2.48257E-03    -630.612E-03         1.98285     326.591E-03    -162.695E-03    -163.896E-03    -162.484E-03     326.380E-03    -163.896E-03     20.2514E-03     59.3928E+06     7.77253E+06    -48.8103E+06    -48.7984E+06     7.76061E+06     59.3928E+06     768.655E+03         48.9852
             382     9.34335E-03     66.5007E-03         2.20054    -600.915E-03        -1.96669     41.3539E-03     300.631E-03    -709.046E-03         2.47858     326.777E-03    -162.822E-03    -163.955E-03    -162.676E-03     326.631E-03    -163.955E-03     16.8388E-03     45.1343E+06    -38.0279E+06    -58.3383E+06    -57.9521E+06    -38.4141E+06     45.1343E+06     739.486E+03         47.9980
             383     8.49286E-03     66.4786E-03         2.63918    -784.257E-03        -2.22099    -90.6789E-03     508.877E-03    -784.257E-03         1.77649     326.888E-03    -162.885E-03    -164.003E-03    -162.789E-03     326.792E-03    -164.003E-03     13.6255E-03     29.9396E+06    -66.8593E+06    -79.2123E+06    -67.4524E+06    -78.6191E+06     29.9396E+06     760.803E+03         47.4101
             384     7.64337E-03     66.4613E-03         1.76397    -866.185E-03        -1.26595    -102.530E-03     600.554E-03    -866.185E-03    -158.340E-03     327.084E-03    -163.051E-03    -164.033E-03    -162.993E-03     327.026E-03    -164.033E-03     10.5101E-03     13.8709E+06    -77.0068E+06    -111.457E+06    -77.0215E+06    -111.442E+06     13.8709E+06     446.860E+03         47.0657
             385     6.79427E-03     66.4486E-03         2.36342    -960.189E-03        -1.77613    -186.288E-03     773.576E-03    -960.189E-03        -1.28585     327.188E-03    -163.139E-03    -164.050E-03    -163.108E-03     327.158E-03    -164.050E-03     7.57962E-03    -3.52194E+06    -86.8994E+06    -142.404E+06    -86.9037E+06    -142.400E+06    -3.52194E+06     284.800E+03         46.8551
             386     5.94437E-03     66.4393E-03         2.48284        -1.01582        -1.83775    -281.953E-03     977.791E-03        -1.06657        -1.18191     327.185E-03    -163.124E-03    -164.061E-03    -163.110E-03     327.171E-03    -164.061E-03     5.00480E-03    -23.0418E+06    -97.6536E+06    -171.577E+06    -97.6583E+06    -171.572E+06    -23.0418E+06     399.123E+03         46.7139
             387     5.09452E-03     66.4325E-03         1.80071    -889.165E-03        -1.28040    -372.280E-03         1.19555        -1.19212     594.237E-03     327.408E-03    -163.345E-03    -164.063E-03    -163.340E-03     327.403E-03    -164.063E-03     2.77369E-03    -44.6648E+06    -108.705E+06    -201.669E+06    -108.710E+06    -201.664E+06    -44.6648E+06     441.807E+03         46.6089
             388     4.24598E-03     66.4294E-03         3.18861        -1.07234        -2.49512    -691.089E-03         1.63679        -1.32454         3.16082     327.625E-03    -163.592E-03    -164.033E-03    -163.591E-03     327.624E-03    -164.033E-03     1.02054E-03    -67.5845E+06    -118.976E+06    -231.236E+06    -118.981E+06    -231.232E+06    -67.5845E+06     375.102E+03         46.5254
             389     3.39681E-03     66.4269E-03         4.94464        -1.42781        -3.92078        -1.11198         2.13584        -1.42781         8.23982     327.512E-03    -163.509E-03    -164.003E-03    -163.509E-03     327.511E-03    -164.003E-03    -27.0402E-06    -90.9887E+06    -128.683E+06    -259.230E+06    -128.687E+06    -259.226E+06    -90.9887E+06     435.023E+03         46.4577
             390     2.54641E-03     66.4281E-03         5.09674        -1.47219        -4.05925        -1.44373         2.48122        -1.47219         8.24845     327.521E-03    -163.501E-03    -164.020E-03    -163.501E-03     327.521E-03    -164.020E-03    -354.352E-06    -113.574E+06    -137.556E+06    -283.040E+06    -137.559E+06    -283.036E+06    -113.574E+06     538.657E+03         46.4044
             391     1.69775E-03     66.4267E-03         6.94805        -1.45755        -5.96657        -1.53421         2.51569        -1.45755         12.1380     327.821E-03    -163.675E-03    -164.145E-03    -163.744E-03     327.820E-03    -164.076E-03    -668.447E-06    -132.943E+06    -144.429E+06    -301.267E+06    -144.434E+06    -301.262E+06    -132.943E+06     290.057E+03         46.3655
             392     848.790E-06     66.4301E-03         9.30068        -1.38116        -8.44101        -1.49403         2.35370        -1.38116    -916.104E-03     328.179E-03    -163.699E-03    -164.479E-03    -164.134E-03     328.178E-03    -164.044E-03    -723.438E-06    -145.620E+06    -149.036E+06    -316.888E+06    -148.706E+06    -316.864E+06    -145.974E+06    -112.682E+03         46.3412
             393     14.4444E-03     65.3525E-03         2.38730    -558.868E-03        -2.26334     255.972E-03    -132.009E-03    -558.868E-03        -2.87515     327.157E-03    -163.179E-03    -163.977E-03    -162.319E-03     326.296E-03    -163.977E-03     40.8041E-03     141.409E+06     106.859E+06    -8.63678E+06    -8.63558E+06     106.858E+06     141.409E+06     90.1893E+03         61.1606
             394     13.5942E-03     65.2930E-03         2.81776    -615.417E-03        -2.60267     231.836E-03    -16.7439E-03    -615.417E-03        -3.65444     327.019E-03    -163.147E-03    -163.872E-03    -162.342E-03     326.215E-03    -163.872E-03     39.2184E-03     108.884E+06     87.8384E+06    -16.8756E+06    -16.8747E+06     87.8374E+06     108.884E+06    -58.3205E+03         58.5420
             395     12.7435E-03     65.2485E-03         2.54519    -361.934E-03        -2.56211     313.320E-03    -10.8440E-03    -681.332E-03        -4.42807     326.691E-03    -162.881E-03    -163.811E-03    -162.349E-03     326.160E-03    -163.811E-03     32.2377E-03     86.4285E+06     73.9612E+06    -24.5586E+06    -24.5576E+06     73.9601E+06     86.4285E+06     84.3013E+03         55.5662
             396     11.8932E-03     65.2060E-03         1.54214    -443.455E-03        -1.45706     407.783E-03    -3.30793E-03    -762.853E-03        -2.31414     326.821E-03    -163.028E-03    -163.793E-03    -162.601E-03     326.394E-03    -163.793E-03     28.8142E-03     75.3600E+06     67.9404E+06    -32.2551E+06    -32.2529E+06     67.9383E+06     75.3600E+06     348.578E+03         52.7883
             397     11.0439E-03     65.1714E-03         2.73589    -858.059E-03        -2.21904     358.473E-03     158.374E-03    -858.059E-03     91.7609E-03     326.745E-03    -162.926E-03    -163.819E-03    -162.621E-03     326.440E-03    -163.819E-03     24.3774E-03     68.8351E+06     48.4239E+06    -40.0937E+06    -40.0890E+06     48.4192E+06     68.8351E+06     470.631E+03         50.5705
             398     10.1934E-03     65.1404E-03         2.07438    -768.929E-03        -1.62390     154.350E-03     484.332E-03    -957.127E-03         1.58592     326.621E-03    -162.744E-03    -163.876E-03    -162.526E-03     326.402E-03    -163.876E-03     20.5940E-03     59.0968E+06     7.98080E+06    -48.4470E+06    -48.4386E+06     7.97240E+06     59.0968E+06     508.284E+03         49.0102
             399     9.34321E-03     65.1139E-03         2.42931    -862.503E-03        -1.86453    -123.802E-03     876.783E-03        -1.05070         2.12796     326.765E-03    -162.834E-03    -163.932E-03    -162.687E-03     326.619E-03    -163.932E-03     16.8143E-03     44.7071E+06    -38.2169E+06    -58.2433E+06    -57.5860E+06    -38.8743E+06     44.7071E+06     548.547E+03         48.0152
             400     8.49398E-03     65.0927E-03         2.90057        -1.13121        -2.06500    -453.338E-03         1.28890        -1.13121         1.55967     326.784E-03    -162.800E-03    -163.984E-03    -162.708E-03     326.692E-03    -163.984E-03     13.3092E-03     30.3908E+06    -66.4732E+06    -78.3647E+06    -66.6750E+06    -78.1629E+06     30.3908E+06     515.618E+03         47.4202
             401     7.64356E-03     65.0749E-03         2.28800        -1.19578        -1.39637    -713.099E-03         1.60472        -1.19578    -152.605E-03     326.803E-03    -162.771E-03    -164.032E-03    -162.715E-03     326.747E-03    -164.032E-03     10.3765E-03     14.1777E+06    -76.6967E+06    -110.906E+06    -76.7063E+06    -110.896E+06     14.1777E+06     375.967E+03         47.0710
             402     6.79346E-03     65.0617E-03         2.74705        -1.25562        -1.79732    -775.715E-03         1.72545        -1.25562        -1.03984     327.179E-03    -163.113E-03    -164.066E-03    -163.082E-03     327.148E-03    -164.066E-03     7.58369E-03    -3.96583E+06    -87.4817E+06    -143.048E+06    -87.4879E+06    -143.042E+06    -3.96583E+06     417.562E+03         46.8578
             403     5.94454E-03     65.0526E-03         2.85771        -1.27995        -1.88327    -728.923E-03         1.75412        -1.33070    -823.257E-03     327.433E-03    -163.372E-03    -164.061E-03    -163.359E-03     327.420E-03    -164.061E-03     4.92337E-03    -23.4314E+06    -97.9104E+06    -171.568E+06    -97.9169E+06    -171.562E+06    -23.4314E+06     651.043E+03         46.7153
             404     5.09523E-03     65.0463E-03         2.26877        -1.04547        -1.53214    -653.036E-03         1.78485        -1.44066     856.834E-03     327.419E-03    -163.381E-03    -164.039E-03    -163.376E-03     327.415E-03    -164.039E-03     2.81699E-03    -45.0420E+06    -108.436E+06    -201.252E+06    -108.440E+06    -201.248E+06    -45.0420E+06     433.505E+03         46.6099
             405     4.24553E-03     65.0415E-03         3.62895        -1.24835        -2.70175    -735.052E-03         2.00669        -1.59278         3.60322     327.411E-03    -163.384E-03    -164.027E-03    -163.383E-03     327.410E-03    -164.027E-03     1.10600E-03    -67.7828E+06    -118.803E+06    -231.332E+06    -118.804E+06    -231.331E+06    -67.7828E+06     83.5561E+03         46.5261
             406     3.39602E-03     65.0419E-03         5.26216        -1.75960        -3.85043        -1.11348         2.52521        -1.75960         8.32283     327.541E-03    -163.522E-03    -164.019E-03    -163.522E-03     327.540E-03    -164.019E-03    -32.3161E-06    -91.0980E+06    -128.840E+06    -259.720E+06    -128.843E+06    -259.718E+06    -91.0980E+06     185.566E+03         46.4584
             407     2.54756E-03     65.0405E-03         5.52595        -1.88406        -4.01825        -1.62222         3.12992        -1.88406         8.26212     327.645E-03    -163.632E-03    -164.013E-03    -163.631E-03     327.644E-03    -164.013E-03    -652.446E-06    -113.384E+06    -137.439E+06    -282.860E+06    -137.442E+06    -282.856E+06    -113.384E+06     458.923E+03         46.4050
             408     1.69767E-03     65.0414E-03         6.89463        -1.97385        -5.33736        -1.78911         3.34639        -1.97385         11.0137     327.741E-03    -163.677E-03    -164.064E-03    -163.684E-03     327.740E-03    -164.056E-03    -1.24579E-03    -132.659E+06    -144.235E+06    -300.637E+06    -144.239E+06    -300.633E+06    -132.659E+06     225.477E+03         46.3661
             409     848.045E-06     65.0415E-03         8.18595        -2.18150        -6.41312        -1.85804         3.63086        -2.18150     78.5291E-03     328.156E-03    -163.795E-03    -164.362E-03    -164.175E-03     328.156E-03    -163.980E-03    -1.08346E-03    -145.753E+06    -149.292E+06    -316.741E+06    -149.305E+06    -316.727E+06    -145.753E+06     154.719E+03         46.3419
             410     14.4442E-03     63.9656E-03         2.49170    -632.065E-03        -2.12151     287.619E-03     162.538E-03    -712.033E-03        -2.83999     327.022E-03    -163.037E-03    -163.986E-03    -162.177E-03     326.162E-03    -163.986E-03     40.7931E-03     141.097E+06     106.792E+06    -8.75014E+06     -8.7492E+06     106.791E+06     141.097E+06    -106.341E+03         61.1225
             411     13.5939E-03     63.9062E-03         2.92728    -707.851E-03        -2.47620     493.737E-03     37.3145E-03    -787.819E-03        -3.62008     327.169E-03    -163.287E-03    -163.882E-03    -162.481E-03     326.363E-03    -163.882E-03     39.2840E-03     108.733E+06     87.7232E+06    -17.0147E+06    -17.0139E+06     87.7224E+06     108.733E+06    -135.866E+03         58.5270
             412     12.7439E-03     63.8623E-03         2.69316    -388.102E-03        -2.55791     573.941E-03     56.1232E-03    -882.917E-03        -4.32413     326.861E-03    -163.048E-03    -163.813E-03    -162.515E-03     326.329E-03    -163.813E-03     32.2575E-03     86.6022E+06     73.5293E+06    -24.6257E+06    -24.6241E+06     73.5278E+06     86.6022E+06     311.812E+03         55.5760
             413     11.8934E-03     63.8199E-03         1.72068    -490.448E-03        -1.48258     351.248E-03     381.667E-03    -985.263E-03        -2.24112     326.665E-03    -162.870E-03    -163.795E-03    -162.448E-03     326.243E-03    -163.795E-03     28.6137E-03     75.4545E+06     67.7091E+06    -32.1160E+06    -32.1139E+06     67.7070E+06     75.4545E+06     442.028E+03         52.8137
             414     11.0428E-03     63.7837E-03         2.85808        -1.07842        -2.01938    -27.9186E-03     866.617E-03        -1.07842    -36.1402E-03     326.741E-03    -162.916E-03    -163.825E-03    -162.617E-03     326.442E-03    -163.825E-03     24.1061E-03     68.5926E+06     48.3673E+06    -40.1341E+06    -40.1334E+06     48.3666E+06     68.5926E+06     189.928E+03         50.5998
             415     10.1937E-03     63.7544E-03         2.42356        -1.04066        -1.60515    -224.856E-03         1.16411        -1.16150         1.09282     326.830E-03    -162.956E-03    -163.874E-03    -162.740E-03     326.614E-03    -163.874E-03     20.5152E-03     58.6984E+06     7.45785E+06    -48.7428E+06    -48.7375E+06     7.45253E+06     58.6984E+06     311.868E+03         49.0355
             416     9.34379E-03     63.7273E-03         2.66970        -1.13048        -1.74854    -192.774E-03         1.23478        -1.25132         1.50850     326.696E-03    -162.774E-03    -163.922E-03    -162.623E-03     326.545E-03    -163.922E-03     17.1188E-03     44.5641E+06    -38.1028E+06    -57.9251E+06    -57.5592E+06    -38.4687E+06     44.5641E+06     377.665E+03         48.0332
             417     8.49349E-03     63.7062E-03         2.89851        -1.22208        -1.87653    -248.783E-03         1.40575        -1.35707         1.26057     326.766E-03    -162.789E-03    -163.977E-03    -162.691E-03     326.668E-03    -163.977E-03     13.7784E-03     29.9289E+06    -66.2841E+06    -78.8221E+06    -67.0052E+06    -78.1010E+06     29.9289E+06     218.779E+03         47.4314
             418     7.64382E-03     63.6895E-03         2.53363        -1.18292        -1.55248    -534.323E-03         1.79919        -1.46663    -47.2606E-03     326.928E-03    -162.908E-03    -164.020E-03    -162.849E-03     326.869E-03    -164.020E-03     10.5936E-03     13.9483E+06    -76.9200E+06    -111.432E+06    -76.9379E+06    -111.414E+06     13.9483E+06     678.403E+03         47.0773
             419     6.79393E-03     63.6752E-03         3.03788        -1.41624        -1.82965    -862.315E-03         2.21927        -1.56496    -650.628E-03     327.101E-03    -163.053E-03    -164.048E-03    -163.023E-03     327.071E-03    -164.048E-03     7.46953E-03    -3.79354E+06    -87.0685E+06    -142.870E+06    -87.0855E+06    -142.853E+06    -3.79354E+06     867.143E+03         46.8610
             420     5.94414E-03     63.6653E-03         3.51307        -1.64169        -2.08246        -1.21497         2.64558        -1.64169    -213.648E-03     327.367E-03    -163.318E-03    -164.049E-03    -163.305E-03     327.355E-03    -164.049E-03     4.78521E-03    -23.2997E+06    -97.7526E+06    -171.590E+06    -97.7563E+06    -171.587E+06    -23.2997E+06     421.418E+03         46.7168
             421     5.09525E-03     63.6594E-03         3.43111        -1.53810        -2.11495        -1.53220         2.99676        -1.68651         1.05240     327.383E-03    -163.350E-03    -164.033E-03    -163.346E-03     327.379E-03    -164.033E-03     2.76639E-03    -44.5810E+06    -108.327E+06    -200.515E+06    -108.329E+06    -200.512E+06    -44.5810E+06     365.404E+03         46.6104
             422     4.24567E-03     63.6563E-03         4.45957        -1.55999        -3.14375        -1.62417         3.08840        -1.70840         3.47914     327.392E-03    -163.369E-03    -164.023E-03    -163.368E-03     327.391E-03    -164.023E-03     1.01300E-03    -67.7896E+06    -118.915E+06    -231.512E+06    -118.918E+06    -231.509E+06    -67.7896E+06     276.640E+03         46.5262
             423     3.39638E-03     63.6542E-03         5.19927        -1.75278        -3.72728        -1.46575         2.93774        -1.75278         7.72183     327.645E-03    -163.648E-03    -163.997E-03    -163.648E-03     327.645E-03    -163.997E-03    -236.269E-06    -91.2367E+06    -128.774E+06    -259.967E+06    -128.776E+06    -259.965E+06    -91.2367E+06     183.836E+03         46.4581
             424     2.54694E-03     63.6542E-03         5.47591        -1.85639        -3.93032        -1.44973         2.99531        -1.85639         8.24598     327.732E-03    -163.781E-03    -163.951E-03    -163.802E-03     327.731E-03    -163.929E-03    -830.593E-06    -113.724E+06    -137.447E+06    -282.868E+06    -137.448E+06    -282.866E+06    -113.724E+06     272.345E+03         46.4045
             425     1.69848E-03     63.6546E-03         6.64664        -2.00101        -4.98621        -1.69373         3.35417        -2.00101         10.4459     327.660E-03    -163.781E-03    -163.879E-03    -163.813E-03     327.659E-03    -163.847E-03    -996.244E-06    -133.037E+06    -144.199E+06    -300.904E+06    -144.200E+06    -300.902E+06    -133.037E+06     275.582E+03         46.3653
             426     850.104E-06     63.6549E-03         6.47870        -2.19539        -4.63419        -1.96035         3.80486        -2.19539         1.97607     327.575E-03    -163.775E-03    -163.801E-03    -163.800E-03     327.575E-03    -163.775E-03    -698.551E-06    -145.360E+06    -148.801E+06    -316.317E+06    -148.472E+06    -316.312E+06    -145.694E+06     24.6711E+03         46.3407
             427     14.4443E-03     62.5796E-03         2.63242    -641.100E-03        -2.08883     350.912E-03     433.522E-03    -881.947E-03        -2.79643     326.944E-03    -162.958E-03    -163.986E-03    -162.104E-03     326.090E-03    -163.986E-03     40.6218E-03     140.995E+06     106.804E+06    -9.01572E+06    -9.01514E+06     106.803E+06     140.995E+06     49.0743E+03         61.0847
             428     13.5935E-03     62.5195E-03         3.03885    -729.150E-03        -2.42829     455.282E-03     396.126E-03    -969.998E-03        -3.52761     327.124E-03    -163.239E-03    -163.885E-03    -162.437E-03     326.322E-03    -163.885E-03     39.1851E-03     108.258E+06     87.5506E+06    -17.3871E+06    -17.3865E+06     87.5500E+06     108.258E+06     72.3661E+03         58.5115
             429     12.7434E-03     62.4750E-03         2.93021    -541.379E-03        -2.52214     231.387E-03     699.144E-03        -1.06384        -4.21111     327.045E-03    -163.234E-03    -163.811E-03    -162.708E-03     326.519E-03    -163.811E-03     32.0609E-03     86.0906E+06     73.2664E+06    -24.9695E+06    -24.9682E+06     73.2652E+06     86.0906E+06     1.44189E+03         55.5848
             430     11.8939E-03     62.4336E-03         2.02337    -624.121E-03        -1.53527    -159.120E-03         1.16969        -1.14659        -2.16449     326.725E-03    -162.940E-03    -163.784E-03    -162.524E-03     326.308E-03    -163.784E-03     28.4377E-03     75.3113E+06     67.6712E+06    -32.3148E+06    -32.3128E+06     67.6691E+06     75.3113E+06     187.617E+03         52.8386
             431     11.0437E-03     62.3979E-03         3.01213        -1.21518        -1.92169    -425.992E-03         1.51644        -1.21518    -111.077E-03     326.497E-03    -162.676E-03    -163.821E-03    -162.374E-03     326.195E-03    -163.821E-03     24.2190E-03     68.4415E+06     48.0616E+06    -40.3215E+06    -40.3180E+06     48.0581E+06     68.4415E+06     455.996E+03         50.6290
             432     10.1932E-03     62.3665E-03         2.68385        -1.19245        -1.59834    -493.706E-03         1.66729        -1.28051     851.027E-03     326.676E-03    -162.790E-03    -163.887E-03    -162.570E-03     326.457E-03    -163.887E-03     20.6352E-03     58.5243E+06     7.02678E+06    -49.1655E+06    -49.1595E+06     7.02073E+06     58.5243E+06     510.823E+03         49.0608
             433     9.34342E-03     62.3420E-03         2.86315        -1.26997        -1.68719    -411.816E-03         1.67583        -1.35804         1.16472     326.784E-03    -162.845E-03    -163.938E-03    -162.694E-03     326.632E-03    -163.938E-03     17.1615E-03     44.2691E+06    -37.9272E+06    -58.1482E+06    -58.1358E+06    -37.9396E+06     44.2691E+06     246.743E+03         48.0517
             434     8.49311E-03     62.3200E-03         2.95625        -1.25227        -1.79395    -214.888E-03         1.58972        -1.46479     893.155E-03     326.941E-03    -162.960E-03    -163.981E-03    -162.863E-03     326.844E-03    -163.981E-03     13.6936E-03     29.2970E+06    -66.1193E+06    -79.4954E+06    -67.5474E+06    -78.0673E+06     29.2970E+06     61.8999E+03         47.4433
             435     7.64362E-03     62.3021E-03         2.56565        -1.05041        -1.60272    -258.411E-03         1.77366        -1.60272    -312.577E-03     327.157E-03    -163.153E-03    -164.004E-03    -163.097E-03     327.100E-03    -164.004E-03     10.3944E-03     13.6998E+06    -77.2079E+06    -112.075E+06    -77.2195E+06    -112.063E+06     13.6998E+06     398.827E+03         47.0842
             436     6.79445E-03     62.2892E-03         3.28961        -1.39442        -1.98599    -831.731E-03         2.47514        -1.73421        -1.02986     327.116E-03    -163.103E-03    -164.013E-03    -163.073E-03     327.086E-03    -164.013E-03     7.55806E-03    -3.52551E+06    -87.2486E+06    -142.556E+06    -87.2647E+06    -142.540E+06    -3.52551E+06     753.475E+03         46.8645
             437     5.94487E-03     62.2786E-03         4.01809        -1.80862        -2.30982        -1.55868         3.26694        -1.80862    -728.437E-03     327.090E-03    -163.066E-03    -164.024E-03    -163.053E-03     327.077E-03    -164.024E-03     4.88307E-03    -23.0367E+06    -97.7283E+06    -171.195E+06    -97.7360E+06    -171.187E+06    -23.0367E+06     626.816E+03         46.7182
             438     5.09479E-03     62.2729E-03         4.02174        -1.81186        -2.32956        -1.98721         3.67938        -1.81186     441.569E-03     327.356E-03    -163.332E-03    -164.024E-03    -163.328E-03     327.352E-03    -164.024E-03     2.54463E-03    -44.6308E+06    -108.517E+06    -200.598E+06    -108.521E+06    -200.593E+06    -44.6308E+06     313.908E+03         46.6106
             439     4.24575E-03     62.2693E-03         5.07449        -1.76599        -3.46197        -2.07882         3.69134        -1.76599         3.38111     327.570E-03    -163.580E-03    -163.990E-03    -163.579E-03     327.569E-03    -163.990E-03     909.071E-06    -67.7232E+06    -119.090E+06    -231.581E+06    -119.097E+06    -231.574E+06    -67.7232E+06     360.475E+03         46.5256
             440     3.39664E-03     62.2677E-03         5.44068        -1.72481        -3.90977        -1.80460         3.33551        -1.72481         7.79000     327.563E-03    -163.629E-03    -163.933E-03    -163.629E-03     327.562E-03    -163.933E-03    -251.579E-06    -91.1713E+06    -128.919E+06    -259.922E+06    -128.926E+06    -259.915E+06    -91.1713E+06     451.776E+03         46.4571
             441     2.54779E-03     62.2674E-03         5.99091        -1.75156        -4.46396        -1.53137         3.05832        -1.75156         9.29569     327.504E-03    -163.602E-03    -163.903E-03    -163.623E-03     327.504E-03    -163.881E-03    -792.695E-06    -113.693E+06    -137.635E+06    -282.670E+06    -137.637E+06    -282.668E+06    -113.693E+06     386.712E+03         46.4032
             442     1.69828E-03     62.2680E-03         6.73388        -1.88129        -5.10277        -1.50912         3.14023        -1.88129         10.8704     327.509E-03    -163.615E-03    -163.894E-03    -163.639E-03     327.509E-03    -163.869E-03    -508.689E-06    -132.806E+06    -144.490E+06    -300.677E+06    -144.491E+06    -300.676E+06    -132.806E+06     308.850E+03         46.3637
             443     848.357E-06     62.2691E-03         5.39635        -2.08285        -3.58801        -1.86616         3.67451        -2.08285         4.49252     327.713E-03    -163.697E-03    -164.016E-03    -163.706E-03     327.712E-03    -164.006E-03     45.0519E-06    -145.571E+06    -149.121E+06    -316.216E+06    -148.705E+06    -316.214E+06    -145.989E+06     411.118E+03         46.3391
             444     14.4445E-03     61.1935E-03         2.95470    -800.185E-03        -2.18164     10.2996E-03         1.02735        -1.06477        -2.93082     327.123E-03    -163.142E-03    -163.980E-03    -162.292E-03     326.272E-03    -163.980E-03     40.5257E-03     141.435E+06     106.852E+06    -8.75533E+06    -8.75454E+06     106.851E+06     141.435E+06     230.881E+03         61.0469
             445     13.5941E-03     61.1330E-03         3.37933    -866.217E-03        -2.54380    -227.172E-03         1.32729        -1.13081        -3.61181     327.120E-03    -163.248E-03    -163.872E-03    -162.446E-03     326.318E-03    -163.872E-03     39.1484E-03     108.435E+06     87.4776E+06    -17.1915E+06    -17.1907E+06     87.4768E+06     108.435E+06     173.239E+03         58.4962
             446     12.7439E-03     61.0880E-03         3.45935    -886.415E-03        -2.59864    -508.519E-03         1.66846        -1.18565        -4.38190     326.786E-03    -162.983E-03    -163.803E-03    -162.460E-03     326.263E-03    -163.803E-03     31.9608E-03     85.6940E+06     72.9870E+06    -24.8004E+06    -24.7983E+06     72.9850E+06     85.6940E+06     23.5932E+03         55.5930
             447     11.8935E-03     61.0468E-03         2.56375    -935.103E-03        -1.64212    -562.261E-03         1.78313        -1.23434        -2.41328     326.687E-03    -162.900E-03    -163.787E-03    -162.479E-03     326.266E-03    -163.787E-03     28.5995E-03     74.8960E+06     67.2379E+06    -32.3796E+06    -32.3758E+06     67.2341E+06     74.8960E+06     351.808E+03         52.8622
             448     11.0434E-03     61.0119E-03         3.20613        -1.29057        -1.91508    -489.439E-03         1.78049        -1.29057    -303.425E-03     326.527E-03    -162.700E-03    -163.827E-03    -162.393E-03     326.220E-03    -163.827E-03     24.4327E-03     68.3620E+06     47.8731E+06    -40.4625E+06    -40.4582E+06     47.8688E+06     68.3620E+06     518.020E+03         50.6575
             449     10.1930E-03     60.9809E-03         2.80734        -1.21269        -1.57514    -501.274E-03         1.87919        -1.35841     830.949E-03     326.609E-03    -162.714E-03    -163.895E-03    -162.496E-03     326.392E-03    -163.895E-03     20.5288E-03     58.7498E+06     7.50300E+06    -48.8778E+06    -48.8695E+06     7.49466E+06     58.7498E+06     185.706E+03         49.0862
             450     9.34281E-03     60.9549E-03         3.09828        -1.28563        -1.77398    -639.273E-03         2.10929        -1.43134         1.17705     327.028E-03    -163.088E-03    -163.940E-03    -162.944E-03     326.885E-03    -163.940E-03     16.6891E-03     44.6945E+06    -37.7608E+06    -57.7907E+06    -57.7495E+06    -37.8020E+06     44.6945E+06    -5.09059E+03         48.0705
             451     8.49406E-03     60.9333E-03         3.49775        -1.42336        -2.02962    -843.712E-03         2.38938        -1.50090     711.768E-03     327.123E-03    -163.162E-03    -163.961E-03    -163.070E-03     327.031E-03    -163.961E-03     13.3426E-03     29.7765E+06    -66.2089E+06    -79.2899E+06    -67.1819E+06    -78.3168E+06     29.7765E+06     348.847E+03         47.4555
             452     7.64417E-03     60.9158E-03         3.16469        -1.29664        -1.83077    -991.175E-03         2.59370        -1.56524    -652.880E-03     326.975E-03    -162.999E-03    -163.976E-03    -162.943E-03     326.919E-03    -163.976E-03     10.3540E-03     13.6813E+06    -77.1348E+06    -112.261E+06    -77.1460E+06    -112.250E+06     13.6813E+06     387.082E+03         47.0911
             453     6.79433E-03     60.9021E-03         3.50529        -1.44043        -2.03600        -1.05856         2.71892        -1.63150        -1.37530     327.018E-03    -163.022E-03    -163.996E-03    -162.991E-03     326.988E-03    -163.996E-03     7.65018E-03    -3.73698E+06    -87.4236E+06    -142.940E+06    -87.4281E+06    -142.936E+06    -3.73698E+06     369.437E+03         46.8679
             454     5.94458E-03     60.8931E-03         3.80733        -1.66433        -2.12862        -1.18970         2.90643        -1.70235    -928.813E-03     327.164E-03    -163.160E-03    -164.003E-03    -163.146E-03     327.149E-03    -164.003E-03     5.10056E-03    -23.1230E+06    -97.7032E+06    -171.031E+06    -97.7101E+06    -171.024E+06    -23.1230E+06     637.661E+03         46.7194
             455     5.09536E-03     60.8859E-03         3.53444        -1.58649        -1.95732        -1.31469         3.08189        -1.77658     319.720E-03     327.356E-03    -163.367E-03    -163.990E-03    -163.363E-03     327.352E-03    -163.990E-03     2.64986E-03    -44.6200E+06    -108.298E+06    -200.506E+06    -108.305E+06    -200.499E+06    -44.6200E+06     487.534E+03         46.6104
             456     4.24611E-03     60.8826E-03         4.89688        -1.70299        -3.23101        -1.45379         3.27173        -1.85506         3.54671     327.463E-03    -163.505E-03    -163.958E-03    -163.504E-03     327.462E-03    -163.958E-03     894.073E-06    -67.0494E+06    -118.639E+06    -231.619E+06    -118.647E+06    -231.611E+06    -67.0494E+06     502.313E+03         46.5247
             457     3.39688E-03     60.8811E-03         5.71403        -1.91700        -3.86974        -1.74349         3.58778        -1.91700         7.83864     327.406E-03    -163.484E-03    -163.922E-03    -163.484E-03     327.406E-03    -163.922E-03    -48.8353E-06    -90.3294E+06    -128.596E+06    -259.636E+06    -128.604E+06    -259.628E+06    -90.3294E+06     635.257E+03         46.4559
             458     2.54724E-03     60.8813E-03         6.75418        -1.92012        -4.93875        -2.03182         3.84725        -1.92012         9.90550     327.414E-03    -163.505E-03    -163.909E-03    -163.505E-03     327.414E-03    -163.909E-03    -556.618E-06    -112.992E+06    -137.350E+06    -282.062E+06    -137.354E+06    -282.059E+06    -112.992E+06     419.069E+03         46.4018
             459     1.69778E-03     60.8822E-03         6.93822        -1.88728        -5.21219        -1.94409         3.67011        -1.88728         10.6445     327.643E-03    -163.617E-03    -164.025E-03    -163.742E-03     327.642E-03    -163.900E-03    -760.464E-06    -132.792E+06    -144.329E+06    -300.302E+06    -144.330E+06    -300.300E+06    -132.792E+06     150.733E+03         46.3625
             460     849.165E-06     60.8818E-03         5.22930        -1.93546        -3.47801        -1.81149         3.56279        -1.93546         6.46769     327.740E-03    -163.585E-03    -164.154E-03    -163.710E-03     327.739E-03    -164.029E-03    -898.704E-06    -145.859E+06    -148.948E+06    -316.077E+06    -148.864E+06    -316.076E+06    -145.944E+06    -11.2481E+03         46.3379
             461     14.4444E-03     59.8069E-03         3.38457        -1.11023        -2.28065    -618.027E-03         1.82566        -1.21394        -2.91986     327.220E-03    -163.243E-03    -163.977E-03    -162.386E-03     326.363E-03    -163.977E-03     40.6552E-03     141.521E+06     106.799E+06    -8.78239E+06    -8.78187E+06     106.798E+06     141.521E+06     35.3776E+03         61.0090
             462     13.5943E-03     59.7459E-03         3.86533        -1.13950        -2.67739    -997.108E-03         2.28876        -1.24321        -3.57151     327.097E-03    -163.228E-03    -163.869E-03    -162.414E-03     326.283E-03    -163.869E-03     39.4394E-03     109.171E+06     87.5919E+06    -16.7802E+06    -16.7799E+06     87.5916E+06     109.171E+06     103.888E+03         58.4802
             463     12.7438E-03     59.7025E-03         3.82510        -1.08455        -2.65698    -999.902E-03         2.34599        -1.26252        -4.44482     326.635E-03    -162.825E-03    -163.810E-03    -162.295E-03     326.105E-03    -163.810E-03     32.2015E-03     86.6700E+06     72.4935E+06    -24.2672E+06    -24.2654E+06     72.4917E+06     86.6700E+06     292.976E+03         55.6005
             464     11.8931E-03     59.6603E-03         2.91694        -1.11350        -1.69786    -781.164E-03         2.17821        -1.29147        -2.56454     326.627E-03    -162.826E-03    -163.801E-03    -162.405E-03     326.207E-03    -163.801E-03     28.5561E-03     75.6403E+06     66.7866E+06    -31.7714E+06    -31.7679E+06     66.7831E+06     75.6403E+06     565.122E+03         52.8852
             465     11.0432E-03     59.6251E-03         3.41174        -1.33945        -1.94071    -603.412E-03         2.07444        -1.33945    -343.567E-03     326.750E-03    -162.917E-03    -163.833E-03    -162.620E-03     326.453E-03    -163.833E-03     24.0329E-03     68.9965E+06     48.5667E+06    -39.6864E+06    -39.6845E+06     48.5649E+06     68.9965E+06     329.942E+03         50.6858
             466     10.1934E-03     59.5948E-03         3.03518        -1.28205        -1.59456    -653.078E-03         2.21133        -1.39969     889.502E-03     326.865E-03    -162.985E-03    -163.880E-03    -162.772E-03     326.652E-03    -163.880E-03     20.3691E-03     59.2260E+06     8.28445E+06    -48.3774E+06    -48.3736E+06     8.28064E+06     59.2260E+06    -98.7539E+03         49.1116
             467     9.34396E-03     59.5676E-03         3.43593        -1.33492        -1.92258    -976.442E-03         2.60742        -1.45255         1.26922     326.898E-03    -162.980E-03    -163.917E-03    -162.834E-03     326.752E-03    -163.917E-03     16.8204E-03     44.7530E+06    -38.2580E+06    -57.9050E+06    -57.7224E+06    -38.4406E+06     44.7530E+06     51.4218E+03         48.0893
             468     8.49377E-03     59.5466E-03         3.94850        -1.47614        -2.28713        -1.42678         3.08816        -1.47614     847.522E-03     326.993E-03    -163.045E-03    -163.948E-03    -162.949E-03     326.897E-03    -163.948E-03     13.6153E-03     29.9377E+06    -66.7844E+06    -79.3422E+06    -67.1120E+06    -79.0147E+06     29.9377E+06     567.769E+03         47.4674
             469     7.64425E-03     59.5296E-03         3.64267        -1.47071        -1.99486        -1.59798         3.24578        -1.47071    -486.365E-03     327.029E-03    -163.067E-03    -163.962E-03    -163.009E-03     326.972E-03    -163.962E-03     10.4756E-03     13.7232E+06    -76.9773E+06    -112.094E+06    -76.9927E+06    -112.079E+06     13.7232E+06     607.608E+03         47.0978
             470     6.79424E-03     59.5163E-03         3.57546        -1.47694        -1.94115        -1.25198         2.88629        -1.47694        -1.06654     327.056E-03    -163.085E-03    -163.971E-03    -163.056E-03     327.027E-03    -163.971E-03     7.39358E-03    -3.92896E+06    -87.2952E+06    -142.920E+06    -87.2995E+06    -142.916E+06    -3.92896E+06     447.205E+03         46.8711
             471     5.94485E-03     59.5059E-03         3.47147        -1.50346        -1.82488    -795.291E-03         2.48227        -1.54386    -397.831E-03     327.156E-03    -163.187E-03    -163.970E-03    -163.174E-03     327.144E-03    -163.970E-03     4.81316E-03    -23.2061E+06    -97.9114E+06    -171.284E+06    -97.9144E+06    -171.281E+06    -23.2061E+06     426.073E+03         46.7204
             472     5.09550E-03     59.4995E-03         3.22257        -1.42166        -1.67049    -786.509E-03         2.58742        -1.67049     585.316E-03     327.166E-03    -163.203E-03    -163.963E-03    -163.199E-03     327.162E-03    -163.963E-03     2.75991E-03    -44.5190E+06    -108.470E+06    -200.222E+06    -108.475E+06    -200.217E+06    -44.5190E+06     625.513E+03         46.6102
             473     4.24595E-03     59.4960E-03         4.76429        -1.59129        -3.06681        -1.24033         3.14624        -1.79973         3.46646     327.242E-03    -163.277E-03    -163.965E-03    -163.276E-03     327.241E-03    -163.965E-03     1.18369E-03    -67.2263E+06    -118.882E+06    -231.379E+06    -118.887E+06    -231.374E+06    -67.2263E+06     615.241E+03         46.5239
             474     3.39644E-03     59.4949E-03         5.50567        -1.87123        -3.56964        -1.74502         3.68105        -1.87123         7.02130     327.425E-03    -163.464E-03    -163.961E-03    -163.464E-03     327.425E-03    -163.961E-03    -26.2146E-06    -90.2255E+06    -128.647E+06    -259.290E+06    -128.652E+06    -259.285E+06    -90.2255E+06     378.241E+03         46.4548
             475     2.54715E-03     59.4952E-03         6.43573        -1.84153        -4.58415        -2.11398         3.96556        -1.84153         8.87255     327.656E-03    -163.690E-03    -163.965E-03    -163.739E-03     327.656E-03    -163.917E-03    -688.867E-06    -112.853E+06    -137.150E+06    -281.690E+06    -137.154E+06    -281.686E+06    -112.853E+06     130.406E+03         46.4009
             476     1.69849E-03     59.4948E-03         6.23207        -1.69882        -4.57462        -2.08840         3.74584        -1.69882         8.79485     327.700E-03    -163.712E-03    -163.988E-03    -163.885E-03     327.699E-03    -163.814E-03    -790.998E-06    -132.578E+06    -144.039E+06    -300.190E+06    -144.041E+06    -300.189E+06    -132.578E+06     44.6707E+03         46.3618
             477     849.656E-06     59.4954E-03         5.05447        -1.39478        -3.72362        -1.80896         3.13981        -1.39478         6.95317     327.452E-03    -163.422E-03    -164.029E-03    -163.820E-03     327.451E-03    -163.631E-03    -781.735E-06    -145.568E+06    -148.768E+06    -315.716E+06    -148.679E+06    -315.714E+06    -145.659E+06     30.2648E+03         46.3374
             478     14.4445E-03     58.4196E-03         3.45483        -1.15311        -2.19313    -662.116E-03         2.06438        -1.29368        -2.69040     327.080E-03    -163.102E-03    -163.979E-03    -162.244E-03     326.223E-03    -163.979E-03     40.7085E-03     141.186E+06     106.805E+06    -9.12205E+06    -9.12027E+06     106.803E+06     141.186E+06    -190.917E+03         60.9714
             479     13.5938E-03     58.3600E-03         3.96584        -1.18520        -2.60641    -963.088E-03         2.46308        -1.32576        -3.41602     327.025E-03    -163.145E-03    -163.880E-03    -162.337E-03     326.217E-03    -163.880E-03     39.3123E-03     108.928E+06     87.2608E+06    -17.3121E+06    -17.3107E+06     87.2594E+06     108.928E+06    -168.500E+03         58.4636
             480     12.7434E-03     58.3158E-03         3.99637        -1.19008        -2.59206        -1.02011         2.58548        -1.35114        -4.16428     326.804E-03    -162.981E-03    -163.823E-03    -162.452E-03     326.275E-03    -163.823E-03     32.1660E-03     87.5007E+06     72.3042E+06    -24.6522E+06    -24.6506E+06     72.3026E+06     87.5007E+06    -50.1408E+03         55.6073
             481     11.8937E-03     58.2740E-03         3.25472        -1.21381        -1.79935        -1.10807         2.72450        -1.37488        -2.19928     326.785E-03    -162.982E-03    -163.803E-03    -162.563E-03     326.367E-03    -163.803E-03     28.5034E-03     76.5533E+06     66.7007E+06    -31.8177E+06    -31.8154E+06     66.6985E+06     76.5533E+06    -18.3893E+03         52.9082
             482     11.0433E-03     58.2384E-03         3.89091        -1.39239        -2.23142        -1.24458         2.90408        -1.39239    -114.887E-03     326.774E-03    -162.950E-03    -163.823E-03    -162.652E-03     326.476E-03    -163.823E-03     24.0725E-03     69.3660E+06     48.9648E+06    -39.4098E+06    -39.4065E+06     48.9615E+06     69.3660E+06     312.635E+03         50.7139
             483     10.1937E-03     58.2073E-03         3.67602        -1.38118        -1.99799        -1.36019         3.05743        -1.40039     933.075E-03     326.803E-03    -162.934E-03    -163.870E-03    -162.716E-03     326.586E-03    -163.870E-03     20.5790E-03     59.2169E+06     8.38046E+06    -48.1665E+06    -48.1622E+06      8.3762E+06     59.2169E+06     413.613E+03         49.1365
             484     9.34356E-03     58.1819E-03         3.81677        -1.38201        -2.11667        -1.40186         3.12117        -1.40122         1.23470     326.800E-03    -162.886E-03    -163.914E-03    -162.734E-03     326.648E-03    -163.914E-03     17.1755E-03     44.5431E+06    -38.6443E+06    -57.9778E+06    -57.4903E+06    -39.1318E+06     44.5431E+06     465.650E+03         48.1074
             485     8.49357E-03     58.1602E-03         3.83071        -1.40479        -2.09709        -1.30684         3.04045        -1.40479     927.154E-03     326.993E-03    -163.044E-03    -163.949E-03    -162.947E-03     326.896E-03    -163.949E-03     13.6659E-03     29.6218E+06    -67.0348E+06    -79.6649E+06    -67.2279E+06    -79.4718E+06     29.6218E+06     567.296E+03         47.4789
             486     7.64398E-03     58.1424E-03         3.40983        -1.40492        -1.68136        -1.25826         2.99953        -1.41772    -311.998E-03     327.223E-03    -163.270E-03    -163.953E-03    -163.215E-03     327.168E-03    -163.953E-03     10.2508E-03     13.9201E+06    -77.2203E+06    -111.751E+06    -77.2326E+06    -111.739E+06     13.9201E+06     634.752E+03         47.1042
             487     6.79516E-03     58.1299E-03         3.72786        -1.41876        -2.00041        -1.34827         3.08852        -1.43155        -1.08820     327.191E-03    -163.255E-03    -163.936E-03    -163.226E-03     327.162E-03    -163.936E-03     7.39356E-03    -3.78343E+06    -87.7286E+06    -142.340E+06    -87.7398E+06    -142.328E+06    -3.78343E+06     758.410E+03         46.8743
             488     5.94547E-03     58.1194E-03         3.92372        -1.43786        -2.19515        -1.38834         3.11929        -1.44023    -586.400E-03     326.976E-03    -163.048E-03    -163.927E-03    -163.035E-03     326.962E-03    -163.927E-03     4.87555E-03    -23.3435E+06    -98.2557E+06    -171.140E+06    -98.2625E+06    -171.133E+06    -23.3435E+06     648.402E+03         46.7216
             489     5.09547E-03     58.1139E-03         3.61673        -1.38999        -1.95197        -1.38281         3.10632        -1.44873     365.338E-03     326.923E-03    -162.978E-03    -163.945E-03    -162.974E-03     326.919E-03    -163.945E-03     2.67313E-03    -44.5989E+06    -108.736E+06    -200.354E+06    -108.739E+06    -200.351E+06    -44.5989E+06     549.554E+03         46.6103
             490     4.24568E-03     58.1096E-03         4.80286        -1.39093        -3.15506        -1.50726         3.21144        -1.44730         3.30755     327.125E-03    -163.151E-03    -163.974E-03    -163.150E-03     327.125E-03    -163.974E-03     1.07597E-03    -67.8096E+06    -119.473E+06    -230.863E+06    -119.476E+06    -230.860E+06    -67.8096E+06     493.315E+03         46.5236
             491     3.39636E-03     58.1087E-03         5.03942        -1.41270        -3.40374        -1.63617         3.27186        -1.41270         6.64972     327.536E-03    -163.565E-03    -163.971E-03    -163.565E-03     327.536E-03    -163.971E-03     11.5793E-06    -91.1394E+06    -129.165E+06    -258.797E+06    -129.167E+06    -258.795E+06    -91.1394E+06     48.1982E+03         46.4544
             492     2.54753E-03     58.1078E-03         5.83172        -1.34777        -4.30850        -1.56827         3.09150        -1.34777         8.56447     327.710E-03    -163.756E-03    -163.954E-03    -163.804E-03     327.710E-03    -163.906E-03    -560.432E-06    -113.680E+06    -137.958E+06    -281.795E+06    -137.959E+06    -281.794E+06    -113.680E+06    -48.3121E+03         46.4005
             493     1.69843E-03     58.1087E-03         5.36872        -1.30414        -3.94473        -1.33180         2.75579        -1.30414         7.94239     327.502E-03    -163.585E-03    -163.917E-03    -163.633E-03     327.502E-03    -163.869E-03    -655.158E-06    -132.837E+06    -144.638E+06    -300.132E+06    -144.641E+06    -300.129E+06    -132.837E+06     145.009E+03         46.3615
             494     848.481E-06     58.1098E-03         5.00147        -1.16165        -3.76459        -1.43310         2.66999        -1.16165         7.39176     327.713E-03    -163.523E-03    -164.189E-03    -163.797E-03     327.713E-03    -163.916E-03    -32.7302E-06    -145.539E+06    -148.757E+06    -315.088E+06    -148.585E+06    -315.084E+06    -145.714E+06     285.916E+03         46.3372
             495     14.4442E-03     57.0332E-03         3.17957    -823.625E-03        -2.06010    -140.106E-03         1.73962        -1.30366        -2.72229     327.024E-03    -163.042E-03    -163.982E-03    -162.191E-03     326.174E-03    -163.982E-03     40.5760E-03     141.509E+06     107.081E+06    -8.82029E+06    -8.81844E+06     107.079E+06     141.509E+06    -10.7934E+03         60.9342
             496     13.5938E-03     56.9737E-03         3.65242    -890.918E-03        -2.42539    -309.418E-03         2.01647        -1.37095        -3.45989     327.055E-03    -163.173E-03    -163.882E-03    -162.377E-03     326.259E-03    -163.882E-03     39.0551E-03     108.826E+06     87.5179E+06    -17.3252E+06    -17.3228E+06     87.5155E+06     108.826E+06    -248.863E+03         58.4474
             497     12.7437E-03     56.9290E-03         4.12543        -1.27610        -2.47982    -814.748E-03         2.60963        -1.42537        -4.11180     326.878E-03    -163.061E-03    -163.817E-03    -162.531E-03     326.349E-03    -163.817E-03     32.1633E-03     86.5205E+06     72.5675E+06    -25.0261E+06    -25.0218E+06     72.5632E+06     86.5205E+06    -549.426E+03         55.6140
             498     11.8933E-03     56.8872E-03         3.68582        -1.29741        -1.99438        -1.45345         3.29417        -1.44668        -2.12521     326.856E-03    -163.063E-03    -163.792E-03    -162.643E-03     326.435E-03    -163.792E-03     28.5872E-03     75.4007E+06     66.4023E+06    -32.3862E+06    -32.3821E+06     66.3983E+06     75.4007E+06    -560.856E+03         52.9305
             499     11.0438E-03     56.8516E-03         4.50744        -1.42621        -2.66806        -1.96898         3.80836        -1.42621    -144.843E-03     326.688E-03    -162.873E-03    -163.815E-03    -162.572E-03     326.387E-03    -163.815E-03     24.1869E-03     68.4769E+06     47.8595E+06    -40.1566E+06    -40.1533E+06     47.8563E+06     68.4769E+06    -7.38048E+03         50.7411
             500     10.1932E-03     56.8212E-03         4.32198        -1.37695        -2.51155        -2.05392         3.86434        -1.37695     720.933E-03     326.706E-03    -162.836E-03    -163.869E-03    -162.623E-03     326.492E-03    -163.869E-03     20.3720E-03     58.8947E+06     8.07195E+06    -48.4740E+06    -48.4594E+06     8.05741E+06     58.8947E+06     578.221E+03         49.1607
             501     9.34332E-03     56.7953E-03         4.02539        -1.33554        -2.22498        -1.61054         3.41095        -1.33554     910.232E-03     326.950E-03    -163.040E-03    -163.910E-03    -162.895E-03     326.805E-03    -163.910E-03     16.7911E-03     44.3376E+06    -38.6752E+06    -58.5080E+06    -57.8504E+06    -39.3327E+06     44.3376E+06     862.982E+03         48.1251
             502     8.49407E-03     56.7732E-03         3.67321        -1.33262        -1.85849        -1.12436         2.93907        -1.33262     723.317E-03     327.037E-03    -163.105E-03    -163.932E-03    -163.011E-03     326.943E-03    -163.932E-03     13.4443E-03     29.3431E+06    -67.4335E+06    -79.7560E+06    -67.7531E+06    -79.4364E+06     29.3431E+06     944.490E+03         47.4902
             503     7.64452E-03     56.7561E-03         3.32133        -1.34539        -1.49574        -1.06947         2.90786        -1.35819    -351.719E-03     327.032E-03    -163.090E-03    -163.942E-03    -163.033E-03     326.975E-03    -163.942E-03     10.4584E-03     13.6684E+06    -77.6256E+06    -111.585E+06    -77.6623E+06    -111.548E+06     13.6684E+06     865.539E+03         47.1106
             504     6.79464E-03     56.7424E-03         3.87539        -1.35246        -2.05787        -1.49360         3.32392        -1.36525        -1.08008     327.083E-03    -163.139E-03    -163.944E-03    -163.108E-03     327.052E-03    -163.944E-03     7.71000E-03    -3.57646E+06    -87.6815E+06    -142.023E+06    -87.6925E+06    -142.012E+06    -3.57646E+06     748.610E+03         46.8777
             505     5.94521E-03     56.7342E-03         4.37064        -1.30393        -2.62183        -2.03654         3.78534        -1.30393    -688.069E-03     327.038E-03    -163.098E-03    -163.940E-03    -163.084E-03     327.024E-03    -163.940E-03     5.19694E-03    -23.1194E+06    -98.2552E+06    -170.641E+06    -98.2660E+06    -170.631E+06    -23.1194E+06      868.09E+03         46.7234
             506     5.09568E-03     56.7272E-03         4.04241        -1.17388        -2.43918        -2.09567         3.69890        -1.17388     188.488E-03     327.074E-03    -163.134E-03    -163.940E-03    -163.129E-03     327.069E-03    -163.940E-03     2.92147E-03    -45.0705E+06    -109.315E+06    -200.468E+06    -109.322E+06    -200.461E+06    -45.0705E+06     721.805E+03         46.6114
             507     4.24611E-03     56.7244E-03         4.75244        -1.04586        -3.28928        -1.55049         3.01365        -1.04586         3.29914     327.243E-03    -163.308E-03    -163.935E-03    -163.307E-03     327.242E-03    -163.935E-03     1.02919E-03    -68.1104E+06    -119.688E+06    -229.809E+06    -119.690E+06    -229.807E+06    -68.1104E+06     371.046E+03         46.5242
             508     3.39643E-03     56.7214E-03         4.60119        -1.01032        -3.18873    -887.274E-03         2.29973        -1.01032         6.96484     327.352E-03    -163.430E-03    -163.922E-03    -163.430E-03     327.352E-03    -163.922E-03    -104.359E-06    -91.7337E+06    -129.600E+06    -258.068E+06    -129.601E+06    -258.068E+06    -91.7337E+06     86.9255E+03         46.4547
             509     2.54729E-03     56.7213E-03         5.79039        -1.11102        -4.31020    -598.331E-03         2.07852        -1.11102         9.51474     327.410E-03    -163.485E-03    -163.925E-03    -163.485E-03     327.410E-03    -163.925E-03    -728.725E-06    -114.344E+06    -138.388E+06    -281.822E+06    -138.391E+06    -281.819E+06    -114.344E+06    -148.799E+03         46.4006
             510     1.69776E-03     56.7227E-03         5.82298        -1.32697        -4.18244    -804.775E-03         2.44531        -1.32697         9.09040     327.625E-03    -163.632E-03    -163.993E-03    -163.664E-03     327.625E-03    -163.961E-03    -787.295E-06    -133.505E+06    -145.320E+06    -300.098E+06    -145.323E+06    -300.095E+06    -133.505E+06    -178.696E+03         46.3614
             511     849.074E-06     56.7231E-03         5.91090        -1.38655        -4.28226        -1.52846         3.15709        -1.38655         8.86369     327.927E-03    -163.774E-03    -164.153E-03    -163.834E-03     327.927E-03    -164.092E-03    -179.671E-06    -146.112E+06    -149.456E+06    -314.776E+06    -149.375E+06    -314.773E+06    -146.196E+06     32.7117E+03         46.3370
             512     14.4444E-03     55.6463E-03         3.25193    -716.337E-03        -2.08610    -93.7530E-03         1.80539        -1.26215        -3.08265     327.030E-03    -163.050E-03    -163.981E-03    -162.204E-03     326.185E-03    -163.981E-03     40.4297E-03     141.801E+06     107.203E+06    -8.77227E+06    -8.77149E+06     107.202E+06     141.801E+06    -53.3405E+03         60.8970
             513     13.5941E-03     55.5872E-03         3.70099    -781.648E-03        -2.42711    -240.766E-03         2.06046        -1.32746        -3.78498     327.075E-03    -163.198E-03    -163.877E-03    -162.399E-03     326.276E-03    -163.877E-03     39.1395E-03     108.982E+06     88.1877E+06    -16.9982E+06    -16.9963E+06     88.1859E+06     108.982E+06    -82.5740E+03         58.4306
             514     12.7436E-03     55.5425E-03         4.26077        -1.25459        -2.47697    -782.063E-03         2.68859        -1.37732        -4.57110     326.879E-03    -163.072E-03    -163.807E-03    -162.541E-03     326.347E-03    -163.807E-03     32.2300E-03     85.5643E+06     72.7812E+06    -24.9190E+06    -24.9143E+06     72.7764E+06     85.5643E+06    -113.979E+03         55.6197
             515     11.8938E-03     55.5004E-03         3.82755        -1.26994        -2.01087        -1.40159         3.34100        -1.39267        -2.70643     326.787E-03    -163.004E-03    -163.783E-03    -162.583E-03     326.366E-03    -163.783E-03     28.5928E-03     73.9429E+06     66.0650E+06    -32.9945E+06    -32.9894E+06     66.0599E+06     73.9429E+06    -326.987E+03         52.9515
             516     11.0432E-03     55.4651E-03         4.42404        -1.37352        -2.49109        -1.77374         3.70669        -1.37352    -679.917E-03     326.749E-03    -162.940E-03    -163.808E-03    -162.644E-03     326.453E-03    -163.808E-03     23.9796E-03     67.3791E+06     46.9021E+06    -41.3094E+06    -41.3076E+06     46.9003E+06     67.3791E+06    -361.928E+03         50.7674
             517     10.1937E-03     55.4349E-03         4.17613        -1.33652        -2.25379        -1.80746         3.72980        -1.33652     211.913E-03     326.821E-03    -162.967E-03    -163.854E-03    -162.757E-03     326.611E-03    -163.854E-03     20.2223E-03     57.9078E+06     7.05416E+06    -49.9774E+06    -49.9616E+06     7.03841E+06     57.9078E+06     444.303E+03         49.1844
             518     9.34415E-03     55.4081E-03         4.10013        -1.29992        -2.18595        -1.65613         3.57030        -1.29992     387.956E-03     326.872E-03    -162.982E-03    -163.890E-03    -162.835E-03     326.725E-03    -163.890E-03     16.8729E-03     43.7979E+06    -38.6243E+06    -59.4651E+06    -58.8452E+06    -39.2442E+06     43.7979E+06     1.13594E+06         48.1427
             519     8.49414E-03     55.3871E-03         3.97116        -1.27096        -2.06069        -1.51422         3.42468        -1.27096     402.340E-03     326.867E-03    -162.945E-03    -163.922E-03    -162.848E-03     326.770E-03    -163.922E-03     13.6638E-03     29.2263E+06    -67.3726E+06    -79.6370E+06    -68.0252E+06    -78.9844E+06     29.2263E+06     1.08642E+06         47.5014
             520     7.64413E-03     55.3696E-03         3.70558        -1.24399        -1.82029        -1.49009         3.37538        -1.24399    -452.278E-03     326.866E-03    -162.918E-03    -163.948E-03    -162.859E-03     326.807E-03    -163.948E-03     10.5995E-03     13.4580E+06    -77.6948E+06    -111.145E+06    -77.7314E+06    -111.108E+06     13.4580E+06     858.999E+03         47.1172
             521     6.79439E-03     55.3567E-03         3.85364        -1.20415        -2.02890        -1.59820         3.42295        -1.20415    -866.705E-03     326.961E-03    -162.989E-03    -163.972E-03    -162.959E-03     326.930E-03    -163.972E-03     7.56961E-03    -3.94955E+06    -88.0314E+06    -142.066E+06    -88.0405E+06    -142.057E+06    -3.94955E+06     631.003E+03         46.8815
             522     5.94472E-03     55.3470E-03         4.01216        -1.13321        -2.27775        -1.76295         3.49736        -1.13321    -428.509E-03     327.151E-03    -163.173E-03    -163.978E-03    -163.159E-03     327.137E-03    -163.978E-03     4.97516E-03    -23.2142E+06    -98.6712E+06    -170.765E+06    -98.6782E+06    -170.758E+06    -23.2142E+06     652.250E+03         46.7260
             523     5.09526E-03     55.3416E-03         3.73857        -1.02725        -2.11566        -1.75070         3.37361        -1.02725     175.144E-03     327.336E-03    -163.381E-03    -163.956E-03    -163.376E-03     327.331E-03    -163.956E-03     2.98689E-03    -44.7050E+06    -109.086E+06    -199.616E+06    -109.095E+06    -199.607E+06    -44.7050E+06     804.204E+03         46.6133
             524     4.24619E-03     55.3368E-03         4.49616    -931.028E-03        -2.96802        -1.28937         2.81751    -931.028E-03         3.05974     327.432E-03    -163.528E-03    -163.904E-03    -163.527E-03     327.431E-03    -163.904E-03     1.28057E-03    -68.1464E+06    -119.605E+06    -228.907E+06    -119.610E+06    -228.902E+06    -68.1464E+06     487.404E+03         46.5257
             525     3.39742E-03     55.3360E-03         4.53651    -929.929E-03        -3.01968    -652.853E-03         2.16969    -929.929E-03         6.94943     327.272E-03    -163.409E-03    -163.863E-03    -163.408E-03     327.271E-03    -163.863E-03    -141.723E-06    -91.6269E+06    -129.484E+06    -257.396E+06    -129.485E+06    -257.396E+06    -91.6269E+06     105.295E+03         46.4558
             526     2.54715E-03     55.3353E-03         5.80715        -1.06516        -4.19471    -461.846E-03         2.07428        -1.06516         9.56347     327.279E-03    -163.415E-03    -163.863E-03    -163.415E-03     327.278E-03    -163.863E-03    -929.405E-06    -114.138E+06    -138.207E+06    -281.468E+06    -138.209E+06    -281.465E+06    -114.138E+06    -132.979E+03         46.4012
             527     1.69804E-03     55.3359E-03         6.03625        -1.26476        -4.27602    -868.704E-03         2.62894        -1.26476         9.35319     327.638E-03    -163.688E-03    -163.950E-03    -163.806E-03     327.637E-03    -163.831E-03    -1.13574E-03    -133.676E+06    -145.418E+06    -300.243E+06    -145.420E+06    -300.241E+06    -133.676E+06    -156.919E+03         46.3616
             528     849.053E-06     55.3356E-03         5.78515        -1.04840        -4.27164        -1.67971         3.19322        -1.04840         8.66437     327.531E-03    -163.642E-03    -163.889E-03    -163.788E-03     327.530E-03    -163.742E-03    -647.420E-06    -146.379E+06    -150.043E+06    -314.995E+06    -149.623E+06    -314.993E+06    -146.800E+06    -246.892E+03         46.3369
             529     14.4446E-03     54.2610E-03         3.73832    -967.990E-03        -2.18650    -754.638E-03         2.51281        -1.17433        -3.30651     327.023E-03    -163.041E-03    -163.982E-03    -162.181E-03     326.164E-03    -163.982E-03     40.7021E-03     141.591E+06     107.177E+06    -9.07788E+06    -9.07723E+06     107.177E+06     141.591E+06    -137.945E+03         60.8581
             530     13.5937E-03     54.2001E-03         4.20029    -981.907E-03        -2.56358    -964.009E-03         2.80706        -1.18825        -4.00424     327.217E-03    -163.342E-03    -163.876E-03    -162.527E-03     326.402E-03    -163.876E-03     39.4424E-03     108.658E+06     88.1820E+06    -17.4133E+06    -17.4124E+06     88.1811E+06     108.658E+06     11.3022E+03         58.4121
             531     12.7440E-03     54.1560E-03         4.29877        -1.12266        -2.48377    -994.834E-03         2.88238        -1.19522        -4.80023     326.963E-03    -163.164E-03    -163.800E-03    -162.639E-03     326.438E-03    -163.800E-03     32.0416E-03     85.6253E+06     72.7928E+06    -24.8870E+06    -24.8854E+06     72.7912E+06     85.6253E+06     252.881E+03         55.6237
             532     11.8934E-03     54.1139E-03         3.51614        -1.13269        -1.68215    -922.689E-03         2.82923        -1.20524        -3.03279     326.768E-03    -162.996E-03    -163.772E-03    -162.581E-03     326.352E-03    -163.772E-03     28.3953E-03     74.0461E+06     66.1944E+06    -32.6736E+06    -32.6685E+06     66.1894E+06     74.0461E+06     258.751E+03         52.9712
             533     11.0439E-03     54.0783E-03         3.69849        -1.17307        -1.81553    -867.145E-03         2.80057        -1.22354        -1.07296     326.712E-03    -162.915E-03    -163.797E-03    -162.621E-03     326.418E-03    -163.797E-03     23.9228E-03     67.2446E+06     46.5713E+06    -40.9663E+06    -40.9616E+06     46.5666E+06     67.2446E+06     184.363E+03         50.7926
             534     10.1939E-03     54.0479E-03         3.54121        -1.18946        -1.61995        -1.08636         3.05808        -1.23993    -114.700E-03     326.759E-03    -162.914E-03    -163.846E-03    -162.699E-03     326.544E-03    -163.846E-03     20.4587E-03     57.6230E+06     5.98984E+06    -49.7307E+06    -49.7197E+06     5.97881E+06     57.6230E+06     537.834E+03         49.2074
             535     9.34368E-03     54.0222E-03         4.01197        -1.22775        -2.01790        -1.58151         3.57557        -1.22775     13.1868E-03     326.775E-03    -162.888E-03    -163.888E-03    -162.738E-03     326.625E-03    -163.888E-03     17.0558E-03     43.6838E+06    -38.8295E+06    -59.1196E+06    -58.7761E+06    -39.1730E+06     43.6838E+06     936.574E+03         48.1600
             536     8.49378E-03     54.0006E-03         4.31804        -1.17067        -2.35653        -1.95022         3.91173        -1.17067    -66.5133E-03     326.804E-03    -162.877E-03    -163.928E-03    -162.781E-03     326.708E-03    -163.928E-03     13.5809E-03     29.1980E+06    -67.0863E+06    -79.2993E+06    -68.0069E+06    -78.3786E+06     29.1980E+06     816.323E+03         47.5129
             537     7.64422E-03     53.9834E-03         4.03474        -1.08379        -2.16051        -1.91077         3.78501        -1.08379    -991.058E-03     326.862E-03    -162.903E-03    -163.959E-03    -162.846E-03     326.805E-03    -163.959E-03     10.4728E-03     13.3784E+06    -78.0272E+06    -110.869E+06    -78.0484E+06    -110.848E+06     13.3784E+06     800.355E+03         47.1245
             538     6.79450E-03     53.9702E-03         3.72330        -1.00401        -1.94792        -1.51591         3.29130        -1.00401        -1.32108     326.999E-03    -163.017E-03    -163.982E-03    -162.986E-03     326.968E-03    -163.982E-03     7.56432E-03    -4.22483E+06    -88.4348E+06    -141.639E+06    -88.4478E+06    -141.626E+06    -4.22483E+06     744.407E+03         46.8861
             539     5.94481E-03     53.9609E-03         3.34680    -922.170E-03        -1.67192        -1.03466         2.75309    -965.726E-03    -717.737E-03     327.251E-03    -163.272E-03    -163.979E-03    -163.259E-03     327.238E-03    -163.979E-03     4.88664E-03    -23.6062E+06    -98.9371E+06    -170.568E+06    -98.9401E+06    -170.565E+06    -23.6062E+06     400.278E+03         46.7292
             540     5.09552E-03     53.9543E-03         2.97494    -921.542E-03        -1.29764    -837.539E-03         2.56459    -971.293E-03    -12.0005E-03     327.389E-03    -163.445E-03    -163.945E-03    -163.440E-03     327.385E-03    -163.945E-03     2.64275E-03    -44.8748E+06    -109.624E+06    -199.328E+06    -109.629E+06    -199.324E+06    -44.8748E+06     475.533E+03         46.6158
             541     4.24614E-03     53.9507E-03         4.10684    -968.326E-03        -2.36747        -1.05230         2.79787    -974.522E-03         2.49876     327.264E-03    -163.360E-03    -163.904E-03    -163.360E-03     327.263E-03    -163.904E-03     1.06684E-03    -67.9458E+06    -119.831E+06    -227.897E+06    -119.838E+06    -227.891E+06    -67.9458E+06     549.597E+03         46.5278
             542     3.39649E-03     53.9491E-03         4.75906    -904.983E-03        -3.08098        -1.39901         3.07709    -904.983E-03         6.30229     327.368E-03    -163.467E-03    -163.901E-03    -163.503E-03     327.368E-03    -163.865E-03     86.7315E-06    -91.9356E+06    -129.789E+06    -256.864E+06    -129.792E+06    -256.861E+06    -91.9356E+06     210.904E+03         46.4575
             543     2.54806E-03     53.9500E-03         5.67697    -736.840E-03        -4.21134        -1.37514         2.84077    -736.840E-03         8.64570     327.523E-03    -163.670E-03    -163.853E-03    -163.735E-03     327.523E-03    -163.788E-03    -481.852E-06    -114.652E+06    -138.586E+06    -281.217E+06    -138.586E+06    -281.217E+06    -114.652E+06     54.6733E+03         46.4026
             544     1.69880E-03     53.9485E-03         5.42898    -510.268E-03        -4.24578    -991.507E-03         2.17471    -510.268E-03         9.02006     327.359E-03    -163.552E-03    -163.807E-03    -163.667E-03     327.359E-03    -163.691E-03    -671.376E-06    -133.783E+06    -145.232E+06    -299.827E+06    -145.233E+06    -299.827E+06    -133.783E+06    -82.5979E+03         46.3626
             545     849.859E-06     53.9505E-03         4.06778     135.661E-03        -3.59386    -916.462E-03         1.39038     135.661E-03         7.07215     327.254E-03    -163.347E-03    -163.907E-03    -163.691E-03     327.254E-03    -163.562E-03    -586.267E-06    -146.343E+06    -150.524E+06    -315.193E+06    -150.104E+06    -315.192E+06    -146.764E+06    -196.602E+03         46.3376
             546     14.4437E-03     52.8744E-03         3.97080        -1.03503        -2.13748        -1.14797         2.98128        -1.03503        -3.10388     326.993E-03    -163.000E-03    -163.993E-03    -162.126E-03     326.119E-03    -163.993E-03     40.9938E-03     141.799E+06     107.464E+06    -8.99059E+06    -8.99016E+06     107.464E+06     141.799E+06     19.3883E+03         60.8174
             547     13.5941E-03     52.8131E-03         4.45000        -1.01393        -2.58330        -1.37447         3.24117        -1.01393        -3.89372     327.355E-03    -163.469E-03    -163.886E-03    -162.636E-03     326.522E-03    -163.886E-03     39.8459E-03     108.772E+06     88.0244E+06    -17.3034E+06    -17.3032E+06     88.0242E+06     108.772E+06    -35.1320E+03         58.3912
             548     12.7438E-03     52.7692E-03         4.25977    -972.147E-03        -2.41462        -1.12951         2.99452    -992.010E-03        -4.78118     327.057E-03    -163.252E-03    -163.805E-03    -162.717E-03     326.522E-03    -163.805E-03     32.3365E-03     85.5595E+06     72.3970E+06    -25.2246E+06    -25.2234E+06     72.3958E+06     85.5595E+06     147.574E+03         55.6252
             549     11.8943E-03     52.7271E-03         3.32313    -972.643E-03        -1.47850    -696.354E-03         2.56084    -992.506E-03        -3.11603     326.815E-03    -163.040E-03    -163.775E-03    -162.611E-03     326.386E-03    -163.775E-03     28.8554E-03     74.3578E+06     66.1466E+06    -32.6574E+06    -32.6516E+06     66.1408E+06     74.3578E+06     649.587E+03         52.9885
             550     11.0437E-03     52.6920E-03         3.36633    -964.192E-03        -1.53924    -573.240E-03         2.45080        -1.01466        -1.20537     326.630E-03    -162.828E-03    -163.802E-03    -162.524E-03     326.326E-03    -163.802E-03     24.3405E-03     67.3593E+06     46.4600E+06    -40.6626E+06    -40.6510E+06     46.4484E+06     67.3593E+06     943.228E+03         50.8161
             551     10.1935E-03     52.6615E-03         3.22885    -983.833E-03        -1.37110    -840.202E-03         2.74842        -1.03430    -310.155E-03     326.722E-03    -162.865E-03    -163.857E-03    -162.646E-03     326.504E-03    -163.857E-03     20.6065E-03     57.5089E+06     5.54094E+06    -49.4777E+06    -49.4605E+06     5.52378E+06     57.5089E+06     895.059E+03         49.2295
             552     9.34383E-03     52.6357E-03         3.57989        -1.02903        -1.64253        -1.21058         3.14794        -1.02903    -260.299E-03     326.826E-03    -162.925E-03    -163.901E-03    -162.776E-03     326.677E-03    -163.901E-03     17.0024E-03     43.6865E+06    -38.9839E+06    -58.8700E+06    -58.6946E+06    -39.1593E+06     43.6865E+06     875.731E+03         48.1771
             553     8.49419E-03     52.6142E-03         3.85022    -989.895E-03        -1.92473        -1.52772         3.45322    -989.895E-03    -323.104E-03     326.819E-03    -162.880E-03    -163.939E-03    -162.783E-03     326.723E-03    -163.939E-03     13.6651E-03     28.9792E+06    -67.2005E+06    -79.1732E+06    -68.4383E+06    -77.9354E+06     28.9792E+06     926.030E+03         47.5248
             554     7.64402E-03     52.5975E-03         3.65484    -925.386E-03        -1.79716        -1.55852         3.41621    -925.386E-03        -1.33954     326.929E-03    -162.961E-03    -163.969E-03    -162.902E-03     326.871E-03    -163.969E-03     10.6389E-03     13.1217E+06    -78.3809E+06    -110.551E+06    -78.4091E+06    -110.523E+06     13.1217E+06     787.442E+03         47.1323
             555     6.79422E-03     52.5837E-03         3.38891    -868.813E-03        -1.61484        -1.19293         2.96700    -868.813E-03        -1.64658     327.178E-03    -163.202E-03    -163.977E-03    -163.171E-03     327.148E-03    -163.977E-03     7.58725E-03    -4.26848E+06    -88.5757E+06    -140.792E+06    -88.5844E+06    -140.784E+06    -4.26848E+06     601.556E+03         46.8914
             556     5.94491E-03     52.5743E-03         3.01246    -813.083E-03        -1.31623    -698.564E-03         2.44131    -859.604E-03    -958.908E-03     327.291E-03    -163.336E-03    -163.955E-03    -163.323E-03     327.278E-03    -163.955E-03     4.84321E-03    -23.9764E+06    -99.3204E+06    -170.174E+06    -99.3248E+06    -170.169E+06    -23.9764E+06     498.140E+03         46.7330
             557     5.09579E-03     52.5672E-03         2.61598    -827.014E-03    -899.475E-03    -555.846E-03         2.34481    -899.475E-03     254.741E-03     327.208E-03    -163.282E-03    -163.926E-03    -163.278E-03     327.204E-03    -163.926E-03     2.68992E-03    -45.3733E+06    -109.927E+06    -199.148E+06    -109.928E+06    -199.147E+06    -45.3733E+06     208.342E+03         46.6188
             558     4.24641E-03     52.5650E-03         3.96198    -897.713E-03        -2.14833    -965.927E-03         2.80552    -923.652E-03         2.96385     327.210E-03    -163.307E-03    -163.903E-03    -163.306E-03     327.210E-03    -163.903E-03     1.01921E-03    -68.2246E+06    -120.345E+06    -227.414E+06    -120.348E+06    -227.411E+06    -68.2246E+06     153.503E+03         46.5303
             559     3.39662E-03     52.5632E-03         5.07399    -839.531E-03        -3.30352        -1.47765         3.24812    -839.531E-03         6.79319     327.348E-03    -163.436E-03    -163.912E-03    -163.472E-03     327.348E-03    -163.876E-03    -12.2632E-06    -91.8967E+06    -129.998E+06    -256.134E+06    -130.002E+06    -256.130E+06    -91.8967E+06     274.283E+03         46.4599
             560     2.54730E-03     52.5618E-03         5.70861    -618.299E-03        -4.18970        -1.46678         2.98569    -618.299E-03         8.60887     327.425E-03    -163.525E-03    -163.900E-03    -163.590E-03     327.425E-03    -163.835E-03    -407.868E-06    -114.771E+06    -138.653E+06    -280.634E+06    -138.654E+06    -280.633E+06    -114.771E+06     33.1988E+03         46.4048
             561     1.69845E-03     52.5642E-03         5.61883    -313.765E-03        -4.47535    -965.644E-03         2.10912    -313.765E-03         9.59996     327.435E-03    -163.570E-03    -163.865E-03    -163.624E-03     327.435E-03    -163.811E-03    -310.727E-06    -134.212E+06    -145.927E+06    -299.611E+06    -145.928E+06    -299.611E+06    -134.212E+06    -51.3535E+03         46.3648
             562     848.233E-06     52.5636E-03         3.40368     410.897E-03        -3.10971    -712.075E-03         1.00604     410.897E-03         5.79423     327.572E-03    -163.542E-03    -164.030E-03    -163.825E-03     327.572E-03    -163.747E-03    -314.993E-06    -146.431E+06    -151.197E+06    -314.993E+06    -150.432E+06    -314.993E+06    -147.196E+06     132.540E+03         46.3398
             563     14.4444E-03     51.4883E-03         3.69214    -782.944E-03        -1.83776    -863.507E-03         2.78527    -850.333E-03        -3.01129     326.987E-03    -163.007E-03    -163.980E-03    -162.156E-03     326.137E-03    -163.980E-03     40.3611E-03     141.835E+06     107.468E+06    -9.09001E+06    -9.08923E+06     107.467E+06     141.835E+06    -24.7098E+03         60.7770
             564     13.5932E-03     51.4258E-03         4.11387    -773.154E-03        -2.26234    -904.699E-03         2.82362    -840.544E-03        -3.90475     327.040E-03    -163.158E-03    -163.882E-03    -162.341E-03     326.223E-03    -163.882E-03     39.3610E-03     108.947E+06     87.3753E+06    -17.3216E+06    -17.3193E+06     87.3730E+06     108.947E+06     210.487E+03         58.3699
             565     12.7435E-03     51.3824E-03         4.21756    -828.870E-03        -2.31743    -947.640E-03         2.84777    -828.870E-03        -4.82878     326.829E-03    -163.011E-03    -163.818E-03    -162.488E-03     326.306E-03    -163.818E-03     31.9747E-03     85.8080E+06     71.8972E+06    -25.0846E+06    -25.0764E+06     71.8891E+06     85.8080E+06     722.752E+03         55.6251
             566     11.8929E-03     51.3404E-03         3.52935    -811.132E-03        -1.67791        -1.06947         2.92092    -811.132E-03        -3.10429     326.748E-03    -162.950E-03    -163.798E-03    -162.520E-03     326.319E-03    -163.798E-03     28.8545E-03     74.1750E+06     65.7641E+06    -32.9433E+06    -32.9308E+06     65.7516E+06     74.1750E+06     1.06928E+06         53.0040
             567     11.0433E-03     51.3056E-03         3.60160    -783.772E-03        -1.80188        -1.12576         2.92548    -783.772E-03        -1.16482     326.723E-03    -162.895E-03    -163.828E-03    -162.590E-03     326.417E-03    -163.828E-03     24.3685E-03     67.2391E+06     46.6131E+06    -41.2438E+06    -41.2255E+06     46.5949E+06     67.2391E+06     1.22010E+06         50.8383
             568     10.1935E-03     51.2749E-03         3.13385    -757.486E-03        -1.35876    -939.049E-03         2.71414    -757.486E-03    -319.668E-03     326.767E-03    -162.887E-03    -163.880E-03    -162.666E-03     326.546E-03    -163.880E-03     20.7361E-03     57.1161E+06     5.76023E+06    -50.1795E+06    -50.1520E+06     5.73274E+06     57.1161E+06     1.19798E+06         49.2510
             569     9.34352E-03     51.2489E-03         2.90088    -721.181E-03        -1.13959    -578.103E-03         2.37082    -752.603E-03    -242.281E-03     326.803E-03    -162.875E-03    -163.928E-03    -162.723E-03     326.651E-03    -163.928E-03     17.1736E-03     43.3290E+06    -38.9475E+06    -59.2664E+06    -59.1037E+06    -39.1102E+06     43.3290E+06     958.557E+03         48.1942
             570     8.49333E-03     51.2283E-03         2.69761    -582.055E-03        -1.05354    -293.383E-03         2.13651    -781.124E-03    -14.1543E-03     326.971E-03    -163.006E-03    -163.966E-03    -162.906E-03     326.872E-03    -163.966E-03     13.8625E-03     28.9527E+06    -67.1047E+06    -78.9550E+06    -68.5706E+06    -77.4891E+06     28.9527E+06     877.948E+03         47.5369
             571     7.64389E-03     51.2106E-03         2.54767    -421.726E-03        -1.07044    -329.245E-03         2.21637    -831.626E-03    -898.274E-03     327.198E-03    -163.222E-03    -163.976E-03    -163.163E-03     327.139E-03    -163.976E-03     10.6231E-03     13.0625E+06    -78.5071E+06    -109.882E+06    -78.5317E+06    -109.858E+06     13.0625E+06     713.630E+03         47.1405
             572     6.79465E-03     51.1972E-03         2.81598    -632.995E-03        -1.15970    -622.425E-03         2.52095    -875.248E-03        -1.11566     327.218E-03    -163.253E-03    -163.965E-03    -163.223E-03     327.187E-03    -163.965E-03     7.59655E-03    -4.55216E+06    -88.8311E+06    -140.400E+06    -88.8365E+06    -140.395E+06    -4.55216E+06     445.238E+03         46.8970
             573     5.94544E-03     51.1870E-03         3.15165    -888.554E-03        -1.26880    -893.614E-03         2.77943    -891.521E-03    -506.441E-03     327.097E-03    -163.142E-03    -163.955E-03    -163.128E-03     327.083E-03    -163.955E-03     5.03691E-03    -23.8910E+06    -99.2194E+06    -169.692E+06    -99.2230E+06    -169.688E+06    -23.8910E+06     201.985E+03         46.7371
             574     5.09543E-03     51.1821E-03         2.95744    -863.283E-03        -1.09480    -956.024E-03         2.84137    -885.994E-03     977.632E-03     327.144E-03    -163.196E-03    -163.948E-03    -163.191E-03     327.139E-03    -163.948E-03     2.90050E-03    -45.3398E+06    -109.816E+06    -198.541E+06    -109.818E+06    -198.538E+06    -45.3398E+06     17.2633E+03         46.6222
             575     4.24563E-03     51.1779E-03         3.90435    -874.497E-03        -2.00381    -755.081E-03         2.67536    -894.241E-03         3.72679     327.372E-03    -163.451E-03    -163.921E-03    -163.450E-03     327.371E-03    -163.921E-03     1.22495E-03    -68.4593E+06    -120.295E+06    -227.137E+06    -120.296E+06    -227.137E+06    -68.4593E+06    -75.5528E+03         46.5335
             576     3.39738E-03     51.1767E-03         5.18465    -955.355E-03        -3.18664    -578.457E-03         2.57647    -955.355E-03         7.70701     327.360E-03    -163.477E-03    -163.884E-03    -163.476E-03     327.360E-03    -163.884E-03     75.1522E-06    -91.8323E+06    -130.357E+06    -255.775E+06    -130.359E+06    -255.773E+06    -91.8323E+06     89.2407E+03         46.4630
             577     2.54744E-03     51.1770E-03         5.75086        -1.07707        -3.66708    -629.364E-03         2.71314        -1.07707         8.76567     327.329E-03    -163.459E-03    -163.870E-03    -163.459E-03     327.329E-03    -163.870E-03    -623.316E-06    -114.628E+06    -139.175E+06    -280.231E+06    -139.178E+06    -280.228E+06    -114.628E+06     370.312E+03         46.4081
             578     1.69750E-03     51.1765E-03         6.58900        -1.20351        -4.44542    -995.132E-03         3.13871        -1.20351         10.2030     327.593E-03    -163.696E-03    -163.898E-03    -163.742E-03     327.593E-03    -163.851E-03    -953.651E-06    -134.454E+06    -145.813E+06    -299.442E+06    -145.816E+06    -299.439E+06    -134.454E+06     159.087E+03         46.3682
             579     849.931E-06     51.1775E-03         5.49340    -786.418E-03        -3.82805        -1.72304         3.38840    -786.418E-03         3.90637     327.619E-03    -163.525E-03    -164.094E-03    -163.571E-03     327.619E-03    -164.048E-03    -742.155E-06    -146.609E+06    -150.718E+06    -314.594E+06    -149.953E+06    -314.593E+06    -147.374E+06    -75.1503E+03         46.3433
             580     14.4453E-03     50.1030E-03         3.36592    -485.217E-03        -1.57143    -527.894E-03         2.49480    -657.624E-03        -3.08242     327.182E-03    -163.213E-03    -163.969E-03    -162.350E-03     326.314E-03    -163.964E-03     40.7250E-03     141.782E+06     107.405E+06    -9.19411E+06    -9.19274E+06     107.404E+06     141.782E+06     102.707E+03         60.7379
             581     13.5949E-03     50.0395E-03         3.61417    -492.362E-03        -1.84131    -337.024E-03         2.28229    -664.770E-03        -3.83675     326.912E-03    -163.046E-03    -163.867E-03    -162.219E-03     326.081E-03    -163.862E-03     39.6377E-03     108.442E+06     86.8204E+06    -17.6834E+06    -17.6805E+06     86.8176E+06     108.442E+06     389.121E+03         58.3501
             582     12.7436E-03     49.9964E-03         3.99738    -668.866E-03        -2.08300    -670.444E-03         2.58483    -668.866E-03        -4.57756     326.486E-03    -162.673E-03    -163.813E-03    -162.157E-03     325.970E-03    -163.813E-03     31.7570E-03     85.3740E+06     71.2475E+06    -25.2989E+06    -25.2856E+06     71.2342E+06     85.3740E+06     1.06131E+06         55.6262
             583     11.8936E-03     49.9539E-03         3.46489    -644.783E-03        -1.62707        -1.17649         3.01431    -644.783E-03        -2.78303     326.559E-03    -162.748E-03    -163.812E-03    -162.323E-03     326.135E-03    -163.812E-03     28.6903E-03     74.0148E+06     65.5590E+06    -32.8789E+06    -32.8535E+06     65.5336E+06     74.0148E+06     1.55663E+06         53.0199
             584     11.0430E-03     49.9187E-03         3.53072    -595.890E-03        -1.78698        -1.26647         3.01021    -595.890E-03    -832.878E-03     326.704E-03    -162.853E-03    -163.851E-03    -162.549E-03     326.400E-03    -163.851E-03     24.3141E-03     67.1007E+06     46.6095E+06    -41.1199E+06    -41.0873E+06     46.5769E+06     67.1007E+06     1.64404E+06         50.8606
             585     10.1930E-03     49.8883E-03         2.86366    -555.762E-03        -1.17130    -827.756E-03         2.52011    -555.762E-03     58.3325E-03     326.789E-03    -162.880E-03    -163.908E-03    -162.663E-03     326.571E-03    -163.908E-03     20.5546E-03     57.5077E+06     6.65327E+06    -49.7426E+06    -49.7068E+06     6.61744E+06     57.5077E+06     1.38605E+06         49.2726
             586     9.34291E-03     49.8630E-03         2.37741    -494.729E-03    -731.402E-03    -123.084E-03         1.83663    -562.264E-03     83.1555E-03     326.886E-03    -162.931E-03    -163.955E-03    -162.783E-03     326.738E-03    -163.955E-03     16.9424E-03     43.4823E+06    -38.1123E+06    -59.1414E+06    -59.0425E+06    -38.2112E+06     43.4823E+06     944.037E+03         48.2113
             587     8.49346E-03     49.8413E-03         2.01083    -210.006E-03    -636.178E-03     473.695E-03         1.32713    -636.178E-03     290.644E-03     327.165E-03    -163.182E-03    -163.983E-03    -163.084E-03     327.067E-03    -163.983E-03     13.7549E-03     29.0005E+06    -66.9627E+06    -78.5546E+06    -68.5976E+06    -76.9198E+06     29.0005E+06     607.643E+03         47.5490
             588     7.64410E-03     49.8236E-03         1.74099     175.166E-03    -764.359E-03     564.239E-03         1.35192    -764.359E-03    -512.133E-03     327.232E-03    -163.247E-03    -163.984E-03    -163.188E-03     327.172E-03    -163.984E-03     10.6703E-03     13.3136E+06    -78.4226E+06    -109.232E+06    -78.4345E+06    -109.220E+06     13.3136E+06     521.433E+03         47.1485
             589     6.79468E-03     49.8104E-03         2.23660    -202.271E-03    -919.706E-03    -25.9379E-03         2.03218    -891.616E-03    -633.987E-03     327.082E-03    -163.098E-03    -163.984E-03    -163.066E-03     327.050E-03    -163.984E-03     7.81808E-03    -4.21627E+06    -88.5004E+06    -139.912E+06    -88.5049E+06    -139.908E+06    -4.21627E+06     293.448E+03         46.9025
             590     5.94440E-03     49.8015E-03         3.10821    -843.670E-03        -1.18143    -859.673E-03         2.89492    -952.127E-03    -247.709E-03     327.132E-03    -163.145E-03    -163.987E-03    -163.131E-03     327.117E-03    -163.987E-03     5.12392E-03    -23.6994E+06    -99.0133E+06    -169.320E+06    -99.0147E+06    -169.319E+06    -23.6994E+06    -66.7785E+03         46.7412
             591     5.09517E-03     49.7951E-03         3.28132    -937.601E-03        -1.26351        -1.19191         3.20972    -937.601E-03     785.067E-03     327.299E-03    -163.326E-03    -163.973E-03    -163.322E-03     327.295E-03    -163.973E-03     2.76676E-03    -45.3282E+06    -109.950E+06    -198.391E+06    -109.952E+06    -198.389E+06    -45.3282E+06    -223.188E+03         46.6259
             592     4.24645E-03     49.7915E-03         3.71880    -930.021E-03        -1.68663    -794.968E-03         2.82714    -930.021E-03         2.86913     327.295E-03    -163.343E-03    -163.952E-03    -163.342E-03     327.294E-03    -163.952E-03     1.13964E-03    -68.3344E+06    -120.463E+06    -227.048E+06    -120.465E+06    -227.047E+06    -68.3344E+06    -38.5275E+03         46.5372
             593     3.39598E-03     49.7903E-03         4.87009        -1.04097        -2.71247    -261.573E-03         2.41919        -1.04097         7.00069     327.444E-03    -163.519E-03    -163.925E-03    -163.519E-03     327.444E-03    -163.925E-03     79.6349E-06      -92.28E+06    -130.419E+06    -255.606E+06    -130.420E+06    -255.606E+06      -92.28E+06     131.134E+03         46.4671
             594     2.54749E-03     49.7905E-03         5.44517        -1.31216        -3.05517    -269.595E-03         2.65960        -1.31216         7.95054     327.621E-03    -163.746E-03    -163.875E-03    -163.761E-03     327.621E-03    -163.860E-03    -481.922E-06    -115.069E+06    -139.101E+06    -280.131E+06    -139.106E+06    -280.126E+06    -115.069E+06    -50.1624E+03         46.4125
             595     1.69914E-03     49.7902E-03         7.02439        -1.65408        -4.34626    -982.011E-03         3.66014        -1.65408         10.3624     327.482E-03    -163.652E-03    -163.830E-03    -163.689E-03     327.482E-03    -163.793E-03    -684.234E-06    -133.605E+06    -145.289E+06    -298.806E+06    -145.296E+06    -298.799E+06    -133.605E+06     46.9021E+03         46.3728
             596     848.534E-06     49.7911E-03         7.91844        -1.50579        -5.43427        -2.13827         4.62243        -1.50579         1.91090     327.495E-03    -163.329E-03    -164.166E-03    -163.622E-03     327.494E-03    -163.872E-03    -769.371E-06    -146.211E+06    -150.583E+06    -314.120E+06    -149.800E+06    -314.118E+06    -146.997E+06     99.8297E+03         46.3481
             597     14.4438E-03     48.7145E-03         3.44992    -404.917E-03        -1.58677    -652.811E-03         2.62098    -509.934E-03        -3.07179     327.174E-03    -163.197E-03    -163.977E-03    -162.333E-03     326.305E-03    -163.972E-03     40.8237E-03     141.460E+06     106.816E+06    -8.87298E+06    -8.87081E+06     106.814E+06     141.460E+06     225.213E+03         60.7005
             598     13.5939E-03     48.6539E-03         3.56384    -395.368E-03        -1.75583    -510.788E-03         2.42382    -500.386E-03        -3.55463     327.048E-03    -163.177E-03    -163.871E-03    -162.347E-03     326.213E-03    -163.866E-03     39.8123E-03     107.585E+06     85.6951E+06    -17.4555E+06    -17.4433E+06     85.6829E+06     107.585E+06     770.513E+03         58.3314
             599     12.7438E-03     48.6102E-03         3.61881    -493.432E-03        -1.76605    -526.334E-03         2.37910    -493.432E-03        -4.20469     326.517E-03    -162.704E-03    -163.813E-03    -162.171E-03     325.984E-03    -163.813E-03     32.2808E-03     84.6929E+06     70.8964E+06    -25.1939E+06    -25.1695E+06     70.8720E+06     84.6929E+06     1.42272E+06         55.6286
             600     11.8928E-03     48.5680E-03         2.82292    -487.252E-03        -1.03703    -492.028E-03         2.27792    -487.252E-03        -2.47973     326.554E-03    -162.739E-03    -163.816E-03    -162.306E-03     326.121E-03    -163.816E-03     28.9615E-03     73.8137E+06     65.4907E+06    -32.8374E+06    -32.8019E+06     65.4551E+06     73.8137E+06     1.85466E+06         53.0376
             601     11.0428E-03     48.5320E-03         2.84102    -472.357E-03        -1.12184    -440.897E-03         2.17338    -485.658E-03    -587.770E-03     326.609E-03    -162.747E-03    -163.862E-03    -162.446E-03     326.308E-03    -163.862E-03     24.1787E-03     67.2805E+06     47.1636E+06    -41.0575E+06    -41.0103E+06     47.1165E+06     67.2805E+06     2.02877E+06         50.8844
             602     10.1928E-03     48.5016E-03         2.43742    -473.418E-03    -739.226E-03    -341.340E-03         2.05873    -492.615E-03     238.973E-03     326.804E-03    -162.881E-03    -163.923E-03    -162.668E-03     326.592E-03    -163.923E-03     20.2921E-03     57.9010E+06     7.83955E+06    -49.7009E+06    -49.6645E+06     7.80320E+06     57.9010E+06     1.43843E+06         49.2951
             603     9.34324E-03     48.4764E-03         2.27619    -474.982E-03    -566.771E-03    -120.128E-03         1.87156    -516.992E-03     124.346E-03     327.078E-03    -163.116E-03    -163.962E-03    -162.969E-03     326.931E-03    -163.962E-03     16.8784E-03     44.0697E+06    -36.9278E+06    -58.7843E+06    -58.6864E+06    -37.0256E+06     44.0697E+06     873.810E+03         48.2290
             604     8.49344E-03     48.4542E-03         2.15397    -335.183E-03    -578.052E-03     92.8758E-03         1.71583    -567.980E-03     313.146E-03     327.126E-03    -163.143E-03    -163.983E-03    -163.045E-03     327.029E-03    -163.983E-03     13.7004E-03     29.4787E+06    -66.0528E+06    -78.1104E+06    -68.0720E+06    -76.0912E+06     29.4787E+06     514.011E+03         47.5613
             605     7.64381E-03     48.4369E-03         1.91837    -55.8417E-03    -644.648E-03     158.231E-03         1.70429    -644.648E-03    -520.236E-03     327.023E-03    -163.022E-03    -164.001E-03    -162.965E-03     326.966E-03    -164.001E-03     10.4958E-03     13.8505E+06    -77.7819E+06    -108.782E+06    -77.7841E+06    -108.780E+06     13.8505E+06     114.199E+03         47.1566
             606     6.79374E-03     48.4243E-03         2.03357    -121.932E-03    -736.334E-03     45.3662E-03         1.86627    -736.334E-03    -632.065E-03     327.106E-03    -163.089E-03    -164.017E-03    -163.058E-03     327.075E-03    -164.017E-03     7.57077E-03    -3.58619E+06    -88.2005E+06    -139.427E+06    -88.2022E+06    -139.426E+06    -3.58619E+06     72.0065E+03         46.9080
             607     5.94488E-03     48.4146E-03         2.36379    -358.372E-03    -866.202E-03    -240.159E-03         2.20457    -825.194E-03    -478.490E-03     327.249E-03    -163.233E-03    -164.017E-03    -163.219E-03     327.236E-03    -164.017E-03     5.05293E-03    -23.3678E+06    -99.0189E+06    -168.992E+06    -99.0200E+06    -168.991E+06    -23.3678E+06     72.7100E+03         46.7457
             608     5.09561E-03     48.4083E-03         2.67641    -535.881E-03        -1.00485    -625.854E-03         2.64928    -887.747E-03     350.762E-03     327.288E-03    -163.283E-03    -164.005E-03    -163.278E-03     327.283E-03    -164.005E-03     2.95427E-03    -45.1424E+06    -109.826E+06    -198.242E+06    -109.828E+06    -198.240E+06    -45.1424E+06    -17.9585E+03         46.6301
             609     4.24543E-03     48.4055E-03         3.45504    -801.559E-03        -1.49976    -912.334E-03         2.97494    -908.881E-03         2.18475     327.399E-03    -163.416E-03    -163.984E-03    -163.414E-03     327.398E-03    -163.984E-03     1.22002E-03    -68.6611E+06    -120.482E+06    -227.158E+06    -120.484E+06    -227.155E+06    -68.6611E+06    -120.853E+03         46.5417
             610     3.39685E-03     48.4040E-03         4.91046    -906.199E-03        -2.84259    -924.179E-03         2.99206    -906.199E-03         6.53486     327.545E-03    -163.600E-03    -163.946E-03    -163.600E-03     327.545E-03    -163.946E-03     15.2421E-06    -92.4135E+06    -130.068E+06    -255.366E+06    -130.070E+06    -255.363E+06    -92.4135E+06    -279.274E+03         46.4719
             611     2.54736E-03     48.4029E-03         5.29444    -928.459E-03        -3.23226    -781.402E-03         2.84358    -928.459E-03         7.69161     327.578E-03    -163.670E-03    -163.908E-03    -163.685E-03     327.578E-03    -163.893E-03    -562.716E-06    -114.974E+06    -138.649E+06    -279.822E+06    -138.655E+06    -279.817E+06    -114.974E+06    -438.820E+03         46.4177
             612     1.69769E-03     48.4047E-03         6.86634    -993.171E-03        -4.81304    -833.457E-03         2.88676    -993.171E-03         10.9570     327.571E-03    -163.646E-03    -163.925E-03    -163.719E-03     327.571E-03    -163.853E-03    -652.289E-06    -133.724E+06    -145.601E+06    -298.873E+06    -145.609E+06    -298.865E+06    -133.724E+06    -328.283E+03         46.3784
             613     849.383E-06     48.4048E-03         8.46422    -770.502E-03        -6.74574        -1.29703         3.01551    -770.502E-03     890.342E-03     327.628E-03    -163.534E-03    -164.094E-03    -163.982E-03     327.628E-03    -163.646E-03    -497.399E-06    -145.587E+06    -150.541E+06    -313.473E+06    -149.762E+06    -313.466E+06    -146.373E+06     249.504E+03         46.3539
             614     14.4448E-03     47.3286E-03         3.76761    -416.240E-03        -1.85254        -1.12023         3.03529    -416.240E-03        -3.07953     326.989E-03    -163.013E-03    -163.977E-03    -162.156E-03     326.133E-03    -163.977E-03     40.5209E-03     140.223E+06     105.455E+06    -9.49553E+06    -9.49043E+06     105.450E+06     140.223E+06     545.042E+03         60.6662
             615     13.5940E-03     47.2668E-03         3.75039    -375.971E-03        -1.91170    -896.431E-03         2.73512    -375.971E-03        -3.45743     327.016E-03    -163.137E-03    -163.879E-03    -162.322E-03     326.201E-03    -163.879E-03     39.3426E-03     106.768E+06     84.9019E+06    -18.2947E+06    -18.2757E+06     84.8829E+06     106.768E+06     1.28528E+06         58.3150
             616     12.7432E-03     47.2246E-03         3.32934    -355.359E-03        -1.56350    -384.854E-03         2.15069    -355.359E-03        -4.09791     326.735E-03    -162.914E-03    -163.821E-03    -162.394E-03     326.215E-03    -163.821E-03     31.8898E-03     84.3299E+06     71.3984E+06    -26.0813E+06    -26.0512E+06     71.3684E+06     84.3299E+06     1.69240E+06         55.6329
             617     11.8934E-03     47.1811E-03         2.29813    -369.955E-03    -580.565E-03     143.217E-03         1.57435    -369.955E-03        -2.37102     326.615E-03    -162.801E-03    -163.814E-03    -162.372E-03     326.186E-03    -163.814E-03     28.8646E-03     73.6107E+06     65.3131E+06    -33.1192E+06    -33.0849E+06     65.2788E+06     73.6107E+06     1.82740E+06         53.0570
             618     11.0432E-03     47.1458E-03         2.23580    -341.239E-03    -595.792E-03     365.047E-03         1.35010    -416.376E-03    -486.943E-03     326.610E-03    -162.751E-03    -163.859E-03    -162.451E-03     326.310E-03    -163.859E-03     24.1406E-03     67.9409E+06     47.9284E+06    -40.5827E+06    -40.5459E+06     47.8916E+06     67.9409E+06     1.77279E+06         50.9096
             619     10.1928E-03     47.1152E-03         2.03620    -283.631E-03    -472.754E-03     185.341E-03         1.56723    -472.754E-03     276.759E-03     326.804E-03    -162.884E-03    -163.920E-03    -162.673E-03     326.592E-03    -163.920E-03     20.2736E-03     58.7387E+06     9.52528E+06    -49.1780E+06    -49.1513E+06     9.49861E+06     58.7387E+06     1.22524E+06         49.3187
             620     9.34296E-03     47.0890E-03         2.27191    -399.141E-03    -589.758E-03    -216.645E-03         2.01278    -513.128E-03     88.4507E-03     327.038E-03    -163.078E-03    -163.960E-03    -162.931E-03     326.890E-03    -163.960E-03     16.9165E-03     44.6416E+06    -36.2535E+06    -58.1756E+06    -58.1404E+06    -36.2888E+06     44.6416E+06     558.709E+03         48.2475
             621     8.49372E-03     47.0676E-03         2.53546    -518.258E-03    -733.562E-03    -567.569E-03         2.37516    -523.952E-03     386.061E-03     327.039E-03    -163.051E-03    -163.988E-03    -162.955E-03     326.944E-03    -163.988E-03     13.5564E-03     30.2306E+06    -65.6087E+06    -77.3248E+06    -67.3673E+06    -75.5662E+06     30.2306E+06     319.661E+03         47.5742
             622     7.64367E-03     47.0509E-03         2.45134    -454.777E-03    -737.931E-03    -639.449E-03         2.41204    -513.958E-03    -375.499E-03     327.007E-03    -162.995E-03    -164.012E-03    -162.939E-03     326.951E-03    -164.012E-03     10.3798E-03     14.4779E+06    -77.2717E+06    -108.210E+06    -77.2787E+06    -108.203E+06     14.4779E+06     255.649E+03         47.1654
             623     6.79444E-03     47.0374E-03         2.12025    -299.571E-03    -609.964E-03    -307.765E-03         2.03745    -518.970E-03    -439.646E-03     327.092E-03    -163.060E-03    -164.032E-03    -163.030E-03     327.062E-03    -164.032E-03     7.56753E-03    -3.28753E+06    -87.8665E+06    -139.121E+06    -87.8693E+06    -139.118E+06    -3.28753E+06     123.577E+03         46.9143
             624     5.94442E-03     47.0280E-03         1.76755    -15.0699E-03    -582.169E-03     135.695E-03         1.61679    -582.169E-03    -163.401E-03     327.132E-03    -163.085E-03    -164.047E-03    -163.071E-03     327.118E-03    -164.047E-03     5.14002E-03    -22.9555E+06    -98.5245E+06    -168.781E+06    -98.5262E+06    -168.779E+06    -22.9555E+06     142.428E+03         46.7508
             625     5.09445E-03     47.0223E-03         1.94433    -81.4475E-03    -699.345E-03     103.449E-03         1.75943    -699.345E-03     929.246E-03     327.329E-03    -163.276E-03    -164.053E-03    -163.271E-03     327.324E-03    -164.053E-03     2.99657E-03    -44.6546E+06    -109.067E+06    -197.977E+06    -109.070E+06    -197.974E+06    -44.6546E+06     35.4445E+03         46.6351
             626     4.24581E-03     47.0185E-03         3.10136    -573.868E-03        -1.34947    -541.534E-03         2.51013    -790.578E-03         2.72618     327.583E-03    -163.555E-03    -164.027E-03    -163.554E-03     327.581E-03    -164.027E-03     1.27491E-03    -67.9731E+06    -119.513E+06    -226.487E+06    -119.516E+06    -226.484E+06    -67.9731E+06    -202.300E+03         46.5469
             627     3.39646E-03     47.0169E-03         5.07111    -758.576E-03        -3.13143        -1.21213         3.15181    -758.576E-03         6.84791     327.616E-03    -163.635E-03    -163.981E-03    -163.635E-03     327.616E-03    -163.981E-03     183.621E-06    -91.7841E+06    -129.662E+06    -255.093E+06    -129.664E+06    -255.090E+06    -91.7841E+06    -383.861E+03         46.4776
             628     2.54726E-03     47.0175E-03         5.29745    -589.068E-03        -3.57313        -1.26579         2.99011    -589.068E-03         7.76767     327.601E-03    -163.663E-03    -163.938E-03    -163.663E-03     327.601E-03    -163.938E-03    -553.018E-06    -114.626E+06    -138.428E+06    -279.823E+06    -138.432E+06    -279.819E+06    -114.626E+06    -395.447E+03         46.4238
             629     1.69836E-03     47.0172E-03         6.77226    -368.625E-03        -5.35078    -799.499E-03         2.22098    -368.625E-03         11.5099     327.702E-03    -163.751E-03    -163.951E-03    -163.808E-03     327.701E-03    -163.893E-03    -867.800E-06    -134.423E+06    -145.373E+06    -299.224E+06    -145.378E+06    -299.220E+06    -134.423E+06    -449.642E+03         46.3848
             630     848.987E-06     47.0186E-03         8.64735    -25.6455E-03        -7.65504    -496.398E-03         1.48871    -25.6455E-03     710.261E-03     327.695E-03    -163.738E-03    -163.957E-03    -163.917E-03     327.695E-03    -163.777E-03    -449.284E-06    -146.538E+06    -149.914E+06    -313.900E+06    -149.920E+06    -313.883E+06    -146.548E+06    -650.500E+03         46.3605
             631     14.4440E-03     45.9424E-03         3.60887    -371.819E-03        -1.75562        -1.17258         3.02584    -371.819E-03        -2.77515     326.985E-03    -162.997E-03    -163.988E-03    -162.128E-03     326.116E-03    -163.988E-03     40.8603E-03     139.827E+06     104.757E+06    -8.98187E+06    -8.96536E+06     104.740E+06     139.827E+06     1.18297E+06         60.6335
             632     13.5934E-03     45.8809E-03         3.58039    -331.777E-03        -1.80850    -853.368E-03         2.62526    -331.777E-03        -3.27927     327.099E-03    -163.206E-03    -163.893E-03    -162.376E-03     326.269E-03    -163.893E-03     39.7529E-03     107.127E+06     84.7613E+06    -17.4832E+06    -17.4640E+06     84.7420E+06     107.127E+06     1.21183E+06         58.2999
             633     12.7439E-03     45.8370E-03         3.24553    -313.147E-03        -1.53388    -393.294E-03         2.10495    -313.147E-03        -3.99082     326.895E-03    -163.062E-03    -163.833E-03    -162.531E-03     326.364E-03    -163.833E-03     32.2075E-03     85.3806E+06     71.3807E+06    -24.7143E+06    -24.6961E+06     71.3625E+06     85.3806E+06     1.17876E+06         55.6379
             634     11.8932E-03     45.7959E-03         2.35557    -321.284E-03    -691.102E-03    -21.5693E-03         1.68604    -321.284E-03        -2.41137     326.696E-03    -162.876E-03    -163.820E-03    -162.443E-03     326.263E-03    -163.820E-03     29.0298E-03     74.7765E+06     65.5569E+06    -31.6327E+06    -31.6043E+06     65.5285E+06     74.7765E+06     1.66106E+06         53.0765
             635     11.0428E-03     45.7586E-03         2.16170    -273.721E-03    -592.633E-03     228.087E-03         1.42079    -353.530E-03    -591.640E-03     326.594E-03    -162.731E-03    -163.863E-03    -162.419E-03     326.282E-03    -163.863E-03     24.6042E-03     68.7876E+06     48.6528E+06    -39.4552E+06    -39.4332E+06     48.6309E+06     68.7876E+06     1.37184E+06         50.9350
             636     10.1933E-03     45.7289E-03         1.82746    -146.587E-03    -400.216E-03     226.594E-03         1.45428    -400.216E-03     257.851E-03     326.858E-03    -162.935E-03    -163.924E-03    -162.713E-03     326.637E-03    -163.924E-03     20.7439E-03     59.8546E+06     11.0538E+06    -47.8675E+06    -47.8502E+06     11.0366E+06     59.8546E+06     966.947E+03         49.3428
             637     9.34336E-03     45.7021E-03         2.01990    -227.345E-03    -507.649E-03    -68.9317E-03         1.79493    -441.091E-03     154.856E-03     326.951E-03    -162.984E-03    -163.967E-03    -162.832E-03     326.800E-03    -163.967E-03     17.1243E-03     45.4540E+06    -35.5877E+06    -57.1565E+06    -57.0652E+06    -35.6790E+06     45.4540E+06     626.117E+03         48.2666
             638     8.49314E-03     45.6812E-03         2.29344    -349.159E-03    -657.482E-03    -425.592E-03         2.17033    -457.945E-03     585.227E-03     326.997E-03    -162.992E-03    -164.005E-03    -162.897E-03     326.901E-03    -164.005E-03     13.6072E-03     30.6512E+06    -65.5709E+06    -76.8553E+06    -66.7746E+06    -75.6516E+06     30.6512E+06     398.694E+03         47.5881
             639     7.64380E-03     45.6642E-03         2.30032    -361.578E-03    -675.723E-03    -578.609E-03         2.29338    -451.749E-03    -115.198E-03     327.047E-03    -163.014E-03    -164.032E-03    -162.956E-03     326.988E-03    -164.032E-03     10.5936E-03     15.1127E+06    -76.4736E+06    -107.517E+06    -76.4811E+06    -107.510E+06     15.1127E+06     370.763E+03         47.1752
             640     6.79377E-03     45.6510E-03         2.16307    -368.118E-03    -579.221E-03    -491.248E-03         2.14850    -441.519E-03    -186.949E-03     327.070E-03    -163.014E-03    -164.057E-03    -162.982E-03     327.039E-03    -164.057E-03     7.74040E-03    -2.63832E+06    -86.8336E+06    -138.443E+06    -86.8359E+06    -138.441E+06    -2.63832E+06     195.255E+03         46.9219
             641     5.94423E-03     45.6421E-03         2.05709    -237.073E-03    -646.533E-03    -342.142E-03         1.96143    -445.807E-03     279.833E-03     327.225E-03    -163.151E-03    -164.075E-03    -163.137E-03     327.211E-03    -164.075E-03     5.03871E-03    -22.4867E+06    -97.7267E+06    -168.558E+06    -97.7292E+06    -168.556E+06    -22.4867E+06     41.9922E+03         46.7574
             642     5.09510E-03     45.6352E-03         2.13624    -205.585E-03    -776.233E-03    -245.778E-03         1.87181    -471.616E-03         1.43456     327.396E-03    -163.319E-03    -164.077E-03    -163.314E-03     327.391E-03    -164.077E-03     2.88214E-03    -43.9948E+06    -108.488E+06    -197.496E+06    -108.492E+06    -197.492E+06    -43.9948E+06    -59.9766E+03         46.6414
             643     4.24536E-03     45.6316E-03         2.78740    -403.674E-03        -1.22267    -280.025E-03         1.95414    -513.061E-03         3.07534     327.522E-03    -163.459E-03    -164.063E-03    -163.458E-03     327.521E-03    -164.063E-03     1.22653E-03    -67.2693E+06    -119.216E+06    -226.063E+06    -119.218E+06    -226.061E+06    -67.2693E+06    -129.187E+03         46.5534
             644     3.39608E-03     45.6306E-03         4.54748    -539.453E-03        -2.84871    -511.086E-03         2.20986    -539.453E-03         6.75473     327.676E-03    -163.640E-03    -164.036E-03    -163.640E-03     327.676E-03    -164.036E-03    -11.6006E-06    -90.8227E+06    -128.990E+06    -254.641E+06    -128.990E+06    -254.641E+06    -90.8227E+06    -83.0273E+03         46.4843
             645     2.54712E-03     45.6301E-03         4.82726    -486.764E-03        -3.22024    -823.516E-03         2.43054    -486.764E-03         7.23013     327.727E-03    -163.728E-03    -163.999E-03    -163.728E-03     327.727E-03    -163.999E-03    -577.457E-06    -113.885E+06    -137.965E+06    -279.713E+06    -137.968E+06    -279.710E+06    -113.885E+06    -24.0294E+03         46.4308
             646     1.69802E-03     45.6312E-03         6.20979    -332.262E-03        -4.83510    -725.695E-03         2.10039    -332.262E-03         10.4436     327.748E-03    -163.763E-03    -163.985E-03    -163.763E-03     327.748E-03    -163.985E-03    -467.326E-06    -134.010E+06    -145.466E+06    -299.196E+06    -145.470E+06    -299.192E+06    -134.010E+06    -108.455E+03         46.3920
             647     849.043E-06     45.6316E-03         8.27074    -121.399E-03        -7.15847    -346.161E-03         1.45842    -121.399E-03     303.970E-03     327.938E-03    -163.830E-03    -164.108E-03    -164.018E-03     327.938E-03    -163.920E-03    -397.809E-06    -147.059E+06    -150.466E+06    -314.611E+06    -149.993E+06    -314.595E+06    -147.548E+06    -335.816E+03         46.3679
             648     14.4437E-03     44.5547E-03         3.09527    -379.336E-03        -1.31771    -706.955E-03         2.48821    -383.025E-03        -2.61424     326.968E-03    -162.973E-03    -163.995E-03    -162.121E-03     326.117E-03    -163.995E-03     40.5216E-03     139.671E+06     104.160E+06    -7.78064E+06    -7.76773E+06     104.147E+06     139.671E+06     613.942E+03         60.6004
             649     13.5938E-03     44.4950E-03         3.24483    -363.846E-03        -1.51674    -619.266E-03         2.35104    -367.535E-03        -3.17871     327.060E-03    -163.152E-03    -163.908E-03    -162.340E-03     326.248E-03    -163.908E-03     39.4079E-03     108.314E+06     85.2908E+06    -15.7411E+06    -15.7254E+06     85.2751E+06     108.314E+06     845.200E+03         58.2838
             650     12.7424E-03     44.4502E-03         3.40533    -350.783E-03        -1.72687    -680.262E-03         2.35872    -350.783E-03        -3.96239     326.782E-03    -162.926E-03    -163.856E-03    -162.390E-03     326.246E-03    -163.856E-03     32.3548E-03     86.5808E+06     70.7861E+06    -22.9540E+06    -22.9430E+06     70.7751E+06     86.5808E+06     864.906E+03         55.6411
             651     11.8932E-03     44.4086E-03         2.78432    -327.703E-03        -1.17144    -703.551E-03         2.31643    -327.703E-03        -2.48577     326.805E-03    -162.959E-03    -163.846E-03    -162.522E-03     326.368E-03    -163.846E-03     29.1481E-03     75.6501E+06     65.4192E+06    -30.3278E+06    -30.3063E+06     65.3977E+06     75.6501E+06     1.37040E+06         53.0942
             652     11.0430E-03     44.3734E-03         2.55740    -284.273E-03        -1.02278    -613.884E-03         2.16648    -302.248E-03    -739.776E-03     326.671E-03    -162.787E-03    -163.884E-03    -162.468E-03     326.353E-03    -163.884E-03     24.8743E-03     69.6644E+06     49.7785E+06    -38.3233E+06    -38.3037E+06     49.7589E+06     69.6644E+06     1.28933E+06         50.9590
             653     10.1922E-03     44.3411E-03         2.03634    -203.276E-03    -601.659E-03    -328.056E-03         1.84645    -286.980E-03     68.2921E-03     326.719E-03    -162.766E-03    -163.953E-03    -162.537E-03     326.490E-03    -163.953E-03     21.1101E-03     60.4414E+06     11.5891E+06    -47.0037E+06    -46.9891E+06     11.5744E+06     60.4414E+06     880.686E+03         49.3661
             654     9.34282E-03     44.3160E-03         1.69488    -76.4934E-03    -380.592E-03     95.9781E-03         1.44264    -300.826E-03    -8.97729E-03     326.960E-03    -162.949E-03    -164.010E-03    -162.790E-03     326.800E-03    -164.010E-03     17.5881E-03     46.1724E+06    -34.9013E+06    -56.4321E+06    -56.2400E+06    -35.0934E+06     46.1724E+06     944.931E+03         48.2857
             655     8.49325E-03     44.2944E-03         1.45790     133.733E-03    -350.611E-03     329.539E-03         1.26209    -350.611E-03     595.166E-03     327.085E-03    -163.033E-03    -164.052E-03    -162.931E-03     326.982E-03    -164.052E-03     14.0726E-03     31.3611E+06    -64.3151E+06    -76.1308E+06    -65.7452E+06    -74.7007E+06     31.3611E+06     729.063E+03         47.6026
             656     7.64325E-03     44.2776E-03         1.56274     70.4486E-03    -412.314E-03     109.252E-03         1.52393    -412.314E-03     25.8645E-03     327.155E-03    -163.077E-03    -164.078E-03    -163.016E-03     327.094E-03    -164.078E-03     10.7816E-03     15.2800E+06    -75.8333E+06    -107.329E+06    -75.8392E+06    -107.323E+06     15.2800E+06     320.508E+03         47.1864
             657     6.79373E-03     44.2648E-03         2.07133    -283.391E-03    -607.143E-03    -447.400E-03         2.06861    -440.412E-03    -71.7281E-03     327.271E-03    -163.174E-03    -164.097E-03    -163.142E-03     327.239E-03    -164.097E-03     7.80240E-03    -2.14308E+06    -86.1908E+06    -138.111E+06    -86.1934E+06    -138.109E+06    -2.14308E+06     338.268E+03         46.9311
             658     5.94428E-03     44.2547E-03         2.52019    -400.309E-03    -984.144E-03    -952.896E-03         2.48894    -400.309E-03     370.902E-03     327.388E-03    -163.288E-03    -164.100E-03    -163.273E-03     327.373E-03    -164.100E-03     5.21105E-03    -21.6619E+06    -97.0664E+06    -167.768E+06    -97.0733E+06    -167.761E+06    -21.6619E+06     378.985E+03         46.7658
             659     5.09470E-03     44.2489E-03         2.55596    -305.114E-03        -1.14000    -970.167E-03         2.38613    -305.114E-03         1.42005     327.433E-03    -163.341E-03    -164.092E-03    -163.336E-03     327.428E-03    -164.092E-03     2.99049E-03    -43.7386E+06    -108.430E+06    -197.239E+06    -108.436E+06    -197.233E+06    -43.7386E+06     185.906E+03         46.6495
             660     4.24538E-03     44.2451E-03         2.76619    -222.040E-03        -1.43996    -494.904E-03         1.82113    -222.040E-03         3.25158     327.510E-03    -163.427E-03    -164.082E-03    -163.426E-03     327.508E-03    -164.082E-03     1.24704E-03    -67.0215E+06    -118.852E+06    -225.645E+06    -118.853E+06    -225.643E+06    -67.0215E+06    -6.60870E+03         46.5615
             661     3.39632E-03     44.2433E-03         4.18767    -226.878E-03        -2.86155     32.0780E-03         1.29405    -226.878E-03         6.87026     327.681E-03    -163.612E-03    -164.069E-03    -163.612E-03     327.681E-03    -164.069E-03     10.7517E-06    -90.8202E+06    -129.063E+06    -254.714E+06    -129.063E+06    -254.714E+06    -90.8202E+06    -38.0391E+03         46.4925
             662     2.54703E-03     44.2438E-03         4.59721    -321.325E-03        -3.19925     51.4170E-03         1.34653    -321.325E-03         7.55049     327.789E-03    -163.743E-03    -164.046E-03    -163.743E-03     327.788E-03    -164.046E-03    -789.916E-06    -113.297E+06    -138.171E+06    -279.481E+06    -138.172E+06    -279.479E+06    -113.297E+06     164.347E+03         46.4391
             663     1.69756E-03     44.2445E-03         5.68031    -437.256E-03        -4.24044    -222.152E-03         1.66202    -437.256E-03         9.62776     327.870E-03    -163.843E-03    -164.027E-03    -163.843E-03     327.870E-03    -164.027E-03    -881.655E-06    -132.963E+06    -145.322E+06    -298.665E+06    -145.326E+06    -298.660E+06    -132.963E+06     330.785E+03         46.4004
             664     848.550E-06     44.2443E-03         7.04517    -648.158E-03        -5.48769    -333.844E-03         1.89133    -648.158E-03         1.01462     327.994E-03    -163.876E-03    -164.118E-03    -164.061E-03     327.994E-03    -163.933E-03    -661.582E-06    -146.001E+06    -150.512E+06    -314.174E+06    -150.041E+06    -314.166E+06    -146.480E+06     393.319E+03         46.3763
             665     14.4445E-03     43.1690E-03         2.94471    -420.277E-03        -1.29295    -565.215E-03         2.22066    -423.965E-03        -2.92462     326.919E-03    -162.925E-03    -163.994E-03    -162.060E-03     326.054E-03    -163.994E-03     40.8356E-03     139.254E+06     103.742E+06    -8.29873E+06    -8.29795E+06     103.741E+06     139.254E+06    -289.016E+03         60.5657
             666     13.5932E-03     43.1081E-03         3.08489    -413.276E-03        -1.43522    -556.996E-03         2.21035    -416.964E-03        -3.26104     326.996E-03    -163.083E-03    -163.913E-03    -162.265E-03     326.178E-03    -163.913E-03     39.5030E-03     108.366E+06     85.4421E+06    -16.4542E+06    -16.4498E+06     85.4377E+06     108.366E+06     248.780E+03         58.2660
             667     12.7437E-03     43.0644E-03         3.46633    -398.888E-03        -1.84667    -846.679E-03         2.46634    -398.888E-03        -3.93941     326.706E-03    -162.840E-03    -163.865E-03    -162.312E-03     326.178E-03    -163.865E-03     32.1193E-03     86.1934E+06     70.7929E+06    -24.0348E+06    -24.0295E+06     70.7876E+06     86.1934E+06     609.477E+03         55.6427
             668     11.8920E-03     43.0221E-03         3.03207    -357.406E-03        -1.48166        -1.12897         2.67938    -357.406E-03        -2.41853     326.643E-03    -162.779E-03    -163.863E-03    -162.349E-03     326.212E-03    -163.863E-03     28.9226E-03     74.9667E+06     64.9155E+06    -31.2470E+06    -31.2388E+06     64.9072E+06     74.9667E+06     601.010E+03         53.1102
             669     11.0424E-03     42.9857E-03         2.87037    -297.066E-03        -1.41081        -1.16989         2.62945    -297.066E-03    -566.127E-03     326.623E-03    -162.710E-03    -163.913E-03    -162.394E-03     326.307E-03    -163.913E-03     24.7774E-03     69.5585E+06     50.1609E+06    -38.6893E+06    -38.6735E+06     50.1451E+06     69.5585E+06     949.692E+03         50.9815
             670     10.1927E-03     42.9562E-03         2.35784    -238.050E-03    -970.116E-03    -860.385E-03         2.24811    -238.050E-03     208.428E-03     326.580E-03    -162.586E-03    -163.994E-03    -162.354E-03     326.348E-03    -163.994E-03     21.2133E-03     60.2492E+06     11.9213E+06    -47.3712E+06    -47.3474E+06     11.8975E+06     60.2492E+06     1.11510E+06         49.3885
             671     9.34177E-03     42.9285E-03         1.76173    -92.2595E-03    -520.136E-03    -237.294E-03         1.59757    -210.937E-03    -3.78136E-03     326.823E-03    -162.750E-03    -164.073E-03    -162.586E-03     326.659E-03    -164.073E-03     17.8189E-03     46.0330E+06    -34.4267E+06    -56.4767E+06    -56.3571E+06    -34.5463E+06     46.0330E+06     883.267E+03         48.3045
             672     8.49214E-03     42.9079E-03         1.22196     229.034E-03    -302.620E-03     328.929E-03         1.05674    -237.302E-03     580.674E-03     327.212E-03    -163.084E-03    -164.128E-03    -162.978E-03     327.106E-03    -164.128E-03     14.3093E-03     31.4081E+06    -63.9797E+06    -75.8219E+06    -65.8849E+06    -73.9167E+06     31.4081E+06     596.026E+03         47.6174
             673     7.64268E-03     42.8907E-03         1.12314     308.785E-03    -301.362E-03     368.069E-03         1.06386    -301.362E-03     210.991E-03     327.401E-03    -163.249E-03    -164.152E-03    -163.185E-03     327.337E-03    -164.152E-03     11.0531E-03     15.3409E+06    -76.0865E+06    -106.936E+06     -76.098E+06    -106.924E+06     15.3409E+06     551.063E+03         47.1983
             674     6.79338E-03     42.8776E-03         1.57255    -8.82541E-03    -472.653E-03    -103.270E-03         1.54697    -352.629E-03     226.986E-03     327.502E-03    -163.343E-03    -164.159E-03    -163.308E-03     327.467E-03    -164.159E-03     8.14575E-03    -2.09121E+06    -86.4216E+06    -137.875E+06    -86.4294E+06    -137.867E+06    -2.09121E+06     590.049E+03         46.9414
             675     5.94390E-03     42.8683E-03         2.08239    -268.451E-03    -763.299E-03    -595.367E-03         1.99577    -349.766E-03     698.215E-03     327.566E-03    -163.415E-03    -164.150E-03    -163.399E-03     327.550E-03    -164.150E-03     5.43559E-03    -21.5555E+06    -97.1021E+06    -167.465E+06    -97.1092E+06    -167.458E+06    -21.5555E+06     644.616E+03         46.7756
             676     5.09465E-03     42.8618E-03         2.32963    -292.338E-03        -1.01470    -769.166E-03         2.08410    -292.338E-03         1.59997     327.611E-03    -163.483E-03    -164.129E-03    -163.477E-03     327.606E-03    -164.129E-03     3.02138E-03    -43.0905E+06    -107.478E+06    -196.261E+06    -107.482E+06    -196.257E+06    -43.0905E+06     266.346E+03         46.6593
             677     4.24546E-03     42.8584E-03         2.85595    -211.167E-03        -1.63305    -627.855E-03         1.85075    -211.167E-03         3.55478     327.617E-03    -163.511E-03    -164.106E-03    -163.510E-03     327.616E-03    -164.106E-03     1.26430E-03    -66.4674E+06    -118.482E+06    -225.697E+06    -118.483E+06    -225.695E+06    -66.4674E+06     135.765E+03         46.5715
             678     3.39580E-03     42.8567E-03         4.25671    -175.231E-03        -3.08661    -131.104E-03         1.30120    -175.231E-03         7.09775     327.657E-03    -163.563E-03    -164.094E-03    -163.563E-03     327.657E-03    -164.094E-03     15.0938E-06    -90.4930E+06    -128.801E+06    -254.649E+06    -128.803E+06    -254.647E+06    -90.4930E+06     384.015E+03         46.5026
             679     2.54683E-03     42.8566E-03         5.04078    -275.251E-03        -3.79942     291.266E-03     950.095E-03    -275.251E-03         8.80925     327.889E-03    -163.822E-03    -164.067E-03    -163.822E-03     327.889E-03    -164.067E-03    -629.498E-06    -113.562E+06    -137.577E+06    -278.906E+06    -137.577E+06    -278.905E+06    -113.562E+06     63.8297E+03         46.4493
             680     1.69851E-03     42.8574E-03         5.86757    -568.163E-03        -4.40534     225.898E-03         1.23634    -568.163E-03         10.2199     328.019E-03    -163.965E-03    -164.054E-03    -164.033E-03     328.019E-03    -163.986E-03    -711.507E-06    -132.714E+06    -144.494E+06    -298.345E+06    -144.497E+06    -298.342E+06    -132.714E+06     87.3676E+03         46.4108
             681     849.512E-06     42.8579E-03         5.77227    -928.170E-03        -4.00314    -269.063E-03         2.37408        -1.26406         3.91722     327.804E-03    -163.841E-03    -163.963E-03    -163.956E-03     327.804E-03    -163.847E-03    -665.961E-06    -145.043E+06    -149.582E+06    -313.607E+06    -148.981E+06    -313.602E+06    -145.649E+06     85.2684E+03         46.3867
             682     14.4435E-03     41.7829E-03         3.07975    -473.872E-03        -1.52445    -849.676E-03         2.40498    -473.872E-03        -2.95549     326.806E-03    -162.802E-03    -164.004E-03    -161.928E-03     325.932E-03    -164.004E-03     40.9946E-03     139.224E+06     103.812E+06    -9.01651E+06    -9.01467E+06     103.811E+06     139.224E+06    -444.138E+03         60.5289
             683     13.5935E-03     41.7217E-03         3.16251    -452.939E-03        -1.61163    -825.844E-03         2.37672    -452.939E-03        -3.18996     326.990E-03    -163.064E-03    -163.926E-03    -162.229E-03     326.155E-03    -163.926E-03     39.9082E-03     107.454E+06     84.0771E+06    -17.1274E+06    -17.1257E+06     84.0754E+06     107.454E+06    -248.879E+03         58.2458
             684     12.7424E-03     41.6776E-03         3.27001    -428.912E-03        -1.74413    -832.685E-03         2.35856    -428.912E-03        -3.72535     326.779E-03    -162.901E-03    -163.878E-03    -162.359E-03     326.237E-03    -163.878E-03     32.5248E-03     85.3933E+06     70.7445E+06    -24.5287E+06    -24.5262E+06     70.7420E+06     85.3933E+06     243.632E+03         55.6421
             685     11.8935E-03     41.6361E-03         2.74337    -396.797E-03        -1.27935    -945.395E-03         2.40941    -396.797E-03        -2.21103     326.621E-03    -162.742E-03    -163.878E-03    -162.301E-03     326.180E-03    -163.878E-03     29.2715E-03     74.2998E+06     65.2851E+06    -31.9810E+06    -31.9775E+06     65.2816E+06     74.2998E+06     429.958E+03         53.1247
             686     11.0420E-03     41.5998E-03         2.61125    -354.127E-03        -1.21941    -993.962E-03         2.38580    -354.127E-03    -364.285E-03     326.477E-03    -162.539E-03    -163.938E-03    -162.224E-03     326.162E-03    -163.938E-03     24.7024E-03     68.5768E+06     49.7213E+06    -39.8828E+06    -39.8751E+06     49.7137E+06     68.5768E+06     510.705E+03         51.0031
             687     10.1914E-03     41.5690E-03         2.36378    -305.010E-03        -1.03484    -944.204E-03         2.27315    -305.010E-03     364.094E-03     326.608E-03    -162.579E-03    -164.029E-03    -162.353E-03     326.382E-03    -164.029E-03     20.9669E-03     59.9055E+06     12.4909E+06    -47.9949E+06    -47.9781E+06     12.4741E+06     59.9055E+06     609.042E+03         49.4104
             688     9.34183E-03     41.5433E-03         2.17985    -253.356E-03    -907.096E-03    -850.156E-03         2.12291    -253.356E-03     107.668E-03     326.768E-03    -162.652E-03    -164.116E-03    -162.492E-03     326.607E-03    -164.116E-03     17.6269E-03     45.8047E+06    -34.0355E+06    -56.8454E+06    -56.8263E+06    -34.0546E+06     45.8047E+06     381.585E+03         48.3233
             689     8.49142E-03     41.5202E-03         1.91710    -115.461E-03    -788.345E-03    -630.917E-03         1.85045    -206.237E-03     790.464E-03     327.061E-03    -162.870E-03    -164.191E-03    -162.766E-03     326.957E-03    -164.191E-03     14.1961E-03     31.0615E+06    -64.3249E+06    -75.9623E+06    -66.4232E+06    -73.8640E+06     31.0615E+06     281.328E+03         47.6323
             690     7.64212E-03     41.5037E-03         1.45967     35.8358E-03    -505.801E-03    -239.654E-03         1.41108    -181.720E-03     562.267E-03     327.489E-03    -163.254E-03    -164.234E-03    -163.191E-03     327.425E-03    -164.234E-03     11.0898E-03      15.659E+06    -76.1646E+06    -106.365E+06    -76.1737E+06    -106.356E+06      15.659E+06     502.459E+03         47.2104
             691     6.79245E-03     41.4904E-03         1.12662     87.0618E-03    -263.643E-03     199.826E-03     952.931E-03    -202.715E-03     475.589E-03     327.726E-03    -163.486E-03    -164.240E-03    -163.451E-03     327.691E-03    -164.240E-03     8.15427E-03    -2.01907E+06    -86.4053E+06    -137.402E+06    -86.4135E+06    -137.394E+06    -2.01907E+06     593.188E+03         46.9522
             692     5.94348E-03     41.4808E-03         1.28721    -80.2970E-03    -299.094E-03     315.159E-03     861.331E-03    -268.670E-03     952.407E-03     327.784E-03    -163.562E-03    -164.221E-03    -163.546E-03     327.768E-03    -164.221E-03     5.43979E-03    -21.5684E+06    -96.8442E+06    -167.040E+06    -96.8475E+06    -167.037E+06    -21.5684E+06     182.940E+03         46.7861
             693     5.09433E-03     41.4748E-03         1.67828    -264.753E-03    -533.278E-03     32.6689E-03         1.18877    -341.188E-03         1.60538     327.773E-03    -163.579E-03    -164.194E-03    -163.574E-03     327.768E-03    -164.194E-03     3.17436E-03    -42.9192E+06    -107.955E+06    -196.019E+06    -107.963E+06    -196.011E+06    -42.9192E+06     348.136E+03         46.6703
             694     4.24509E-03     41.4713E-03         2.61100    -327.283E-03        -1.41659    -319.346E-03         1.56482    -378.342E-03         3.43790     327.782E-03    -163.620E-03    -164.162E-03    -163.619E-03     327.781E-03    -164.162E-03     1.44309E-03    -66.3813E+06    -118.433E+06    -225.343E+06    -118.441E+06    -225.334E+06    -66.3813E+06     553.857E+03         46.5831
             695     3.39634E-03     41.4701E-03         4.00574    -380.453E-03        -2.77679    -412.257E-03         1.64121    -380.453E-03         6.40351     327.831E-03    -163.699E-03    -164.132E-03    -163.699E-03     327.830E-03    -164.132E-03     190.677E-06    -90.4787E+06    -128.301E+06    -254.340E+06    -128.303E+06    -254.338E+06    -90.4787E+06     298.593E+03         46.5149
             696     2.54679E-03     41.4698E-03         5.18051    -374.526E-03        -3.99467    -386.723E-03         1.57256    -374.526E-03         8.89152     327.890E-03    -163.784E-03    -164.106E-03    -163.784E-03     327.890E-03    -164.106E-03    -489.638E-06    -113.580E+06    -137.296E+06    -278.460E+06    -137.298E+06    -278.458E+06    -113.580E+06     406.997E+03         46.4621
             697     1.69733E-03     41.4698E-03         5.43299    -407.487E-03        -4.28794    -267.710E-03         1.41276    -407.487E-03         9.52561     327.984E-03    -163.807E-03    -164.177E-03    -163.875E-03     327.984E-03    -164.109E-03    -525.038E-06    -132.756E+06    -143.994E+06    -297.833E+06    -143.996E+06    -297.830E+06    -132.756E+06     208.005E+03         46.4238
             698     848.817E-06     41.4713E-03         4.61176    -452.775E-03        -3.45541    -96.3937E-03         1.58864    -788.669E-03         6.53133     328.197E-03    -163.943E-03    -164.254E-03    -164.056E-03     328.196E-03    -164.140E-03    -29.2767E-06    -145.020E+06    -149.303E+06    -313.348E+06    -148.699E+06    -313.347E+06    -145.626E+06     86.9045E+03         46.4000
             699     14.4440E-03     40.3969E-03         3.13180    -523.958E-03        -1.60196    -986.291E-03         2.51613    -523.958E-03        -2.92259     326.692E-03    -162.692E-03    -164.000E-03    -161.839E-03     325.838E-03    -164.000E-03     40.5166E-03     139.273E+06     104.289E+06    -8.99018E+06    -8.98882E+06     104.288E+06     139.273E+06    -216.597E+03         60.4921
             700     13.5926E-03     40.3353E-03         3.27447    -494.766E-03        -1.79199        -1.04917         2.53165    -494.766E-03        -3.27590     326.628E-03    -162.697E-03    -163.932E-03    -161.878E-03     325.810E-03    -163.932E-03     39.5054E-03     106.247E+06     83.4656E+06    -17.7307E+06    -17.7285E+06     83.4634E+06     106.247E+06    -352.257E+03         58.2252
             701     12.7428E-03     40.2914E-03         3.17650    -465.660E-03        -1.75886    -868.006E-03         2.28565    -465.660E-03        -3.73878     326.456E-03    -162.548E-03    -163.908E-03    -161.997E-03     325.905E-03    -163.908E-03     32.7929E-03     84.1618E+06     70.3428E+06    -25.4568E+06    -25.4519E+06     70.3379E+06     84.1618E+06    -280.004E+03         55.6401
             702     11.8911E-03     40.2491E-03         2.40992    -447.221E-03        -1.04591    -630.714E-03         1.99473    -447.221E-03        -2.22948     326.719E-03    -162.793E-03    -163.926E-03    -162.335E-03     326.260E-03    -163.926E-03     29.8323E-03     74.0317E+06     65.5233E+06    -32.2419E+06    -32.2368E+06     65.5182E+06     74.0317E+06     142.163E+03         53.1375
             703     11.0422E-03     40.2137E-03         2.18794    -435.816E-03    -870.023E-03    -606.028E-03         1.92395    -435.816E-03    -399.377E-03     326.764E-03    -162.784E-03    -163.981E-03    -162.458E-03     326.439E-03    -163.981E-03     25.1400E-03     68.6211E+06     50.0003E+06    -39.6654E+06    -39.6635E+06     49.9983E+06     68.6211E+06     101.554E+03         51.0238
             704     10.1919E-03     40.1829E-03         2.17837    -414.100E-03    -906.911E-03    -824.622E-03         2.09609    -414.100E-03     363.495E-03     326.792E-03    -162.732E-03    -164.060E-03    -162.503E-03     326.563E-03    -164.060E-03     21.0888E-03     59.8524E+06     12.7474E+06    -48.0894E+06    -48.0885E+06     12.7465E+06     59.8524E+06    -179.773E+03         49.4323
             705     9.34148E-03     40.1560E-03         2.37427    -364.666E-03        -1.15874        -1.11977         2.33529    -364.666E-03     188.322E-03     326.851E-03    -162.712E-03    -164.139E-03    -162.553E-03     326.692E-03    -164.139E-03     17.5352E-03     45.6226E+06    -33.9972E+06    -57.1029E+06    -57.0952E+06    -34.0049E+06     45.6226E+06    -11.4467E+03         48.3423
             706     8.49169E-03     40.1348E-03         2.43205    -283.459E-03        -1.30842        -1.25707         2.38070    -283.459E-03     861.625E-03     326.940E-03    -162.719E-03    -164.221E-03    -162.614E-03     326.835E-03    -164.221E-03     14.2612E-03     30.9160E+06    -64.3136E+06    -75.5872E+06    -66.3923E+06    -73.5085E+06     30.9160E+06     228.997E+03         47.6476
             707     7.64112E-03     40.1159E-03         2.00453    -193.360E-03    -999.774E-03    -964.055E-03         1.96881    -193.360E-03     541.580E-03     327.333E-03    -163.046E-03    -164.287E-03    -162.981E-03     327.268E-03    -164.287E-03     11.1525E-03     15.2090E+06    -76.1594E+06    -106.354E+06    -76.1662E+06    -106.348E+06     15.2090E+06      78.861E+03         47.2228
             708     6.79243E-03     40.1029E-03         1.35974    -59.3716E-03    -535.268E-03    -304.364E-03         1.21052    -141.054E-03     290.049E-03     327.750E-03    -163.432E-03    -164.319E-03    -163.397E-03     327.715E-03    -164.319E-03     8.20894E-03    -1.91308E+06    -86.3805E+06    -137.277E+06    -86.3865E+06    -137.271E+06    -1.91308E+06     125.528E+03         46.9633
             709     5.94297E-03     40.0934E-03         1.12516    -53.7612E-03    -350.348E-03     260.307E-03     621.567E-03    -160.819E-03     879.293E-03     327.866E-03    -163.551E-03    -164.315E-03    -163.534E-03     327.850E-03    -164.315E-03     5.59995E-03    -21.5409E+06    -97.1544E+06    -166.492E+06    -97.1670E+06    -166.480E+06    -21.5409E+06     495.184E+03         46.7972
             710     5.09378E-03     40.0875E-03         1.16010    -153.074E-03    -315.979E-03     387.071E-03     546.769E-03    -242.796E-03         1.32811     327.942E-03    -163.645E-03    -164.297E-03    -163.639E-03     327.935E-03    -164.297E-03     3.38921E-03    -43.3318E+06    -107.803E+06    -195.910E+06    -107.828E+06    -195.885E+06    -43.3318E+06     331.879E+03         46.6823
             711     4.24470E-03     40.0842E-03         2.12164    -266.199E-03        -1.17689     27.5386E-03     981.560E-03    -330.547E-03         3.05728     328.044E-03    -163.780E-03    -164.263E-03    -163.779E-03     328.042E-03    -164.263E-03     1.57988E-03    -66.6278E+06    -118.545E+06    -225.121E+06    -118.562E+06    -225.104E+06    -66.6278E+06     240.527E+03         46.5963
             712     3.39528E-03     40.0827E-03         3.33053    -346.398E-03        -2.32538    -503.866E-03         1.50902    -346.398E-03         5.27279     328.067E-03    -163.846E-03    -164.221E-03    -163.845E-03     328.066E-03    -164.221E-03     323.013E-06    -90.5231E+06    -128.483E+06    -253.892E+06    -128.488E+06    -253.887E+06    -90.5231E+06     474.206E+03         46.5294
             713     2.54693E-03     40.0827E-03         4.72441    -208.677E-03        -3.89502    -916.536E-03         1.74593    -208.677E-03         8.16974     328.036E-03    -163.841E-03    -164.195E-03    -163.840E-03     328.035E-03    -164.195E-03    -263.265E-06    -113.238E+06    -137.199E+06    -278.059E+06    -137.203E+06    -278.055E+06    -113.238E+06     350.558E+03         46.4777
             714     1.69798E-03     40.0834E-03         4.16518     98.6774E-03        -3.73277    -659.186E-03         1.09159     98.6774E-03         7.64752     328.132E-03    -163.865E-03    -164.268E-03    -163.914E-03     328.132E-03    -164.218E-03    -645.099E-06    -132.808E+06    -144.406E+06    -297.411E+06    -144.409E+06    -297.408E+06    -132.808E+06     270.176E+03         46.4403
             715     848.017E-06     40.0837E-03         4.21486     192.492E-03        -3.97027     383.219E-03    -138.633E-03     192.492E-03         8.06690     328.451E-03    -164.085E-03    -164.366E-03    -164.134E-03     328.450E-03    -164.316E-03    -527.007E-06    -144.871E+06    -148.738E+06    -312.659E+06    -148.451E+06    -312.658E+06    -145.158E+06     159.599E+03         46.4169
             716     14.4443E-03     39.0105E-03         2.89754    -567.792E-03        -1.40900    -807.317E-03         2.29586    -567.792E-03        -2.81944     326.635E-03    -162.638E-03    -163.997E-03    -161.770E-03     325.767E-03    -163.997E-03     40.8757E-03     139.139E+06     104.442E+06    -8.90485E+06    -8.90342E+06     104.440E+06     139.139E+06     328.465E+03         60.4555
             717     13.5938E-03     38.9504E-03         3.01351    -553.046E-03        -1.61402    -866.094E-03         2.26558    -553.046E-03        -3.18950     326.480E-03    -162.543E-03    -163.936E-03    -161.715E-03     325.651E-03    -163.936E-03     39.7409E-03     106.371E+06     84.1238E+06    -17.1499E+06    -17.1478E+06     84.1217E+06     106.371E+06    -87.1094E+03         58.2048
             718     12.7413E-03     38.9059E-03         3.09849    -535.542E-03        -1.77120    -846.644E-03         2.17393    -535.542E-03        -3.77342     326.331E-03    -162.407E-03    -163.924E-03    -161.863E-03     325.787E-03    -163.924E-03     32.5819E-03     84.3006E+06     70.6771E+06    -24.6597E+06    -24.6489E+06     70.6663E+06     84.3006E+06    -890.494E+03         55.6385
             719     11.8916E-03     38.8627E-03         2.40370    -521.363E-03        -1.14678    -704.318E-03         1.96123    -521.363E-03        -2.31766     326.494E-03    -162.537E-03    -163.957E-03    -162.099E-03     326.056E-03    -163.957E-03     29.1422E-03     74.0247E+06     65.3355E+06    -31.9058E+06    -31.8887E+06     65.3184E+06     74.0247E+06    -1.10543E+06         53.1505
             720     11.0404E-03     38.8263E-03         2.07463    -512.936E-03    -874.391E-03    -620.415E-03         1.82065    -512.936E-03    -345.683E-03     326.654E-03    -162.626E-03    -164.028E-03    -162.307E-03     326.335E-03    -164.028E-03     24.9261E-03     68.5964E+06     50.0525E+06    -39.5054E+06    -39.4957E+06     50.0428E+06     68.5964E+06    -728.260E+03         51.0443
             721     10.1910E-03     38.7960E-03         1.98644    -500.124E-03    -826.828E-03    -747.791E-03         1.90740    -500.124E-03     510.623E-03     326.875E-03    -162.760E-03    -164.115E-03    -162.520E-03     326.635E-03    -164.115E-03     21.6303E-03     59.3800E+06     12.4031E+06    -47.9766E+06    -47.9744E+06     12.4009E+06     59.3800E+06    -319.090E+03         49.4539
             722     9.34132E-03     38.7698E-03         2.11172    -468.969E-03    -994.879E-03    -960.028E-03         2.07687    -468.969E-03     337.124E-03     327.079E-03    -162.887E-03    -164.192E-03    -162.715E-03     326.908E-03    -164.192E-03     18.2174E-03     45.2648E+06    -34.3471E+06    -56.9450E+06    -56.9407E+06    -34.3515E+06     45.2648E+06    -107.482E+03         48.3614
             723     8.49111E-03     38.7479E-03         2.17907    -415.775E-03        -1.12661        -1.06839         2.12085    -415.775E-03     847.952E-03     327.245E-03    -162.985E-03    -164.260E-03    -162.874E-03     327.134E-03    -164.260E-03     14.6911E-03     30.9061E+06    -64.3019E+06     -75.127E+06    -66.2266E+06    -73.2023E+06     30.9061E+06     66.7560E+03         47.6633
             724     7.64183E-03     38.7297E-03         2.11160    -341.042E-03        -1.16334        -1.13592         2.08419    -341.042E-03     456.045E-03     327.266E-03    -162.944E-03    -164.322E-03    -162.877E-03     327.199E-03    -164.322E-03     11.3915E-03     14.8888E+06    -76.3905E+06    -105.951E+06    -76.3964E+06    -105.945E+06     14.8888E+06     32.8983E+03         47.2359
             725     6.79120E-03     38.7152E-03         1.93668    -243.170E-03        -1.13534        -1.13220         1.93354    -243.170E-03     161.481E-03     327.450E-03    -163.062E-03    -164.388E-03    -163.025E-03     327.413E-03    -164.388E-03     8.38733E-03    -2.84582E+06    -87.0265E+06    -137.815E+06    -87.0312E+06    -137.810E+06    -2.84582E+06     41.0252E+03         46.9751
             726     5.94219E-03     38.7060E-03         1.64462    -141.192E-03        -1.00097    -805.642E-03         1.44929    -141.192E-03     830.545E-03     327.873E-03    -163.443E-03    -164.430E-03    -163.425E-03     327.855E-03    -164.430E-03     5.82019E-03    -21.8991E+06    -97.2544E+06    -166.506E+06    -97.2723E+06    -166.488E+06    -21.8991E+06     214.263E+03         46.8093
             727     5.09293E-03     38.7000E-03         1.27370    -62.5635E-03    -745.791E-03    -291.899E-03     833.095E-03    -75.8512E-03         1.41838     328.177E-03    -163.745E-03    -164.432E-03    -163.738E-03     328.170E-03    -164.432E-03     3.57454E-03    -43.1819E+06    -107.560E+06    -195.118E+06    -107.598E+06    -195.079E+06    -43.1819E+06     272.743E+03         46.6956
             728     4.24406E-03     38.6963E-03         2.09939    -40.0541E-03        -1.61100    -94.6515E-03     596.330E-03    -53.3418E-03         3.54367     328.293E-03    -163.887E-03    -164.406E-03    -163.885E-03     328.291E-03    -164.406E-03     1.75291E-03    -66.4057E+06    -118.090E+06    -225.033E+06    -118.115E+06    -225.007E+06    -66.4057E+06     234.883E+03         46.6115
             729     3.39568E-03     38.6954E-03         3.03400    -28.4340E-03        -2.57348    -192.010E-03     652.528E-03    -28.4340E-03         5.44039     328.338E-03    -163.964E-03    -164.374E-03    -163.964E-03     328.338E-03    -164.374E-03     492.036E-06    -90.0312E+06    -128.317E+06    -253.831E+06    -128.324E+06    -253.824E+06    -90.0312E+06     236.763E+03         46.5465
             730     2.54591E-03     38.6954E-03         4.59589     52.6869E-03        -4.24675    -310.776E-03     659.911E-03     52.6869E-03         8.64557     328.437E-03    -164.084E-03    -164.353E-03    -164.109E-03     328.437E-03    -164.328E-03    -219.328E-06    -112.817E+06    -137.076E+06    -277.430E+06    -137.086E+06    -277.421E+06    -112.817E+06     517.054E+03         46.4966
             731     1.69707E-03     38.6957E-03         3.60383     170.829E-03        -3.46350    -59.2327E-03     199.563E-03     170.829E-03         6.41328     328.523E-03    -164.179E-03    -164.345E-03    -164.282E-03     328.523E-03    -164.241E-03    -560.534E-06    -132.447E+06    -143.824E+06    -296.546E+06    -143.832E+06    -296.538E+06    -132.447E+06     338.500E+03         46.4604
             732     849.814E-06     38.6958E-03         5.15957    -39.0455E-03        -4.89366     496.115E-03    -230.204E-03    -39.0455E-03         9.40672     328.324E-03    -163.988E-03    -164.336E-03    -164.301E-03     328.323E-03    -164.022E-03    -365.858E-06    -145.464E+06    -148.846E+06    -312.745E+06    -148.560E+06    -312.744E+06    -145.751E+06    -118.416E+03         46.4379
             733     14.4435E-03     37.6250E-03         2.42254    -580.102E-03        -1.14520    -512.163E-03         1.84350    -634.102E-03        -2.43945     326.521E-03    -162.504E-03    -164.017E-03    -161.633E-03     325.650E-03    -164.017E-03     40.9319E-03     139.296E+06     104.731E+06    -8.57377E+06    -8.57092E+06     104.728E+06     139.296E+06     58.6785E+03         60.4184
             734     13.5919E-03     37.5647E-03         2.49124    -591.142E-03        -1.27374    -531.768E-03         1.80327    -645.142E-03        -2.68744     326.742E-03    -162.785E-03    -163.957E-03    -161.950E-03     325.907E-03    -163.957E-03     39.9422E-03     107.249E+06     85.3160E+06    -16.5713E+06    -16.5681E+06     85.3128E+06     107.249E+06    -308.369E+03         58.1839
             735     12.7430E-03     37.5196E-03         2.74683    -651.539E-03        -1.52741    -697.318E-03         1.91674    -651.539E-03        -3.27941     326.541E-03    -162.610E-03    -163.931E-03    -162.054E-03     325.985E-03    -163.931E-03     32.9437E-03     85.1145E+06     71.7012E+06    -23.8566E+06    -23.8469E+06     71.6916E+06     85.1145E+06    -815.199E+03         55.6370
             736     11.8917E-03     37.4768E-03         2.38090    -643.747E-03        -1.23420    -942.127E-03         2.08882    -643.747E-03        -1.88583     326.315E-03    -162.352E-03    -163.962E-03    -161.902E-03     325.864E-03    -163.962E-03     29.5376E-03     73.6840E+06     65.3823E+06    -31.5060E+06    -31.4875E+06     65.3638E+06     73.6840E+06    -1.25490E+06         53.1640
             737     11.0414E-03     37.4407E-03         2.30245    -620.218E-03        -1.23389        -1.05534         2.12390    -620.218E-03     61.4177E-03     326.268E-03    -162.209E-03    -164.058E-03    -161.883E-03     325.942E-03    -164.058E-03     25.1437E-03     67.6602E+06     49.0076E+06    -39.6598E+06    -39.6437E+06     48.9915E+06     67.6602E+06    -1.15117E+06         51.0648
             738     10.1899E-03     37.4092E-03         2.04299    -591.969E-03        -1.03214    -937.302E-03         1.94815    -591.969E-03     769.095E-03     326.662E-03    -162.482E-03    -164.179E-03    -162.244E-03     326.423E-03    -164.179E-03     21.5085E-03     58.9946E+06     11.9986E+06    -48.1416E+06    -48.1322E+06     11.9892E+06     58.9946E+06    -682.380E+03         49.4753
             739     9.33971E-03     37.3828E-03         1.71874    -525.556E-03    -788.134E-03    -696.045E-03         1.67535    -574.247E-03     403.012E-03     327.175E-03    -162.900E-03    -164.274E-03    -162.727E-03     327.001E-03    -164.274E-03     18.3582E-03     45.0767E+06    -34.2179E+06    -57.1593E+06    -57.1460E+06    -34.2312E+06     45.0767E+06    -338.727E+03         48.3807
             740     8.49068E-03     37.3603E-03         1.70824    -519.093E-03    -794.739E-03    -629.283E-03         1.59148    -567.785E-03     999.475E-03     327.481E-03    -163.140E-03    -164.342E-03    -163.021E-03     327.362E-03    -164.342E-03     15.1884E-03     30.4459E+06    -64.9601E+06    -75.2977E+06    -66.7657E+06    -73.4921E+06     30.4459E+06    -24.5160E+03         47.6797
             741     7.64086E-03     37.3427E-03         1.92402    -546.471E-03        -1.00929    -916.585E-03         1.83132    -546.471E-03     867.873E-03     327.491E-03    -163.095E-03    -164.396E-03    -163.021E-03     327.418E-03    -164.396E-03     11.9094E-03     14.4151E+06    -76.8402E+06    -105.878E+06    -76.8433E+06    -105.874E+06     14.4151E+06     269.317E+03         47.2501
             742     6.79164E-03     37.3291E-03         2.14765    -475.215E-03        -1.35273        -1.32387         2.11880    -475.215E-03     531.297E-03     327.514E-03    -163.050E-03    -164.464E-03    -163.010E-03     327.473E-03    -164.464E-03     8.77437E-03    -3.27683E+06     -87.006E+06    -137.479E+06    -87.0079E+06    -137.477E+06    -3.27683E+06     131.557E+03         46.9887
             743     5.94119E-03     37.3183E-03         2.26337    -338.742E-03        -1.65669        -1.53590         2.14259    -338.742E-03         1.16233     327.822E-03    -163.292E-03    -164.530E-03    -163.273E-03     327.803E-03    -164.530E-03     5.92263E-03    -22.5069E+06    -97.5234E+06    -166.514E+06    -97.5334E+06    -166.504E+06    -22.5069E+06    -156.874E+03         46.8235
             744     5.09240E-03     37.3117E-03         1.99524    -157.218E-03        -1.61036        -1.32657         1.71145    -157.218E-03         1.85540     328.180E-03    -163.605E-03    -164.576E-03    -163.597E-03     328.173E-03    -164.576E-03     3.65547E-03    -43.5718E+06    -108.204E+06    -195.373E+06    -108.242E+06    -195.335E+06    -43.5718E+06    -143.223E+03         46.7114
             745     4.24332E-03     37.3087E-03         2.59028     9.07912E-03        -2.39245    -686.111E-03     883.940E-03     9.07912E-03         4.32469     328.445E-03    -163.848E-03    -164.597E-03    -163.845E-03     328.442E-03    -164.597E-03     2.06450E-03    -66.6467E+06    -118.817E+06    -224.892E+06    -118.856E+06    -224.854E+06    -66.6467E+06     210.512E+03         46.6295
             746     3.39386E-03     37.3072E-03         3.08342     75.8153E-03        -2.97293     96.4404E-03     14.0542E-03     75.8153E-03         5.98361     328.783E-03    -164.200E-03    -164.582E-03    -164.200E-03     328.782E-03    -164.582E-03     829.240E-06    -90.4828E+06    -128.615E+06    -253.708E+06    -128.625E+06    -253.699E+06    -90.4828E+06     238.556E+03         46.5668
             747     2.54621E-03     37.3076E-03         4.85865    -17.0760E-03        -4.69523     524.663E-03    -361.248E-03    -17.0760E-03         9.48653     328.953E-03    -164.419E-03    -164.534E-03    -164.444E-03     328.952E-03    -164.509E-03     32.0190E-06    -112.875E+06    -136.860E+06    -277.044E+06    -136.871E+06    -277.033E+06    -112.875E+06     111.875E+03         46.5189
             748     1.69798E-03     37.3072E-03         3.97833    -186.440E-03        -3.70005     362.620E-03    -6.93027E-03    -263.846E-03         6.34668     328.803E-03    -164.332E-03    -164.471E-03    -164.385E-03     328.802E-03    -164.417E-03    -326.455E-06    -131.751E+06    -143.613E+06    -295.763E+06    -143.626E+06    -295.750E+06    -131.751E+06     268.031E+03         46.4844
             749     847.909E-06     37.3092E-03         6.70384    -673.450E-03        -5.96612    -89.2956E-03     904.429E-03    -750.857E-03         11.3142     328.705E-03    -164.178E-03    -164.527E-03    -164.442E-03     328.704E-03    -164.262E-03    -32.6855E-06    -144.987E+06    -148.866E+06    -312.039E+06    -148.502E+06    -312.032E+06    -145.358E+06     522.810E+03         46.4629
             750     14.4433E-03     36.2391E-03         2.05498    -583.285E-03        -1.10172    -212.107E-03         1.30981    -727.732E-03        -2.46744     326.382E-03    -162.348E-03    -164.033E-03    -161.476E-03     325.509E-03    -164.033E-03     40.9092E-03     139.255E+06     105.183E+06    -9.11234E+06    -9.11007E+06     105.181E+06     139.255E+06    -429.453E+03         60.3813
             751     13.5932E-03     36.1785E-03         2.06369    -619.149E-03        -1.12064    -237.459E-03         1.32495    -763.596E-03        -2.48465     326.690E-03    -162.708E-03    -163.981E-03    -161.861E-03     325.843E-03    -163.981E-03     40.2268E-03     107.358E+06     86.3768E+06    -17.0032E+06    -16.9973E+06     86.3710E+06     107.358E+06    -717.754E+03         58.1622
             752     12.7411E-03     36.1331E-03         2.32592    -793.305E-03        -1.27079    -532.264E-03         1.58739    -793.305E-03        -2.74647     326.432E-03    -162.466E-03    -163.965E-03    -161.893E-03     325.858E-03    -163.965E-03     33.4565E-03     84.7163E+06     72.0958E+06    -24.2998E+06    -24.2912E+06     72.0872E+06     84.7163E+06    -863.634E+03         55.6337
             753     11.8910E-03     36.0913E-03         2.16457    -800.034E-03        -1.16041    -981.409E-03         1.98557    -800.034E-03        -1.40219     326.343E-03    -162.337E-03    -164.006E-03    -161.868E-03     325.874E-03    -164.006E-03     30.1587E-03     73.1757E+06     65.3684E+06    -31.9133E+06    -31.9050E+06     65.3602E+06     73.1757E+06    -875.239E+03         53.1755
             754     11.0399E-03     36.0545E-03         2.32758    -779.565E-03        -1.39270        -1.25830         2.19318    -779.565E-03     342.685E-03     326.386E-03    -162.279E-03    -164.107E-03    -161.937E-03     326.044E-03    -164.107E-03     25.7963E-03     67.3205E+06     48.8634E+06    -39.9892E+06    -39.9789E+06     48.8532E+06     67.3205E+06    -922.769E+03         51.0844
             755     10.1901E-03     36.0233E-03         2.12294    -748.582E-03        -1.24931        -1.15247         2.02609    -748.582E-03     865.988E-03     326.661E-03    -162.429E-03    -164.232E-03    -162.180E-03     326.412E-03    -164.232E-03     21.9804E-03     58.5115E+06     11.6889E+06    -48.6184E+06    -48.6013E+06     11.6718E+06     58.5115E+06    -959.854E+03         49.4968
             756     9.33983E-03     35.9957E-03         1.71592    -682.945E-03    -913.186E-03    -819.330E-03         1.67076    -731.636E-03     458.938E-03     326.980E-03    -162.631E-03    -164.348E-03    -162.455E-03     326.803E-03    -164.348E-03     18.5447E-03     44.4918E+06    -34.7077E+06    -57.6774E+06    -57.6607E+06    -34.7244E+06     44.4918E+06    -537.889E+03         48.4005
             757     8.48926E-03     35.9732E-03         1.61338    -682.832E-03    -815.999E-03    -599.438E-03         1.45168    -737.697E-03         1.15506     327.303E-03    -162.851E-03    -164.452E-03    -162.728E-03     327.179E-03    -164.452E-03     15.4846E-03     29.8451E+06    -65.3209E+06    -75.8034E+06    -67.1381E+06    -73.9862E+06     29.8451E+06    -120.832E+03         47.6970
             758     7.63982E-03     35.9552E-03         1.64026    -671.527E-03    -877.234E-03    -623.226E-03         1.46910    -754.380E-03         1.19678     327.718E-03    -163.188E-03    -164.530E-03    -163.109E-03     327.639E-03    -164.530E-03     12.3643E-03     14.1393E+06    -76.9194E+06    -105.939E+06    -76.9251E+06    -105.933E+06     14.1393E+06    -60.6885E+03         47.2661
             759     6.79009E-03     35.9416E-03         1.80970    -678.031E-03        -1.07936    -902.809E-03         1.70983    -754.711E-03     968.239E-03     327.968E-03    -163.378E-03    -164.590E-03    -163.332E-03     327.922E-03    -164.590E-03     9.37908E-03    -3.15889E+06    -87.0687E+06    -137.203E+06    -87.0699E+06    -137.201E+06    -3.15889E+06    -102.715E+03         47.0048
             760     5.94157E-03     35.9310E-03         2.26769    -701.856E-03        -1.55578        -1.34502         2.05693    -701.856E-03         1.64504     327.978E-03    -163.327E-03    -164.650E-03    -163.304E-03     327.955E-03    -164.650E-03     6.58551E-03    -22.3903E+06    -97.5630E+06    -166.113E+06    -97.5676E+06    -166.108E+06    -22.3903E+06    -12.0802E+03         46.8408
             761     5.09139E-03     35.9243E-03         2.42290    -572.057E-03        -1.87035        -1.60388         2.15643    -572.057E-03         2.04010     328.215E-03    -163.494E-03    -164.722E-03    -163.485E-03     328.206E-03    -164.722E-03     4.02516E-03    -44.2124E+06    -108.668E+06    -195.450E+06    -108.697E+06    -195.421E+06    -44.2124E+06    -27.0859E+03         46.7307
             762     4.24210E-03     35.9204E-03         2.96777    -400.139E-03        -2.60639        -1.27508         1.63647    -400.139E-03         4.19106     328.700E-03    -163.924E-03    -164.775E-03    -163.922E-03     328.697E-03    -164.775E-03     2.01776E-03    -67.3148E+06    -119.179E+06    -225.043E+06    -119.219E+06    -225.004E+06    -67.3148E+06    -88.9773E+03         46.6512
             763     3.39393E-03     35.9188E-03         3.12539    -292.977E-03        -2.89477    -457.241E-03     687.861E-03    -292.977E-03         5.69368     329.067E-03    -164.279E-03    -164.788E-03    -164.279E-03     329.067E-03    -164.788E-03     789.710E-06    -90.8109E+06    -128.771E+06    -253.381E+06    -128.787E+06    -253.366E+06    -90.8109E+06    -96.9898E+03         46.5909
             764     2.54489E-03     35.9179E-03         5.15311    -345.679E-03        -4.90058     92.2428E-03     160.280E-03    -345.679E-03         9.90460     329.236E-03    -164.467E-03    -164.770E-03    -164.466E-03     329.236E-03    -164.770E-03     116.672E-06    -113.473E+06    -137.357E+06    -277.010E+06    -137.366E+06    -277.001E+06    -113.473E+06    -155.117E+03         46.5452
             765     1.69615E-03     35.9199E-03         4.37522    -458.576E-03        -4.05874    -66.4829E-03     460.363E-03    -535.983E-03         6.93139     329.337E-03    -164.561E-03    -164.777E-03    -164.590E-03     329.337E-03    -164.747E-03    -198.116E-06    -133.001E+06    -144.308E+06    -295.824E+06    -144.320E+06    -295.812E+06    -133.001E+06    -140.693E+03         46.5125
             766     848.892E-06     35.9199E-03         7.42202    -728.024E-03        -6.88779    -501.348E-03         1.11298    -805.430E-03         12.7888     329.439E-03    -164.657E-03    -164.781E-03    -164.697E-03     329.439E-03    -164.741E-03    -225.788E-06    -144.609E+06    -148.466E+06    -310.934E+06    -148.110E+06    -310.919E+06     -144.98E+06    -91.2842E+03         46.4922
             767     14.4434E-03     34.8545E-03         1.78883    -648.231E-03        -1.14977    -102.609E-03     917.651E-03    -824.204E-03        -2.51214     326.217E-03    -162.178E-03    -164.040E-03    -161.302E-03     325.341E-03    -164.040E-03     40.9828E-03     139.904E+06     106.217E+06    -9.26472E+06    -9.26196E+06     106.214E+06     139.904E+06    -183.469E+03         60.3437
             768     13.5912E-03     34.7918E-03         1.81986    -692.307E-03        -1.19879    -253.915E-03         1.05096    -868.281E-03        -2.49955     326.306E-03    -162.300E-03    -164.006E-03    -161.452E-03     325.458E-03    -164.006E-03     40.1964E-03     107.721E+06     87.1175E+06    -17.3610E+06    -17.3540E+06     87.1105E+06     107.721E+06    -787.019E+03         58.1395
             769     12.7414E-03     34.7485E-03         2.08755    -903.765E-03        -1.30297    -505.982E-03         1.29056    -903.765E-03        -2.78106     326.180E-03    -162.167E-03    -164.013E-03    -161.598E-03     325.611E-03    -164.013E-03     33.3067E-03       84.45E+06     72.1054E+06    -25.2646E+06    -25.2510E+06     72.0918E+06       84.45E+06    -1.14363E+06         55.6287
             770     11.8899E-03     34.7043E-03         1.75627    -841.722E-03        -1.07888    -709.041E-03         1.47215    -927.442E-03        -1.52203     326.349E-03    -162.280E-03    -164.069E-03    -161.811E-03     325.880E-03    -164.069E-03     30.1618E-03     72.7427E+06     65.3926E+06    -33.1018E+06    -33.0802E+06     65.3711E+06     72.7427E+06    -1.35941E+06         53.1852
             771     11.0398E-03     34.6691E-03         1.74234    -775.768E-03        -1.16270    -825.913E-03         1.57264    -942.857E-03     180.569E-03     326.454E-03    -162.278E-03    -164.176E-03    -161.931E-03     326.107E-03    -164.176E-03     25.9653E-03     67.0370E+06     48.9555E+06    -40.5102E+06    -40.4886E+06     48.9339E+06     67.0370E+06    -1.28483E+06         51.1029
             772     10.1888E-03     34.6358E-03         1.77313    -822.355E-03        -1.15901    -932.802E-03         1.67668    -952.115E-03     728.054E-03     326.603E-03    -162.289E-03    -164.314E-03    -162.024E-03     326.337E-03    -164.314E-03     22.7096E-03     57.7832E+06     10.9248E+06    -48.9506E+06    -48.9337E+06     10.9080E+06     57.7832E+06    -944.383E+03         49.5179
             773     9.33862E-03     34.6099E-03         1.81120    -906.177E-03        -1.11161        -1.01562         1.76360    -954.567E-03     546.097E-03     326.934E-03    -162.480E-03    -164.454E-03    -162.285E-03     326.738E-03    -164.454E-03     19.4910E-03     43.8016E+06    -35.5568E+06    -58.1016E+06    -58.0383E+06    -35.6201E+06     43.8016E+06    -635.025E+03         48.4207
             774     8.48860E-03     34.5862E-03         1.85558    -951.739E-03        -1.10985    -919.670E-03         1.67157    -957.913E-03         1.37294     327.322E-03    -162.738E-03    -164.584E-03    -162.604E-03     327.188E-03    -164.584E-03     16.1251E-03     29.6130E+06    -65.5370E+06    -75.9862E+06    -67.4627E+06    -74.0605E+06     29.6130E+06    -386.349E+03         47.7158
             775     7.63827E-03     34.5679E-03         1.67575    -852.710E-03        -1.04355    -699.570E-03         1.45792    -978.851E-03         1.43401     327.763E-03    -163.070E-03    -164.693E-03    -162.984E-03     327.677E-03    -164.693E-03     12.8869E-03     14.1744E+06    -77.1046E+06    -105.672E+06    -77.1088E+06    -105.668E+06     14.1744E+06    -267.092E+03         47.2843
             776     6.78939E-03     34.5529E-03         1.58227    -802.665E-03        -1.02735    -632.762E-03         1.40635        -1.02133         1.23889     328.162E-03    -163.382E-03    -164.780E-03    -163.331E-03     328.111E-03    -164.780E-03     9.86335E-03    -3.30908E+06    -87.4718E+06    -137.031E+06    -87.4732E+06    -137.029E+06    -3.30908E+06    -224.193E+03         47.0238
             777     5.93938E-03     34.5438E-03         1.88942    -891.515E-03        -1.27468    -778.706E-03         1.57038        -1.06845         1.79628     328.426E-03    -163.578E-03    -164.848E-03    -163.551E-03     328.399E-03    -164.848E-03     7.21379E-03    -23.1475E+06    -98.5672E+06    -166.408E+06    -98.5702E+06    -166.405E+06    -23.1475E+06    -136.391E+03         46.8617
             778     5.09077E-03     34.5361E-03         2.18537    -941.637E-03        -1.53737        -1.04356         1.84538        -1.09546         2.00436     328.745E-03    -163.843E-03    -164.902E-03    -163.831E-03     328.733E-03    -164.902E-03     4.69820E-03    -44.6387E+06    -108.993E+06    -195.209E+06    -109.015E+06    -195.187E+06    -44.6387E+06    -11.7480E+03         46.7542
             779     4.24210E-03     34.5319E-03         3.05729    -998.776E-03        -2.35993        -1.34609         2.11903        -1.07436         3.81370     329.081E-03    -164.144E-03    -164.936E-03    -164.141E-03     329.077E-03    -164.936E-03     2.45585E-03    -67.6611E+06    -119.225E+06    -224.660E+06    -119.256E+06    -224.630E+06    -67.6611E+06    -138.596E+03         46.6774
             780     3.39297E-03     34.5295E-03         3.62185    -979.018E-03        -2.95265        -1.53314         2.20234    -979.018E-03         5.22223     329.283E-03    -164.324E-03    -164.959E-03    -164.323E-03     329.282E-03    -164.959E-03     895.259E-06    -91.3772E+06    -129.335E+06    -253.256E+06    -129.346E+06    -253.244E+06    -91.3772E+06    -164.905E+03         46.6197
             781     2.54458E-03     34.5298E-03         5.60967    -795.679E-03        -5.15418        -1.48211         1.93760    -795.679E-03         9.74865     329.468E-03    -164.477E-03    -164.991E-03    -164.476E-03     329.468E-03    -164.991E-03    -121.513E-06    -114.361E+06    -138.345E+06    -277.056E+06    -138.356E+06    -277.045E+06    -114.361E+06    -123.025E+03         46.5763
             782     1.69642E-03     34.5295E-03         4.48680    -543.489E-03        -4.34734        -1.09432         1.23377    -543.489E-03         6.65287     329.781E-03    -164.711E-03    -165.070E-03    -164.740E-03     329.781E-03    -165.040E-03    -373.457E-06    -133.642E+06    -144.976E+06    -295.565E+06    -144.989E+06    -295.552E+06    -133.642E+06    -277.226E+03         46.5453
             783     847.578E-06     34.5310E-03         7.12396    -288.373E-03        -7.32018    -523.087E-03     326.862E-03    -288.373E-03         12.4638     330.094E-03    -164.934E-03    -165.159E-03    -164.974E-03     330.093E-03    -165.119E-03    -58.4941E-06    -145.845E+06    -150.160E+06    -311.482E+06    -149.354E+06    -311.471E+06    -146.662E+06    -310.732E+03         46.5262
             784     14.4435E-03     33.4680E-03         1.47684    -760.660E-03        -1.23045    -148.647E-03     542.987E-03    -908.610E-03        -2.30610     326.070E-03    -162.014E-03    -164.056E-03    -161.113E-03     325.169E-03    -164.056E-03     41.5852E-03     140.547E+06     106.961E+06    -8.98390E+06     -8.9811E+06     106.958E+06     140.547E+06     19.9605E+03         60.3042
             785     13.5927E-03     33.4084E-03         1.54419    -800.513E-03        -1.29023    -482.200E-03     884.109E-03    -948.463E-03        -2.27723     326.284E-03    -162.253E-03    -164.032E-03    -161.392E-03     325.424E-03    -164.032E-03     40.4893E-03     108.170E+06     87.6474E+06    -17.7533E+06    -17.7493E+06     87.6435E+06     108.170E+06    -384.179E+03         58.1150
             786     12.7400E-03     33.3614E-03         1.73997    -943.625E-03        -1.36349    -526.424E-03     940.126E-03    -980.848E-03        -2.68027     326.088E-03    -162.039E-03    -164.049E-03    -161.471E-03     325.520E-03    -164.049E-03     33.2780E-03     85.2914E+06     72.5355E+06    -25.5514E+06    -25.5414E+06     72.5256E+06     85.2914E+06    -923.421E+03         55.6225
             787     11.8896E-03     33.3200E-03         1.19295    -717.205E-03        -1.06310    -361.052E-03     795.919E-03        -1.02223        -1.54942     326.082E-03    -161.962E-03    -164.119E-03    -161.493E-03     325.612E-03    -164.119E-03     30.1828E-03     72.9103E+06     65.8989E+06    -33.0856E+06    -33.0617E+06     65.8750E+06     72.9103E+06    -1.47839E+06         53.1940
             788     11.0384E-03     33.2810E-03         1.14004    -660.802E-03        -1.07800    -319.019E-03     798.253E-03        -1.07800     262.686E-03     326.099E-03    -161.840E-03    -164.258E-03    -161.482E-03     325.741E-03    -164.258E-03     26.3609E-03     66.2806E+06     48.2916E+06    -41.0456E+06    -41.0093E+06     48.2553E+06     66.2806E+06    -1.74169E+06         51.1202
             789     10.1880E-03     33.2519E-03         1.30602    -760.257E-03        -1.13499    -547.532E-03         1.09330        -1.13499     822.463E-03     326.428E-03    -161.990E-03    -164.438E-03    -161.710E-03     326.148E-03    -164.438E-03     23.3287E-03     57.3528E+06     9.96562E+06    -49.5286E+06    -49.5016E+06     9.93861E+06     57.3528E+06    -1.22557E+06         49.5384
             790     9.33682E-03     33.2216E-03         1.43844    -797.843E-03        -1.21408    -790.681E-03         1.39804        -1.18084     459.523E-03     327.036E-03    -162.432E-03    -164.604E-03    -162.222E-03     326.826E-03    -164.604E-03     20.2038E-03     43.2097E+06    -35.7435E+06    -58.8005E+06    -58.6805E+06    -35.8635E+06     43.2097E+06    -874.707E+03         48.4414
             791     8.48689E-03     33.2001E-03         1.76098        -1.01032        -1.31408    -941.695E-03         1.59442        -1.21615         1.30448     327.565E-03    -162.814E-03    -164.751E-03    -162.670E-03     327.420E-03    -164.751E-03     16.7472E-03     29.0634E+06    -65.6874E+06    -76.7497E+06    -67.9564E+06    -74.4807E+06     29.0634E+06    -861.245E+03         47.7361
             792     7.63742E-03     33.1795E-03         1.87070        -1.12645        -1.31216    -998.113E-03         1.67767        -1.24747         1.45459     327.825E-03    -162.940E-03    -164.884E-03    -162.845E-03     327.729E-03    -164.884E-03     13.6007E-03     13.9633E+06    -77.4813E+06    -105.975E+06    -77.5044E+06    -105.952E+06     13.9633E+06    -397.584E+03         47.3049
             793     6.78703E-03     33.1659E-03         1.74000        -1.03418        -1.29149    -859.457E-03         1.56528        -1.29149         1.31099     328.331E-03    -163.323E-03    -165.008E-03    -163.266E-03     328.273E-03    -165.008E-03     10.5073E-03    -3.61880E+06    -87.8279E+06    -136.826E+06    -87.8294E+06    -136.825E+06    -3.61880E+06    -41.3547E+03         47.0458
             794     5.93839E-03     33.1543E-03         1.75837    -983.908E-03        -1.37207    -654.799E-03         1.42926        -1.37207         1.74570     328.974E-03    -163.885E-03    -165.089E-03    -163.855E-03     328.944E-03    -165.089E-03     7.54197E-03    -23.4175E+06    -98.4402E+06    -166.369E+06    -98.4500E+06    -166.359E+06    -23.4175E+06    -252.871E+03         46.8863
             795     5.08938E-03     33.1475E-03         1.99159        -1.10192        -1.48600    -753.137E-03         1.64281        -1.48600         1.90480     329.294E-03    -164.161E-03    -165.133E-03    -164.147E-03     329.280E-03    -165.133E-03     5.12671E-03    -45.0088E+06    -109.160E+06    -195.552E+06    -109.184E+06    -195.528E+06    -45.0088E+06    -361.391E+03         46.7818
             796     4.24068E-03     33.1422E-03         3.02644        -1.39176        -2.22435        -1.33168         2.31414        -1.57212         3.43629     329.497E-03    -164.331E-03    -165.166E-03    -164.325E-03     329.491E-03    -165.166E-03     3.10678E-03    -67.9169E+06    -119.648E+06    -224.794E+06    -119.669E+06    -224.773E+06    -67.9169E+06    -83.2123E+03         46.7082
             797     3.39266E-03     33.1409E-03         3.92688        -1.52195        -3.00514        -2.11940         3.04113        -1.52195         4.52108     329.763E-03    -164.570E-03    -165.192E-03    -164.569E-03     329.761E-03    -165.192E-03     1.46691E-03    -91.4316E+06    -129.608E+06    -253.012E+06    -129.615E+06    -253.004E+06    -91.4316E+06     43.5193E+03         46.6535
             798     2.54418E-03     33.1396E-03         5.48806        -1.27258        -4.86541        -2.32116         2.94381        -1.27258         8.37291     329.994E-03    -164.787E-03    -165.206E-03    -164.787E-03     329.993E-03    -165.206E-03     396.688E-06    -114.465E+06    -138.797E+06    -276.647E+06    -138.810E+06    -276.634E+06    -114.465E+06    -10.0713E+03         46.6126
             799     1.69565E-03     33.1409E-03         4.30629    -883.073E-03        -4.12480        -1.74153         1.92301    -883.073E-03         5.58927     330.201E-03    -164.936E-03    -165.266E-03    -164.976E-03     330.201E-03    -165.225E-03    -152.392E-06    -134.068E+06    -145.895E+06    -295.596E+06    -145.907E+06    -295.583E+06    -134.068E+06     33.2037E+03         46.5835
             800     847.918E-06     33.1399E-03         6.53433    -348.215E-03        -6.91237    -988.277E-03     610.237E-03    -348.215E-03         10.9844     330.432E-03    -165.051E-03    -165.381E-03    -165.092E-03     330.432E-03    -165.341E-03    -304.861E-06    -146.363E+06    -150.968E+06    -311.328E+06    -150.154E+06    -311.325E+06    -147.181E+06     431.831E+03         46.5657
             801     14.4420E-03     32.0838E-03         1.17722    -878.301E-03        -1.37996     174.016E-03    -308.031E-03    -947.023E-03        -2.14757     325.777E-03    -161.716E-03    -164.062E-03    -160.843E-03     324.904E-03    -164.062E-03     40.8632E-03     141.196E+06     107.546E+06    -8.81533E+06    -8.81194E+06     107.543E+06     141.196E+06     48.1286E+03         60.2626
             802     13.5905E-03     32.0213E-03         1.20267    -939.851E-03        -1.31302    -128.654E-03     87.0212E-03        -1.00857        -2.13745     325.840E-03    -161.782E-03    -164.058E-03    -160.922E-03     324.981E-03    -164.058E-03     40.5105E-03     108.669E+06     88.8388E+06    -17.4330E+06    -17.4273E+06     88.8331E+06     108.669E+06    -469.240E+03         58.0881
             803     12.7409E-03     31.9776E-03         1.32551    -991.798E-03        -1.37139    -215.958E-03     245.226E-03        -1.06694        -2.45790     325.790E-03    -161.684E-03    -164.106E-03    -161.074E-03     325.180E-03    -164.106E-03     34.4357E-03     85.4577E+06     73.0932E+06    -25.1042E+06    -25.0951E+06     73.0841E+06     85.4577E+06    -883.629E+03         55.6134
             804     11.8892E-03     31.9328E-03     833.771E-03    -735.435E-03        -1.12897    -281.510E-03     379.846E-03        -1.12897        -1.32517     325.855E-03    -161.644E-03    -164.211E-03    -161.130E-03     325.341E-03    -164.211E-03     31.4885E-03     73.3537E+06     66.3132E+06    -32.5089E+06    -32.4983E+06     66.3026E+06     73.3537E+06    -1.00442E+06         53.2000
             805     11.0376E-03     31.8982E-03     907.883E-03    -730.217E-03        -1.19394    -376.192E-03     553.859E-03        -1.19394     470.795E-03     326.068E-03    -161.690E-03    -164.378E-03    -161.306E-03     325.684E-03    -164.378E-03     27.2801E-03     66.0627E+06     47.9484E+06    -41.0020E+06    -40.9774E+06     47.9237E+06     66.0627E+06    -1.35115E+06         51.1360
             806     10.1857E-03     31.8635E-03     993.535E-03    -728.504E-03        -1.26090    -469.844E-03     734.876E-03        -1.26090     829.529E-03     326.603E-03    -162.029E-03    -164.574E-03    -161.741E-03     326.315E-03    -164.574E-03     23.6724E-03     57.0055E+06     9.07595E+06    -49.4679E+06    -49.4261E+06     9.03414E+06     57.0055E+06    -1.48016E+06         49.5588
             807     9.33571E-03     31.8371E-03     955.808E-03    -593.618E-03        -1.33012    -577.782E-03     939.973E-03        -1.33012     103.423E-03     327.057E-03    -162.297E-03    -164.760E-03    -162.082E-03     326.842E-03    -164.760E-03     20.4479E-03     43.4374E+06    -35.6326E+06    -58.4207E+06    -58.3001E+06    -35.7531E+06     43.4374E+06    -1.13725E+06         48.4631
             808     8.48532E-03     31.8104E-03         1.29171    -837.836E-03        -1.39918    -739.292E-03         1.19317        -1.39918     796.715E-03     327.518E-03    -162.578E-03    -164.940E-03    -162.425E-03     327.365E-03    -164.940E-03     17.2430E-03     28.6492E+06    -65.7127E+06    -77.2552E+06    -68.0956E+06    -74.8722E+06     28.6492E+06    -1.02435E+06         47.7579
             809     7.63517E-03     31.7938E-03         1.57663        -1.05307        -1.46282    -943.955E-03         1.46752        -1.46282     861.125E-03     328.133E-03    -163.030E-03    -165.103E-03    -162.928E-03     328.031E-03    -165.103E-03     14.0861E-03     13.0141E+06    -78.2234E+06    -107.035E+06    -78.2626E+06    -106.995E+06     13.0141E+06    -780.602E+03         47.3276
             810     6.78583E-03     31.7763E-03         1.74097        -1.16179        -1.52052        -1.08701         1.66619        -1.52052     676.434E-03     328.704E-03    -163.462E-03    -165.242E-03    -163.399E-03     328.640E-03    -165.242E-03     11.0279E-03    -4.04579E+06    -88.0413E+06    -137.162E+06    -88.0512E+06    -137.152E+06    -4.04579E+06    -370.468E+03         47.0704
             811     5.93660E-03     31.7655E-03         1.95077        -1.29322        -1.60136        -1.15175         1.78751        -1.57957         1.20346     329.277E-03    -163.930E-03    -165.347E-03    -163.895E-03     329.242E-03    -165.347E-03     8.14436E-03    -23.3000E+06    -98.2078E+06    -166.016E+06    -98.2271E+06    -165.997E+06    -23.3000E+06    -149.563E+03         46.9139
             812     5.08820E-03     31.7573E-03         2.23187        -1.40802        -1.76266        -1.30846         2.00792        -1.63827         1.68137     329.741E-03    -164.323E-03    -165.418E-03    -164.306E-03     329.724E-03    -165.418E-03     5.59830E-03    -45.1194E+06    -109.374E+06    -195.890E+06    -109.406E+06    -195.858E+06    -45.1194E+06    -168.655E+03         46.8131
             813     4.23968E-03     31.7533E-03         2.91415        -1.57636        -2.27390        -1.52785         2.27289        -1.68115         3.22863     329.974E-03    -164.499E-03    -165.476E-03    -164.492E-03     329.968E-03    -165.476E-03     3.52112E-03    -68.1088E+06    -119.985E+06    -225.184E+06    -120.008E+06    -225.161E+06    -68.1088E+06    -135.746E+03         46.7432
             814     3.39091E-03     31.7499E-03         3.42674        -1.70104        -2.67347        -1.66398         2.41724        -1.70104         4.35793     330.311E-03    -164.780E-03    -165.531E-03    -164.778E-03     330.309E-03    -165.531E-03     2.08843E-03    -91.7091E+06    -130.030E+06    -252.858E+06    -130.038E+06    -252.849E+06    -91.7091E+06     149.004E+03         46.6920
             815     2.54312E-03     31.7501E-03         4.77172        -1.71442        -4.03728        -1.66214         2.39658        -1.71442         7.46966     330.777E-03    -165.205E-03    -165.572E-03    -165.233E-03     330.776E-03    -165.543E-03     994.243E-06    -114.823E+06    -138.960E+06    -276.544E+06    -138.973E+06    -276.532E+06    -114.823E+06     169.366E+03         46.6541
             816     1.69571E-03     31.7493E-03         4.37449        -1.67009        -3.70082        -1.72755         2.45277        -1.72164         5.17661     330.997E-03    -165.404E-03    -165.592E-03    -165.532E-03     330.997E-03    -165.465E-03     192.490E-06    -134.557E+06    -145.821E+06    -295.558E+06    -145.832E+06    -295.547E+06    -134.557E+06     70.7259E+03         46.6273
             817     848.013E-06     31.7502E-03         6.12718        -1.44642        -5.70892        -1.94190         2.41171        -1.49797         8.94751     330.760E-03    -165.208E-03    -165.552E-03    -165.447E-03     330.760E-03    -165.313E-03    -247.270E-06    -146.613E+06    -150.765E+06    -310.738E+06    -149.997E+06    -310.737E+06    -147.382E+06     92.3803E+03         46.6108
             818     14.4451E-03     30.6994E-03         1.37929    -898.563E-03        -2.03867     917.861E-03        -1.57094    -904.861E-03        -2.23506     325.391E-03    -161.333E-03    -164.058E-03    -160.469E-03     324.527E-03    -164.058E-03     40.5489E-03     141.297E+06     107.774E+06    -8.98501E+06    -8.98001E+06     107.769E+06     141.297E+06    -199.924E+03         60.2198
             819     13.5919E-03     30.6388E-03         1.37769        -1.00236        -1.87799     670.348E-03        -1.16435        -1.00866        -2.47264     324.914E-03    -160.818E-03    -164.096E-03    -159.921E-03     324.017E-03    -164.096E-03     41.3883E-03     108.753E+06     89.8792E+06    -16.9449E+06    -16.9349E+06     89.8692E+06     108.753E+06    -113.475E+03         58.0590
             820     12.7377E-03     30.5915E-03         1.34895        -1.06789        -1.75241     264.687E-03    -630.230E-03        -1.10581        -2.86441     325.304E-03    -161.106E-03    -164.198E-03    -160.469E-03     324.667E-03    -164.198E-03     35.1141E-03     84.7198E+06     73.9347E+06    -25.0942E+06    -25.0787E+06     73.9192E+06     84.7198E+06    -512.720E+03         55.6010
             821     11.8860E-03     30.5493E-03     850.849E-03    -992.559E-03        -1.30314    -234.798E-03    -24.8123E-03        -1.18524        -1.78430     325.829E-03    -161.488E-03    -164.341E-03    -160.970E-03     325.311E-03    -164.341E-03     31.6470E-03     73.1093E+06      66.705E+06    -32.8741E+06    -32.8563E+06     66.6872E+06     73.1093E+06    -1.24446E+06         53.2034
             822     11.0352E-03     30.5104E-03     701.939E-03    -875.161E-03        -1.24645    -537.314E-03     364.092E-03        -1.24645    -95.8915E-03     326.298E-03    -161.773E-03    -164.525E-03    -161.374E-03     325.899E-03    -164.525E-03     27.8190E-03     66.7178E+06     48.5556E+06    -40.5919E+06    -40.5693E+06     48.5330E+06     66.7178E+06    -1.35327E+06         51.1504
             823     10.1854E-03     30.4787E-03     648.957E-03    -733.216E-03        -1.30418    -573.551E-03     489.293E-03        -1.30418     287.016E-03     326.808E-03    -162.080E-03    -164.728E-03    -161.772E-03     326.500E-03    -164.728E-03     24.4830E-03     56.7620E+06     8.46574E+06    -49.4162E+06    -49.3853E+06     8.43474E+06     56.7620E+06    -1.22301E+06         49.5788
             824     9.33436E-03     30.4484E-03     623.137E-03    -606.289E-03        -1.37127    -564.148E-03     580.996E-03        -1.37127    -299.954E-03     327.172E-03    -162.240E-03    -164.931E-03    -162.008E-03     326.939E-03    -164.931E-03     21.2228E-03     43.0367E+06    -36.6684E+06    -58.5418E+06    -58.4541E+06    -36.7562E+06     43.0367E+06    -954.507E+03         48.4851
             825     8.48352E-03     30.4258E-03     850.825E-03    -734.826E-03        -1.44756    -654.468E-03     770.467E-03        -1.44756     488.914E-03     327.673E-03    -162.538E-03    -165.136E-03    -162.374E-03     327.510E-03    -165.136E-03     17.8287E-03     28.6127E+06    -65.6524E+06    -77.0609E+06    -67.9238E+06    -74.7895E+06     28.6127E+06    -732.833E+03         47.7808
             826     7.63345E-03     30.4033E-03         1.11386    -906.108E-03        -1.52600    -826.713E-03         1.03446        -1.52600     453.208E-03     328.406E-03    -163.086E-03    -165.320E-03    -162.977E-03     328.297E-03    -165.320E-03     14.5699E-03     12.5917E+06    -77.8396E+06    -107.556E+06    -77.8692E+06    -107.526E+06     12.5917E+06    -900.515E+03         47.3518
             827     6.78448E-03     30.3886E-03         1.45744        -1.17770        -1.59180        -1.15811         1.43784        -1.59180     234.102E-03     329.013E-03    -163.533E-03    -165.480E-03    -163.464E-03     328.944E-03    -165.480E-03     11.5563E-03    -4.62855E+06    -88.4791E+06    -137.993E+06    -88.4984E+06    -137.974E+06    -4.62855E+06    -742.930E+03         47.0971
             828     5.93497E-03     30.3756E-03         1.92854        -1.52623        -1.71084        -1.56666         1.88076        -1.62262     780.122E-03     329.444E-03    -163.818E-03    -165.626E-03    -163.778E-03     329.404E-03    -165.626E-03     8.77560E-03    -23.8731E+06    -99.2889E+06    -166.509E+06    -99.3066E+06    -166.491E+06    -23.8731E+06    -169.203E+03         46.9440
             829     5.08610E-03     30.3670E-03         2.20136        -1.61794        -1.88993        -1.71785         2.02928        -1.61794         1.53238     330.018E-03    -164.258E-03    -165.760E-03    -164.237E-03     329.997E-03    -165.760E-03     6.28851E-03    -45.1654E+06    -109.535E+06    -195.681E+06    -109.569E+06    -195.648E+06    -45.1654E+06    -60.9992E+03         46.8472
             830     4.23795E-03     30.3624E-03         2.39005        -1.63363        -2.07069        -1.39124         1.71060        -1.63363         3.01275     330.664E-03    -164.806E-03    -165.858E-03    -164.796E-03     330.654E-03    -165.858E-03     4.28771E-03    -68.7478E+06    -120.635E+06    -225.236E+06    -120.662E+06    -225.210E+06    -68.7478E+06    -92.4785E+03         46.7815
             831     3.38999E-03     30.3599E-03         2.78527        -1.75774        -2.35030    -958.901E-03         1.39387        -1.75774         4.52814     331.140E-03    -165.227E-03    -165.914E-03    -165.223E-03     331.137E-03    -165.914E-03     2.46471E-03    -92.5719E+06    -130.527E+06    -253.114E+06    -130.538E+06    -253.103E+06    -92.5719E+06    -37.5981E+03         46.7342
             832     2.54192E-03     30.3576E-03         4.35400        -2.02465        -3.66436        -1.02313         1.71278        -2.02465         7.52329     331.478E-03    -165.515E-03    -165.963E-03    -165.543E-03     331.477E-03    -165.934E-03     1.22517E-03    -114.851E+06    -138.588E+06    -276.240E+06    -138.602E+06    -276.226E+06    -114.851E+06     17.9945E+03         46.6996
             833     1.69465E-03     30.3577E-03         4.62923        -2.29005        -3.68949        -1.74177         2.73307        -2.34160         5.84543     331.716E-03    -165.709E-03    -166.007E-03    -165.796E-03     331.716E-03    -165.920E-03     541.264E-06    -134.197E+06    -145.691E+06    -295.369E+06    -145.703E+06    -295.356E+06    -134.197E+06    -99.6513E+03         46.6754
             834     847.519E-06     30.3585E-03         5.67508        -2.33719        -4.71694        -2.59412         3.60381        -2.38875         7.31053     331.761E-03    -165.692E-03    -166.069E-03    -165.890E-03     331.761E-03    -165.871E-03     133.232E-06    -146.445E+06    -150.916E+06    -310.706E+06    -150.150E+06    -310.702E+06    -147.214E+06     42.1529E+03         46.6605
             835     14.4418E-03     29.3155E-03         1.80522    -774.994E-03        -2.94134         1.41704        -2.55316    -774.994E-03        -2.54700     324.774E-03    -160.652E-03    -164.122E-03    -159.731E-03     323.852E-03    -164.122E-03     41.7937E-03     140.840E+06     107.693E+06    -9.27643E+06    -9.27374E+06     107.690E+06     140.840E+06    -213.362E+03         60.1742
             836     13.5891E-03     29.2572E-03         1.72647    -896.566E-03        -2.70695         1.13329        -2.11376    -896.566E-03        -2.80020     325.510E-03    -161.336E-03    -164.174E-03    -160.381E-03     324.555E-03    -164.174E-03     42.7095E-03     108.086E+06     89.8037E+06    -17.7219E+06    -17.7160E+06     89.7978E+06     108.086E+06     183.965E+03         58.0279
             837     12.7378E-03     29.2067E-03         1.49849        -1.00765        -2.33380     603.938E-03        -1.43925        -1.00765        -3.18177     325.585E-03    -161.323E-03    -164.262E-03    -160.709E-03     324.971E-03    -164.262E-03     34.4363E-03     85.3204E+06     75.1276E+06    -24.9752E+06    -24.9639E+06     75.1162E+06     85.3204E+06    -277.094E+03         55.5893
             838     11.8864E-03     29.1641E-03     934.216E-03        -1.08175        -1.67231     128.366E-03    -848.010E-03        -1.10020        -2.24472     325.445E-03    -161.030E-03    -164.415E-03    -160.556E-03     324.971E-03    -164.415E-03     30.3306E-03     73.5414E+06     67.8567E+06    -32.6454E+06    -32.6277E+06     67.8390E+06     73.5414E+06    -1.23689E+06         53.2079
             839     11.0343E-03     29.1250E-03     476.908E-03    -942.707E-03        -1.32883    -201.974E-03    -414.988E-03        -1.17766    -627.915E-03     325.697E-03    -161.049E-03    -164.648E-03    -160.649E-03     325.297E-03    -164.648E-03     27.8383E-03     66.6645E+06     48.4360E+06    -40.8385E+06    -40.8150E+06     48.4125E+06     66.6645E+06    -1.40607E+06         51.1646
             840     10.1823E-03     29.0914E-03     307.952E-03    -821.310E-03        -1.24632    -430.969E-03    -82.3894E-03        -1.24632    -196.655E-03     326.577E-03    -161.668E-03    -164.910E-03    -161.340E-03     326.250E-03    -164.910E-03     25.2121E-03     56.4496E+06     7.67803E+06    -49.8742E+06    -49.8555E+06     7.65929E+06     56.4496E+06    -1.02799E+06         49.5977
             841     9.33175E-03     29.0625E-03     307.872E-03    -722.276E-03        -1.31503    -505.000E-03     90.5962E-03        -1.31503    -704.670E-03     327.488E-03    -162.345E-03    -165.143E-03    -162.094E-03     327.237E-03    -165.143E-03     22.0570E-03     42.2720E+06    -37.3155E+06    -59.1285E+06    -59.0019E+06    -37.4421E+06     42.2720E+06    -880.227E+03         48.5063
             842     8.48206E-03     29.0368E-03     430.221E-03    -740.145E-03        -1.39237    -549.025E-03     239.101E-03        -1.39237     368.852E-03     328.122E-03    -162.766E-03    -165.356E-03    -162.585E-03     327.941E-03    -165.356E-03     18.8004E-03     28.3651E+06    -65.6525E+06    -77.4580E+06    -68.0012E+06    -75.1094E+06     28.3651E+06    -879.154E+03         47.8035
             843     7.63234E-03     29.0160E-03     722.487E-03    -939.063E-03        -1.47129    -786.444E-03     569.868E-03        -1.47129     635.857E-03     328.576E-03    -163.014E-03    -165.562E-03    -162.887E-03     328.450E-03    -165.562E-03     15.6538E-03     12.7068E+06    -78.0975E+06    -107.719E+06    -78.1302E+06    -107.686E+06     12.7068E+06    -448.449E+03         47.3764
             844     6.78202E-03     28.9985E-03         1.11146        -1.24588        -1.54708        -1.16212         1.01201        -1.53140     731.935E-03     329.215E-03    -163.451E-03    -165.764E-03    -163.368E-03     329.132E-03    -165.764E-03     12.6480E-03    -4.98315E+06    -88.7175E+06    -138.310E+06    -88.7398E+06    -138.287E+06    -4.98315E+06    -332.588E+03         47.1245
             845     5.93362E-03     28.9859E-03         1.46411        -1.49789        -1.64410        -1.44649         1.33060        -1.56199         1.13054     329.875E-03    -163.925E-03    -165.951E-03    -163.876E-03     329.827E-03    -165.951E-03     9.67232E-03    -24.2994E+06    -99.3835E+06    -167.289E+06    -99.3964E+06    -167.276E+06    -24.2994E+06    -576.845E+03         46.9751
             846     5.08432E-03     28.9772E-03         1.61528        -1.53567        -1.75922        -1.47532         1.37420        -1.57850         1.57645     330.517E-03    -164.398E-03    -166.119E-03    -164.373E-03     330.492E-03    -166.119E-03     6.89443E-03    -45.8723E+06    -110.376E+06    -195.988E+06    -110.397E+06    -195.967E+06    -45.8723E+06    -244.201E+03         46.8825
             847     4.23553E-03     28.9703E-03         1.74456        -1.62235        -1.81176        -1.26968         1.20248        -1.62235         2.45837     331.368E-03    -165.123E-03    -166.244E-03    -165.112E-03     331.357E-03    -166.244E-03     4.47724E-03    -68.8601E+06    -120.236E+06    -224.959E+06    -120.254E+06    -224.940E+06    -68.8601E+06    -92.0906E+03         46.8211
             848     3.38847E-03     28.9670E-03         2.50550        -1.72588        -2.48756        -1.17965         1.19759        -1.72588         4.28780     331.954E-03    -165.650E-03    -166.304E-03    -165.646E-03     331.950E-03    -166.304E-03     2.70069E-03    -92.7066E+06    -130.189E+06    -253.225E+06    -130.196E+06    -253.219E+06    -92.7066E+06    -417.102E+03         46.7779
             849     2.54152E-03     28.9658E-03         3.94739        -1.89667        -3.79157        -1.28062         1.43643        -1.89667         7.23043     332.148E-03    -165.801E-03    -166.347E-03    -165.800E-03     332.147E-03    -166.347E-03     1.58795E-03    -115.334E+06    -139.361E+06    -276.340E+06    -139.376E+06    -276.325E+06    -115.334E+06    -303.863E+03         46.7467
             850     1.69369E-03     28.9648E-03         4.21958        -2.10522        -3.85604        -1.68115         2.04469        -2.10522         6.79371     332.420E-03    -165.969E-03    -166.451E-03    -165.969E-03     332.420E-03    -166.451E-03     684.427E-06    -133.829E+06    -145.821E+06    -295.332E+06    -145.836E+06    -295.317E+06    -133.829E+06    -169.535E+03         46.7251
             851     846.342E-06     28.9655E-03         4.19215        -2.04982        -3.85855        -2.37253         2.70613        -2.04982         6.01040     332.998E-03    -166.326E-03    -166.672E-03    -166.364E-03     332.997E-03    -166.633E-03     11.4418E-06    -146.475E+06    -150.836E+06    -310.692E+06    -150.475E+06    -310.688E+06    -146.840E+06     176.528E+03         46.7119
             852     14.4397E-03     27.9342E-03         1.70006    -586.570E-03        -3.32367         1.36230        -2.98591    -586.570E-03        -2.41696     324.126E-03    -159.936E-03    -164.189E-03    -159.035E-03     323.224E-03    -164.189E-03     41.1637E-03     141.588E+06     108.469E+06    -8.89144E+06    -8.89050E+06     108.469E+06     141.588E+06     198.246E+03         60.1310
             853     13.5887E-03     27.8693E-03         1.56524    -693.047E-03        -3.07082         1.14274        -2.64832    -693.047E-03        -2.45908     325.680E-03    -161.417E-03    -164.263E-03    -160.448E-03     324.711E-03    -164.263E-03     43.0771E-03     108.499E+06     90.3317E+06    -17.9065E+06    -17.8981E+06     90.3233E+06     108.499E+06    -605.582E+03         57.9982
             854     12.7381E-03     27.8225E-03         1.46111    -798.475E-03        -2.84682     890.525E-03        -2.27624    -798.475E-03        -2.85340     325.690E-03    -161.334E-03    -164.357E-03    -160.648E-03     325.004E-03    -164.357E-03     36.4256E-03     85.4458E+06     75.4280E+06    -25.2466E+06    -25.2371E+06     75.4184E+06     85.4458E+06    -817.386E+03         55.5774
             855     11.8859E-03     27.7792E-03         1.02408    -902.367E-03        -2.28445     627.190E-03        -1.88757    -902.367E-03        -2.06203     325.487E-03    -160.961E-03    -164.526E-03    -160.399E-03     324.925E-03    -164.526E-03     32.8806E-03     73.9381E+06     68.6912E+06    -32.2776E+06    -32.2731E+06     68.6867E+06     73.9381E+06    -630.373E+03         53.2111
             856     11.0332E-03     27.7421E-03     559.795E-03    -925.363E-03        -1.76825     338.721E-03        -1.46989        -1.00264    -565.675E-03     325.711E-03    -160.929E-03    -164.782E-03    -160.487E-03     325.269E-03    -164.782E-03     29.2463E-03     66.3353E+06     47.8422E+06    -40.8426E+06    -40.8345E+06     47.8341E+06     66.3353E+06    -723.103E+03         51.1777
             857     10.1809E-03     27.7050E-03     246.456E-03    -953.527E-03        -1.39914     552.795E-06        -1.01176        -1.09500    -159.177E-03     326.371E-03    -161.290E-03    -165.081E-03    -160.949E-03     326.030E-03    -165.081E-03     25.6966E-03     56.5101E+06     7.35041E+06    -49.5514E+06    -49.5335E+06     7.33257E+06     56.5101E+06    -827.581E+03         49.6157
             858     9.33002E-03     27.6750E-03     95.4260E-03    -918.410E-03        -1.25441    -314.302E-03    -587.175E-03        -1.17592    -863.284E-03     327.342E-03    -161.976E-03    -165.366E-03    -161.714E-03     327.080E-03    -165.366E-03     22.6099E-03     42.4810E+06    -37.2107E+06    -58.7838E+06    -58.6592E+06    -37.3353E+06     42.4810E+06    -958.310E+03         48.5261
             859     8.47941E-03     27.6483E-03     86.9971E-03    -895.042E-03        -1.24989    -488.832E-03    -319.213E-03        -1.24989     185.679E-03     328.244E-03    -162.614E-03    -165.630E-03    -162.411E-03     328.040E-03    -165.630E-03     19.8958E-03     27.9395E+06    -66.5782E+06    -78.0152E+06    -68.6135E+06    -75.9798E+06     27.9395E+06    -635.945E+03         47.8244
             860     7.62934E-03     27.6275E-03     150.279E-03    -871.726E-03        -1.32253    -647.420E-03    -74.0265E-03        -1.32253     639.131E-03     329.018E-03    -163.149E-03    -165.869E-03    -163.004E-03     328.874E-03    -165.869E-03     16.7893E-03     12.2823E+06    -78.6912E+06    -108.157E+06    -78.7277E+06    -108.121E+06     12.2823E+06    -340.330E+03         47.3992
             861     6.78025E-03     27.6091E-03     399.166E-03        -1.02664        -1.40892    -823.255E-03     180.100E-03        -1.39324     814.190E-03     329.657E-03    -163.559E-03    -166.098E-03    -163.465E-03     329.563E-03    -166.098E-03     13.5218E-03    -4.99069E+06    -89.0073E+06    -138.218E+06    -89.0370E+06    -138.188E+06    -4.99069E+06    -325.147E+03         47.1502
             862     5.93030E-03     27.5953E-03     609.637E-03        -1.16122        -1.48433    -890.183E-03     322.913E-03        -1.46865         1.15575     330.492E-03    -164.185E-03    -166.307E-03    -164.130E-03     330.437E-03    -166.307E-03     10.3168E-03    -24.5215E+06    -99.6430E+06    -167.279E+06    -99.6518E+06    -167.270E+06    -24.5215E+06    -276.317E+03         47.0045
             863     5.08254E-03     27.5854E-03     989.623E-03        -1.31910        -1.71137        -1.07081     579.164E-03        -1.54920         1.74939     331.418E-03    -164.952E-03    -166.465E-03    -164.923E-03     331.388E-03    -166.465E-03     7.52368E-03    -46.2024E+06    -110.047E+06    -196.014E+06    -110.055E+06    -196.006E+06    -46.2024E+06    -636.657E+03         46.9160
             864     4.23537E-03     27.5778E-03         1.56188        -1.59946        -2.02135        -1.49353         1.03406        -1.59946         2.48131     331.957E-03    -165.370E-03    -166.587E-03    -165.356E-03     331.943E-03    -166.587E-03     4.98148E-03    -69.0732E+06    -120.858E+06    -225.632E+06    -120.868E+06    -225.622E+06    -69.0732E+06    -646.345E+03         46.8587
             865     3.38711E-03     27.5740E-03         2.59257        -1.57306        -3.10671        -1.86723         1.35309        -1.57306         4.54780     332.451E-03    -165.759E-03    -166.692E-03    -165.754E-03     332.446E-03    -166.692E-03     2.99140E-03    -92.5654E+06    -130.668E+06    -253.051E+06    -130.671E+06    -253.048E+06    -92.5654E+06    -171.662E+03         46.8192
             866     2.53963E-03     27.5719E-03         3.52500        -1.46925        -4.17601        -1.86943         1.21842        -1.46925         7.04016     332.977E-03    -166.208E-03    -166.770E-03    -166.206E-03     332.976E-03    -166.770E-03     1.68067E-03    -115.545E+06    -139.096E+06    -276.207E+06    -139.103E+06    -276.200E+06    -115.545E+06    -470.284E+03         46.7912
             867     1.69311E-03     27.5717E-03         3.57530        -1.31810        -4.37181        -1.65468     858.167E-03        -1.31810         7.48200     333.345E-03    -166.506E-03    -166.839E-03    -166.505E-03     333.345E-03    -166.839E-03     746.373E-06    -134.838E+06    -146.329E+06    -296.221E+06    -146.338E+06    -296.212E+06    -134.838E+06    -408.839E+03         46.7719
             868     846.473E-06     27.5703E-03         2.44333        -1.00937        -3.55455        -1.51170     346.753E-03    -955.652E-03         4.40493     333.706E-03    -166.732E-03    -166.974E-03    -166.845E-03     333.706E-03    -166.861E-03     201.350E-06    -146.884E+06    -151.149E+06    -310.864E+06    -150.790E+06    -310.857E+06    -147.249E+06    -307.246E+03         46.7603
             869     14.4424E-03     26.5522E-03         1.56391    -361.843E-03        -3.72204         1.30742        -3.46554    -361.843E-03        -2.17573     323.993E-03    -159.826E-03    -164.168E-03    -158.942E-03     323.110E-03    -164.168E-03     40.7595E-03     141.843E+06     108.686E+06    -9.05523E+06    -9.05407E+06     108.684E+06     141.843E+06     31.0577E+03         60.0978
             870     13.5873E-03     26.4860E-03         1.42462    -449.650E-03        -3.48168         1.09872        -3.15578    -449.650E-03        -2.27635     324.089E-03    -159.795E-03    -164.295E-03    -158.850E-03     323.145E-03    -164.295E-03     42.3999E-03     109.308E+06     91.4038E+06    -16.9153E+06    -16.9075E+06     91.3960E+06     109.308E+06    -336.722E+03         57.9765
             871     12.7330E-03     26.4378E-03         1.47330    -542.273E-03        -3.42820         1.06424        -3.01914    -542.273E-03        -2.67409     324.499E-03    -160.016E-03    -164.483E-03    -159.349E-03     323.832E-03    -164.483E-03     35.7822E-03     85.0393E+06     75.5390E+06    -24.9674E+06    -24.9586E+06     75.5301E+06     85.0393E+06    -574.577E+03         55.5682
             872     11.8810E-03     26.3948E-03         1.15252    -643.724E-03        -2.98899     931.514E-03        -2.76798    -643.724E-03        -1.84174     325.544E-03    -160.832E-03    -164.713E-03    -160.264E-03     324.977E-03    -164.713E-03     33.0968E-03     73.4305E+06     68.4799E+06    -32.7709E+06    -32.7682E+06     68.4772E+06     73.4305E+06    -513.248E+03         53.2141
             873     11.0306E-03     26.3550E-03     788.529E-03    -747.013E-03        -2.50110     680.612E-03        -2.39318    -747.013E-03    -484.891E-03     326.331E-03    -161.356E-03    -164.975E-03    -160.886E-03     325.861E-03    -164.975E-03     30.2091E-03     66.6383E+06     48.2752E+06    -40.4906E+06    -40.4873E+06     48.2718E+06     66.6383E+06    -492.921E+03         51.1899
             874     10.1799E-03     26.3205E-03     488.108E-03    -847.113E-03        -2.07501     412.610E-03        -1.99952    -847.113E-03    -195.088E-03     326.694E-03    -161.423E-03    -165.271E-03    -161.048E-03     326.319E-03    -165.271E-03     26.9954E-03     56.6005E+06     7.42098E+06    -49.3484E+06    -49.3387E+06     7.41133E+06     56.6005E+06    -455.147E+03         49.6322
             875     9.32771E-03     26.2877E-03     231.280E-03    -911.256E-03        -1.72956     73.1649E-03        -1.54360    -939.097E-03    -913.195E-03     327.252E-03    -161.664E-03    -165.588E-03    -161.375E-03     326.964E-03    -165.588E-03     23.6579E-03     42.5625E+06    -37.8837E+06    -58.7159E+06    -58.6822E+06    -37.9174E+06     42.5625E+06    -437.431E+03         48.5434
             876     8.47671E-03     26.2611E-03     12.7860E-03    -955.314E-03        -1.44948    -303.898E-03        -1.07296        -1.01515     116.135E-03     328.316E-03    -162.413E-03    -165.903E-03    -162.203E-03     328.106E-03    -165.903E-03     20.2492E-03     28.2783E+06    -66.6148E+06    -77.6321E+06    -68.0972E+06    -76.1497E+06     28.2783E+06    -411.918E+03         47.8418
             877     7.62680E-03     26.2369E-03    -181.112E-03    -875.685E-03        -1.32772    -435.409E-03    -866.970E-03        -1.08214     508.652E-03     329.392E-03    -163.212E-03    -166.180E-03    -163.063E-03     329.244E-03    -166.180E-03     17.0262E-03     12.5377E+06    -78.1517E+06    -108.179E+06    -78.1875E+06    -108.144E+06     12.5377E+06    -543.256E+03         47.4174
             878     6.77753E-03     26.2190E-03    -75.1199E-03    -913.510E-03        -1.39199    -352.505E-03    -862.816E-03        -1.16530     602.827E-03     330.337E-03    -163.915E-03    -166.421E-03    -163.818E-03     330.239E-03    -166.421E-03     13.7942E-03    -4.92758E+06    -88.5816E+06    -138.462E+06    -88.6075E+06    -138.436E+06    -4.92758E+06    -521.546E+03         47.1704
             879     5.92927E-03     26.2041E-03    -16.0247E-03    -953.003E-03        -1.41305    -391.270E-03    -714.231E-03        -1.27658     843.045E-03     331.195E-03    -164.569E-03    -166.626E-03    -164.509E-03     331.135E-03    -166.626E-03     10.7690E-03    -23.9701E+06    -99.0693E+06    -167.056E+06    -99.0805E+06    -167.044E+06    -23.9701E+06    -484.806E+03         47.0276
             880     5.08085E-03     26.1917E-03     556.643E-03        -1.14298        -1.80502    -771.196E-03    -230.937E-03        -1.38923         1.87108     331.924E-03    -165.127E-03    -166.797E-03    -165.095E-03     331.892E-03    -166.797E-03     7.86131E-03    -45.4233E+06    -110.016E+06    -196.192E+06    -110.020E+06    -196.187E+06    -45.4233E+06    -224.021E+03         46.9425
             881     4.23278E-03     26.1851E-03         1.19779        -1.44792        -2.16369        -1.36104     395.137E-03        -1.44792         2.68747     332.556E-03    -165.617E-03    -166.938E-03    -165.602E-03     332.540E-03    -166.938E-03     5.50350E-03    -69.0852E+06    -120.684E+06    -226.020E+06    -120.689E+06    -226.015E+06    -69.0852E+06    -269.276E+03         46.8886
             882     3.38598E-03     26.1799E-03         2.31385        -1.39947        -3.35333        -1.84908     809.599E-03        -1.39947         4.83320     333.186E-03    -166.134E-03    -167.053E-03    -166.127E-03     333.180E-03    -167.053E-03     3.45970E-03    -92.6896E+06    -130.749E+06    -253.372E+06    -130.754E+06    -253.367E+06    -92.6896E+06    -659.938E+03         46.8522
             883     2.53922E-03     26.1776E-03         3.03048        -1.22178        -4.26672        -1.94799     711.744E-03        -1.22178         6.77668     333.745E-03    -166.627E-03    -167.119E-03    -166.625E-03     333.744E-03    -167.119E-03     1.74803E-03    -115.437E+06    -139.567E+06    -276.432E+06    -139.569E+06    -276.430E+06    -115.437E+06    -216.631E+03         46.8269
             884     1.69260E-03     26.1757E-03         3.17583    -925.333E-03        -4.72540        -1.62647     76.9008E-03    -925.333E-03         7.64631     334.093E-03    -166.960E-03    -167.133E-03    -166.960E-03     334.093E-03    -167.133E-03     820.852E-06    -135.249E+06    -146.122E+06    -296.363E+06    -146.123E+06    -296.362E+06    -135.249E+06    -54.1087E+03         46.8096
             885     846.424E-06     26.1760E-03         2.48175    -463.355E-03        -4.52842        -1.09055        -1.00985    -409.632E-03         2.51839     334.221E-03    -167.052E-03    -167.169E-03    -167.132E-03     334.221E-03    -167.088E-03     714.700E-06    -147.195E+06    -151.515E+06    -311.641E+06    -150.519E+06    -311.636E+06    -148.197E+06    -636.626E+03         46.7993
             886     14.4422E-03     25.1677E-03         1.82074    -79.0662E-03        -4.57267         1.61367        -4.36560    -79.0662E-03        -2.17458     324.098E-03    -159.947E-03    -164.152E-03    -159.020E-03     323.171E-03    -164.152E-03     41.8184E-03     141.661E+06     108.749E+06    -9.17136E+06    -9.16822E+06     108.746E+06     141.661E+06    -169.946E+03         60.0763
             887     13.5896E-03     25.1079E-03         1.65002    -163.181E-03        -4.31228         1.33142        -3.99367    -163.181E-03        -2.45287     323.912E-03    -159.631E-03    -164.282E-03    -158.683E-03     322.965E-03    -164.282E-03     42.3447E-03     109.071E+06     91.3549E+06    -17.3564E+06    -17.3538E+06     91.3522E+06     109.071E+06    -267.817E+03         57.9669
             888     12.7351E-03     25.0546E-03         1.52842    -244.430E-03        -4.09856         1.13985        -3.70999    -244.430E-03        -2.80274     323.738E-03    -159.235E-03    -164.503E-03    -158.614E-03     323.117E-03    -164.503E-03     34.5253E-03     85.8283E+06     76.1047E+06    -24.7757E+06    -24.7736E+06     76.1025E+06     85.8283E+06    -92.7466E+03         55.5714
             889     11.8816E-03     25.0110E-03         1.18340    -327.270E-03        -3.66118     994.900E-03        -3.47269    -327.270E-03        -1.86498     324.665E-03    -159.874E-03    -164.791E-03    -159.356E-03     324.147E-03    -164.791E-03     31.6022E-03     73.5978E+06     68.7361E+06    -32.7797E+06    -32.7775E+06     68.7338E+06     73.5978E+06    -110.196E+03         53.2262
             890     11.0281E-03     24.9684E-03     929.925E-03    -412.757E-03        -3.30683     846.968E-03        -3.22387    -412.757E-03    -518.229E-03     325.792E-03    -160.676E-03    -165.116E-03    -160.242E-03     325.358E-03    -165.116E-03     29.0000E-03     66.2458E+06     48.0493E+06    -40.9416E+06    -40.9373E+06     48.0451E+06     66.2458E+06    -411.645E+03         51.2061
             891     10.1763E-03     24.9339E-03     747.969E-03    -501.312E-03        -3.01343     691.458E-03        -2.95692    -501.312E-03    -260.464E-03     326.757E-03    -161.302E-03    -165.455E-03    -160.944E-03     326.399E-03    -165.455E-03     26.3684E-03     56.7668E+06     7.19958E+06    -49.5016E+06    -49.4969E+06     7.19493E+06     56.7668E+06    -435.659E+03         49.6488
             892     9.32588E-03     24.9012E-03     611.612E-03    -593.770E-03        -2.76373     541.316E-03        -2.69343    -593.770E-03    -898.949E-03     327.694E-03    -161.912E-03    -165.782E-03    -161.623E-03     327.405E-03    -165.782E-03     23.7218E-03     42.8894E+06    -37.7148E+06    -58.7478E+06    -58.7373E+06    -37.7253E+06     42.8894E+06    -216.796E+03         48.5581
             893     8.47535E-03     24.8722E-03     471.611E-03    -690.262E-03        -2.50939     360.550E-03        -2.39833    -690.262E-03     242.920E-03     328.594E-03    -162.495E-03    -166.098E-03    -162.284E-03     328.382E-03    -166.098E-03     20.3038E-03     28.2109E+06    -66.6159E+06    -77.9833E+06    -68.5170E+06    -76.0822E+06     28.2109E+06    -447.383E+03         47.8541
             894     7.62522E-03     24.8476E-03     221.512E-03    -788.218E-03        -2.15095     134.529E-03        -2.06396    -788.218E-03     590.860E-03     329.553E-03    -163.156E-03    -166.397E-03    -163.009E-03     329.407E-03    -166.397E-03     16.9162E-03     12.7471E+06    -78.2144E+06    -108.074E+06    -78.2446E+06    -108.043E+06     12.7471E+06    -571.658E+03         47.4280
             895     6.77570E-03     24.8276E-03     95.3634E-03    -883.147E-03        -1.92790    -116.457E-03        -1.71608    -883.147E-03     837.286E-03     330.687E-03    -164.024E-03    -166.662E-03    -163.926E-03     330.588E-03    -166.662E-03     13.8659E-03    -4.56357E+06    -88.2789E+06    -138.361E+06    -88.2989E+06    -138.341E+06    -4.56357E+06    -630.472E+03         47.1806
             896     5.92735E-03     24.8108E-03    -162.171E-03    -906.296E-03        -1.65003    -436.874E-03        -1.31635    -965.276E-03         1.09521     331.614E-03    -164.731E-03    -166.882E-03    -164.669E-03     331.552E-03    -166.882E-03     10.9970E-03    -23.9063E+06    -99.0875E+06    -167.466E+06    -99.0963E+06    -167.457E+06    -23.9063E+06    -464.557E+03         47.0387
             897     5.07949E-03     24.7997E-03     224.450E-03    -963.256E-03        -1.99112    -751.365E-03    -956.331E-03        -1.02224         2.02906     332.299E-03    -165.224E-03    -167.075E-03    -165.189E-03     332.264E-03    -167.075E-03     8.14288E-03    -45.6182E+06    -110.146E+06    -196.985E+06    -110.159E+06    -196.972E+06    -45.6182E+06    -360.703E+03         46.9553
             898     4.23198E-03     24.7903E-03     457.428E-03        -1.05285        -2.15369    -942.047E-03    -754.217E-03        -1.05285         2.39924     333.108E-03    -165.869E-03    -167.239E-03    -165.853E-03     333.092E-03    -167.239E-03     5.53229E-03    -68.5674E+06    -120.491E+06    -226.106E+06    -120.504E+06    -226.093E+06    -68.5674E+06    -172.433E+03         46.9035
             899     3.38472E-03     24.7852E-03         1.48590        -1.05846        -3.19803        -1.08399    -628.135E-03        -1.05846         4.38454     333.821E-03    -166.468E-03    -167.352E-03    -166.462E-03     333.814E-03    -167.352E-03     3.55548E-03    -92.4613E+06    -130.301E+06    -253.409E+06    -130.305E+06    -253.405E+06    -92.4613E+06     96.5322E+03         46.8691
             900     2.53830E-03     24.7812E-03         2.11996        -1.03902        -3.87954        -1.12885    -630.726E-03        -1.03902         5.77802     334.316E-03    -166.897E-03    -167.419E-03    -166.894E-03     334.313E-03    -167.419E-03     2.14273E-03    -115.570E+06    -139.251E+06    -276.844E+06    -139.259E+06    -276.836E+06    -115.570E+06    -345.466E+03         46.8456
             901     1.69216E-03     24.7805E-03         2.68454        -1.00050        -4.48781        -1.09300    -710.274E-03        -1.00050         7.04346     334.701E-03    -167.227E-03    -167.474E-03    -167.252E-03     334.700E-03    -167.448E-03     1.13666E-03    -134.503E+06    -146.190E+06    -296.343E+06    -146.194E+06    -296.339E+06    -134.503E+06    -293.886E+03         46.8297
             902     845.821E-06     24.7790E-03         3.75397    -834.938E-03        -5.69427        -1.11996    -820.337E-03    -834.938E-03     641.360E-03     334.855E-03    -167.343E-03    -167.512E-03    -167.477E-03     334.855E-03    -167.378E-03     487.916E-06    -146.717E+06    -151.725E+06    -312.233E+06    -150.726E+06    -312.230E+06    -147.718E+06     376.349E+03         46.8202
             903     14.4408E-03     23.7887E-03         2.20605     263.885E-03        -5.62790         2.04809        -5.46994     263.885E-03        -2.03777     324.144E-03    -159.982E-03    -164.162E-03    -159.066E-03     323.228E-03    -164.162E-03     41.3996E-03     142.259E+06     109.390E+06    -8.78459E+06    -8.78117E+06     109.387E+06     142.259E+06     24.6608E+03         60.0701
             904     13.5875E-03     23.7209E-03         1.97637     176.059E-03        -5.32107         1.76139        -5.10608     176.059E-03        -2.15861     324.524E-03    -160.255E-03    -164.270E-03    -159.311E-03     323.580E-03    -164.270E-03     42.1892E-03     109.204E+06     91.6692E+06    -17.4509E+06    -17.4476E+06     91.6659E+06     109.204E+06    -300.864E+03         57.9720
             905     12.7357E-03     23.6764E-03         1.63352     97.5655E-03        -4.89769         1.36178        -4.62595     97.5655E-03        -2.51117     323.992E-03    -159.534E-03    -164.458E-03    -158.897E-03     323.356E-03    -164.458E-03     35.0384E-03     85.1954E+06     75.7162E+06    -25.5893E+06    -25.5873E+06     75.7141E+06     85.1954E+06    -263.333E+03         55.5890
             906     11.8813E-03     23.6260E-03         1.23362     28.7353E-03        -4.41616         1.10335        -4.28589     28.7353E-03        -1.60909     324.192E-03    -159.439E-03    -164.752E-03    -158.895E-03     323.648E-03    -164.752E-03     32.3395E-03     73.7286E+06     68.9280E+06    -32.9274E+06    -32.9260E+06     68.9266E+06     73.7286E+06     73.4251E+03         53.2510
             907     11.0293E-03     23.5859E-03         1.09946    -39.7997E-03        -4.19343         1.02719        -4.12116    -39.7997E-03    -170.083E-03     325.204E-03    -160.089E-03    -165.115E-03    -159.676E-03     324.791E-03    -165.115E-03     28.2424E-03     66.4954E+06     48.1700E+06    -41.0871E+06    -41.0849E+06     48.1678E+06     66.4954E+06     35.0584E+03         51.2311
             908     10.1765E-03     23.5466E-03     992.253E-03    -115.541E-03        -3.98842     954.428E-03        -3.95059    -115.541E-03     233.561E-03     326.377E-03    -160.885E-03    -165.492E-03    -160.565E-03     326.057E-03    -165.492E-03     24.9087E-03     56.9415E+06     7.26806E+06    -49.5267E+06    -49.5209E+06     7.26230E+06     56.9415E+06    -350.770E+03         49.6692
             909     9.32479E-03     23.5140E-03     917.798E-03    -200.968E-03        -3.80478     896.126E-03        -3.78310    -200.968E-03    -527.854E-03     327.518E-03    -161.670E-03    -165.848E-03    -161.409E-03     327.257E-03    -165.848E-03     22.5692E-03     43.3443E+06    -37.4083E+06    -58.5310E+06    -58.5133E+06    -37.4259E+06     43.3443E+06    -262.458E+03         48.5716
             910     8.47434E-03     23.4828E-03     967.961E-03    -303.085E-03        -3.73215     906.355E-03        -3.67055    -303.085E-03     430.334E-03     328.591E-03    -162.408E-03    -166.183E-03    -162.203E-03     328.386E-03    -166.183E-03     19.9872E-03     28.4518E+06    -66.1375E+06    -77.8424E+06    -68.2095E+06    -75.7703E+06     28.4518E+06    -269.003E+03         47.8604
             911     7.62440E-03     23.4584E-03     729.836E-03    -416.817E-03        -3.36388     675.509E-03        -3.30956    -416.817E-03     766.703E-03     329.694E-03    -163.200E-03    -166.494E-03    -163.055E-03     329.549E-03    -166.494E-03     16.8707E-03     12.8467E+06    -78.0456E+06    -108.157E+06    -78.0698E+06    -108.133E+06     12.8467E+06    -648.445E+03         47.4281
             912     6.77528E-03     23.4353E-03     269.277E-03    -506.140E-03        -2.80703     59.3777E-03        -2.59713    -506.140E-03         1.01013     330.676E-03    -163.898E-03    -166.777E-03    -163.801E-03     330.578E-03    -166.777E-03     13.7838E-03    -4.48687E+06    -88.7035E+06    -138.653E+06    -88.7151E+06    -138.642E+06    -4.48687E+06    -429.686E+03         47.1764
             913     5.92641E-03     23.4189E-03    -166.133E-03    -631.006E-03        -2.25219    -526.393E-03        -1.98673    -536.208E-03         1.14904     331.626E-03    -164.596E-03    -167.030E-03    -164.537E-03     331.567E-03    -167.030E-03     10.7137E-03    -24.1092E+06    -99.2317E+06    -167.666E+06    -99.2371E+06    -167.661E+06    -24.1092E+06    -325.875E+03         47.0317
             914     5.07818E-03     23.4050E-03     28.2968E-03    -606.352E-03        -2.48139    -754.109E-03        -1.79378    -511.554E-03         1.87318     332.620E-03    -165.376E-03    -167.244E-03    -165.343E-03     332.587E-03    -167.244E-03     8.00242E-03    -45.6253E+06    -109.733E+06    -197.024E+06    -109.754E+06    -197.004E+06    -45.6253E+06    -385.431E+03         46.9468
             915     4.23098E-03     23.3960E-03     85.9088E-03    -518.139E-03        -2.64004    -641.443E-03        -1.96083    -469.999E-03         1.97250     333.430E-03    -166.018E-03    -167.413E-03    -166.001E-03     333.414E-03    -167.413E-03     5.61334E-03    -68.8091E+06    -120.465E+06    -226.668E+06    -120.488E+06    -226.645E+06    -68.8091E+06    -392.054E+03         46.8943
             916     3.38433E-03     23.3890E-03         1.06423    -509.689E-03        -3.64247    -366.729E-03        -2.25965    -461.549E-03         3.86109     334.102E-03    -166.559E-03    -167.543E-03    -166.552E-03     334.095E-03    -167.543E-03     3.61947E-03    -92.1659E+06    -130.349E+06    -253.538E+06    -130.360E+06    -253.527E+06    -92.1659E+06    -270.812E+03         46.8598
             917     2.53760E-03     23.3857E-03         1.51431    -525.072E-03        -4.09086    -202.189E-03        -2.37436    -525.072E-03         4.95523     334.692E-03    -167.059E-03    -167.633E-03    -167.057E-03     334.690E-03    -167.633E-03     1.98941E-03    -114.527E+06    -138.827E+06    -276.689E+06    -138.838E+06    -276.677E+06    -114.527E+06    -7.04631E+03         46.8364
             918     1.69131E-03     23.3828E-03         2.31106    -643.392E-03        -4.75968    -380.076E-03        -2.06855    -643.392E-03         6.56094     335.127E-03    -167.430E-03    -167.697E-03    -167.455E-03     335.127E-03    -167.672E-03     953.409E-06    -134.350E+06    -146.059E+06    -296.898E+06    -146.067E+06    -296.890E+06    -134.350E+06     155.793E+03         46.8207
             919     846.110E-06     23.3824E-03         4.38141    -692.407E-03        -6.76662    -724.630E-03        -1.66058    -692.407E-03    -690.782E-03     335.309E-03    -167.537E-03    -167.772E-03    -167.666E-03     335.309E-03    -167.643E-03     337.174E-06    -146.949E+06    -151.566E+06    -312.344E+06    -150.841E+06    -312.340E+06    -147.677E+06     366.058E+03         46.8114
             920     14.4427E-03     22.4051E-03         2.48856     642.799E-03        -6.68594         2.36930        -6.56668     642.799E-03        -1.86656     324.429E-03    -160.293E-03    -164.136E-03    -159.404E-03     323.540E-03    -164.136E-03     40.8205E-03     142.300E+06     109.396E+06    -8.86945E+06    -8.86800E+06     109.394E+06     142.300E+06    -113.778E+03         60.0840
             921     13.5897E-03     22.3398E-03         2.27488     557.613E-03        -6.38339         2.15724        -6.26575     557.613E-03        -1.76580     324.424E-03    -160.194E-03    -164.230E-03    -159.287E-03     323.517E-03    -164.230E-03     41.3503E-03     109.047E+06     91.8282E+06    -17.4211E+06    -17.4194E+06     91.8265E+06     109.047E+06     130.677E+03         57.9955
             922     12.7357E-03     22.2917E-03         1.99665     476.466E-03        -6.00642         1.85092        -5.86069     476.466E-03        -2.05936     324.396E-03    -159.996E-03    -164.400E-03    -159.392E-03     323.792E-03    -164.400E-03     34.1680E-03     85.2302E+06     75.8902E+06    -25.2084E+06    -25.2063E+06     75.8881E+06     85.2302E+06     1.45191E+03         55.6224
             923     11.8834E-03     22.2458E-03         1.58253     403.457E-03        -5.49651         1.52455        -5.43854     403.457E-03        -1.23378     324.635E-03    -159.983E-03    -164.652E-03    -159.462E-03     324.115E-03    -164.652E-03     31.6619E-03     73.9176E+06     68.8060E+06    -32.8920E+06    -32.8908E+06     68.8048E+06     73.9176E+06     16.1210E+03         53.2900
             924     11.0294E-03     22.1996E-03         1.31456     339.481E-03        -5.14227         1.26805        -5.09576     339.481E-03     97.9912E-03     325.017E-03    -160.030E-03    -164.987E-03    -159.632E-03     324.619E-03    -164.987E-03     27.7193E-03     67.1292E+06     48.8600E+06    -40.7940E+06    -40.7919E+06     48.8579E+06     67.1292E+06    -25.2712E+03         51.2679
             925     10.1782E-03     22.1625E-03         1.19864     277.604E-03        -4.93846         1.16535        -4.90517     277.604E-03     380.727E-03     326.041E-03    -160.681E-03    -165.360E-03    -160.372E-03     325.733E-03    -165.360E-03     24.4468E-03     56.9234E+06     7.55931E+06    -49.6354E+06    -49.6294E+06     7.55337E+06     56.9234E+06    -125.057E+03         49.6966
             926     9.32632E-03     22.1263E-03         1.12367     209.885E-03        -4.76214         1.11127        -4.74974     209.885E-03    -495.012E-03     327.076E-03    -161.351E-03    -165.725E-03    -161.115E-03     326.839E-03    -165.725E-03     21.4083E-03     43.0775E+06    -37.5624E+06    -58.6357E+06    -58.4586E+06    -37.7395E+06     43.0775E+06    -354.284E+03         48.5862
             927     8.47475E-03     22.0957E-03     972.848E-03     140.131E-03        -4.51036     914.695E-03        -4.45220     140.131E-03     425.545E-03     328.089E-03    -162.006E-03    -166.083E-03    -161.828E-03     327.911E-03    -166.083E-03     18.6170E-03     29.2305E+06    -65.7347E+06    -76.9246E+06    -67.5182E+06    -75.1411E+06     29.2305E+06    -202.225E+03         47.8614
             928     7.62462E-03     22.0669E-03     672.016E-03     75.9594E-03        -4.12678     613.187E-03        -4.07388     81.8821E-03     866.132E-03     329.285E-03    -162.868E-03    -166.417E-03    -162.737E-03     329.154E-03    -166.417E-03     15.9621E-03     13.0679E+06    -77.8170E+06    -107.991E+06    -77.8607E+06    -107.947E+06     13.0679E+06     46.9837E+03         47.4167
             929     6.77527E-03     22.0452E-03     412.897E-03     41.7456E-03        -3.82704     280.822E-03        -3.70089     47.6683E-03         1.10530     330.437E-03    -163.718E-03    -166.718E-03    -163.630E-03     330.349E-03    -166.718E-03     13.0598E-03    -4.53574E+06    -88.1473E+06    -138.758E+06    -88.1515E+06    -138.754E+06    -4.53574E+06    -331.468E+03         47.1543
             930     5.92636E-03     22.0257E-03     203.302E-03    -55.2631E-03        -3.52286    -22.7698E-03        -3.39900     46.9412E-03     995.252E-03     331.485E-03    -164.504E-03    -166.982E-03    -164.451E-03     331.433E-03    -166.982E-03     10.0975E-03    -23.9198E+06    -98.8725E+06    -167.494E+06    -98.8819E+06    -167.484E+06    -23.9198E+06    -508.376E+03         47.0010
             931     5.07861E-03     22.0115E-03     288.485E-03    -21.5802E-03        -3.64729    -180.222E-03        -3.28079     80.6241E-03         1.63084     332.466E-03    -165.261E-03    -167.206E-03    -165.233E-03     332.439E-03    -167.206E-03     7.26028E-03    -45.1471E+06    -109.560E+06    -197.381E+06    -109.585E+06    -197.356E+06    -45.1471E+06    -478.211E+03         46.9092
             932     4.23096E-03     22.0005E-03     343.575E-03     13.7161E-03        -3.74071    -148.914E-03        -3.37022     135.715E-03         1.68391     333.316E-03    -165.931E-03    -167.385E-03    -165.919E-03     333.303E-03    -167.385E-03     4.87351E-03    -68.2189E+06    -120.096E+06    -226.810E+06    -120.133E+06    -226.774E+06    -68.2189E+06    -160.034E+03         46.8513
             933     3.38380E-03     21.9936E-03         1.20558     63.8455E-03        -4.65322     38.9229E-03        -3.60856     185.844E-03         3.61361     334.045E-03    -166.529E-03    -167.516E-03    -166.524E-03     334.040E-03    -167.516E-03     3.00741E-03    -92.4583E+06    -130.328E+06    -253.640E+06    -130.345E+06    -253.622E+06    -92.4583E+06    -183.172E+03         46.8127
             934     2.53771E-03     21.9883E-03         1.50318     200.971E-03        -5.08579     233.989E-03        -3.81659     200.971E-03         4.97592     334.622E-03    -167.013E-03    -167.609E-03    -167.011E-03     334.620E-03    -167.609E-03     1.64227E-03    -115.113E+06    -139.171E+06    -277.208E+06    -139.180E+06    -277.199E+06    -115.113E+06    -249.739E+03         46.7863
             935     1.69199E-03     21.9863E-03         2.51778     171.059E-03        -6.08548     274.762E-03        -3.84246     171.059E-03         7.11637     335.035E-03    -167.350E-03    -167.685E-03    -167.350E-03     335.035E-03    -167.685E-03     813.571E-06    -133.972E+06    -146.005E+06    -297.084E+06    -146.013E+06    -297.076E+06    -133.972E+06     145.632E+03         46.7685
             936     845.291E-06     21.9846E-03         4.45780     102.352E-03        -8.00112     189.368E-03        -3.73269     102.352E-03    -406.874E-03     335.392E-03    -167.559E-03    -167.833E-03    -167.559E-03     335.392E-03    -167.833E-03     225.942E-06    -146.392E+06    -150.767E+06    -311.936E+06    -150.044E+06    -311.932E+06    -147.120E+06     371.446E+03         46.7580
             937     14.4423E-03     21.0213E-03         2.64668         1.05524        -7.69697         2.55089        -7.60118         1.05524        -1.77691     324.792E-03    -160.659E-03    -164.133E-03    -159.699E-03     323.832E-03    -164.133E-03     42.5815E-03     141.955E+06     109.032E+06    -9.15073E+06    -9.14884E+06     109.030E+06     141.955E+06    -1.68896E+03         60.1180
             938     13.5895E-03     20.9580E-03         2.50277     984.291E-03        -7.43330         2.40907        -7.33960     984.291E-03        -1.71392     325.339E-03    -161.147E-03    -164.192E-03    -160.201E-03     324.393E-03    -164.192E-03     42.2554E-03     109.069E+06     91.8912E+06    -17.8760E+06    -17.8730E+06     91.8883E+06     109.069E+06     109.269E+03         58.0390
             939     12.7372E-03     20.9087E-03         2.37493     912.045E-03        -7.18295         2.25834        -7.06636     912.045E-03        -2.04888     325.182E-03    -160.882E-03    -164.301E-03    -160.281E-03     324.582E-03    -164.301E-03     34.1375E-03     85.8038E+06     76.3229E+06    -25.3636E+06    -25.3615E+06     76.3208E+06     85.8038E+06     17.5336E+03         55.6755
             940     11.8852E-03     20.8602E-03         2.02345     843.090E-03        -6.72738         1.96726        -6.67119     843.090E-03        -1.39192     325.279E-03    -160.798E-03    -164.481E-03    -160.302E-03     324.783E-03    -164.481E-03     30.9567E-03     74.2553E+06     69.1109E+06    -32.6771E+06    -32.6767E+06     69.1104E+06     74.2553E+06     53.1909E+03         53.3467
             941     11.0339E-03     20.8182E-03         1.68295     785.232E-03        -6.30315         1.64892        -6.26912     785.232E-03    -305.528E-03     325.235E-03    -160.486E-03    -164.750E-03    -160.111E-03     324.861E-03    -164.750E-03     26.9061E-03     67.1011E+06     49.1851E+06    -40.7287E+06    -40.7264E+06     49.1827E+06     67.1011E+06    -45.8606E+03         51.3192
             942     10.1800E-03     20.7761E-03         1.46529     737.207E-03        -6.00471         1.44182        -5.98124     737.207E-03    -116.982E-03     325.779E-03    -160.699E-03    -165.081E-03    -160.413E-03     325.493E-03    -165.081E-03     23.4967E-03     57.0175E+06     7.81181E+06    -49.4094E+06    -49.3966E+06     7.79905E+06     57.0175E+06    -229.408E+03         49.7342
             943     9.32906E-03     20.7405E-03         1.26193     696.833E-03        -5.72132         1.24025        -5.69965     696.833E-03    -763.157E-03     326.820E-03    -161.409E-03    -165.411E-03    -161.198E-03     326.609E-03    -165.411E-03     20.1997E-03     42.8959E+06    -37.2857E+06    -58.9267E+06    -58.6766E+06    -37.5358E+06     42.8959E+06    -246.789E+03         48.6050
             944     8.47845E-03     20.7078E-03     970.172E-03     673.542E-03        -5.36431     907.082E-03        -5.30122     673.542E-03     476.510E-03     327.673E-03    -161.940E-03    -165.733E-03    -161.790E-03     327.523E-03    -165.733E-03     17.0761E-03     28.9128E+06    -65.5243E+06    -77.9592E+06    -67.9750E+06    -75.5085E+06     28.9128E+06    -56.6253E+03         47.8595
             945     7.62729E-03     20.6789E-03     747.711E-03     631.641E-03        -5.07172     646.189E-03        -5.01455     675.996E-03     966.157E-03     328.530E-03    -162.481E-03    -166.049E-03    -162.380E-03     328.429E-03    -166.049E-03     13.9587E-03     13.6050E+06    -77.4936E+06    -107.294E+06    -77.5483E+06    -107.239E+06     13.6050E+06     100.952E+03         47.3944
             946     6.77712E-03     20.6536E-03     853.815E-03     643.646E-03        -5.18370     701.079E-03        -5.07532     688.002E-03         1.30238     329.673E-03    -163.329E-03    -166.344E-03    -163.267E-03     329.611E-03    -166.344E-03     10.8410E-03    -4.27498E+06    -88.0494E+06    -137.991E+06    -88.0550E+06    -137.986E+06    -4.27498E+06    -161.299E+03         47.1129
             947     5.92856E-03     20.6339E-03     968.548E-03     677.172E-03        -5.33640     848.855E-03        -5.22412     684.578E-03         1.38156     330.755E-03    -164.155E-03    -166.600E-03    -164.120E-03     330.720E-03    -166.600E-03     8.08215E-03    -23.6521E+06    -98.6064E+06    -167.641E+06    -98.6136E+06    -167.634E+06    -23.6521E+06    -415.668E+03         46.9425
             948     5.07993E-03     20.6177E-03         1.10945     657.200E-03        -5.45880     844.429E-03        -5.20119     664.606E-03         2.02619     331.667E-03    -164.849E-03    -166.818E-03    -164.832E-03     331.649E-03    -166.818E-03     5.62663E-03    -45.2771E+06    -109.584E+06    -197.586E+06    -109.609E+06    -197.562E+06    -45.2771E+06    -376.614E+03         46.8357
             949     4.23245E-03     20.6063E-03         1.07468     571.385E-03        -5.33278     732.947E-03        -5.06491     645.244E-03         2.11397     332.539E-03    -165.544E-03    -166.995E-03    -165.537E-03     332.532E-03    -166.995E-03     3.52450E-03    -68.4010E+06    -120.253E+06    -227.151E+06    -120.295E+06    -227.109E+06    -68.4010E+06    -283.693E+03         46.7650
             950     3.38557E-03     20.5977E-03         1.67989     571.303E-03        -5.92722     595.369E-03        -4.91655     645.162E-03         4.15293     333.223E-03    -166.091E-03    -167.132E-03    -166.089E-03     333.221E-03    -167.132E-03     1.92000E-03    -91.9210E+06    -129.810E+06    -253.465E+06    -129.832E+06    -253.443E+06    -91.9210E+06    -24.0333E+03         46.7159
             951     2.53846E-03     20.5927E-03         1.80182     678.539E-03        -6.15842     522.855E-03        -4.87946     678.539E-03         5.66879     333.786E-03    -166.538E-03    -167.247E-03    -166.538E-03     333.785E-03    -167.247E-03     891.851E-06    -114.868E+06    -138.583E+06    -277.099E+06    -138.589E+06    -277.094E+06    -114.868E+06    -52.0995E+03         46.6812
             952     1.69150E-03     20.5892E-03         2.65050     728.229E-03        -7.08454     635.666E-03        -5.06971     728.229E-03         7.55714     334.334E-03    -166.987E-03    -167.347E-03    -166.987E-03     334.334E-03    -167.347E-03     257.925E-06    -134.228E+06    -145.770E+06    -297.364E+06    -145.775E+06    -297.358E+06    -134.228E+06    -173.845E+03         46.6575
             953     846.209E-06     20.5878E-03         4.21396     683.505E-03        -8.61537     820.110E-03        -5.22152     683.505E-03     129.797E-03     334.734E-03    -167.245E-03    -167.489E-03    -167.245E-03     334.734E-03    -167.489E-03    -54.7430E-06    -146.688E+06    -150.117E+06    -312.096E+06    -150.081E+06    -312.087E+06    -146.733E+06    -147.651E+03         46.6433
             954     14.4403E-03     19.6385E-03         2.84961         1.51926        -8.74622         2.77144        -8.66805         1.51926        -1.77215     325.242E-03    -161.138E-03    -164.105E-03    -160.252E-03     324.357E-03    -164.105E-03     40.9187E-03     142.320E+06     109.190E+06    -9.15038E+06     -9.1482E+06     109.188E+06     142.320E+06     223.142E+03         60.1760
             955     13.5896E-03     19.5711E-03         2.64159         1.46937        -8.40095         2.54570        -8.30506         1.46937        -1.86819     326.028E-03    -161.913E-03    -164.116E-03    -161.046E-03     325.162E-03    -164.116E-03     40.4720E-03     109.947E+06     92.5664E+06    -17.4074E+06    -17.4033E+06     92.5623E+06     109.947E+06     135.298E+03         58.1062
             956     12.7395E-03     19.5248E-03         2.49143         1.42432        -8.14345         2.37006        -8.02208         1.42432        -2.22396     326.034E-03    -161.884E-03    -164.151E-03    -161.316E-03     325.467E-03    -164.151E-03     33.2470E-03     85.7318E+06     76.5227E+06    -25.4392E+06    -25.4365E+06     76.5200E+06     85.7318E+06    -33.3928E+03         55.7512
             957     11.8877E-03     19.4756E-03         2.29700         1.38138        -7.86343         2.23422        -7.80064         1.38138        -1.57219     325.931E-03    -161.683E-03    -164.248E-03    -161.215E-03     325.463E-03    -164.248E-03     30.0565E-03     73.7832E+06     68.9885E+06    -33.1057E+06    -33.1045E+06     68.9873E+06     73.7832E+06    -257.802E+03         53.4241
             958     11.0359E-03     19.4325E-03         2.10935         1.34095        -7.60218         2.08373        -7.57657         1.34095    -535.695E-03     325.962E-03    -161.542E-03    -164.420E-03    -161.197E-03     325.618E-03    -164.420E-03     25.8470E-03     67.0112E+06     49.3955E+06    -40.7232E+06    -40.7211E+06     49.3933E+06     67.0112E+06    -142.396E+03         51.3886
             959     10.1860E-03     19.3926E-03         1.81341         1.30996        -7.23873         1.79742        -7.22273         1.30996    -351.325E-03     326.158E-03    -161.516E-03    -164.641E-03    -161.261E-03     325.902E-03    -164.641E-03     22.2128E-03     57.2060E+06     8.39346E+06    -49.1872E+06    -49.1764E+06     8.38259E+06     57.2060E+06    -162.503E+03         49.7862
             960     9.33359E-03     19.3539E-03         1.50766         1.29553        -6.87053         1.47354        -6.83988         1.29900    -983.838E-03     326.608E-03    -161.733E-03    -164.875E-03    -161.559E-03     326.434E-03    -164.875E-03     18.2722E-03     43.3198E+06    -37.0310E+06    -58.5513E+06    -58.2859E+06    -37.2964E+06     43.3198E+06    -208.337E+03         48.6324
             961     8.48281E-03     19.3207E-03         1.43634         1.30027        -6.75251         1.37354        -6.69318         1.30374     321.046E-03     327.361E-03    -162.260E-03    -165.101E-03    -162.147E-03     327.248E-03    -165.101E-03     14.6582E-03     29.0187E+06    -65.6199E+06    -77.3863E+06    -67.7028E+06    -75.3035E+06     29.0187E+06    -74.8740E+03         47.8585
             962     7.63317E-03     19.2910E-03         1.52115         1.26879        -6.77122         1.43740        -6.72590         1.30722     968.316E-03     327.931E-03    -162.620E-03    -165.311E-03    -162.552E-03     327.863E-03    -165.311E-03     11.3366E-03     13.5120E+06    -77.6401E+06    -107.143E+06    -77.6866E+06    -107.096E+06     13.5120E+06    -129.372E+03         47.3638
             963     6.78338E-03     19.2647E-03         1.62596         1.26006        -6.86138         1.50744        -6.78129         1.29849         1.29533     328.462E-03    -162.938E-03    -165.524E-03    -162.902E-03     328.426E-03    -165.524E-03     8.14258E-03    -3.67128E+06    -87.7871E+06    -137.363E+06    -87.7927E+06    -137.358E+06    -3.67128E+06     49.8756E+03         47.0531
             964     5.93341E-03     19.2430E-03         1.71696         1.26855        -6.97232         1.62942        -6.88478         1.26855         1.52191     329.203E-03    -163.474E-03    -165.729E-03    -163.458E-03     329.188E-03    -165.729E-03     5.19169E-03    -23.6757E+06    -98.6295E+06    -167.505E+06    -98.6352E+06    -167.500E+06    -23.6757E+06     58.6329E+03         46.8547
             965     5.08470E-03     19.2263E-03         1.91108         1.20776        -7.11329         1.70843        -6.91064         1.20776         2.22332     329.982E-03    -164.069E-03    -165.914E-03    -164.063E-03     329.977E-03    -165.914E-03     2.87932E-03    -45.3713E+06    -109.370E+06    -197.447E+06    -109.388E+06    -197.430E+06    -45.3713E+06    -40.6267E+03         46.7220
             966     4.23606E-03     19.2131E-03         1.77978         1.12717        -6.88558         1.56591        -6.67171         1.12717         2.36061     330.717E-03    -164.643E-03    -166.074E-03    -164.641E-03     330.715E-03    -166.074E-03     1.15592E-03    -68.1638E+06    -119.580E+06    -226.850E+06    -119.607E+06    -226.823E+06    -68.1638E+06    -279.371E+03         46.6282
             967     3.38789E-03     19.2043E-03         2.01669         1.06562        -7.04442         1.23611        -6.26384         1.06562         4.08172     331.408E-03    -165.210E-03    -166.199E-03    -165.208E-03     331.407E-03    -166.199E-03    -150.232E-06    -92.0569E+06    -130.031E+06    -253.876E+06    -130.047E+06    -253.861E+06    -92.0569E+06    -272.902E+03         46.5592
             968     2.54051E-03     19.1982E-03         1.93485         1.05202        -6.94859     938.080E-03        -5.96845         1.06866         5.23881     331.975E-03    -165.690E-03    -166.285E-03    -165.689E-03     331.974E-03    -166.285E-03    -887.571E-06    -114.848E+06    -138.799E+06    -276.865E+06    -138.801E+06    -276.863E+06    -114.848E+06     226.590E+03         46.5084
             969     1.69392E-03     19.1941E-03         2.41864         1.13289        -7.52264     920.285E-03        -6.04092         1.14953         6.59501     332.386E-03    -166.030E-03    -166.356E-03    -166.029E-03     332.385E-03    -166.356E-03    -1.02302E-03    -133.867E+06    -145.191E+06    -297.075E+06    -145.193E+06    -297.073E+06    -133.867E+06     192.192E+03         46.4729
             970     846.398E-06     19.1920E-03         3.61381         1.20329        -8.79802         1.21234        -6.39655         1.20329     135.920E-03     332.731E-03    -166.268E-03    -166.463E-03    -166.300E-03     332.731E-03    -166.430E-03    -545.172E-06    -146.765E+06    -150.119E+06    -312.181E+06    -149.718E+06    -312.173E+06    -147.174E+06    -192.060E+03         46.4512
             971     14.4464E-03     18.2536E-03         3.11885         2.05237        -9.81830         3.04799        -9.74745         2.05237        -1.84039     326.635E-03    -162.640E-03    -163.994E-03    -161.776E-03     325.770E-03    -163.994E-03     40.6554E-03     142.400E+06     109.257E+06    -9.13252E+06    -9.13102E+06     109.255E+06     142.400E+06     179.698E+03         60.2613
             972     13.5934E-03     18.1881E-03         2.88477         2.02263        -9.47217         2.79742        -9.38482         2.02263        -1.93870     326.345E-03    -162.411E-03    -163.934E-03    -161.582E-03     325.516E-03    -163.934E-03     39.6487E-03     109.872E+06     92.4958E+06    -17.4438E+06    -17.4413E+06     92.4932E+06     109.872E+06     181.287E+03         58.2012
             973     12.7411E-03     18.1373E-03         2.69627         2.00173        -9.19347         2.58634        -9.08354         2.00173        -2.24506     326.437E-03    -162.523E-03    -163.914E-03    -161.999E-03     325.913E-03    -163.914E-03     31.9701E-03     85.8343E+06     76.6089E+06    -24.9635E+06    -24.9617E+06     76.6071E+06     85.8343E+06     158.865E+03         55.8532
             974     11.8919E-03     18.0906E-03         2.49049         1.98732        -8.92846         2.43197        -8.86993         1.98732        -1.60803     326.816E-03    -162.818E-03    -163.998E-03    -162.479E-03     326.400E-03    -163.922E-03     28.4003E-03     73.7436E+06     69.1301E+06    -32.6205E+06    -32.6191E+06     69.1287E+06     73.7436E+06    -81.3442E+03         53.5263
             975     11.0416E-03     18.0469E-03         2.32487         1.91419        -8.66172         2.23664        -8.64151         1.98220    -618.595E-03     326.827E-03    -162.787E-03    -164.041E-03    -162.572E-03     326.536E-03    -163.964E-03     23.7772E-03     66.9832E+06     49.6323E+06    -40.6634E+06    -40.6616E+06     49.6305E+06     66.9832E+06    -214.638E+03         51.4809
             976     10.1906E-03     18.0057E-03         2.15987         1.85656        -8.40605         2.00938        -8.39121         1.99221    -495.099E-03     326.910E-03    -162.866E-03    -164.045E-03    -162.680E-03     326.706E-03    -164.026E-03     19.8592E-03     57.2886E+06     8.91205E+06    -49.3319E+06    -49.3303E+06      8.9105E+06     57.2886E+06    -88.6645E+03         49.8575
             977     9.34191E-03     17.9691E-03         2.09589         1.94265        -8.37292         1.96982        -8.31796         2.01377        -1.45471     326.970E-03    -162.839E-03    -164.131E-03    -162.762E-03     326.840E-03    -164.078E-03     15.7737E-03     43.2635E+06    -36.6093E+06    -58.6132E+06    -58.4280E+06    -36.7945E+06     43.2635E+06    -218.014E+03         48.6737
             978     8.49161E-03     17.9337E-03         2.26191         2.02227        -8.56235         2.20454        -8.50846         2.02574    -498.426E-03     326.999E-03    -162.840E-03    -164.159E-03    -162.804E-03     326.929E-03    -164.125E-03     11.4736E-03     28.7756E+06    -65.8464E+06    -77.2678E+06    -68.0405E+06    -75.0737E+06     28.7756E+06    -326.464E+03         47.8637
             979     7.64158E-03     17.9037E-03         2.48656         2.00786        -8.73574         2.46914        -8.71833         2.00786     269.868E-03     327.061E-03    -162.895E-03    -164.166E-03    -162.860E-03     327.026E-03    -164.166E-03     7.76831E-03     13.3630E+06    -77.4940E+06    -106.886E+06    -77.5462E+06    -106.834E+06     13.3630E+06    -28.2704E+03         47.3295
             980     6.79171E-03     17.8775E-03         2.51274         1.96471        -8.71341         2.47246        -8.67313         1.96471     674.982E-03     327.061E-03    -162.847E-03    -164.214E-03    -162.832E-03     327.046E-03    -164.214E-03     4.50560E-03    -3.71539E+06    -87.6434E+06    -137.381E+06    -87.6527E+06    -137.372E+06    -3.71539E+06     209.702E+03         46.9782
             981     5.94216E-03     17.8552E-03         2.30094         1.91582        -8.47142         2.25510        -8.43071         1.92095     857.407E-03     327.143E-03    -162.872E-03    -164.271E-03    -162.867E-03     327.138E-03    -164.271E-03     1.47698E-03    -23.5599E+06    -98.4935E+06    -166.930E+06    -98.4965E+06    -166.927E+06    -23.5599E+06     329.463E+03         46.7395
             982     5.09230E-03     17.8374E-03         2.24491         1.80333        -8.31253         2.05310        -8.21116         1.89376         1.38171     327.446E-03    -163.113E-03    -164.333E-03    -163.109E-03     327.443E-03    -164.333E-03    -939.549E-06    -45.2316E+06    -109.244E+06    -196.817E+06    -109.255E+06    -196.806E+06    -45.2316E+06     58.9742E+03         46.5682
             983     4.24298E-03     17.8240E-03         2.20479         1.67646        -8.13619         1.89160        -8.03548         1.88894         1.48282     327.804E-03    -163.416E-03    -164.387E-03    -163.410E-03     327.797E-03    -164.387E-03    -2.65213E-03    -68.2090E+06    -120.046E+06    -226.632E+06    -120.059E+06    -226.619E+06    -68.2090E+06     152.064E+03         46.4386
             984     3.39400E-03     17.8137E-03         2.30844         1.78246        -8.32185         1.80288        -7.94347         1.90963         2.84613     328.182E-03    -163.767E-03    -164.415E-03    -163.759E-03     328.174E-03    -164.415E-03    -3.59057E-03    -92.3605E+06    -129.826E+06    -253.723E+06    -129.830E+06    -253.720E+06    -92.3605E+06     256.712E+03         46.3381
             985     2.54543E-03     17.8071E-03         2.31307         1.93284        -8.45877         1.82649        -7.98883         1.94947         4.08328     328.478E-03    -164.062E-03    -164.415E-03    -164.054E-03     328.470E-03    -164.415E-03    -3.61329E-03    -115.179E+06    -138.354E+06    -276.712E+06    -138.355E+06    -276.712E+06    -115.179E+06    -38.4523E+03         46.2613
             986     1.69642E-03     17.8029E-03         2.76117         1.96035        -8.96642         1.96522        -8.18711         1.97699         5.21697     328.643E-03    -164.194E-03    -164.449E-03    -164.230E-03     328.637E-03    -164.408E-03    -2.90070E-03    -133.886E+06    -145.443E+06    -296.576E+06    -145.444E+06    -296.576E+06    -133.886E+06     127.220E+03         46.2062
             987     848.403E-06     17.8007E-03         3.40558         1.84398        -9.53210         2.12073        -8.24725         1.84398     202.947E-03     328.755E-03    -164.269E-03    -164.486E-03    -164.396E-03     328.753E-03    -164.357E-03    -1.71230E-03    -146.202E+06    -150.466E+06    -311.719E+06    -150.107E+06    -311.714E+06    -146.565E+06     167.484E+03         46.1722
             988     14.4437E-03     16.8661E-03         3.28988         2.64443        -10.7869         3.23105        -10.7281         2.64443        -1.76153     328.104E-03    -163.793E-03    -164.311E-03    -163.315E-03     327.223E-03    -163.909E-03     41.1568E-03     142.749E+06     109.535E+06    -8.74265E+06    -8.74084E+06     109.533E+06     142.749E+06     199.030E+03         60.3700
             989     13.5961E-03     16.8024E-03         3.18859         2.63784        -10.6058         3.11541        -10.5326         2.63784        -1.91543     327.906E-03    -163.358E-03    -164.548E-03    -163.316E-03     327.056E-03    -163.740E-03     40.3021E-03     109.831E+06     92.3911E+06    -17.2770E+06    -17.2759E+06     92.3901E+06     109.831E+06    -48.6133E+03         58.3210
             990     12.7468E-03     16.7523E-03         3.01867         2.63161        -10.3603         2.90999        -10.2591         2.63910        -2.31272     327.508E-03    -163.105E-03    -164.403E-03    -163.387E-03     326.990E-03    -163.603E-03     31.8428E-03     85.7528E+06     76.4022E+06    -24.7647E+06    -24.7645E+06      76.402E+06     85.7528E+06    -57.1619E+03         55.9823
             991     11.8961E-03     16.7024E-03         2.79020         2.52091        -9.98232         2.58838        -9.91584         2.65626        -1.80484     327.852E-03    -163.346E-03    -164.506E-03    -163.983E-03     327.466E-03    -163.484E-03     27.4127E-03     73.9042E+06     69.3077E+06    -32.2905E+06    -32.2898E+06     69.3071E+06     73.9042E+06     187.503E+03         53.6563
             992     11.0483E-03     16.6594E-03         2.71527         2.38098        -9.74887         2.37947        -9.72591         2.69383    -876.240E-03     328.137E-03    -163.263E-03    -164.874E-03    -164.535E-03     327.889E-03    -163.354E-03     21.9357E-03     66.9826E+06     49.9685E+06    -40.5213E+06    -40.5185E+06     49.9657E+06     66.9826E+06     329.149E+03         51.5999
             993     10.2003E-03     16.6196E-03         2.73936         2.47190        -9.83352         2.46042        -9.82204         2.73936    -628.074E-03     327.892E-03    -163.110E-03    -164.782E-03    -164.541E-03     327.742E-03    -163.201E-03     17.0400E-03     57.3002E+06     9.61339E+06    -49.3049E+06    -49.3016E+06     9.61003E+06     57.3002E+06     198.024E+03         49.9529
             994     9.35081E-03     16.5809E-03         2.82347         2.68568        -10.0836         2.68098        -10.0310         2.77557        -1.50834     327.480E-03    -163.013E-03    -164.466E-03    -164.381E-03     327.395E-03    -163.013E-03     12.5468E-03     43.3490E+06    -35.5782E+06    -58.3881E+06    -58.3707E+06    -35.5957E+06     43.3490E+06     6.62267E+03         48.7341
             995     8.50303E-03     16.5482E-03         2.94237         2.73463        -10.1891         2.83489        -10.1434         2.79641    -740.025E-03     326.917E-03    -162.665E-03    -164.251E-03    -164.079E-03     326.880E-03    -162.801E-03     7.96192E-03     28.4560E+06    -65.3320E+06    -77.3554E+06    -67.9569E+06    -74.7304E+06     28.4560E+06    -446.611E+03         47.8809
             996     7.65385E-03     16.5179E-03         3.07248         2.69019        -10.2341         2.94541        -10.2205         2.80359    -230.944E-03     326.181E-03    -162.336E-03    -163.845E-03    -163.593E-03     326.169E-03    -162.577E-03     3.50839E-03     12.9672E+06    -77.7941E+06    -107.004E+06    -77.8254E+06    -106.973E+06     12.9672E+06    -288.562E+03         47.2982
             997     6.80470E-03     16.4921E-03         3.11359         2.69393        -10.2789         2.98601        -10.2575         2.80007     26.5567E-03     325.444E-03    -162.081E-03    -163.364E-03    -163.086E-03     325.440E-03    -162.353E-03    -405.798E-06    -4.23488E+06    -88.0773E+06    -137.291E+06    -88.0880E+06    -137.280E+06    -4.23488E+06     423.191E+03         46.8953
             998     5.95469E-03     16.4706E-03         2.94732         2.65869        -10.0981         2.78625        -10.0830         2.80463     236.465E-03     324.746E-03    -161.756E-03    -162.990E-03    -162.598E-03     324.734E-03    -162.136E-03    -3.61548E-03    -23.6599E+06    -98.6723E+06    -166.451E+06    -98.6821E+06    -166.441E+06    -23.6599E+06     591.977E+03         46.6040
             999     5.10460E-03     16.4528E-03         2.85042         2.51841        -9.88045         2.47369        -9.83574         2.85042     686.819E-03     324.147E-03    -161.567E-03    -162.581E-03    -162.193E-03     324.123E-03    -161.929E-03    -6.17893E-03    -45.3389E+06    -109.421E+06    -195.868E+06    -109.430E+06    -195.859E+06    -45.3389E+06     698.178E+03         46.3809
            1000     4.25427E-03     16.4391E-03         2.94476         2.46450        -9.91083         2.42215        -9.86848         2.94476         1.05837     323.647E-03    -161.470E-03    -162.177E-03    -161.878E-03     323.612E-03    -161.735E-03    -7.68908E-03    -68.7019E+06    -119.941E+06    -225.816E+06    -119.945E+06    -225.812E+06    -68.7019E+06     397.767E+03         46.2024
            1001     3.40366E-03     16.4293E-03         3.16121         2.80194        -10.4401         2.69788        -10.2239         3.04902         2.48034     323.183E-03    -161.355E-03    -161.828E-03    -161.588E-03     323.146E-03    -161.559E-03    -7.97677E-03    -92.2545E+06    -129.907E+06    -253.128E+06    -129.907E+06    -253.128E+06    -92.2545E+06     132.807E+03         46.0580
            1002     2.55264E-03     16.4223E-03         3.30123         3.12090        -10.8826         2.98709        -10.5685         3.12090         4.07736     322.850E-03    -161.267E-03    -161.583E-03    -161.418E-03     322.819E-03    -161.402E-03    -7.29579E-03    -115.044E+06    -138.812E+06    -276.307E+06    -138.814E+06    -276.306E+06    -115.044E+06     353.094E+03         45.9445
            1003     1.70222E-03     16.4185E-03         3.56610         3.14203        -11.1971         3.16182        -10.7928         3.14203         4.61003     322.613E-03    -161.207E-03    -161.406E-03    -161.342E-03     322.595E-03    -161.253E-03    -5.58167E-03    -134.578E+06    -145.699E+06    -296.131E+06    -145.701E+06    -296.129E+06    -134.578E+06     370.800E+03         45.8617
            1004     851.177E-06     16.4155E-03         3.81248         2.98793        -11.3329         3.29178        -10.8122         2.98793     922.050E-03     322.309E-03    -161.061E-03    -161.248E-03    -161.242E-03     322.303E-03    -161.061E-03    -3.22799E-03    -147.008E+06    -150.964E+06    -311.366E+06    -150.372E+06    -311.364E+06    -147.602E+06    -88.1108E+03         45.8098
            1005     14.4477E-03     15.4785E-03         3.46467         3.19913        -11.6850         3.34535        -11.6380         3.27148        -1.66797     329.155E-03    -163.850E-03    -165.305E-03    -164.433E-03     328.283E-03    -163.850E-03     40.9797E-03     142.603E+06     109.461E+06     -8.8704E+06    -8.86874E+06     109.460E+06     142.603E+06    -78.5690E+03         60.5000
            1006     13.5975E-03     15.4126E-03         3.47156         3.12230        -11.5454         3.22917        -11.4790         3.29836        -1.92848     329.681E-03    -163.583E-03    -166.099E-03    -165.233E-03     328.815E-03    -163.583E-03     40.8603E-03     110.133E+06     92.8024E+06    -17.0535E+06    -17.0523E+06     92.8012E+06     110.133E+06    -20.1264E+03         58.4622
            1007     12.7501E-03     15.3637E-03         3.42369         3.11410        -11.4354         3.11198        -11.3444         3.33480        -2.29102     329.843E-03    -163.284E-03    -166.559E-03    -166.031E-03     329.315E-03    -163.284E-03     32.3020E-03     86.0263E+06     76.4857E+06    -24.7332E+06    -24.7308E+06     76.4833E+06     86.0263E+06     297.126E+03         56.1352
            1008     11.9035E-03     15.3146E-03         3.38088         3.06279        -11.3145         3.00456        -11.2563         3.38088        -1.70434     329.678E-03    -162.962E-03    -166.716E-03    -166.349E-03     329.310E-03    -162.962E-03     26.7708E-03     73.9457E+06     69.1831E+06    -32.4503E+06    -32.4475E+06     69.1803E+06     73.9457E+06     424.116E+03         53.8130
            1009     11.0559E-03     15.2689E-03         3.43187         3.08022        -11.3705         3.06391        -11.3542         3.43187    -842.654E-03     329.516E-03    -162.614E-03    -166.902E-03    -166.688E-03     329.302E-03    -162.614E-03     20.4348E-03     66.8377E+06     50.3498E+06    -40.7029E+06    -40.6994E+06     50.3463E+06     66.8377E+06     380.428E+03         51.7462
            1010     10.2101E-03     15.2303E-03         3.47550         3.26938        -11.5800         3.26397        -11.5746         3.47550    -541.019E-03     329.338E-03    -162.202E-03    -167.137E-03    -167.020E-03     329.222E-03    -162.202E-03     14.9050E-03     57.3940E+06     10.5629E+06    -48.8401E+06    -48.8368E+06     10.5597E+06     57.3940E+06     243.837E+03         50.0740
            1011     9.36441E-03     15.1942E-03         3.50940         3.39520        -11.6866         3.36183        -11.6532         3.50940        -1.23363     328.379E-03    -161.704E-03    -166.675E-03    -166.626E-03     328.330E-03    -161.704E-03     9.32488E-03     43.5108E+06    -34.6258E+06    -57.7694E+06    -57.7243E+06    -34.6709E+06     43.5108E+06     238.532E+03         48.8172
            1012     8.51652E-03     15.1612E-03         3.54652         3.31210        -11.5803         3.26966        -11.5378         3.54652    -374.553E-03     327.084E-03    -161.152E-03    -165.932E-03    -165.919E-03     327.071E-03    -161.152E-03     3.78661E-03     28.7811E+06    -64.4299E+06    -76.6704E+06    -67.3592E+06    -73.7411E+06     28.7811E+06     209.060E+03         47.9156
            1013     7.66972E-03     15.1332E-03         3.60339         3.11496        -11.4015         3.09586        -11.3824         3.60339     172.561E-03     325.625E-03    -160.551E-03    -165.074E-03    -165.066E-03     325.617E-03    -160.551E-03    -1.34069E-03     12.5712E+06    -77.7971E+06    -106.927E+06    -77.8072E+06    -106.917E+06     12.5712E+06     182.607E+03         47.2772
            1014     6.82100E-03     15.1095E-03         3.68560         3.05924        -11.4307         3.03538        -11.4068         3.68560     268.617E-03     323.879E-03    -159.920E-03    -163.959E-03    -163.934E-03     323.854E-03    -159.920E-03    -5.91553E-03    -4.99447E+06    -88.6714E+06    -137.097E+06    -88.6815E+06    -137.087E+06    -4.99447E+06     429.901E+03         46.8141
            1015     5.97196E-03     15.0891E-03         3.78188         3.19244        -11.6904         3.17327        -11.6712         3.78188     601.369E-03     322.006E-03    -159.279E-03    -162.727E-03    -162.671E-03     321.951E-03    -159.279E-03    -9.67817E-03    -24.1586E+06    -99.0451E+06    -165.759E+06    -99.0567E+06    -165.747E+06    -24.1586E+06     814.736E+03         46.4603
            1016     5.12170E-03     15.0735E-03         3.87811         3.40959        -12.0206         3.37173        -11.9828         3.87811     975.748E-03     320.039E-03    -158.656E-03    -161.383E-03    -161.299E-03     319.955E-03    -158.656E-03    -12.2601E-03    -45.6555E+06    -109.509E+06    -194.962E+06    -109.518E+06    -194.952E+06    -45.6555E+06     816.859E+03         46.1748
            1017     4.27008E-03     15.0612E-03         3.97264         3.56782        -12.2610         3.53079        -12.2239         3.97264         1.26476     318.145E-03    -158.081E-03    -160.064E-03    -159.964E-03     318.044E-03    -158.081E-03    -13.4850E-03    -68.7233E+06    -120.279E+06    -224.517E+06    -120.286E+06    -224.510E+06    -68.7233E+06     714.047E+03         45.9368
            1018     3.41748E-03     15.0530E-03         4.11219         3.82849        -12.6343         3.74342        -12.4993         4.06227         2.26853     316.454E-03    -157.573E-03    -158.881E-03    -158.784E-03     316.357E-03    -157.573E-03    -13.2510E-03    -92.5988E+06    -130.605E+06    -252.291E+06    -130.611E+06    -252.284E+06    -92.5988E+06     717.732E+03         45.7388
            1019     2.56413E-03     15.0471E-03         4.26417         4.10549        -13.0517         3.97667        -12.7904         4.13161         4.15546     315.030E-03    -157.152E-03    -157.877E-03    -157.804E-03     314.957E-03    -157.152E-03    -11.4644E-03    -115.915E+06    -139.759E+06    -275.650E+06    -139.762E+06    -275.646E+06    -115.915E+06     621.298E+03         45.5800
            1020     1.70963E-03     15.0437E-03         4.46261         4.16162        -13.3187         4.15445        -13.0105         4.16162         4.59814     314.004E-03    -156.846E-03    -157.158E-03    -157.117E-03     313.963E-03    -156.846E-03    -8.44678E-03    -135.329E+06    -146.750E+06    -295.302E+06    -146.752E+06    -295.299E+06    -135.329E+06     537.805E+03         45.4626
            1021     854.925E-06     15.0425E-03         4.48681         4.03710        -13.2342         4.29270        -13.0401         4.03710         2.30072     313.407E-03    -156.614E-03    -156.793E-03    -156.744E-03     313.392E-03    -156.648E-03    -4.81330E-03    -147.653E+06    -151.470E+06    -310.515E+06    -150.879E+06    -310.513E+06    -148.247E+06     529.082E+03         45.3886
            1022     14.4455E-03     14.0880E-03         3.91745         3.53216        -12.6009         3.49543        -12.5642         3.91745        -1.52387     330.271E-03    -163.792E-03    -166.479E-03    -165.580E-03     329.373E-03    -163.792E-03     41.6497E-03     142.239E+06     109.310E+06    -8.98396E+06    -8.98323E+06     109.309E+06     142.239E+06    -70.4152E+03         60.6481
            1023     13.5997E-03     14.0227E-03         3.97357         3.49573        -12.5792         3.45037        -12.5339         3.97357        -1.65716     331.497E-03    -163.425E-03    -168.072E-03    -167.183E-03     330.607E-03    -163.425E-03     41.5041E-03     109.650E+06     92.6028E+06    -17.5979E+06    -17.5971E+06     92.6020E+06     109.650E+06     82.2100E+03         58.6220
            1024     12.7538E-03     13.9703E-03         4.03399         3.55781        -12.6655         3.50174        -12.6095         4.03399        -1.85030     332.177E-03    -162.964E-03    -169.213E-03    -168.687E-03     331.651E-03    -162.964E-03     32.3847E-03     86.0431E+06     76.2560E+06    -25.1574E+06    -25.1544E+06     76.2530E+06     86.0431E+06     471.606E+03         56.3076
            1025     11.9101E-03     13.9215E-03         4.08947         3.71683        -12.8657         3.68398        -12.8329         4.08947        -1.26865     332.172E-03    -162.413E-03    -169.759E-03    -169.400E-03     331.813E-03    -162.413E-03     26.5689E-03     74.0167E+06     69.2016E+06    -32.3823E+06    -32.3791E+06     69.1984E+06     74.0167E+06     525.522E+03         53.9904
            1026     11.0661E-03     13.8793E-03         4.13615         3.85551        -13.0482         3.84904        -13.0417         4.13615    -639.813E-03     331.462E-03    -161.798E-03    -169.664E-03    -169.463E-03     331.261E-03    -161.798E-03     19.8373E-03     67.2499E+06       51.54E+06    -39.7632E+06    -39.7608E+06     51.5376E+06     67.2499E+06     287.037E+03         51.9146
            1027     10.2212E-03     13.8376E-03         4.18024         3.85117        -13.0684         3.84722        -13.0644         4.18024    -448.025E-03     330.949E-03    -161.085E-03    -169.864E-03    -169.769E-03     330.854E-03    -161.085E-03     13.2632E-03     57.0421E+06     10.9305E+06    -48.5044E+06    -48.5022E+06     10.9283E+06     57.0421E+06     189.133E+03         50.2172
            1028     9.37752E-03     13.8048E-03         4.23135         3.82998        -13.0481         3.79245        -13.0105         4.23135        -1.22351     329.954E-03    -160.218E-03    -169.736E-03    -169.709E-03     329.928E-03    -160.218E-03     6.32950E-03     43.1151E+06    -34.3378E+06    -57.6966E+06    -57.6629E+06    -34.3715E+06     43.1151E+06     385.987E+03         48.9211
            1029     8.53410E-03     13.7744E-03         4.29245         3.82787        -13.0469         3.77665        -12.9957         4.29245    -433.437E-03     327.782E-03    -159.232E-03    -168.550E-03    -168.543E-03     327.775E-03    -159.232E-03    -144.410E-06     28.8228E+06    -63.8610E+06    -76.5937E+06    -67.2592E+06    -73.1955E+06     28.8228E+06     982.450E+03         47.9689
            1030     7.68786E-03     13.7491E-03         4.36853         3.71690        -12.9748         3.70075        -12.9587         4.36853     430.638E-03     325.236E-03    -158.158E-03    -167.078E-03    -167.052E-03     325.210E-03    -158.158E-03    -6.11373E-03     12.6862E+06    -77.4994E+06    -106.020E+06    -77.6016E+06    -105.918E+06     12.6862E+06     1.36152E+06         47.2717
            1031     6.84186E-03     13.7280E-03         4.47235         3.59544        -12.9578         3.56961        -12.9319         4.47235     633.429E-03     322.395E-03    -157.012E-03    -165.384E-03    -165.311E-03     322.323E-03    -157.012E-03    -11.3670E-03    -5.20028E+06    -88.2233E+06    -136.004E+06    -88.2536E+06    -135.974E+06    -5.20028E+06     960.682E+03         46.7444
            1032     5.99332E-03     13.7123E-03         4.60429         3.67459        -13.1933         3.65022        -13.1690         4.60429     958.506E-03     318.933E-03    -155.836E-03    -163.097E-03    -162.968E-03     318.804E-03    -155.836E-03    -15.4826E-03    -24.6947E+06    -99.3541E+06    -165.368E+06    -99.3672E+06    -165.355E+06    -24.6947E+06     846.357E+03         46.3240
            1033     5.14266E-03     13.6999E-03         4.73767         4.04805        -13.7180         4.01777        -13.6877         4.73767         1.11093     315.250E-03    -154.692E-03    -160.558E-03    -160.381E-03     315.074E-03    -154.692E-03    -18.0917E-03    -45.9730E+06    -110.511E+06    -194.067E+06    -110.540E+06    -194.038E+06    -45.9730E+06     1.38416E+06         45.9721
            1034     4.28993E-03     13.6923E-03         4.84881         4.40721        -14.1738         4.37556        -14.1421         4.84881         1.29396     311.629E-03    -153.631E-03    -157.997E-03    -157.802E-03     311.433E-03    -153.631E-03    -18.9783E-03    -69.5235E+06    -121.467E+06    -223.280E+06    -121.494E+06    -223.254E+06    -69.5235E+06     1.44921E+06         45.6709
            1035     3.43496E-03     13.6867E-03         4.93954         4.68236        -14.5104         4.61346        -14.4415         4.93954         1.85708     308.286E-03    -152.711E-03    -155.575E-03    -155.399E-03     308.109E-03    -152.711E-03    -17.9194E-03    -93.3510E+06    -131.555E+06    -251.032E+06    -131.565E+06    -251.021E+06    -93.3510E+06     1.10244E+06         45.4157
            1036     2.57786E-03     13.6847E-03         5.08329         4.94809        -14.8979         4.82412        -14.7040         5.01343         3.84515     305.538E-03    -151.972E-03    -153.566E-03    -153.439E-03     305.410E-03    -151.972E-03    -15.1020E-03    -116.256E+06    -140.411E+06    -274.394E+06    -140.420E+06    -274.385E+06    -116.256E+06     1.00488E+06         45.2087
            1037     1.71933E-03     13.6829E-03         5.26534         5.03428        -15.1883         5.03477        -14.9729         5.04941         4.02898     303.569E-03    -151.443E-03    -152.126E-03    -152.055E-03     303.498E-03    -151.443E-03    -11.0838E-03    -136.118E+06    -147.644E+06    -294.043E+06    -147.650E+06    -294.036E+06    -136.118E+06     666.736E+03         45.0545
            1038     859.869E-06     13.6826E-03         5.25777         4.96516        -15.1509         5.12671        -15.0350         4.98028         2.74705     302.437E-03    -151.063E-03    -151.374E-03    -151.314E-03     302.411E-03    -151.097E-03    -6.38028E-03    -148.782E+06    -152.154E+06    -309.030E+06    -152.070E+06    -309.028E+06    -148.869E+06     436.242E+03         44.9570
            1039     14.4485E-03     12.6979E-03         4.54875         3.79957        -13.6340         3.77716        -13.6116         4.54875        -1.21959     331.786E-03    -163.705E-03    -168.081E-03    -167.194E-03     330.899E-03    -163.705E-03     41.3812E-03     142.450E+06     109.343E+06    -8.78280E+06    -8.78063E+06     109.341E+06     142.450E+06     325.933E+03         60.8090
            1040     13.6018E-03     12.6273E-03         4.61709         4.00896        -13.9074         3.98666        -13.8851         4.61709        -1.22219     333.238E-03    -163.219E-03    -170.020E-03    -169.123E-03     332.342E-03    -163.219E-03     41.7791E-03     109.347E+06     92.3819E+06    -17.6476E+06    -17.6455E+06     92.3797E+06     109.347E+06     297.563E+03         58.7949
            1041     12.7589E-03     12.5757E-03         4.67904         4.17487        -14.1208         4.14557        -14.0915         4.67904        -1.40172     333.809E-03    -162.611E-03    -171.198E-03    -170.674E-03     333.285E-03    -162.611E-03     32.4558E-03     85.4857E+06     76.2418E+06    -25.0999E+06    -25.0976E+06     76.2395E+06     85.4857E+06     39.8640E+03         56.4915
            1042     11.9155E-03     12.5253E-03         4.73773         4.20433        -14.2056         4.18312        -14.1844         4.73773    -971.596E-03     334.147E-03    -161.876E-03    -172.272E-03    -171.907E-03     333.783E-03    -161.876E-03     26.9163E-03     73.7245E+06     69.4873E+06    -32.1430E+06    -32.1408E+06     69.4851E+06     73.7245E+06    -51.0130E+03         54.1773
            1043     11.0745E-03     12.4834E-03         4.80135         4.16670        -14.2323         4.16182        -14.2274         4.80135    -497.597E-03     334.196E-03    -160.987E-03    -173.210E-03    -173.009E-03     333.996E-03    -160.987E-03     19.8543E-03     67.0257E+06     52.0185E+06    -39.6887E+06    -39.6859E+06     52.0157E+06     67.0257E+06     330.147E+03         52.0921
            1044     10.2339E-03     12.4455E-03         4.87316         4.16511        -14.2837         4.16020        -14.2788         4.87316    -304.974E-03     333.172E-03    -159.919E-03    -173.253E-03    -173.170E-03     333.089E-03    -159.919E-03     12.3642E-03     57.1307E+06     11.5779E+06    -48.2797E+06    -48.2686E+06     11.5668E+06     57.1307E+06     688.130E+03         50.3703
            1045     9.39296E-03     12.4107E-03         4.95258         4.23265        -14.3866         4.19620        -14.3502         4.95258        -1.05920     331.398E-03    -158.656E-03    -172.742E-03    -172.724E-03     331.381E-03    -158.656E-03     4.46390E-03     42.7198E+06    -34.3917E+06    -57.9211E+06    -57.6981E+06    -34.6146E+06     42.7198E+06     1.03084E+06         49.0352
            1046     8.55135E-03     12.3866E-03         5.03446         4.38597        -14.5623         4.33531        -14.5116         5.03446    -402.785E-03     328.930E-03    -157.206E-03    -171.724E-03    -171.714E-03     328.920E-03    -157.206E-03    -2.79648E-03     28.3117E+06    -64.0653E+06    -76.5533E+06    -67.5204E+06    -73.0982E+06     28.3117E+06     1.77633E+06         48.0335
            1047     7.70904E-03     12.3649E-03         5.10956         4.58079        -14.7878         4.56493        -14.7719         5.10956     575.787E-03     325.202E-03    -155.599E-03    -169.604E-03    -169.552E-03     325.151E-03    -155.599E-03    -9.44999E-03     12.6796E+06    -77.4877E+06    -105.157E+06    -77.7021E+06    -104.943E+06     12.6796E+06     2.26201E+06         47.2799
            1048     6.86352E-03     12.3492E-03         5.18078         4.66449        -14.9362         4.63899        -14.9107         5.18078     805.687E-03     320.610E-03    -153.907E-03    -166.703E-03    -166.578E-03     320.485E-03    -153.907E-03    -15.2771E-03    -4.93786E+06    -88.1836E+06    -134.706E+06    -88.3247E+06    -134.564E+06    -4.93786E+06     2.29080E+06         46.6924
            1049     6.01625E-03     12.3392E-03         5.27273         4.53866        -14.9201         4.51415        -14.8955         5.27273     993.742E-03     315.534E-03    -152.198E-03    -163.336E-03    -163.137E-03     315.335E-03    -152.198E-03    -19.3755E-03    -24.5379E+06    -99.6433E+06    -164.155E+06    -99.7385E+06    -164.060E+06    -24.5379E+06     2.13865E+06         46.2107
            1050     5.16550E-03     12.3342E-03         5.40150         4.54281        -15.0639         4.52125        -15.0423         5.40150     936.216E-03     310.097E-03    -150.538E-03    -159.559E-03    -159.310E-03     309.848E-03    -150.538E-03    -21.5810E-03    -46.2204E+06    -111.304E+06    -193.119E+06    -111.357E+06    -193.066E+06    -46.2204E+06     2.01576E+06         45.7988
            1051     4.31124E-03     12.3320E-03         5.54741         4.84500        -15.4954         4.81906        -15.4695         5.54741         1.34220     304.712E-03    -149.009E-03    -155.702E-03    -155.440E-03     304.449E-03    -149.009E-03    -21.9665E-03    -69.4889E+06    -122.338E+06    -221.514E+06    -122.375E+06    -221.477E+06    -69.4889E+06     1.81061E+06         45.4414
            1052     3.45337E-03     12.3339E-03         5.68264         5.22593        -15.9739         5.17551        -15.9235         5.68264         1.82013     299.837E-03    -147.683E-03    -152.154E-03    -151.923E-03     299.606E-03    -147.683E-03    -20.3855E-03    -93.4603E+06    -132.901E+06    -249.292E+06    -132.919E+06    -249.273E+06    -93.4603E+06     1.36270E+06         45.1359
            1053     2.59261E-03     12.3351E-03         5.82423         5.52457        -16.3872         5.36391        -16.2231         5.82076         3.67726     295.803E-03    -146.602E-03    -149.200E-03    -149.034E-03     295.637E-03    -146.602E-03    -17.0592E-03    -116.306E+06    -141.947E+06    -272.965E+06    -141.957E+06    -272.954E+06    -116.306E+06     921.451E+03         44.8868
            1054     1.72985E-03     12.3378E-03         5.99310         5.75084        -16.8101         5.61304        -16.6688         5.98962         3.26460     292.803E-03    -145.789E-03    -147.015E-03    -146.924E-03     292.712E-03    -145.789E-03    -12.3741E-03    -136.145E+06    -148.748E+06    -292.417E+06    -148.754E+06    -292.411E+06    -136.145E+06     480.391E+03         44.7008
            1055     865.293E-06     12.3388E-03         6.28335         5.98134        -17.3812         6.07470        -17.2825         6.09128         2.87335     290.876E-03    -145.154E-03    -145.722E-03    -145.689E-03     290.843E-03    -145.154E-03    -7.11470E-03    -149.873E+06    -153.465E+06    -307.939E+06    -153.384E+06    -307.933E+06    -149.959E+06    -245.288E+03         44.5828
            1056     14.4495E-03     11.3045E-03         5.12544         4.10755        -14.7227         4.09235        -14.7075         5.12544        -1.01879     333.622E-03    -163.590E-03    -170.033E-03    -169.091E-03     332.681E-03    -163.590E-03     42.2853E-03     142.573E+06     109.252E+06    -8.77164E+06    -8.76967E+06     109.250E+06     142.573E+06     346.333E+03         60.9736
            1057     13.6062E-03     11.2316E-03         5.20557         4.38723        -15.0952         4.37172        -15.0796         5.20557        -1.05410     334.755E-03    -162.987E-03    -171.768E-03    -170.783E-03     333.770E-03    -162.987E-03     43.6982E-03     109.789E+06     92.7752E+06    -17.1242E+06    -17.1215E+06     92.7725E+06     109.789E+06     479.478E+03         58.9689
            1058     12.7630E-03     11.1778E-03         5.27998         4.54960        -15.3241         4.52246        -15.2970         5.27998        -1.34612     335.296E-03    -162.246E-03    -173.050E-03    -172.510E-03     334.757E-03    -162.246E-03     33.0447E-03     85.3653E+06     76.7488E+06    -24.6551E+06    -24.6519E+06     76.7457E+06     85.3653E+06     181.034E+03         56.6724
            1059     11.9224E-03     11.1287E-03         5.35632         4.52863        -15.3754         4.50489        -15.3516         5.35632    -893.919E-03     335.975E-03    -161.335E-03    -174.640E-03    -174.257E-03     335.592E-03    -161.335E-03     27.7322E-03      73.276E+06     69.7339E+06    -32.1757E+06    -32.1730E+06     69.7312E+06      73.276E+06    -178.041E+03         54.3568
            1060     11.0825E-03     11.0831E-03         5.44271         4.47714        -15.4060         4.47086        -15.3997         5.44271    -416.933E-03     336.344E-03    -160.204E-03    -176.140E-03    -175.936E-03     336.140E-03    -160.204E-03     19.9774E-03     66.5878E+06     51.5544E+06    -39.9756E+06    -39.9737E+06     51.5525E+06     66.5878E+06     29.7573E+03         52.2579
            1061     10.2457E-03     11.0469E-03         5.53405         4.61553        -15.6145         4.60629        -15.6052         5.53405    -145.560E-03     335.217E-03    -158.821E-03    -176.397E-03    -176.318E-03     335.138E-03    -158.821E-03     12.2607E-03     56.9312E+06     11.0178E+06    -48.2017E+06    -48.1349E+06     10.9510E+06     56.9312E+06     1.19841E+06         50.5094
            1062     9.40702E-03     11.0186E-03         5.62046         4.86245        -15.8993         4.83440        -15.8713         5.62046    -667.235E-03     332.904E-03    -157.185E-03    -175.718E-03    -175.699E-03     332.884E-03    -157.185E-03     4.65460E-03     42.5756E+06    -34.1407E+06    -58.4061E+06    -57.7072E+06    -34.8397E+06     42.5756E+06     2.60184E+06         49.1365
            1063     8.56800E-03     10.9945E-03         5.69847         5.07158        -16.1273         5.02572        -16.0814         5.69847    -65.7411E-03     329.668E-03    -155.315E-03    -174.354E-03    -174.340E-03     329.655E-03    -155.315E-03    -3.41376E-03     28.0152E+06     -63.638E+06    -76.7931E+06    -67.9203E+06    -72.5108E+06     28.0152E+06     3.02332E+06         48.0905
            1064     7.72800E-03     10.9808E-03         5.76761         5.24382        -16.3245         5.22271        -16.3034         5.76761     886.469E-03     324.774E-03    -153.262E-03    -171.512E-03    -171.455E-03     324.716E-03    -153.262E-03    -10.2308E-03     12.8420E+06    -77.8330E+06    -104.682E+06    -78.2652E+06    -104.250E+06     12.8420E+06     3.08927E+06         47.2901
            1065     6.88489E-03     10.9730E-03         5.82332         5.48195        -16.6036         5.45525        -16.5769         5.82332         1.03025     318.516E-03    -151.140E-03    -167.376E-03    -167.250E-03     318.390E-03    -151.140E-03    -15.3671E-03    -4.10343E+06    -89.0615E+06    -133.872E+06    -89.3543E+06    -133.579E+06    -4.10343E+06     3.56207E+06         46.6565
            1066     6.03685E-03     10.9715E-03         5.87753         5.57344        -16.7547         5.55326        -16.7261         5.86906         1.33705     311.845E-03    -149.047E-03    -162.798E-03    -162.606E-03     311.653E-03    -149.047E-03    -18.9665E-03    -23.2945E+06    -100.219E+06    -162.163E+06    -100.427E+06    -161.955E+06    -23.2945E+06     3.43208E+06         46.1310
            1067     5.18517E-03     10.9749E-03         5.94000         5.44231        -16.6854         5.43114        -16.6658         5.93153         1.12468     305.079E-03    -147.059E-03    -158.019E-03    -157.789E-03     304.848E-03    -147.059E-03    -20.5821E-03    -44.6335E+06    -111.652E+06    -191.144E+06    -111.745E+06    -191.051E+06    -44.6335E+06     2.52939E+06         45.6791
            1068     4.32884E-03     10.9824E-03         6.04382         5.33125        -16.6519         5.30694        -16.6276         6.04382         1.42036     298.650E-03    -145.240E-03    -153.410E-03    -153.178E-03     298.418E-03    -145.240E-03    -20.4013E-03    -67.4389E+06    -123.067E+06    -219.443E+06    -123.105E+06    -219.405E+06    -67.4389E+06     1.77726E+06         45.2859
            1069     3.46880E-03     10.9906E-03         6.21065         5.47332        -16.9229         5.43705        -16.8867         6.21065         1.69046     292.906E-03    -143.632E-03    -149.274E-03    -149.071E-03     292.703E-03    -143.632E-03    -18.7942E-03    -91.1006E+06    -133.330E+06    -246.752E+06    -133.346E+06    -246.736E+06    -91.1006E+06     998.566E+03         44.9496
            1070     2.60529E-03     10.9996E-03         6.40790         5.94714        -17.5706         5.79207        -17.4142         6.40652         3.61380     287.947E-03    -142.276E-03    -145.671E-03    -145.526E-03     287.803E-03    -142.276E-03    -15.6381E-03    -115.056E+06    -142.848E+06    -271.414E+06    -142.852E+06    -271.410E+06    -115.056E+06     61.1109E+03         44.6753
            1071     1.73838E-03     11.0059E-03         6.63500         6.35924        -18.1996         6.27847        -18.0667         6.58289         2.90899     284.096E-03    -141.226E-03    -142.869E-03    -142.790E-03     284.016E-03    -141.226E-03    -11.3918E-03    -135.716E+06    -150.093E+06    -291.151E+06    -150.101E+06    -291.143E+06    -135.716E+06    -520.202E+03         44.4704
            1072     870.003E-06     11.0107E-03         6.95515         6.53022        -18.6886         6.69155        -18.5198         6.62503         3.28508     281.541E-03    -140.414E-03    -141.127E-03    -141.098E-03     281.511E-03    -140.414E-03    -6.62891E-03    -150.382E+06    -154.922E+06    -308.559E+06    -154.719E+06    -308.547E+06    -150.597E+06    -777.374E+03         44.3403
            1073     14.4517E-03     9.91119E-03         5.63296         4.23827        -15.6504         4.22644        -15.6385         5.63296    -879.860E-03     335.313E-03    -163.490E-03    -171.824E-03    -170.837E-03     334.327E-03    -163.490E-03     43.0072E-03     142.778E+06     109.012E+06    -8.83410E+06    -8.83387E+06     109.012E+06     142.778E+06     110.203E+03         61.1290
            1074     13.6078E-03     9.83145E-03         5.73647         4.42946        -15.9330         4.41742        -15.9210         5.73647    -820.257E-03     336.380E-03    -162.774E-03    -173.606E-03    -172.546E-03     335.320E-03    -162.774E-03     45.3642E-03     110.268E+06     92.6899E+06    -16.9889E+06    -16.9878E+06     92.6888E+06     110.268E+06     33.2738E+03         59.1278
            1075     12.7679E-03     9.78008E-03         5.84097         4.58345        -16.1691         4.56221        -16.1479         5.84097        -1.06324     337.012E-03    -161.894E-03    -175.118E-03    -174.547E-03     336.441E-03    -161.894E-03     34.1628E-03     85.9723E+06     76.9900E+06    -24.2525E+06    -24.2504E+06     76.9880E+06     85.9723E+06     105.845E+03         56.8302
            1076     11.9281E-03     9.72687E-03         5.94389         4.79388        -16.4634         4.77225        -16.4417         5.94389    -610.356E-03     337.762E-03    -160.802E-03    -176.960E-03    -176.540E-03     337.342E-03    -160.802E-03     29.1221E-03     73.8516E+06     70.5109E+06    -31.2434E+06    -31.2419E+06     70.5094E+06     73.8516E+06     3.74797E+03         54.5040
            1077     11.0923E-03     9.68125E-03         6.04064         5.04572        -16.7943         5.03830        -16.7868         6.04064    -200.449E-03     337.400E-03    -159.476E-03    -177.924E-03    -177.701E-03     337.177E-03    -159.476E-03     20.9659E-03     66.4937E+06     50.2274E+06    -39.0844E+06    -39.0572E+06     50.2002E+06     66.4937E+06     621.246E+03         52.3825
            1078     10.2542E-03     9.64790E-03         6.12717         5.29013        -17.0948         5.27918        -17.0839         6.12717     29.1825E-03     336.242E-03    -157.880E-03    -178.362E-03    -178.273E-03     336.153E-03    -157.880E-03     13.0235E-03     56.1893E+06     8.61454E+06    -48.7946E+06    -48.5896E+06     8.40952E+06     56.1893E+06     2.55206E+06         50.6017
            1079     9.41877E-03     9.62057E-03         6.20423         5.50272        -17.3324         5.47968        -17.3094         6.20423    -386.436E-03     333.601E-03    -155.993E-03    -177.608E-03    -177.585E-03     333.578E-03    -155.993E-03     5.56843E-03     43.2175E+06    -33.6581E+06    -59.2662E+06    -58.1811E+06    -34.7432E+06     43.2175E+06     3.92686E+06         49.1929
            1080     8.58208E-03     9.60409E-03         6.27452         5.66351        -17.5071         5.62750        -17.4711         6.27452     29.5822E-03     328.601E-03    -153.904E-03    -174.698E-03    -174.690E-03     328.593E-03    -153.904E-03    -1.24578E-03     29.6855E+06    -62.7299E+06    -76.6814E+06    -68.1544E+06    -71.2568E+06     29.6855E+06     4.29608E+06         48.1120
            1081     7.74162E-03     9.59696E-03         6.34002         5.78654        -17.6507         5.76751        -17.6317         6.34002     803.583E-03     322.507E-03    -151.726E-03    -170.781E-03    -170.754E-03     322.480E-03    -151.726E-03    -5.84376E-03     14.8688E+06     -78.013E+06    -103.862E+06    -78.9236E+06    -102.951E+06     14.8688E+06     4.25398E+06         47.2823
            1082     6.89746E-03     9.60025E-03         6.39570         6.00362        -17.8989         5.98604        -17.8813         6.39570     752.641E-03     315.947E-03    -149.523E-03    -166.424E-03    -166.368E-03     315.891E-03    -149.523E-03    -9.08483E-03    -1.22878E+06    -89.2877E+06    -132.556E+06    -89.6356E+06    -132.208E+06    -1.22878E+06     3.63997E+06         46.6276
            1083     6.04933E-03     9.60843E-03         6.43797         6.26835        -18.1964         6.25742        -18.1770         6.42950         1.16392     308.753E-03    -147.369E-03    -161.384E-03    -161.294E-03     308.662E-03    -147.369E-03    -11.7963E-03    -19.2611E+06    -100.323E+06    -160.029E+06    -100.487E+06    -159.865E+06    -19.2611E+06     2.93459E+06         46.0892
            1084     5.19557E-03     9.62311E-03         6.46085         6.32308        -18.2625         6.32315        -18.2479         6.44617         1.05670     301.663E-03    -145.351E-03    -156.313E-03    -156.200E-03     301.550E-03    -145.351E-03    -13.3435E-03    -39.5613E+06    -111.129E+06    -188.369E+06    -111.206E+06    -188.292E+06    -39.5613E+06     1.94934E+06         45.6307
            1085     4.33774E-03     9.63884E-03         6.49242         6.13332        -18.0760         6.12098        -18.0574         6.48621         1.30176     295.122E-03    -143.518E-03    -151.604E-03    -151.490E-03     295.008E-03    -143.518E-03    -13.4310E-03    -62.1268E+06    -121.546E+06    -216.977E+06    -121.568E+06    -216.955E+06    -62.1268E+06     668.337E+03         45.2352
            1086     3.47594E-03     9.65598E-03         6.58496         6.05869        -18.0528         6.03903        -18.0331         6.58496         1.29974     289.387E-03    -141.891E-03    -147.496E-03    -147.398E-03     289.289E-03    -141.891E-03    -12.2990E-03    -86.7767E+06    -132.076E+06    -245.085E+06    -132.083E+06    -245.079E+06    -86.7767E+06    -338.107E+03         44.8991
            1087     2.61049E-03     9.67147E-03         6.72849         6.44505        -18.5408         6.33705        -18.4160         6.71164         3.13490     284.518E-03    -140.477E-03    -144.040E-03    -143.969E-03     284.446E-03    -140.477E-03    -10.4434E-03    -111.707E+06    -141.036E+06    -269.931E+06    -141.058E+06    -269.909E+06    -111.707E+06    -1.28339E+06         44.6261
            1088     1.74271E-03     9.68390E-03         6.85337         6.78222        -18.9834         6.74130        -18.8713         6.78222         2.32224     280.430E-03    -139.345E-03    -141.085E-03    -141.044E-03     280.389E-03    -139.345E-03    -7.78636E-03    -134.408E+06    -148.398E+06    -291.619E+06    -148.431E+06    -291.586E+06    -134.408E+06    -1.91627E+06         44.4225
            1089     871.762E-06     9.69245E-03         7.09926         6.73758        -19.1803         6.84482        -18.9259         6.73758         3.58379     277.709E-03    -138.545E-03    -139.164E-03    -139.148E-03     277.694E-03    -138.545E-03    -4.59703E-03    -148.705E+06    -153.076E+06    -311.278E+06    -152.884E+06    -311.255E+06    -148.920E+06    -1.62555E+06         44.2934
            1090     14.4519E-03     8.51080E-03         6.07763         4.34048        -16.4926         4.33179        -16.4839         6.07763    -675.489E-03     336.766E-03    -163.375E-03    -173.391E-03    -172.416E-03     335.791E-03    -163.375E-03     42.3211E-03     143.946E+06     109.372E+06    -8.57302E+06    -8.57224E+06     109.371E+06     143.946E+06    -113.330E+03         61.2632
            1091     13.6122E-03     8.43285E-03         6.19984         4.51593        -16.7379         4.50716        -16.7291         6.19984    -474.443E-03     337.843E-03    -162.552E-03    -175.290E-03    -174.194E-03     336.746E-03    -162.552E-03     46.3011E-03     111.540E+06     92.9520E+06    -16.7883E+06    -16.7872E+06     92.9509E+06     111.540E+06    -248.717E+03         59.2558
            1092     12.7713E-03     8.37782E-03         6.32236         4.75967        -17.0578         4.74904        -17.0472         6.32236    -550.255E-03     338.664E-03    -161.533E-03    -177.131E-03    -176.535E-03     338.068E-03    -161.533E-03     35.0229E-03     86.6060E+06     76.7949E+06    -24.0774E+06    -24.0741E+06     76.7917E+06     86.6060E+06    -519.953E+03         56.9437
            1093     11.9356E-03     8.32280E-03         6.43860         5.06583        -17.4425         5.04972        -17.4264         6.43860    -149.796E-03     338.858E-03    -160.286E-03    -178.572E-03    -178.139E-03     338.425E-03    -160.286E-03     29.6340E-03     73.6772E+06     69.4204E+06    -31.7556E+06    -31.7235E+06     69.3883E+06     73.6772E+06     608.828E+03         54.5921
            1094     11.0974E-03     8.28028E-03         6.54411         5.40498        -17.8530         5.39684        -17.8449         6.54411     218.001E-03     337.835E-03    -158.820E-03    -179.014E-03    -178.795E-03     337.615E-03    -158.820E-03     20.6956E-03     66.3195E+06     48.0408E+06    -40.7897E+06    -40.6878E+06     47.9389E+06     66.3195E+06     2.52295E+06         52.4357
            1095     10.2630E-03     8.24594E-03         6.63702         5.68484        -18.1858         5.67628        -18.1772         6.63702     259.024E-03     335.186E-03    -157.144E-03    -178.042E-03    -177.951E-03     335.095E-03    -157.144E-03     13.3200E-03     57.6269E+06     7.48142E+06    -49.8016E+06    -49.5490E+06     7.22890E+06     57.6269E+06     3.49328E+06         50.6164
            1096     9.42697E-03     8.22368E-03         6.72328         5.84599        -18.3875         5.82502        -18.3665         6.72328    -285.884E-03     330.363E-03    -155.328E-03    -175.035E-03    -174.994E-03     330.322E-03    -155.328E-03     8.42730E-03     46.2906E+06    -33.5229E+06    -59.7439E+06    -58.5058E+06    -34.7610E+06     46.2906E+06     4.19214E+06         49.1736
            1097     8.58747E-03     8.21613E-03         6.80663         6.01187        -18.5838         5.98707        -18.5590         6.80663    -143.650E-03     324.331E-03    -153.497E-03    -170.833E-03    -170.801E-03     324.298E-03    -153.497E-03     5.87580E-03     34.2755E+06    -62.2189E+06    -75.7218E+06    -68.0246E+06    -69.9162E+06     34.2755E+06     4.45305E+06         48.0716
            1098     7.74323E-03     8.22024E-03         6.88180         6.24280        -18.8412         6.23182        -18.8302         6.88180     503.030E-03     318.662E-03    -151.694E-03    -166.968E-03    -166.928E-03     318.622E-03    -151.694E-03     5.20778E-03     21.0190E+06    -76.7420E+06    -101.385E+06    -77.5775E+06    -100.550E+06     21.0190E+06     3.43884E+06         47.2385
            1099     6.89599E-03     8.22939E-03         6.94646         6.41643        -19.0469         6.40958        -19.0401         6.94646     356.672E-03     313.262E-03    -149.896E-03    -163.367E-03    -163.331E-03     313.227E-03    -149.896E-03     3.21819E-03     6.18766E+06    -86.8575E+06    -129.932E+06    -87.0348E+06    -129.755E+06     6.18766E+06     1.81224E+06         46.5979
            1100     6.04517E-03     8.25027E-03         7.00385         6.56230        -19.2318         6.55592        -19.2254         7.00385     586.693E-03     307.461E-03    -148.119E-03    -159.342E-03    -159.311E-03     307.430E-03    -148.119E-03     1.10248E-03    -11.0110E+06    -96.6481E+06    -157.261E+06    -96.7340E+06    -157.175E+06    -11.0110E+06     44.5186E+03         46.0875
            1101     5.19092E-03     8.27254E-03         7.05488         6.85139        -19.5519         6.86091        -19.5468         7.04025     505.099E-03     301.641E-03    -146.428E-03    -155.213E-03    -155.181E-03     301.609E-03    -146.428E-03    -333.793E-06    -31.4846E+06    -106.122E+06    -186.285E+06    -106.235E+06    -186.172E+06    -31.4846E+06    -1.63675E+06         45.6654
            1102     4.33270E-03     8.29878E-03         7.17166         6.99668        -19.7824         7.12395        -19.7728         7.03485     972.496E-03     296.219E-03    -144.871E-03    -151.349E-03    -151.320E-03     296.191E-03    -144.871E-03    -1.65260E-03    -55.6284E+06    -115.792E+06    -216.483E+06    -115.880E+06    -216.395E+06    -55.6284E+06    -2.29438E+06         45.3096
            1103     3.47037E-03     8.32269E-03         7.22383         6.89926        -19.6912         7.11400        -19.6837         7.00162     820.569E-03     291.366E-03    -143.488E-03    -147.878E-03    -147.857E-03     291.345E-03    -143.488E-03    -2.28744E-03    -81.8364E+06    -125.165E+06    -244.952E+06    -125.238E+06    -244.879E+06    -81.8364E+06    -2.55312E+06         45.0118
            1104     2.60623E-03     8.34383E-03         7.12264         6.91963        -19.5597         6.96107        -19.4623         6.98382         2.55352     287.326E-03    -142.314E-03    -145.012E-03    -144.997E-03     287.311E-03    -142.314E-03    -2.51819E-03    -107.321E+06    -133.869E+06    -270.664E+06    -133.937E+06    -270.596E+06    -107.321E+06    -2.78213E+06         44.7721
            1105     1.73887E-03     8.36275E-03         7.04912         6.97106        -19.5205         6.91038        -19.4175         7.00676         1.65573     284.150E-03    -141.368E-03    -142.782E-03    -142.772E-03     284.140E-03    -141.368E-03    -2.28723E-03    -129.550E+06    -141.107E+06    -294.075E+06    -141.142E+06    -294.040E+06    -129.550E+06    -2.15986E+06         44.5941
            1106     870.194E-06     8.37406E-03         7.46872         6.95049        -19.9241         7.06874        -19.5598         6.98618         3.83081     281.868E-03    -140.676E-03    -141.193E-03    -141.189E-03     281.865E-03    -140.676E-03    -1.66976E-03    -142.916E+06    -146.198E+06    -314.703E+06    -145.768E+06    -314.685E+06    -143.363E+06    -1.33377E+06         44.4815
            1107     14.4569E-03     7.11425E-03         6.47575         4.59691        -17.3433         4.58887        -17.3353         6.47575    -608.955E-03     338.827E-03    -163.220E-03    -175.607E-03    -174.656E-03     337.876E-03    -163.220E-03     41.3520E-03     145.143E+06     109.894E+06    -8.64365E+06    -8.63579E+06     109.886E+06     145.143E+06    -714.069E+03         61.3675
            1108     13.6135E-03     7.03035E-03         6.60261         4.83742        -17.6480         4.82891        -17.6395         6.60261    -484.398E-03     339.480E-03    -162.256E-03    -177.225E-03    -176.127E-03     338.382E-03    -162.256E-03     46.3249E-03     112.507E+06     93.0323E+06    -16.6052E+06    -16.5968E+06     93.0238E+06     112.507E+06    -741.427E+03         59.3444
            1109     12.7783E-03     6.97244E-03         6.72708         5.12594        -18.0037         5.11488        -17.9927         6.72708    -587.771E-03     340.260E-03    -161.081E-03    -179.179E-03    -178.622E-03     339.703E-03    -161.081E-03     33.9105E-03     86.7539E+06     75.0551E+06    -24.8132E+06    -24.7575E+06     74.9994E+06     86.7539E+06     590.893E+03         57.0035
            1110     11.9401E-03     6.92060E-03         6.84531         5.38934        -18.3346         5.37428        -18.3196         6.84531    -293.050E-03     339.554E-03    -159.682E-03    -179.872E-03    -179.523E-03     339.205E-03    -159.682E-03     25.7710E-03     74.7897E+06     67.2236E+06    -33.3245E+06    -33.2398E+06     67.1389E+06     74.7897E+06     1.95170E+06         54.6115
            1111     11.1070E-03     6.87458E-03         6.96033         5.57370        -18.5929         5.56715        -18.5864         6.96033     109.874E-03     334.974E-03    -158.210E-03    -176.764E-03    -176.606E-03     334.816E-03    -158.210E-03     17.3454E-03     70.4923E+06     47.3523E+06    -40.9566E+06    -40.8692E+06     47.2648E+06     70.4923E+06     2.42479E+06         52.4070
            1112     10.2695E-03     6.84969E-03         7.07266         5.80378        -18.8980         5.79668        -18.8909         7.07266     197.670E-03     328.571E-03    -156.840E-03    -171.731E-03    -171.599E-03     328.439E-03    -156.840E-03     15.8459E-03     63.1890E+06     7.31814E+06    -49.1525E+06    -48.9608E+06     7.12641E+06     63.1890E+06     2.99236E+06         50.5415
            1113     9.42643E-03     6.83518E-03         7.17861         6.08530        -19.2403         6.07198        -19.2270         7.17861    -106.240E-03     322.436E-03    -155.658E-03    -166.778E-03    -166.618E-03     322.276E-03    -155.658E-03     16.5135E-03     52.7838E+06    -33.3453E+06    -58.3835E+06    -57.6770E+06    -34.0518E+06     52.7838E+06     2.84085E+06         49.0697
            1114     8.57793E-03     6.83929E-03         7.27671         6.32581        -19.5270         6.30931        -19.5105         7.27671     51.0538E-03     318.153E-03    -154.632E-03    -163.521E-03    -163.306E-03     317.937E-03    -154.632E-03     18.6338E-03     42.5370E+06    -60.4388E+06    -72.6192E+06    -65.7920E+06    -67.2660E+06     42.5370E+06     1.16662E+06         47.9671
            1115     7.72799E-03     6.84640E-03         7.36943         6.52204        -19.7687         6.51342        -19.7600         7.36943     582.447E-03     315.259E-03    -153.639E-03    -161.620E-03    -161.392E-03     315.031E-03    -153.639E-03     19.4727E-03     30.5419E+06    -72.2400E+06    -97.8980E+06    -72.9429E+06    -97.1950E+06     30.5419E+06    -1.40571E+06         47.1635
            1116     6.87640E-03     6.86491E-03         7.45736         6.72063        -20.0188         6.71467        -20.0128         7.45736     476.164E-03     311.983E-03    -152.633E-03    -159.350E-03    -159.165E-03     311.798E-03    -152.633E-03     17.3389E-03     15.1980E+06    -79.3545E+06    -127.454E+06    -79.9682E+06    -126.840E+06     15.1980E+06    -3.81282E+06         46.5771
            1117     6.02302E-03     6.88988E-03         7.54035         6.91219        -20.2675         6.90582        -20.2612         7.54035     651.198E-03     308.796E-03    -151.629E-03    -157.167E-03    -157.014E-03     308.643E-03    -151.629E-03     15.4315E-03    -4.00205E+06    -86.4935E+06    -155.718E+06    -87.2192E+06    -154.993E+06    -4.00205E+06    -6.02509E+06         46.1376
            1118     5.16771E-03     6.92122E-03         7.61782         7.19225        -20.6074         7.19886        -20.6056         7.60939     334.125E-03     305.842E-03    -150.634E-03    -155.208E-03    -155.088E-03     305.722E-03    -150.634E-03     13.5196E-03    -27.0583E+06    -94.5200E+06    -188.257E+06    -95.0948E+06    -187.682E+06    -27.0583E+06    -6.81397E+06         45.7956
            1119     4.31041E-03     6.95183E-03         7.80141         7.50371        -21.0731         7.67105        -21.0667         7.62761     791.367E-03     302.885E-03    -149.656E-03    -153.229E-03    -153.141E-03     302.797E-03    -149.656E-03     11.1920E-03    -52.6726E+06    -103.097E+06    -219.808E+06    -103.394E+06    -219.511E+06    -52.6726E+06    -5.64795E+06         45.5211
            1120     3.45240E-03     6.98254E-03         7.92339         7.56711        -21.2175         7.91679        -21.2109         7.56711     796.766E-03     300.002E-03    -148.744E-03    -151.258E-03    -151.201E-03     299.945E-03    -148.744E-03     8.58940E-03    -78.5383E+06    -111.555E+06    -247.645E+06    -111.695E+06    -247.505E+06    -78.5383E+06    -4.08798E+06         45.2990
            1121     2.59018E-03     7.00905E-03         7.82049         7.47085        -20.9722         7.71417        -20.8658         7.47085         2.67557     297.449E-03    -147.968E-03    -149.481E-03    -149.453E-03     297.422E-03    -147.968E-03     5.68006E-03    -101.955E+06    -119.869E+06    -274.418E+06    -119.924E+06    -274.364E+06    -101.955E+06    -2.14117E+06         45.1239
            1122     1.72791E-03     7.02961E-03         7.63401         7.36961        -20.6273         7.46711        -20.4961         7.40530         1.25826     295.511E-03    -147.365E-03    -148.146E-03    -148.138E-03     295.503E-03    -147.365E-03     2.82044E-03    -119.420E+06    -127.020E+06    -297.631E+06    -127.036E+06    -297.615E+06    -119.420E+06    -233.124E+03         44.9952
            1123     864.353E-06     7.04533E-03         7.99565         7.31388        -20.8801         7.41806        -20.3382         7.34958         4.24647     294.136E-03    -146.812E-03    -147.324E-03    -147.107E-03     294.134E-03    -147.027E-03     1.22628E-03    -129.597E+06    -132.143E+06    -315.279E+06    -131.631E+06    -315.261E+06    -130.126E+06     982.514E+03         44.9141
            1124     14.4561E-03     5.71023E-03         6.83437         4.78053        -17.9700         4.77054        -17.9600         6.83437    -724.440E-03     341.023E-03    -163.123E-03    -177.901E-03    -176.786E-03     339.908E-03    -163.123E-03     43.6173E-03     146.215E+06     110.311E+06    -8.86113E+06    -8.85195E+06     110.302E+06     146.215E+06    -924.856E+03         61.4481
            1125     13.6232E-03     5.62510E-03         6.96716         5.12287        -18.4047         5.11265        -18.3945         6.96716    -752.050E-03     342.872E-03    -161.981E-03    -180.891E-03    -179.563E-03     341.544E-03    -161.981E-03     50.8539E-03     112.210E+06     91.7233E+06    -18.6998E+06    -18.6859E+06     91.7094E+06     112.210E+06    -447.853E+03         59.4032
            1126     12.7835E-03     5.56945E-03         7.09614         5.39700        -18.7589         5.38296        -18.7449         7.09614    -895.038E-03     342.493E-03    -160.598E-03    -181.895E-03    -181.291E-03     341.888E-03    -160.598E-03     35.3567E-03     88.0889E+06     73.3651E+06    -26.5747E+06    -26.4814E+06     73.2718E+06     88.0889E+06     374.010E+03         57.0264
            1127     11.9546E-03     5.50688E-03         7.22075         5.62811        -19.0672         5.61391        -19.0530         7.22075    -681.385E-03     336.822E-03    -159.162E-03    -177.660E-03    -177.321E-03     336.483E-03    -159.162E-03     25.2095E-03     79.7202E+06     67.0097E+06    -32.1063E+06    -32.0160E+06     66.9195E+06     79.7202E+06     592.794E+03         54.5840
            1128     11.1152E-03     5.48510E-03         7.34093         5.87879        -19.3926         5.87588        -19.3896         7.34093    -209.637E-03     327.060E-03    -158.041E-03    -169.018E-03    -168.791E-03     326.832E-03    -158.041E-03     20.2820E-03     76.2636E+06     46.2254E+06    -39.6110E+06    -39.5590E+06     46.1734E+06     76.2636E+06     1.65833E+06         52.3213
            1129     10.2645E-03     5.46510E-03         7.45411         6.17591        -19.7619         6.17163        -19.7576         7.45411    -80.5137E-03     318.553E-03    -155.924E-03    -162.629E-03    -160.855E-03     318.279E-03    -157.424E-03     22.4501E-03     69.3721E+06     8.48311E+06    -48.3461E+06    -48.1965E+06      8.3335E+06     69.3721E+06     1.57529E+06         50.4105
            1130     9.40930E-03     5.46495E-03         7.55944         6.44805        -20.0975         6.44293        -20.0924         7.55944    -151.832E-03     313.769E-03    -153.899E-03    -159.870E-03    -156.184E-03     313.421E-03    -157.236E-03     25.1528E-03     59.0589E+06    -28.0164E+06    -56.4416E+06    -55.0565E+06    -29.4014E+06     59.0589E+06    -1.77061E+06         48.9257
            1131     8.55239E-03     5.46838E-03         7.66068         6.64908        -20.3573         6.63882        -20.3471         7.66068     178.331E-03     312.939E-03    -153.803E-03    -159.135E-03    -155.192E-03     312.454E-03    -157.262E-03     29.8047E-03     47.1020E+06    -52.2246E+06    -71.0617E+06    -60.3953E+06    -62.8911E+06     47.1020E+06    -6.47760E+06         47.8494
            1132     7.69729E-03     5.47751E-03         7.76245         6.81485        -20.5805         6.80771        -20.5734         7.76245     692.739E-03     313.267E-03    -154.120E-03    -159.147E-03    -155.489E-03     312.785E-03    -157.297E-03     29.8111E-03     31.7810E+06    -61.0574E+06    -98.3368E+06    -64.9674E+06    -94.4267E+06     31.7810E+06    -10.3174E+06         47.1073
            1133     6.84213E-03     5.49967E-03         7.86126         7.06046        -20.8827         7.05512        -20.8774         7.86126     626.870E-03     313.031E-03    -154.366E-03    -158.665E-03    -155.319E-03     312.621E-03    -157.302E-03     27.4905E-03     12.1181E+06    -66.7987E+06    -129.107E+06    -69.6079E+06    -126.298E+06     12.1181E+06    -12.4275E+06         46.6091
            1134     5.98596E-03     5.52772E-03         7.94945         7.33793        -21.2184         7.33119        -21.2117         7.94945     833.752E-03     313.147E-03    -154.800E-03    -158.347E-03    -155.494E-03     312.790E-03    -157.296E-03     25.6270E-03    -10.6310E+06    -73.1501E+06    -159.755E+06    -75.0525E+06    -157.853E+06    -10.6310E+06    -12.2857E+06         46.2749
            1135     5.13086E-03     5.55953E-03         8.03237         7.47973        -21.4254         7.47785        -21.4235         8.03237     427.566E-03     313.639E-03    -155.366E-03    -158.273E-03    -156.102E-03     313.353E-03    -157.250E-03     22.9415E-03    -34.2455E+06    -81.1523E+06    -195.454E+06    -82.1001E+06    -194.507E+06    -34.2455E+06    -9.90777E+06         46.0459
            1136     4.27649E-03     5.59360E-03         8.16370         7.57750        -21.6431         7.61435        -21.6367         8.12051     722.620E-03     313.851E-03    -155.840E-03    -158.011E-03    -156.507E-03     313.638E-03    -157.131E-03     19.8060E-03    -56.8383E+06    -89.4549E+06    -227.149E+06    -89.8016E+06    -226.802E+06    -56.8383E+06    -6.38511E+06         45.8833
            1137     3.42070E-03     5.62573E-03         8.33534         7.74355        -21.9528         7.87045        -21.9456         8.20127     715.457E-03     313.844E-03    -156.160E-03    -157.684E-03    -156.747E-03     313.699E-03    -156.952E-03     16.2975E-03    -77.4207E+06    -97.3044E+06    -254.356E+06    -97.3948E+06    -254.266E+06    -77.4207E+06    -2.41669E+06         45.7644
            1138     2.56762E-03     5.65450E-03         8.50936         8.03277        -22.3588         8.21992        -22.2661         8.22959         2.47532     313.588E-03    -156.312E-03    -157.276E-03    -156.756E-03     313.503E-03    -156.747E-03     12.1673E-03    -94.1912E+06    -104.247E+06    -279.397E+06    -104.296E+06    -279.348E+06    -94.1912E+06     1.28069E+06         45.6769
            1139     1.71203E-03     5.67776E-03         8.46898         8.17352        -22.3901         8.33986        -22.2610         8.17352     844.034E-03     313.132E-03    -156.340E-03    -156.792E-03    -156.508E-03     313.094E-03    -156.586E-03     7.71819E-03    -105.604E+06    -109.601E+06    -298.748E+06    -109.684E+06    -298.665E+06    -105.604E+06     3.36778E+06         45.6152
            1140     855.952E-06     5.69401E-03         8.73083         8.11783        -22.5252         8.11729        -21.9117         8.11783         4.43963     312.963E-03    -156.074E-03    -156.889E-03    -156.582E-03     312.952E-03    -156.371E-03     3.56776E-03    -112.271E+06    -113.652E+06    -310.598E+06    -113.635E+06    -310.534E+06    -112.353E+06     3.29041E+06         45.5772
            1141     14.4577E-03     4.30765E-03         7.13463         4.79652        -18.3244         4.78682        -18.3147         7.13463    -726.433E-03     344.496E-03    -163.134E-03    -181.362E-03    -180.131E-03     343.265E-03    -163.134E-03     46.7674E-03     146.133E+06     109.346E+06    -10.8824E+06    -10.8457E+06     109.309E+06     146.133E+06     616.484E+03         61.5640
            1142     13.6162E-03     4.21371E-03         7.28015         5.17095        -18.8319         5.16098        -18.8219         7.28015    -786.884E-03     345.878E-03    -161.803E-03    -184.075E-03    -182.708E-03     344.511E-03    -161.803E-03     51.2933E-03     114.144E+06     92.6939E+06    -20.4843E+06    -20.4287E+06     92.6382E+06     114.144E+06     549.924E+03         59.5022
            1143     12.7936E-03     4.15153E-03         7.42009         5.50730        -19.2823         5.49766        -19.2727         7.42009    -771.146E-03     338.474E-03    -160.439E-03    -178.035E-03    -177.324E-03     337.764E-03    -160.439E-03     37.6494E-03     90.5926E+06     75.7627E+06    -26.8392E+06    -26.7683E+06     75.6918E+06     90.5926E+06    -1.83261E+06         57.0867
            1144     11.9528E-03     4.11330E-03         7.55352         5.79574        -19.6628         5.78635        -19.6534         7.55352    -628.286E-03     327.833E-03    -159.161E-03    -168.672E-03    -167.751E-03     327.201E-03    -159.450E-03     34.4090E-03     74.8209E+06     63.8464E+06    -34.5630E+06    -34.5086E+06     63.7920E+06     74.8209E+06    -1.14681E+06         54.5844
            1145     11.1022E-03     4.10380E-03         7.67987         6.12480        -20.0671         6.12225        -20.0645         7.67987    -330.060E-03     319.118E-03    -157.166E-03    -161.951E-03    -159.496E-03     318.544E-03    -159.048E-03     32.1880E-03     68.1364E+06     45.2501E+06    -42.4062E+06    -42.3067E+06     45.1507E+06     68.1364E+06     119.962E+03         52.2675
            1146     10.2472E-03     4.09862E-03         7.79688         6.46366        -20.4684         6.46056        -20.4653         7.79688    -412.750E-03     312.970E-03    -153.399E-03    -159.571E-03    -153.200E-03     312.391E-03    -159.191E-03     32.1771E-03     60.5794E+06     15.0060E+06    -49.0420E+06    -48.3621E+06     14.3261E+06     60.5794E+06    -3.56429E+06         50.3330
            1147     9.38456E-03     4.10372E-03         7.90794         6.71069        -20.7868         6.70373        -20.7799         7.90794    -640.283E-03     310.131E-03    -150.358E-03    -159.773E-03    -149.768E-03     309.541E-03    -159.773E-03     32.4663E-03     46.3425E+06    -16.9701E+06    -57.3487E+06    -52.3872E+06    -21.9316E+06     46.3425E+06    -10.0350E+06         48.8629
            1148     8.52188E-03     4.10338E-03         8.01521         6.97718        -21.1240         6.96888        -21.1157         8.01521    -374.167E-03     310.737E-03    -150.087E-03    -160.649E-03    -149.429E-03     310.078E-03    -160.649E-03     34.7047E-03     29.3761E+06    -38.9289E+06    -74.3753E+06    -55.0416E+06    -58.2626E+06     29.3761E+06    -15.9634E+06         47.8380
            1149     7.66009E-03     4.11133E-03         8.11319         7.27307        -21.4765         7.27042        -21.4738         8.11319     150.497E-03     312.723E-03    -151.053E-03    -161.670E-03    -150.497E-03     312.168E-03    -161.670E-03     31.9957E-03     9.51590E+06    -49.5400E+06    -104.020E+06    -58.1688E+06    -95.3910E+06     9.51590E+06    -18.7635E+06         47.1786
            1150     6.80032E-03     4.13148E-03         8.20329         7.45884        -21.7129         7.45640        -21.7105         8.20329     172.037E-03     315.700E-03    -152.949E-03    -162.751E-03    -152.483E-03     315.234E-03    -162.751E-03     29.5007E-03    -10.9917E+06    -58.0295E+06    -136.609E+06    -62.4986E+06    -132.140E+06    -10.9917E+06    -17.5899E+06         46.7860
            1151     5.94391E-03     4.15720E-03         8.29594         7.58387        -21.8988         7.58121        -21.8962         8.29594     338.703E-03     319.338E-03    -155.525E-03    -163.813E-03    -155.119E-03     318.931E-03    -163.813E-03     27.7070E-03    -31.2780E+06    -66.4171E+06    -170.037E+06    -68.4538E+06    -168.000E+06    -31.2780E+06    -13.4334E+06         46.5720
            1152     5.08921E-03     4.18605E-03         8.40755         7.60352        -22.0142         7.60239        -22.0131         8.40755     84.0741E-03     322.969E-03    -158.155E-03    -164.814E-03    -157.825E-03     322.640E-03    -164.814E-03     25.0811E-03    -48.9216E+06    -74.4468E+06    -205.811E+06    -75.1109E+06    -205.147E+06    -48.9216E+06    -8.32850E+06         46.4688
            1153     4.23687E-03     4.21737E-03         8.57972         7.45011        -22.0234         7.44697        -22.0203         8.57972     324.710E-03     326.529E-03    -160.828E-03    -165.701E-03    -160.576E-03     326.277E-03    -165.701E-03     22.0823E-03    -63.7682E+06    -81.4764E+06    -236.687E+06    -81.6349E+06    -236.528E+06    -63.7682E+06    -3.52448E+06         46.4293
            1154     3.38796E-03     4.24796E-03         8.85109         7.51388        -22.3397         7.50427        -22.3301         8.85109    -155.098E-03     329.564E-03    -163.117E-03    -166.447E-03    -162.938E-03     329.386E-03    -166.447E-03     18.6415E-03    -75.5401E+06    -87.3019E+06    -262.618E+06    -87.3563E+06    -262.563E+06    -75.5401E+06     1.07236E+06         46.4234
            1155     2.53809E-03     4.27440E-03         9.22796         8.16646        -23.3194         8.16402        -23.2634         9.17446         1.25165     331.902E-03    -164.810E-03    -167.092E-03    -164.701E-03     331.793E-03    -167.092E-03     14.5018E-03    -84.8529E+06    -92.0820E+06    -283.045E+06    -92.2164E+06    -282.911E+06    -84.8529E+06     4.73838E+06         46.4323
            1156     1.69137E-03     4.29832E-03         9.53460         8.98463        -24.3815         8.97081        -24.2777         9.44453    -161.130E-03     333.964E-03    -166.284E-03    -167.680E-03    -166.227E-03     333.907E-03    -167.680E-03     10.5358E-03    -91.9499E+06    -95.4902E+06    -295.191E+06    -95.6737E+06    -295.007E+06    -91.9499E+06     6.02805E+06         46.4450
            1157     845.518E-06     4.31196E-03         10.0558         9.59420        -25.4812         9.37767        -24.9207         9.71183         4.06843     335.831E-03    -167.287E-03    -168.544E-03    -168.045E-03     335.806E-03    -167.761E-03     6.33230E-03    -96.0268E+06    -97.5889E+06    -300.187E+06    -97.4095E+06    -300.082E+06    -96.3120E+06     4.35969E+06         46.4556
            1158     14.4514E-03     2.89210E-03         7.35419         4.88759        -18.7072         4.88121        -18.7008         7.35419    -672.176E-03     352.841E-03    -163.201E-03    -189.640E-03    -188.608E-03     351.809E-03    -163.201E-03     45.8028E-03     147.409E+06     109.799E+06    -10.2306E+06    -10.1779E+06     109.746E+06     147.409E+06     710.675E+03         61.8740
            1159     13.6344E-03     2.79085E-03         7.50396         5.18672        -19.1705         5.18139        -19.1651         7.50396    -524.871E-03     341.005E-03    -161.645E-03    -179.360E-03    -178.215E-03     339.960E-03    -161.745E-03     45.1088E-03     115.075E+06     95.9124E+06    -14.6944E+06    -14.5919E+06     96.2213E+06     114.664E+06     737.552E+03         59.8103
            1160     12.7854E-03     2.76213E-03         7.65423         5.46073        -19.5655         5.45767        -19.5624         7.65423    -419.429E-03     326.693E-03    -159.769E-03    -166.924E-03    -165.025E-03     325.917E-03    -160.892E-03     38.4620E-03     83.5452E+06     73.1590E+06    -25.6839E+06    -25.5070E+06     76.7024E+06     79.8248E+06     1.37495E+06         57.3536
            1161     11.9291E-03     2.73342E-03         7.80301         5.78044        -19.9771         5.77736        -19.9740         7.80301    -436.790E-03     318.968E-03    -156.933E-03    -162.035E-03    -157.570E-03     318.263E-03    -160.693E-03     35.9361E-03     65.9748E+06     50.8501E+06    -35.9197E+06    -35.7908E+06     62.6227E+06     54.0733E+06     868.070E+03         54.7984
            1162     11.0725E-03     2.73280E-03         7.94829         6.10777        -20.3850         6.10548        -20.3827         7.94829    -385.729E-03     314.456E-03    -153.495E-03    -160.961E-03    -152.917E-03     313.879E-03    -160.961E-03     32.1074E-03     55.3260E+06     28.2918E+06    -42.2143E+06    -42.0860E+06     48.8998E+06     34.5897E+06    -2.45581E+06         52.4499
            1163     10.2117E-03     2.73206E-03         8.08887         6.44729        -20.8092         6.44447        -20.8063         8.08887    -501.849E-03     312.279E-03    -150.645E-03    -161.635E-03    -150.069E-03     311.703E-03    -161.635E-03     31.9763E-03     41.0845E+06     5.30354E+06    -48.3467E+06    -46.6757E+06     24.6733E+06     20.0439E+06    -9.07484E+06         50.5168
            1164     9.35256E-03     2.74172E-03         8.22384         6.79139        -21.2385         6.78514        -21.2323         8.22384    -714.586E-03     311.692E-03    -149.031E-03    -162.661E-03    -148.417E-03     311.078E-03    -162.661E-03     33.1766E-03     16.3220E+06    -17.6132E+06    -59.2721E+06    -50.0638E+06    -14.0362E+06     3.53676E+06    -17.5902E+06         49.0815
            1165     8.48990E-03     2.73918E-03         8.35182         7.13196        -21.6680         7.12592        -21.6619         8.35182    -671.472E-03     312.364E-03    -148.317E-03    -164.047E-03    -147.693E-03     311.741E-03    -164.047E-03     33.6148E-03    -8.33521E+06    -35.1262E+06    -79.8561E+06    -52.6962E+06    -58.3976E+06    -12.2236E+06    -21.6998E+06         48.1199
            1166     7.62671E-03     2.74600E-03         8.46760         7.49593        -22.1117         7.49396        -22.1097         8.46760    -430.998E-03     314.632E-03    -148.869E-03    -165.762E-03    -148.433E-03     314.195E-03    -165.762E-03     28.1950E-03    -27.1624E+06    -48.3737E+06    -111.489E+06    -56.9959E+06    -102.867E+06    -27.1624E+06    -20.0070E+06         47.5456
            1167     6.76473E-03     2.75883E-03         8.56974         7.77590        -22.4552         7.77424        -22.4535         8.56974    -348.894E-03     319.145E-03    -151.446E-03    -167.699E-03    -151.114E-03     318.813E-03    -167.699E-03     24.6805E-03    -40.1958E+06    -59.7984E+06    -147.429E+06    -63.1195E+06    -144.108E+06    -40.1958E+06    -15.3807E+06         47.2543
            1168     5.90629E-03     2.77716E-03         8.67666         7.82912        -22.5845         7.82893        -22.5843         8.67666    -70.7366E-03     325.088E-03    -155.379E-03    -169.709E-03    -155.106E-03     324.815E-03    -169.709E-03     22.5120E-03    -50.9763E+06    -67.9360E+06    -182.241E+06    -68.9980E+06    -181.179E+06    -50.9763E+06    -9.53499E+06         47.1515
            1169     5.05243E-03     2.79968E-03         8.82156         7.75669        -22.6392         7.75645        -22.6389         8.82156    -93.7791E-03     331.452E-03    -159.769E-03    -171.683E-03    -159.546E-03     331.229E-03    -171.683E-03     20.5615E-03    -59.6937E+06    -73.7152E+06    -215.980E+06    -73.9366E+06    -215.758E+06    -59.6937E+06    -4.48790E+06         47.1628
            1170     4.20221E-03     2.82370E-03         9.02567         7.82513        -22.9059         7.82288        -22.9036         9.02567     247.722E-03     337.838E-03    -164.295E-03    -173.542E-03    -164.119E-03     337.661E-03    -173.542E-03     18.4762E-03    -66.5254E+06    -77.8735E+06    -245.401E+06    -77.9090E+06    -245.365E+06    -66.5254E+06    -309.576E+03         47.2349
            1171     3.35535E-03     2.84684E-03         9.31339         7.94843        -23.3045         7.93972        -23.2958         9.31339    -168.887E-03     343.788E-03    -168.561E-03    -175.227E-03    -168.433E-03     343.660E-03    -175.227E-03     15.8225E-03    -71.7771E+06    -81.1658E+06    -268.907E+06    -81.2425E+06    -268.830E+06    -71.7771E+06     3.43211E+06         47.3315
            1172     2.51364E-03     2.87050E-03         9.72225         8.31870        -24.0587         8.28470        -24.0247         9.72225     863.242E-03     349.034E-03    -172.338E-03    -176.696E-03    -172.261E-03     348.957E-03    -176.696E-03     12.3372E-03    -76.2623E+06    -83.6545E+06    -283.464E+06    -83.8156E+06    -283.303E+06    -76.2623E+06     5.62261E+06         47.4285
            1173     1.67259E-03     2.88683E-03         10.2342         9.22070        -25.4088         9.13881        -25.3270         10.2342    -608.912E-03     353.425E-03    -175.494E-03    -177.931E-03    -175.455E-03     353.386E-03    -177.931E-03     8.73468E-03    -80.9193E+06    -85.3756E+06    -288.175E+06    -85.5301E+06    -288.020E+06    -80.9193E+06     5.40798E+06         47.5099
            1174     834.650E-06     2.89820E-03         11.0687         10.3436        -27.2977         10.0460        -26.8969         10.9655         3.15131     356.912E-03    -177.477E-03    -179.436E-03    -177.753E-03     356.892E-03    -179.139E-03     6.09269E-03    -84.8446E+06    -86.6604E+06    -288.987E+06    -86.3503E+06    -288.915E+06    -85.2273E+06     3.48194E+06         47.5659
            1175     14.4663E-03     1.43868E-03         7.48969         4.95312        -19.1014         4.94982        -19.0981         7.48969    -543.468E-03     363.643E-03    -164.030E-03    -199.613E-03    -198.181E-03     362.211E-03    -164.030E-03     55.4762E-03     146.123E+06     109.516E+06    -6.94614E+06    -6.86168E+06     109.432E+06     146.123E+06    -761.794E+03         62.6338
            1176     13.6218E-03     1.41094E-03         7.63990         5.19069        -19.4323         5.18863        -19.4303         7.63990    -367.772E-03     339.647E-03    -162.274E-03    -177.374E-03    -176.345E-03     338.718E-03    -162.373E-03     42.3454E-03     107.969E+06     92.2043E+06    -15.4155E+06    -15.2406E+06     92.4408E+06     107.557E+06     2.71467E+06         60.5761
            1177     12.7661E-03     1.38150E-03         7.79633         5.43030        -19.7598         5.42869        -19.7582         7.79633    -343.698E-03     322.451E-03    -158.547E-03    -163.904E-03    -160.195E-03     321.953E-03    -161.758E-03     28.2364E-03     79.3104E+06     68.3252E+06    -23.7437E+06    -23.4873E+06     77.9118E+06     69.4674E+06     4.66223E+06         58.1016
            1178     11.9117E-03     1.36327E-03         7.95675         5.72971        -20.1421         5.72832        -20.1407         7.95675    -262.141E-03     314.417E-03    -152.460E-03    -161.957E-03    -152.165E-03     314.122E-03    -161.957E-03     19.8308E-03     68.1692E+06     38.7632E+06    -28.6641E+06    -28.5465E+06     68.0515E+06     38.7632E+06     1.78524E+06         55.5246
            1179     11.0497E-03     1.36502E-03         8.11655         6.08707        -20.5771         6.08644        -20.5765         8.11655    -100.252E-03     311.546E-03    -148.903E-03    -162.643E-03    -148.702E-03     311.345E-03    -162.643E-03     17.4776E-03     54.9224E+06     5.86954E+06     -33.094E+06    -32.9868E+06     54.8152E+06     5.86954E+06    -2.27676E+06         53.1647
            1180     10.1883E-03     1.36581E-03         8.27236         6.45664        -21.0322         6.45598        -21.0316         8.27236    -126.156E-03     312.310E-03    -148.647E-03    -163.663E-03    -148.434E-03     312.097E-03    -163.663E-03     18.2980E-03     36.9336E+06    -17.4308E+06    -43.6045E+06    -37.5838E+06     35.6696E+06    -22.1875E+06    -7.76404E+06         51.2417
            1181     9.32442E-03     1.37299E-03         8.42540         6.77103        -21.4485         6.76953        -21.4470         8.42540    -265.367E-03     314.010E-03    -149.024E-03    -164.987E-03    -148.754E-03     313.740E-03    -164.987E-03     19.8436E-03     784.926E+03    -33.5447E+06    -58.2594E+06    -43.2523E+06    -7.08777E+06    -40.6791E+06    -14.4142E+06         49.8399
            1182     8.46270E-03     1.37131E-03         8.58108         7.02354        -21.8205         7.02173        -21.8187         8.58108    -297.896E-03     315.350E-03    -148.672E-03    -166.678E-03    -148.381E-03     315.059E-03    -166.678E-03     20.4148E-03    -35.4773E+06    -47.9766E+06    -81.2378E+06    -50.7042E+06    -64.4768E+06    -49.5107E+06    -16.1635E+06         48.9302
            1183     7.60051E-03     1.37490E-03         8.73988         7.33094        -22.2530         7.32942        -22.2514         8.73988    -289.627E-03     317.706E-03    -148.947E-03    -168.759E-03    -148.753E-03     317.512E-03    -168.759E-03     16.9179E-03    -51.6305E+06    -57.1023E+06    -117.674E+06    -58.3781E+06    -113.695E+06    -54.3331E+06    -12.6420E+06         48.4212
            1184     6.73973E-03     1.38160E-03         8.89240         7.73478        -22.7707         7.73353        -22.7694         8.89240    -313.257E-03     322.479E-03    -151.310E-03    -171.169E-03    -151.173E-03     322.342E-03    -171.169E-03     14.5338E-03    -57.9602E+06    -64.1167E+06    -156.617E+06    -65.1877E+06    -155.455E+06    -58.0510E+06    -8.39085E+06         48.2047
            1185     5.88130E-03     1.39060E-03         9.02941         8.13313        -23.2718         8.13292        -23.2716         9.02941    -24.1247E-03     329.121E-03    -155.340E-03    -173.781E-03    -155.239E-03     329.019E-03    -173.781E-03     12.6461E-03    -61.1428E+06    -70.2061E+06    -191.813E+06    -70.4853E+06    -191.534E+06    -61.1428E+06    -4.67721E+06         48.1829
            1186     5.02672E-03     1.40252E-03         9.16867         8.46613        -23.7322         8.48664        -23.7321         9.14809     78.9553E-03     337.080E-03    -160.626E-03    -176.453E-03    -160.544E-03     336.997E-03    -176.453E-03     11.5397E-03    -63.5941E+06    -73.9184E+06    -223.155E+06    -73.9581E+06    -223.115E+06    -63.5941E+06    -1.59685E+06         48.2775
            1187     4.17792E-03     1.41533E-03         9.35955         8.75008        -24.2118         8.86620        -24.2084         9.24012     480.456E-03     345.518E-03    -166.468E-03    -179.050E-03    -166.402E-03     345.452E-03    -179.050E-03     10.5604E-03    -65.4195E+06    -76.4080E+06    -251.122E+06    -76.4228E+06    -251.107E+06    -65.4195E+06     704.153E+03         48.4309
            1188     3.33411E-03     1.42969E-03         9.58477         8.81915        -24.4995         9.09450        -24.4947         9.30462     655.372E-03     353.857E-03    -172.430E-03    -181.427E-03    -172.383E-03     353.810E-03    -181.427E-03     9.05099E-03    -67.6169E+06    -78.0592E+06    -272.294E+06    -78.1100E+06    -272.243E+06    -67.6169E+06     2.74651E+06         48.6029
            1189     2.49424E-03     1.44084E-03         9.81917         8.76730        -24.6493         9.20789        -24.6304         9.35967         1.24713     361.449E-03    -178.047E-03    -183.402E-03    -178.017E-03     361.419E-03    -183.402E-03     7.00629E-03    -71.3022E+06    -79.0521E+06    -281.156E+06    -79.1320E+06    -281.076E+06    -71.3022E+06     3.70110E+06         48.7653
            1190     1.66136E-03     1.45207E-03         9.83790         8.88559        -24.6960         9.24726        -24.6589         9.43915     132.605E-03     367.292E-03    -182.462E-03    -184.829E-03    -182.448E-03     367.277E-03    -184.829E-03     5.06178E-03    -75.6419E+06    -79.5976E+06    -281.626E+06    -79.6502E+06    -281.573E+06    -75.6419E+06     2.73613E+06         48.8976
            1191     830.339E-06     1.45553E-03         10.0476         9.10536        -25.0315         9.06123        -24.8668         9.92707         2.13844     370.761E-03    -184.646E-03    -186.115E-03    -184.640E-03     370.755E-03    -186.115E-03     3.38466E-03    -79.1977E+06    -80.5827E+06    -281.816E+06    -80.5028E+06    -281.799E+06    -79.2951E+06     1.62798E+06         48.9865
            1192     848.756E-06     77.5215E-03         3.71629     996.716E-03        -5.86025     929.731E-03        -3.07369     996.716E-03         1.12801     328.042E-03    -163.831E-03    -164.211E-03    -164.025E-03     328.041E-03    -164.016E-03    -457.745E-06    -146.821E+06    -150.240E+06    -319.196E+06    -150.219E+06    -319.194E+06    -146.845E+06     165.829E+03         46.3286
            1193     1.69773E-03     77.5196E-03         4.62758         1.07328        -6.83009         1.51257        -3.71508         1.07328         10.1758     327.579E-03    -163.588E-03    -163.991E-03    -163.587E-03     327.578E-03    -163.991E-03    -735.956E-06    -133.995E+06    -145.652E+06    -304.116E+06    -145.653E+06    -304.116E+06    -133.995E+06     261.979E+03         46.3533
            1194     2.54744E-03     77.5191E-03         4.01837         1.31633        -6.41451         2.11481        -4.51095         1.31633         7.68827     327.559E-03    -163.614E-03    -163.945E-03    -163.614E-03     327.559E-03    -163.945E-03    -841.178E-06    -114.695E+06    -138.506E+06    -284.669E+06    -138.507E+06    -284.668E+06    -114.695E+06     319.935E+03         46.3928
            1195     3.39642E-03     77.5195E-03         3.83763         1.55098        -6.41964         2.36210        -4.94411         1.55098         6.98615     327.614E-03    -163.633E-03    -163.981E-03    -163.632E-03     327.613E-03    -163.981E-03    -218.732E-06    -91.5927E+06    -129.516E+06    -261.270E+06    -129.521E+06    -261.264E+06    -91.5927E+06     753.229E+03         46.4466
            1196     4.24606E-03     77.5215E-03         3.65525         1.71010        -6.35298         2.28228        -4.98001         1.71010         2.53474     327.409E-03    -163.395E-03    -164.014E-03    -163.394E-03     327.408E-03    -164.014E-03     1.05927E-03    -67.8660E+06    -119.947E+06    -232.800E+06    -119.959E+06    -232.788E+06    -67.8660E+06     1.13101E+06         46.5143
            1197     5.09518E-03     77.5245E-03         2.63145         1.79766        -5.37520         2.14762        -4.89137         1.79766    -304.024E-03     327.312E-03    -163.287E-03    -164.025E-03    -163.282E-03     327.308E-03    -164.025E-03     2.79685E-03    -44.5692E+06    -109.536E+06    -202.208E+06    -109.557E+06    -202.187E+06    -44.5692E+06     1.29968E+06         46.5966
            1198     5.94427E-03     77.5316E-03         3.29752         1.84982        -6.04999         2.14691        -4.89937         1.84982        -2.40605     327.301E-03    -163.265E-03    -164.036E-03    -163.252E-03     327.288E-03    -164.036E-03     4.90760E-03    -23.1869E+06    -99.0636E+06    -173.501E+06    -99.0923E+06    -173.472E+06    -23.1869E+06     1.40572E+06         46.6975
            1199     6.79433E-03     77.5408E-03         3.32623         1.89321        -6.07442         2.21702        -4.96521         1.89321        -2.56924     327.078E-03    -163.046E-03    -164.033E-03    -163.016E-03     327.048E-03    -164.033E-03     7.53101E-03    -3.77016E+06    -88.4668E+06    -143.988E+06    -88.5172E+06    -143.938E+06    -3.77016E+06     1.58609E+06         46.8288
            1200     7.64387E-03     77.5542E-03         2.73150         1.92817        -5.47057         2.16434        -4.90341         1.92817    -918.564E-03     326.942E-03    -162.934E-03    -164.007E-03    -162.876E-03     326.884E-03    -164.007E-03     10.5269E-03     14.1913E+06    -77.8940E+06    -112.044E+06    -78.0114E+06    -111.926E+06     14.1913E+06      1.8579E+06         47.0190
            1201     8.49344E-03     77.5716E-03         3.13130         1.93728        -5.83324         1.83803        -4.53998         1.93728         1.21085     326.958E-03    -162.980E-03    -163.978E-03    -162.883E-03     326.861E-03    -163.978E-03     13.7041E-03     30.3891E+06    -66.4595E+06    -80.2012E+06    -68.1186E+06    -78.5421E+06     30.3891E+06     2.06554E+06         47.3273
            1202     9.34332E-03     77.5929E-03         2.63258         1.72289        -5.07782         1.36325        -3.99365         1.90805         2.25816     326.813E-03    -162.874E-03    -163.939E-03    -162.725E-03     326.664E-03    -163.939E-03     17.0261E-03     45.3969E+06    -38.0554E+06    -59.4940E+06    -58.6577E+06    -38.8917E+06     45.3969E+06     2.16242E+06         47.8614
            1203     10.1932E-03     77.6188E-03         2.15893         1.66136        -4.51185     947.521E-03        -3.48560         1.84652         1.62616     326.600E-03    -162.716E-03    -163.885E-03    -162.501E-03     326.385E-03    -163.885E-03     20.4343E-03     59.8544E+06     7.30731E+06    -49.5349E+06    -49.4497E+06     7.22211E+06     59.8544E+06     2.05665E+06         48.7870
            1204     11.0437E-03     77.6497E-03         2.24846         1.76951        -4.68059     702.377E-03        -3.13451         1.76951     365.473E-03     326.597E-03    -162.777E-03    -163.820E-03    -162.476E-03     326.296E-03    -163.820E-03     24.1995E-03     70.6617E+06     51.6312E+06    -40.6930E+06    -40.6452E+06     51.5835E+06     70.6617E+06     2.06608E+06         50.3027
            1205     11.8934E-03     77.6850E-03         1.86152         1.30932        -3.80456     691.724E-03        -3.02043         1.69498        -1.95951     326.777E-03    -162.989E-03    -163.788E-03    -162.574E-03     326.362E-03    -163.788E-03     28.4061E-03     77.6973E+06     73.9458E+06    -32.6406E+06    -32.6103E+06     73.9156E+06     77.6973E+06     1.74921E+06         52.5517
            1206     12.7436E-03     77.7259E-03         2.83659         1.24983        -4.69642     835.992E-03        -3.08149         1.63549        -3.96460     326.778E-03    -162.970E-03    -163.808E-03    -162.448E-03     326.256E-03    -163.808E-03     31.9197E-03     87.8972E+06     79.2027E+06    -25.0296E+06    -25.0121E+06     79.1852E+06     87.8972E+06     1.33192E+06         55.4758
            1207     13.5940E-03     77.7716E-03         2.79165         1.40442        -4.77811     888.413E-03        -3.06101         1.59055        -3.50263     326.971E-03    -163.098E-03    -163.873E-03    -162.300E-03     326.173E-03    -163.873E-03     39.0807E-03     109.729E+06     92.3093E+06    -17.3327E+06    -17.3236E+06     92.3002E+06     109.729E+06     829.098E+03         58.6924
            1208     14.4447E-03     77.8315E-03         2.32614         1.36123        -4.23802     689.923E-03        -2.78793         1.54737        -2.61347     327.024E-03    -163.047E-03    -163.977E-03    -162.201E-03     326.178E-03    -163.977E-03     40.4460E-03     142.207E+06     111.258E+06    -9.05508E+06    -9.05405E+06     111.257E+06     142.207E+06     327.650E+03         61.5448
            1209     849.208E-06     78.9078E-03         3.15690         1.15556        -5.55947         1.20843        -3.61100         1.15556         1.64970     327.465E-03    -163.590E-03    -163.875E-03    -163.717E-03     327.465E-03    -163.748E-03    -496.852E-06    -147.304E+06    -150.420E+06    -319.623E+06    -150.313E+06    -319.619E+06    -147.415E+06     75.6127E+03         46.3282
            1210     1.69860E-03     78.9061E-03         4.67333         1.33165        -7.22190         1.93218        -4.48075         1.33165         9.95159     327.766E-03    -163.761E-03    -164.005E-03    -163.936E-03     327.766E-03    -163.830E-03    -681.018E-06    -134.262E+06    -145.658E+06    -304.341E+06    -145.660E+06    -304.339E+06    -134.262E+06     241.456E+03         46.3531
            1211     2.54696E-03     78.9060E-03         4.33651         1.62870        -7.14500         2.51151        -5.32000         1.62870         7.95358     327.824E-03    -163.801E-03    -164.023E-03    -163.870E-03     327.824E-03    -163.954E-03    -517.825E-06    -114.801E+06    -138.790E+06    -284.654E+06    -138.793E+06    -284.651E+06    -114.801E+06     588.185E+03         46.3927
            1212     3.39610E-03     78.9063E-03         4.19600         1.89340        -7.22743         2.83301        -5.86443         1.89340         7.20456     327.597E-03    -163.578E-03    -164.019E-03    -163.578E-03     327.597E-03    -164.019E-03    -74.2905E-06    -92.1008E+06    -130.374E+06    -261.910E+06    -130.380E+06    -261.904E+06    -92.1008E+06     823.611E+03         46.4463
            1213     4.24534E-03     78.9074E-03         4.04887         2.08267        -7.22240         2.79547        -5.96901         2.08267         2.92634     327.436E-03    -163.398E-03    -164.038E-03    -163.397E-03     327.435E-03    -164.038E-03     1.01816E-03    -68.1643E+06    -120.233E+06    -233.281E+06    -120.250E+06    -233.264E+06    -68.1643E+06     1.19626E+06         46.5136
            1214     5.09505E-03     78.9115E-03         2.77671         2.16998        -5.98889         2.35015        -5.56232         2.16998    -51.7577E-03     327.353E-03    -163.306E-03    -164.047E-03    -163.301E-03     327.349E-03    -164.047E-03     2.80625E-03    -44.8438E+06    -109.634E+06    -202.667E+06    -109.665E+06    -202.636E+06    -44.8438E+06     1.58791E+06         46.5954
            1215     5.94467E-03     78.9181E-03         3.10408         2.16247        -6.26449         1.82775        -4.98816         2.16247        -2.34968     327.196E-03    -163.147E-03    -164.049E-03    -163.134E-03     327.183E-03    -164.049E-03     4.93720E-03    -23.1375E+06    -98.9073E+06    -173.600E+06    -98.9513E+06    -173.556E+06    -23.1375E+06     1.76300E+06         46.6955
            1216     6.79384E-03     78.9272E-03         2.94686         1.88438        -5.78587         1.47801        -4.53365         2.10101        -2.65378     327.052E-03    -163.017E-03    -164.035E-03    -162.988E-03     327.023E-03    -164.035E-03     7.43422E-03    -3.72526E+06    -88.4089E+06    -144.288E+06    -88.4641E+06    -144.233E+06    -3.72526E+06     1.72156E+06         46.8255
            1217     7.64380E-03     78.9404E-03         2.25792         1.80860        -4.97296         1.34535        -4.27703         2.02523    -992.836E-03     326.939E-03    -162.931E-03    -164.007E-03    -162.874E-03     326.881E-03    -164.007E-03     10.5102E-03     14.0099E+06    -77.9533E+06    -112.645E+06    -78.0817E+06    -112.517E+06     14.0099E+06     1.89141E+06         47.0132
            1218     8.49386E-03     78.9580E-03         2.86206         1.96035        -5.68894         1.41336        -4.24024         1.96035         1.27733     326.857E-03    -162.884E-03    -163.973E-03    -162.789E-03     326.761E-03    -163.973E-03     13.6074E-03     30.2364E+06    -66.6040E+06    -80.5259E+06    -68.1816E+06    -78.9483E+06     30.2364E+06     2.20370E+06         47.3171
            1219     9.34357E-03     78.9794E-03         2.64572         1.88686        -5.36442         1.51994        -4.26671         1.91493         2.52253     326.825E-03    -162.894E-03    -163.931E-03    -162.745E-03     326.677E-03    -163.931E-03     16.9586E-03     45.5701E+06    -37.9074E+06    -59.5871E+06    -58.6190E+06    -38.8755E+06     45.5701E+06     2.37701E+06         47.8444
            1220     10.1934E-03     79.0054E-03         2.40440         1.85211        -5.05998         1.47411        -4.15776         1.88017         1.94844     326.741E-03    -162.856E-03    -163.885E-03    -162.642E-03     326.527E-03    -163.885E-03     20.4255E-03     60.1793E+06     7.43329E+06    -49.5810E+06    -49.4679E+06     7.32020E+06     60.1793E+06     2.33811E+06         48.7616
            1221     11.0432E-03     79.0355E-03         2.60250         1.84297        -5.22950         1.28986        -3.91687         1.84297     684.756E-03     326.580E-03    -162.755E-03    -163.824E-03    -162.455E-03     326.280E-03    -163.824E-03     24.1301E-03     70.7113E+06     51.8484E+06    -40.8644E+06    -40.8082E+06     51.7921E+06     70.7113E+06     2.23583E+06         50.2709
            1222     11.8939E-03     79.0720E-03         2.03463         1.50834        -4.31275         1.10745        -3.67655         1.79933        -1.68933     326.754E-03    -162.964E-03    -163.790E-03    -162.546E-03     326.336E-03    -163.790E-03     28.5101E-03     77.9464E+06     74.6240E+06    -32.7509E+06    -32.7128E+06     74.5859E+06     77.9464E+06     1.98278E+06         52.5222
            1223     12.7433E-03     79.1131E-03         2.75608         1.46021        -4.97533     944.321E-03        -3.45456         1.75120        -3.64121     326.946E-03    -163.131E-03    -163.815E-03    -162.606E-03     326.421E-03    -163.815E-03     32.0471E-03     88.2916E+06     80.1125E+06    -25.1312E+06    -25.1096E+06     80.0909E+06     88.2916E+06     1.40408E+06         55.4625
            1224     13.5936E-03     79.1574E-03         2.70278         1.38886        -4.84669     729.412E-03        -3.18237         1.69790        -3.16692     326.957E-03    -163.074E-03    -163.883E-03    -162.270E-03     326.153E-03    -163.883E-03     39.2145E-03     109.921E+06     93.2054E+06    -17.3070E+06    -17.2973E+06     93.1957E+06     109.921E+06     935.825E+03         58.7078
            1225     14.4446E-03     79.2173E-03         2.30846         1.33085        -4.42406     577.332E-03        -3.00197         1.63988        -2.41983     326.884E-03    -162.903E-03    -163.981E-03    -162.055E-03     326.036E-03    -163.981E-03     40.4625E-03     142.356E+06     111.957E+06    -8.86484E+06    -8.86167E+06     111.954E+06     142.356E+06     535.193E+03         61.5895
            1226     849.780E-06     80.2933E-03         3.76177         2.70993        -7.78836         2.58436        -6.61095         2.70993         2.09538     327.353E-03    -163.500E-03    -163.853E-03    -163.745E-03     327.353E-03    -163.608E-03    -580.016E-06    -146.981E+06    -150.625E+06    -319.997E+06    -150.543E+06    -319.993E+06    -147.069E+06     359.084E+03         46.3271
            1227     1.69817E-03     80.2934E-03         4.85063         2.61311        -8.76411         2.47817        -6.39165         2.61311         10.2167     327.756E-03    -163.768E-03    -163.987E-03    -163.964E-03     327.755E-03    -163.791E-03    -701.018E-06    -134.163E+06    -145.901E+06    -304.560E+06    -145.905E+06    -304.557E+06    -134.163E+06     421.860E+03         46.3521
            1228     2.54737E-03     80.2930E-03         4.23665         2.43476        -7.94498         2.29773        -6.11019         2.53889         8.34358     327.739E-03    -163.743E-03    -163.996E-03    -163.812E-03     327.739E-03    -163.927E-03    -595.805E-06    -114.868E+06    -139.175E+06    -285.199E+06    -139.180E+06    -285.194E+06    -114.868E+06     808.726E+03         46.3917
            1229     3.39652E-03     80.2927E-03         3.76001         2.35736        -7.33430         2.16372        -5.84213         2.46149         7.26592     327.655E-03    -163.655E-03    -164.000E-03    -163.655E-03     327.655E-03    -164.000E-03     58.8861E-06    -92.0833E+06    -130.500E+06    -262.144E+06    -130.507E+06    -262.137E+06    -92.0833E+06     973.379E+03         46.4453
            1230     4.24583E-03     80.2942E-03         3.58857         2.33501        -7.07862         2.07560        -5.62344         2.39280         2.65522     327.589E-03    -163.545E-03    -164.044E-03    -163.544E-03     327.588E-03    -164.044E-03     1.18126E-03    -68.5893E+06    -120.627E+06    -233.981E+06    -120.644E+06    -233.964E+06    -68.5893E+06     1.23153E+06         46.5125
            1231     5.09473E-03     80.2981E-03         2.53792         2.18336        -5.82497         1.93077        -5.36248         2.32803    -625.906E-03     327.324E-03    -163.261E-03    -164.062E-03    -163.257E-03     327.319E-03    -164.062E-03     2.81597E-03    -45.1063E+06    -109.753E+06    -203.369E+06    -109.788E+06    -203.334E+06    -45.1063E+06     1.73330E+06         46.5940
            1232     5.94432E-03     80.3042E-03         3.14426         2.16588        -6.37693         1.66750        -4.98705         2.25275        -3.09876     327.089E-03    -163.037E-03    -164.052E-03    -163.024E-03     327.076E-03    -164.052E-03     4.93216E-03    -23.1458E+06    -98.7467E+06    -173.959E+06    -98.7926E+06    -173.913E+06    -23.1458E+06     1.80738E+06         46.6937
            1233     6.79439E-03     80.3139E-03         3.04320         1.93665        -6.01745         1.40125        -4.60172         2.16287        -3.14177     327.051E-03    -163.022E-03    -164.030E-03    -162.991E-03     327.021E-03    -164.030E-03     7.55028E-03    -3.50248E+06    -88.0838E+06    -144.452E+06    -88.1649E+06    -144.371E+06    -3.50248E+06     1.99854E+06         46.8226
            1234     7.64377E-03     80.3267E-03         2.19198         1.84688        -5.04717         1.31418        -4.39560         2.07310    -971.736E-03     327.026E-03    -163.018E-03    -164.008E-03    -162.960E-03     326.968E-03    -164.008E-03     10.5333E-03     14.1287E+06    -77.9344E+06    -113.040E+06    -78.1195E+06    -112.855E+06     14.1287E+06     2.32983E+06         47.0081
            1235     8.49336E-03     80.3444E-03         2.97394         2.00402        -5.94763         1.44922        -4.42291         2.00402         1.69394     326.865E-03    -162.887E-03    -163.978E-03    -162.793E-03     326.771E-03    -163.978E-03     13.5182E-03     30.3404E+06    -66.7370E+06    -80.7304E+06    -68.1358E+06    -79.3317E+06     30.3404E+06     2.35159E+06         47.3075
            1236     9.34345E-03     80.3656E-03         2.81245         1.87492        -5.62286         1.60098        -4.49788         1.96140         3.26776     326.765E-03    -162.832E-03    -163.933E-03    -162.684E-03     326.617E-03    -163.933E-03     16.9215E-03     45.5813E+06    -38.1572E+06    -59.6550E+06    -58.5283E+06    -39.2838E+06     45.5813E+06     2.59429E+06         47.8279
            1237     10.1935E-03     80.3922E-03         2.61940         1.84800        -5.37729         1.63878        -4.48315         1.93449         2.69137     326.810E-03    -162.923E-03    -163.886E-03    -162.709E-03     326.595E-03    -163.886E-03     20.4352E-03     60.2082E+06     7.35256E+06    -49.5945E+06    -49.4375E+06     7.19564E+06     60.2082E+06     2.75721E+06         48.7363
            1238     11.0433E-03     80.4223E-03         2.89279         1.91210        -5.70407         1.60406        -4.41534         1.91210         1.07196     326.710E-03    -162.877E-03    -163.833E-03    -162.580E-03     326.413E-03    -163.833E-03     24.0146E-03     70.9116E+06     52.3502E+06    -40.8556E+06    -40.7858E+06     52.2804E+06     70.9116E+06     2.47064E+06         50.2387
            1239     11.8932E-03     80.4578E-03         2.18095         1.64917        -4.73151         1.41473        -4.20129         1.88517        -1.63706     326.592E-03    -162.796E-03    -163.797E-03    -162.373E-03     326.170E-03    -163.797E-03     28.6179E-03     78.1603E+06     75.3211E+06    -32.7016E+06    -32.6614E+06     75.2809E+06     78.1603E+06     2.04370E+06         52.4918
            1240     12.7440E-03     80.5006E-03         2.75303         1.60673        -5.25908         1.02232        -3.76437         1.84273        -3.63304     326.719E-03    -162.911E-03    -163.808E-03    -162.382E-03     326.190E-03    -163.808E-03     32.1363E-03     88.5573E+06     80.8316E+06    -25.0595E+06    -25.0368E+06     80.8090E+06     88.5573E+06     1.44824E+06         55.4491
            1241     13.5941E-03     80.5434E-03         2.69401         1.44093        -5.04162     703.223E-03        -3.39362         1.78371        -3.12073     327.105E-03    -163.231E-03    -163.874E-03    -162.421E-03     326.295E-03    -163.874E-03     39.3348E-03     110.051E+06     93.9341E+06    -17.5455E+06    -17.5317E+06     93.9203E+06     110.051E+06     1.17231E+06         58.7240
            1242     14.4441E-03     80.6041E-03         2.34346         1.37786        -4.64965     632.110E-03        -3.28108         1.72064        -2.38374     327.001E-03    -163.020E-03    -163.981E-03    -162.156E-03     326.137E-03    -163.981E-03     40.8457E-03     142.576E+06     112.938E+06    -9.18615E+06    -9.17967E+06     112.931E+06     142.576E+06     691.169E+03         61.6351
            1243     848.620E-06     81.6791E-03         4.68670         3.82908        -9.91444         3.72046        -8.94820         3.82908         1.78207     327.882E-03    -163.721E-03    -164.161E-03    -164.010E-03     327.882E-03    -163.871E-03    -732.227E-06    -147.073E+06    -150.864E+06    -320.616E+06    -150.636E+06    -320.613E+06    -147.304E+06     282.048E+03         46.3256
            1244     1.69831E-03     81.6804E-03         4.79434         3.56775        -9.72478         2.73883        -7.66926         3.56775         9.95978     327.565E-03    -163.607E-03    -163.958E-03    -163.627E-03     327.564E-03    -163.937E-03    -828.978E-06    -134.086E+06    -146.188E+06    -305.073E+06    -146.194E+06    -305.068E+06    -134.086E+06     857.438E+03         46.3503
            1245     2.54726E-03     81.6792E-03         3.91238         2.72440        -7.94738         1.85419        -6.31003         3.14524         7.79459     327.591E-03    -163.663E-03    -163.928E-03    -163.662E-03     327.590E-03    -163.928E-03    -704.281E-06    -114.931E+06    -139.498E+06    -285.892E+06    -139.504E+06    -285.886E+06    -114.931E+06     818.590E+03         46.3897
            1246     3.39654E-03     81.6796E-03         3.15373         2.32424        -6.73635         1.26640        -5.26986         2.74508         6.55738     327.704E-03    -163.719E-03    -163.984E-03    -163.719E-03     327.704E-03    -163.984E-03    -52.7806E-06    -92.2394E+06    -130.608E+06    -262.540E+06    -130.619E+06    -262.529E+06    -92.2394E+06     1.11617E+06         46.4433
            1247     4.24527E-03     81.6814E-03         2.83677         2.31473        -6.36015         1.10904        -4.74581         2.42812         1.89888     327.515E-03    -163.480E-03    -164.035E-03    -163.479E-03     327.514E-03    -164.035E-03     1.07542E-03    -68.2568E+06    -120.446E+06    -234.239E+06    -120.463E+06    -234.223E+06    -68.2568E+06     1.33689E+06         46.5107
            1248     5.09505E-03     81.6844E-03         2.22351         1.94748        -5.33805         1.35737        -4.74794         2.22351        -1.13260     327.274E-03    -163.228E-03    -164.045E-03    -163.223E-03     327.269E-03    -164.045E-03     2.91880E-03    -45.1986E+06    -109.795E+06    -204.127E+06    -109.826E+06    -204.096E+06    -45.1986E+06     1.63643E+06         46.5924
            1249     5.94464E-03     81.6907E-03         3.21617         1.96226        -6.31381         1.76631        -5.02657         2.12489        -3.33421     327.169E-03    -163.130E-03    -164.040E-03    -163.116E-03     327.156E-03    -164.040E-03     5.01295E-03    -23.4677E+06    -99.0136E+06    -174.456E+06    -99.0765E+06    -174.393E+06    -23.4677E+06     2.05751E+06         46.6920
            1250     6.79407E-03     81.6998E-03         3.39325         2.08782        -6.59658         2.07909        -5.29201         2.09740        -3.13557     327.098E-03    -163.069E-03    -164.029E-03    -163.040E-03     327.069E-03    -164.029E-03     7.46346E-03    -3.78197E+06    -88.4585E+06    -145.084E+06    -88.5617E+06    -144.981E+06    -3.78197E+06     2.28380E+06         46.8201
            1251     7.64391E-03     81.7138E-03         2.62343         2.08718        -5.80847         2.10825        -5.30288         2.09677    -832.368E-03     326.970E-03    -162.963E-03    -164.007E-03    -162.906E-03     326.914E-03    -164.007E-03     10.4305E-03     13.9771E+06    -78.1151E+06    -113.673E+06    -78.3348E+06    -113.453E+06     13.9771E+06     2.56191E+06         47.0034
            1252     8.49365E-03     81.7305E-03         3.25036         2.08639        -6.41064         1.85231        -5.01260         2.08639         1.86164     326.885E-03    -162.909E-03    -163.976E-03    -162.812E-03     326.788E-03    -163.976E-03     13.6641E-03     30.4194E+06    -66.6397E+06    -81.1034E+06    -68.1704E+06    -79.5727E+06     30.4194E+06     2.66786E+06         47.2984
            1253     9.34343E-03     81.7520E-03         2.89633         1.84910        -5.78795         1.58181        -4.67879         2.05445         3.33175     326.836E-03    -162.902E-03    -163.934E-03    -162.751E-03     326.685E-03    -163.934E-03     17.1199E-03     45.4301E+06    -38.5182E+06    -60.0178E+06    -58.6180E+06    -39.9180E+06     45.4301E+06     2.90673E+06         47.8116
            1254     10.1933E-03     81.7786E-03         2.55823         1.80643        -5.38868         1.47113        -4.50693         2.01178         2.61393     326.768E-03    -162.880E-03    -163.888E-03    -162.660E-03     326.548E-03    -163.888E-03     20.6451E-03     60.0602E+06      7.1152E+06    -49.8440E+06    -49.6378E+06     6.90900E+06     60.0602E+06     3.21371E+06         48.7109
            1255     11.0432E-03     81.8093E-03         2.70415         1.96845        -5.69258         1.40032        -4.38876         1.96845     961.293E-03     326.743E-03    -162.909E-03    -163.834E-03    -162.609E-03     326.443E-03    -163.834E-03     24.1497E-03     71.3968E+06     52.8079E+06    -41.1959E+06    -41.0922E+06     52.9498E+06     71.1513E+06     2.97263E+06         50.2061
            1256     11.8934E-03     81.8442E-03         2.11314         1.65546        -4.78655         1.27157        -4.21342         1.92390        -1.59269     326.618E-03    -162.819E-03    -163.799E-03    -162.401E-03     326.200E-03    -163.799E-03     28.4623E-03     78.7140E+06     76.4262E+06    -32.9911E+06    -32.9461E+06     76.6267E+06     78.4684E+06     2.16036E+06         52.4607
            1257     12.7437E-03     81.8861E-03         2.82092         1.60894        -5.44954         1.17017        -4.06723         1.87738        -3.52623     326.556E-03    -162.749E-03    -163.807E-03    -162.224E-03     326.031E-03    -163.807E-03     32.0406E-03     88.6485E+06     81.4880E+06    -25.1883E+06    -25.1651E+06     81.4648E+06     88.6485E+06     1.55436E+06         55.4346
            1258     13.5943E-03     81.9308E-03         2.77558         1.64192        -5.42346         1.11024        -3.94824         1.83205        -3.11408     326.987E-03    -163.121E-03    -163.866E-03    -162.319E-03     326.185E-03    -163.866E-03     39.1385E-03     110.261E+06     94.3899E+06    -17.4139E+06    -17.3979E+06     94.3740E+06     110.261E+06     1.28809E+06         58.7400
            1259     14.4449E-03     81.9903E-03         2.37850         1.59627        -4.95090     946.210E-03        -3.70873         1.78639        -2.34892     327.066E-03    -163.093E-03    -163.973E-03    -162.238E-03     326.211E-03    -163.973E-03     40.6557E-03     143.108E+06     114.222E+06    -8.91907E+06    -8.91280E+06     114.216E+06     143.108E+06     714.351E+03         61.6817
            1260     848.600E-06     83.0673E-03         4.38304         2.65715        -8.43075         2.82967        -6.87737         2.65715     692.354E-03     328.141E-03    -163.784E-03    -164.357E-03    -163.934E-03     328.140E-03    -164.206E-03    -586.410E-06    -147.661E+06    -150.984E+06    -321.325E+06    -150.754E+06    -321.324E+06    -147.893E+06     20.4394E+03         46.3234
            1261     1.69754E-03     83.0655E-03         4.40667         2.67145        -8.45955         2.37873        -6.43160         2.67145         9.23000     327.666E-03    -163.628E-03    -164.038E-03    -163.627E-03     327.666E-03    -164.038E-03    -862.598E-06    -134.658E+06    -146.169E+06    -306.002E+06    -146.173E+06    -305.998E+06    -134.658E+06     616.225E+03         46.3478
            1262     2.54759E-03     83.0659E-03         3.55723         2.17339        -7.08969         1.83990        -5.68907         2.49011         6.75357     327.524E-03    -163.547E-03    -163.976E-03    -163.547E-03     327.523E-03    -163.976E-03    -576.988E-06    -115.013E+06    -139.217E+06    -286.209E+06    -139.227E+06    -286.199E+06    -115.013E+06     1.07154E+06         46.3869
            1263     3.39617E-03     83.0667E-03         3.02518         1.97125        -6.32595         1.54044        -5.15793         2.28796         5.73109     327.471E-03    -163.492E-03    -163.979E-03    -163.492E-03     327.471E-03    -163.979E-03     126.330E-06    -92.1109E+06    -130.562E+06    -262.989E+06    -130.576E+06    -262.975E+06    -92.1109E+06     1.17400E+06         46.4406
            1264     4.24597E-03     83.0675E-03         2.97765         2.07687        -6.32763         1.51746        -4.92304         2.13247         1.35366     327.404E-03    -163.406E-03    -163.998E-03    -163.405E-03     327.403E-03    -163.998E-03     1.26036E-03    -68.0959E+06    -120.203E+06    -234.902E+06    -120.224E+06    -234.881E+06    -68.0959E+06     1.45328E+06         46.5084
            1265     5.09526E-03     83.0709E-03         2.41801         1.91221        -5.55355         1.72181        -4.98871         2.04358        -1.36963     327.367E-03    -163.349E-03    -164.018E-03    -163.345E-03     327.363E-03    -164.018E-03     2.77010E-03    -45.1229E+06    -109.772E+06    -204.929E+06    -109.813E+06    -204.888E+06    -45.1229E+06     1.91065E+06         46.5906
            1266     5.94466E-03     83.0772E-03         3.37718         1.94736        -6.52353         2.11683        -5.33895         2.02313        -3.45906     327.245E-03    -163.216E-03    -164.030E-03    -163.203E-03     327.232E-03    -164.030E-03     4.88126E-03    -23.6499E+06    -99.1667E+06    -175.227E+06    -99.2441E+06    -175.149E+06    -23.6499E+06     2.33427E+06         46.6904
            1267     6.79406E-03     83.0868E-03         3.62541         2.05156        -6.87405         2.40138        -5.65002         2.05156        -3.10929     327.101E-03    -163.074E-03    -164.027E-03    -163.044E-03     327.070E-03    -164.027E-03     7.59695E-03    -3.92091E+06    -88.5692E+06    -145.744E+06    -88.6918E+06    -145.622E+06    -3.92091E+06     2.57140E+06         46.8180
            1268     7.64364E-03     83.0996E-03         2.82519         2.08695        -6.10847         2.33532        -5.61860         2.08695    -848.999E-03     326.932E-03    -162.928E-03    -164.004E-03    -162.871E-03     326.875E-03    -164.004E-03     10.4540E-03     14.0240E+06    -77.9927E+06    -114.072E+06    -78.2058E+06    -113.858E+06     14.0240E+06     2.58203E+06         46.9991
            1269     8.49383E-03     83.1169E-03         3.34584         2.09771        -6.62841         2.04866        -5.33123         2.09771         1.70867     326.917E-03    -162.945E-03    -163.972E-03    -162.849E-03     326.821E-03    -163.972E-03     13.6416E-03     30.2750E+06    -66.4909E+06    -81.8056E+06    -68.2436E+06    -80.0528E+06     30.2750E+06     2.87788E+06         47.2897
            1270     9.34345E-03     83.1390E-03         2.91992         1.92034        -6.00743         1.72309        -4.96869         2.07842         3.04915     326.901E-03    -162.965E-03    -163.936E-03    -162.817E-03     326.753E-03    -163.936E-03     16.9643E-03     45.2452E+06    -38.9870E+06    -60.5727E+06    -58.8886E+06    -40.6711E+06     45.2452E+06     3.17553E+06         47.7954
            1271     10.1934E-03     83.1647E-03         2.50751         1.88092        -5.53833         1.49018        -4.67908         2.03901         2.33877     326.694E-03    -162.804E-03    -163.890E-03    -162.586E-03     326.475E-03    -163.890E-03     20.5810E-03     60.0373E+06     6.42325E+06    -49.8796E+06    -49.6383E+06     6.18199E+06     60.0373E+06     3.55549E+06         48.6854
            1272     11.0436E-03     83.1962E-03         2.54872         1.99076        -5.68476         1.33159        -4.46763         1.99076         1.00415     326.613E-03    -162.785E-03    -163.828E-03    -162.482E-03     326.309E-03    -163.828E-03     24.3145E-03     72.2674E+06     53.0655E+06    -40.9755E+06    -40.8238E+06     53.5993E+06     71.5819E+06     3.62379E+06         50.1733
            1273     11.8933E-03     83.2309E-03         2.03061         1.70547        -4.89111         1.25296        -4.34914         1.94116        -1.34971     326.732E-03    -162.939E-03    -163.793E-03    -162.524E-03     326.316E-03    -163.793E-03     28.4212E-03     79.7817E+06     77.6143E+06    -32.8530E+06    -32.7797E+06     78.2264E+06     79.0962E+06     2.77918E+06         52.4293
            1274     12.7436E-03     83.2722E-03         2.78186         1.66038        -5.59700         1.26151        -4.31234         1.89606        -3.29032     326.727E-03    -162.917E-03    -163.810E-03    -162.391E-03     326.201E-03    -163.810E-03     32.0547E-03     88.9199E+06     82.6608E+06    -25.2978E+06    -25.2651E+06     82.6281E+06     88.9199E+06     1.81998E+06         55.4193
            1275     13.5940E-03     83.3170E-03         2.74164         1.68726        -5.55700         1.22543        -4.20936         1.85584        -3.00384     326.927E-03    -163.055E-03    -163.873E-03    -162.255E-03     326.128E-03    -163.873E-03     39.1144E-03     110.388E+06     95.1316E+06    -17.6580E+06    -17.6462E+06     95.1198E+06     110.388E+06     1.08298E+06         58.7551
            1276     14.4444E-03     83.3770E-03         2.35352         1.64496        -5.06435         1.03619        -3.91561         1.81354        -2.26736     326.972E-03    -162.996E-03    -163.976E-03    -162.150E-03     326.126E-03    -163.976E-03     40.4311E-03     143.436E+06     115.267E+06    -9.15673E+06    -9.15314E+06     115.264E+06     143.436E+06     644.959E+03         61.7285
            1277     849.208E-06     84.4543E-03         4.14062     658.052E-03        -6.16279     901.246E-03        -2.92342     658.052E-03     369.338E-03     327.774E-03    -163.654E-03    -164.121E-03    -163.713E-03     327.774E-03    -164.061E-03    -408.243E-06    -147.436E+06    -150.976E+06    -321.758E+06    -150.583E+06    -321.756E+06    -147.831E+06     230.251E+03         46.3201
            1278     1.69820E-03     84.4524E-03         4.45302     914.131E-03        -6.77067         1.44715        -3.76480     914.131E-03         9.69396     327.883E-03    -163.848E-03    -164.035E-03    -163.931E-03     327.882E-03    -163.951E-03    -619.925E-06    -135.165E+06    -146.720E+06    -306.864E+06    -146.723E+06    -306.861E+06    -135.165E+06     539.495E+03         46.3446
            1279     2.54647E-03     84.4524E-03         3.73489         1.19723        -6.36120         2.09468        -4.72098         1.19723         6.90844     327.603E-03    -163.585E-03    -164.017E-03    -163.609E-03     327.603E-03    -163.994E-03    -499.138E-06    -115.680E+06    -139.687E+06    -287.174E+06    -139.696E+06    -287.165E+06    -115.680E+06     1.02044E+06         46.3839
            1280     3.39696E-03     84.4524E-03         3.56612         1.47963        -6.44980         2.54400        -5.42767         1.47963         5.89376     327.320E-03    -163.335E-03    -163.985E-03    -163.335E-03     327.320E-03    -163.985E-03    -185.612E-06    -92.2350E+06    -130.592E+06    -263.500E+06    -130.609E+06    -263.482E+06    -92.2350E+06     1.35813E+06         46.4378
            1281     4.24611E-03     84.4542E-03         3.79065         1.70891        -6.85398         2.67555        -5.73888         1.70891         1.38007     327.320E-03    -163.342E-03    -163.978E-03    -163.341E-03     327.319E-03    -163.978E-03     975.281E-06    -68.7246E+06    -120.882E+06    -235.946E+06    -120.906E+06    -235.922E+06    -68.7246E+06     1.55481E+06         46.5060
            1282     5.09511E-03     84.4579E-03         2.98076         1.86385        -6.15071         2.56967        -5.73961         1.86385        -1.49074     327.285E-03    -163.293E-03    -163.992E-03    -163.288E-03     327.280E-03    -163.992E-03     2.85990E-03    -45.4273E+06    -110.088E+06    -205.762E+06    -110.133E+06    -205.718E+06    -45.4273E+06     1.99853E+06         46.5887
            1283     5.94445E-03     84.4635E-03         3.62135         1.94815        -6.85476         2.31277        -5.54619         1.94815        -3.98459     327.177E-03    -163.175E-03    -164.001E-03    -163.160E-03     327.162E-03    -164.001E-03     5.23999E-03    -23.6969E+06    -99.2738E+06    -176.049E+06    -99.3602E+06    -175.962E+06    -23.6969E+06     2.49055E+06         46.6889
            1284     6.79441E-03     84.4731E-03         3.46438         1.98136        -6.73289         2.10948        -5.37800         1.98136        -3.71836     327.100E-03    -163.101E-03    -164.000E-03    -163.069E-03     327.069E-03    -164.000E-03     7.78207E-03    -3.97196E+06    -88.5458E+06    -146.321E+06    -88.6859E+06    -146.181E+06    -3.97196E+06     2.76757E+06         46.8161
            1285     7.64418E-03     84.4861E-03         2.58326         1.99129        -5.87252         2.05132        -5.34058         1.99129        -1.35238     327.150E-03    -163.157E-03    -163.993E-03    -163.099E-03     327.092E-03    -163.993E-03     10.4968E-03     13.9824E+06    -77.9683E+06    -114.474E+06    -78.2380E+06    -114.204E+06     13.9824E+06      2.8986E+06         46.9953
            1286     8.49342E-03     84.5033E-03         3.38637         1.99834        -6.68522         2.11024        -5.40910         1.99834         1.35712     327.084E-03    -163.102E-03    -163.982E-03    -163.007E-03     326.989E-03    -163.982E-03     13.5332E-03     30.1137E+06    -66.7699E+06    -82.5559E+06    -68.4210E+06    -80.9048E+06     30.1137E+06     3.12166E+06         47.2813
            1287     9.34332E-03     84.5256E-03         3.04836         1.97553        -6.31377         2.09304        -5.38889         2.00596         2.98064     326.840E-03    -162.890E-03    -163.950E-03    -162.745E-03     326.695E-03    -163.950E-03     16.7806E-03     45.3352E+06    -39.2105E+06    -60.9851E+06    -58.9260E+06    -41.2696E+06     45.3352E+06     3.47248E+06         47.7793
            1288     10.1931E-03     84.5511E-03         2.67798         1.97065        -5.92893         1.82659        -5.10798         2.00108         2.45870     326.657E-03    -162.759E-03    -163.898E-03    -162.544E-03     326.443E-03    -163.898E-03     20.3973E-03     60.1404E+06     5.88106E+06    -49.9522E+06    -49.6698E+06     5.59868E+06     60.1404E+06     3.70546E+06         48.6597
            1289     11.0434E-03     84.5822E-03         2.70288         1.97526        -5.96292         1.52180        -4.78184         1.97526         1.02799     326.490E-03    -162.661E-03    -163.829E-03    -162.361E-03     326.190E-03    -163.829E-03     24.1559E-03     72.7557E+06     52.8266E+06    -40.8384E+06    -40.6770E+06     53.6429E+06     71.7780E+06     3.82913E+06         50.1399
            1290     11.8939E-03     84.6179E-03         2.09368         1.67614        -5.07209         1.34152        -4.57949         1.93570        -1.59923     326.621E-03    -162.835E-03    -163.786E-03    -162.419E-03     326.205E-03    -163.786E-03     28.4167E-03     80.6429E+06     78.7351E+06    -32.5883E+06    -32.4867E+06     79.6112E+06     79.6652E+06     3.33356E+06         52.3971
            1291     12.7436E-03     84.6591E-03         2.77749         1.63011        -5.71887         1.17698        -4.37792         1.88967        -3.64936     326.869E-03    -163.063E-03    -163.805E-03    -162.537E-03     326.342E-03    -163.805E-03     32.0807E-03     89.6962E+06     84.3564E+06    -25.0491E+06    -24.9975E+06     84.3048E+06     89.6962E+06     2.32393E+06         55.4037
            1292     13.5938E-03     84.7032E-03         2.72597         1.52215        -5.54709         1.00194        -4.13906         1.83816        -3.33809     327.080E-03    -163.202E-03    -163.878E-03    -162.395E-03     326.273E-03    -163.878E-03     39.3120E-03     111.036E+06     96.3439E+06    -17.5211E+06    -17.4971E+06     96.3200E+06     111.036E+06     1.53595E+06         58.7702
            1293     14.4445E-03     84.7636E-03         2.30533         1.46733        -5.04124     883.926E-03        -3.93585         1.78333        -2.44878     326.908E-03    -162.925E-03    -163.983E-03    -162.073E-03     326.056E-03    -163.983E-03     40.5670E-03     143.850E+06     116.358E+06    -9.23615E+06    -9.22907E+06     116.351E+06     143.850E+06     675.712E+03         61.7756
            1294     849.350E-06     85.8395E-03         4.65696     381.955E-03        -6.45790     684.793E-03        -2.48573     381.955E-03     819.986E-03     327.564E-03    -163.668E-03    -163.896E-03    -163.727E-03     327.564E-03    -163.837E-03    -641.531E-06    -147.868E+06    -151.501E+06    -323.027E+06    -151.109E+06    -323.024E+06    -148.263E+06     376.574E+03         46.3163
            1295     1.69818E-03     85.8402E-03         4.96250     651.807E-03        -7.11059         1.12659        -3.27468     651.807E-03         11.1679     327.711E-03    -163.774E-03    -163.937E-03    -163.857E-03     327.710E-03    -163.854E-03    -712.449E-06    -135.199E+06    -146.967E+06    -307.555E+06    -146.971E+06    -307.552E+06    -135.199E+06     747.310E+03         46.3412
            1296     2.54765E-03     85.8387E-03         4.11909     919.358E-03        -6.55261         1.81434        -4.24786     919.358E-03         8.43896     327.659E-03    -163.703E-03    -163.956E-03    -163.727E-03     327.659E-03    -163.932E-03    -545.228E-06    -115.835E+06    -140.039E+06    -288.225E+06    -140.046E+06    -288.218E+06    -115.835E+06     943.763E+03         46.3810
            1297     3.39586E-03     85.8388E-03         3.88359         1.21217        -6.59127         2.36189        -5.06957         1.21217         7.23348     327.474E-03    -163.501E-03    -163.973E-03    -163.500E-03     327.474E-03    -163.973E-03     129.683E-06    -92.7735E+06    -130.987E+06    -264.438E+06    -131.003E+06    -264.421E+06    -92.7735E+06     1.37166E+06         46.4354
            1298     4.24547E-03     85.8405E-03         3.83754         1.46745        -6.75368         2.58352        -5.49967         1.46745         1.98188     327.192E-03    -163.216E-03    -163.976E-03    -163.214E-03     327.191E-03    -163.976E-03     1.18815E-03    -69.1160E+06    -121.210E+06    -236.520E+06    -121.239E+06    -236.491E+06    -69.1160E+06     1.72269E+06         46.5041
            1299     5.09574E-03     85.8437E-03         2.81624         1.64722        -5.86955         2.47172        -5.52503         1.64722        -1.49618     327.046E-03    -163.083E-03    -163.963E-03    -163.078E-03     327.041E-03    -163.963E-03     2.87001E-03    -45.9850E+06    -110.838E+06    -206.855E+06    -110.888E+06    -206.805E+06    -45.9850E+06     2.11827E+06         46.5873
            1300     5.94557E-03     85.8502E-03         3.58826         1.74666        -6.71845         2.19491        -5.32510         1.74666        -4.38065     327.147E-03    -163.185E-03    -163.962E-03    -163.170E-03     327.133E-03    -163.962E-03     5.08193E-03    -23.9025E+06    -99.6591E+06    -176.856E+06    -99.7431E+06    -176.772E+06    -23.9025E+06     2.45984E+06         46.6876
            1301     6.79457E-03     85.8595E-03         3.44411         1.79167        -6.63114         2.02904        -5.21607         1.79167        -4.22765     327.263E-03    -163.287E-03    -163.977E-03    -163.256E-03     327.233E-03    -163.977E-03     7.58824E-03    -4.15177E+06    -88.6708E+06    -147.014E+06    -88.8154E+06    -146.869E+06    -4.15177E+06     2.78271E+06         46.8142
            1302     7.64393E-03     85.8728E-03         2.59896         1.82049        -5.83420         2.10876        -5.34401         1.82049        -1.73455     327.295E-03    -163.303E-03    -163.992E-03    -163.246E-03     327.238E-03    -163.992E-03     10.4882E-03     13.8005E+06    -78.1779E+06    -115.287E+06    -78.5292E+06    -114.936E+06     13.8005E+06     3.28455E+06         46.9912
            1303     8.49335E-03     85.8908E-03         3.45727         1.85175        -6.72610         2.19723        -5.46606         1.85175         1.24629     327.130E-03    -163.139E-03    -163.992E-03    -163.045E-03     327.037E-03    -163.992E-03     13.4815E-03     30.1646E+06    -67.0319E+06    -83.2448E+06    -68.5702E+06    -81.7065E+06     30.1646E+06     3.46378E+06         47.2727
            1304     9.34304E-03     85.9111E-03         3.00833         1.87725        -6.29127         2.10878        -5.39172         1.87725         2.95197     326.864E-03    -162.903E-03    -163.961E-03    -162.756E-03     326.716E-03    -163.961E-03     16.8785E-03     45.3827E+06    -39.5248E+06    -61.2540E+06    -58.8578E+06    -41.9209E+06     45.3827E+06     3.71286E+06         47.7633
            1305     10.1933E-03     85.9381E-03         2.62622         1.88623        -5.91369         1.92032        -5.20778         1.88623         2.24380     326.704E-03    -162.795E-03    -163.909E-03    -162.580E-03     326.490E-03    -163.909E-03     20.4323E-03     60.0757E+06     5.36675E+06    -50.1534E+06    -49.7911E+06     5.00444E+06     60.0757E+06     4.19796E+06         48.6339
            1306     11.0431E-03     85.9682E-03         2.82349         1.87605        -6.12041         1.66816        -4.96509         1.87605     474.365E-03     326.472E-03    -162.633E-03    -163.839E-03    -162.336E-03     326.175E-03    -163.839E-03     24.0054E-03     72.8387E+06     52.2544E+06    -41.5902E+06    -41.3879E+06     53.3878E+06     71.5030E+06     4.19917E+06         50.1058
            1307     11.8934E-03     86.0040E-03         2.19214         1.58741        -5.22794         1.38936        -4.68547         1.84772        -2.21983     326.445E-03    -162.657E-03    -163.788E-03    -162.238E-03     326.026E-03    -163.788E-03     28.5117E-03     81.4029E+06     79.5391E+06    -33.5499E+06    -33.4334E+06     81.0353E+06     79.7901E+06     3.62480E+06         52.3638
            1308     12.7441E-03     86.0459E-03         2.75714         1.54430        -5.77174         1.12578        -4.40069         1.80461        -4.08313     326.780E-03    -162.980E-03    -163.800E-03    -162.453E-03     326.253E-03    -163.800E-03     32.1152E-03     90.4082E+06     85.9418E+06    -25.8129E+06    -25.7475E+06     86.1534E+06     90.1312E+06     2.66507E+06         55.3872
            1309     13.5941E-03     86.0901E-03         2.70578         1.44592        -5.62970     971.001E-03        -4.20225         1.75325        -3.69533     327.097E-03    -163.225E-03    -163.872E-03    -162.422E-03     326.293E-03    -163.872E-03     39.2033E-03     111.442E+06     97.6723E+06    -17.6820E+06    -17.6536E+06     97.6439E+06     111.442E+06     1.67764E+06         58.7855
            1310     14.4443E-03     86.1498E-03         2.30860         1.39629        -5.18118     987.982E-03        -4.16790         1.70361        -2.69915     326.924E-03    -162.945E-03    -163.979E-03    -162.088E-03     326.067E-03    -163.979E-03     40.6953E-03     144.518E+06     117.799E+06    -8.90938E+06    -8.90103E+06     117.791E+06     144.518E+06     805.210E+03         61.8236
            1311     848.831E-06     87.2267E-03         5.02294         1.91054        -8.52803         1.97818        -5.48327         1.91054     782.629E-03     327.682E-03    -163.682E-03    -164.000E-03    -163.843E-03     327.682E-03    -163.838E-03    -663.753E-06    -148.583E+06    -151.892E+06    -324.461E+06    -151.796E+06    -324.459E+06    -148.681E+06     260.422E+03         46.3132
            1312     1.69826E-03     87.2259E-03         4.92842         1.87339        -8.42690         1.59205        -5.09053         1.87339         11.4735     327.402E-03    -163.561E-03    -163.841E-03    -163.561E-03     327.402E-03    -163.841E-03    -730.144E-06    -135.567E+06    -147.194E+06    -308.621E+06    -147.198E+06    -308.617E+06    -135.567E+06     701.711E+03         46.3385
            1313     2.54729E-03     87.2255E-03         3.60029         1.65948        -6.88987         1.18890        -4.53391         1.71491         8.64841     327.458E-03    -163.612E-03    -163.845E-03    -163.612E-03     327.457E-03    -163.845E-03    -468.692E-06    -115.823E+06    -140.027E+06    -288.957E+06    -140.036E+06    -288.948E+06    -115.823E+06     1.08161E+06         46.3789
            1314     3.39717E-03     87.2255E-03         3.04846         1.50744        -6.16126         1.04861        -4.21684         1.56287         7.41937     327.447E-03    -163.550E-03    -163.897E-03    -163.550E-03     327.446E-03    -163.897E-03     168.696E-06    -93.0764E+06    -131.433E+06    -265.271E+06    -131.452E+06    -265.253E+06    -93.0764E+06     1.42231E+06         46.4340
            1315     4.24637E-03     87.2265E-03         2.79713         1.47104        -5.81739         1.19478        -4.21503         1.47104         2.15046     327.330E-03    -163.392E-03    -163.939E-03    -163.390E-03     327.329E-03    -163.939E-03     1.17711E-03    -69.0657E+06    -121.388E+06    -237.399E+06    -121.421E+06    -237.367E+06    -69.0657E+06     1.83344E+06         46.5031
            1316     5.09538E-03     87.2298E-03         1.96276         1.45021        -4.91281         1.53554        -4.48559         1.45021        -1.35810     327.304E-03    -163.336E-03    -163.968E-03    -163.332E-03     327.300E-03    -163.968E-03     2.60756E-03    -45.6596E+06    -110.477E+06    -207.619E+06    -110.524E+06    -207.572E+06    -45.6596E+06     2.09187E+06         46.5863
            1317     5.94471E-03     87.2365E-03         3.31903         1.49039        -6.30221         1.96680        -4.94997         1.49039        -4.30848     327.225E-03    -163.238E-03    -163.987E-03    -163.227E-03     327.214E-03    -163.987E-03     4.56830E-03    -24.2565E+06    -99.7094E+06    -177.655E+06    -99.7868E+06    -177.578E+06    -24.2565E+06     2.35625E+06         46.6861
            1318     6.79459E-03     87.2463E-03         3.58743         1.56449        -6.66241         2.22915        -5.30413         1.56449        -4.16774     327.179E-03    -163.181E-03    -163.997E-03    -163.152E-03     327.150E-03    -163.997E-03     7.34787E-03    -4.47615E+06    -89.0388E+06    -148.074E+06    -89.1838E+06    -147.929E+06    -4.47615E+06     2.79986E+06         46.8115
            1319     7.64379E-03     87.2601E-03         2.69755         1.63421        -5.86163         2.17462        -5.33870         1.63421        -1.83178     327.070E-03    -163.077E-03    -163.992E-03    -163.019E-03     327.011E-03    -163.992E-03     10.6027E-03     13.5456E+06    -78.4033E+06    -116.453E+06    -78.7540E+06    -116.103E+06     13.5456E+06     3.35043E+06         46.9863
            1320     8.49359E-03     87.2770E-03         3.27188         1.67550        -6.48212         1.95038        -5.16062         1.67550         1.06035     327.038E-03    -163.062E-03    -163.976E-03    -162.964E-03     326.939E-03    -163.976E-03     13.7979E-03     29.9121E+06    -66.8795E+06    -84.4430E+06    -68.8013E+06    -82.5212E+06     29.9121E+06     3.88604E+06         47.2636
            1321     9.34337E-03     87.2982E-03         2.69068         1.68791        -5.90542         1.73429        -4.94903         1.68791         2.66920     327.066E-03    -163.114E-03    -163.951E-03    -162.965E-03     326.917E-03    -163.951E-03     17.0263E-03     45.1318E+06    -40.0265E+06    -61.9851E+06    -59.1826E+06     -42.829E+06     45.1318E+06     4.17963E+06         47.7471
            1322     10.1928E-03     87.3242E-03         2.33699         1.68484        -5.55077         1.66686        -4.88065         1.68484         1.80590     326.760E-03    -162.848E-03    -163.912E-03    -162.633E-03     326.545E-03    -163.912E-03     20.4139E-03     59.7824E+06     3.98054E+06    -50.3325E+06    -49.8979E+06     3.54596E+06     59.7824E+06     4.65257E+06         48.6082
            1323     11.0432E-03     87.3550E-03         2.74980         1.67787        -5.97599         1.65236        -4.87855         1.67787     144.184E-03     326.470E-03    -162.627E-03    -163.843E-03    -162.328E-03     326.171E-03    -163.843E-03     24.0927E-03     73.7641E+06     51.8763E+06    -41.4876E+06    -41.2173E+06     53.6666E+06     71.7035E+06     4.87441E+06         50.0718
            1324     11.8936E-03     87.3897E-03         2.16978         1.56446        -5.31964         1.52921        -4.78078         1.66616        -2.47942     326.537E-03    -162.744E-03    -163.793E-03    -162.322E-03     326.115E-03    -163.793E-03     28.6095E-03     82.9213E+06     80.2921E+06    -33.3707E+06    -33.2083E+06     82.7589E+06     80.2921E+06     4.29972E+06         52.3299
            1325     12.7437E-03     87.4326E-03         2.75060         1.54556        -5.91296         1.40310        -4.66717         1.64726        -4.22182     326.624E-03    -162.822E-03    -163.802E-03    -162.294E-03     326.096E-03    -163.802E-03     32.1034E-03     91.1215E+06     87.7579E+06    -25.7101E+06    -25.6215E+06     88.2379E+06     90.5529E+06     3.03189E+06         55.3697
            1326     13.5941E-03     87.4768E-03         2.76134         1.51451        -5.89627         1.35533        -4.60109         1.62535        -3.72016     326.892E-03    -163.028E-03    -163.864E-03    -162.230E-03     326.094E-03    -163.864E-03     39.0410E-03     111.750E+06     99.3764E+06    -17.9642E+06    -17.9392E+06     99.3514E+06     111.750E+06     1.57612E+06         58.8005
            1327     14.4450E-03     87.5358E-03         2.30297         1.49251        -5.41271         1.29579        -4.51636         1.60334        -2.67023     326.985E-03    -163.014E-03    -163.971E-03    -162.157E-03     326.129E-03    -163.971E-03     40.7049E-03     145.088E+06     118.983E+06    -9.40192E+06    -9.39547E+06     118.977E+06     145.088E+06     837.582E+03         61.8725
            1328     848.908E-06     88.6130E-03         4.75501         2.70152        -9.17733         2.30708        -6.72940         2.70152     228.892E-03     327.596E-03    -163.538E-03    -164.057E-03    -163.795E-03     327.595E-03    -163.800E-03    -579.437E-06    -149.182E+06    -152.485E+06    -325.525E+06    -152.388E+06    -325.524E+06    -149.280E+06     251.670E+03         46.3121
            1329     1.69835E-03     88.6116E-03         4.36711         2.34023        -8.42018         1.68259        -5.73565         2.34023         10.4034     327.473E-03    -163.553E-03    -163.920E-03    -163.648E-03     327.472E-03    -163.824E-03    -913.494E-06    -136.146E+06    -147.815E+06    -309.753E+06    -147.818E+06    -309.749E+06    -136.146E+06     620.555E+03         46.3375
            1330     2.54803E-03     88.6117E-03         2.94592         1.95510        -6.64790         1.01801        -4.77541         2.01053         7.49767     327.324E-03    -163.489E-03    -163.835E-03    -163.488E-03     327.324E-03    -163.835E-03    -760.981E-06    -116.498E+06    -140.772E+06    -290.089E+06    -140.784E+06    -290.077E+06    -116.498E+06     1.14978E+06         46.3782
            1331     3.39666E-03     88.6117E-03         2.38804         1.65430        -5.75883     627.205E-03        -4.05343         1.70973         6.46627     327.409E-03    -163.538E-03    -163.871E-03    -163.538E-03     327.409E-03    -163.871E-03    -267.692E-06    -93.4156E+06    -131.989E+06    -266.130E+06    -132.010E+06    -266.109E+06    -93.4156E+06     1.50772E+06         46.4335
            1332     4.24607E-03     88.6129E-03         2.28760         1.49073        -5.43259     654.693E-03        -3.79968         1.49073         1.75549     327.592E-03    -163.651E-03    -163.940E-03    -163.651E-03     327.591E-03    -163.940E-03     850.127E-06    -69.3747E+06    -121.708E+06    -238.066E+06    -121.736E+06    -238.038E+06    -69.3747E+06     1.69395E+06         46.5026
            1333     5.09528E-03     88.6170E-03         1.56598         1.33390        -4.50527         1.01814        -4.00072         1.37719        -1.42898     327.471E-03    -163.468E-03    -164.003E-03    -163.464E-03     327.467E-03    -164.003E-03     2.51793E-03    -46.1810E+06    -110.851E+06    -208.566E+06    -110.892E+06    -208.525E+06    -46.1810E+06     1.96066E+06         46.5853
            1334     5.94446E-03     88.6230E-03         3.02237         1.31150        -5.92688         1.46288        -4.41067         1.35479        -4.37006     327.187E-03    -163.164E-03    -164.023E-03    -163.149E-03     327.172E-03    -164.023E-03     5.00434E-03    -24.6377E+06    -100.131E+06    -178.639E+06    -100.220E+06    -178.550E+06    -24.6377E+06     2.52418E+06         46.6843
            1335     6.79382E-03     88.6326E-03         3.24517         1.38358        -6.24520         1.73534        -4.73536         1.38358        -4.34077     327.030E-03    -163.016E-03    -164.014E-03    -162.984E-03     326.998E-03    -164.014E-03     7.81888E-03    -4.65998E+06    -89.3308E+06    -148.995E+06    -89.4871E+06    -148.839E+06    -4.65998E+06     2.99872E+06         46.8083
            1336     7.64417E-03     88.6462E-03         2.27922         1.41944        -5.34088         1.70698        -4.76864         1.41944        -1.95404     326.932E-03    -162.943E-03    -163.989E-03    -162.886E-03     326.876E-03    -163.989E-03     10.4334E-03     13.0722E+06    -78.7878E+06    -117.867E+06    -79.1131E+06    -117.542E+06     13.0722E+06     3.29926E+06         46.9807
            1337     8.49416E-03     88.6631E-03         2.95811         1.43884        -6.04234         1.57298        -4.65721         1.43884     918.265E-03     326.958E-03    -162.996E-03    -163.962E-03    -162.899E-03     326.861E-03    -163.962E-03     13.6240E-03     29.4406E+06    -67.1311E+06    -85.6029E+06    -69.0960E+06    -83.6380E+06     29.4406E+06     4.00751E+06         47.2538
            1338     9.34341E-03     88.6858E-03         2.53656         1.44771        -5.62118         1.58374        -4.66836         1.44771         2.62091     326.983E-03    -163.049E-03    -163.934E-03    -162.900E-03     326.834E-03    -163.934E-03     17.0356E-03     44.8251E+06    -40.6996E+06    -62.6907E+06    -59.4965E+06    -43.8937E+06     44.8251E+06     4.55935E+06         47.7305
            1339     10.1932E-03     88.7105E-03         2.29999         1.45560        -5.39183         1.59986        -4.69170         1.45560         1.94816     326.828E-03    -162.932E-03    -163.897E-03    -162.717E-03     326.613E-03    -163.897E-03     20.4373E-03     59.3295E+06     2.54703E+06    -50.8919E+06    -50.3843E+06     2.03938E+06     59.3295E+06     4.92584E+06         48.5824
            1340     11.0434E-03     88.7408E-03         2.63046         1.46095        -5.75619         1.56197        -4.68770         1.46095     449.953E-03     326.666E-03    -162.828E-03    -163.839E-03    -162.528E-03     326.367E-03    -163.839E-03     24.1363E-03     74.3303E+06     51.3336E+06    -41.8172E+06    -41.5096E+06     53.6885E+06     71.6677E+06     5.26556E+06         50.0376
            1341     11.8933E-03     88.7768E-03         2.06191         1.46445        -5.23688         1.59235        -4.76732         1.46445        -2.20494     326.603E-03    -162.804E-03    -163.799E-03    -162.385E-03     326.184E-03    -163.799E-03     28.5117E-03     84.5274E+06     80.6444E+06    -33.2148E+06    -33.0123E+06     84.3249E+06     80.6444E+06     4.85818E+06         52.2955
            1342     12.7435E-03     88.8188E-03         2.82336         1.47087        -6.03543         1.68359        -4.89566         1.47087        -4.13539     326.505E-03    -162.699E-03    -163.806E-03    -162.172E-03     325.978E-03    -163.806E-03     32.0967E-03     92.4315E+06     89.3575E+06    -25.4142E+06    -25.2964E+06     90.4602E+06     91.2111E+06     3.58495E+06         55.3515
            1343     13.5945E-03     88.8625E-03         2.86438         1.47918        -6.08947         1.69519        -4.92028         1.47918        -3.77720     326.855E-03    -162.990E-03    -163.865E-03    -162.191E-03     326.056E-03    -163.865E-03     39.0867E-03     112.806E+06     101.676E+06    -17.7611E+06    -17.7183E+06     101.633E+06     112.806E+06     2.08404E+06         58.8152
            1344     14.4446E-03     88.9230E-03         2.32393         1.48104        -5.52781         1.50631        -4.71019         1.48104        -2.68459     326.973E-03    -163.001E-03    -163.972E-03    -162.151E-03     326.124E-03    -163.972E-03     40.5257E-03     145.971E+06     120.462E+06    -9.23710E+06    -9.22839E+06     120.453E+06     145.971E+06     950.636E+03         61.9219
            1345     849.806E-06     89.9995E-03         4.15627         1.63991        -7.51727         1.49804        -4.85904         1.63991     872.641E-03     327.532E-03    -163.632E-03    -163.900E-03    -163.751E-03     327.532E-03    -163.780E-03    -516.640E-06    -149.219E+06    -152.433E+06    -326.355E+06    -152.433E+06    -326.354E+06    -149.219E+06     68.0337E+03         46.3128
            1346     1.69800E-03     89.9985E-03         4.50427         1.54366        -7.84927         1.43958        -4.78459         1.54366         10.6242     327.705E-03    -163.760E-03    -163.945E-03    -163.864E-03     327.705E-03    -163.840E-03    -1.06226E-03    -136.539E+06    -147.907E+06    -310.791E+06    -147.909E+06    -310.789E+06    -136.539E+06     427.360E+03         46.3382
            1347     2.54684E-03     89.9974E-03         3.39391         1.49264        -6.71301         1.34083        -4.65992         1.49264         7.97263     327.568E-03    -163.645E-03    -163.924E-03    -163.653E-03     327.568E-03    -163.914E-03    -968.568E-06    -117.177E+06    -141.126E+06    -291.464E+06    -141.136E+06    -291.454E+06    -117.177E+06     914.040E+03         46.3785
            1348     3.39711E-03     89.9980E-03         2.78439         1.44211        -6.02099         1.24094        -4.47754         1.44211         6.61566     327.499E-03    -163.545E-03    -163.954E-03    -163.544E-03     327.499E-03    -163.954E-03    -343.751E-06    -93.8505E+06    -131.988E+06    -267.145E+06    -132.009E+06    -267.124E+06    -93.8505E+06     1.40630E+06         46.4333
            1349     4.24577E-03     90.0002E-03         2.62674         1.39169        -5.76115         1.14110        -4.27552         1.39169         1.63409     327.427E-03    -163.440E-03    -163.987E-03    -163.439E-03     327.426E-03    -163.987E-03     1.01464E-03    -70.0156E+06    -122.088E+06    -238.807E+06     -122.12E+06    -238.775E+06    -70.0156E+06     1.82002E+06         46.5018
            1350     5.09481E-03     90.0036E-03         1.63889         1.17307        -4.50740     995.643E-03        -4.02894         1.33786        -1.86716     327.251E-03    -163.246E-03    -164.005E-03    -163.241E-03     327.247E-03    -164.005E-03     2.77029E-03    -46.9864E+06    -111.912E+06    -209.751E+06    -111.956E+06    -209.707E+06    -46.9864E+06     2.04977E+06         46.5841
            1351     5.94493E-03     90.0088E-03         2.81302         1.11584        -5.61523     885.148E-03        -3.85215         1.28063        -4.81922     327.156E-03    -163.147E-03    -164.008E-03    -163.133E-03     327.141E-03    -164.008E-03     5.13332E-03    -25.0445E+06    -100.872E+06    -179.868E+06    -100.967E+06    -179.773E+06    -25.0445E+06     2.58281E+06         46.6824
            1352     6.79484E-03     90.0195E-03         2.78062         1.16868        -5.65792     925.842E-03        -3.86673         1.23227        -4.56715     327.141E-03    -163.135E-03    -164.006E-03    -163.104E-03     327.110E-03    -164.006E-03     7.73064E-03    -5.12918E+06    -89.9323E+06    -149.939E+06    -90.1175E+06    -149.754E+06    -5.12918E+06     3.25512E+06         46.8052
            1353     7.64382E-03     90.0322E-03         1.77316         1.14666        -4.65244         1.18759        -4.13046         1.21025        -1.75195     327.109E-03    -163.109E-03    -163.999E-03    -163.054E-03     327.053E-03    -163.999E-03     10.2959E-03     12.6662E+06    -79.5045E+06    -118.668E+06    -79.8446E+06    -118.328E+06     12.6662E+06     3.45331E+06         46.9751
            1354     8.49317E-03     90.0501E-03         2.88478         1.22030        -5.83864         1.48948        -4.44334         1.22030         1.37693     326.844E-03    -162.870E-03    -163.974E-03    -162.776E-03     326.750E-03    -163.974E-03     13.4561E-03     28.7898E+06    -68.2489E+06    -86.7700E+06    -69.8019E+06    -85.2170E+06     28.7898E+06     3.81853E+06         47.2437
            1355     9.34370E-03     90.0714E-03         2.57484         1.24772        -5.54081         1.60875        -4.57472         1.24772         3.20023     326.636E-03    -162.712E-03    -163.924E-03    -162.562E-03     326.486E-03    -163.924E-03     17.0100E-03     44.1897E+06    -41.8411E+06     -63.605E+06    -59.9793E+06    -45.4667E+06     44.1897E+06     4.59580E+06         47.7133
            1356     10.1938E-03     90.0977E-03         2.29805         1.27349        -5.29302         1.56406        -4.55903         1.27349         2.55610     326.856E-03    -162.981E-03    -163.875E-03    -162.765E-03     326.640E-03    -163.875E-03     20.5062E-03     58.8145E+06     1.27372E+06    -51.6693E+06    -51.0441E+06     648.599E+03     58.8145E+06     5.45400E+06         48.5560
            1357     11.0430E-03     90.1276E-03         2.59858         1.29017        -5.64857         1.49133        -4.54133         1.29017     849.669E-03     326.865E-03    -163.036E-03    -163.829E-03    -162.734E-03     326.563E-03    -163.829E-03     24.2185E-03     74.7791E+06     50.6546E+06    -42.8073E+06    -42.4301E+06     53.5724E+06     71.4842E+06     5.79142E+06         50.0027
            1358     11.8932E-03     90.1635E-03         1.91771         1.30127        -5.03680         1.49728        -4.61637         1.30127        -2.03622     326.570E-03    -162.774E-03    -163.795E-03    -162.356E-03     326.151E-03    -163.795E-03     28.5301E-03     85.9458E+06     80.6924E+06    -34.1730E+06    -33.9679E+06     85.7408E+06     80.6924E+06     4.89151E+06         52.2605
            1359     12.7440E-03     90.2043E-03         2.66479         1.31043        -5.84210         1.50406        -4.68136         1.31043        -4.07539     326.559E-03    -162.755E-03    -163.805E-03    -162.227E-03     326.032E-03    -163.805E-03     32.0970E-03     93.5830E+06     90.6158E+06    -25.9449E+06    -25.8280E+06     92.4574E+06     91.6245E+06     3.69895E+06         55.3330
            1360     13.5939E-03     90.2496E-03         2.65661         1.31653        -5.86115         1.48486        -4.68941         1.31653        -3.90617     326.930E-03    -163.060E-03    -163.869E-03    -162.256E-03     326.125E-03    -163.869E-03     39.2543E-03     113.709E+06     104.050E+06    -17.7699E+06    -17.7088E+06     103.989E+06     113.709E+06     2.57904E+06         58.8297
            1361     14.4446E-03     90.3092E-03         2.19087         1.31906        -5.38420         1.45637        -4.64970         1.31906        -2.75738     326.855E-03    -162.880E-03    -163.975E-03    -162.027E-03     326.003E-03    -163.975E-03     40.5804E-03     146.743E+06     122.377E+06    -9.21871E+06    -9.20366E+06     122.362E+06     146.743E+06     1.23534E+06         61.9721
            1362     848.427E-06     91.3853E-03         3.40538     977.474E-03        -6.14513     893.598E-03        -3.63334     977.474E-03         2.14167     327.667E-03    -163.707E-03    -163.960E-03    -163.861E-03     327.667E-03    -163.806E-03    -491.543E-06    -149.194E+06    -152.396E+06    -327.290E+06    -152.396E+06    -327.290E+06    -149.194E+06     181.068E+03         46.3137
            1363     1.69845E-03     91.3853E-03         4.82026     990.049E-03        -7.64539         1.20850        -4.03363     990.049E-03         11.3054     327.696E-03    -163.785E-03    -163.911E-03    -163.812E-03     327.696E-03    -163.884E-03    -772.862E-06    -136.584E+06    -147.954E+06    -311.832E+06    -147.959E+06    -311.827E+06    -136.584E+06     687.318E+03         46.3388
            1364     2.54751E-03     91.3842E-03         3.92036         1.09457        -6.87471         1.39379        -4.34814         1.09457         8.95251     327.865E-03    -163.872E-03    -163.993E-03    -163.899E-03     327.865E-03    -163.966E-03    -719.826E-06    -117.160E+06    -141.188E+06    -292.274E+06    -141.196E+06    -292.266E+06    -117.160E+06     997.463E+03         46.3788
            1365     3.39545E-03     91.3846E-03         3.08435         1.17159        -6.09786         1.38921        -4.40271         1.17159         7.06693     327.566E-03    -163.539E-03    -164.027E-03    -163.539E-03     327.566E-03    -164.027E-03    -99.3912E-06    -94.4177E+06    -132.459E+06    -268.517E+06    -132.476E+06    -268.501E+06    -94.4177E+06     1.22631E+06         46.4331
            1366     4.24568E-03     91.3862E-03         2.81397         1.20528        -5.80507         1.27284        -4.26394         1.20528         1.84575     327.127E-03    -163.113E-03    -164.014E-03    -163.112E-03     327.126E-03    -164.014E-03     997.653E-06    -70.5722E+06    -122.551E+06    -239.984E+06    -122.586E+06    -239.948E+06    -70.5722E+06     1.89511E+06         46.5012
            1367     5.09602E-03     91.3895E-03         1.65985         1.07949        -4.48569         1.07466        -4.02201         1.20099        -1.88993     327.164E-03    -163.170E-03    -163.994E-03    -163.166E-03     327.159E-03    -163.994E-03     2.71898E-03    -46.9189E+06    -111.946E+06    -210.444E+06    -112.005E+06    -210.385E+06    -46.9189E+06     2.31932E+06         46.5830
            1368     5.94474E-03     91.3959E-03         2.72370         1.05077        -5.52039     926.557E-03        -3.84475         1.17227        -4.67184     327.365E-03    -163.358E-03    -164.006E-03    -163.345E-03     327.352E-03    -164.006E-03     4.85966E-03    -25.3134E+06    -101.262E+06    -181.064E+06    -101.363E+06    -180.963E+06    -25.3134E+06     2.70681E+06         46.6807
            1369     6.79384E-03     91.4054E-03         2.69679         1.07558        -5.54425     897.978E-03        -3.80903         1.13917        -4.21899     327.194E-03    -163.174E-03    -164.020E-03    -163.145E-03     327.165E-03    -164.020E-03     7.41474E-03    -5.86076E+06    -90.6374E+06    -151.436E+06    -90.8191E+06    -151.255E+06    -5.86076E+06     3.22306E+06         46.8023
            1370     7.64383E-03     91.4196E-03         1.60410         1.05641        -4.45270         1.04973        -3.96192         1.12000        -1.33019     326.958E-03    -162.952E-03    -164.006E-03    -162.894E-03     326.900E-03    -164.006E-03     10.5137E-03     12.2093E+06    -79.8674E+06    -119.789E+06    -80.2693E+06    -119.387E+06     12.2093E+06     3.71095E+06         46.9698
            1371     8.49369E-03     91.4360E-03         2.75758         1.12407        -5.67489         1.28782        -4.20513         1.12407         1.84558     326.870E-03    -162.896E-03    -163.974E-03    -162.801E-03     326.775E-03    -163.974E-03     13.6047E-03     28.4248E+06    -68.8936E+06    -87.9576E+06    -70.4204E+06    -86.4309E+06     28.4248E+06     4.09987E+06         47.2340
            1372     9.34359E-03     91.4571E-03         2.44514         1.14214        -5.37297         1.37558        -4.30340         1.14214         3.80648     326.746E-03    -162.817E-03    -163.929E-03    -162.671E-03     326.600E-03    -163.929E-03     16.8395E-03     43.3084E+06    -43.4308E+06    -65.1811E+06    -61.1422E+06    -47.4697E+06     43.3084E+06     4.79756E+06         47.6962
            1373     10.1936E-03     91.4843E-03         2.09672         1.15829        -5.05075         1.32576        -4.27979         1.15829         3.02381     326.657E-03    -162.780E-03    -163.878E-03    -162.565E-03     326.443E-03    -163.878E-03     20.4133E-03     58.3058E+06    -544.486E+03    -52.3889E+06    -51.6851E+06    -1.24826E+06     58.3058E+06     5.71852E+06         48.5289
            1374     11.0437E-03     91.5151E-03         2.42551         1.16793        -5.43511         1.29160        -4.30120         1.16793         1.11971     326.612E-03    -162.798E-03    -163.814E-03    -162.498E-03     326.312E-03    -163.814E-03     24.1556E-03     75.8775E+06     50.0207E+06    -42.9998E+06    -42.5988E+06     53.7861E+06     71.7112E+06     5.93307E+06         49.9671
            1375     11.8937E-03     91.5494E-03         1.62865         1.11344        -4.65580         1.19405        -4.27838         1.17062        -1.93076     326.681E-03    -162.905E-03    -163.776E-03    -162.486E-03     326.262E-03    -163.776E-03     28.5398E-03     87.8626E+06     81.1082E+06    -34.5098E+06    -34.2999E+06     87.6527E+06     81.1082E+06     5.00467E+06         52.2247
            1376     12.7435E-03     91.5911E-03         2.32383         1.10771        -5.41828         1.08473        -4.23636         1.16489        -4.00050     326.758E-03    -162.961E-03    -163.797E-03    -162.430E-03     326.228E-03    -163.797E-03     32.1907E-03     94.3612E+06     91.4866E+06    -26.3975E+06    -26.2752E+06     94.0276E+06     91.6978E+06     3.80553E+06         55.3136
            1377     13.5942E-03     91.6358E-03         2.29945         1.13008        -5.46243         1.08252        -4.27028         1.15485        -3.82870     326.873E-03    -163.005E-03    -163.868E-03    -162.200E-03     326.069E-03    -163.868E-03     39.2527E-03     113.954E+06     105.735E+06    -18.2741E+06    -18.2066E+06     105.743E+06     113.879E+06     2.81796E+06         58.8441
            1378     14.4448E-03     91.6955E-03         1.91834         1.12387        -5.12632         1.21720        -4.44994         1.14864        -2.68121     326.768E-03    -162.794E-03    -163.974E-03    -161.941E-03     325.915E-03    -163.974E-03     40.5866E-03     147.666E+06     124.706E+06    -9.57506E+06    -9.55388E+06     124.684E+06     147.666E+06     1.44775E+06         62.0232
            1379     849.432E-06     92.7714E-03         2.57059         1.04451        -5.40134     746.448E-03        -3.69521         1.16252         2.61856     327.776E-03    -163.711E-03    -164.065E-03    -163.923E-03     327.775E-03    -163.852E-03    -621.368E-06    -149.823E+06    -153.339E+06    -328.646E+06    -153.342E+06    -328.643E+06    -149.823E+06     701.293E+03         46.3131
            1380     1.69807E-03     92.7714E-03         4.41115     949.883E-03        -7.16629     931.702E-03        -3.68684     949.883E-03         10.5947     327.765E-03    -163.731E-03    -164.034E-03    -163.831E-03     327.764E-03    -163.933E-03    -722.374E-06    -136.967E+06    -148.794E+06    -312.985E+06    -148.800E+06    -312.979E+06    -136.967E+06     893.534E+03         46.3382
            1381     2.54687E-03     92.7717E-03         3.70625     955.860E-03        -6.53180         1.01894        -3.84449     955.860E-03         8.81566     327.627E-03    -163.641E-03    -163.986E-03    -163.658E-03     327.626E-03    -163.968E-03    -656.653E-06    -117.453E+06    -141.652E+06    -293.204E+06    -141.664E+06    -293.192E+06    -117.453E+06     1.26290E+06         46.3782
            1382     3.39683E-03     92.7713E-03         2.90621     982.444E-03        -5.73852         1.11129        -3.94360     982.444E-03         6.95561     327.496E-03    -163.505E-03    -163.990E-03    -163.505E-03     327.496E-03    -163.990E-03     132.491E-06    -94.4650E+06    -132.952E+06    -269.299E+06    -132.970E+06    -269.282E+06    -94.4650E+06     1.47712E+06         46.4327
            1383     4.24572E-03     92.7719E-03         2.82028         1.02007        -5.63914         1.23691        -4.05578         1.02007         2.21244     327.411E-03    -163.403E-03    -164.008E-03    -163.403E-03     327.410E-03    -164.008E-03     1.05037E-03    -70.7057E+06    -122.843E+06    -241.120E+06    -122.870E+06    -241.093E+06    -70.7057E+06     1.67172E+06         46.5008
            1384     5.09480E-03     92.7757E-03         1.72556         1.06235        -4.54163         1.31260        -4.12867         1.06235        -1.37505     327.330E-03    -163.305E-03    -164.024E-03    -163.301E-03     327.325E-03    -164.024E-03     2.65618E-03    -47.3189E+06    -112.178E+06    -211.616E+06    -112.251E+06    -211.543E+06    -47.3189E+06     2.54247E+06         46.5824
            1385     5.94472E-03     92.7831E-03         2.80964         1.09872        -5.66371         1.31851        -4.17258         1.09872        -4.18777     327.254E-03    -163.220E-03    -164.034E-03    -163.207E-03     327.241E-03    -164.034E-03     4.90986E-03    -25.5414E+06    -101.492E+06    -182.077E+06    -101.598E+06    -181.971E+06    -25.5414E+06     2.92067E+06         46.6795
            1386     6.79410E-03     92.7923E-03         2.79002         1.12369        -5.70333         1.27195        -4.18526         1.12369        -4.01183     327.050E-03    -163.023E-03    -164.027E-03    -162.993E-03     327.020E-03    -164.027E-03     7.53637E-03    -6.12175E+06    -90.8186E+06    -152.910E+06    -90.9914E+06    -152.737E+06    -6.12175E+06     3.14556E+06         46.7999
            1387     7.64394E-03     92.8048E-03         1.56492         1.13277        -4.52014         1.12490        -4.08011         1.13277        -1.13993     326.882E-03    -162.883E-03    -163.998E-03    -162.825E-03     326.824E-03    -163.998E-03     10.5649E-03     11.7141E+06    -80.2439E+06    -121.444E+06    -80.6933E+06    -120.995E+06     11.7141E+06     3.95420E+06         46.9652
            1388     8.49402E-03     92.8229E-03         2.49916         1.12331        -5.44873     936.347E-03        -3.88592         1.12331         2.06524     327.022E-03    -163.051E-03    -163.971E-03    -162.957E-03     326.929E-03    -163.971E-03     13.4747E-03     28.1275E+06    -69.0895E+06    -89.4730E+06    -70.6736E+06    -87.8888E+06     28.1275E+06     4.51468E+06         47.2250
            1389     9.34314E-03     92.8441E-03         2.20422         1.01979        -5.04266     920.755E-03        -3.84496         1.10556         4.08893     326.959E-03    -163.015E-03    -163.944E-03    -162.871E-03     326.815E-03    -163.944E-03     16.6946E-03     43.1913E+06    -44.3007E+06    -66.0600E+06    -61.1299E+06    -49.2309E+06     43.1913E+06     5.07947E+06         47.6795
            1390     10.1930E-03     92.8700E-03         1.88969         1.00651        -4.72983     990.695E-03        -3.91661         1.09228         3.24829     326.540E-03    -162.647E-03    -163.893E-03    -162.432E-03     326.326E-03    -163.893E-03     20.4123E-03     58.0903E+06    -2.07027E+06    -52.3427E+06    -51.6146E+06    -2.79843E+06     58.0903E+06     5.62943E+06         48.5017
            1391     11.0437E-03     92.9009E-03         2.09449         1.08138        -5.06484     944.009E-03        -3.91436         1.08138         1.34960     326.366E-03    -162.552E-03    -163.814E-03    -162.256E-03     326.070E-03    -163.814E-03     24.0028E-03     75.9959E+06     49.4867E+06    -42.9915E+06    -42.5998E+06     53.3752E+06     71.7157E+06     5.89745E+06         49.9306
            1392     11.8940E-03     92.9365E-03         1.30596     945.464E-03        -4.22826     835.330E-03        -3.87791         1.06574        -1.58210     326.608E-03    -162.843E-03    -163.765E-03    -162.429E-03     326.193E-03    -163.765E-03     28.3615E-03     89.7019E+06     81.5230E+06    -34.7022E+06    -34.4627E+06     89.4624E+06     81.5230E+06     5.41605E+06         52.1878
            1393     12.7440E-03     92.9780E-03         2.04771     925.387E-03        -5.02917     773.539E-03        -3.87527         1.04566        -3.63893     326.754E-03    -162.969E-03    -163.785E-03    -162.440E-03     326.225E-03    -163.785E-03     32.1475E-03     96.0257E+06     91.9536E+06    -26.5591E+06    -26.4198E+06     95.7883E+06     92.0517E+06     4.06324E+06         55.2934
            1394     13.5940E-03     93.0219E-03         2.03918         1.00311        -5.16952     859.065E-03        -4.01417         1.02788        -3.59959     326.879E-03    -163.020E-03    -163.859E-03    -162.213E-03     326.072E-03    -163.859E-03     39.2824E-03     114.471E+06     107.359E+06    -18.0888E+06    -18.0202E+06     107.366E+06     114.396E+06     2.88342E+06         58.8586
            1395     14.4448E-03     93.0818E-03         1.84839     998.828E-03        -5.05768         1.18253        -4.41659         1.02360        -2.65862     326.819E-03    -162.852E-03    -163.968E-03    -161.993E-03     325.960E-03    -163.968E-03     40.7282E-03     148.684E+06     127.463E+06    -9.21713E+06    -9.19139E+06     127.437E+06     148.684E+06     1.62736E+06         62.0752
            1396     848.935E-06     94.1586E-03         2.19834     988.294E-03        -4.90729     807.210E-03        -3.67608         1.14822         3.57172     327.859E-03    -163.796E-03    -164.063E-03    -163.896E-03     327.858E-03    -163.962E-03    -531.496E-06    -150.841E+06    -154.351E+06    -330.122E+06    -154.016E+06    -330.119E+06    -151.179E+06     509.965E+03         46.3111
            1397     1.69769E-03     94.1586E-03         4.28057     945.529E-03        -7.04006     816.801E-03        -3.57629     945.529E-03         10.3818     327.635E-03    -163.613E-03    -164.023E-03    -163.695E-03     327.635E-03    -163.940E-03    -559.921E-06    -137.582E+06    -149.238E+06    -314.269E+06    -149.243E+06    -314.265E+06    -137.582E+06     692.463E+03         46.3364
            1398     2.54747E-03     94.1573E-03         3.78300     904.800E-03        -6.54029     853.792E-03        -3.61108     904.800E-03         9.11778     327.418E-03    -163.497E-03    -163.920E-03    -163.497E-03     327.417E-03    -163.920E-03    -516.612E-06    -118.030E+06    -142.130E+06    -294.476E+06    -142.140E+06    -294.466E+06    -118.030E+06     1.13428E+06         46.3768
            1399     3.39666E-03     94.1574E-03         2.96981     913.405E-03        -5.71270         1.05003        -3.79292     913.405E-03         7.15752     327.487E-03    -163.551E-03    -163.936E-03    -163.551E-03     327.487E-03    -163.936E-03    -101.771E-06    -94.9380E+06    -133.286E+06    -270.272E+06    -133.311E+06    -270.247E+06    -94.9380E+06     1.75636E+06         46.4318
            1400     4.24594E-03     94.1594E-03         2.88525     959.905E-03        -5.62735         1.25354        -3.99564     959.905E-03         2.62272     327.617E-03    -163.626E-03    -163.992E-03    -163.625E-03     327.616E-03    -163.992E-03     1.10375E-03    -70.9266E+06    -123.441E+06    -242.291E+06    -123.478E+06    -242.255E+06    -70.9266E+06     2.05532E+06         46.5003
            1401     5.09500E-03     94.1623E-03         1.69093         1.01628        -4.44990         1.34032        -4.09929         1.01628        -1.25880     327.444E-03    -163.406E-03    -164.038E-03    -163.401E-03     327.439E-03    -164.038E-03     2.99836E-03    -47.7751E+06    -112.746E+06    -212.921E+06    -112.804E+06    -212.862E+06    -47.7751E+06     2.32203E+06         46.5819
            1402     5.94425E-03     94.1692E-03         2.90374         1.06789        -5.70793         1.41380        -4.21800         1.06789        -4.33712     327.061E-03    -163.020E-03    -164.040E-03    -163.006E-03     327.047E-03    -164.040E-03     5.11888E-03    -25.9113E+06    -101.657E+06    -183.259E+06    -101.764E+06    -183.153E+06    -25.9113E+06     2.87647E+06         46.6785
            1403     6.79450E-03     94.1783E-03         2.87423         1.10885        -5.75078         1.37305        -4.24961         1.10885        -4.23471     327.045E-03    -163.024E-03    -164.020E-03    -162.995E-03     327.016E-03    -164.020E-03     7.41555E-03    -6.16534E+06    -90.9567E+06    -154.081E+06    -91.1400E+06    -153.898E+06    -6.16534E+06     3.31456E+06         46.7980
            1404     7.64405E-03     94.1915E-03         1.53093         1.12615        -4.46002         1.14781        -4.07689         1.12615        -1.16120     327.155E-03    -163.149E-03    -164.006E-03    -163.094E-03     327.100E-03    -164.006E-03     10.2924E-03     11.5140E+06    -80.3840E+06    -122.993E+06    -80.7901E+06    -122.587E+06     11.5140E+06     3.86779E+06         46.9611
            1405     8.49324E-03     94.2093E-03         2.37314         1.11435        -5.30257     865.026E-03        -3.79446         1.11435         2.05884     326.933E-03    -162.946E-03    -163.987E-03    -162.852E-03     326.839E-03    -163.987E-03     13.4644E-03     27.8092E+06    -69.1663E+06    -91.1721E+06    -70.5114E+06    -89.8269E+06     27.8092E+06     4.47314E+06         47.2164
            1406     9.34343E-03     94.2310E-03         2.07886     858.852E-03        -4.74819     677.956E-03        -3.57134         1.08291         4.00962     326.765E-03    -162.820E-03    -163.945E-03    -162.672E-03     326.617E-03    -163.945E-03     16.9188E-03     43.2317E+06    -44.7642E+06    -66.3997E+06    -60.5301E+06    -50.6338E+06     43.2317E+06     5.12406E+06         47.6634
            1407     10.1934E-03     94.2559E-03         1.70446     821.474E-03        -4.35008     609.560E-03        -3.47924         1.04553         3.20465     326.742E-03    -162.850E-03    -163.893E-03    -162.632E-03     326.525E-03    -163.893E-03     20.5567E-03     57.9564E+06    -3.39526E+06    -52.1609E+06    -51.3562E+06    -4.20000E+06     57.9564E+06     5.84442E+06         48.4751
            1408     11.0433E-03     94.2872E-03         1.81952         1.01027        -4.71349     601.765E-03        -3.49574         1.01027         1.35243     326.481E-03    -162.656E-03    -163.825E-03    -162.357E-03     326.182E-03    -163.825E-03     24.1079E-03     75.4919E+06     48.8189E+06    -43.0482E+06    -42.5915E+06     52.2208E+06     71.6333E+06     6.30474E+06         49.8938
            1409     11.8936E-03     94.3226E-03         1.13076     847.389E-03        -3.94691     641.732E-03        -3.59092     980.429E-03        -1.63706     326.380E-03    -162.610E-03    -163.770E-03    -162.192E-03     325.962E-03    -163.770E-03     28.4560E-03     91.4175E+06     82.3652E+06    -34.3347E+06    -34.0525E+06     91.1353E+06     82.3652E+06     5.91764E+06         52.1497
            1410     12.7440E-03     94.3647E-03         1.97105     826.619E-03        -4.85261     768.542E-03        -3.78315     959.658E-03        -3.62601     326.565E-03    -162.789E-03    -163.776E-03    -162.266E-03     326.042E-03    -163.776E-03     31.9742E-03     98.7153E+06     92.7500E+06    -26.4884E+06    -26.3215E+06     98.4503E+06     92.8480E+06     4.46946E+06         55.2723
            1411     13.5947E-03     94.4082E-03         2.11806     954.425E-03        -5.19007         1.05256        -4.12456     954.425E-03        -3.61420     326.923E-03    -163.076E-03    -163.847E-03    -162.277E-03     326.124E-03    -163.847E-03     39.0595E-03     115.275E+06     108.481E+06    -18.7264E+06    -18.6549E+06     109.083E+06     114.601E+06     2.91609E+06         58.8731
            1412     14.4451E-03     94.4682E-03         1.95200     969.093E-03        -5.08728         1.40192        -4.53720     969.093E-03        -2.63264     326.880E-03    -162.918E-03    -163.962E-03    -162.064E-03     326.025E-03    -163.962E-03     40.6246E-03     149.245E+06     129.901E+06    -9.66464E+06    -9.64111E+06     129.877E+06     149.245E+06     1.62096E+06         62.1282
            1413     848.686E-06     95.5457E-03         2.49902         1.48580        -5.69597         1.20759        -4.50589         1.58716         5.20319     327.630E-03    -163.730E-03    -163.900E-03    -163.748E-03     327.630E-03    -163.882E-03    -179.349E-06    -151.108E+06    -154.612E+06    -330.964E+06    -154.275E+06    -330.963E+06    -151.446E+06    -175.692E+03         46.3089
            1414     1.69864E-03     95.5439E-03         4.73193         1.32671        -7.85480         1.04556        -4.16844         1.32671         11.3305     327.475E-03    -163.619E-03    -163.856E-03    -163.640E-03     327.475E-03    -163.835E-03    -645.750E-06    -138.421E+06    -149.616E+06    -315.522E+06    -149.622E+06    -315.517E+06    -138.421E+06     347.926E+03         46.3345
            1415     2.54760E-03     95.5439E-03         4.22144         1.19993        -7.25466     861.957E-03        -3.89517         1.19993         10.2985     327.560E-03    -163.671E-03    -163.889E-03    -163.692E-03     327.560E-03    -163.868E-03    -643.936E-06    -118.867E+06    -142.876E+06    -295.793E+06    -142.885E+06    -295.784E+06    -118.867E+06     1.14464E+06         46.3753
            1416     3.39651E-03     95.5440E-03         2.96960         1.09708        -5.88977     724.516E-03        -3.64469         1.09708         7.62362     327.543E-03    -163.610E-03    -163.933E-03    -163.609E-03     327.543E-03    -163.933E-03    -40.9472E-06    -95.7143E+06    -134.102E+06    -271.796E+06    -134.121E+06    -271.777E+06    -95.7143E+06     1.52084E+06         46.4305
            1417     4.24584E-03     95.5456E-03         2.68691         1.02788        -5.47641     800.348E-03        -3.58984         1.02788         2.70214     327.435E-03    -163.455E-03    -163.980E-03    -163.453E-03     327.434E-03    -163.980E-03     1.22753E-03    -71.4777E+06    -123.810E+06    -243.326E+06    -123.849E+06    -243.287E+06    -71.4777E+06     2.10450E+06         46.4991
            1418     5.09521E-03     95.5496E-03         1.40085         1.00520        -4.11168         1.00586        -3.71669         1.00520        -1.56265     327.348E-03    -163.339E-03    -164.009E-03    -163.334E-03     327.343E-03    -164.009E-03     2.86875E-03    -47.9852E+06    -113.096E+06    -213.687E+06    -113.155E+06    -213.628E+06    -47.9852E+06     2.39330E+06         46.5809
            1419     5.94492E-03     95.5548E-03         2.75049         1.01455        -5.46097         1.14857        -3.85905         1.01455        -4.68341     327.266E-03    -163.241E-03    -164.025E-03    -163.228E-03     327.253E-03    -164.025E-03     4.94948E-03    -26.3709E+06    -102.237E+06    -184.646E+06    -102.336E+06    -184.547E+06    -26.3709E+06     2.77626E+06         46.6775
            1420     6.79419E-03     95.5648E-03         2.74222         1.00432        -5.47133         1.10012        -3.85278         1.02787        -4.52607     327.237E-03    -163.205E-03    -164.032E-03    -163.176E-03     327.207E-03    -164.032E-03     7.47644E-03    -6.65119E+06    -91.2116E+06    -155.293E+06    -91.3834E+06    -155.121E+06    -6.65119E+06     3.23789E+06         46.7963
            1421     7.64341E-03     95.5786E-03         1.42916         1.00541        -4.19283     991.769E-03        -3.77899         1.02896        -1.45608     327.060E-03    -163.037E-03    -164.023E-03    -162.981E-03     327.004E-03    -164.023E-03     10.3814E-03     11.3338E+06    -80.4241E+06    -124.320E+06    -80.7853E+06    -123.959E+06     11.3338E+06     3.74444E+06         46.9573
            1422     8.49341E-03     95.5955E-03         2.33374         1.02023        -5.12743     924.099E-03        -3.71779         1.02023         1.67055     326.782E-03    -162.793E-03    -163.988E-03    -162.698E-03     326.686E-03    -163.988E-03     13.5959E-03     27.4717E+06    -69.5599E+06    -92.6477E+06    -70.7335E+06    -91.4741E+06     27.4717E+06     4.30825E+06         47.2083
            1423     9.34373E-03     95.6162E-03         1.97543     827.711E-03        -4.57803     769.992E-03        -3.54762         1.00273         3.74514     326.730E-03    -162.795E-03    -163.936E-03    -162.646E-03     326.582E-03    -163.936E-03     16.9766E-03     42.5756E+06    -46.2634E+06    -67.2829E+06    -61.1065E+06    -52.4398E+06     42.5756E+06     4.96971E+06         47.6479
            1424     10.1935E-03     95.6436E-03         1.54561     797.360E-03        -4.13245     548.313E-03        -3.31017     972.381E-03         2.99812     326.762E-03    -162.876E-03    -163.886E-03    -162.660E-03     326.545E-03    -163.886E-03     20.4949E-03     57.6429E+06    -5.37973E+06    -52.3320E+06    -51.5138E+06    -6.19793E+06     57.6429E+06     5.78462E+06         48.4491
            1425     11.0432E-03     95.6732E-03         1.67497     935.969E-03        -4.44903     499.242E-03        -3.27330     935.969E-03         1.15195     326.585E-03    -162.761E-03    -163.824E-03    -162.460E-03     326.284E-03    -163.824E-03     24.1945E-03     75.0778E+06     48.0780E+06    -42.8167E+06    -42.3104E+06     50.8494E+06     71.8001E+06     6.65152E+06         49.8573
            1426     11.8938E-03     95.7088E-03         1.10884     839.434E-03        -3.86921     684.554E-03        -3.51487     909.380E-03        -1.85654     326.412E-03    -162.639E-03    -163.772E-03    -162.218E-03     325.990E-03    -163.772E-03     28.5854E-03     92.5514E+06     82.7757E+06    -34.5142E+06    -34.1492E+06     92.1863E+06     82.7757E+06     6.75086E+06         52.1110
            1427     12.7442E-03     95.7509E-03         2.12468     835.544E-03        -4.96319         1.06995        -3.97841     905.490E-03        -3.90719     326.512E-03    -162.737E-03    -163.775E-03    -162.214E-03     325.989E-03    -163.775E-03     31.9563E-03     101.754E+06     93.3202E+06    -26.8881E+06    -26.6635E+06     101.530E+06     93.3202E+06     5.25572E+06         55.2497
            1428     13.5943E-03     95.7948E-03         2.44682     927.041E-03        -5.42069         1.46124        -4.43510     927.041E-03        -3.88018     326.924E-03    -163.079E-03    -163.845E-03    -162.287E-03     326.132E-03    -163.845E-03     38.9021E-03     116.904E+06     109.804E+06    -18.8296E+06    -18.7427E+06     111.653E+06     114.968E+06     3.19776E+06         58.8865
            1429     14.4447E-03     95.8548E-03         2.06038     961.288E-03        -5.06578         1.56007        -4.56547     961.288E-03        -2.67702     326.778E-03    -162.817E-03    -163.960E-03    -161.972E-03     325.932E-03    -163.960E-03     40.4085E-03     149.783E+06     132.183E+06    -9.81334E+06    -9.79247E+06     132.162E+06     149.783E+06     1.39923E+06         62.1816
            1430     849.778E-06     96.9308E-03         2.66059         1.85611        -6.28352         1.56238        -5.24476         1.91556         5.51379     327.463E-03    -163.673E-03    -163.790E-03    -163.753E-03     327.462E-03    -163.710E-03    -768.665E-06    -150.867E+06    -154.781E+06    -331.199E+06    -154.525E+06    -331.195E+06    -151.127E+06     271.681E+03         46.3078
            1431     1.69819E-03     96.9308E-03         4.70598         1.66636        -8.14439         1.37644        -4.81486         1.66636         10.9390     327.609E-03    -163.763E-03    -163.846E-03    -163.805E-03     327.608E-03    -163.803E-03    -842.191E-06    -138.588E+06    -150.439E+06    -316.525E+06    -150.445E+06    -316.519E+06    -138.588E+06     473.021E+03         46.3334
            1432     2.54722E-03     96.9303E-03         4.12967         1.48341        -7.43444     820.684E-03        -4.12546         1.48341         10.3486     327.630E-03    -163.719E-03    -163.911E-03    -163.740E-03     327.630E-03    -163.890E-03    -696.100E-06    -119.263E+06    -143.406E+06    -297.015E+06    -143.411E+06    -297.010E+06    -119.263E+06     800.876E+03         46.3741
            1433     3.39673E-03     96.9305E-03         2.70840         1.26661        -5.77214     415.836E-03        -3.47958         1.26661         7.44907     327.559E-03    -163.605E-03    -163.955E-03    -163.604E-03     327.559E-03    -163.955E-03    -158.105E-06    -96.2988E+06    -134.472E+06    -272.832E+06    -134.483E+06    -272.820E+06    -96.2988E+06     1.19506E+06         46.4291
            1434     4.24589E-03     96.9321E-03         2.43451         1.09213        -5.26258     410.852E-03        -3.23893         1.09213         2.50440     327.358E-03    -163.369E-03    -163.988E-03    -163.368E-03     327.357E-03    -163.988E-03     917.581E-06    -72.2106E+06    -124.379E+06    -244.414E+06    -124.408E+06    -244.384E+06    -72.2106E+06     1.82325E+06         46.4976
            1435     5.09550E-03     96.9356E-03         1.19197     845.234E-03        -3.71164     574.439E-03        -3.23823     989.360E-03        -1.77551     327.250E-03    -163.248E-03    -164.002E-03    -163.244E-03     327.246E-03    -164.002E-03     2.68463E-03    -48.5573E+06    -113.484E+06    -214.921E+06    -113.537E+06    -214.868E+06    -48.5573E+06     2.27361E+06         46.5794
            1436     5.94458E-03     96.9419E-03         2.53610     787.964E-03        -4.98028     619.659E-03        -3.20796     932.090E-03        -4.75762     327.329E-03    -163.313E-03    -164.017E-03    -163.299E-03     327.316E-03    -164.017E-03     4.99878E-03    -26.9253E+06    -102.590E+06    -185.900E+06    -102.692E+06    -185.798E+06    -26.9253E+06     2.78984E+06         46.6760
            1437     6.79381E-03     96.9517E-03         2.49389     798.666E-03        -4.96641     619.427E-03        -3.18505     891.782E-03        -4.65650     327.157E-03    -163.132E-03    -164.025E-03    -163.100E-03     327.124E-03    -164.025E-03     7.83038E-03    -7.11875E+06    -91.8580E+06    -156.397E+06    -92.0357E+06    -156.219E+06    -7.11875E+06     3.31319E+06         46.7943
            1438     7.64389E-03     96.9647E-03         1.27587     772.211E-03        -3.75008     725.160E-03        -3.29249     865.327E-03        -1.70623     326.946E-03    -162.939E-03    -164.007E-03    -162.881E-03     326.887E-03    -164.007E-03     10.6149E-03     10.8422E+06    -81.1142E+06    -125.700E+06    -81.4122E+06    -125.402E+06     10.8422E+06     3.48781E+06         46.9537
            1439     8.49404E-03     96.9812E-03         2.27268     855.439E-03        -4.84224     858.408E-03        -3.42797     855.439E-03         1.42055     327.007E-03    -163.027E-03    -163.980E-03    -162.933E-03     326.913E-03    -163.980E-03     13.4471E-03     27.0461E+06    -70.1918E+06    -93.9809E+06    -71.1992E+06    -92.9735E+06     27.0461E+06     3.96139E+06         47.2009
            1440     9.34322E-03     97.0035E-03         1.96429     820.350E-03        -4.50000     948.533E-03        -3.52098     857.086E-03         3.66051     326.905E-03    -162.957E-03    -163.948E-03    -162.814E-03     326.762E-03    -163.948E-03     16.6612E-03     42.4308E+06    -47.7346E+06    -67.4835E+06    -61.1698E+06    -54.0483E+06     42.4308E+06     4.58189E+06         47.6329
            1441     10.1933E-03     97.0289E-03         1.71862     827.013E-03        -4.27741     985.176E-03        -3.58070     863.749E-03         3.00654     326.590E-03    -162.693E-03    -163.897E-03    -162.483E-03     326.380E-03    -163.897E-03     20.1852E-03     57.2696E+06    -7.64168E+06    -52.3919E+06    -51.6598E+06    -8.37379E+06     57.2696E+06     5.34047E+06         48.4231
            1442     11.0439E-03     97.0602E-03         1.94625     871.477E-03        -4.60001     985.247E-03        -3.63901     871.477E-03         1.23622     326.453E-03    -162.630E-03    -163.822E-03    -162.334E-03     326.156E-03    -163.822E-03     23.9906E-03     73.0355E+06     46.5973E+06    -43.2684E+06    -42.7503E+06     48.0452E+06     71.0695E+06     6.74915E+06         49.8204
            1443     11.8935E-03     97.0951E-03         1.36586     883.037E-03        -4.11097         1.09526        -3.84036     883.037E-03        -1.81683     326.493E-03    -162.727E-03    -163.767E-03    -162.308E-03     326.074E-03    -163.767E-03     28.5071E-03     92.8300E+06     82.4752E+06    -34.7098E+06    -34.2673E+06     92.3876E+06     82.4752E+06     7.47510E+06         52.0714
            1444     12.7439E-03     97.1370E-03         2.22988     903.671E-03        -5.07075         1.27601        -4.11688     903.671E-03        -3.95291     326.538E-03    -162.766E-03    -163.771E-03    -162.236E-03     326.008E-03    -163.771E-03     32.1829E-03     105.639E+06     93.8457E+06    -26.5313E+06    -26.2457E+06     105.354E+06     93.8457E+06     6.00891E+06         55.2259
            1445     13.5944E-03     97.1818E-03         2.31551     930.196E-03        -5.22867         1.35842        -4.27157     930.196E-03        -4.02051     326.785E-03    -162.945E-03    -163.840E-03    -162.139E-03     325.979E-03    -163.840E-03     39.2485E-03     119.064E+06     111.556E+06    -18.2633E+06    -18.1592E+06     114.857E+06     115.659E+06     3.47364E+06         58.8994
            1446     14.4451E-03     97.2409E-03         1.88035     956.313E-03        -4.83089         1.38769        -4.33823     956.313E-03        -2.81027     326.713E-03    -162.762E-03    -163.951E-03    -161.910E-03     325.861E-03    -163.951E-03     40.5554E-03     150.539E+06     134.830E+06    -9.41437E+06    -9.39373E+06     134.809E+06     150.539E+06     1.40653E+06         62.2359
            1447     848.608E-06     98.3171E-03         2.27910         1.21736        -5.21203     956.518E-03        -3.88945         1.21736         5.45499     327.714E-03    -163.786E-03    -163.929E-03    -163.874E-03     327.714E-03    -163.840E-03    -826.057E-06    -151.803E+06    -155.561E+06    -332.301E+06    -155.306E+06    -332.296E+06    -152.063E+06     545.560E+03         46.3075
            1448     1.69823E-03     98.3174E-03         4.26448         1.06449        -7.09914     973.576E-03        -3.80823         1.06449         9.98406     327.671E-03    -163.750E-03    -163.921E-03    -163.772E-03     327.671E-03    -163.899E-03    -792.092E-06    -138.750E+06    -150.723E+06    -317.352E+06    -150.731E+06    -317.345E+06    -138.750E+06     651.647E+03         46.3328
            1449     2.54747E-03     98.3165E-03         3.99676         1.03045        -6.82035     961.723E-03        -3.78531         1.03045         9.40980     327.621E-03    -163.684E-03    -163.937E-03    -163.684E-03     327.621E-03    -163.937E-03    -661.996E-06    -119.460E+06    -143.803E+06    -297.694E+06    -143.811E+06    -297.686E+06    -119.460E+06     959.455E+03         46.3731
            1450     3.39622E-03     98.3174E-03         2.72788         1.01082        -5.50133     946.317E-03        -3.71977         1.01082         6.62354     327.534E-03    -163.558E-03    -163.976E-03    -163.558E-03     327.534E-03    -163.976E-03    -26.2327E-06    -96.7097E+06    -135.008E+06    -273.700E+06    -135.017E+06    -273.691E+06    -96.7097E+06     1.07958E+06         46.4279
            1451     4.24554E-03     98.3184E-03         2.50108     977.207E-03        -5.18397     724.943E-03        -3.40783     977.207E-03         2.12014     327.435E-03    -163.430E-03    -164.005E-03    -163.429E-03     327.434E-03    -164.005E-03     965.987E-06    -72.8691E+06    -124.903E+06    -245.647E+06    -124.924E+06    -245.626E+06    -72.8691E+06     1.50152E+06         46.4962
            1452     5.09504E-03     98.3217E-03         1.18730     622.410E-03        -3.45913     401.879E-03        -2.96055     909.242E-03        -1.92721     327.277E-03    -163.255E-03    -164.021E-03    -163.251E-03     327.272E-03    -164.021E-03     2.66182E-03    -49.4111E+06    -114.232E+06    -216.513E+06    -114.286E+06    -216.459E+06    -49.4111E+06     2.21060E+06         46.5779
            1453     5.94486E-03     98.3287E-03         2.41411     541.377E-03        -4.56642     294.229E-03        -2.73337     828.209E-03        -4.72060     327.062E-03    -163.045E-03    -164.018E-03    -163.031E-03     327.049E-03    -164.018E-03     4.96526E-03    -27.2765E+06    -103.243E+06    -187.051E+06    -103.340E+06    -186.954E+06    -27.2765E+06     2.71356E+06         46.6743
            1454     6.79475E-03     98.3377E-03         2.35256     664.900E-03        -4.63160     404.209E-03        -2.78500     766.661E-03        -4.55533     326.998E-03    -162.998E-03    -164.000E-03    -162.968E-03     326.968E-03    -164.000E-03     7.58005E-03    -7.33214E+06    -92.2389E+06    -157.289E+06    -92.3750E+06    -157.153E+06    -7.33214E+06     2.86548E+06         46.7921
            1455     7.64437E-03     98.3508E-03         1.08461     632.883E-03        -3.35215     581.614E-03        -2.95092     734.644E-03        -1.46120     327.115E-03    -163.128E-03    -163.987E-03    -163.071E-03     327.057E-03    -163.987E-03     10.4712E-03     10.4852E+06    -81.4223E+06    -126.779E+06    -81.6680E+06    -126.534E+06     10.4852E+06     3.14533E+06         46.9501
            1456     8.49316E-03     98.3686E-03         2.21321     729.082E-03        -4.58994     806.874E-03        -3.18360     729.082E-03         1.76519     327.145E-03    -163.166E-03    -163.979E-03    -163.070E-03     327.049E-03    -163.979E-03     13.6129E-03     26.7968E+06    -70.5980E+06    -94.8792E+06    -71.3565E+06    -94.1207E+06     26.7968E+06     3.58505E+06         47.1934
            1457     9.34314E-03     98.3896E-03         2.17796     749.310E-03        -4.57611         1.12877        -3.52692     749.310E-03         4.03563     326.966E-03    -163.011E-03    -163.955E-03    -162.863E-03     326.819E-03    -163.955E-03     16.9011E-03     41.9025E+06    -49.2216E+06    -68.1461E+06    -61.5190E+06    -55.8487E+06     41.9025E+06     4.18151E+06         47.6180
            1458     10.1930E-03     98.4154E-03         2.09928     793.234E-03        -4.55348         1.44823        -3.90243     793.234E-03         3.37930     326.715E-03    -162.805E-03    -163.910E-03    -162.593E-03     326.503E-03    -163.910E-03     20.2656E-03     56.6311E+06    -9.89071E+06    -52.8025E+06    -52.0625E+06    -10.6307E+06     56.6311E+06     5.25344E+06         48.3971
            1459     11.0430E-03     98.4458E-03         2.43373     850.594E-03        -4.99787         1.63342        -4.19757     850.594E-03         1.47903     326.428E-03    -162.591E-03    -163.837E-03    -162.298E-03     326.135E-03    -163.837E-03     23.8655E-03     70.6182E+06     44.6644E+06    -43.7426E+06    -43.2141E+06     44.6741E+06     70.0801E+06     6.69780E+06         49.7829
            1460     11.8941E-03     98.4818E-03         1.73393     904.645E-03        -4.43345         1.55544        -4.25496     904.645E-03        -1.73262     326.334E-03    -162.564E-03    -163.770E-03    -162.151E-03     325.921E-03    -163.770E-03     28.3009E-03     92.5011E+06     81.5477E+06    -34.9942E+06    -34.5547E+06     91.9017E+06     81.7077E+06     7.42804E+06         52.0307
            1461     12.7441E-03     98.5235E-03         2.17707     939.052E-03        -4.99302         1.23896        -4.05491     939.052E-03        -3.82908     326.348E-03    -162.587E-03    -163.761E-03    -162.059E-03     325.820E-03    -163.761E-03     32.0795E-03     109.322E+06     93.9142E+06    -26.4012E+06    -26.1074E+06     109.028E+06     93.9142E+06     6.21194E+06         55.2011
            1462     13.5947E-03     98.5675E-03         1.96866     952.333E-03        -4.86126         1.02039        -3.91299     952.333E-03        -3.96466     326.588E-03    -162.765E-03    -163.823E-03    -161.957E-03     325.780E-03    -163.823E-03     39.2903E-03     121.531E+06     113.399E+06    -18.2552E+06    -18.1349E+06     118.432E+06     116.379E+06     3.80330E+06         58.9123
            1463     14.4455E-03     98.6274E-03         1.61255     960.682E-03        -4.56937         1.14040        -4.09721     960.682E-03        -2.82945     326.746E-03    -162.811E-03    -163.935E-03    -161.955E-03     325.890E-03    -163.935E-03     40.6596E-03     151.730E+06     137.853E+06    -9.60770E+06    -9.58110E+06     137.826E+06     151.730E+06     1.70018E+06         62.2908
            1464     849.245E-06     99.7043E-03         2.42338     488.406E-03        -4.57942     278.468E-03        -2.43450     488.406E-03         6.42756     327.691E-03    -163.640E-03    -164.052E-03    -163.724E-03     327.691E-03    -163.967E-03    -213.593E-06    -151.957E+06    -156.236E+06    -333.725E+06    -155.510E+06    -333.716E+06    -152.691E+06     635.263E+03         46.3071
            1465     1.69791E-03     99.7032E-03         4.61623     383.167E-03        -6.72570     381.930E-03        -2.49139     383.167E-03         10.9322     327.786E-03    -163.800E-03    -163.986E-03    -163.876E-03     327.786E-03    -163.910E-03    -471.598E-06    -139.273E+06    -151.271E+06    -318.366E+06    -151.281E+06    -318.356E+06    -139.273E+06     700.113E+03         46.3322
            1466     2.54697E-03     99.7036E-03         4.47079     429.719E-03        -6.61637     710.845E-03        -2.85642     429.719E-03         10.1510     327.644E-03    -163.679E-03    -163.965E-03    -163.679E-03     327.644E-03    -163.965E-03    -666.831E-06    -120.055E+06    -144.298E+06    -298.412E+06    -144.307E+06    -298.403E+06    -120.055E+06     980.787E+03         46.3723
            1467     3.39670E-03     99.7033E-03         2.88582     525.644E-03        -5.11685     919.637E-03        -3.15067     525.644E-03         6.69832     327.406E-03    -163.425E-03    -163.982E-03    -163.424E-03     327.406E-03    -163.982E-03    -111.975E-06    -96.9262E+06    -135.408E+06    -274.022E+06    -135.418E+06    -274.011E+06    -96.9262E+06     1.19923E+06         46.4269
            1468     4.24612E-03     99.7051E-03         2.65608     605.299E-03        -4.91748     915.477E-03        -3.17688     605.299E-03         1.87575     327.373E-03    -163.381E-03    -163.992E-03    -163.380E-03     327.371E-03    -163.992E-03     1.28082E-03    -73.0803E+06    -125.431E+06    -246.880E+06    -125.452E+06    -246.859E+06    -73.0803E+06     1.51139E+06         46.4953
            1469     5.09494E-03     99.7086E-03         1.42090     503.713E-03        -3.51815     780.534E-03        -3.02050     646.420E-03        -2.29331     327.355E-03    -163.343E-03    -164.012E-03    -163.338E-03     327.350E-03    -164.012E-03     2.95106E-03    -49.6700E+06    -114.755E+06    -217.793E+06    -114.805E+06    -217.742E+06    -49.6700E+06     2.13074E+06         46.5770
            1470     5.94451E-03     99.7141E-03         2.64673     520.086E-03        -4.72539     751.930E-03        -2.97330     662.793E-03        -5.13090     327.183E-03    -163.160E-03    -164.023E-03    -163.147E-03     327.170E-03    -164.023E-03     4.82843E-03    -27.6576E+06    -103.690E+06    -187.750E+06    -103.764E+06    -187.676E+06    -27.6576E+06     2.39536E+06         46.6732
            1471     6.79434E-03     99.7241E-03         2.66026     648.041E-03        -4.85775     870.179E-03        -3.09986     680.237E-03        -4.67659     327.101E-03    -163.084E-03    -164.017E-03    -163.057E-03     327.074E-03    -164.017E-03     7.18245E-03    -7.88642E+06    -92.6593E+06    -158.054E+06    -92.7590E+06    -157.954E+06    -7.88642E+06     2.49569E+06         46.7901
            1472     7.64369E-03     99.7376E-03         1.28075     676.167E-03        -3.52009         1.00119        -3.27273     708.363E-03        -1.09555     327.014E-03    -163.012E-03    -164.002E-03    -162.957E-03     326.959E-03    -164.002E-03     10.2251E-03     9.94819E+06    -82.0176E+06    -127.832E+06    -82.2350E+06    -127.615E+06     9.94819E+06     2.94323E+06         46.9459
            1473     8.49409E-03     99.7550E-03         2.46201     745.191E-03        -4.78718         1.13617        -3.46134     745.191E-03         2.45374     326.921E-03    -162.944E-03    -163.977E-03    -162.848E-03     326.825E-03    -163.977E-03     13.5929E-03     26.1541E+06    -71.5181E+06    -96.0392E+06    -72.1773E+06    -95.3800E+06     26.1541E+06     3.39671E+06         47.1852
            1474     9.34366E-03     99.7762E-03         2.46299     789.654E-03        -4.84330         1.29563        -3.67594     789.654E-03         4.76110     326.899E-03    -162.959E-03    -163.940E-03    -162.811E-03     326.751E-03    -163.940E-03     16.9361E-03     41.1144E+06    -50.8656E+06    -69.0045E+06    -62.5042E+06    -57.3659E+06     41.1144E+06     3.75457E+06         47.6027
            1475     10.1933E-03     99.8021E-03         2.21676     841.507E-03        -4.66911         1.47763        -3.92999     841.507E-03         3.90367     326.797E-03    -162.900E-03    -163.897E-03    -162.683E-03     326.580E-03    -163.897E-03     20.5291E-03     55.5575E+06    -12.8722E+06    -53.4636E+06    -52.8450E+06    -13.4908E+06     55.5575E+06     4.66586E+06         48.3710
            1476     11.0433E-03     99.8321E-03         2.35786     895.560E-03        -4.90694         1.55577        -4.10485     895.560E-03         1.77779     326.636E-03    -162.799E-03    -163.837E-03    -162.494E-03     326.330E-03    -163.837E-03     24.3686E-03     69.2002E+06     41.7200E+06    -43.9403E+06    -43.4239E+06     41.2036E+06     69.2002E+06     6.55848E+06         49.7454
            1477     11.8929E-03     99.8676E-03         1.54620     938.861E-03        -4.21215         1.40167        -4.06761     938.861E-03        -1.56884     326.409E-03    -162.632E-03    -163.776E-03    -162.216E-03     325.992E-03    -163.776E-03     28.4502E-03     93.3017E+06     80.5504E+06    -35.1510E+06    -34.7048E+06     91.9104E+06     81.4956E+06     7.42017E+06         51.9892
            1478     12.7442E-03     99.9094E-03         2.12169     963.813E-03        -4.90250         1.19876        -3.97956     963.813E-03        -3.85481     326.205E-03    -162.443E-03    -163.763E-03    -161.929E-03     325.691E-03    -163.763E-03     31.6600E-03     112.476E+06     93.9755E+06    -26.7086E+06    -26.4425E+06     112.210E+06     93.9755E+06     6.00990E+06         55.1749
            1479     13.5949E-03     99.9535E-03         2.12083     978.482E-03        -4.98538         1.17634        -4.04089     978.482E-03        -4.12583     326.455E-03    -162.636E-03    -163.819E-03    -161.843E-03     325.662E-03    -163.819E-03     38.8765E-03     123.323E+06     114.985E+06    -18.4080E+06    -18.2850E+06     121.557E+06     116.628E+06     4.00158E+06         58.9236
            1480     14.4456E-03     100.013E-03         1.74569     994.204E-03        -4.66532         1.27108        -4.19071     994.204E-03        -2.96798     326.632E-03    -162.703E-03    -163.929E-03    -161.848E-03     325.777E-03    -163.929E-03     40.6389E-03     152.803E+06     141.040E+06    -9.48964E+06     -9.4537E+06     141.004E+06     152.803E+06     2.05752E+06         62.3454
            1481     849.365E-06     101.090E-03         2.78264     606.060E-03        -5.02094     475.587E-03        -2.71388     606.060E-03         7.09030     327.699E-03    -163.643E-03    -164.056E-03    -163.719E-03     327.698E-03    -163.980E-03    -358.026E-06    -151.964E+06    -156.682E+06    -335.258E+06    -155.956E+06    -335.251E+06    -152.698E+06     695.571E+03         46.3063
            1482     1.69841E-03     101.091E-03         5.10280     525.834E-03        -7.23444     465.963E-03        -2.59760     525.834E-03         11.8355     327.739E-03    -163.758E-03    -163.981E-03    -163.834E-03     327.738E-03    -163.905E-03    -621.449E-06    -139.190E+06    -151.198E+06    -319.294E+06    -151.211E+06    -319.281E+06    -139.190E+06     962.729E+03         46.3313
            1483     2.54724E-03     101.090E-03         4.76246     449.393E-03        -6.83430     80.9260E-03        -2.15277     449.393E-03         11.3427     327.597E-03    -163.649E-03    -163.948E-03    -163.649E-03     327.597E-03    -163.948E-03    -608.134E-06    -119.738E+06    -144.191E+06    -298.780E+06    -144.201E+06    -298.771E+06    -119.738E+06     747.427E+03         46.3714
            1484     3.39617E-03     101.090E-03         3.07701     335.921E-03        -5.01116    -79.9986E-03        -1.85415     335.921E-03         7.80722     327.453E-03    -163.481E-03    -163.972E-03    -163.481E-03     327.453E-03    -163.972E-03    -47.1215E-06    -96.7902E+06    -135.230E+06    -275.129E+06    -135.242E+06    -275.117E+06    -96.7902E+06     1.02968E+06         46.4260
            1485     4.24574E-03     101.091E-03         2.66933     283.556E-03        -4.50737     282.185E-03        -2.12022     283.556E-03         2.47447     327.303E-03    -163.318E-03    -163.985E-03    -163.317E-03     327.302E-03    -163.985E-03     1.09767E-03    -72.6227E+06    -125.155E+06    -247.711E+06    -125.182E+06    -247.685E+06    -72.6227E+06     1.76247E+06         46.4945
            1486     5.09587E-03     101.095E-03         1.53249     338.487E-03        -3.37951         1.00651        -2.85353     338.487E-03        -2.34070     327.319E-03    -163.322E-03    -163.998E-03    -163.317E-03     327.315E-03    -163.998E-03     2.77052E-03    -49.5982E+06    -114.452E+06    -218.297E+06    -114.489E+06    -218.260E+06    -49.5982E+06     1.93491E+06         46.5762
            1487     5.94476E-03     101.101E-03         3.10927     472.508E-03        -5.05858         1.58060        -3.52990     472.508E-03        -5.39600     327.396E-03    -163.375E-03    -164.021E-03    -163.362E-03     327.383E-03    -164.021E-03     4.92574E-03    -28.2165E+06    -103.561E+06    -188.742E+06    -103.626E+06    -188.678E+06    -28.2165E+06     2.25476E+06         46.6721
            1488     6.79368E-03     101.111E-03         3.32633     624.828E-03        -5.43123         1.80296        -3.90786     624.828E-03        -4.83773     327.216E-03    -163.180E-03    -164.036E-03    -163.150E-03     327.185E-03    -164.036E-03     7.63251E-03    -8.31850E+06    -92.9782E+06    -159.039E+06    -93.1132E+06    -158.904E+06    -8.31850E+06     2.87908E+06         46.7880
            1489     7.64378E-03     101.124E-03         2.00466     759.643E-03        -4.26071         1.85359        -4.10963     759.643E-03        -1.11258     327.030E-03    -163.005E-03    -164.025E-03    -162.949E-03     326.974E-03    -164.025E-03     10.3730E-03     9.60593E+06    -82.6130E+06    -128.921E+06    -82.8247E+06    -128.709E+06     9.60593E+06     3.06079E+06         46.9416
            1490     8.49334E-03     101.141E-03         2.90707     866.552E-03        -5.28680         1.75912        -4.13885     866.552E-03         2.58331     326.839E-03    -162.847E-03    -163.992E-03    -162.756E-03     326.748E-03    -163.992E-03     13.2462E-03     25.8136E+06    -72.0991E+06    -96.9526E+06    -72.6319E+06    -96.4198E+06     25.8136E+06     3.03445E+06         47.1767
            1491     9.34340E-03     101.163E-03         2.63176     940.238E-03        -5.10195         1.52434        -3.99453     940.238E-03         5.00511     326.666E-03    -162.726E-03    -163.940E-03    -162.583E-03     326.522E-03    -163.940E-03     16.6590E-03     40.7871E+06    -51.9191E+06    -69.3711E+06    -62.8902E+06    -58.4000E+06     40.7871E+06     3.31019E+06         47.5869
            1492     10.1936E-03     101.188E-03         2.09700     979.225E-03        -4.62943         1.20485        -3.73728     979.225E-03         4.17881     326.719E-03    -162.834E-03    -163.886E-03    -162.621E-03     326.507E-03    -163.886E-03     20.3074E-03     54.9043E+06    -15.3453E+06    -54.2324E+06    -53.7408E+06    -15.8369E+06     54.9043E+06     4.08354E+06         48.3444
            1493     11.0437E-03     101.219E-03         1.89857     913.758E-03        -4.41211     904.141E-03        -3.49208     988.150E-03         2.03051     326.666E-03    -162.839E-03    -163.826E-03    -162.540E-03     326.367E-03    -163.826E-03     24.0930E-03     68.2338E+06     37.6868E+06    -44.8617E+06    -44.4429E+06     37.2681E+06     68.2338E+06     5.77541E+06         49.7072
            1494     11.8940E-03     101.254E-03         1.12297     893.626E-03        -3.69028     881.893E-03        -3.53882     983.238E-03        -1.49501     326.459E-03    -162.692E-03    -163.767E-03    -162.273E-03     326.041E-03    -163.767E-03     28.4964E-03     94.4048E+06     78.1087E+06    -35.7044E+06    -35.3046E+06     91.1923E+06     80.9214E+06     7.01974E+06         51.9471
            1495     12.7435E-03     101.295E-03         2.07557     972.013E-03        -4.79586         1.17595        -3.91146     987.234E-03        -3.95688     326.367E-03    -162.610E-03    -163.757E-03    -162.085E-03     325.842E-03    -163.757E-03     31.9792E-03     115.628E+06     93.6427E+06    -27.2780E+06    -27.0132E+06     115.364E+06     93.6427E+06     6.07081E+06         55.1478
            1496     13.5943E-03     101.339E-03         2.36851         1.00875        -5.18240         1.45425        -4.26814         1.00875        -4.30656     326.575E-03    -162.752E-03    -163.823E-03    -161.955E-03     325.778E-03    -163.823E-03     39.0086E-03     125.141E+06     115.953E+06    -19.0205E+06    -18.8982E+06     124.593E+06     116.379E+06     4.05515E+06         58.9340
            1497     14.4454E-03     101.399E-03         1.94435         1.03737        -4.81036         1.48546        -4.35147         1.03737        -3.08455     326.407E-03    -162.474E-03    -163.934E-03    -161.619E-03     325.553E-03    -163.934E-03     40.6056E-03     153.543E+06     144.024E+06    -9.81509E+06    -9.77764E+06     144.247E+06     153.282E+06     2.15399E+06         62.4001
            1498     848.474E-06     102.477E-03         2.65111     801.363E-03        -4.91958     664.330E-03        -2.93280     801.363E-03         6.57306     328.026E-03    -163.795E-03    -164.231E-03    -164.004E-03     328.026E-03    -164.022E-03    -601.359E-06    -151.707E+06    -156.716E+06    -337.050E+06    -155.877E+06    -337.046E+06    -152.550E+06     665.877E+03         46.3054
            1499     1.69772E-03     102.477E-03         4.97933     669.371E-03        -7.12773     414.482E-03        -2.56288     669.371E-03         11.6183     327.515E-03    -163.542E-03    -163.974E-03    -163.541E-03     327.515E-03    -163.974E-03    -732.636E-06    -139.665E+06    -151.381E+06    -320.412E+06    -151.390E+06    -320.402E+06    -139.665E+06     813.456E+03         46.3303
            1500     2.54748E-03     102.476E-03         4.79135     536.795E-03        -6.80603     123.361E-03        -2.13804     536.795E-03         11.3291     327.468E-03    -163.552E-03    -163.915E-03    -163.552E-03     327.467E-03    -163.915E-03    -677.980E-06    -120.136E+06    -144.474E+06    -299.107E+06    -144.491E+06    -299.090E+06    -120.136E+06     1.10381E+06         46.3705
            1501     3.39696E-03     102.476E-03         3.31141     421.030E-03        -5.19010     45.6431E-03        -1.92433     421.030E-03         8.17444     327.592E-03    -163.639E-03    -163.953E-03    -163.639E-03     327.592E-03    -163.953E-03    -43.1778E-06    -96.9581E+06    -135.851E+06    -276.100E+06    -135.868E+06    -276.084E+06    -96.9581E+06     1.10183E+06         46.4252
            1502     4.24583E-03     102.477E-03         2.60824     370.262E-03        -4.41194     327.904E-03        -2.13161     370.262E-03         3.17028     327.524E-03    -163.519E-03    -164.005E-03    -163.518E-03     327.523E-03    -164.005E-03     919.351E-06    -73.2089E+06    -125.514E+06    -248.890E+06    -125.535E+06    -248.868E+06    -73.2089E+06     1.47909E+06         46.4935
            1503     5.09477E-03     102.481E-03         1.31321     411.620E-03        -3.13140     946.585E-03        -2.76477     411.620E-03        -1.45198     327.243E-03    -163.219E-03    -164.024E-03    -163.215E-03     327.239E-03    -164.024E-03     2.63347E-03    -49.9650E+06    -114.607E+06    -218.782E+06    -114.645E+06    -218.744E+06    -49.9650E+06     1.97313E+06         46.5748
            1504     5.94468E-03     102.488E-03         2.88658     535.488E-03        -4.81107         1.62416        -3.54866     535.488E-03        -4.51460     327.159E-03    -163.136E-03    -164.022E-03    -163.123E-03     327.145E-03    -164.022E-03     4.95867E-03    -28.2064E+06    -103.754E+06    -189.912E+06    -103.822E+06    -189.843E+06    -28.2064E+06     2.36521E+06         46.6701
            1505     6.79462E-03     102.497E-03         3.27554     697.392E-03        -5.35631         2.01847        -4.09924     697.392E-03        -4.30464     327.235E-03    -163.212E-03    -164.022E-03    -163.182E-03     327.205E-03    -164.022E-03     7.57881E-03    -8.31646E+06    -92.8636E+06    -160.116E+06    -92.9858E+06    -159.994E+06    -8.31646E+06     2.75838E+06         46.7852
            1506     7.64374E-03     102.510E-03         2.23968     849.783E-03        -4.49094         2.08278        -4.33404     849.783E-03        -1.15564     327.123E-03    -163.104E-03    -164.019E-03    -163.046E-03     327.065E-03    -164.019E-03     10.5612E-03     9.62211E+06    -82.2249E+06    -129.669E+06    -82.4376E+06    -129.457E+06     9.62211E+06     3.03522E+06         46.9371
            1507     8.49317E-03     102.528E-03         2.96822     969.881E-03        -5.36871         1.98048        -4.38097     969.881E-03         2.22401     326.909E-03    -162.914E-03    -163.995E-03    -162.818E-03     326.813E-03    -163.995E-03     13.6148E-03     25.9760E+06    -71.8925E+06    -97.3456E+06    -72.3642E+06    -96.8739E+06     25.9760E+06     3.03102E+06         47.1683
            1508     9.34345E-03     102.548E-03         2.60863         1.04989        -5.11413         1.67831        -4.18381         1.04989         4.66655     326.797E-03    -162.845E-03    -163.952E-03    -162.699E-03     326.651E-03    -163.952E-03     16.8172E-03     40.9402E+06    -52.7509E+06    -69.7309E+06    -62.9451E+06    -59.5368E+06     40.9402E+06     3.48932E+06         47.5710
            1509     10.1935E-03     102.575E-03         2.06798         1.08317        -4.63429         1.17270        -3.73901         1.08317         4.10843     326.743E-03    -162.839E-03    -163.904E-03    -162.630E-03     326.534E-03    -163.904E-03     20.1506E-03     55.1807E+06    -16.6545E+06    -54.5744E+06    -53.9672E+06    -17.2616E+06     55.1807E+06     4.25385E+06         48.3171
            1510     11.0430E-03     102.605E-03         1.81955         1.00400        -4.35284     819.043E-03        -3.42673         1.07839         2.06015     326.476E-03    -162.639E-03    -163.836E-03    -162.348E-03     326.185E-03    -163.836E-03     23.7569E-03     67.9260E+06     34.3643E+06    -45.3686E+06    -45.0398E+06     34.0355E+06     67.9260E+06     5.00969E+06         49.6676
            1511     11.8935E-03     102.640E-03         1.10068     954.960E-03        -3.64768     844.912E-03        -3.49995         1.06300        -1.50214     326.232E-03    -162.474E-03    -163.758E-03    -162.060E-03     325.818E-03    -163.758E-03     28.3177E-03     94.7766E+06     74.9742E+06    -36.5062E+06    -36.2195E+06     89.3858E+06     80.0784E+06     5.93000E+06         51.9035
            1512     12.7448E-03     102.682E-03         1.98918         1.02382        -4.67381         1.03442        -3.75270         1.05746        -3.95995     326.349E-03    -162.613E-03    -163.736E-03    -162.086E-03     325.822E-03    -163.736E-03     32.0477E-03     117.928E+06     93.0668E+06    -27.6743E+06    -27.4524E+06     117.706E+06     93.0668E+06     5.60735E+06         55.1200
            1513     13.5947E-03     102.726E-03         2.18544         1.06441        -4.96608         1.21823        -3.99887         1.06441        -4.36188     326.665E-03    -162.859E-03    -163.806E-03    -162.048E-03     325.854E-03    -163.806E-03     39.3339E-03     127.969E+06     116.215E+06    -18.8506E+06    -18.7297E+06     127.848E+06     116.215E+06     4.09646E+06         58.9453
            1514     14.4451E-03     102.785E-03         1.75705         1.07800        -4.58709         1.30363        -4.13367         1.07800        -3.05701     326.306E-03    -162.386E-03    -163.920E-03    -161.519E-03     325.439E-03    -163.920E-03     40.8819E-03     155.169E+06     146.138E+06    -9.82587E+06    -9.78790E+06     147.691E+06     153.579E+06     2.12505E+06         62.4574
            1515     848.783E-06     103.864E-03         2.65177     421.799E-03        -4.38542     504.882E-03        -2.23853     421.799E-03         6.36081     327.871E-03    -163.466E-03    -164.405E-03    -163.762E-03     327.871E-03    -164.109E-03    -626.586E-06    -152.788E+06    -156.745E+06    -338.831E+06    -155.905E+06    -338.827E+06    -153.631E+06     651.635E+03         46.3040
            1516     1.69832E-03     103.862E-03         5.31282     471.452E-03        -7.11528     503.424E-03        -2.30589     471.452E-03         12.0847     327.648E-03    -163.618E-03    -164.030E-03    -163.705E-03     327.648E-03    -163.942E-03    -717.032E-06    -140.545E+06    -152.120E+06    -321.702E+06    -152.132E+06    -321.690E+06    -140.545E+06     1.09182E+06         46.3290
            1517     2.54737E-03     103.863E-03         5.25156     533.511E-03        -7.08430     857.628E-03        -2.69037     533.511E-03         11.6653     327.572E-03    -163.631E-03    -163.941E-03    -163.631E-03     327.572E-03    -163.941E-03    -751.547E-06    -120.945E+06    -145.303E+06    -300.243E+06    -145.323E+06    -300.223E+06    -120.945E+06     1.41745E+06         46.3691
            1518     3.39629E-03     103.863E-03         3.82362     665.415E-03        -5.80185         1.28668        -3.26491     665.415E-03         8.41871     327.596E-03    -163.616E-03    -163.980E-03    -163.616E-03     327.596E-03    -163.980E-03    -220.350E-06    -97.6964E+06    -136.460E+06    -276.077E+06    -136.479E+06    -276.057E+06    -97.6964E+06     1.40660E+06         46.4237
            1519     4.24558E-03     103.865E-03         2.99101     810.269E-03        -5.11107         1.47492        -3.59498     810.269E-03         3.37533     327.516E-03    -163.491E-03    -164.024E-03    -163.491E-03     327.515E-03    -164.024E-03     976.437E-06    -73.5901E+06    -126.367E+06    -249.405E+06    -126.385E+06    -249.388E+06    -73.5901E+06     1.17654E+06         46.4917
            1520     5.09505E-03     103.868E-03         1.44160     898.839E-03        -3.64004         1.28146        -3.49044     909.374E-03    -965.970E-03     327.281E-03    -163.240E-03    -164.041E-03    -163.235E-03     327.276E-03    -164.041E-03     2.72926E-03    -50.2380E+06    -115.428E+06    -220.039E+06    -115.459E+06    -220.008E+06    -50.2380E+06     1.56528E+06         46.5725
            1521     5.94485E-03     103.873E-03         2.41936     941.353E-03        -4.64125         1.07585        -3.30828     951.888E-03        -4.03740     327.092E-03    -163.058E-03    -164.034E-03    -163.044E-03     327.078E-03    -164.034E-03     5.04011E-03    -28.2511E+06    -104.249E+06    -190.627E+06    -104.302E+06    -190.574E+06    -28.2511E+06     2.07042E+06         46.6673
            1522     6.79404E-03     103.884E-03         2.60224     890.835E-03        -4.77170         1.17766        -3.43264     976.357E-03        -3.89542     327.075E-03    -163.058E-03    -164.017E-03    -163.028E-03     327.045E-03    -164.017E-03     7.55787E-03    -8.53732E+06    -93.1144E+06    -161.101E+06    -93.1913E+06    -161.024E+06    -8.53732E+06     2.19550E+06         46.7816
            1523     7.64377E-03     103.897E-03         1.60807     925.685E-03        -3.83009         1.36567        -3.67321         1.01121    -864.583E-03     327.005E-03    -163.005E-03    -163.999E-03    -162.948E-03     326.948E-03    -163.999E-03     10.4320E-03     9.43227E+06    -82.2746E+06    -130.528E+06    -82.4362E+06    -130.366E+06     9.43227E+06     2.62484E+06         46.9318
            1524     8.49427E-03     103.914E-03         2.48191         1.05048        -4.86086         1.40821        -3.78716         1.05048         2.35529     327.011E-03    -163.032E-03    -163.979E-03    -162.937E-03     326.917E-03    -163.979E-03     13.5114E-03     26.3584E+06    -71.6085E+06    -97.7150E+06    -72.0679E+06    -97.2556E+06     26.3584E+06     2.97483E+06         47.1593
            1525     9.34327E-03     103.935E-03         2.42778         1.08308        -4.87342         1.39104        -3.83668         1.08308         4.65857     327.011E-03    -163.056E-03    -163.955E-03    -162.908E-03     326.863E-03    -163.955E-03     16.9135E-03     41.7183E+06    -53.6738E+06    -69.2530E+06    -61.9845E+06    -60.9422E+06     41.7183E+06     3.40000E+06         47.5546
            1526     10.1926E-03     103.961E-03         2.21458         1.11138        -4.72086         1.45050        -3.95678         1.11138         4.05382     326.678E-03    -162.767E-03    -163.911E-03    -162.550E-03     326.461E-03    -163.911E-03     20.5224E-03     55.8382E+06    -18.4711E+06    -53.2515E+06    -52.5748E+06    -19.1478E+06     55.8382E+06     4.30927E+06         48.2892
            1527     11.0436E-03     103.991E-03         2.21481         1.13833        -4.78353         1.45534        -4.02406         1.13833         1.93978     326.365E-03    -162.530E-03    -163.836E-03    -162.230E-03     326.066E-03    -163.836E-03     24.1148E-03     68.6672E+06     32.6427E+06    -44.1965E+06    -43.8259E+06     32.2721E+06     68.6672E+06     5.10747E+06         49.6273
            1528     11.8940E-03     104.026E-03         1.38514         1.13644        -4.00099         1.22868        -3.86295         1.15486        -1.65302     326.280E-03    -162.522E-03    -163.757E-03    -162.103E-03     325.860E-03    -163.757E-03     28.5231E-03     95.4936E+06     74.8760E+06    -35.5588E+06    -35.3155E+06     88.5538E+06     81.5726E+06     5.39830E+06         51.8585
            1529     12.7439E-03     104.068E-03         2.00067         1.13451        -4.67552     941.460E-03        -3.63473         1.15293        -4.17420     326.199E-03    -162.472E-03    -163.727E-03    -161.947E-03     325.674E-03    -163.727E-03     32.0012E-03     119.459E+06     94.0565E+06    -27.3239E+06    -27.1471E+06     119.282E+06     94.0565E+06     5.08137E+06         55.0908
            1530     13.5950E-03     104.112E-03         2.00794         1.08145        -4.68008     835.084E-03        -3.56487         1.13909        -4.58496     326.302E-03    -162.527E-03    -163.775E-03    -161.723E-03     325.498E-03    -163.775E-03     39.1280E-03     130.592E+06     115.590E+06    -19.0242E+06    -18.9213E+06     130.489E+06     115.590E+06     3.75380E+06         58.9575
            1531     14.4463E-03     104.171E-03         1.50896         1.06872        -4.20061     934.295E-03        -3.68360         1.12637        -3.13862     326.215E-03    -162.332E-03    -163.883E-03    -161.466E-03     325.349E-03    -163.883E-03     40.8487E-03     157.239E+06     147.364E+06    -9.77541E+06    -9.74599E+06     150.855E+06     153.718E+06     1.95174E+06         62.5180
            1532     849.794E-06     105.251E-03         3.20112     883.938E-03        -5.29403         1.02300        -3.11591     883.938E-03         6.95192     327.619E-03    -163.403E-03    -164.216E-03    -163.736E-03     327.619E-03    -163.883E-03    -437.071E-06    -154.279E+06    -157.265E+06    -341.245E+06    -157.270E+06    -341.239E+06    -154.279E+06     732.954E+03         46.3010
            1533     1.69788E-03     105.249E-03         6.09001         1.01928        -8.28430         1.28429        -3.47858         1.01928         13.4902     327.879E-03    -163.856E-03    -164.023E-03    -163.984E-03     327.879E-03    -163.895E-03    -936.219E-06    -141.671E+06    -152.721E+06    -323.075E+06    -152.732E+06    -323.065E+06    -141.671E+06     949.784E+03         46.3262
            1534     2.54697E-03     105.249E-03         5.70435         1.15099        -8.02861         1.54565        -3.86990         1.15099         12.4396     327.722E-03    -163.720E-03    -164.002E-03    -163.736E-03     327.722E-03    -163.986E-03    -649.924E-06    -121.533E+06    -145.573E+06    -301.370E+06    -145.592E+06    -301.351E+06    -121.533E+06     1.43499E+06         46.3662
            1535     3.39636E-03     105.249E-03         4.11610         1.27444        -6.56886         1.73403        -4.18679         1.27444         8.88620     327.442E-03    -163.434E-03    -164.008E-03    -163.434E-03     327.442E-03    -164.008E-03     58.1030E-06    -97.9350E+06    -136.637E+06    -275.869E+06    -136.655E+06    -275.851E+06    -97.9350E+06     1.25117E+06         46.4207
            1536     4.24575E-03     105.251E-03         3.04427         1.31409        -5.54782         1.62920        -4.17821         1.35955         3.30314     327.320E-03    -163.308E-03    -164.012E-03    -163.307E-03     327.319E-03    -164.012E-03     1.21643E-03    -73.2346E+06    -126.378E+06    -249.504E+06    -126.395E+06    -249.487E+06    -73.2346E+06     1.05327E+06         46.4887
            1537     5.09527E-03     105.254E-03         1.63548         1.27516        -4.08941         1.37149        -3.93653         1.38626        -1.48535     327.387E-03    -163.362E-03    -164.025E-03    -163.357E-03     327.382E-03    -164.025E-03     2.82153E-03    -50.0144E+06    -115.645E+06    -221.016E+06    -115.670E+06    -220.992E+06    -50.0144E+06     1.37370E+06         46.5696
            1538     5.94420E-03     105.260E-03         2.56455         1.29783        -5.03141         1.04224        -3.57474         1.36347        -4.74233     327.239E-03    -163.203E-03    -164.036E-03    -163.189E-03     327.225E-03    -164.036E-03     5.01237E-03    -28.4995E+06    -104.634E+06    -190.953E+06    -104.666E+06    -190.920E+06    -28.4995E+06     1.63665E+06         46.6642
            1539     6.79448E-03     105.270E-03         2.50820     990.955E-03        -4.66961     740.597E-03        -3.21816         1.30712        -4.29252     326.942E-03    -162.919E-03    -164.023E-03    -162.889E-03     326.912E-03    -164.023E-03     7.54983E-03    -8.47619E+06    -93.5849E+06    -161.518E+06    -93.6276E+06    -161.475E+06    -8.47619E+06     1.55244E+06         46.7776
            1540     7.64441E-03     105.283E-03         1.26560     759.392E-03        -3.21414     628.978E-03        -3.05833         1.24021    -845.239E-03     326.965E-03    -162.969E-03    -163.996E-03    -162.913E-03     326.909E-03    -163.996E-03     10.3245E-03     9.76906E+06    -82.3511E+06    -131.008E+06    -82.4231E+06    -130.936E+06     9.76906E+06     1.53648E+06         46.9260
            1541     8.49312E-03     105.300E-03         2.16851         1.02087        -4.40679     721.716E-03        -3.12466         1.18552         2.70568     326.971E-03    -162.999E-03    -163.971E-03    -162.903E-03     326.874E-03    -163.971E-03     13.6040E-03     26.4640E+06    -71.3409E+06    -98.5319E+06    -71.5924E+06    -98.2804E+06     26.4640E+06     2.02131E+06         47.1495
            1542     9.34345E-03     105.322E-03         2.29909         1.15743        -4.69982     999.272E-03        -3.40001         1.15743         5.06047     326.775E-03    -162.839E-03    -163.937E-03    -162.687E-03     326.623E-03    -163.937E-03     17.1408E-03     41.6934E+06    -54.8014E+06    -69.5337E+06    -61.4808E+06    -62.8542E+06     41.6934E+06     2.87187E+06         47.5377
            1543     10.1940E-03     105.347E-03         2.17539         1.16051        -4.60176         1.35830        -3.78468         1.16051         4.25011     326.624E-03    -162.740E-03    -163.885E-03    -162.521E-03     326.406E-03    -163.885E-03     20.6118E-03     56.2294E+06    -20.3962E+06    -52.2911E+06    -51.6985E+06    -20.9888E+06     56.2294E+06     3.68029E+06         48.2613
            1544     11.0436E-03     105.377E-03         2.28570         1.18374        -4.76108         1.53550        -4.01088         1.18374         1.90681     326.501E-03    -162.684E-03    -163.817E-03    -162.385E-03     326.202E-03    -163.817E-03     24.1167E-03     69.5017E+06     30.4992E+06    -43.0476E+06    -42.6651E+06     30.1167E+06     69.5017E+06     5.12359E+06         49.5870
            1545     11.8939E-03     105.412E-03         1.57199         1.20594        -4.10935         1.42521        -3.96257         1.20594        -1.78263     326.291E-03    -162.544E-03    -163.747E-03    -162.124E-03     325.871E-03    -163.747E-03     28.5154E-03     96.7476E+06     73.9815E+06    -35.2603E+06    -34.9061E+06     87.7800E+06     82.5948E+06     6.41450E+06         51.8133
            1546     12.7446E-03     105.454E-03         2.18609         1.21256        -4.77000         1.15227        -3.73619         1.21256        -4.31528     326.014E-03    -162.308E-03    -163.707E-03    -161.777E-03     325.484E-03    -163.707E-03     32.1640E-03     121.594E+06     94.4029E+06    -27.7518E+06    -27.5348E+06     121.376E+06     94.4029E+06     5.51746E+06         55.0617
            1547     13.5953E-03     105.497E-03         2.08132         1.14213        -4.61704     904.170E-03        -3.50047         1.20270        -4.67893     326.105E-03    -162.365E-03    -163.741E-03    -161.559E-03     325.300E-03    -163.741E-03     39.1784E-03     133.592E+06     115.187E+06    -19.5246E+06    -19.4438E+06     133.512E+06     115.187E+06     3.31773E+06         58.9709
            1548     14.4465E-03     105.557E-03         1.48658         1.12479        -4.00537     839.181E-03        -3.41855         1.18536        -3.26215     326.135E-03    -162.285E-03    -163.850E-03    -161.422E-03     325.273E-03    -163.850E-03     40.7731E-03     159.642E+06     148.610E+06    -10.2857E+06    -10.2668E+06     153.959E+06     154.274E+06     1.50572E+06         62.5817
            1549     848.526E-06     106.636E-03         4.31734         2.56738        -7.97517         2.58968        -6.24751         2.56738         6.78553     327.735E-03    -163.614E-03    -164.121E-03    -164.035E-03     327.734E-03    -163.699E-03    -576.203E-06    -154.449E+06    -157.482E+06    -343.372E+06    -157.220E+06    -343.357E+06    -154.725E+06     614.649E+03         46.2955
            1550     1.69838E-03     106.637E-03         6.44542         2.49059        -10.0252         2.14131        -5.72112         2.49059         14.3400     327.672E-03    -163.734E-03    -163.938E-03    -163.775E-03     327.672E-03    -163.897E-03    -617.953E-06    -142.185E+06    -153.214E+06    -324.071E+06    -153.221E+06    -324.064E+06    -142.185E+06     871.417E+03         46.3208
            1551     2.54706E-03     106.635E-03         5.50884         2.28481        -8.87928         1.57703        -4.94746         2.28481         12.7594     327.614E-03    -163.666E-03    -163.948E-03    -163.681E-03     327.614E-03    -163.932E-03    -370.652E-06    -122.548E+06    -146.324E+06    -302.273E+06    -146.334E+06    -302.263E+06    -122.548E+06     827.937E+03         46.3611
            1552     3.39640E-03     106.636E-03         3.64720         2.04195        -6.77005         1.04264        -4.16549         2.04195         8.98939     327.416E-03    -163.455E-03    -163.962E-03    -163.455E-03     327.416E-03    -163.962E-03     142.349E-06    -98.7116E+06    -137.319E+06    -275.878E+06    -137.339E+06    -275.858E+06    -98.7116E+06     1.13452E+06         46.4160
            1553     4.24606E-03     106.637E-03         2.57212         1.54947        -5.19326     818.729E-03        -3.70795         1.81755         3.04468     327.298E-03    -163.318E-03    -163.980E-03    -163.317E-03     327.297E-03    -163.980E-03     1.17474E-03    -73.9022E+06    -127.404E+06    -249.738E+06    -127.425E+06    -249.717E+06    -73.9022E+06     1.23136E+06         46.4846
            1554     5.09530E-03     106.641E-03         1.66033         1.16776        -3.89803     965.053E-03        -3.69532         1.66033        -1.81422     327.286E-03    -163.290E-03    -163.997E-03    -163.284E-03     327.281E-03    -163.997E-03     3.04878E-03    -50.0548E+06    -116.402E+06    -221.223E+06    -116.419E+06    -221.207E+06    -50.0548E+06     1.22340E+06         46.5661
            1555     5.94489E-03     106.647E-03         2.74132         1.34782        -5.14677         1.14151        -3.77145         1.57231        -5.06274     327.263E-03    -163.253E-03    -164.011E-03    -163.238E-03     327.249E-03    -164.011E-03     5.17248E-03    -28.1189E+06    -104.920E+06    -190.531E+06    -104.939E+06    -190.512E+06    -28.1189E+06     904.864E+03         46.6609
            1556     6.79395E-03     106.656E-03         2.68135         1.21024        -4.94298         1.03105        -3.59478         1.51234        -4.52481     327.111E-03    -163.097E-03    -164.014E-03    -163.066E-03     327.080E-03    -164.014E-03     7.65288E-03    -8.25938E+06    -93.6770E+06    -161.381E+06    -93.6914E+06    -161.367E+06    -8.25938E+06     595.263E+03         46.7738
            1557     7.64360E-03     106.670E-03         1.44695     916.621E-03        -3.42475     784.711E-03        -3.29284         1.44695        -1.00239     326.889E-03    -162.895E-03    -163.994E-03    -162.837E-03     326.831E-03    -163.994E-03     10.5696E-03     9.62184E+06    -82.8972E+06    -131.264E+06    -82.9107E+06    -131.250E+06     9.62184E+06     698.248E+03         46.9203
            1558     8.49432E-03     106.687E-03         2.24968         1.15292        -4.48183     751.895E-03        -3.21227         1.38115         2.77595     326.757E-03    -162.801E-03    -163.956E-03    -162.704E-03     326.660E-03    -163.956E-03     13.6662E-03     25.8460E+06    -72.4240E+06    -99.7530E+06    -72.5156E+06    -99.6614E+06     25.8460E+06     1.11636E+06         47.1399
            1559     9.34404E-03     106.708E-03         2.26224         1.28048        -4.63704     838.784E-03        -3.26370         1.33060         5.25955     326.670E-03    -162.760E-03    -163.911E-03    -162.612E-03     326.523E-03    -163.911E-03     16.9040E-03     41.1519E+06    -56.0358E+06    -70.6929E+06    -62.2676E+06    -64.4611E+06     41.1519E+06     1.87264E+06         47.5209
            1560     10.1937E-03     106.733E-03         1.97707         1.24293        -4.31769     845.368E-03        -3.23610         1.29305         4.55517     326.614E-03    -162.754E-03    -163.860E-03    -162.541E-03     326.401E-03    -163.860E-03     20.3427E-03     55.8870E+06    -22.1214E+06    -52.9978E+06    -52.6312E+06    -22.4880E+06     55.8870E+06     2.81281E+06         48.2335
            1561     11.0440E-03     106.764E-03         1.96791         1.14822        -4.22420     916.609E-03        -3.28866         1.26399         2.18931     326.497E-03    -162.699E-03    -163.798E-03    -162.400E-03     326.198E-03    -163.798E-03     24.1016E-03     68.6553E+06     25.7470E+06    -44.0487E+06    -43.6838E+06     25.3821E+06     68.6553E+06     5.01861E+06         49.5467
            1562     11.8941E-03     106.798E-03         1.42161         1.07385        -3.62444         1.12040        -3.49755         1.24816        -1.50988     326.109E-03    -162.390E-03    -163.719E-03    -161.972E-03     325.690E-03    -163.719E-03     28.4903E-03     98.1375E+06     69.9140E+06    -35.8053E+06    -35.3494E+06     86.0053E+06     81.5902E+06     7.31703E+06         51.7683
            1563     12.7450E-03     106.839E-03         2.22634         1.18521        -4.56166         1.21047        -3.60435         1.24376        -4.09678     325.833E-03    -162.169E-03    -163.663E-03    -161.641E-03     325.304E-03    -163.663E-03     32.0784E-03     126.006E+06     93.9686E+06    -27.7184E+06    -27.4534E+06     125.741E+06     93.9686E+06     6.13651E+06         55.0338
            1564     13.5961E-03     106.883E-03         2.21820         1.23763        -4.60989         1.14459        -3.53920         1.24056        -4.70188     326.176E-03    -162.474E-03    -163.702E-03    -161.670E-03     325.372E-03    -163.702E-03     39.1702E-03     137.633E+06     115.128E+06    -19.2542E+06    -19.1809E+06     137.559E+06     115.128E+06     3.01848E+06         58.9866
            1565     14.4468E-03     106.942E-03         1.62452         1.22870        -3.96655     995.529E-03        -3.34048         1.23162        -3.39979     326.093E-03    -162.272E-03    -163.821E-03    -161.411E-03     325.232E-03    -163.821E-03     40.7367E-03     161.571E+06     149.547E+06    -9.94055E+06    -9.93081E+06     156.552E+06     154.556E+06     978.741E+03         62.6493
            1566     849.278E-06     108.023E-03         5.05395         3.20577        -9.29899         3.44258        -7.68762         3.20577         5.33476     327.616E-03    -163.451E-03    -164.165E-03    -163.632E-03     327.615E-03    -163.983E-03    -502.014E-06    -155.803E+06    -159.182E+06    -344.383E+06    -158.828E+06    -344.373E+06    -156.168E+06     129.390E+03         46.2878
            1567     1.69803E-03     108.022E-03         6.26965         3.16959        -10.4599         2.54997        -6.74022         3.16959         13.8221     327.428E-03    -163.603E-03    -163.824E-03    -163.609E-03     327.428E-03    -163.819E-03    -515.268E-06    -143.250E+06    -154.703E+06    -325.356E+06    -154.710E+06    -325.349E+06    -143.250E+06     730.264E+03         46.3134
            1568     2.54793E-03     108.022E-03         5.15203         2.80746        -8.94607         1.56420        -5.35824         2.80746         12.2692     327.402E-03    -163.572E-03    -163.831E-03    -163.572E-03     327.402E-03    -163.831E-03    -473.188E-06    -123.678E+06    -147.935E+06    -302.621E+06    -147.941E+06    -302.615E+06    -123.678E+06     749.719E+03         46.3545
            1569     3.39682E-03     108.022E-03         3.41393         2.40545        -6.80802     847.341E-03        -4.24143         2.40545         8.83930     327.407E-03    -163.527E-03    -163.880E-03    -163.527E-03     327.407E-03    -163.880E-03     164.086E-06    -99.7267E+06    -138.835E+06    -276.411E+06    -138.851E+06    -276.394E+06    -99.7267E+06     829.319E+03         46.4104
            1570     4.24577E-03     108.023E-03         2.45834         1.67619        -5.11513     698.198E-03        -3.75211         2.07332         2.65152     327.306E-03    -163.377E-03    -163.929E-03    -163.375E-03     327.304E-03    -163.929E-03     1.44822E-03    -74.4127E+06    -128.109E+06    -249.287E+06    -128.124E+06    -249.272E+06    -74.4127E+06     844.675E+03         46.4799
            1571     5.09549E-03     108.027E-03         1.85218         1.07626        -3.88979     843.529E-03        -3.65705         1.85218        -1.98416     327.171E-03    -163.215E-03    -163.956E-03    -163.210E-03     327.165E-03    -163.956E-03     3.16809E-03    -50.1087E+06    -116.802E+06    -220.605E+06    -116.810E+06    -220.597E+06    -50.1087E+06     472.377E+03         46.5623
            1572     5.94513E-03     108.033E-03         2.74074         1.33942        -5.01848         1.00930        -3.66582         1.71821        -5.05054     327.141E-03    -163.175E-03    -163.966E-03    -163.160E-03     327.126E-03    -163.966E-03     5.25611E-03    -28.0055E+06    -105.284E+06    -190.352E+06    -105.295E+06    -190.342E+06    -28.0055E+06     232.657E+03         46.6576
            1573     6.79469E-03     108.043E-03         2.66526         1.51289        -5.10149         1.22977        -3.79584         1.64273        -4.32451     327.150E-03    -163.175E-03    -163.974E-03    -163.143E-03     327.117E-03    -163.974E-03     7.82257E-03    -8.34737E+06    -94.2930E+06    -161.271E+06    -94.2995E+06    -161.264E+06    -8.34737E+06     228.647E+03         46.7705
            1574     7.64434E-03     108.055E-03         1.60237         1.40734        -3.92858         1.31684        -3.83807         1.60237    -886.896E-03     326.986E-03    -163.016E-03    -163.970E-03    -162.957E-03     326.927E-03    -163.970E-03     10.6517E-03     9.39246E+06    -83.8188E+06    -131.263E+06    -83.8290E+06    -131.252E+06     9.39246E+06     316.917E+03         46.9155
            1575     8.49371E-03     108.073E-03         2.28937         1.50133        -4.71355         1.12969        -3.61905         1.56651         2.63583     326.774E-03    -162.830E-03    -163.944E-03    -162.736E-03     326.680E-03    -163.944E-03     13.4805E-03     25.7367E+06    -73.3486E+06    -100.188E+06    -73.3630E+06    -100.174E+06     25.7367E+06     425.911E+03         47.1314
            1576     9.34379E-03     108.094E-03         2.24003         1.40842        -4.56567     859.500E-03        -3.29390         1.51718         5.12890     326.629E-03    -162.729E-03    -163.900E-03    -162.583E-03     326.483E-03    -163.900E-03     16.7776E-03     40.7211E+06    -57.2781E+06    -71.5504E+06    -63.2414E+06    -65.5871E+06     40.7211E+06     815.519E+03         47.5052
            1577     10.1940E-03     108.120E-03         1.97346         1.34844        -4.23155     665.564E-03        -3.03241         1.45720         4.70022     326.505E-03    -162.661E-03    -163.844E-03    -162.445E-03     326.289E-03    -163.844E-03     20.4868E-03     54.8617E+06    -24.7841E+06    -53.8911E+06    -53.7167E+06    -24.9585E+06     54.8617E+06     2.18095E+06         48.2063
            1578     11.0441E-03     108.150E-03         1.91104         1.03794        -3.84974     544.746E-03        -2.84029         1.39478         2.44654     326.292E-03    -162.518E-03    -163.774E-03    -162.220E-03     325.994E-03    -163.774E-03     24.0559E-03     66.9842E+06     19.9289E+06    -45.0022E+06    -44.6632E+06     19.5899E+06     66.9842E+06     4.66631E+06         49.5068
            1579     11.8948E-03     108.184E-03         1.33589     648.187E-03        -2.88394     514.192E-03        -2.74995         1.33589        -1.29573     326.018E-03    -162.333E-03    -163.685E-03    -161.921E-03     325.606E-03    -163.685E-03     28.2537E-03     98.9719E+06     66.1607E+06    -35.7513E+06    -35.3620E+06     84.0012E+06     80.7420E+06     6.56404E+06         51.7236
            1580     12.7456E-03     108.225E-03         2.12001     957.742E-03        -3.98672     681.216E-03        -2.87879         1.28860        -4.08784     325.922E-03    -162.291E-03    -163.630E-03    -161.770E-03     325.401E-03    -163.630E-03     31.8486E-03     131.167E+06     94.7099E+06    -26.5375E+06    -26.3194E+06     130.949E+06     94.7099E+06     5.66223E+06         55.0060
            1581     13.5961E-03     108.269E-03         2.17637         1.25879        -4.33747     920.664E-03        -3.08177         1.25879        -4.87234     326.101E-03    -162.428E-03    -163.673E-03    -161.635E-03     325.308E-03    -163.673E-03     38.9011E-03     142.258E+06     115.400E+06    -18.1680E+06    -18.0959E+06     142.185E+06     115.400E+06     3.03695E+06         59.0039
            1582     14.4472E-03     108.328E-03         1.57798         1.23803        -3.68519     897.044E-03        -3.00425         1.23803        -3.44611     325.860E-03    -162.069E-03    -163.791E-03    -161.219E-03     325.010E-03    -163.791E-03     40.4709E-03     162.987E+06     150.013E+06    -9.51075E+06    -9.50044E+06     158.633E+06     154.356E+06     1.08705E+06         62.7215
            1583     849.171E-06     109.409E-03         4.96695         2.01729        -7.91423         2.29146        -5.23874         2.01729         4.20999     327.385E-03    -163.339E-03    -164.046E-03    -163.600E-03     327.385E-03    -163.786E-03    -224.481E-06    -157.788E+06    -161.359E+06    -345.302E+06    -161.238E+06    -345.299E+06    -157.912E+06    -112.025E+03         46.2799
            1584     1.69866E-03     109.408E-03         6.21538         2.13724        -9.23985         2.06546        -5.08993         2.13724         13.5219     327.433E-03    -163.667E-03    -163.766E-03    -163.685E-03     327.433E-03    -163.747E-03    -718.599E-06    -144.138E+06    -156.215E+06    -326.529E+06    -156.217E+06    -326.527E+06    -144.138E+06     255.986E+03         46.3062
            1585     2.54732E-03     109.408E-03         5.17635         2.10309        -8.15137         2.00321        -4.97823         2.10309         11.2597     327.262E-03    -163.474E-03    -163.788E-03    -163.474E-03     327.262E-03    -163.788E-03    -632.709E-06    -124.177E+06    -148.833E+06    -302.591E+06    -148.839E+06    -302.585E+06    -124.177E+06     526.853E+03         46.3482
            1586     3.39707E-03     109.408E-03         3.83587         2.06793        -6.78666         1.91996        -4.87076         2.06793         8.04833     327.167E-03    -163.352E-03    -163.815E-03    -163.352E-03     327.167E-03    -163.815E-03     118.046E-06    -100.098E+06    -139.592E+06    -276.272E+06    -139.599E+06    -276.265E+06    -100.098E+06     284.078E+03         46.4052
            1587     4.24674E-03     109.409E-03         2.70147         1.83187        -5.41457         1.57927        -4.46689         2.00638         1.93868     327.235E-03    -163.378E-03    -163.857E-03    -163.377E-03     327.233E-03    -163.857E-03     1.46594E-03    -74.9245E+06    -128.741E+06    -248.707E+06    -128.748E+06    -248.700E+06    -74.9245E+06     28.4589E+03         46.4760
            1588     5.09580E-03     109.413E-03         1.97780         1.50582        -4.33575         1.29042        -4.05417         1.91163        -2.49132     327.215E-03    -163.312E-03    -163.903E-03    -163.306E-03     327.209E-03    -163.903E-03     3.16369E-03    -50.6971E+06    -117.491E+06    -219.891E+06    -117.498E+06    -219.884E+06    -50.6971E+06    -130.389E+03         46.5591
            1589     5.94515E-03     109.419E-03         2.89273         1.58789        -5.29552         1.24848        -3.88257         1.81918        -5.53711     327.096E-03    -163.166E-03    -163.931E-03    -163.151E-03     327.082E-03    -163.931E-03     5.21689E-03    -28.4231E+06    -106.395E+06    -190.235E+06    -106.405E+06    -190.224E+06    -28.4231E+06    -72.9129E+03         46.6549
            1590     6.79497E-03     109.429E-03         2.82551         1.58041        -5.19065         1.32099        -3.85768         1.75196        -4.71651     327.075E-03    -163.132E-03    -163.943E-03    -163.102E-03     327.045E-03    -163.943E-03     7.56924E-03    -8.10049E+06    -95.0252E+06    -160.776E+06    -95.0340E+06    -160.767E+06    -8.10049E+06    -86.3534E+03         46.7676
            1591     7.64432E-03     109.442E-03         1.70623         1.47053        -3.94838         1.35594        -3.83379         1.70623        -1.20572     327.012E-03    -163.069E-03    -163.944E-03    -163.013E-03     326.956E-03    -163.944E-03     10.3684E-03     9.73217E+06    -84.1125E+06    -131.107E+06    -84.1134E+06    -131.106E+06     9.73217E+06    -196.292E+03         46.9115
            1592     8.49412E-03     109.459E-03         2.34181         1.60400        -4.70430         1.28266        -3.70929         1.66814         2.42278     326.787E-03    -162.863E-03    -163.924E-03    -162.766E-03     326.690E-03    -163.924E-03     13.6583E-03     25.6129E+06    -73.9638E+06    -100.200E+06    -73.9652E+06    -100.199E+06     25.6129E+06    -101.669E+03         47.1239
            1593     9.34409E-03     109.480E-03         2.29890         1.54991        -4.58903         1.08770        -3.45316         1.62522         4.94204     326.628E-03    -162.744E-03    -163.883E-03    -162.595E-03     326.478E-03    -163.883E-03     17.0015E-03     40.2261E+06    -58.7564E+06    -71.7471E+06    -64.1240E+06    -66.3795E+06     40.2261E+06     250.422E+03         47.4904
            1594     10.1942E-03     109.505E-03         2.01268         1.49546        -4.21877     822.490E-03        -3.10389         1.57077         4.55886     326.446E-03    -162.618E-03    -163.827E-03    -162.406E-03     326.233E-03    -163.827E-03     20.3303E-03     53.9120E+06    -27.5105E+06    -54.4333E+06    -54.3623E+06    -27.5815E+06     53.9120E+06     1.21891E+06         48.1798
            1595     11.0446E-03     109.536E-03         1.94372         1.01637        -3.64647     483.041E-03        -2.67124         1.50182         2.30189     326.215E-03    -162.458E-03    -163.757E-03    -162.168E-03     325.925E-03    -163.757E-03     23.7310E-03     65.7160E+06     14.7787E+06    -45.0793E+06    -44.8706E+06     14.5699E+06     65.7160E+06     3.39542E+06         49.4669
            1596     11.8950E-03     109.569E-03         1.42082     439.847E-03        -2.54077     209.443E-03        -2.31036         1.42082        -1.56569     326.087E-03    -162.419E-03    -163.668E-03    -162.013E-03     325.681E-03    -163.668E-03     28.0149E-03     100.292E+06     62.7945E+06    -35.9550E+06    -35.6929E+06     82.6624E+06     80.1620E+06     5.29443E+06         51.6780
            1597     12.7454E-03     109.611E-03         2.12786     844.184E-03        -3.65163     164.149E-03        -2.18345         1.33971        -4.47422     325.930E-03    -162.315E-03    -163.615E-03    -161.804E-03     325.419E-03    -163.615E-03     31.5636E-03     134.927E+06     94.6383E+06    -27.1606E+06    -27.0202E+06     134.786E+06     94.6383E+06     4.61207E+06         54.9773
            1598     13.5962E-03     109.654E-03         2.05887         1.16987        -3.89735     274.286E-03        -2.21295         1.27006        -5.11316     325.820E-03    -162.171E-03    -163.649E-03    -161.386E-03     325.035E-03    -163.649E-03     38.6295E-03     145.310E+06     114.353E+06    -18.8059E+06    -18.7492E+06     145.254E+06     114.353E+06     2.96737E+06         59.0228
            1599     14.4477E-03     109.713E-03         1.35632         1.11385        -3.11664     386.074E-03        -2.24658         1.21404        -3.41323     325.548E-03    -161.788E-03    -163.760E-03    -160.938E-03     324.698E-03    -163.760E-03     40.4518E-03     165.241E+06     150.380E+06    -9.91014E+06    -9.89097E+06     161.159E+06     154.442E+06     1.56304E+06         62.7994
            1600     849.346E-06     110.795E-03         5.51338     667.890E-03        -6.84679     924.085E-03        -2.25750     667.890E-03         3.91870     327.313E-03    -163.464E-03    -163.849E-03    -163.796E-03     327.312E-03    -163.517E-03    -422.506E-06    -158.490E+06    -161.563E+06    -344.951E+06    -161.532E+06    -344.947E+06    -158.526E+06    -632.312E+03         46.2742
            1601     1.69814E-03     110.795E-03         6.75801     912.621E-03        -8.38745         1.37826        -3.00770     912.621E-03         14.4262     327.238E-03    -163.537E-03    -163.702E-03    -163.549E-03     327.238E-03    -163.689E-03    -490.790E-06    -145.044E+06    -156.685E+06    -326.607E+06    -156.687E+06    -326.605E+06    -145.044E+06    -125.091E+03         46.3013
            1602     2.54783E-03     110.794E-03         5.59484         1.17222        -7.53226         2.02999        -3.96740         1.17222         11.5217     327.198E-03    -163.475E-03    -163.723E-03    -163.475E-03     327.198E-03    -163.723E-03    -382.587E-06    -124.632E+06    -149.407E+06    -302.553E+06    -149.409E+06    -302.551E+06    -124.632E+06    -171.709E+03         46.3445
            1603     3.39717E-03     110.793E-03         4.41285         1.44075        -6.62205         2.44613        -4.65533         1.44075         8.27327     327.212E-03    -163.437E-03    -163.776E-03    -163.436E-03     327.212E-03    -163.776E-03     169.773E-06    -100.680E+06    -140.162E+06    -276.039E+06    -140.165E+06    -276.036E+06    -100.680E+06    -27.9155E+03         46.4026
            1604     4.24641E-03     110.796E-03         3.16540         1.63922        -5.55451         2.37335        -4.76246         1.63922         1.87998     327.234E-03    -163.397E-03    -163.837E-03    -163.396E-03     327.233E-03    -163.837E-03     1.15687E-03    -75.4010E+06    -129.907E+06    -247.801E+06    -129.912E+06    -247.796E+06    -75.4010E+06    -110.496E+03         46.4741
            1605     5.09599E-03     110.799E-03         2.34222         1.71451        -4.77611         2.03257        -4.48835         1.73640        -2.77571     327.208E-03    -163.317E-03    -163.891E-03    -163.313E-03     327.204E-03    -163.891E-03     2.74290E-03    -50.9418E+06    -118.642E+06    -218.886E+06    -118.655E+06    -218.872E+06    -50.9418E+06    -563.920E+03         46.5577
            1606     5.94552E-03     110.806E-03         3.24793         1.73279        -5.65660         1.67854        -4.10910         1.75468        -6.16112     327.117E-03    -163.192E-03    -163.925E-03    -163.179E-03     327.104E-03    -163.925E-03     4.92184E-03    -28.5165E+06    -107.050E+06    -189.840E+06    -107.065E+06    -189.824E+06    -28.5165E+06    -769.480E+03         46.6535
            1607     6.79468E-03     110.815E-03         3.02348         1.61288        -5.28185         1.44628        -3.82227         1.73050        -5.54330     326.956E-03    -163.022E-03    -163.934E-03    -162.991E-03     326.925E-03    -163.934E-03     7.60890E-03    -8.30749E+06    -95.7924E+06    -160.422E+06    -95.7986E+06    -160.415E+06    -8.30749E+06    -585.298E+03         46.7655
            1608     7.64452E-03     110.829E-03         1.76054         1.51385        -3.89631         1.37451        -3.69044         1.69400        -1.99839     326.839E-03    -162.917E-03    -163.922E-03    -162.861E-03     326.783E-03    -163.922E-03     10.4100E-03     9.59724E+06    -84.9918E+06    -130.824E+06    -85.0076E+06    -130.808E+06     9.59724E+06    -590.508E+03         46.9078
            1609     8.49452E-03     110.844E-03         2.39695         1.59843        -4.59612         1.37303        -3.63473         1.66096         1.98424     326.805E-03    -162.906E-03    -163.898E-03    -162.813E-03     326.711E-03    -163.898E-03     13.3969E-03     25.4204E+06    -74.5598E+06    -100.056E+06    -74.5836E+06    -100.032E+06     25.4204E+06    -636.676E+03         47.1165
            1610     9.34440E-03     110.866E-03         2.29620         1.58637        -4.44719         1.20999        -3.40136         1.62674         4.75871     326.737E-03    -162.869E-03    -163.868E-03    -162.725E-03     326.593E-03    -163.868E-03     16.7236E-03     39.8495E+06    -59.7440E+06    -71.9763E+06    -64.6782E+06    -67.0421E+06     39.8495E+06    -155.155E+03         47.4756
            1611     10.1940E-03     110.891E-03         1.94480         1.53608        -4.00144     850.011E-03        -2.94703         1.57646         4.34722     326.523E-03    -162.699E-03    -163.824E-03    -162.494E-03     326.318E-03    -163.824E-03     19.9499E-03     53.3569E+06    -28.8369E+06    -55.2461E+06    -55.2355E+06    -28.8475E+06     53.3569E+06     439.344E+03         48.1528
            1612     11.0445E-03     110.921E-03         1.87654         1.12494        -3.48939     552.718E-03        -2.54883         1.50820         1.97165     326.305E-03    -162.542E-03    -163.763E-03    -162.261E-03     326.023E-03    -163.763E-03     23.3738E-03     64.7427E+06     11.0120E+06    -45.9245E+06    -45.8536E+06     10.9412E+06     64.7427E+06     1.77380E+06         49.4255
            1613     11.8948E-03     110.956E-03         1.43230     686.831E-03        -2.59594     367.660E-03        -2.27677         1.43230        -1.92637     325.995E-03    -162.325E-03    -163.670E-03    -161.923E-03     325.593E-03    -163.670E-03     27.8927E-03     100.763E+06     59.0415E+06    -36.7976E+06    -36.6758E+06     80.7182E+06     78.9648E+06     3.52639E+06         51.6302
            1614     12.7454E-03     110.997E-03         2.12909     989.896E-03        -3.59260     111.637E-03        -1.93736         1.35211        -4.70906     325.566E-03    -161.968E-03    -163.598E-03    -161.456E-03     325.053E-03    -163.598E-03     31.5811E-03     136.869E+06     93.6284E+06    -27.7884E+06    -27.6880E+06     136.768E+06     93.6284E+06     3.92378E+06         54.9482
            1615     13.5966E-03     111.039E-03         2.04363         1.10157        -3.60905    -121.683E-03        -1.60881         1.26665        -5.25736     325.582E-03    -161.968E-03    -163.614E-03    -161.184E-03     324.797E-03    -163.614E-03     38.6207E-03     147.777E+06     113.060E+06    -19.3236E+06    -19.2699E+06     147.723E+06     113.060E+06     2.81529E+06         59.0453
            1616     14.4482E-03     111.097E-03         1.27791         1.02075        -2.73176    -55.4152E-03        -1.56350         1.18582        -3.51744     325.421E-03    -161.698E-03    -163.724E-03    -160.850E-03     324.574E-03    -163.724E-03     40.3694E-03     167.541E+06     150.703E+06    -10.1877E+06    -10.1736E+06     163.963E+06     154.266E+06     1.29212E+06         62.8847
            1617     849.000E-06     112.181E-03         6.44799     747.460E-03        -7.73391         1.25045        -2.53637     747.460E-03         3.91316     327.205E-03    -163.421E-03    -163.784E-03    -163.683E-03     327.205E-03    -163.522E-03    -431.270E-06    -158.818E+06    -162.429E+06    -343.274E+06    -162.378E+06    -343.269E+06    -158.873E+06    -442.313E+03         46.2730
            1618     1.69900E-03     112.180E-03         7.21221         1.06517        -8.88033         1.33205        -3.00017         1.06517         15.4571     327.063E-03    -163.439E-03    -163.624E-03    -163.439E-03     327.063E-03    -163.624E-03    -606.890E-06    -146.056E+06    -157.824E+06    -326.148E+06    -157.827E+06    -326.145E+06    -146.056E+06    -751.965E+03         46.3008
            1619     2.54824E-03     112.180E-03         5.85549         1.17899        -7.63621         1.46228        -3.24299         1.17899         12.6072     327.209E-03    -163.539E-03    -163.669E-03    -163.539E-03     327.208E-03    -163.669E-03    -530.949E-06    -125.357E+06    -150.365E+06    -302.674E+06    -150.367E+06    -302.672E+06    -125.357E+06    -402.529E+03         46.3447
            1620     3.39715E-03     112.180E-03         4.50929         1.26320        -6.38752         1.55899        -3.43721         1.26320         9.50926     327.344E-03    -163.579E-03    -163.765E-03    -163.578E-03     327.344E-03    -163.765E-03     197.999E-06    -100.404E+06    -140.814E+06    -275.610E+06    -140.815E+06    -275.608E+06    -100.404E+06    -310.419E+03         46.4035
            1621     4.24632E-03     112.182E-03         2.91619         1.35075        -4.86220         1.85821        -3.80422         1.35075         2.55131     327.328E-03    -163.476E-03    -163.852E-03    -163.474E-03     327.326E-03    -163.852E-03     1.39667E-03    -75.0639E+06    -130.117E+06    -246.402E+06    -130.124E+06    -246.395E+06    -75.0639E+06    -592.418E+03         46.4752
            1622     5.09555E-03     112.186E-03         2.28850         1.45044        -4.30296         2.04631        -4.06077         1.45044        -2.46477     327.272E-03    -163.358E-03    -163.914E-03    -163.354E-03     327.267E-03    -163.914E-03     2.85879E-03    -50.6744E+06    -118.823E+06    -217.464E+06    -118.839E+06    -217.448E+06    -50.6744E+06    -826.278E+03         46.5586
            1623     5.94489E-03     112.192E-03         3.41412         1.52541        -5.47660         1.89812        -3.96061         1.52541        -6.15025     327.089E-03    -163.143E-03    -163.945E-03    -163.131E-03     327.076E-03    -163.945E-03     4.76550E-03    -28.4903E+06    -107.497E+06    -189.527E+06    -107.517E+06    -189.506E+06    -28.4903E+06    -1.05603E+06         46.6537
            1624     6.79501E-03     112.201E-03         3.12069         1.55333        -5.18343         1.67581        -3.74300         1.55779        -5.65479     326.847E-03    -162.906E-03    -163.941E-03    -162.878E-03     326.819E-03    -163.941E-03     7.26941E-03    -8.61002E+06    -96.4644E+06    -159.986E+06    -96.4899E+06    -159.960E+06    -8.61002E+06    -1.10258E+06         46.7644
            1625     7.64499E-03     112.214E-03         1.73908         1.55429        -3.78253         1.47628        -3.52418         1.55875        -2.26302     326.867E-03    -162.943E-03    -163.923E-03    -162.890E-03     326.814E-03    -163.923E-03     10.0794E-03     9.41736E+06    -85.3689E+06    -130.197E+06    -85.4104E+06    -130.155E+06     9.41736E+06    -1.24094E+06         46.9042
            1626     8.49433E-03     112.231E-03         2.18092         1.53782        -4.17668         1.25573        -3.25149         1.53782         1.51650     326.945E-03    -163.036E-03    -163.909E-03    -162.949E-03     326.858E-03    -163.909E-03     12.9486E-03     25.3475E+06    -74.7434E+06    -99.9390E+06    -74.8265E+06    -99.8558E+06     25.3475E+06    -1.28280E+06         47.1083
            1627     9.34395E-03     112.252E-03         2.05948         1.47776        -3.94972         1.07625        -2.99018         1.50146         4.28330     326.718E-03    -162.834E-03    -163.885E-03    -162.698E-03     326.582E-03    -163.885E-03     16.2202E-03     39.7071E+06    -60.3324E+06    -72.0626E+06    -64.7647E+06    -67.6304E+06     39.7071E+06    -745.308E+03         47.4589
            1628     10.1943E-03     112.278E-03         1.92144         1.43508        -3.71991     979.737E-03        -2.80191         1.45878         4.02728     326.463E-03    -162.628E-03    -163.835E-03    -162.427E-03     326.262E-03    -163.835E-03     19.7507E-03     53.2554E+06    -29.4692E+06    -55.1689E+06    -55.1391E+06    -29.4989E+06     53.2554E+06     91.8770E+03         48.1233
            1629     11.0440E-03     112.307E-03         1.86582         1.23597        -3.42918     874.944E-03        -2.61713         1.41479         1.74478     326.298E-03    -162.528E-03    -163.770E-03    -162.241E-03     326.011E-03    -163.770E-03     23.5769E-03     64.2069E+06     8.72335E+06    -46.3060E+06    -46.2822E+06     8.69952E+06     64.2069E+06     1.07266E+06         49.3816
            1630     11.8945E-03     112.341E-03         1.36567     959.217E-03        -2.63429     652.648E-03        -2.32772         1.36567        -1.97584     325.755E-03    -162.088E-03    -163.666E-03    -161.683E-03     325.350E-03    -163.666E-03     27.9969E-03     100.626E+06     56.4119E+06    -37.8733E+06    -37.8350E+06       79.01E+06     77.9891E+06     2.00499E+06         51.5810
            1631     12.7460E-03     112.381E-03         2.07690         1.07735        -3.46266     324.182E-03        -1.93757         1.30498        -4.55378     325.258E-03    -161.685E-03    -163.573E-03    -161.177E-03     324.750E-03    -163.573E-03     31.4294E-03     137.674E+06     92.4999E+06    -28.8971E+06    -28.8520E+06     137.629E+06     92.4999E+06     2.12183E+06         54.9198
            1632     13.5975E-03     112.424E-03         2.00500         1.16492        -3.46554     46.1305E-03        -1.57483         1.23308        -5.13144     325.430E-03    -161.854E-03    -163.576E-03    -161.079E-03     324.655E-03    -163.576E-03     38.3918E-03     149.716E+06     112.053E+06    -19.2141E+06    -19.1799E+06     149.681E+06     112.053E+06     1.72062E+06         59.0719
            1633     14.4485E-03     112.482E-03         1.30465         1.09179        -2.65866    -13.8487E-03        -1.40833         1.15996        -3.62665     325.334E-03    -161.649E-03    -163.685E-03    -160.812E-03     324.496E-03    -163.685E-03     40.1531E-03     168.687E+06     151.206E+06    -9.76205E+06    -9.75460E+06     166.323E+06     153.563E+06     969.168E+03         62.9778
            1634     849.490E-06     113.566E-03         6.80216         2.06219        -9.32572         2.03203        -4.55559         2.06219         3.65512     327.162E-03    -163.343E-03    -163.819E-03    -163.771E-03     327.162E-03    -163.391E-03    -566.181E-06    -159.862E+06    -163.977E+06    -341.697E+06    -163.482E+06    -341.689E+06    -160.365E+06    -609.019E+03         46.2785
            1635     1.69832E-03     113.566E-03         7.05783         1.90797        -9.40675         1.35300        -3.70191         1.90797         15.6629     327.289E-03    -163.578E-03    -163.711E-03    -163.634E-03     327.289E-03    -163.655E-03    -723.805E-06    -145.566E+06    -158.560E+06    -325.105E+06    -158.566E+06    -325.099E+06    -145.566E+06    -909.905E+03         46.3064
            1636     2.54760E-03     113.566E-03         5.45811         1.63422        -7.54759     824.555E-03        -2.91404         1.63422         12.4516     327.332E-03    -163.592E-03    -163.740E-03    -163.592E-03     327.332E-03    -163.740E-03    -604.787E-06    -125.354E+06    -151.032E+06    -302.586E+06    -151.038E+06    -302.579E+06    -125.354E+06    -901.159E+03         46.3501
            1637     3.39715E-03     113.566E-03         3.99457         1.41275        -5.87252     720.223E-03        -2.59818         1.41275         9.24913     327.301E-03    -163.488E-03    -163.813E-03    -163.488E-03     327.300E-03    -163.813E-03    -24.5269E-06    -100.898E+06    -141.505E+06    -274.517E+06    -141.510E+06    -274.513E+06    -100.898E+06    -714.691E+03         46.4082
            1638     4.24653E-03     113.568E-03         2.13977         1.23904        -3.83681     914.092E-03        -2.66079         1.28870         2.35455     327.303E-03    -163.426E-03    -163.877E-03    -163.425E-03     327.302E-03    -163.877E-03     1.28334E-03    -75.1164E+06    -130.832E+06    -245.141E+06    -130.840E+06    -245.133E+06    -75.1164E+06    -729.247E+03         46.4792
            1639     5.09574E-03     113.572E-03         1.69236         1.20835        -3.33006         1.34254        -3.02991         1.25801        -2.30982     327.262E-03    -163.333E-03    -163.929E-03    -163.329E-03     327.258E-03    -163.929E-03     2.90089E-03    -50.7069E+06    -119.709E+06    -216.180E+06    -119.729E+06    -216.160E+06    -50.7069E+06    -980.188E+03         46.5616
            1640     5.94518E-03     113.578E-03         3.12986         1.29420        -4.82377         1.71264        -3.40655         1.29420        -5.72910     327.198E-03    -163.234E-03    -163.964E-03    -163.222E-03     327.186E-03    -163.964E-03     4.79527E-03    -28.3677E+06    -108.093E+06    -188.422E+06    -108.127E+06    -188.388E+06    -28.3677E+06    -1.43604E+06         46.6552
            1641     6.79445E-03     113.587E-03         2.94544         1.34066        -4.67423         1.62787        -3.35666         1.34066        -5.22203     327.175E-03    -163.194E-03    -163.980E-03    -163.169E-03     327.149E-03    -163.980E-03     7.01652E-03    -8.35389E+06    -96.2678E+06    -158.916E+06    -96.3241E+06    -158.859E+06    -8.35389E+06    -1.82033E+06         46.7638
            1642     7.64396E-03     113.600E-03         1.49411         1.33678        -3.20480         1.22928        -2.95292         1.34972        -2.02616     327.024E-03    -163.044E-03    -163.981E-03    -162.995E-03     326.975E-03    -163.981E-03     9.68813E-03     9.40369E+06    -85.2469E+06    -129.466E+06    -85.3395E+06    -129.374E+06     9.40369E+06    -1.92653E+06         46.8998
            1643     8.49388E-03     113.618E-03         1.91327         1.30784        -3.56805     936.415E-03        -2.60413         1.32078         1.53958     326.838E-03    -162.878E-03    -163.960E-03    -162.794E-03     326.754E-03    -163.960E-03     12.7126E-03     25.4271E+06    -74.4960E+06    -99.6182E+06    -74.7192E+06    -99.3950E+06     25.4271E+06    -2.03215E+06         47.0980
            1644     9.34370E-03     113.638E-03         1.96096         1.28383        -3.54528     974.323E-03        -2.55865         1.28383         4.06961     326.630E-03    -162.711E-03    -163.919E-03    -162.579E-03     326.498E-03    -163.919E-03     15.9521E-03     39.6676E+06    -60.6430E+06    -71.9287E+06    -64.4361E+06    -68.1357E+06     39.6676E+06    -1.80027E+06         47.4395
            1645     10.1936E-03     113.663E-03         1.96243         1.26202        -3.47388         1.17415        -2.68560         1.26202         3.75631     326.296E-03    -162.442E-03    -163.854E-03    -162.244E-03     326.098E-03    -163.854E-03     19.5849E-03     53.1279E+06    -30.4482E+06    -54.6015E+06    -54.4083E+06    -30.6414E+06     53.1279E+06    -981.215E+03         48.0909
            1646     11.0447E-03     113.693E-03         1.88904         1.21115        -3.31085         1.17446        -2.63620         1.25108         1.61044     325.987E-03    -162.217E-03    -163.770E-03    -161.935E-03     325.706E-03    -163.770E-03     23.3676E-03     64.5399E+06     6.99170E+06    -44.8783E+06    -44.8455E+06     6.95893E+06     64.5399E+06     294.695E+03         49.3357
            1647     11.8952E-03     113.727E-03         1.34584         1.10435        -2.64708     930.569E-03        -2.36038         1.23292        -1.98007     325.593E-03    -161.942E-03    -163.650E-03    -161.544E-03     325.194E-03    -163.650E-03     27.7436E-03     102.085E+06     55.7676E+06    -35.8808E+06    -35.8654E+06     78.8460E+06     78.9915E+06     1.06444E+06         51.5313
            1648     12.7460E-03     113.766E-03         2.14739         1.11202        -3.44706     682.981E-03        -2.07128         1.20065        -4.53853     325.273E-03    -161.715E-03    -163.558E-03    -161.209E-03     324.767E-03    -163.558E-03     31.3385E-03     139.011E+06     94.4881E+06    -27.4731E+06    -27.4634E+06     139.001E+06     94.4881E+06     848.863E+03         54.8922
            1649     13.5970E-03     113.809E-03         2.21662         1.15729        -3.53874     547.994E-03        -1.87339         1.16057        -5.16847     325.288E-03    -161.734E-03    -163.554E-03    -160.968E-03     324.522E-03    -163.554E-03     38.1822E-03     150.036E+06     111.904E+06    -19.3935E+06    -19.3840E+06     150.026E+06     111.904E+06     577.252E+03         59.1014
            1650     14.4493E-03     113.866E-03         1.50113         1.11432        -2.74098     404.008E-03        -1.64714         1.11760        -3.68312     325.176E-03    -161.525E-03    -163.651E-03    -160.694E-03     324.345E-03    -163.651E-03     40.0002E-03     168.927E+06     150.811E+06    -10.2569E+06    -10.2520E+06     167.508E+06     152.224E+06     446.154E+03         63.0777
            1651     849.286E-06     114.952E-03         6.82265         1.96982        -9.06878         1.72464        -3.97078         1.96982         3.03997     327.352E-03    -163.465E-03    -163.887E-03    -163.871E-03     327.352E-03    -163.481E-03    -496.092E-06    -160.558E+06    -165.061E+06    -339.965E+06    -164.620E+06    -339.959E+06    -161.005E+06    -921.528E+03         46.2911
            1652     1.69853E-03     114.952E-03         6.87915         1.73505        -8.91804         1.28637        -3.32526         1.73505         15.0844     327.489E-03    -163.681E-03    -163.808E-03    -163.737E-03     327.489E-03    -163.752E-03    -575.370E-06    -146.683E+06    -159.569E+06    -324.138E+06    -159.574E+06    -324.134E+06    -146.683E+06    -654.869E+03         46.3183
            1653     2.54753E-03     114.952E-03         5.27119         1.51881        -7.15602     894.621E-03        -2.77944         1.51881         11.8636     327.490E-03    -163.652E-03    -163.838E-03    -163.652E-03     327.489E-03    -163.838E-03    -357.458E-06    -125.388E+06    -152.034E+06    -301.534E+06    -152.043E+06    -301.526E+06    -125.388E+06    -930.764E+03         46.3608
            1654     3.39651E-03     114.952E-03         3.77396         1.33955        -5.47892     739.179E-03        -2.44414         1.33955         8.64555     327.513E-03    -163.606E-03    -163.907E-03    -163.606E-03     327.513E-03    -163.907E-03     53.7900E-06    -101.190E+06    -142.489E+06    -273.418E+06    -142.497E+06    -273.410E+06    -101.190E+06    -1.01874E+06         46.4172
            1655     4.24585E-03     114.954E-03         1.93922         1.16962        -3.45291     769.554E-03        -2.33291         1.21928         1.86212     327.420E-03    -163.450E-03    -163.970E-03    -163.449E-03     327.419E-03    -163.970E-03     890.561E-06    -75.3162E+06    -131.846E+06    -243.969E+06    -131.855E+06    -243.960E+06    -75.3162E+06    -805.829E+03         46.4860
            1656     5.09544E-03     114.959E-03         1.48448         1.10277        -2.90221     893.966E-03        -2.36135         1.15243        -2.78086     327.271E-03    -163.265E-03    -164.005E-03    -163.262E-03     327.268E-03    -164.005E-03     2.22861E-03    -50.3524E+06    -120.112E+06    -214.474E+06    -120.141E+06    -214.445E+06    -50.3524E+06    -1.36452E+06         46.5658
            1657     5.94501E-03     114.964E-03         2.85443         1.12445        -4.27576         1.04438        -2.46571         1.12445        -5.96038     327.326E-03    -163.297E-03    -164.029E-03    -163.287E-03     327.316E-03    -164.029E-03     4.28127E-03    -27.9536E+06    -108.088E+06    -186.446E+06    -108.156E+06    -186.379E+06    -27.9536E+06    -2.17407E+06         46.6566
            1658     6.79423E-03     114.975E-03         2.61890         1.11568        -4.02376         1.09072        -2.49559         1.11568        -5.03792     327.358E-03    -163.309E-03    -164.049E-03    -163.284E-03     327.333E-03    -164.049E-03     6.89713E-03    -8.10705E+06    -96.3398E+06    -157.749E+06    -96.4613E+06    -157.628E+06    -8.10705E+06    -2.58336E+06         46.7616
            1659     7.64332E-03     114.987E-03         1.22195         1.09416        -2.60015         1.02191        -2.41305         1.10710        -1.58456     327.125E-03    -163.075E-03    -164.050E-03    -163.025E-03     327.076E-03    -164.050E-03     9.74949E-03     9.77106E+06    -84.9787E+06    -128.362E+06    -85.1641E+06    -128.176E+06     9.77106E+06    -2.73965E+06         46.8931
            1660     8.49323E-03     115.004E-03         1.96926         1.08028        -3.30977     963.680E-03        -2.31713         1.09322         2.05565     326.730E-03    -162.714E-03    -164.016E-03    -162.630E-03     326.646E-03    -164.016E-03     12.7065E-03     25.6979E+06    -74.0930E+06    -98.7579E+06    -74.5543E+06    -98.2966E+06     25.6979E+06    -2.90779E+06         47.0849
            1661     9.34347E-03     115.024E-03         2.12841         1.07764        -3.42159     938.450E-03        -2.23162         1.07764         4.46468     326.470E-03    -162.516E-03    -163.954E-03    -162.386E-03     326.340E-03    -163.954E-03     15.8453E-03     39.7636E+06    -60.1183E+06    -72.0868E+06    -64.2852E+06    -67.9200E+06     39.7636E+06    -3.15184E+06         47.4176
            1662     10.1938E-03     115.049E-03         1.92196         1.06314        -3.14839     943.734E-03        -2.17017         1.06314         3.91297     326.208E-03    -162.334E-03    -163.873E-03    -162.140E-03     326.014E-03    -163.873E-03     19.3835E-03     53.1052E+06    -30.3875E+06    -54.8452E+06    -54.0341E+06    -31.1987E+06     53.1052E+06    -2.86291E+06         48.0569
            1663     11.0439E-03     115.078E-03         1.74031         1.05189        -2.92308     995.939E-03        -2.17871         1.05189         1.63863     325.777E-03    -162.000E-03    -163.778E-03    -161.727E-03     325.505E-03    -163.778E-03     22.9749E-03     64.5678E+06     5.62676E+06    -44.1289E+06    -43.9694E+06     5.46723E+06     64.5678E+06    -2.10147E+06         49.2890
            1664     11.8952E-03     115.111E-03         1.37427         1.04459        -2.53926         1.04458        -2.20957         1.04459        -2.11303     325.388E-03    -161.745E-03    -163.643E-03    -161.354E-03     324.997E-03    -163.643E-03     27.4569E-03     101.753E+06     54.8788E+06    -34.3457E+06     -34.272E+06       77.27E+06     79.2877E+06    -465.619E+03         51.4819
            1665     12.7464E-03     115.152E-03         2.42618         1.04027        -3.57807         1.07776        -2.22965         1.04027        -4.85226     325.124E-03    -161.582E-03    -163.543E-03    -161.082E-03     324.625E-03    -163.543E-03     31.1602E-03     139.065E+06     95.6839E+06    -25.7415E+06    -25.7273E+06     139.050E+06     95.6839E+06     1.36217E+06         54.8676
            1666     13.5980E-03     115.193E-03         2.62914         1.03603        -3.74659         1.03649        -2.15394         1.03603        -5.47837     325.188E-03    -161.660E-03    -163.528E-03    -160.894E-03     324.423E-03    -163.528E-03     38.1101E-03     151.645E+06     112.308E+06    -18.3057E+06    -18.2919E+06     151.631E+06     112.308E+06     1.06637E+06         59.1370
            1667     14.4491E-03     115.251E-03         1.69224         1.02094        -2.73691     686.965E-03        -1.73163         1.02094        -3.69091     325.109E-03    -161.489E-03    -163.621E-03    -160.651E-03     324.272E-03    -163.621E-03     40.1503E-03     170.000E+06     150.389E+06    -9.97967E+06    -9.97720E+06     168.808E+06     151.578E+06     52.0212E+03         63.1862
            1668     848.955E-06     116.338E-03         6.99566     501.312E-03        -7.67260     798.996E-03        -1.47594     501.312E-03         3.40814     327.731E-03    -163.628E-03    -164.104E-03    -163.790E-03     327.731E-03    -163.940E-03    -687.792E-06    -160.950E+06    -166.705E+06    -339.027E+06    -166.022E+06    -339.018E+06    -161.641E+06     456.677E+03         46.3097
            1669     1.69802E-03     116.338E-03         7.24215     751.992E-03        -8.22919         1.16018        -2.14723     751.992E-03         15.0321     327.648E-03    -163.740E-03    -163.907E-03    -163.740E-03     327.648E-03    -163.907E-03    -617.158E-06    -147.050E+06    -160.807E+06    -322.427E+06    -160.816E+06    -322.417E+06    -147.050E+06    -284.707E+03         46.3351
            1670     2.54732E-03     116.338E-03         5.71676     938.555E-03        -6.90615         1.44644        -2.63584     938.555E-03         11.9359     327.784E-03    -163.819E-03    -163.965E-03    -163.819E-03     327.784E-03    -163.965E-03    -548.854E-06    -125.534E+06    -152.957E+06    -300.039E+06    -152.966E+06    -300.030E+06    -125.534E+06    -866.507E+03         46.3753
            1671     3.39657E-03     116.339E-03         4.20913         1.05158        -5.53482         1.28083        -2.60652         1.05158         8.88517     327.843E-03    -163.789E-03    -164.054E-03    -163.789E-03     327.842E-03    -164.054E-03    -114.649E-06    -100.369E+06    -143.088E+06    -272.458E+06    -143.097E+06    -272.449E+06    -100.369E+06    -1.01698E+06         46.4288
            1672     4.24517E-03     116.342E-03         2.04279         1.04682        -3.34875     976.662E-03        -2.30633         1.07053         2.07465     327.693E-03    -163.576E-03    -164.117E-03    -163.575E-03     327.693E-03    -164.117E-03     693.336E-06    -74.6271E+06    -131.846E+06    -242.202E+06    -131.863E+06    -242.185E+06    -74.6271E+06    -1.30969E+06         46.4941
            1673     5.09442E-03     116.345E-03         1.29623         1.00745        -2.54457     676.600E-03        -1.94866         1.03117        -2.67604     327.556E-03    -163.407E-03    -164.149E-03    -163.404E-03     327.553E-03    -164.149E-03     2.20202E-03    -49.7879E+06    -119.815E+06    -212.047E+06    -119.866E+06    -211.996E+06    -49.7879E+06    -1.95793E+06         46.5700
            1674     5.94364E-03     116.352E-03         2.59200     967.445E-03        -3.78030     499.369E-03        -1.68767     967.445E-03        -5.88883     327.435E-03    -163.274E-03    -164.161E-03    -163.265E-03     327.426E-03    -164.161E-03     4.14200E-03    -27.6240E+06    -108.075E+06    -184.341E+06    -108.182E+06    -184.234E+06    -27.6240E+06    -2.73949E+06         46.6563
            1675     6.79331E-03     116.361E-03         2.36121     915.066E-03        -3.48703     630.294E-03        -1.75611     915.066E-03        -4.88172     327.174E-03    -163.026E-03    -164.148E-03    -163.003E-03     327.151E-03    -164.148E-03     6.55625E-03    -7.79321E+06    -96.7002E+06    -156.123E+06    -96.8870E+06    -155.936E+06    -7.79321E+06    -3.23598E+06         46.7566
            1676     7.64340E-03     116.374E-03         1.05593     896.602E-03        -2.15605     913.410E-03        -2.01354     896.602E-03        -1.30795     326.977E-03    -162.865E-03    -164.112E-03    -162.818E-03     326.929E-03    -164.112E-03     9.51003E-03     10.0596E+06    -85.2285E+06     -126.99E+06    -85.5756E+06    -126.643E+06     10.0596E+06    -3.61171E+06         46.8832
            1677     8.49284E-03     116.390E-03         1.98268     901.347E-03        -3.06901         1.01931        -2.10564     901.347E-03         2.31526     326.789E-03    -162.728E-03    -164.061E-03    -162.647E-03     326.708E-03    -164.061E-03     12.5259E-03     25.9434E+06    -73.7805E+06    -97.7952E+06    -74.6902E+06    -96.8856E+06     25.9434E+06    -3.98771E+06         47.0694
            1678     9.34305E-03     116.410E-03         2.24843     903.714E-03        -3.30190     882.244E-03        -1.93572     903.714E-03         4.76304     326.400E-03    -162.408E-03    -163.992E-03    -162.283E-03     326.275E-03    -163.992E-03     15.5708E-03     40.1118E+06    -58.8298E+06    -72.0389E+06    -64.3005E+06    -66.5683E+06     40.1118E+06    -4.35515E+06         47.3941
            1679     10.1934E-03     116.434E-03         1.94919     889.719E-03        -2.94795     648.700E-03        -1.64746     889.719E-03         4.28241     325.937E-03    -162.045E-03    -163.892E-03    -161.856E-03     325.748E-03    -163.892E-03     19.0982E-03     52.8758E+06    -29.2710E+06    -56.0527E+06    -54.7192E+06    -30.6045E+06     52.8758E+06    -4.52447E+06         48.0224
            1680     11.0444E-03     116.463E-03         1.55055     832.890E-03        -2.46292     590.745E-03        -1.53583     865.608E-03         1.81749     325.674E-03    -161.894E-03    -163.779E-03    -161.621E-03     325.400E-03    -163.779E-03     23.0092E-03     63.7296E+06     5.35228E+06    -45.9037E+06    -45.5253E+06     4.97386E+06     63.7296E+06    -4.12207E+06         49.2430
            1681     11.8950E-03     116.496E-03         1.27131     817.151E-03        -2.15632     825.629E-03        -1.74336     849.869E-03        -2.16104     325.298E-03    -161.660E-03    -163.638E-03    -161.268E-03     324.906E-03    -163.638E-03     27.5097E-03     97.8448E+06     52.7983E+06    -36.7971E+06    -36.6761E+06     73.3076E+06     77.2146E+06    -1.95771E+06         51.4351
            1682     12.7465E-03     116.536E-03         2.52959     850.727E-03        -3.44714         1.05910        -1.97665     850.727E-03        -5.03130     324.840E-03    -161.319E-03    -163.520E-03    -160.827E-03     324.348E-03    -163.520E-03     30.9163E-03     136.937E+06     92.8907E+06    -27.8640E+06    -27.8498E+06     136.923E+06     92.8907E+06     611.559E+03         54.8516
            1683     13.5980E-03     116.578E-03         2.69541     853.677E-03        -3.59942     938.694E-03        -1.84270     853.677E-03        -5.60164     324.966E-03    -161.479E-03    -163.487E-03    -160.717E-03     324.204E-03    -163.487E-03     37.9730E-03     154.326E+06     109.888E+06    -18.7736E+06    -18.7639E+06     154.316E+06     109.888E+06     797.644E+03         59.1950
            1684     14.4501E-03     116.635E-03         1.64667     837.955E-03        -2.47758     491.350E-03        -1.32226     837.955E-03        -3.65548     325.022E-03    -161.439E-03    -163.583E-03    -160.599E-03     324.182E-03    -163.583E-03     40.2041E-03     171.582E+06     148.971E+06    -9.61018E+06    -9.60765E+06     169.989E+06     150.560E+06     69.2579E+03         63.3290
            1685     848.712E-06     117.724E-03         6.81330     178.771E-03        -7.08535     312.090E-03    -584.141E-03     178.771E-03         3.62896     328.246E-03    -163.784E-03    -164.462E-03    -163.849E-03     328.246E-03    -164.397E-03    -607.006E-06    -162.998E+06    -167.605E+06    -338.969E+06    -166.935E+06    -338.947E+06    -163.688E+06    -281.009E+03         46.3298
            1686     1.69797E-03     117.724E-03         7.30855     341.929E-03        -7.79426     728.626E-03        -1.21434     341.929E-03         14.9282     328.219E-03    -163.978E-03    -164.241E-03    -164.043E-03     328.219E-03    -164.176E-03    -880.645E-06    -147.194E+06    -161.117E+06    -320.352E+06    -161.128E+06    -320.340E+06    -147.194E+06    -481.524E+03         46.3527
            1687     2.54661E-03     117.725E-03         5.83514     539.857E-03        -6.54834         1.14790        -1.86110     539.857E-03         11.9564     328.105E-03    -163.888E-03    -164.217E-03    -163.888E-03     328.105E-03    -164.217E-03    -749.022E-06    -124.971E+06    -152.925E+06    -298.436E+06    -152.933E+06    -298.429E+06    -124.971E+06    -788.637E+03         46.3893
            1688     3.39503E-03     117.727E-03         4.34541     720.191E-03        -5.25202         1.35449        -2.26110     720.191E-03         8.77734     327.975E-03    -163.730E-03    -164.245E-03    -163.729E-03     327.974E-03    -164.245E-03    -100.094E-06    -99.6796E+06    -142.935E+06    -270.929E+06    -142.946E+06    -270.918E+06    -99.6796E+06    -1.08427E+06         46.4389
            1689     4.24474E-03     117.728E-03         2.12550     809.064E-03        -3.12384         1.17095        -2.19300     832.779E-03         2.21299     327.957E-03    -163.686E-03    -164.271E-03    -163.686E-03     327.957E-03    -164.271E-03     772.657E-06    -73.9547E+06    -131.386E+06    -239.964E+06    -131.428E+06    -239.922E+06    -73.9547E+06    -1.90629E+06         46.5002
            1690     5.09383E-03     117.732E-03         1.27538     836.384E-03        -2.27217     789.903E-03        -1.81040     860.098E-03        -2.25216     327.834E-03    -163.537E-03    -164.297E-03    -163.534E-03     327.831E-03    -164.297E-03     2.20224E-03    -49.4217E+06    -119.684E+06    -210.003E+06    -119.756E+06    -209.930E+06    -49.4217E+06    -2.35166E+06         46.5717
            1691     5.94309E-03     117.739E-03         2.44175     830.019E-03        -3.41452     500.138E-03        -1.47290     830.019E-03        -5.38237     327.486E-03    -163.193E-03    -164.293E-03    -163.183E-03     327.476E-03    -164.293E-03     4.21478E-03    -26.9872E+06    -108.110E+06    -181.760E+06    -108.247E+06    -181.622E+06    -26.9872E+06    -2.94152E+06         46.6533
            1692     6.79256E-03     117.747E-03         2.15886     772.726E-03        -3.06827     368.956E-03        -1.28564     780.004E-03        -4.74453     327.185E-03    -162.931E-03    -164.254E-03    -162.908E-03     327.162E-03    -164.254E-03     6.55693E-03    -7.05608E+06    -96.4551E+06    -153.891E+06    -96.7246E+06    -153.622E+06    -7.05608E+06    -3.78570E+06         46.7490
            1693     7.64230E-03     117.760E-03     812.794E-03     707.450E-03        -1.65419     461.049E-03        -1.33273     737.727E-03        -1.50135     326.863E-03    -162.673E-03    -164.189E-03    -162.629E-03     326.819E-03    -164.189E-03     9.18999E-03     10.4227E+06    -85.0875E+06    -125.323E+06    -85.5989E+06    -124.812E+06     10.4227E+06    -4.32642E+06         46.8709
            1694     8.49281E-03     117.776E-03         1.74379     694.144E-03        -2.56185     653.724E-03        -1.49478     717.142E-03         2.14030     326.535E-03    -162.428E-03    -164.107E-03    -162.349E-03     326.456E-03    -164.107E-03     12.3051E-03     26.2871E+06    -73.3541E+06    -96.4104E+06    -74.6617E+06    -95.1028E+06     26.2871E+06    -4.71883E+06         47.0519
            1695     9.34238E-03     117.796E-03         2.25707     712.515E-03        -3.06330     744.053E-03        -1.55028     712.515E-03         4.77589     326.219E-03    -162.208E-03    -164.011E-03    -162.081E-03     326.091E-03    -164.011E-03     15.7010E-03     40.1617E+06    -57.9616E+06    -71.9190E+06    -64.8481E+06    -65.0325E+06     40.1617E+06    -4.88002E+06         47.3697
            1696     10.1933E-03     117.819E-03         2.08302     710.057E-03        -2.85418     699.040E-03        -1.47020     710.057E-03         4.41582     325.862E-03    -161.965E-03    -163.897E-03    -161.775E-03     325.673E-03    -163.897E-03     19.1402E-03     52.7600E+06    -27.9021E+06    -57.0700E+06    -55.7369E+06    -29.2352E+06     52.7600E+06    -5.00694E+06         47.9882
            1697     11.0443E-03     117.847E-03         1.53527     669.827E-03        -2.24333     611.231E-03        -1.35201     702.545E-03         1.93640     325.555E-03    -161.777E-03    -163.778E-03    -161.510E-03     325.288E-03    -163.778E-03     22.7549E-03     63.1675E+06     5.36771E+06    -47.3751E+06    -46.9136E+06     4.90622E+06     63.1675E+06    -4.68351E+06         49.1988
            1698     11.8953E-03     117.881E-03         1.09700     656.265E-03        -1.78963     509.511E-03        -1.23486     688.983E-03        -2.05357     325.125E-03    -161.498E-03    -163.626E-03    -161.111E-03     324.737E-03    -163.626E-03     27.3128E-03     94.4383E+06     50.7346E+06    -38.4275E+06    -38.2520E+06     69.6659E+06     75.3314E+06    -3.20166E+06         51.3939
            1699     12.7466E-03     117.920E-03         2.23164     665.983E-03        -2.94144     305.656E-03        -1.01546     665.983E-03        -4.80948     324.736E-03    -161.238E-03    -163.498E-03    -160.742E-03     324.241E-03    -163.498E-03     31.0032E-03     135.278E+06     91.0626E+06    -29.0148E+06    -28.9816E+06     135.245E+06     91.0626E+06    -1.74762E+06         54.8520
            1700     13.5986E-03     117.962E-03         2.47943     628.776E-03        -3.14987     50.8621E-03    -721.298E-03     628.776E-03        -5.42412     324.871E-03    -161.417E-03    -163.454E-03    -160.660E-03     324.114E-03    -163.454E-03     37.9046E-03     155.659E+06     107.263E+06    -19.7989E+06    -19.7789E+06     155.639E+06     107.263E+06    -1.09966E+06         59.2946
            1701     14.4502E-03     118.019E-03         1.58437     582.771E-03        -2.20118    -36.5043E-03    -580.302E-03     582.771E-03        -3.66596     324.851E-03    -161.302E-03    -163.549E-03    -160.474E-03     324.023E-03    -163.549E-03     39.9069E-03     171.094E+06     146.724E+06    -10.4025E+06    -10.3989E+06     170.008E+06     147.807E+06    -555.527E+03         63.5548
            1702     848.906E-06     119.113E-03         6.23448     671.708E-03        -6.94080     412.283E-03        -1.11860     671.708E-03         3.71423     328.912E-03    -164.163E-03    -164.748E-03    -164.344E-03     328.911E-03    -164.567E-03    -500.467E-06    -163.361E+06    -166.883E+06    -336.487E+06    -166.693E+06    -336.471E+06    -163.568E+06    -1.44754E+06         46.3427
            1703     1.69653E-03     119.112E-03         7.02514     497.290E-03        -7.55687     319.071E-03    -850.800E-03     497.290E-03         14.5293     328.708E-03    -164.169E-03    -164.540E-03    -164.233E-03     328.708E-03    -164.475E-03    -775.561E-06    -148.656E+06    -161.808E+06    -319.047E+06    -161.821E+06    -319.035E+06    -148.656E+06    -1.16104E+06         46.3632
            1704     2.54553E-03     119.113E-03         5.66193     428.175E-03        -6.18201     281.122E-03    -801.207E-03     428.175E-03         11.7602     328.303E-03    -163.857E-03    -164.447E-03    -163.857E-03     328.303E-03    -164.447E-03    -477.087E-06    -125.666E+06    -153.400E+06    -296.977E+06    -153.417E+06    -296.961E+06    -125.666E+06    -1.23255E+06         46.3964
            1705     3.39550E-03     119.113E-03         4.09026     415.920E-03        -4.59856     515.824E-03        -1.02412     415.920E-03         8.38650     328.095E-03    -163.689E-03    -164.406E-03    -163.689E-03     328.095E-03    -164.406E-03     158.970E-06    -99.8913E+06    -142.905E+06    -268.951E+06    -142.929E+06    -268.927E+06    -99.8913E+06    -1.64166E+06         46.4422
            1706     4.24397E-03     119.116E-03         2.06160     468.225E-03        -2.60894     872.998E-03        -1.42033     468.225E-03         1.83769     328.035E-03    -163.643E-03    -164.393E-03    -163.642E-03     328.034E-03    -164.393E-03     1.18819E-03    -73.6854E+06    -131.458E+06    -237.335E+06    -131.507E+06    -237.286E+06    -73.6854E+06    -2.10392E+06         46.4997
            1707     5.09272E-03     119.120E-03         1.63997     544.991E-03        -2.25811     994.587E-03        -1.61273     544.991E-03        -2.77398     327.892E-03    -163.499E-03    -164.393E-03    -163.495E-03     327.888E-03    -164.393E-03     2.65005E-03    -48.8230E+06    -119.694E+06    -207.868E+06    -119.784E+06    -207.778E+06    -48.8230E+06    -2.53941E+06         46.5678
            1708     5.94233E-03     119.125E-03         2.87547     596.826E-03        -3.53351     820.080E-03        -1.47812     596.826E-03        -5.86985     327.632E-03    -163.256E-03    -164.376E-03    -163.246E-03     327.622E-03    -164.376E-03     4.39361E-03    -26.1996E+06    -107.766E+06    -178.804E+06    -107.934E+06    -178.636E+06    -26.1996E+06    -3.20561E+06         46.6462
            1709     6.79220E-03     119.134E-03         2.36895     597.264E-03        -3.02673     500.743E-03        -1.16580     604.542E-03        -5.06117     327.263E-03    -162.932E-03    -164.331E-03    -162.909E-03     327.240E-03    -164.331E-03     6.60193E-03    -6.13248E+06    -95.6775E+06    -151.205E+06    -96.0328E+06    -150.850E+06    -6.13248E+06    -4.26656E+06         46.7386
            1710     7.64181E-03     119.146E-03     734.810E-03     528.075E-03        -1.32792     244.465E-03    -887.282E-03     577.780E-03        -1.64954     326.827E-03    -162.574E-03    -164.253E-03    -162.528E-03     326.781E-03    -164.253E-03     9.31277E-03     11.2637E+06    -83.9716E+06    -123.433E+06    -84.6199E+06    -122.785E+06     11.2637E+06    -4.85841E+06         46.8570
            1711     8.49172E-03     119.161E-03         1.54899     499.256E-03        -2.10370     228.455E-03    -825.595E-03     541.683E-03         2.12624     326.254E-03    -162.112E-03    -164.143E-03    -162.035E-03     326.177E-03    -164.143E-03     12.1911E-03     26.5708E+06    -72.7386E+06    -95.1430E+06    -74.3025E+06    -93.5791E+06     26.5708E+06    -5.05613E+06         47.0339
            1712     9.34353E-03     119.181E-03         2.24508     519.659E-03        -2.80278     433.274E-03    -990.972E-03     519.659E-03         4.79301     325.920E-03    -161.905E-03    -164.015E-03    -161.781E-03     325.796E-03    -164.015E-03     15.4393E-03     40.5327E+06    -56.8628E+06    -71.1928E+06    -64.3408E+06    -63.7148E+06     40.5327E+06    -5.17405E+06         47.3458
            1713     10.1937E-03     119.204E-03         2.13416     519.507E-03        -2.66199     685.176E-03        -1.21301     519.507E-03         4.39151     325.833E-03    -161.944E-03    -163.888E-03    -161.757E-03     325.645E-03    -163.888E-03     19.0378E-03     53.3513E+06    -26.5808E+06    -56.1579E+06    -54.7700E+06    -27.9687E+06     53.3513E+06    -5.22450E+06         47.9557
            1714     11.0438E-03     119.232E-03         1.46813     527.602E-03        -1.99010     658.147E-03        -1.18011     527.602E-03         1.95133     325.472E-03    -161.706E-03    -163.766E-03    -161.438E-03     325.203E-03    -163.766E-03     22.7903E-03     63.4870E+06     5.81048E+06    -46.3368E+06    -45.7911E+06     5.26477E+06     63.4870E+06    -5.16455E+06         49.1577
            1715     11.8954E-03     119.264E-03     951.874E-03     514.167E-03        -1.46802     133.279E-03    -649.425E-03     514.167E-03        -1.88584     324.977E-03    -161.370E-03    -163.607E-03    -160.981E-03     324.588E-03    -163.607E-03     27.3685E-03     93.8709E+06     50.6306E+06    -37.1141E+06    -36.8193E+06     68.8223E+06     75.3844E+06    -4.78950E+06         51.3598
            1716     12.7473E-03     119.305E-03         2.12165     462.164E-03        -2.59814    -503.350E-03     26.8506E-03     462.164E-03        -4.61971     324.730E-03    -161.254E-03    -163.477E-03    -160.759E-03     324.235E-03    -163.477E-03     30.9857E-03     134.742E+06     91.1759E+06    -27.8105E+06    -27.6907E+06     134.622E+06     91.1759E+06    -4.10819E+06         54.8707
            1717     13.5984E-03     119.346E-03         2.49699     388.593E-03        -2.90930    -684.330E-03     272.029E-03     388.593E-03        -5.30520     324.882E-03    -161.454E-03    -163.428E-03    -160.695E-03     324.123E-03    -163.428E-03     37.9338E-03     154.989E+06     105.746E+06    -18.7102E+06    -18.6500E+06     154.928E+06     105.746E+06    -2.99844E+06         59.4383
            1718     14.4502E-03     119.404E-03         1.63759     325.088E-03        -2.00653    -392.401E-03     23.4633E-03     325.088E-03        -3.59283     324.739E-03    -161.222E-03    -163.516E-03    -160.392E-03     323.908E-03    -163.516E-03     39.9537E-03     168.688E+06     144.434E+06    -9.47880E+06    -9.45668E+06     168.575E+06     144.525E+06    -1.40885E+06         63.8666
            1719     847.589E-06     120.501E-03         6.26774     989.611E-03        -7.20915     805.762E-03        -1.74718     989.611E-03         4.94617     328.845E-03    -164.130E-03    -164.716E-03    -164.245E-03     328.845E-03    -164.599E-03     11.5597E-06    -163.330E+06    -167.419E+06    -333.248E+06    -167.216E+06    -333.244E+06    -163.538E+06    -463.066E+03         46.3363
            1720     1.69720E-03     120.501E-03         7.42755     750.153E-03        -8.13272     160.433E-03    -865.597E-03     750.153E-03         15.5176     328.671E-03    -164.197E-03    -164.474E-03    -164.223E-03     328.671E-03    -164.448E-03     140.043E-06    -148.890E+06    -162.422E+06    -316.693E+06    -162.437E+06    -316.678E+06    -148.890E+06    -1.47838E+06         46.3565
            1721     2.54592E-03     120.500E-03         6.05130     484.382E-03        -6.47577    -225.612E-03    -198.862E-03     484.382E-03         12.5169     328.646E-03    -164.150E-03    -164.496E-03    -164.177E-03     328.646E-03    -164.470E-03     59.1003E-06    -126.476E+06    -153.818E+06    -294.380E+06    -153.856E+06    -294.342E+06    -126.476E+06    -2.21301E+06         46.3889
            1722     3.39405E-03     120.501E-03         4.31378     287.078E-03        -4.56511    -344.171E-03     92.8416E-03     287.078E-03         8.83363     328.327E-03    -163.837E-03    -164.489E-03    -163.837E-03     328.326E-03    -164.489E-03     382.746E-06    -100.389E+06    -143.445E+06    -267.054E+06    -143.500E+06    -266.999E+06    -100.389E+06    -2.54622E+06         46.4329
            1723     4.24372E-03     120.503E-03         1.93834     182.550E-03        -2.09311    -70.6766E-03    -84.0917E-03     182.550E-03         1.94886     327.855E-03    -163.399E-03    -164.456E-03    -163.398E-03     327.854E-03    -164.456E-03     1.38120E-03    -73.5345E+06    -131.724E+06    -235.165E+06    -131.803E+06    -235.086E+06    -73.5345E+06    -2.63576E+06         46.4883
            1724     5.09373E-03     120.507E-03         1.60178     180.170E-03        -1.75217     464.821E-03    -615.211E-03     180.170E-03        -2.86983     327.705E-03    -163.297E-03    -164.408E-03    -163.291E-03     327.700E-03    -164.408E-03     3.05081E-03    -48.2169E+06    -119.483E+06    -205.109E+06    -119.618E+06    -204.974E+06    -48.2169E+06    -3.18335E+06         46.5547
            1725     5.94243E-03     120.513E-03         3.04667     245.498E-03        -3.26479     848.316E-03        -1.06644     245.498E-03        -5.96710     327.684E-03    -163.308E-03    -164.376E-03    -163.295E-03     327.670E-03    -164.376E-03     4.99368E-03    -25.4434E+06    -106.801E+06    -175.825E+06    -107.043E+06    -175.583E+06    -25.4434E+06    -3.92259E+06         46.6323
            1726     6.79144E-03     120.521E-03         2.63060     320.081E-03        -2.92963     856.286E-03        -1.15531     320.081E-03        -5.06791     327.309E-03    -162.973E-03    -164.335E-03    -162.948E-03     327.283E-03    -164.335E-03     7.00709E-03    -5.62850E+06    -94.9543E+06    -148.440E+06    -95.3760E+06    -148.018E+06    -5.62850E+06    -4.58309E+06         46.7241
            1727     7.64191E-03     120.532E-03     919.650E-03     342.112E-03        -1.24923     545.294E-03    -894.306E-03     361.541E-03        -1.57643     326.714E-03    -162.459E-03    -164.254E-03    -162.412E-03     326.666E-03    -164.254E-03     9.53423E-03     11.6624E+06    -83.7697E+06    -121.660E+06    -84.5444E+06    -120.885E+06     11.6624E+06    -5.13585E+06         46.8418
            1728     8.49241E-03     120.547E-03         1.46503     342.027E-03        -1.80300     203.044E-03    -560.444E-03     361.455E-03         2.03767     326.295E-03    -162.155E-03    -164.140E-03    -162.077E-03     326.217E-03    -164.140E-03     12.2798E-03     27.2626E+06    -71.4465E+06    -93.6698E+06    -73.6760E+06    -91.4404E+06     27.2626E+06    -5.82707E+06         47.0168
            1729     9.34204E-03     120.565E-03         2.12637     342.111E-03        -2.45154     147.406E-03    -472.576E-03     342.111E-03         4.51462     325.869E-03    -161.857E-03    -164.012E-03    -161.731E-03     325.743E-03    -164.012E-03     15.5319E-03     41.0371E+06    -55.0449E+06    -70.3950E+06    -63.0284E+06    -62.4114E+06     41.0371E+06    -6.13731E+06         47.3242
            1730     10.1934E-03     120.590E-03         2.01197     323.221E-03        -2.30326     161.886E-03    -453.177E-03     323.221E-03         4.15745     325.437E-03    -161.570E-03    -163.867E-03    -161.379E-03     325.246E-03    -163.867E-03     19.1661E-03     53.9824E+06    -24.8947E+06    -54.7418E+06    -52.8481E+06    -26.7884E+06     53.9824E+06    -6.10107E+06         47.9263
            1731     11.0451E-03     120.616E-03         1.38010     298.069E-03        -1.63417    -53.1016E-03    -200.975E-03     298.069E-03         1.82108     325.356E-03    -161.628E-03    -163.728E-03    -161.358E-03     325.086E-03    -163.728E-03     22.8630E-03     64.5681E+06     7.56624E+06    -44.2727E+06    -43.4568E+06     6.75030E+06     64.5681E+06    -6.30581E+06         49.1212
            1732     11.8959E-03     120.649E-03         1.06615     255.366E-03        -1.27690    -364.318E-03     153.568E-03     255.366E-03        -1.89960     325.112E-03    -161.537E-03    -163.575E-03    -161.149E-03     324.724E-03    -163.575E-03     27.3495E-03     94.8959E+06     51.9546E+06    -34.9503E+06    -34.4458E+06     69.8713E+06     76.4747E+06    -6.41111E+06         51.3327
            1733     12.7471E-03     120.688E-03         2.31220     200.758E-03        -2.48143    -521.136E-03     351.906E-03     200.758E-03        -4.69109     324.672E-03    -161.218E-03    -163.453E-03    -160.718E-03     324.171E-03    -163.453E-03     31.1297E-03     134.227E+06     91.8682E+06    -26.1770E+06    -25.9677E+06     134.018E+06     91.8682E+06    -5.63914E+06         54.9037
            1734     13.5991E-03     120.731E-03         2.68382     148.980E-03        -2.81093    -464.576E-03     337.466E-03     148.980E-03        -5.40584     324.776E-03    -161.382E-03    -163.395E-03    -160.616E-03     324.010E-03    -163.395E-03     38.1417E-03     152.703E+06     104.115E+06    -17.9885E+06    -17.8898E+06     152.604E+06     104.115E+06    -3.90830E+06         59.6123
            1735     14.4510E-03     120.787E-03         1.80614     110.886E-03        -1.88278    -265.837E-03     189.195E-03     110.886E-03        -3.64495     324.777E-03    -161.298E-03    -163.479E-03    -160.469E-03     323.948E-03    -163.479E-03     39.9327E-03     166.330E+06     141.371E+06    -9.68896E+06    -9.65851E+06     166.292E+06     141.379E+06    -1.86952E+06         64.2196
            1736     849.814E-06     121.889E-03         6.53427     632.496E-03        -6.95661     760.691E-03        -1.18303     632.496E-03         4.89211     328.152E-03    -163.644E-03    -164.508E-03    -164.126E-03     328.152E-03    -164.026E-03     164.773E-06    -164.796E+06    -168.571E+06    -331.420E+06    -168.533E+06    -331.413E+06    -164.841E+06    -721.299E+03         46.2998
            1737     1.69778E-03     121.888E-03         7.66605     651.245E-03        -8.14509     469.838E-03    -948.870E-03     651.245E-03         15.7346     328.339E-03    -164.119E-03    -164.220E-03    -164.174E-03     328.338E-03    -164.164E-03     243.944E-06    -148.757E+06    -162.544E+06    -313.142E+06    -162.561E+06    -313.125E+06    -148.757E+06    -1.52643E+06         46.3222
            1738     2.54604E-03     121.889E-03         6.43058     523.770E-03        -6.78006     31.2870E-03    -380.775E-03     523.770E-03         13.1711     328.435E-03    -164.134E-03    -164.302E-03    -164.160E-03     328.435E-03    -164.275E-03     778.793E-06    -126.437E+06    -154.555E+06    -290.552E+06    -154.602E+06    -290.505E+06    -126.437E+06    -2.43279E+06         46.3571
            1739     3.39478E-03     121.889E-03         4.73484     350.685E-03        -4.92578    -377.621E-03     186.681E-03     350.685E-03         9.60993     328.243E-03    -163.892E-03    -164.350E-03    -163.891E-03     328.241E-03    -164.350E-03     1.43357E-03    -100.351E+06    -144.008E+06    -263.849E+06    -144.121E+06    -263.736E+06    -100.351E+06    -3.48036E+06         46.4037
            1740     4.24376E-03     121.890E-03         1.94663     186.089E-03        -1.99460    -551.107E-03     503.139E-03     186.089E-03         2.74100     327.951E-03    -163.584E-03    -164.367E-03    -163.580E-03     327.947E-03    -164.367E-03     2.31084E-03    -74.0491E+06    -132.076E+06    -233.291E+06    -132.238E+06    -233.128E+06    -74.0491E+06    -3.95786E+06         46.4611
            1741     5.09273E-03     121.894E-03         1.35213     74.2126E-03        -1.29741    -386.068E-03     440.790E-03     74.2126E-03        -2.18399     327.565E-03    -163.221E-03    -164.344E-03    -163.214E-03     327.558E-03    -164.344E-03     3.44599E-03    -48.5875E+06    -119.484E+06    -202.465E+06    -119.706E+06    -202.243E+06    -48.5875E+06    -4.14079E+06         46.5292
            1742     5.94313E-03     121.900E-03         2.82323     34.3006E-03        -2.74047     14.8797E-03     67.8707E-03     34.3006E-03        -5.35534     327.172E-03    -162.884E-03    -164.288E-03    -162.868E-03     327.156E-03    -164.288E-03     5.42596E-03    -25.5640E+06    -107.005E+06    -173.221E+06    -107.338E+06    -172.888E+06    -25.5640E+06    -4.54704E+06         46.6089
            1743     6.79291E-03     121.908E-03         2.53168     48.2752E-03        -2.48317     310.617E-03    -262.109E-03     48.2752E-03        -4.71258     327.050E-03    -162.828E-03    -164.222E-03    -162.796E-03     327.018E-03    -164.222E-03     7.79700E-03    -5.38216E+06    -94.7490E+06    -145.848E+06    -95.3468E+06    -145.250E+06    -5.38216E+06    -5.25160E+06         46.7038
            1744     7.64209E-03     121.918E-03     997.499E-03     80.0582E-03        -1.00798     396.239E-03    -406.722E-03     80.0582E-03        -1.60647     326.784E-03    -162.629E-03    -164.154E-03    -162.575E-03     326.729E-03    -164.154E-03     10.2026E-03     12.4817E+06    -82.4399E+06    -119.218E+06    -83.6359E+06    -118.022E+06     12.4817E+06    -6.17459E+06         46.8247
            1745     8.49249E-03     121.933E-03         1.39716     102.998E-03        -1.44705     275.596E-03    -325.482E-03     102.998E-03         1.70648     326.313E-03    -162.250E-03    -164.063E-03    -162.162E-03     326.225E-03    -164.063E-03     12.9915E-03     28.1764E+06    -69.4374E+06    -91.8082E+06    -72.5800E+06    -88.6655E+06     28.1764E+06    -6.84885E+06         47.0012
            1746     9.34346E-03     121.951E-03         2.00500     98.3889E-03        -2.05433    -101.402E-03     52.0754E-03     98.3889E-03         3.97717     325.859E-03    -161.912E-03    -163.947E-03    -161.778E-03     325.725E-03    -163.947E-03     16.0682E-03     41.6519E+06    -52.5980E+06    -69.6939E+06    -61.9943E+06    -60.2976E+06     41.6519E+06    -7.55751E+06         47.3066
            1747     10.1943E-03     121.973E-03         2.00156     58.5220E-03        -1.99823    -552.844E-03     556.180E-03     58.5220E-03         3.74093     325.396E-03    -161.587E-03    -163.808E-03    -161.390E-03     325.198E-03    -163.808E-03     19.5280E-03     54.3065E+06    -22.5527E+06    -54.6546E+06    -51.7525E+06    -25.4547E+06     54.3065E+06    -7.70374E+06         47.9023
            1748     11.0452E-03     122.001E-03         1.51640    -1.83916E-03        -1.44045    -734.868E-03     810.825E-03    -1.83916E-03         1.62240     325.274E-03    -161.599E-03    -163.674E-03    -161.321E-03     324.996E-03    -163.674E-03     23.1977E-03     65.4861E+06     9.77060E+06    -43.3474E+06    -42.2154E+06     8.63861E+06     65.4861E+06    -7.55729E+06         49.0905
            1749     11.8962E-03     122.034E-03         1.31487    -52.9200E-03        -1.18647    -480.800E-03     609.208E-03    -52.9200E-03        -1.95377     325.133E-03    -161.606E-03    -163.527E-03    -161.215E-03     324.742E-03    -163.527E-03     27.4817E-03     95.4692E+06     53.0964E+06    -34.4155E+06    -33.7602E+06     70.7927E+06     77.1176E+06    -7.28932E+06         51.3123
            1750     12.7479E-03     122.072E-03         2.38361    -76.4096E-03        -2.23495    -91.2383E-03     239.892E-03    -76.4096E-03        -4.58073     324.752E-03    -161.337E-03    -163.415E-03    -160.837E-03     324.252E-03    -163.415E-03     31.1363E-03     133.097E+06     91.7709E+06    -26.1060E+06    -25.8676E+06     132.859E+06     91.7709E+06    -6.02217E+06         54.9468
            1751     13.5996E-03     122.114E-03         2.72807    -79.7736E-03        -2.56735     72.9171E-03     87.7997E-03    -79.7736E-03        -5.29069     324.789E-03    -161.426E-03    -163.363E-03    -160.666E-03     324.029E-03    -163.363E-03     37.9874E-03     150.406E+06     103.014E+06    -18.3000E+06    -18.1789E+06     150.285E+06     103.014E+06    -4.33749E+06         59.8035
            1752     14.4512E-03     122.171E-03         1.91993    -79.0096E-03        -1.73181     35.0201E-03     153.100E-03    -79.0096E-03        -3.64481     324.832E-03    -161.382E-03    -163.449E-03    -160.559E-03     324.008E-03    -163.449E-03     39.8105E-03     163.711E+06     138.874E+06    -9.65681E+06    -9.61105E+06     163.546E+06     138.993E+06    -2.43252E+06         64.6014
            1753     848.224E-06     123.275E-03         7.18711    -539.073E-03        -6.33851    -317.485E-03         1.16608    -539.073E-03         3.59333     327.418E-03    -163.398E-03    -164.020E-03    -164.019E-03     327.417E-03    -163.398E-03     230.394E-06    -165.650E+06    -169.592E+06    -328.192E+06    -169.555E+06    -328.184E+06    -165.694E+06    -1.03659E+06         46.2246
            1754     1.69786E-03     123.276E-03         7.46642    -263.259E-03        -6.85184     395.959E-03     218.624E-03    -263.259E-03         14.2106     327.448E-03    -163.640E-03    -163.808E-03    -163.676E-03     327.447E-03    -163.771E-03     982.037E-06    -149.895E+06    -164.022E+06    -310.048E+06    -164.043E+06    -310.028E+06    -149.895E+06    -1.64657E+06         46.2507
            1755     2.54725E-03     123.276E-03         6.10605     9.35556E-03        -5.83738     657.311E-03    -388.646E-03     9.35556E-03         11.8727     327.388E-03    -163.558E-03    -163.831E-03    -163.556E-03     327.387E-03    -163.831E-03     1.73618E-03    -126.933E+06    -155.335E+06    -286.299E+06    -155.408E+06    -286.226E+06    -126.933E+06    -2.86012E+06         46.2915
            1756     3.39673E-03     123.276E-03         4.48650     153.081E-03        -4.39082     442.645E-03    -346.968E-03     153.081E-03         8.77432     327.655E-03    -163.722E-03    -163.933E-03    -163.735E-03     327.651E-03    -163.916E-03     2.52255E-03    -100.530E+06    -144.415E+06    -259.792E+06    -144.569E+06    -259.638E+06    -100.530E+06    -4.07621E+06         46.3457
            1757     4.24534E-03     123.278E-03         1.76804     165.234E-03        -1.71564    -71.2394E-03     123.639E-03     165.234E-03         2.28213     327.750E-03    -163.713E-03    -164.036E-03    -163.723E-03     327.743E-03    -164.020E-03     3.60672E-03    -73.9630E+06    -132.399E+06    -230.295E+06    -132.662E+06    -230.032E+06    -73.9630E+06    -4.85175E+06         46.4113
            1758     5.09442E-03     123.281E-03         1.53545     80.6310E-03        -1.43063    -648.130E-03     752.954E-03     80.6310E-03        -2.46170     327.348E-03    -163.278E-03    -164.070E-03    -163.264E-03     327.335E-03    -164.070E-03     4.97702E-03    -48.8996E+06    -119.596E+06    -199.539E+06    -120.029E+06    -199.105E+06    -48.8996E+06    -5.64613E+06         46.4872
            1759     5.94355E-03     123.285E-03         3.17041    -48.8397E-03        -2.95284        -1.00559         1.22317    -48.8397E-03        -5.65173     326.823E-03    -162.774E-03    -164.050E-03    -162.750E-03     326.800E-03    -164.050E-03     6.64895E-03    -25.7790E+06    -106.745E+06    -170.688E+06    -107.376E+06    -170.057E+06    -25.7790E+06    -6.09221E+06         46.5743
            1760     6.79429E-03     123.294E-03         2.94696    -163.896E-03        -2.63706    -894.092E-03         1.20399    -163.896E-03        -5.05042     326.558E-03    -162.567E-03    -163.992E-03    -162.527E-03     326.519E-03    -163.992E-03     8.68836E-03    -4.77536E+06    -93.5597E+06    -142.792E+06    -94.5504E+06    -141.801E+06    -4.77536E+06    -6.61650E+06         46.6767
            1761     7.64457E-03     123.305E-03         1.51085    -227.075E-03        -1.16818    -503.552E-03     846.223E-03    -227.075E-03        -2.02684     326.552E-03    -162.619E-03    -163.933E-03    -162.556E-03     326.489E-03    -163.933E-03     11.0177E-03     13.4003E+06    -80.4170E+06    -116.476E+06    -82.1979E+06    -114.695E+06     13.4003E+06    -7.54962E+06         46.8049
            1762     8.49410E-03     123.318E-03         1.70512    -248.039E-03        -1.37417    -286.894E-03     617.843E-03    -248.039E-03         1.41259     326.316E-03    -162.445E-03    -163.871E-03    -162.345E-03     326.216E-03    -163.871E-03     13.8779E-03     28.9665E+06    -66.6068E+06    -90.3457E+06    -71.0422E+06    -85.9103E+06     28.9665E+06    -8.22485E+06         46.9868
            1763     9.34450E-03     123.336E-03         2.26093    -262.433E-03        -1.93165    -420.863E-03     750.135E-03    -262.433E-03         3.94688     326.041E-03    -162.247E-03    -163.794E-03    -162.104E-03     325.898E-03    -163.794E-03     16.6588E-03     42.4596E+06    -49.2767E+06    -68.8248E+06    -60.6364E+06    -57.4651E+06     42.4596E+06    -8.87105E+06         47.2937
            1764     10.1951E-03     123.358E-03         2.29136    -288.672E-03        -1.93107    -594.705E-03     954.994E-03    -288.672E-03         3.89341     325.748E-03    -162.046E-03    -163.702E-03    -161.845E-03     325.547E-03    -163.702E-03     19.7082E-03     54.7859E+06    -20.4398E+06    -54.5132E+06    -50.9816E+06    -23.9713E+06     54.7859E+06    -9.08963E+06         47.8848
            1765     11.0461E-03     123.386E-03         1.54766    -196.008E-03        -1.26534    -453.721E-03     853.258E-03    -313.226E-03         1.74559     325.279E-03    -161.682E-03    -163.597E-03    -161.396E-03     324.993E-03    -163.597E-03     23.4900E-03     65.6471E+06     11.0954E+06    -43.4662E+06    -42.0209E+06     9.65015E+06     65.6471E+06    -8.57736E+06         49.0666
            1766     11.8976E-03     123.418E-03         1.29391    -201.585E-03        -1.00051    -156.195E-03     566.811E-03    -318.804E-03        -1.83509     325.048E-03    -161.590E-03    -163.458E-03    -161.189E-03     324.647E-03    -163.458E-03     27.8268E-03     95.0497E+06     53.9086E+06    -34.3058E+06    -33.5749E+06     70.9657E+06     77.2618E+06    -7.74504E+06         51.2988
            1767     12.7484E-03     123.457E-03         2.42959    -306.139E-03        -2.02956     71.3367E-03     328.689E-03    -306.139E-03        -4.43904     324.985E-03    -161.626E-03    -163.359E-03    -161.122E-03     324.481E-03    -163.359E-03     31.2782E-03     131.854E+06     91.5755E+06    -25.5079E+06    -25.2310E+06     131.577E+06     91.5755E+06    -6.44996E+06         54.9985
            1768     13.5995E-03     123.498E-03         2.72913    -285.004E-03        -2.33514     188.122E-03     205.869E-03    -285.004E-03        -5.05877     325.016E-03    -161.692E-03    -163.324E-03    -160.927E-03     324.251E-03    -163.324E-03     38.1101E-03     148.845E+06     101.872E+06    -17.2173E+06    -17.0706E+06     148.699E+06     101.872E+06    -4.76642E+06         60.0113
            1769     14.4517E-03     123.555E-03         1.90024    -265.930E-03        -1.49612     112.630E-03     291.488E-03    -265.930E-03        -3.37224     324.917E-03    -161.499E-03    -163.418E-03    -160.668E-03     324.087E-03    -163.418E-03     39.9825E-03     160.662E+06     135.985E+06    -9.17586E+06    -9.12035E+06     160.487E+06     136.104E+06    -2.76214E+06         65.0198
            1770     850.524E-06     124.661E-03         8.16773        -1.46670        -6.31747        -1.21149         3.06175        -1.46670         3.06176     325.709E-03    -162.693E-03    -163.016E-03    -162.852E-03     325.708E-03    -162.856E-03     1.38847E-03    -167.341E+06    -171.394E+06    -324.614E+06    -171.403E+06    -324.605E+06    -167.341E+06    -814.543E+03         46.1031
            1771     1.69944E-03     124.661E-03         7.73423        -1.22528        -6.14750    -771.182E-03         2.35791        -1.22528         13.3726     325.928E-03    -162.830E-03    -163.097E-03    -162.979E-03     325.925E-03    -162.946E-03     2.11716E-03    -151.625E+06    -165.482E+06    -306.279E+06    -165.531E+06    -306.230E+06    -151.625E+06    -2.32032E+06         46.1351
            1772     2.54936E-03     124.661E-03         6.01783    -936.182E-03        -4.71700     118.931E-03         1.18189    -936.182E-03         10.4163     326.151E-03    -162.946E-03    -163.205E-03    -163.065E-03     326.147E-03    -163.082E-03     2.79899E-03    -127.927E+06    -156.192E+06    -281.511E+06    -156.306E+06    -281.397E+06    -127.927E+06    -3.61109E+06         46.1852
            1773     3.39843E-03     124.663E-03         4.18467    -607.073E-03        -3.28237     626.911E-03     275.392E-03    -607.073E-03         7.33584     326.412E-03    -163.165E-03    -163.247E-03    -163.174E-03     326.403E-03    -163.229E-03     4.05458E-03    -100.996E+06    -145.238E+06    -255.323E+06    -145.486E+06    -255.075E+06    -100.996E+06    -4.90815E+06         46.2515
            1774     4.24780E-03     124.665E-03         1.74841    -370.591E-03        -1.12988     402.366E-03     221.955E-03    -376.385E-03     947.284E-03     326.569E-03    -163.189E-03    -163.381E-03    -163.190E-03     326.554E-03    -163.364E-03     5.27756E-03    -73.8192E+06    -132.608E+06    -226.096E+06    -133.062E+06    -225.643E+06    -73.8192E+06     -6.2422E+06         46.3317
            1775     5.09737E-03     124.667E-03         2.10270    -292.261E-03        -1.59581    -272.029E-03     784.718E-03    -298.055E-03        -3.50474     326.676E-03    -163.159E-03    -163.517E-03    -163.180E-03     326.651E-03    -163.471E-03     6.80278E-03    -48.4521E+06    -119.196E+06    -195.379E+06    -119.975E+06    -194.600E+06    -48.4521E+06    -7.43694E+06         46.4234
            1776     5.94729E-03     124.672E-03         3.75090    -340.337E-03        -3.22498    -934.234E-03         1.46015    -340.337E-03        -6.51358     326.752E-03    -163.111E-03    -163.640E-03    -163.158E-03     326.715E-03    -163.557E-03     8.42703E-03    -25.5226E+06    -105.570E+06    -167.532E+06    -106.832E+06    -166.269E+06    -25.5226E+06    -8.51924E+06         46.5261
            1777     6.79618E-03     124.679E-03         3.63965    -436.660E-03        -3.04439        -1.26398         1.85925    -436.660E-03        -5.77449     326.450E-03    -162.811E-03    -163.639E-03    -162.796E-03     326.397E-03    -163.602E-03     10.0706E-03    -5.17365E+06    -92.5964E+06    -140.369E+06    -94.4061E+06    -138.560E+06    -5.17365E+06    -8.85867E+06         46.6422
            1778     7.64655E-03     124.690E-03         2.38486    -531.317E-03        -1.72994        -1.25977         1.91469    -531.317E-03        -2.38418     326.168E-03    -162.569E-03    -163.599E-03    -162.495E-03     326.094E-03    -163.599E-03     12.0088E-03     12.9320E+06    -79.3591E+06    -114.533E+06    -82.2726E+06    -111.620E+06     12.9320E+06    -9.27879E+06         46.7819
            1779     8.49709E-03     124.704E-03         2.40895    -597.481E-03        -1.72208        -1.04800         1.73486    -597.481E-03         1.58536     326.252E-03    -162.673E-03    -163.579E-03    -162.565E-03     326.144E-03    -163.579E-03     14.4684E-03     29.1419E+06    -63.9838E+06    -89.3022E+06    -70.3704E+06    -82.9156E+06     29.1419E+06    -9.98194E+06         46.9728
            1780     9.34694E-03     124.721E-03         2.79632    -624.545E-03        -2.09906    -635.136E-03         1.33240    -624.545E-03         4.44021     326.255E-03    -162.695E-03    -163.560E-03    -162.537E-03     326.097E-03    -163.560E-03     17.4977E-03     43.0001E+06    -46.2635E+06    -68.2325E+06    -59.6762E+06    -54.8198E+06     43.0001E+06    -10.0887E+06         47.2840
            1781     10.1968E-03     124.744E-03         2.57949    -611.516E-03        -1.89157    -176.108E-03     864.025E-03    -611.516E-03         4.32962     326.020E-03    -162.497E-03    -163.523E-03    -162.279E-03     325.802E-03    -163.523E-03     20.5464E-03     55.2176E+06    -18.1975E+06    -53.9224E+06    -49.9943E+06    -22.1256E+06     55.2176E+06    -10.0218E+06         47.8732
            1782     11.0471E-03     124.769E-03         1.49334    -274.526E-03        -1.13217     53.8799E-03     606.789E-03    -574.024E-03         1.88217     325.656E-03    -162.190E-03    -163.466E-03    -161.894E-03     325.360E-03    -163.466E-03     23.9564E-03     65.7599E+06     12.4801E+06    -42.5493E+06    -40.7291E+06     10.6599E+06     65.7599E+06    -9.67802E+06         49.0501
            1783     11.8981E-03     124.802E-03         1.32161    -234.275E-03    -991.893E-03     57.6968E-03     571.524E-03    -533.774E-03        -1.85712     325.231E-03    -161.868E-03    -163.363E-03    -161.454E-03     324.817E-03    -163.363E-03     28.2728E-03     94.2224E+06     54.1076E+06    -32.8609E+06    -31.9282E+06     70.3683E+06     77.0290E+06    -8.56547E+06         51.2925
            1784     12.7497E-03     124.841E-03         2.58796    -501.779E-03        -1.98806    -13.9406E-03     613.840E-03    -501.779E-03        -4.52685     325.046E-03    -161.762E-03    -163.283E-03    -161.249E-03     324.532E-03    -163.283E-03     31.5850E-03     130.755E+06     91.1594E+06    -24.1166E+06    -23.7807E+06     130.419E+06     91.1594E+06     -7.1063E+06         55.0584
            1785     13.6009E-03     124.883E-03         2.90629    -479.105E-03        -2.32729    -72.9691E-03     651.965E-03    -479.105E-03        -5.16001     325.274E-03    -162.012E-03    -163.262E-03    -161.243E-03     324.505E-03    -163.262E-03     38.2549E-03     146.600E+06     99.9622E+06    -16.0893E+06    -15.9107E+06     146.422E+06     99.9622E+06    -5.20949E+06         60.2343
            1786     14.4519E-03     124.939E-03         2.06355    -462.810E-03        -1.47592    -90.3631E-03     677.990E-03    -462.810E-03        -3.42006     325.235E-03    -161.860E-03    -163.375E-03    -161.022E-03     324.398E-03    -163.375E-03     40.1812E-03     157.075E+06     132.488E+06    -8.02903E+06    -7.97058E+06     156.740E+06     132.765E+06    -2.33698E+06         65.4641
            1787     850.344E-06     126.042E-03         8.73789        -1.56288        -6.77420        -1.39916         3.36284        -1.56288         2.80695     323.482E-03    -161.511E-03    -161.970E-03    -161.724E-03     323.480E-03    -161.756E-03     1.33232E-03    -168.927E+06    -172.719E+06    -320.686E+06    -172.745E+06    -320.660E+06    -168.927E+06    -1.58938E+06         45.9308
            1788     1.70195E-03     126.044E-03         8.14679        -1.48859        -6.32312        -1.51995         3.34362        -1.48859         13.5439     323.739E-03    -161.756E-03    -161.983E-03    -161.896E-03     323.734E-03    -161.838E-03     2.78203E-03    -152.716E+06    -166.482E+06    -300.959E+06    -166.565E+06    -300.875E+06    -152.716E+06    -3.10687E+06         45.9708
            1789     2.55141E-03     126.045E-03         6.59609        -1.46960        -4.78910        -1.30839         3.11537        -1.46960         10.3799     324.219E-03    -162.012E-03    -162.207E-03    -162.197E-03     324.209E-03    -162.012E-03     4.28597E-03    -129.441E+06    -157.635E+06    -276.356E+06    -157.885E+06    -276.105E+06    -129.441E+06    -5.04583E+06         46.0336
            1790     3.40208E-03     126.046E-03         5.04444        -1.37196        -3.36431    -801.432E-03         2.48156        -1.37196         7.34841     324.457E-03    -162.160E-03    -162.297E-03    -162.235E-03     324.439E-03    -162.204E-03     5.92224E-03    -102.087E+06    -145.985E+06    -249.680E+06    -146.443E+06    -249.222E+06    -102.087E+06    -6.60306E+06         46.1171
            1791     4.25253E-03     126.049E-03         2.59454    -984.701E-03        -1.36180    -320.345E-03         1.78114        -1.21275     908.578E-03     324.945E-03    -162.322E-03    -162.623E-03    -162.534E-03     324.917E-03    -162.383E-03     7.28931E-03    -74.7093E+06    -133.146E+06    -220.889E+06    -133.957E+06    -220.079E+06    -74.7093E+06    -8.06745E+06         46.2181
            1792     5.10236E-03     126.052E-03         2.75014    -818.164E-03        -1.72697    -91.0224E-03         1.34224        -1.04621        -3.67190     325.684E-03    -162.572E-03    -163.112E-03    -163.055E-03     325.644E-03    -162.589E-03     8.68831E-03    -48.7706E+06    -119.536E+06    -190.689E+06    -120.771E+06    -189.453E+06    -48.7706E+06    -9.08446E+06         46.3331
            1793     5.95115E-03     126.058E-03         4.01063    -916.593E-03        -2.91720    -174.089E-03         1.26752    -916.593E-03        -6.76445     326.109E-03    -162.800E-03    -163.309E-03    -163.254E-03     326.055E-03    -162.800E-03     10.2658E-03    -25.9251E+06    -106.137E+06    -163.440E+06    -108.103E+06    -161.474E+06    -25.9251E+06    -10.1264E+06         46.4591
            1794     6.80083E-03     126.065E-03         3.70084    -849.615E-03        -2.70465    -576.013E-03         1.57220    -849.615E-03        -5.87254     326.266E-03    -162.839E-03    -163.427E-03    -163.219E-03     326.190E-03    -162.971E-03     12.1013E-03    -5.88413E+06    -92.0207E+06    -137.873E+06    -95.3367E+06    -134.557E+06    -5.88413E+06    -11.5130E+06         46.5965
            1795     7.65005E-03     126.075E-03         2.51615    -820.099E-03        -1.58377        -1.01666         1.97396    -845.021E-03        -2.29062     326.345E-03    -162.750E-03    -163.595E-03    -163.147E-03     326.243E-03    -163.096E-03     14.0530E-03     11.9230E+06    -77.6509E+06    -113.349E+06    -82.6765E+06    -108.323E+06     11.9230E+06    -12.0881E+06         46.7538
            1796     8.49973E-03     126.089E-03         2.60872    -843.222E-03        -1.68177        -1.08565         2.03752    -868.144E-03         1.77261     326.325E-03    -162.851E-03    -163.475E-03    -163.012E-03     326.195E-03    -163.183E-03     15.8950E-03     28.2382E+06    -61.7824E+06    -89.3536E+06    -70.7991E+06    -80.3370E+06     28.2382E+06    -12.0967E+06         46.9575
            1797     9.34948E-03     126.107E-03         3.00652    -875.107E-03        -2.05900    -731.121E-03         1.67864    -875.107E-03         4.40088     326.181E-03    -162.904E-03    -163.278E-03    -162.774E-03     326.007E-03    -163.233E-03     18.3725E-03     42.4617E+06    -43.4081E+06    -69.1584E+06    -59.7018E+06    -52.8647E+06     42.4617E+06    -11.9449E+06         47.2760
            1798     10.1999E-03     126.128E-03         2.70144    -847.092E-03        -1.77578    -257.858E-03         1.18352    -847.092E-03         4.17817     326.136E-03    -162.868E-03    -163.268E-03    -162.649E-03     325.896E-03    -163.247E-03     21.5782E-03     54.6638E+06    -15.4389E+06    -54.4166E+06    -49.6967E+06    -20.1587E+06     54.6638E+06    -11.5462E+06         47.8664
            1799     11.0498E-03     126.156E-03         1.63087    -385.876E-03        -1.15025     13.6712E-03     876.467E-03    -795.390E-03         1.79615     326.174E-03    -162.869E-03    -163.306E-03    -162.606E-03     325.857E-03    -163.251E-03     24.8719E-03     65.0858E+06     14.3294E+06    -42.5609E+06    -40.2570E+06     12.0256E+06     65.0858E+06    -11.0892E+06         49.0413
            1800     11.8997E-03     126.186E-03         1.53357    -332.825E-03        -1.09578     10.5739E-03     836.727E-03    -742.339E-03        -1.86674     325.815E-03    -162.567E-03    -163.248E-03    -162.166E-03     325.380E-03    -163.214E-03     29.0176E-03     92.3871E+06     53.8601E+06    -32.6584E+06    -31.4422E+06     69.2344E+06     75.7966E+06    -9.60692E+06         51.2950
            1801     12.7505E-03     126.226E-03         2.73375    -703.041E-03        -1.92847    -157.916E-03     963.196E-03    -703.041E-03        -4.51408     325.376E-03    -162.194E-03    -163.182E-03    -161.666E-03     324.849E-03    -163.182E-03     32.0531E-03     129.264E+06     89.8720E+06    -23.7832E+06    -23.4222E+06     128.903E+06     89.8720E+06    -7.25801E+06         55.1266
            1802     13.6015E-03     126.267E-03         3.07353    -680.005E-03        -2.29113    -311.740E-03         1.09413    -680.005E-03        -5.16898     325.504E-03    -162.318E-03    -163.186E-03    -161.549E-03     324.736E-03    -163.186E-03     38.2757E-03     143.361E+06     97.1354E+06    -16.5496E+06    -16.3849E+06     143.196E+06     97.1354E+06    -4.93949E+06         60.4671
            1803     14.4529E-03     126.324E-03         2.23642    -657.311E-03        -1.47966    -267.740E-03         1.03127    -664.081E-03        -3.45380     325.603E-03    -162.272E-03    -163.331E-03    -161.432E-03     324.764E-03    -163.331E-03     40.2690E-03     153.629E+06     129.043E+06    -9.29546E+06    -9.24278E+06     152.414E+06     130.206E+06    -2.12443E+06         65.9247
            1804     851.834E-06     127.422E-03         8.85717        -1.48136        -7.09278        -1.57275         3.33715        -1.48136         2.49497     320.659E-03    -159.946E-03    -160.713E-03    -160.210E-03     320.655E-03    -160.445E-03     2.13366E-03    -168.444E+06    -172.424E+06    -314.546E+06    -171.928E+06    -314.487E+06    -168.998E+06    -2.32678E+06         45.7056
            1805     1.70314E-03     127.423E-03         8.21697        -1.54048        -6.32053        -1.59352         3.48997        -1.54048         13.4882     320.797E-03    -160.317E-03    -160.480E-03    -160.386E-03     320.786E-03    -160.399E-03     4.45342E-03    -153.807E+06    -166.777E+06    -294.285E+06    -166.941E+06    -294.120E+06    -153.807E+06      -4.258E+06         45.7559
            1806     2.55591E-03     127.425E-03         6.94646        -1.61657        -5.04287        -1.99152         3.89511        -1.61657         10.4409     321.363E-03    -160.560E-03    -160.803E-03    -160.782E-03     321.342E-03    -160.560E-03     6.22867E-03    -130.410E+06    -157.903E+06    -269.738E+06    -158.269E+06    -269.373E+06    -130.410E+06    -6.15881E+06         45.8354
            1807     3.40668E-03     127.427E-03         6.03580        -1.72665        -4.05073        -2.10444         4.08951        -1.72665         7.49469     322.237E-03    -160.825E-03    -161.413E-03    -161.381E-03     322.206E-03    -160.825E-03     7.69997E-03    -102.775E+06    -146.524E+06    -243.107E+06    -147.253E+06    -242.378E+06    -102.775E+06    -8.05923E+06         45.9413
            1808     4.25761E-03     127.430E-03         3.82668        -1.49026        -2.11230        -1.56356         3.54304        -1.75536         1.11631     323.148E-03    -161.138E-03    -162.010E-03    -161.963E-03     323.102E-03    -161.138E-03     9.37545E-03    -75.1838E+06    -133.481E+06    -215.043E+06    -134.736E+06    -213.788E+06    -75.1838E+06    -9.76081E+06         46.0689
            1809     5.10742E-03     127.436E-03         3.49005        -1.39102        -1.91652    -678.232E-03         2.51686        -1.65612        -3.31149     324.106E-03    -161.465E-03    -162.640E-03    -162.576E-03     324.041E-03    -161.465E-03     11.0759E-03    -49.6611E+06    -120.130E+06    -186.203E+06    -122.104E+06    -184.230E+06    -49.6611E+06    -10.9433E+06         46.2129
            1810     5.95750E-03     127.442E-03         4.09558        -1.47907        -2.46301    -108.859E-03         1.74142        -1.47907        -6.20407     325.008E-03    -161.794E-03    -163.215E-03    -163.132E-03     324.925E-03    -161.794E-03     12.6190E-03    -26.3196E+06    -105.790E+06    -158.873E+06    -108.931E+06    -155.732E+06    -26.3196E+06    -12.1300E+06         46.3685
            1811     6.80690E-03     127.450E-03         3.46695        -1.18287        -2.15381    -62.9281E-03         1.49968        -1.30649        -5.21873     325.836E-03    -162.106E-03    -163.730E-03    -163.627E-03     325.734E-03    -162.106E-03     14.1189E-03    -6.22148E+06    -90.7183E+06    -134.129E+06    -95.8544E+06    -128.992E+06    -6.22148E+06    -13.6582E+06         46.5340
            1812     7.65596E-03     127.461E-03         2.16422    -748.827E-03        -1.30754    -313.886E-03         1.60550        -1.18376        -1.99179     326.334E-03    -162.387E-03    -163.947E-03    -163.817E-03     326.204E-03    -162.387E-03     15.9162E-03     10.7676E+06    -76.2387E+06    -112.278E+06    -84.0553E+06    -104.461E+06     10.7676E+06    -14.4860E+06         46.7156
            1813     8.50431E-03     127.475E-03         2.25103    -799.321E-03        -1.36424    -551.231E-03         1.74934        -1.11064         1.53403     326.367E-03    -162.606E-03    -163.762E-03    -163.594E-03     326.200E-03    -162.606E-03     18.0431E-03     26.3249E+06    -59.6045E+06    -90.7742E+06    -72.5348E+06    -77.8439E+06     26.3249E+06    -14.6635E+06         46.9381
            1814     9.35382E-03     127.492E-03         2.86707        -1.06503        -1.71923    -613.608E-03         1.76145        -1.06503         3.91707     326.398E-03    -162.736E-03    -163.662E-03    -163.423E-03     326.186E-03    -162.763E-03     20.2957E-03     40.1895E+06    -40.6647E+06    -71.9523E+06    -61.4056E+06    -51.2114E+06     40.1895E+06    -14.3859E+06         47.2689
            1815     10.2032E-03     127.514E-03         2.79078        -1.02604        -1.66331    -514.894E-03         1.64237        -1.02604         3.89017     326.494E-03    -162.846E-03    -163.648E-03    -163.353E-03     326.226E-03    -162.873E-03     22.8839E-03     52.7334E+06    -12.9603E+06    -56.8004E+06    -51.1373E+06    -18.6233E+06     52.7334E+06    -13.6298E+06         47.8642
            1816     11.0528E-03     127.541E-03         1.98594    -636.648E-03        -1.21996    -341.930E-03         1.45456    -983.301E-03         1.85324     326.554E-03    -162.958E-03    -163.596E-03    -163.258E-03     326.216E-03    -162.958E-03     25.6951E-03     63.2809E+06     15.9946E+06    -44.4980E+06    -41.5593E+06     13.0559E+06     63.2809E+06    -12.8715E+06         49.0397
            1817     11.9025E-03     127.573E-03         1.87228    -592.341E-03        -1.13845    -274.594E-03         1.35508    -938.993E-03        -1.56563     326.466E-03    -162.940E-03    -163.526E-03    -163.019E-03     326.015E-03    -162.996E-03     29.6011E-03     89.6917E+06     53.1274E+06    -34.1268E+06    -32.5583E+06     67.7120E+06     73.5385E+06    -11.0743E+06         51.3067
            1818     12.7523E-03     127.612E-03         2.77798    -900.278E-03        -1.73915    -300.835E-03         1.33967    -900.278E-03        -4.18010     326.041E-03    -162.773E-03    -163.268E-03    -162.462E-03     325.494E-03    -163.032E-03     32.6759E-03     125.434E+06     86.8662E+06    -24.6754E+06    -24.2314E+06     124.990E+06     86.8662E+06    -7.71073E+06         55.2051
            1819     13.6027E-03     127.653E-03         3.04399    -867.939E-03        -2.05147    -291.396E-03         1.28391    -867.939E-03        -4.84453     326.018E-03    -162.757E-03    -163.261E-03    -162.142E-03     325.228E-03    -163.086E-03     38.8665E-03     140.105E+06     93.7077E+06    -16.9284E+06    -16.7957E+06     139.972E+06     93.7077E+06    -4.34464E+06         60.7133
            1820     14.4534E-03     127.709E-03         2.27458    -778.535E-03        -1.38181    -223.536E-03         1.17547    -837.697E-03        -3.28372     326.147E-03    -162.710E-03    -163.437E-03    -162.021E-03     325.297E-03    -163.276E-03     40.5459E-03     151.724E+06     125.600E+06    -9.02021E+06    -8.98519E+06     149.547E+06     127.742E+06    -2.21598E+06         66.4068
            1821     853.978E-06     128.797E-03         9.48430        -2.15699        -7.05226        -2.04592         4.47796        -2.15699         1.81191     316.592E-03    -157.936E-03    -158.656E-03    -158.094E-03     316.586E-03    -158.491E-03     3.37682E-03    -167.742E+06    -171.940E+06    -307.185E+06    -170.885E+06    -307.114E+06    -168.868E+06    -2.55554E+06         45.4280
            1822     1.70763E-03     128.797E-03         8.30169        -2.07351        -5.95200        -1.95577         4.30545        -2.07351         12.6381     317.253E-03    -158.449E-03    -158.804E-03    -158.786E-03     317.235E-03    -158.449E-03     5.69391E-03    -153.617E+06    -166.610E+06    -286.047E+06    -166.839E+06    -285.818E+06    -153.617E+06    -4.99529E+06         45.4917
            1823     2.56000E-03     128.801E-03         6.89042        -2.00432        -4.60258        -1.75568         4.04352        -2.00432         9.84150     318.096E-03    -158.753E-03    -159.343E-03    -159.307E-03     318.060E-03    -158.753E-03     8.12808E-03    -130.174E+06    -157.877E+06    -262.049E+06    -158.437E+06    -261.490E+06    -130.174E+06    -7.23324E+06         45.5918
            1824     3.41278E-03     128.805E-03         5.84067        -1.83109        -3.78789        -1.68745         3.84247        -1.93333         7.26174     319.463E-03    -159.142E-03    -160.321E-03    -160.264E-03     319.406E-03    -159.142E-03     10.2632E-03    -102.623E+06    -146.248E+06    -235.778E+06    -147.300E+06    -234.726E+06    -102.623E+06    -9.35612E+06         45.7244
            1825     4.26359E-03     128.810E-03         3.89929        -1.62290        -2.09061        -1.59107         3.65132        -1.87446         1.21993     320.893E-03    -159.604E-03    -161.289E-03    -161.208E-03     320.812E-03    -159.604E-03     12.3186E-03    -75.1606E+06    -133.447E+06    -208.606E+06    -135.207E+06    -206.846E+06    -75.1606E+06    -11.0922E+06         45.8832
            1826     5.11507E-03     128.816E-03         3.86055        -1.65677        -2.04230        -1.33082         3.29839        -1.80609        -2.70205     322.219E-03    -160.078E-03    -162.141E-03    -162.039E-03     322.117E-03    -160.078E-03     13.9672E-03    -49.7322E+06    -119.407E+06    -180.613E+06    -122.297E+06    -177.723E+06    -49.7322E+06    -12.6718E+06         46.0610
            1827     5.96502E-03     128.825E-03         4.21033        -1.71206        -2.35333    -952.162E-03         2.80917        -1.71206        -5.17849     323.754E-03    -160.558E-03    -163.195E-03    -163.074E-03     323.632E-03    -160.558E-03     15.3073E-03    -26.6740E+06    -104.387E+06    -154.404E+06    -108.940E+06    -149.851E+06    -26.6740E+06    -14.1040E+06         46.2514
            1828     6.81366E-03     128.835E-03         3.51418        -1.37929        -2.00098    -591.478E-03         2.32132        -1.59592        -4.21735     325.031E-03    -161.035E-03    -163.997E-03    -163.850E-03     324.885E-03    -161.035E-03     16.8053E-03    -6.91739E+06    -89.8209E+06    -130.622E+06    -96.9385E+06    -123.505E+06    -6.91739E+06    -15.0836E+06         46.4506
            1829     7.66192E-03     128.847E-03         2.27102    -678.712E-03        -1.47188    -331.813E-03         1.92413        -1.47188        -1.41576     325.792E-03    -161.465E-03    -164.327E-03    -164.151E-03     325.616E-03    -161.465E-03     18.4552E-03     10.0730E+06    -74.2939E+06    -110.304E+06    -85.2275E+06    -99.3702E+06     10.0730E+06    -16.2865E+06         46.6630
            1830     8.51148E-03     128.860E-03         2.24372    -747.746E-03        -1.38337    -250.147E-03         1.71882        -1.35607         1.70307     326.378E-03    -161.827E-03    -164.550E-03    -164.344E-03     326.171E-03    -161.827E-03     20.0930E-03     24.8192E+06    -56.5194E+06    -91.6885E+06    -73.7677E+06    -74.4402E+06     24.8192E+06    -17.0201E+06         46.9115
            1831     9.35993E-03     128.879E-03         2.88863        -1.23064        -1.53567    -349.709E-03         1.73446        -1.26243         3.86427     326.884E-03    -162.136E-03    -164.749E-03    -164.500E-03     326.636E-03    -162.136E-03     22.0552E-03     38.0733E+06    -37.5687E+06    -74.4234E+06    -63.0427E+06    -48.9494E+06     38.0733E+06    -16.7595E+06         47.2606
            1832     10.2080E-03     128.901E-03         2.88408        -1.19484        -1.53407    -490.558E-03         1.84057        -1.19484         3.72765     327.087E-03    -162.387E-03    -164.700E-03    -164.396E-03     326.783E-03    -162.387E-03     24.4138E-03     50.6428E+06    -10.5834E+06    -59.4741E+06    -52.6551E+06    -17.4023E+06     50.6428E+06    -16.0024E+06         47.8651
            1833     11.0567E-03     128.928E-03         2.28970    -860.076E-03        -1.23920    -548.447E-03         1.88477        -1.14590         1.67973     327.150E-03    -162.585E-03    -164.565E-03    -164.191E-03     326.776E-03    -162.585E-03     27.0542E-03     61.2472E+06     17.6643E+06    -46.7496E+06    -43.0206E+06     13.9353E+06     61.2472E+06    -14.8815E+06         49.0443
            1834     11.9055E-03     128.960E-03         2.19853    -817.703E-03        -1.16666    -457.608E-03         1.77530        -1.10353        -1.48363     327.040E-03    -162.712E-03    -164.328E-03    -163.852E-03     326.564E-03    -162.712E-03     30.4948E-03     86.1561E+06     52.1442E+06    -36.1168E+06    -34.0815E+06     65.5152E+06     70.7498E+06    -12.9709E+06         51.3277
            1835     12.7547E-03     128.998E-03         2.81437        -1.05973        -1.54155    -321.984E-03         1.59480        -1.05973        -3.88276     326.732E-03    -162.825E-03    -163.907E-03    -163.343E-03     326.168E-03    -162.825E-03     33.2327E-03     120.495E+06     83.5248E+06    -25.7085E+06    -25.0004E+06     119.786E+06     83.5248E+06    -9.66306E+06         55.2979
            1836     13.6046E-03     129.038E-03         3.03783        -1.01515        -1.83090    -243.149E-03         1.45008        -1.01515        -4.56118     326.915E-03    -162.948E-03    -163.966E-03    -163.153E-03     326.101E-03    -162.948E-03     39.5422E-03     136.149E+06     90.7322E+06    -16.3502E+06    -16.0956E+06     135.895E+06     90.7322E+06    -5.67126E+06         60.9835
            1837     14.4543E-03     129.096E-03         2.32404    -798.868E-03        -1.36873    -164.633E-03         1.29274    -971.669E-03        -3.17129     326.997E-03    -163.079E-03    -163.918E-03    -162.924E-03     326.133E-03    -163.209E-03     40.9360E-03     149.868E+06     122.413E+06    -8.16410E+06    -8.11564E+06     146.218E+06     126.014E+06    -2.29682E+06         66.9296
            1838     855.677E-06     130.164E-03         10.3440        -2.90510        -7.08640        -2.64958         5.90719        -2.90510         1.60359     312.074E-03    -155.746E-03    -156.327E-03    -156.179E-03     312.063E-03    -155.884E-03     4.19752E-03    -168.238E+06    -172.922E+06    -299.533E+06    -172.447E+06    -299.437E+06    -168.810E+06    -3.05770E+06         45.1046
            1839     1.71069E-03     130.168E-03         8.55955        -2.62646        -5.66836        -2.02260         4.91379        -2.62646         12.3400     313.029E-03    -156.238E-03    -156.791E-03    -156.761E-03     313.000E-03    -156.238E-03     7.09931E-03    -152.542E+06    -166.129E+06    -277.137E+06    -166.442E+06    -276.824E+06    -152.542E+06    -5.53409E+06         45.1833
            1840     2.56562E-03     130.171E-03         6.82019        -2.27996        -4.27112        -1.10785         3.65692        -2.27996         9.80537     314.376E-03    -156.664E-03    -157.713E-03    -157.654E-03     314.318E-03    -156.664E-03     10.3005E-03    -128.395E+06    -156.672E+06    -252.985E+06    -157.433E+06    -252.224E+06    -128.395E+06    -8.25159E+06         45.3062
            1841     3.41919E-03     130.178E-03         5.39520        -1.80961        -3.34034    -536.340E-03         2.69345        -1.91185         7.79069     316.002E-03    -157.176E-03    -158.826E-03    -158.734E-03     315.910E-03    -157.176E-03     13.1190E-03    -101.610E+06    -145.091E+06    -228.052E+06    -146.530E+06    -226.614E+06    -101.610E+06    -10.5894E+06         45.4681
            1842     4.27243E-03     130.186E-03         3.23179        -1.39187        -1.65631    -793.917E-03         2.62986        -1.65234         2.37475     318.062E-03    -157.769E-03    -160.293E-03    -160.168E-03     317.936E-03    -157.769E-03     15.3877E-03    -74.1592E+06    -131.793E+06    -201.571E+06    -134.191E+06    -199.173E+06    -74.1592E+06    -12.4185E+06         45.6613
            1843     5.12302E-03     130.195E-03         3.55994        -1.40053        -2.00096        -1.49671         3.21392        -1.55875        -1.46024     320.232E-03    -158.424E-03    -161.808E-03    -161.650E-03     320.074E-03    -158.424E-03     17.3082E-03    -48.7223E+06    -117.340E+06    -174.239E+06    -121.279E+06    -170.300E+06    -48.7223E+06    -14.1166E+06         45.8767
            1844     5.97315E-03     130.206E-03         4.35246        -1.57334        -2.61845        -1.88889         3.62290        -1.57334        -4.19625     322.065E-03    -159.090E-03    -162.975E-03    -162.789E-03     321.879E-03    -159.090E-03     18.8817E-03    -26.4088E+06    -102.633E+06    -149.825E+06    -108.749E+06    -143.709E+06    -26.4088E+06    -15.5441E+06         46.1059
            1845     6.82281E-03     130.218E-03         4.03401        -1.50623        -2.36309        -1.68574         3.44968        -1.59925        -3.51147     323.721E-03    -159.725E-03    -163.995E-03    -163.784E-03     323.510E-03    -159.725E-03     20.1975E-03    -6.68439E+06    -87.1001E+06    -127.324E+06    -96.3671E+06    -118.057E+06    -6.68439E+06    -16.6171E+06         46.3442
            1846     7.67210E-03     130.231E-03         3.07324        -1.16798        -1.74211        -1.17027         2.91461        -1.58117    -904.088E-03     325.339E-03    -160.328E-03    -165.010E-03    -164.779E-03     325.108E-03    -160.328E-03     21.2604E-03     10.3993E+06    -70.7079E+06    -107.493E+06    -84.4495E+06    -93.7513E+06     10.3993E+06    -17.5193E+06         46.5936
            1847     8.51902E-03     130.247E-03         2.93054        -1.16829        -1.59802    -741.451E-03         2.42594        -1.52026         2.18527     326.569E-03    -160.888E-03    -165.681E-03    -165.426E-03     326.315E-03    -160.888E-03     22.3527E-03     24.8475E+06    -52.7301E+06    -90.7135E+06    -73.7135E+06    -69.7301E+06     24.8475E+06    -18.4807E+06         46.8739
            1848     9.36632E-03     130.265E-03         3.30296        -1.41061        -1.70490    -538.100E-03         2.16795        -1.44240         4.13525     327.249E-03    -161.379E-03    -165.871E-03    -165.577E-03     326.956E-03    -161.379E-03     23.9940E-03     37.4018E+06    -34.0545E+06    -75.5330E+06    -63.4422E+06    -46.1453E+06     37.4018E+06    -18.6408E+06         47.2467
            1849     10.2143E-03     130.288E-03         3.09495        -1.31813        -1.55286    -482.308E-03         2.07376        -1.36749         3.79958     327.613E-03    -161.782E-03    -165.831E-03    -165.485E-03     327.267E-03    -161.782E-03     26.0723E-03     49.5743E+06    -7.90777E+06    -61.0873E+06    -53.2699E+06    -15.7252E+06     49.5743E+06    -18.0580E+06         47.8653
            1850     11.0618E-03     130.315E-03         2.36122    -790.387E-03        -1.30026    -406.765E-03         1.97697        -1.29963         1.64018     327.850E-03    -162.111E-03    -165.740E-03    -165.323E-03     327.433E-03    -162.111E-03     28.6255E-03     59.8509E+06     19.1042E+06    -48.5514E+06    -43.8274E+06     14.3802E+06     59.8509E+06    -17.0750E+06         49.0532
            1851     11.9097E-03     130.347E-03         2.25378    -712.695E-03        -1.23581    -280.923E-03         1.82064        -1.23444        -1.49048     327.810E-03    -162.352E-03    -165.458E-03    -164.947E-03     327.299E-03    -162.352E-03     31.6886E-03     83.8396E+06     51.4615E+06    -37.4182E+06    -34.6970E+06     63.5678E+06     69.0121E+06    -15.2463E+06         51.3585
            1852     12.7583E-03     130.385E-03         2.82217        -1.10862        -1.39646    -187.901E-03         1.67546        -1.17047        -3.69859     327.698E-03    -162.564E-03    -165.134E-03    -164.545E-03     327.109E-03    -162.564E-03     34.0477E-03     116.710E+06     81.1700E+06    -26.9245E+06    -25.7929E+06     115.578E+06     81.1700E+06    -12.3412E+06         55.4101
            1853     13.6066E-03     130.427E-03         2.97156        -1.11014        -1.54791    -146.321E-03         1.56997        -1.11014        -4.18090     327.951E-03    -162.776E-03    -165.175E-03    -164.342E-03     327.118E-03    -162.776E-03     40.1613E-03     130.005E+06     86.7985E+06    -18.2812E+06    -17.8127E+06     129.537E+06     86.7985E+06    -7.89469E+06         61.2933
            1854     14.4556E-03     130.483E-03         2.30678    -752.233E-03        -1.26832    -134.474E-03         1.47586        -1.05517        -2.74033     328.053E-03    -163.129E-03    -164.924E-03    -164.046E-03     327.175E-03    -163.129E-03     41.3785E-03     147.304E+06     118.531E+06    -9.61684E+06    -9.51236E+06     140.921E+06     124.809E+06    -3.01221E+06         67.5214
            1855     857.746E-06     131.526E-03         9.29270        -2.19880        -6.80719        -2.24183         4.72734        -2.19880         2.06070     307.252E-03    -153.264E-03    -153.988E-03    -153.972E-03     307.236E-03    -153.264E-03     5.00985E-03    -165.910E+06    -170.421E+06    -289.986E+06    -170.401E+06    -289.869E+06    -166.048E+06    -3.32785E+06         44.7469
            1856     1.71548E-03     131.530E-03         7.89924        -2.04838        -5.48473        -1.38202         3.79652        -2.04838         12.2550     308.248E-03    -153.829E-03    -154.419E-03    -154.372E-03     308.201E-03    -153.829E-03     9.03390E-03    -149.749E+06    -163.458E+06    -267.375E+06    -163.869E+06    -266.964E+06    -149.749E+06    -6.21211E+06         44.8402
            1857     2.57166E-03     131.538E-03         6.29411        -1.71613        -4.28147    -757.329E-03         2.76997        -1.71613         9.86922     310.097E-03    -154.317E-03    -155.780E-03    -155.688E-03     310.005E-03    -154.317E-03     12.8850E-03    -125.993E+06    -154.200E+06    -243.836E+06    -155.149E+06    -242.887E+06    -125.993E+06    -8.88938E+06         44.9860
            1858     3.42693E-03     131.546E-03         5.14459        -1.44016        -3.43668    -550.906E-03         2.25881        -1.44016         7.95053     312.385E-03    -154.980E-03    -157.405E-03    -157.266E-03     312.246E-03    -154.980E-03     16.0235E-03    -99.1131E+06    -142.627E+06    -219.198E+06    -144.489E+06    -217.336E+06    -99.1131E+06    -11.5079E+06         45.1777
            1859     4.28059E-03     131.557E-03         3.04712        -1.22910        -1.57176    -832.518E-03         2.35963        -1.28086         2.86358     314.893E-03    -155.741E-03    -159.151E-03    -158.966E-03     314.707E-03    -155.741E-03     18.6268E-03    -71.6365E+06    -128.503E+06    -193.865E+06    -131.720E+06    -190.648E+06    -71.6365E+06    -13.8557E+06         45.4060
            1860     5.13328E-03     131.571E-03         3.25567        -1.19979        -1.83742        -1.46520         2.93520        -1.25154    -951.220E-03     317.492E-03    -156.551E-03    -160.941E-03    -160.712E-03     317.263E-03    -156.551E-03     20.8586E-03    -46.5163E+06    -113.557E+06    -168.045E+06    -118.688E+06    -162.914E+06    -46.5163E+06    -15.6154E+06         45.6607
            1861     5.98392E-03     131.584E-03         4.21453        -1.32049        -2.68523        -2.07045         3.59975        -1.32049        -3.91310     320.015E-03    -157.381E-03    -162.634E-03    -162.370E-03     319.751E-03    -157.381E-03     22.4919E-03    -24.3476E+06    -98.4402E+06    -144.642E+06    -106.103E+06    -136.979E+06    -24.3476E+06    -16.9552E+06         45.9322
            1862     6.83358E-03     131.598E-03         4.39276        -1.42416        -2.75512        -2.27183         3.90947        -1.42416        -3.46653     322.528E-03    -158.213E-03    -164.316E-03    -164.028E-03     322.240E-03    -158.213E-03     23.5913E-03    -4.85447E+06    -82.4870E+06    -123.354E+06    -93.7690E+06    -112.072E+06    -4.85447E+06    -17.9800E+06         46.2133
            1863     7.68088E-03     131.615E-03         3.90674        -1.47472        -2.21012        -2.04950         3.77616        -1.50476    -829.447E-03     324.785E-03    -159.029E-03    -165.756E-03    -165.452E-03     324.481E-03    -159.029E-03     24.3084E-03     11.6137E+06    -66.2876E+06    -104.924E+06    -82.4833E+06    -88.7287E+06     11.6137E+06    -18.8389E+06         46.5034
            1864     8.52844E-03     131.633E-03         3.81108        -1.50728        -2.07045        -1.61510         3.38577        -1.53733         2.48029     326.420E-03    -159.795E-03    -166.626E-03    -166.302E-03     326.097E-03    -159.795E-03     25.1898E-03     26.3926E+06    -48.5170E+06    -88.3655E+06    -71.8330E+06    -65.0495E+06     26.3926E+06    -19.3038E+06         46.8196
            1865     9.37526E-03     131.653E-03         3.96267        -1.52237        -2.18825        -1.11449         2.88892        -1.52237         4.61093     327.546E-03    -160.474E-03    -167.072E-03    -166.715E-03     327.189E-03    -160.474E-03     26.5295E-03     38.9210E+06    -30.0030E+06    -74.1560E+06    -61.8133E+06    -42.3457E+06     38.9210E+06    -19.6736E+06         47.2213
            1866     10.2214E-03     131.676E-03         3.51692        -1.41216        -1.80745    -610.798E-03         2.37686        -1.46875         4.33711     328.209E-03    -161.049E-03    -167.160E-03    -166.759E-03     327.808E-03    -161.049E-03     28.1461E-03     50.1619E+06    -4.91981E+06    -60.8951E+06    -52.2451E+06    -13.5698E+06     50.1619E+06    -19.5447E+06         47.8604
            1867     11.0682E-03     131.703E-03         2.48540    -745.611E-03        -1.38973    -235.496E-03         1.97528        -1.38973         2.14171     328.562E-03    -161.531E-03    -167.031E-03    -166.567E-03     328.098E-03    -161.531E-03     30.2670E-03     60.3943E+06     21.1941E+06    -48.5015E+06    -42.9059E+06     15.5984E+06     60.3943E+06    -18.8281E+06         49.0636
            1868     11.9152E-03     131.736E-03         2.14727    -451.303E-03        -1.30235    -67.5988E-03         1.76357        -1.30235    -977.890E-03     328.785E-03    -161.906E-03    -166.878E-03    -166.324E-03     328.231E-03    -161.906E-03     33.0708E-03     83.0778E+06     52.2576E+06    -37.6421E+06    -34.1496E+06     62.7546E+06     69.0883E+06    -17.4684E+06         51.3992
            1869     12.7619E-03     131.774E-03         2.61942    -918.256E-03        -1.27504    -22.0377E-03         1.66732        -1.21916        -3.15399     328.973E-03    -162.244E-03    -166.729E-03    -166.100E-03     328.344E-03    -162.244E-03     35.2803E-03     111.779E+06     79.4261E+06    -27.7632E+06    -26.3244E+06     110.341E+06     79.4261E+06    -13.6391E+06         55.5467
            1870     13.6095E-03     131.815E-03         2.80828        -1.10920        -1.25333    -83.4667E-03         1.67581        -1.14659        -3.60353     329.311E-03    -162.570E-03    -166.741E-03    -165.890E-03     328.459E-03    -162.570E-03     40.7793E-03     124.067E+06     83.7593E+06    -19.8739E+06    -19.2820E+06     123.475E+06     83.7593E+06    -9.04301E+06         61.6590
            1871     14.4574E-03     131.872E-03         2.41142    -804.672E-03        -1.14019    -250.635E-03         1.80653        -1.08934        -2.34539     329.378E-03    -163.025E-03    -166.353E-03    -165.469E-03     328.494E-03    -163.025E-03     41.6342E-03     143.706E+06     113.283E+06    -11.2425E+06    -10.9931E+06     134.978E+06     121.762E+06    -5.34500E+06         68.2219
            1872     859.986E-06     132.881E-03         7.38637    -723.147E-03        -6.29775    -794.979E-03         1.88360    -723.147E-03         1.80779     302.140E-03    -150.673E-03    -151.467E-03    -151.196E-03     302.119E-03    -150.923E-03     5.65941E-03    -161.966E+06    -165.361E+06    -278.383E+06    -165.048E+06    -278.175E+06    -162.486E+06    -4.47738E+06         44.3717
            1873     1.71948E-03     132.887E-03         6.39386    -784.108E-03        -5.22949    -905.993E-03         2.07037    -784.108E-03         11.1150     303.468E-03    -151.319E-03    -152.149E-03    -152.085E-03     303.404E-03    -151.319E-03     10.5634E-03    -145.951E+06    -158.954E+06    -257.163E+06    -159.485E+06    -256.632E+06    -145.951E+06    -6.85873E+06         44.4774
            1874     2.57838E-03     132.897E-03         5.44897    -871.560E-03        -4.17802        -1.24295         2.51390    -871.560E-03         8.81020     305.571E-03    -151.903E-03    -153.668E-03    -153.543E-03     305.445E-03    -151.903E-03     15.0107E-03    -122.008E+06    -149.831E+06    -234.332E+06    -151.005E+06    -233.159E+06    -122.008E+06    -9.62940E+06         44.6430
            1875     3.43518E-03     132.910E-03         4.98166        -1.00312        -3.62169        -1.58297         2.94294        -1.00312         6.78812     308.335E-03    -152.667E-03    -155.668E-03    -155.469E-03     308.136E-03    -152.667E-03     19.0613E-03    -94.7656E+06    -137.424E+06    -209.434E+06    -139.824E+06    -207.034E+06    -94.7656E+06    -12.5679E+06         44.8617
            1876     4.28997E-03     132.924E-03         3.29369        -1.11946        -1.85043        -1.56379         3.00706        -1.11946         1.83112     311.363E-03    -153.558E-03    -157.805E-03    -157.535E-03     311.093E-03    -153.558E-03     22.3673E-03    -67.9587E+06    -123.363E+06    -185.672E+06    -127.564E+06    -181.471E+06    -67.9587E+06    -15.3603E+06         45.1233
            1877     5.14332E-03     132.941E-03         3.25865        -1.17884        -1.77994        -1.34982         2.82854        -1.17884        -1.66709     314.462E-03    -154.512E-03    -159.949E-03    -159.625E-03     314.138E-03    -154.512E-03     24.6666E-03    -43.3762E+06    -108.382E+06    -161.851E+06    -114.643E+06    -155.590E+06    -43.3762E+06    -16.9790E+06         45.4166
            1878     5.99538E-03     132.959E-03         3.71925        -1.20613        -2.23065        -1.38390         2.87250        -1.20613        -4.08867     317.909E-03    -155.522E-03    -162.388E-03    -162.027E-03     317.548E-03    -155.522E-03     26.2224E-03    -21.1367E+06    -93.0769E+06    -138.921E+06    -102.048E+06    -129.950E+06    -21.1367E+06    -17.9457E+06         45.7301
            1879     6.84446E-03     132.978E-03         3.85822        -1.25163        -2.32925        -1.79927         3.32823        -1.25163        -3.19878     321.141E-03    -156.566E-03    -164.575E-03    -164.190E-03     320.756E-03    -156.566E-03     27.2742E-03    -1.99305E+06    -77.3129E+06    -118.999E+06    -90.3774E+06    -105.935E+06    -1.99305E+06    -19.0818E+06         46.0543
            1880     7.69287E-03     132.998E-03         3.91490        -1.33002        -2.30659        -2.18285         3.79115        -1.33002    -453.882E-03     323.731E-03    -157.586E-03    -166.144E-03    -165.744E-03     323.330E-03    -157.586E-03     27.9541E-03     14.7171E+06    -60.6704E+06    -101.381E+06    -78.7823E+06    -83.2695E+06     14.7171E+06    -20.0665E+06         46.3866
            1881     8.53930E-03     133.018E-03         4.19980        -1.40830        -2.50601        -2.10286         3.79664        -1.40830         2.75974     325.980E-03    -158.542E-03    -167.438E-03    -167.025E-03     325.567E-03    -158.542E-03     28.4872E-03     29.3797E+06    -43.4677E+06    -85.1992E+06    -67.7184E+06    -60.9485E+06     29.3797E+06    -20.3355E+06         46.7426
            1882     9.38497E-03     133.041E-03         4.30150        -1.44504        -2.54644        -1.56132         3.31638        -1.44504         4.73383     327.686E-03    -159.415E-03    -168.272E-03    -167.839E-03     327.254E-03    -159.415E-03     29.2460E-03     41.8999E+06    -25.3028E+06    -70.9086E+06    -57.7747E+06    -38.4367E+06     41.8999E+06    -20.4547E+06         47.1792
            1883     10.2305E-03     133.065E-03         3.74068        -1.41771        -1.97437    -872.308E-03         2.64586        -1.42495         4.48010     328.784E-03    -160.180E-03    -168.605E-03    -168.134E-03     328.313E-03    -160.180E-03     30.5671E-03     53.0073E+06    -1.22136E+06    -57.9274E+06    -48.6370E+06    -10.5118E+06     53.0073E+06    -20.4094E+06         47.8460
            1884     11.0759E-03     133.093E-03         2.65192    -830.998E-03        -1.41966    -329.784E-03         2.09167        -1.36062         2.48933     329.506E-03    -160.838E-03    -168.668E-03    -168.145E-03     328.983E-03    -160.838E-03     32.2323E-03     62.6509E+06     23.8744E+06    -46.1538E+06    -39.8449E+06     17.5655E+06     62.6509E+06    -19.9217E+06         49.0724
            1885     11.9214E-03     133.126E-03         2.10114    -368.348E-03        -1.27699    -82.9156E-03         1.81571        -1.27699    -373.370E-03     329.971E-03    -161.377E-03    -168.594E-03    -167.988E-03     329.365E-03    -161.377E-03     34.6993E-03     83.0836E+06     54.5054E+06    -35.6441E+06    -31.5685E+06     62.6615E+06     70.8519E+06    -18.8614E+06         51.4469
            1886     12.7675E-03     133.165E-03         2.49067    -775.564E-03        -1.21623    -179.076E-03         1.87716        -1.19921        -2.50217     330.432E-03    -161.865E-03    -168.567E-03    -167.895E-03     329.760E-03    -161.865E-03     36.5847E-03     105.497E+06     79.6619E+06    -25.1306E+06    -23.2015E+06     103.568E+06     79.6619E+06    -15.3040E+06         55.7067
            1887     13.6128E-03     133.207E-03         2.88702        -1.10470        -1.24352    -420.927E-03         2.10181        -1.14209        -3.16787     330.998E-03    -162.326E-03    -168.672E-03    -167.789E-03     330.115E-03    -162.326E-03     41.6817E-03     119.169E+06     84.2060E+06    -15.5817E+06    -14.6751E+06     118.263E+06     84.2060E+06    -10.5311E+06         62.0884
            1888     14.4585E-03     133.263E-03         2.62194    -856.967E-03        -1.18654    -504.210E-03         2.18477        -1.10212        -2.17300     331.104E-03    -162.883E-03    -168.221E-03    -167.317E-03     330.200E-03    -162.883E-03     42.2311E-03     138.668E+06     108.042E+06    -7.37617E+06    -7.04916E+06     129.075E+06     117.308E+06    -6.19472E+06         69.0552
            1889     862.556E-06     134.229E-03         6.59216    -278.320E-03        -5.77523    -459.043E-03         1.27597    -278.320E-03         1.34152     297.372E-03    -148.406E-03    -148.966E-03    -148.656E-03     297.344E-03    -148.687E-03     6.54391E-03    -155.786E+06    -159.275E+06    -265.127E+06    -159.197E+06    -264.823E+06    -156.169E+06    -5.44910E+06         43.9996
            1890     1.72390E-03     134.237E-03         5.83086    -533.574E-03        -4.82547        -1.17360         2.17900    -533.574E-03         9.83672     298.819E-03    -148.943E-03    -149.876E-03    -149.790E-03     298.733E-03    -148.943E-03     12.0543E-03    -141.282E+06    -153.349E+06    -247.048E+06    -154.089E+06    -246.308E+06    -141.282E+06    -8.02817E+06         44.1135
            1891     2.58377E-03     134.250E-03         5.19018    -839.921E-03        -3.86123        -1.68285         3.01180    -839.921E-03         7.70588     301.001E-03    -149.548E-03    -151.453E-03    -151.279E-03     300.827E-03    -149.548E-03     17.4731E-03    -117.695E+06    -143.751E+06    -223.762E+06    -145.339E+06    -222.173E+06    -117.695E+06    -10.7902E+06         44.2931
            1892     3.44298E-03     134.266E-03         4.84311        -1.07814        -3.28474        -1.82043         3.37881        -1.07814         5.72500     303.947E-03    -150.340E-03    -153.606E-03    -153.334E-03     303.674E-03    -150.340E-03     22.1737E-03    -90.2781E+06    -131.207E+06    -199.526E+06    -134.178E+06    -196.554E+06    -90.2781E+06    -13.6215E+06         44.5325
            1893     4.30045E-03     134.286E-03         3.27949        -1.12308        -1.73619        -1.53863         3.16573        -1.20688         1.00325     307.557E-03    -151.305E-03    -156.251E-03    -155.893E-03     307.198E-03    -151.305E-03     25.7031E-03    -63.5993E+06    -117.606E+06    -176.871E+06    -122.461E+06    -172.015E+06    -63.5993E+06    -16.0528E+06         44.8217
            1894     5.15508E-03     134.307E-03         3.12162        -1.14033        -1.60929        -1.02298         2.61910        -1.22412        -2.11418     311.563E-03    -152.412E-03    -159.151E-03    -158.724E-03     311.135E-03    -152.412E-03     28.2991E-03    -39.1695E+06    -102.772E+06    -155.233E+06    -110.342E+06    -147.664E+06    -39.1695E+06    -18.1462E+06         45.1480
            1895     6.00685E-03     134.331E-03         3.19382        -1.17642        -1.67184    -746.177E-03         2.26816        -1.17642        -3.81793     315.480E-03    -153.600E-03    -161.881E-03    -161.398E-03     314.997E-03    -153.600E-03     30.2789E-03    -17.4849E+06    -86.6782E+06    -133.764E+06    -97.5354E+06    -122.907E+06    -17.4849E+06    -19.6491E+06         45.4985
            1896     6.85677E-03     134.356E-03         2.95297        -1.11539        -1.51001        -1.00927         2.47355        -1.13672        -2.46818     319.084E-03    -154.809E-03    -164.275E-03    -163.763E-03     318.572E-03    -154.809E-03     31.3436E-03     1.68122E+06    -70.9035E+06    -114.385E+06    -85.4381E+06    -99.8505E+06     1.68122E+06    -20.3147E+06         45.8630
            1897     7.70454E-03     134.378E-03         3.14274        -1.12792        -1.69565        -1.56050         3.02892        -1.14925     109.968E-03     322.386E-03    -155.999E-03    -166.386E-03    -165.861E-03     321.861E-03    -155.999E-03     31.9144E-03     18.4829E+06    -55.1255E+06    -96.9025E+06    -74.1918E+06    -77.8363E+06     18.4829E+06    -20.6550E+06         46.2384
            1898     8.55137E-03     134.404E-03         3.78952        -1.20125        -2.26644        -1.86247         3.38555        -1.20125         2.81267     325.283E-03    -157.141E-03    -168.143E-03    -167.611E-03     324.751E-03    -157.141E-03     32.3015E-03     32.5107E+06    -38.8304E+06    -81.9929E+06    -63.9581E+06    -56.8652E+06     32.5107E+06    -21.1007E+06         46.6382
            1899     9.39648E-03     134.428E-03         4.09042        -1.24778        -2.50279        -1.64780         3.23543        -1.24778         4.39616     327.605E-03    -158.208E-03    -169.397E-03    -168.863E-03     327.071E-03    -158.208E-03     32.5166E-03     44.9754E+06    -20.8467E+06    -68.0112E+06    -54.0830E+06    -34.7749E+06     44.9754E+06    -21.3016E+06         47.1159
            1900     10.2410E-03     134.454E-03         3.70504        -1.25721        -2.07356        -1.15667         2.78815        -1.25721         4.21802     329.317E-03    -159.172E-03    -170.145E-03    -169.589E-03     328.761E-03    -159.172E-03     33.2811E-03     56.4279E+06     2.68710E+06    -54.4459E+06    -44.6511E+06    -7.10765E+06     56.4279E+06    -21.0372E+06         47.8179
            1901     11.0850E-03     134.484E-03         2.87270    -990.357E-03        -1.46211    -748.016E-03         2.39883        -1.23058         2.45088     330.609E-03    -160.030E-03    -170.579E-03    -169.987E-03     330.017E-03    -160.030E-03     34.4193E-03     65.6902E+06     26.6925E+06    -43.0904E+06    -36.2259E+06     19.8280E+06     65.6902E+06    -20.6680E+06         49.0751
            1902     11.9290E-03     134.517E-03         2.45242    -763.502E-03        -1.21623    -604.698E-03         2.26571        -1.18832    -238.803E-03     331.409E-03    -160.764E-03    -170.646E-03    -169.983E-03     330.746E-03    -160.764E-03     36.4179E-03     84.7864E+06     57.6155E+06    -32.5722E+06    -27.9910E+06     63.7438E+06     74.0770E+06    -19.9622E+06         51.4963
            1903     12.7725E-03     134.558E-03         2.74006    -965.678E-03        -1.24916    -685.121E-03         2.36061        -1.15027        -2.22059     331.932E-03    -161.421E-03    -170.511E-03    -169.782E-03     331.203E-03    -161.421E-03     38.2282E-03     101.673E+06     81.4824E+06    -22.4647E+06    -19.7604E+06     98.9682E+06     81.4824E+06    -18.0246E+06         55.8818
            1904     13.6171E-03     134.600E-03         3.00180        -1.12163        -1.30925    -730.589E-03         2.42314        -1.12163        -2.93126     332.792E-03    -162.030E-03    -170.762E-03    -169.826E-03     331.856E-03    -162.030E-03     43.1269E-03     109.797E+06     83.7762E+06    -13.8577E+06    -12.4224E+06     108.362E+06     83.7762E+06    -12.2996E+06         62.5684
            1905     14.4618E-03     134.657E-03         2.68614    -854.525E-03        -1.21125    -615.268E-03         2.33025        -1.09461        -2.00568     333.277E-03    -162.722E-03    -170.555E-03    -169.630E-03     332.351E-03    -162.722E-03     42.8801E-03     130.970E+06     104.217E+06    -6.45094E+06    -6.19043E+06     120.496E+06     114.430E+06    -4.44558E+06         70.0036
            1906     863.580E-06     135.571E-03         7.40906        -1.51624        -5.29032        -1.77270         3.89144        -1.51624         1.53728     292.999E-03    -146.359E-03    -146.640E-03    -146.565E-03     292.961E-03    -146.396E-03     7.63256E-03    -149.061E+06    -153.570E+06    -251.556E+06    -153.667E+06    -251.309E+06    -149.211E+06    -4.36715E+06         43.6526
            1907     1.72732E-03     135.581E-03         6.55310        -1.62497        -4.24149        -1.49337         3.80498        -1.62497         9.23987     294.432E-03    -146.747E-03    -147.684E-03    -147.575E-03     294.322E-03    -146.747E-03     13.5349E-03    -134.876E+06    -148.010E+06    -235.383E+06    -148.962E+06    -234.431E+06    -134.876E+06    -8.52232E+06         43.7698
            1908     2.59057E-03     135.597E-03         5.41868        -1.53998        -3.27741        -1.15571         3.29698        -1.53998         7.35814     296.749E-03    -147.350E-03    -149.400E-03    -149.186E-03     296.536E-03    -147.350E-03     19.3296E-03    -113.329E+06    -138.211E+06    -213.166E+06    -140.307E+06    -211.069E+06    -113.329E+06    -12.1013E+06         43.9555
            1909     3.45116E-03     135.617E-03         4.32848        -1.15372        -2.62880    -748.125E-03         2.69574        -1.40165         5.43472     299.877E-03    -148.172E-03    -151.705E-03    -151.372E-03     299.544E-03    -148.172E-03     24.3925E-03    -86.8024E+06    -126.309E+06    -190.065E+06    -129.919E+06    -186.456E+06    -86.8024E+06    -14.4398E+06         44.2050
            1910     4.30938E-03     135.642E-03         2.50681    -671.400E-03        -1.33499    -530.026E-03         2.28016        -1.24971         1.07934     303.795E-03    -149.190E-03    -154.605E-03    -154.154E-03     303.343E-03    -149.190E-03     28.6496E-03    -59.7249E+06    -112.555E+06    -167.844E+06    -118.252E+06    -162.148E+06    -59.7249E+06    -16.5621E+06         44.5098
            1911     5.16516E-03     135.670E-03         2.64142    -805.244E-03        -1.39101    -657.714E-03         2.23850        -1.13562        -1.77188     308.253E-03    -150.375E-03    -157.878E-03    -157.324E-03     307.699E-03    -150.375E-03     31.9987E-03    -34.9570E+06    -96.9019E+06    -147.381E+06    -105.829E+06    -138.453E+06    -34.9570E+06    -18.9645E+06         44.8582
            1912     6.01832E-03     135.699E-03         3.09813        -1.07920        -1.62799    -891.585E-03         2.36173        -1.07920        -3.39660     312.464E-03    -151.655E-03    -160.810E-03    -160.187E-03     311.842E-03    -151.655E-03     34.2279E-03    -14.0679E+06    -81.1378E+06    -128.680E+06    -93.8473E+06    -115.971E+06    -14.0679E+06    -20.8969E+06         45.2376
            1913     6.86972E-03     135.728E-03         2.74415        -1.03442        -1.35119    -927.958E-03         2.34224        -1.05575        -2.27720     316.522E-03    -152.965E-03    -163.557E-03    -162.887E-03     315.852E-03    -152.965E-03     35.7626E-03     4.80496E+06    -65.3688E+06    -110.680E+06    -81.6413E+06    -94.4074E+06     4.80496E+06    -21.5882E+06         45.6383
            1914     7.71850E-03     135.758E-03         2.39743    -903.102E-03        -1.15343    -867.318E-03         2.24535        -1.03713     89.3537E-03     320.654E-03    -154.288E-03    -166.366E-03    -165.678E-03     319.966E-03    -154.288E-03     36.5230E-03     21.1420E+06    -50.3297E+06    -93.8742E+06    -70.6319E+06    -73.5720E+06     21.1420E+06    -21.5780E+06         46.0565
            1915     8.56452E-03     135.786E-03         2.88388    -910.784E-03        -1.63547    -978.818E-03         2.33993        -1.02349         2.69029     324.240E-03    -155.599E-03    -168.641E-03    -167.961E-03     323.560E-03    -155.599E-03     36.5434E-03     35.4650E+06    -34.4956E+06    -78.5817E+06    -60.4137E+06    -52.6635E+06     35.4650E+06    -21.5070E+06         46.5031
            1916     9.40953E-03     135.816E-03         3.52921        -1.02682        -2.15393        -1.23066         2.60594        -1.02682         4.13080     327.350E-03    -156.858E-03    -170.492E-03    -169.820E-03     326.678E-03    -156.858E-03     36.4864E-03     48.0777E+06    -17.1109E+06    -64.7492E+06    -50.9476E+06    -30.9126E+06     48.0777E+06    -21.3989E+06         47.0277
            1917     10.2525E-03     135.844E-03         3.58027        -1.04562        -2.15624        -1.38912         2.81315        -1.04562         3.86030     329.941E-03    -158.037E-03    -171.904E-03    -171.238E-03     329.275E-03    -158.037E-03     36.4866E-03     59.1710E+06     5.30911E+06    -52.1784E+06    -42.5272E+06    -4.34199E+06     59.1710E+06    -20.9809E+06         47.7721
            1918     11.0953E-03     135.877E-03         3.21894        -1.05642        -1.73781        -1.40330         2.89632        -1.06830         2.10403     331.657E-03    -159.115E-03    -172.543E-03    -171.863E-03     330.977E-03    -159.115E-03     36.9912E-03     68.8626E+06     29.7981E+06    -41.3083E+06    -34.6213E+06     23.1111E+06     68.8626E+06    -20.6034E+06         49.0673
            1919     11.9371E-03     135.912E-03         2.97005        -1.07391        -1.41756        -1.31273         2.87710        -1.08579    -342.661E-03     332.772E-03    -160.049E-03    -172.724E-03    -171.978E-03     332.027E-03    -160.049E-03     38.7554E-03     86.9511E+06     60.7397E+06    -31.8220E+06    -27.1706E+06     66.0790E+06     76.9605E+06    -20.5020E+06         51.5421
            1920     12.7800E-03     135.952E-03         3.00358        -1.09061        -1.37872        -1.06834         2.69320        -1.09061        -2.13140     333.729E-03    -160.892E-03    -172.837E-03    -172.038E-03     332.930E-03    -160.892E-03     40.1986E-03     98.3179E+06     82.0993E+06    -23.3791E+06    -20.5610E+06     95.4997E+06     82.0993E+06    -18.1817E+06         56.0594
            1921     13.6224E-03     135.996E-03         2.97216        -1.07885        -1.31205    -792.969E-03         2.45308        -1.07885        -2.78766     334.955E-03    -161.683E-03    -173.272E-03    -172.287E-03     333.969E-03    -161.683E-03     44.5256E-03     96.3632E+06     81.0939E+06    -17.1708E+06    -15.8093E+06     95.0016E+06     81.0939E+06    -11.4930E+06         63.0606
            1922     14.4639E-03     136.055E-03         2.60655    -872.112E-03        -1.14423    -635.789E-03         2.28164        -1.05564        -1.92454     335.786E-03    -162.553E-03    -173.234E-03    -172.287E-03     334.840E-03    -162.553E-03     43.5404E-03     122.352E+06     100.963E+06    -10.0642E+06    -9.82659E+06     109.767E+06     113.311E+06    -4.11086E+06         70.9925
            1923     866.400E-06     136.907E-03         8.91168        -3.03181        -5.05843        -2.74866         6.60191        -3.03181         1.66023     289.206E-03    -144.307E-03    -144.899E-03    -144.600E-03     289.163E-03    -144.563E-03     8.10733E-03    -146.016E+06    -149.653E+06    -238.959E+06    -149.787E+06    -238.676E+06    -146.166E+06    -4.41170E+06         43.3535
            1924     1.73133E-03     136.919E-03         7.06962        -2.39690        -3.91044        -1.49092         4.86719        -2.61399         8.65521     290.926E-03    -144.895E-03    -146.031E-03    -145.908E-03     290.803E-03    -144.895E-03     14.3517E-03    -129.713E+06    -142.989E+06    -221.928E+06    -143.929E+06    -220.987E+06    -129.713E+06    -8.13710E+06         43.4673
            1925     2.59437E-03     136.938E-03         5.26600        -1.82523        -2.72510    -274.499E-03         3.03250        -2.04233         6.77461     293.275E-03    -145.559E-03    -147.716E-03    -147.475E-03     293.034E-03    -145.559E-03     20.4079E-03    -107.798E+06    -134.375E+06    -201.930E+06    -136.547E+06    -199.757E+06    -107.798E+06    -11.5682E+06         43.6483
            1926     3.45685E-03     136.963E-03         3.76269        -1.02319        -2.11057     392.007E-03         1.74776        -1.51083         5.16198     296.253E-03    -146.371E-03    -149.882E-03    -149.495E-03     295.867E-03    -146.371E-03     26.0872E-03    -83.1603E+06    -122.720E+06    -180.608E+06    -126.955E+06    -176.374E+06    -83.1603E+06    -14.7319E+06         43.8936
            1927     4.31758E-03     136.993E-03         1.90681    -217.939E-03        -1.13550     221.971E-03         1.46690        -1.13550         1.39474     299.981E-03    -147.341E-03    -152.640E-03    -152.092E-03     299.433E-03    -147.341E-03     31.3743E-03    -57.1135E+06    -107.784E+06    -159.313E+06    -114.937E+06    -152.161E+06    -57.1135E+06    -17.5150E+06         44.1979
            1928     5.17545E-03     137.028E-03         2.27509    -530.483E-03        -1.26166    -525.755E-03         1.96911    -960.407E-03        -1.22129     304.266E-03    -148.465E-03    -155.801E-03    -155.106E-03     303.571E-03    -148.465E-03     35.6598E-03    -32.6813E+06    -92.5010E+06    -139.807E+06    -102.901E+06    -129.407E+06    -32.6813E+06    -19.3648E+06         44.5536
            1929     6.03059E-03     137.062E-03         3.05873    -934.852E-03        -1.69937        -1.13647         2.49583    -934.852E-03        -3.06509     308.985E-03    -149.725E-03    -159.261E-03    -158.469E-03     308.194E-03    -149.725E-03     38.3921E-03    -11.2915E+06    -77.2589E+06    -122.685E+06    -91.4587E+06    -108.485E+06    -11.2915E+06    -20.8766E+06         44.9518
            1930     6.88256E-03     137.097E-03         2.84200    -957.757E-03        -1.51162        -1.15491         2.48529    -957.757E-03        -2.32216     313.803E-03    -151.089E-03    -162.715E-03    -161.864E-03     312.953E-03    -151.089E-03     40.1493E-03     6.62350E+06    -61.8704E+06    -107.315E+06    -80.4921E+06    -88.6936E+06     6.62350E+06    -22.1856E+06         45.3829
            1931     7.73220E-03     137.133E-03         2.21759    -826.002E-03        -1.04723    -767.946E-03         2.06894    -956.640E-03    -164.378E-03     318.343E-03    -152.509E-03    -165.833E-03    -164.964E-03     317.473E-03    -152.509E-03     40.9335E-03     22.4234E+06    -46.7613E+06    -92.2550E+06    -69.5102E+06    -69.5061E+06     22.4234E+06    -22.6428E+06         45.8416
            1932     8.57912E-03     137.168E-03         2.38535    -795.123E-03        -1.24951    -547.700E-03         1.81418    -925.761E-03         2.39744     322.801E-03    -153.952E-03    -168.849E-03    -167.988E-03     321.940E-03    -153.952E-03     41.0441E-03     36.9932E+06    -31.3445E+06    -76.8394E+06    -59.0656E+06    -49.1183E+06     36.9932E+06    -21.9431E+06         46.3365
            1933     9.42345E-03     137.201E-03         2.98091    -901.781E-03        -1.72183    -806.837E-03         2.06592    -901.781E-03         3.70017     326.942E-03    -155.392E-03    -171.550E-03    -170.710E-03     326.102E-03    -155.392E-03     40.8204E-03     49.8597E+06    -14.8346E+06    -62.7927E+06    -49.8287E+06    -27.7986E+06     49.8597E+06    -21.0957E+06         46.9126
            1934     10.2661E-03     137.236E-03         3.22306    -911.887E-03        -1.92367        -1.28965         2.58904    -911.887E-03         3.32065     330.232E-03    -156.782E-03    -173.450E-03    -172.642E-03     329.424E-03    -156.782E-03     40.2650E-03     61.3225E+06     6.90705E+06    -50.4611E+06    -41.4542E+06    -2.09993E+06     61.3225E+06    -20.3757E+06         47.7066
            1935     11.1064E-03     137.270E-03         3.13649    -947.662E-03        -1.75464        -1.53032         2.91217    -947.662E-03         1.65279     332.540E-03    -158.072E-03    -174.468E-03    -173.669E-03     331.741E-03    -158.072E-03     40.1745E-03     71.4181E+06     32.7603E+06    -39.7863E+06    -33.5957E+06     26.5697E+06     71.4181E+06    -20.1154E+06         49.0484
            1936     11.9480E-03     137.307E-03         2.92408    -980.612E-03        -1.44504        -1.36635         2.84539    -980.612E-03    -553.603E-03     334.288E-03    -159.219E-03    -175.069E-03    -174.224E-03     333.443E-03    -159.219E-03     41.4284E-03     86.7227E+06     63.5417E+06    -30.6887E+06    -26.5891E+06     67.3643E+06     78.8005E+06    -19.0690E+06         51.5827
            1937     12.7877E-03     137.350E-03         2.92086    -993.296E-03        -1.35977        -1.07476         2.63586    -993.296E-03        -2.04134     336.009E-03    -160.283E-03    -175.727E-03    -174.852E-03     335.134E-03    -160.283E-03     42.2674E-03     91.7595E+06     81.7218E+06    -23.1087E+06    -21.0263E+06     89.5446E+06     81.8543E+06    -15.1266E+06         56.2268
            1938     13.6272E-03     137.395E-03         2.88013    -987.613E-03        -1.27156    -855.742E-03         2.46432    -987.613E-03        -2.48381     337.614E-03    -161.293E-03    -176.320E-03    -175.279E-03     336.572E-03    -161.293E-03     46.0413E-03     86.1759E+06     80.3533E+06    -16.7319E+06    -15.6733E+06     84.9848E+06     80.4858E+06    -10.1220E+06         63.5194
            1939     14.4679E-03     137.455E-03         2.46583    -762.385E-03        -1.05890    -610.982E-03         2.22402    -968.501E-03        -1.62611     338.691E-03    -162.353E-03    -176.338E-03    -175.354E-03     337.707E-03    -162.353E-03     44.6452E-03     114.905E+06     97.7866E+06    -9.06983E+06    -8.71855E+06     101.142E+06     111.198E+06    -5.43332E+06         71.9171
            1940     866.550E-06     138.239E-03         8.18049        -2.70617        -4.45669        -2.24938         5.97318        -2.70617         1.06277     287.125E-03    -143.169E-03    -143.956E-03    -143.662E-03     287.082E-03    -143.421E-03     8.03045E-03    -144.636E+06    -147.648E+06    -226.053E+06    -147.958E+06    -225.691E+06    -144.687E+06    -4.90360E+06         43.1215
            1941     1.73270E-03     138.254E-03         6.23257        -2.00050        -3.41180        -1.23881         4.27667        -2.21760         7.62323     288.340E-03    -143.766E-03    -144.574E-03    -144.447E-03     288.213E-03    -143.766E-03     14.4614E-03    -129.131E+06    -141.998E+06    -210.417E+06    -142.970E+06    -209.445E+06    -129.131E+06    -7.79637E+06         43.2226
            1942     2.59835E-03     138.276E-03         4.70839        -1.47823        -2.47299    -123.473E-03         2.57597        -1.69532         6.20058     290.326E-03    -144.280E-03    -146.046E-03    -145.780E-03     290.060E-03    -144.280E-03     21.2755E-03    -105.897E+06    -132.718E+06    -190.872E+06    -134.928E+06    -188.662E+06    -105.897E+06    -10.7185E+06         43.3860
            1943     3.46200E-03     138.304E-03         3.67490    -999.643E-03        -1.97424     217.245E-03         1.72312        -1.23935         5.06237     293.122E-03    -144.969E-03    -148.153E-03    -147.712E-03     292.682E-03    -144.969E-03     27.7117E-03    -80.8133E+06    -120.340E+06    -169.938E+06    -124.897E+06    -165.381E+06    -80.8133E+06    -13.9180E+06         43.6122
            1944     4.32377E-03     138.339E-03         2.07324    -462.222E-03    -997.751E-03    -52.3897E-03         1.62571    -960.053E-03         1.69036     296.395E-03    -145.817E-03    -150.578E-03    -149.957E-03     295.775E-03    -145.817E-03     33.1981E-03    -56.2642E+06    -106.392E+06    -150.460E+06    -114.577E+06    -142.275E+06    -56.2642E+06    -16.7698E+06         43.9000
            1945     5.18409E-03     138.378E-03         2.08860    -575.057E-03    -992.043E-03    -437.637E-03         1.79232    -833.183E-03    -763.332E-03     300.160E-03    -146.796E-03    -153.365E-03    -152.570E-03     299.365E-03    -146.796E-03     37.8733E-03    -32.9366E+06    -91.2484E+06    -133.682E+06    -103.852E+06    -121.078E+06    -32.9366E+06    -19.0649E+06         44.2474
            1946     6.04188E-03     138.420E-03         2.52125    -795.582E-03        -1.30000    -779.562E-03         2.00081    -795.582E-03        -2.59662     304.983E-03    -147.931E-03    -157.053E-03    -156.101E-03     304.032E-03    -147.931E-03     41.8357E-03    -11.6873E+06    -75.8527E+06    -118.099E+06    -92.7708E+06    -101.181E+06    -11.6873E+06    -20.4015E+06         44.6508
            1947     6.89565E-03     138.463E-03         2.61527    -808.493E-03        -1.44678        -1.11580         2.28429    -808.493E-03        -2.06050     310.450E-03    -149.248E-03    -161.201E-03    -160.141E-03     309.389E-03    -149.248E-03     44.5978E-03     6.21676E+06    -60.9948E+06    -104.041E+06    -82.7423E+06    -82.2935E+06     6.21676E+06    -21.2037E+06         45.1032
            1948     7.74583E-03     138.505E-03         2.60216    -831.751E-03        -1.43581        -1.33616         2.52045    -849.688E-03    -298.741E-03     315.796E-03    -150.709E-03    -165.087E-03    -163.988E-03     314.696E-03    -150.709E-03     45.8557E-03     21.5847E+06    -45.9964E+06    -91.5430E+06    -73.2712E+06    -64.2681E+06     21.5847E+06    -21.9551E+06         45.5983
            1949     8.59409E-03     138.546E-03         2.82444    -873.948E-03        -1.60502        -1.24599         2.48336    -891.884E-03         1.92982     321.056E-03    -152.254E-03    -168.802E-03    -167.712E-03     319.966E-03    -152.254E-03     46.0793E-03     35.4912E+06    -30.5306E+06    -78.9218E+06    -63.6251E+06    -45.8274E+06     35.4912E+06    -22.2073E+06         46.1412
            1950     9.43812E-03     138.588E-03         2.91057    -911.916E-03        -1.62241    -951.888E-03         2.24004    -911.916E-03         3.15078     325.907E-03    -153.836E-03    -172.070E-03    -171.017E-03     324.854E-03    -153.836E-03     45.6586E-03     48.3384E+06    -13.7342E+06    -65.7737E+06    -53.8909E+06    -25.6170E+06     48.3384E+06    -21.6198E+06         46.7729
            1951     10.2795E-03     138.626E-03         2.68946    -868.927E-03        -1.40627    -746.127E-03         2.06915    -908.769E-03         2.86915     329.900E-03    -155.394E-03    -174.506E-03    -173.497E-03     328.891E-03    -155.394E-03     44.9845E-03     60.2985E+06     7.82646E+06    -52.8693E+06    -44.3736E+06    -669.250E+03     60.2985E+06    -20.6585E+06         47.6251
            1952     11.1207E-03     138.665E-03         2.32233    -654.762E-03        -1.20497    -692.909E-03         2.05051    -895.000E-03         1.26222     333.529E-03    -156.890E-03    -176.639E-03    -175.670E-03     332.559E-03    -156.890E-03     44.3747E-03     71.2101E+06     34.9459E+06    -41.3895E+06    -35.6646E+06     29.2210E+06     71.2101E+06    -19.7418E+06         49.0238
            1953     11.9583E-03     138.704E-03         2.21569    -636.318E-03        -1.03944    -685.092E-03         2.10389    -878.865E-03    -817.975E-03     336.546E-03    -158.296E-03    -178.251E-03    -177.296E-03     335.591E-03    -158.296E-03     44.2697E-03     83.0899E+06     64.9602E+06    -31.2214E+06    -27.6890E+06     66.0532E+06     78.4645E+06    -17.7728E+06         51.6199
            1954     12.7968E-03     138.751E-03         2.49743    -819.945E-03        -1.03159    -672.544E-03         2.18053    -862.095E-03        -1.95606     338.534E-03    -159.623E-03    -178.910E-03    -177.971E-03     337.594E-03    -159.623E-03     44.0558E-03     86.0181E+06     80.2872E+06    -21.9429E+06    -20.0109E+06     82.9806E+06     81.3927E+06    -14.1129E+06         56.3742
            1955     13.6341E-03     138.798E-03         2.60614    -843.762E-03        -1.00377    -631.214E-03         2.23359    -843.762E-03        -2.17471     340.609E-03    -160.877E-03    -179.732E-03    -178.640E-03     339.517E-03    -160.877E-03     47.4706E-03     82.2822E+06      79.632E+06    -14.3052E+06    -13.1578E+06     79.2339E+06     81.5329E+06    -10.2466E+06         63.9139
            1956     14.4702E-03     138.860E-03         2.46749    -704.867E-03    -914.290E-03    -615.610E-03         2.28848    -824.532E-03        -1.31612     341.983E-03    -162.145E-03    -179.838E-03    -178.832E-03     340.977E-03    -162.145E-03     45.4004E-03     109.259E+06     92.9368E+06    -7.40893E+06    -6.96928E+06     93.2464E+06     108.510E+06    -5.74018E+06         72.7108
            1957     866.581E-06     139.570E-03         5.39598    -548.495E-03        -3.92040    -722.911E-03         2.19849    -548.495E-03         1.00277     286.492E-03    -142.981E-03    -143.511E-03    -143.410E-03     286.450E-03    -143.040E-03     7.74834E-03    -143.810E+06    -147.854E+06    -214.589E+06    -148.024E+06    -214.367E+06    -143.862E+06    -3.24240E+06         42.9650
            1958     1.73345E-03     139.586E-03         4.67942    -624.050E-03        -3.10765    -680.891E-03         2.25267    -624.050E-03         6.90622     286.884E-03    -143.248E-03    -143.636E-03    -143.448E-03     286.755E-03    -143.306E-03     14.5627E-03    -131.003E+06    -143.592E+06    -199.916E+06    -144.550E+06    -198.958E+06    -131.003E+06    -6.68287E+06         43.0458
            1959     2.59978E-03     139.609E-03         4.11674    -652.645E-03        -2.66834    -890.947E-03         2.33935    -652.645E-03         5.89328     288.304E-03    -143.569E-03    -144.735E-03    -144.469E-03     288.038E-03    -143.569E-03     21.2106E-03    -110.335E+06    -135.188E+06    -180.852E+06    -137.629E+06    -178.412E+06    -110.335E+06    -9.84785E+06         43.1812
            1960     3.46525E-03     139.642E-03         3.80768    -704.982E-03        -2.39527    -956.321E-03         2.36874    -704.982E-03         5.01845     290.421E-03    -144.050E-03    -146.371E-03    -145.922E-03     289.972E-03    -144.050E-03     27.8164E-03    -84.9466E+06    -123.979E+06    -160.926E+06    -129.028E+06    -155.877E+06    -84.9466E+06    -12.0876E+06         43.3756
            1961     4.32885E-03     139.680E-03         2.44165    -653.997E-03        -1.14098    -765.829E-03         2.14129    -728.784E-03         1.83415     293.087E-03    -144.683E-03    -148.403E-03    -147.743E-03     292.426E-03    -144.683E-03     34.0243E-03    -59.6369E+06    -110.132E+06    -142.856E+06    -119.684E+06    -133.305E+06    -59.6369E+06    -14.1867E+06         43.6335
            1962     5.19070E-03     139.723E-03         2.09427    -635.619E-03    -905.786E-03    -523.473E-03         1.78674    -710.405E-03    -708.806E-03     296.584E-03    -145.466E-03    -151.119E-03    -150.236E-03     295.702E-03    -145.466E-03     39.6216E-03    -36.5739E+06    -94.2658E+06    -128.602E+06    -110.147E+06    -112.721E+06    -36.5739E+06    -16.3641E+06         43.9588
            1963     6.05049E-03     139.771E-03         2.27531    -685.486E-03        -1.15579    -607.307E-03         1.72683    -685.486E-03        -2.50986     300.932E-03    -146.424E-03    -154.509E-03    -153.423E-03     299.847E-03    -146.424E-03     44.3718E-03    -16.3633E+06    -78.2145E+06    -116.789E+06    -100.720E+06    -94.2833E+06    -16.3633E+06    -18.3275E+06         44.3530
            1964     6.90767E-03     139.822E-03         2.49724    -704.472E-03        -1.45682        -1.13158         2.17200    -704.472E-03        -1.93148     306.230E-03    -147.584E-03    -158.647E-03    -157.408E-03     304.991E-03    -147.584E-03     47.9048E-03     2.12727E+06    -62.1244E+06    -104.840E+06    -90.7264E+06    -76.2381E+06     2.12727E+06    -19.5344E+06         44.8140
            1965     7.76088E-03     139.872E-03         2.84254    -780.515E-03        -1.75610        -1.70066         2.78710    -780.515E-03    -240.306E-03     312.529E-03    -148.965E-03    -163.564E-03    -162.221E-03     311.186E-03    -148.965E-03     50.4542E-03     18.2225E+06    -46.0847E+06    -93.2960E+06    -80.9506E+06    -58.4302E+06     18.2225E+06    -20.4684E+06         45.3378
            1966     8.60804E-03     139.922E-03         3.25724    -876.559E-03        -2.03960        -1.81743         3.03507    -876.559E-03         1.81390     318.662E-03    -150.531E-03    -168.131E-03    -166.754E-03     317.285E-03    -150.531E-03     51.6007E-03     32.0767E+06    -28.8671E+06    -82.9157E+06    -71.0911E+06    -40.6918E+06     32.0767E+06    -22.1018E+06         45.9275
            1967     9.45358E-03     139.970E-03         3.07151    -936.871E-03        -1.73460        -1.26705         2.60396    -936.871E-03         2.80727     324.194E-03    -152.194E-03    -172.000E-03    -170.656E-03     322.849E-03    -152.194E-03     51.4804E-03     44.6491E+06    -11.3688E+06    -71.5933E+06    -60.5557E+06    -22.4064E+06     44.6491E+06    -23.1299E+06         46.6191
            1968     10.2963E-03     140.016E-03         2.38982    -815.086E-03        -1.12432    -377.324E-03         1.75622    -928.486E-03         2.55310     329.769E-03    -153.903E-03    -175.866E-03    -174.616E-03     328.519E-03    -153.903E-03     50.1409E-03     56.9047E+06     9.97044E+06    -58.5134E+06    -49.7630E+06     1.22005E+06     56.9047E+06    -22.5900E+06         47.5364
            1969     11.1347E-03     140.060E-03         1.58078    -207.482E-03    -865.134E-03     195.425E-03         1.17787    -865.134E-03         1.19568     334.916E-03    -155.638E-03    -179.278E-03    -178.137E-03     333.774E-03    -155.638E-03     48.3676E-03     68.7508E+06     36.7721E+06    -45.4662E+06    -39.2340E+06     30.5399E+06     68.7508E+06    -21.4254E+06         48.9960
            1970     11.9711E-03     140.108E-03         1.33670     52.2912E-03    -788.947E-03     190.782E-03         1.19821    -788.947E-03    -569.468E-03     338.955E-03    -157.330E-03    -181.625E-03    -180.555E-03     337.885E-03    -157.330E-03     47.1290E-03     79.9512E+06     64.8751E+06    -33.6285E+06    -29.4832E+06     63.9001E+06     76.7808E+06    -19.5689E+06         51.6496
            1971     12.8046E-03     140.154E-03         1.90306    -424.554E-03    -738.521E-03    -58.7392E-03         1.52798    -729.253E-03        -1.67857     341.684E-03    -158.949E-03    -182.734E-03    -181.745E-03     340.694E-03    -158.949E-03     45.4982E-03     82.8670E+06     76.7464E+06    -23.3012E+06    -20.6908E+06     77.3064E+06     79.6966E+06    -16.1216E+06         56.4919
            1972     13.6397E-03     140.206E-03         2.32653    -683.563E-03    -744.080E-03    -329.736E-03         1.91991    -691.277E-03        -2.03159     343.767E-03    -160.467E-03    -183.300E-03    -182.177E-03     342.644E-03    -160.467E-03     48.4531E-03     79.3202E+06     73.1137E+06    -14.9324E+06    -13.5004E+06     71.6817E+06     79.3202E+06    -10.7104E+06         64.2358
            1973     14.4732E-03     140.271E-03         2.48206    -673.144E-03    -785.753E-03    -622.078E-03         2.31839    -673.144E-03        -1.27174     344.938E-03    -161.954E-03    -182.984E-03    -181.961E-03     343.915E-03    -161.954E-03     45.9859E-03     106.384E+06     85.1905E+06    -7.54461E+06    -7.15658E+06     84.8025E+06     106.384E+06    -5.21872E+06         73.3962
            1974     866.525E-06     140.901E-03         3.98672         1.11698        -4.09367     600.922E-03    -707.873E-03         1.11698     924.840E-03     286.434E-03    -142.936E-03    -143.499E-03    -143.111E-03     286.398E-03    -143.287E-03     7.25833E-03    -156.235E+06    -159.612E+06    -206.355E+06    -159.590E+06    -206.148E+06    -156.465E+06    -2.59813E+06         42.8820
            1975     1.73353E-03     140.916E-03         3.52845     612.827E-03        -3.23161    -400.287E-03     697.135E-03     612.827E-03         6.39368     286.696E-03    -143.202E-03    -143.495E-03    -143.313E-03     286.574E-03    -143.260E-03     14.0611E-03    -142.225E+06    -154.483E+06    -190.560E+06    -155.255E+06    -189.789E+06    -142.225E+06    -4.49756E+06         42.9413
            1976     2.59987E-03     140.942E-03         3.43577     125.596E-03        -2.75141        -1.32103         2.00540     125.596E-03         5.21390     287.368E-03    -143.405E-03    -143.964E-03    -143.702E-03     287.107E-03    -143.405E-03     20.9885E-03    -121.259E+06    -146.506E+06    -172.673E+06    -149.643E+06    -169.536E+06    -121.259E+06    -7.22564E+06         43.0444
            1977     3.46548E-03     140.975E-03         3.47627    -262.584E-03        -2.49993        -1.49987         2.47621    -262.584E-03         4.17825     288.481E-03    -143.648E-03    -144.834E-03    -144.389E-03     288.037E-03    -143.648E-03     27.5574E-03    -96.0216E+06    -132.736E+06    -156.963E+06    -141.555E+06    -148.144E+06    -96.0216E+06    -9.79241E+06         43.2009
            1978     4.33167E-03     141.017E-03         2.41626    -476.948E-03        -1.29958        -1.14962         2.26630    -476.948E-03         1.08085     290.415E-03    -144.013E-03    -146.402E-03    -145.741E-03     289.754E-03    -144.013E-03     33.8290E-03    -69.7471E+06    -115.527E+06    -142.266E+06    -131.610E+06    -126.183E+06    -69.7471E+06    -11.6230E+06         43.4211
            1979     5.19598E-03     141.065E-03         2.30089    -569.809E-03        -1.18944    -947.738E-03         2.05918    -569.809E-03        -1.13509     293.392E-03    -144.554E-03    -148.839E-03    -147.930E-03     292.483E-03    -144.554E-03     39.9560E-03    -44.7760E+06    -97.4817E+06    -129.415E+06    -121.189E+06    -105.708E+06    -44.7760E+06    -13.0530E+06         43.7144
            1980     6.05737E-03     141.118E-03         2.58372    -632.105E-03        -1.53621        -1.10342         2.15094    -632.105E-03        -2.46224     297.261E-03    -145.293E-03    -151.968E-03    -150.800E-03     296.093E-03    -145.293E-03     45.6885E-03    -22.5318E+06    -78.5098E+06    -118.445E+06    -110.620E+06    -86.3343E+06    -22.5318E+06    -15.2653E+06         44.0877
            1981     6.91642E-03     141.174E-03         2.60895    -706.765E-03        -1.59411        -1.36370         2.37854    -706.765E-03        -1.60549     302.248E-03    -146.248E-03    -156.000E-03    -154.606E-03     300.854E-03    -146.248E-03     50.4068E-03    -3.40431E+06    -60.2261E+06    -108.177E+06    -99.2775E+06    -69.1251E+06    -3.40431E+06    -18.3417E+06         44.5444
            1982     7.77186E-03     141.234E-03         2.57481    -786.405E-03        -1.51124        -1.46912         2.53270    -786.405E-03     27.8864E-03     308.343E-03    -147.450E-03    -160.893E-03    -159.327E-03     306.777E-03    -147.450E-03     54.0675E-03     13.7150E+06    -42.0951E+06    -96.9268E+06    -87.0647E+06    -51.9572E+06     13.7150E+06    -20.9721E+06         45.0853
            1983     8.62399E-03     141.294E-03         2.76830    -846.096E-03        -1.59553        -1.30395         2.47672    -846.096E-03         1.83401     315.285E-03    -148.905E-03    -166.380E-03    -164.750E-03     313.655E-03    -148.905E-03     55.9097E-03     28.7113E+06    -23.2964E+06    -85.6315E+06    -75.1269E+06    -33.8010E+06     28.7113E+06    -23.3123E+06         45.7149
            1984     9.47020E-03     141.349E-03         2.68217    -866.855E-03        -1.41135    -907.192E-03         2.17801    -866.855E-03         2.62024     322.731E-03    -150.600E-03    -172.132E-03    -170.552E-03     321.152E-03    -150.600E-03     55.8062E-03     41.9628E+06    -4.60652E+06    -74.9527E+06    -63.6635E+06    -15.8957E+06     41.9628E+06    -25.8033E+06         46.4632
            1985     10.3116E-03     141.405E-03         2.22463    -768.446E-03    -983.731E-03    -331.277E-03         1.64574    -842.005E-03         2.34580     329.996E-03    -152.479E-03    -177.517E-03    -176.065E-03     328.544E-03    -152.479E-03     54.1480E-03     54.0861E+06     15.5157E+06    -63.0064E+06    -51.8319E+06     4.34121E+06     54.0861E+06    -27.1965E+06         47.4412
            1986     11.1480E-03     141.460E-03         1.46823    -146.282E-03    -787.909E-03     224.870E-03         1.08697    -777.802E-03         1.30300     336.113E-03    -154.448E-03    -181.665E-03    -180.374E-03     334.822E-03    -154.448E-03     51.5838E-03     65.8483E+06     39.2772E+06    -48.8541E+06    -39.9617E+06     30.3848E+06     65.8483E+06    -26.0849E+06         48.9534
            1987     11.9818E-03     141.510E-03     990.546E-03     336.083E-03    -694.732E-03     482.859E-03     843.770E-03    -694.732E-03    -203.948E-03     340.865E-03    -156.393E-03    -184.472E-03    -183.283E-03     339.675E-03    -156.393E-03     49.9141E-03     77.3753E+06     64.9661E+06    -35.1840E+06    -29.7384E+06     62.0517E+06     74.8440E+06    -22.4512E+06         51.6528
            1988     12.8145E-03     141.566E-03         1.44752    -52.4568E-03    -621.218E-03     271.904E-03         1.12315    -621.218E-03        -1.22118     344.820E-03    -158.277E-03    -186.542E-03    -185.454E-03     343.731E-03    -158.277E-03     47.9891E-03     78.8885E+06     70.7010E+06    -25.0699E+06    -21.7301E+06     69.8925E+06     76.3573E+06    -17.7438E+06         56.5657
            1989     13.6435E-03     141.616E-03         2.02660    -481.011E-03    -620.119E-03    -189.960E-03         1.69235    -576.920E-03        -1.67292     347.275E-03    -160.059E-03    -187.215E-03    -186.052E-03     346.112E-03    -160.059E-03     49.6994E-03     74.4450E+06     63.7827E+06    -16.6735E+06    -14.6962E+06     61.8054E+06     74.4450E+06    -11.9864E+06         64.4902
            1990     14.4763E-03     141.685E-03         2.27661    -559.995E-03    -651.056E-03    -512.229E-03         2.13778    -559.995E-03        -1.09657     347.666E-03    -161.779E-03    -185.887E-03    -184.864E-03     346.643E-03    -161.779E-03     46.2019E-03     104.448E+06     76.5717E+06    -7.78334E+06    -7.20878E+06     75.9971E+06     104.448E+06    -5.79231E+06         74.0211
            1991     866.670E-06     142.233E-03         4.39364     166.281E-03        -3.38305     71.5264E-03     939.070E-03     166.281E-03     218.526E-03     286.827E-03    -143.110E-03    -143.718E-03    -143.222E-03     286.790E-03    -143.569E-03     7.43738E-03    -180.048E+06    -189.616E+06    -208.610E+06    -192.241E+06    -197.582E+06    -188.450E+06    -3.89194E+06         42.8721
            1992     1.73220E-03     142.248E-03         3.22290     68.1770E-03        -2.38911    -395.485E-03         1.30110    -3.65101E-03         5.01581     287.136E-03    -143.477E-03    -143.659E-03    -143.543E-03     287.020E-03    -143.477E-03     13.7381E-03    -164.927E+06    -177.404E+06    -196.617E+06    -184.981E+06    -182.742E+06    -171.225E+06    -5.78543E+06         42.9134
            1993     2.59885E-03     142.273E-03         2.65114    -111.353E-03        -1.79390    -541.711E-03         1.47078    -183.181E-03         3.81073     287.138E-03    -143.484E-03    -143.654E-03    -143.335E-03     286.893E-03    -143.558E-03     20.2898E-03    -141.798E+06    -158.661E+06    -181.362E+06    -174.605E+06    -161.684E+06    -145.532E+06    -7.76186E+06         42.9886
            1994     3.46625E-03     142.308E-03         2.42267    -202.792E-03        -1.55348    -645.175E-03         1.61136    -299.787E-03         2.72878     287.665E-03    -143.565E-03    -144.100E-03    -143.606E-03     287.245E-03    -143.639E-03     26.7206E-03    -114.964E+06    -136.357E+06    -166.985E+06    -161.928E+06    -140.690E+06    -115.688E+06    -10.2212E+06         43.1107
            1995     4.33175E-03     142.351E-03         1.82759    -292.417E-03    -936.483E-03    -805.579E-03         1.79368    -389.413E-03     177.320E-03     289.028E-03    -143.827E-03    -145.201E-03    -144.565E-03     288.392E-03    -143.827E-03     33.0955E-03    -85.4977E+06    -114.823E+06    -152.853E+06    -148.046E+06    -119.631E+06    -85.4977E+06    -12.2489E+06         43.2936
            1996     5.19677E-03     142.401E-03         2.22147    -481.157E-03        -1.24177        -1.09013         2.06983    -481.157E-03        -1.22756     291.072E-03    -144.157E-03    -146.915E-03    -146.033E-03     290.190E-03    -144.157E-03     39.1691E-03    -57.1344E+06    -94.3596E+06    -138.675E+06    -133.517E+06    -99.5182E+06    -57.1344E+06    -14.1167E+06         43.5510
            1997     6.06151E-03     142.458E-03         2.58360    -587.308E-03        -1.63852        -1.40346         2.34854    -587.308E-03        -1.89401     294.277E-03    -144.659E-03    -149.618E-03    -148.457E-03     293.116E-03    -144.659E-03     45.2654E-03    -31.0687E+06    -72.7442E+06    -124.067E+06    -118.336E+06    -78.4751E+06    -31.0687E+06    -16.1534E+06         43.8955
            1998     6.92300E-03     142.522E-03         2.50427    -690.429E-03        -1.56295        -1.47117         2.41249    -690.429E-03    -905.141E-03     298.874E-03    -145.389E-03    -153.485E-03    -152.048E-03     297.437E-03    -145.389E-03     50.8816E-03    -9.15760E+06    -51.9858E+06    -111.459E+06    -103.869E+06    -59.5761E+06    -9.15760E+06    -19.7689E+06         44.3356
            1999     7.78111E-03     142.589E-03         2.17906    -755.165E-03        -1.19215        -1.13150         2.11841    -755.165E-03     481.869E-03     304.677E-03    -146.391E-03    -158.287E-03    -156.647E-03     303.038E-03    -146.391E-03     54.9991E-03     9.23597E+06    -32.1500E+06    -100.154E+06    -89.7734E+06    -42.5306E+06     9.23597E+06    -24.4343E+06         44.8765
            2000     8.63495E-03     142.658E-03         2.10008    -762.008E-03        -1.04665    -600.741E-03         1.65418    -762.008E-03         1.91884     312.163E-03    -147.708E-03    -164.455E-03    -162.720E-03     310.428E-03    -147.708E-03     57.3981E-03     25.7939E+06    -12.4576E+06    -88.2074E+06    -75.3222E+06    -25.3428E+06     25.7939E+06    -28.4370E+06         45.5248
            2001     9.48256E-03     142.728E-03         1.99851    -679.516E-03    -939.437E-03    -229.260E-03         1.33353    -724.715E-03         2.40252     320.944E-03    -149.374E-03    -171.570E-03    -169.846E-03     319.219E-03    -149.374E-03     58.1611E-03     40.2563E+06     4.89593E+06    -75.6363E+06    -61.6323E+06    -9.10814E+06     40.2563E+06    -30.4602E+06         46.3068
            2002     10.3230E-03     142.794E-03         1.79702    -627.752E-03    -721.873E-03    -141.231E-03         1.26158    -672.951E-03         2.01707     329.324E-03    -151.323E-03    -178.000E-03    -176.360E-03     327.683E-03    -151.323E-03     57.5574E-03     52.8754E+06     22.7657E+06    -63.7806E+06    -50.0255E+06     9.01062E+06     52.8754E+06    -31.5535E+06         47.3246
            2003     11.1599E-03     142.858E-03         1.50816    -359.656E-03    -637.148E-03    -104.303E-03         1.23960    -623.936E-03         1.12090     336.620E-03    -153.428E-03    -183.192E-03    -181.723E-03     335.152E-03    -153.428E-03     55.0948E-03     63.6686E+06     42.0744E+06    -51.3871E+06    -39.6963E+06     30.3836E+06     63.6686E+06    -30.5763E+06         48.8723
            2004     11.9925E-03     142.917E-03         1.25197    -68.8928E-03    -577.745E-03     3.59609E-03         1.17948    -577.745E-03    -55.2182E-03     342.548E-03    -155.563E-03    -186.985E-03    -185.689E-03     341.252E-03    -155.563E-03     52.2999E-03     72.4749E+06     63.0547E+06    -36.9059E+06    -29.3378E+06     56.5331E+06     71.4284E+06    -25.9173E+06         51.6001
            2005     12.8221E-03     142.977E-03         1.38134    -100.030E-03    -533.958E-03     54.6078E-03         1.22670    -533.958E-03    -673.993E-03     346.916E-03    -157.662E-03    -189.254E-03    -188.093E-03     345.755E-03    -157.662E-03     49.8088E-03     73.9674E+06     64.0030E+06    -25.3318E+06    -20.8273E+06     60.5451E+06     72.9209E+06    -19.5449E+06         56.5698
            2006     13.6511E-03     143.036E-03         1.65981    -260.886E-03    -502.984E-03    -88.8873E-03         1.48404    -499.213E-03        -1.07774     349.963E-03    -159.652E-03    -190.311E-03    -189.105E-03     348.757E-03    -159.652E-03     50.9271E-03     71.0988E+06     54.6854E+06    -16.8741E+06    -14.1819E+06     51.9932E+06     71.0988E+06    -13.3472E+06         64.6873
            2007     14.4771E-03     143.101E-03         1.94082    -432.754E-03    -542.033E-03    -403.731E-03         1.85149    -481.725E-03    -760.851E-03     350.659E-03    -161.579E-03    -189.081E-03    -188.029E-03     349.607E-03    -161.579E-03     47.1833E-03     101.765E+06     66.8964E+06    -8.34984E+06    -7.41105E+06     65.9577E+06     101.765E+06    -7.04237E+06         74.6254
            2008     865.756E-06     143.565E-03         6.03532        -1.96619        -3.03860        -1.81672         4.90776        -2.06052     136.672E-03     287.743E-03    -143.707E-03    -144.037E-03    -143.768E-03     287.709E-03    -143.941E-03     7.17226E-03    -183.239E+06    -231.516E+06    -237.887E+06    -236.498E+06    -184.183E+06    -231.961E+06    -5.60023E+06         42.9554
            2009     1.73203E-03     143.581E-03         4.06433        -1.08181        -2.06078    -646.608E-03         3.26649        -1.69814         3.67108     287.804E-03    -143.813E-03    -143.991E-03    -143.795E-03     287.699E-03    -143.904E-03     13.0294E-03    -167.563E+06    -213.500E+06    -230.565E+06    -227.956E+06    -170.172E+06    -213.500E+06    -11.7533E+06         42.9853
            2010     2.59765E-03     143.605E-03         2.50753    -430.523E-03        -1.39177     319.341E-03         1.57059        -1.20469         2.47085     287.908E-03    -143.858E-03    -144.050E-03    -143.737E-03     287.692E-03    -143.955E-03     19.0287E-03    -146.693E+06    -185.433E+06    -217.461E+06    -213.303E+06    -150.851E+06    -185.433E+06    -16.5513E+06         43.0426
            2011     3.46348E-03     143.639E-03         1.82105    -286.990E-03    -972.620E-03     692.394E-03     654.589E-03    -785.542E-03         1.87236     288.134E-03    -143.910E-03    -144.224E-03    -143.735E-03     287.767E-03    -144.033E-03     24.9837E-03    -121.591E+06    -152.741E+06    -200.357E+06    -194.476E+06    -130.729E+06    -149.483E+06    -20.1188E+06         43.1399
            2012     4.33037E-03     143.684E-03         1.22486    -93.1067E-03    -631.082E-03     273.080E-03     759.731E-03    -532.136E-03     284.667E-03     288.791E-03    -144.095E-03    -144.696E-03    -144.083E-03     288.227E-03    -144.144E-03     31.0672E-03    -94.6149E+06    -120.418E+06    -180.425E+06    -172.492E+06    -111.286E+06    -111.679E+06    -23.3120E+06         43.2923
            2013     5.19649E-03     143.736E-03         1.49176    -263.147E-03    -811.932E-03    -466.789E-03         1.33925    -455.782E-03    -637.837E-03     290.439E-03    -144.346E-03    -146.093E-03    -145.300E-03     289.646E-03    -144.346E-03     37.0212E-03    -67.9100E+06    -89.7422E+06    -158.840E+06    -148.678E+06    -91.3330E+06     -76.481E+06    -26.0042E+06         43.5162
            2014     6.06063E-03     143.796E-03         1.86612    -487.475E-03        -1.09205    -974.015E-03         1.74808    -487.475E-03        -1.12942     293.153E-03    -144.713E-03    -148.440E-03    -147.403E-03     292.115E-03    -144.713E-03     42.6441E-03    -42.5434E+06    -62.0137E+06    -137.262E+06    -125.126E+06    -71.4587E+06    -45.2349E+06    -27.8761E+06         43.8257
            2015     6.92364E-03     143.865E-03         1.86277    -547.156E-03        -1.14893        -1.09930         1.81314    -547.156E-03    -304.591E-03     297.030E-03    -145.292E-03    -151.738E-03    -150.462E-03     295.754E-03    -145.292E-03     47.7053E-03    -17.5368E+06    -37.7636E+06    -116.525E+06    -103.206E+06    -51.0826E+06    -17.5368E+06    -29.1276E+06         44.2323
            2016     7.78363E-03     143.939E-03         1.71973    -586.024E-03    -993.853E-03    -900.991E-03         1.62687    -586.024E-03     811.550E-03     302.584E-03    -146.142E-03    -156.442E-03    -154.962E-03     301.104E-03    -146.142E-03     51.9879E-03     5.82569E+06    -17.2406E+06    -99.4946E+06    -84.6686E+06    -32.0666E+06     5.82569E+06    -31.4422E+06         44.7445
            2017     8.63840E-03     144.019E-03         1.78950    -587.310E-03    -988.799E-03    -534.592E-03         1.33529    -587.310E-03         1.91248     309.631E-03    -147.312E-03    -162.319E-03    -160.657E-03     307.969E-03    -147.312E-03     55.8898E-03     24.3416E+06    -205.068E+03    -86.8160E+06    -70.4083E+06    -16.6128E+06     24.3416E+06    -33.8830E+06         45.3721
            2018     9.48791E-03     144.101E-03         1.71354    -511.269E-03    -883.080E-03    -186.123E-03         1.06179    -556.468E-03         2.21260     317.826E-03    -148.808E-03    -169.018E-03    -167.236E-03     316.044E-03    -148.808E-03     58.8059E-03     39.5226E+06     14.3955E+06    -75.7896E+06    -58.2565E+06    -3.13767E+06     39.5226E+06    -35.6852E+06         46.1451
            2019     10.3322E-03     144.181E-03         1.49181    -466.396E-03    -624.930E-03    -42.7037E-03     954.788E-03    -511.595E-03         1.80987     326.944E-03    -150.617E-03    -176.327E-03    -174.544E-03     325.161E-03    -150.617E-03     59.7859E-03     53.3926E+06     30.3775E+06    -62.8817E+06    -46.1232E+06     13.6189E+06     53.3926E+06    -35.6697E+06         47.1662
            2020     11.1688E-03     144.256E-03         1.36474    -398.193E-03    -508.751E-03    -174.460E-03         1.10623    -473.971E-03     944.061E-03     336.097E-03    -152.695E-03    -183.402E-03    -181.748E-03     334.444E-03    -152.695E-03     58.4521E-03     63.8612E+06     44.1902E+06    -49.7139E+06    -35.1309E+06     29.6072E+06     63.8612E+06    -33.8625E+06         48.7219
            2021     12.0000E-03     144.327E-03         1.36080    -350.948E-03    -464.596E-03    -355.978E-03         1.35452    -453.280E-03    -29.9710E-03     343.826E-03    -154.933E-03    -188.892E-03    -187.464E-03     342.397E-03    -154.933E-03     54.9954E-03     69.4656E+06     56.3538E+06    -37.0096E+06    -26.6946E+06     46.0834E+06     69.4210E+06    -28.6167E+06         51.4562
            2022     12.8280E-03     144.392E-03         1.50810    -314.243E-03    -518.162E-03    -352.007E-03         1.46966    -441.960E-03    -427.127E-03     348.610E-03    -157.196E-03    -191.414E-03    -190.227E-03     347.423E-03    -157.196E-03     50.5045E-03     72.3228E+06     58.3498E+06    -25.1674E+06    -19.4814E+06     52.7084E+06     72.2782E+06    -20.9699E+06         56.4663
            2023     13.6549E-03     144.455E-03         1.58471    -280.646E-03    -498.165E-03    -283.751E-03         1.52043    -430.778E-03    -660.062E-03     351.255E-03    -159.328E-03    -191.928E-03    -190.749E-03     350.077E-03    -159.328E-03     50.4792E-03     70.1010E+06     47.3087E+06    -16.9691E+06    -13.0520E+06     43.3916E+06     70.1010E+06    -15.1011E+06         64.8006
            2024     14.4837E-03     144.524E-03         1.67157    -352.044E-03    -460.011E-03    -355.521E-03         1.63671    -421.670E-03    -400.579E-03     352.695E-03    -161.388E-03    -191.308E-03    -190.296E-03     351.683E-03    -161.388E-03     46.4124E-03     98.9470E+06     54.0671E+06    -8.50784E+06    -6.78674E+06     52.3460E+06     98.9470E+06    -7.76426E+06         75.2888
            2025     864.742E-06     144.900E-03         6.72604        -2.56042        -3.21909        -2.58928         6.19055        -2.65474    -260.107E-03     290.074E-03    -144.938E-03    -145.136E-03    -145.042E-03     290.047E-03    -145.005E-03     6.39951E-03    -160.502E+06    -231.595E+06    -235.970E+06    -233.758E+06    -162.268E+06    -232.041E+06    -9.78204E+06         43.1921
            2026     1.72971E-03     144.915E-03         4.46514        -1.40362        -2.33715        -1.08722         4.12195        -2.31037         2.68156     289.980E-03    -144.916E-03    -145.063E-03    -144.858E-03     289.903E-03    -145.045E-03     11.2274E-03    -142.250E+06    -213.850E+06    -230.429E+06    -225.692E+06    -146.986E+06    -213.850E+06    -18.6915E+06         43.2165
            2027     2.59533E-03     144.940E-03         2.76419    -525.575E-03        -1.68062     239.762E-03         1.99886        -1.68062         2.15578     290.106E-03    -144.945E-03    -145.161E-03    -144.859E-03     289.942E-03    -145.082E-03     16.5690E-03    -122.160E+06    -186.855E+06    -221.241E+06    -212.389E+06    -131.012E+06    -186.855E+06    -27.3168E+06         43.2642
            2028     3.46025E-03     144.974E-03         2.03005    -484.169E-03        -1.10802     907.502E-03     638.376E-03        -1.10802         2.24941     290.341E-03    -145.028E-03    -145.314E-03    -144.905E-03     290.057E-03    -145.153E-03     21.9623E-03    -99.6693E+06    -155.587E+06    -208.173E+06    -195.057E+06    -112.785E+06    -155.587E+06    -34.4737E+06         43.3457
            2029     4.32525E-03     145.017E-03         1.27669    -205.181E-03    -693.822E-03     949.994E-03     121.511E-03    -693.822E-03         1.11502     290.835E-03    -145.208E-03    -145.628E-03    -145.152E-03     290.409E-03    -145.256E-03     27.0334E-03    -78.9051E+06    -122.791E+06    -192.412E+06    -175.057E+06    -96.2599E+06    -122.791E+06    -40.2735E+06         43.4744
            2030     5.19056E-03     145.071E-03         1.01488    -228.452E-03    -492.522E-03     491.216E-03     254.561E-03    -451.871E-03     199.517E-03     292.197E-03    -145.438E-03    -146.760E-03    -146.162E-03     291.600E-03    -145.438E-03     32.1243E-03    -57.8697E+06    -90.8221E+06    -174.186E+06    -153.055E+06    -79.0002E+06    -90.8221E+06    -44.5493E+06         43.6645
            2031     6.05467E-03     145.135E-03     995.455E-03    -336.518E-03    -490.165E-03    -119.236E-03     640.536E-03    -352.527E-03    -531.963E-03     294.622E-03    -145.775E-03    -148.848E-03    -148.070E-03     293.845E-03    -145.775E-03     36.8306E-03    -37.0410E+06    -61.8190E+06    -154.928E+06    -130.551E+06    -62.1182E+06    -61.1191E+06    -47.4330E+06         43.9282
            2032     6.91664E-03     145.207E-03         1.00441    -338.241E-03    -602.363E-03    -529.109E-03     931.151E-03    -338.241E-03    -216.349E-03     297.873E-03    -146.306E-03    -151.567E-03    -150.608E-03     296.914E-03    -146.306E-03     41.2031E-03    -15.2075E+06    -35.5444E+06    -133.655E+06    -107.425E+06    -44.7279E+06    -32.2535E+06    -48.2278E+06         44.2757
            2033     7.77599E-03     145.288E-03         1.13522    -355.167E-03    -738.278E-03    -673.526E-03         1.07047    -355.167E-03     562.813E-03     302.041E-03    -147.040E-03    -155.001E-03    -153.840E-03     300.880E-03    -147.040E-03     45.8105E-03     5.35885E+06    -10.6144E+06    -110.667E+06    -84.7862E+06    -27.2953E+06    -3.84119E+06    -46.3363E+06         44.7189
            2034     8.63244E-03     145.376E-03         1.46923    -372.548E-03    -980.141E-03    -639.510E-03         1.12860    -372.548E-03         1.60184     307.505E-03    -147.992E-03    -159.513E-03    -158.127E-03     306.119E-03    -147.992E-03     50.6737E-03     23.4978E+06     9.75392E+06    -89.4555E+06    -64.9593E+06    -12.7891E+06     21.5446E+06    -43.1283E+06         45.2757
            2035     9.48552E-03     145.467E-03         1.61736    -380.214E-03        -1.01285    -534.687E-03         1.13920    -380.214E-03         1.99348     314.553E-03    -149.195E-03    -165.358E-03    -163.780E-03     312.975E-03    -149.195E-03     54.8486E-03     41.8619E+06     24.6656E+06    -71.9212E+06    -49.3227E+06     2.06709E+06     41.8619E+06    -40.6822E+06         45.9850
            2036     10.3325E-03     145.561E-03         1.45272    -377.974E-03    -759.792E-03    -391.429E-03         1.08435    -377.974E-03         1.57289     323.195E-03    -150.697E-03    -172.499E-03    -170.828E-03     321.525E-03    -150.697E-03     57.4035E-03     56.1082E+06     35.7655E+06    -58.8349E+06    -38.5031E+06     15.4337E+06     56.1082E+06    -38.7645E+06         46.9538
            2037     11.1731E-03     145.652E-03         1.24332    -341.851E-03    -510.195E-03    -298.399E-03         1.05907    -369.394E-03     854.602E-03     333.020E-03    -152.526E-03    -180.494E-03    -178.817E-03     331.343E-03    -152.526E-03     58.5826E-03     65.9180E+06     43.2784E+06    -47.4242E+06    -30.9457E+06     26.7999E+06     65.9180E+06    -34.8204E+06         48.4672
            2038     12.0057E-03     145.736E-03         1.20145    -334.062E-03    -394.098E-03    -338.816E-03         1.17371    -361.604E-03    -129.300E-03     342.598E-03    -154.642E-03    -187.956E-03    -186.402E-03     341.044E-03    -154.642E-03     57.2830E-03     71.6169E+06     48.3517E+06    -36.2634E+06    -24.2194E+06     36.3078E+06     71.6169E+06    -29.2391E+06         51.1715
            2039     12.8320E-03     145.811E-03         1.43178    -360.301E-03    -484.467E-03    -449.834E-03         1.39715    -360.301E-03    -480.342E-03     349.418E-03    -156.913E-03    -192.506E-03    -191.244E-03     348.157E-03    -156.913E-03     52.0604E-03     75.0139E+06     51.9467E+06    -24.6388E+06    -16.8642E+06     44.1721E+06     75.0139E+06    -22.6200E+06         56.2042
            2040     13.6575E-03     145.874E-03         1.61936    -364.172E-03    -544.423E-03    -497.985E-03         1.57292    -364.172E-03    -589.782E-03     352.749E-03    -159.129E-03    -193.620E-03    -192.458E-03     351.588E-03    -159.129E-03     50.3045E-03     70.2027E+06     38.8921E+06    -15.1717E+06    -10.5638E+06     34.2842E+06     70.2027E+06    -14.9724E+06         64.7687
            2041     14.4825E-03     145.946E-03         1.72018    -348.234E-03    -543.557E-03    -483.687E-03         1.68096    -368.889E-03    -215.701E-03     353.707E-03    -161.278E-03    -192.429E-03    -191.451E-03     352.729E-03    -161.278E-03     45.7206E-03     95.0092E+06     39.4856E+06    -8.15384E+06    -6.12289E+06     37.4547E+06     95.0092E+06    -7.02673E+06         75.9227
            2042     863.349E-06     146.238E-03         3.76609        -1.27372        -1.71194        -1.26834         3.32249        -1.27372    -450.183E-03     295.026E-03    -147.367E-03    -147.658E-03    -147.465E-03     295.011E-03    -147.546E-03     4.52025E-03    -125.069E+06    -173.742E+06    -180.157E+06    -175.744E+06    -129.482E+06    -173.742E+06    -14.0747E+06         43.6836
            2043     1.72642E-03     146.254E-03         2.89063    -821.728E-03        -1.53748    -936.866E-03         2.65226        -1.18397         1.81320     295.129E-03    -147.527E-03    -147.602E-03    -147.523E-03     295.088E-03    -147.564E-03     8.08306E-03    -105.966E+06    -159.011E+06    -178.915E+06    -169.174E+06    -115.707E+06    -159.011E+06    -23.9152E+06         43.7049
            2044     2.58921E-03     146.278E-03         2.37762    -556.523E-03        -1.46925    -485.791E-03         1.84687        -1.00923         2.16335     295.089E-03    -147.441E-03    -147.648E-03    -147.370E-03     295.005E-03    -147.635E-03     11.4988E-03    -85.9590E+06    -136.683E+06    -175.464E+06    -159.365E+06    -102.058E+06    -136.683E+06    -33.6689E+06         43.7447
            2045     3.45318E-03     146.312E-03         2.00044    -582.285E-03        -1.14323    -30.5695E-03         1.11007    -804.578E-03         2.51621     295.296E-03    -147.514E-03    -147.783E-03    -147.449E-03     295.151E-03    -147.701E-03     15.2279E-03    -64.6885E+06    -112.838E+06    -169.706E+06    -147.293E+06    -87.1022E+06    -112.838E+06    -42.4697E+06         43.8109
            2046     4.31620E-03     146.356E-03         1.34478    -433.569E-03    -694.950E-03     433.942E-03     374.188E-03    -591.865E-03         1.63605     296.148E-03    -147.808E-03    -148.340E-03    -148.084E-03     295.922E-03    -147.838E-03     19.1069E-03    -45.2017E+06    -89.8269E+06    -162.557E+06    -134.267E+06    -73.4916E+06    -89.8269E+06    -49.6112E+06         43.9121
            2047     5.17811E-03     146.410E-03     883.731E-03    -349.861E-03    -395.649E-03     644.108E-03    -110.237E-03    -395.649E-03     629.498E-03     297.408E-03    -148.083E-03    -149.325E-03    -149.003E-03     297.086E-03    -148.083E-03     23.0412E-03    -27.1810E+06    -67.6612E+06    -154.349E+06    -120.810E+06    -60.7199E+06    -67.6612E+06    -55.4107E+06         44.0562
            2048     6.03956E-03     146.477E-03     612.249E-03    -236.955E-03    -341.583E-03     431.154E-03    -141.164E-03    -256.279E-03    -330.678E-03     299.058E-03    -148.428E-03    -150.629E-03    -150.207E-03     298.636E-03    -148.428E-03     26.7040E-03    -9.79995E+06    -45.7368E+06    -144.040E+06    -106.432E+06    -47.4082E+06    -45.7368E+06    -59.6321E+06         44.2510
            2049     6.89907E-03     146.553E-03     517.562E-03    -194.744E-03    -369.871E-03    -59.4885E-03     207.179E-03    -194.744E-03    -286.848E-03     301.062E-03    -148.867E-03    -152.194E-03    -151.647E-03     300.515E-03    -148.867E-03     30.7337E-03     4.96095E+06    -24.3851E+06    -132.055E+06    -92.0953E+06    -34.9991E+06    -24.3851E+06    -61.7882E+06         44.5068
            2050     7.75774E-03     146.637E-03     683.103E-03    -196.767E-03    -534.784E-03    -489.027E-03     637.346E-03    -196.767E-03     302.307E-03     303.562E-03    -149.395E-03    -154.166E-03    -153.450E-03     302.846E-03    -149.395E-03     35.5092E-03     15.1641E+06    -4.13011E+06    -117.945E+06    -77.9873E+06    -24.7940E+06    -4.13011E+06    -60.6973E+06         44.8398
            2051     8.61561E-03     146.730E-03         1.13198    -231.628E-03    -888.336E-03    -720.254E-03     963.897E-03    -231.628E-03     954.061E-03     307.258E-03    -150.051E-03    -157.206E-03    -156.303E-03     306.354E-03    -150.051E-03     40.3246E-03     25.0645E+06     14.4311E+06    -99.7627E+06    -62.8829E+06    -14.0534E+06     16.6692E+06    -56.0920E+06         45.2744
            2052     9.46951E-03     146.830E-03         1.32630    -273.386E-03    -944.452E-03    -741.743E-03         1.12359    -273.386E-03         1.11317     312.385E-03    -150.899E-03    -161.486E-03    -160.395E-03     311.294E-03    -150.899E-03     44.9491E-03     40.0333E+06     29.5501E+06    -78.9834E+06    -47.9455E+06     317.210E+03     38.2283E+06    -49.5451E+06         45.8566
            2053     10.3196E-03     146.935E-03         1.23938    -305.808E-03    -728.864E-03    -625.322E-03         1.13583    -305.808E-03     681.495E-03     319.052E-03    -151.987E-03    -167.064E-03    -165.797E-03     317.784E-03    -151.987E-03     49.3254E-03     56.9119E+06     35.6769E+06    -60.2475E+06    -35.3849E+06     10.8142E+06     56.9119E+06    -41.9416E+06         46.6993
            2054     11.1647E-03     147.039E-03         1.08960    -313.154E-03    -481.715E-03    -407.394E-03         1.02333    -321.212E-03     230.771E-03     327.351E-03    -153.348E-03    -174.004E-03    -172.588E-03     325.936E-03    -153.348E-03     53.0877E-03     70.5886E+06     38.7949E+06    -44.0542E+06    -26.0913E+06     20.8320E+06     70.5886E+06    -33.7269E+06         48.0920
            2055     12.0037E-03     147.140E-03         1.02531    -275.822E-03    -342.224E-03    -247.359E-03     975.674E-03    -321.047E-03    -315.012E-03     336.887E-03    -155.007E-03    -181.880E-03    -180.407E-03     335.414E-03    -155.007E-03     55.1738E-03     78.1442E+06     41.3589E+06    -31.8697E+06    -19.8565E+06     29.3457E+06     78.1442E+06    -26.9448E+06         50.6948
            2056     12.8352E-03     147.229E-03         1.16669    -269.956E-03    -364.308E-03    -284.333E-03         1.13311    -316.345E-03    -393.347E-03     346.476E-03    -156.962E-03    -189.513E-03    -188.213E-03     345.175E-03    -156.962E-03     52.5941E-03     80.0454E+06     43.4925E+06    -24.0926E+06    -15.6567E+06     35.0566E+06     80.0454E+06    -22.1062E+06         55.7065
            2057     13.6594E-03     147.299E-03         1.48628    -309.402E-03    -520.336E-03    -472.769E-03         1.44793    -318.625E-03    -499.750E-03     353.048E-03    -159.084E-03    -193.965E-03    -192.818E-03     351.902E-03    -159.084E-03     50.0000E-03     71.5595E+06     27.2637E+06    -17.6486E+06    -10.7900E+06     20.4050E+06     71.5595E+06    -14.7061E+06         64.5093
            2058     14.4846E-03     147.370E-03         1.77855    -331.149E-03    -692.605E-03    -651.055E-03         1.73700    -331.149E-03    -195.481E-03     353.974E-03    -161.239E-03    -192.734E-03    -191.804E-03     353.044E-03    -161.239E-03     44.6699E-03     92.7448E+06     27.8600E+06    -8.00887E+06    -4.37086E+06     24.2220E+06     92.7448E+06    -5.53608E+06         76.3990
            2059     859.470E-06     147.585E-03         1.62283     271.994E-03        -1.59561     288.779E-03    -792.397E-03     802.833E-03     487.073E-03     304.570E-03    -152.130E-03    -152.440E-03    -152.255E-03     304.566E-03    -152.311E-03     1.62535E-03    -82.2513E+06    -106.409E+06    -118.345E+06    -110.201E+06    -90.3957E+06    -106.409E+06    -14.0718E+06         44.5500
            2060     1.71901E-03     147.602E-03         1.32977     6.85787E-03        -1.02546    -385.816E-03     322.908E-03     374.076E-03         1.11215     304.667E-03    -152.277E-03    -152.390E-03    -152.285E-03     304.656E-03    -152.371E-03     2.22044E-03    -63.7179E+06    -93.8724E+06    -121.884E+06    -105.479E+06    -80.1225E+06    -93.8724E+06    -25.2802E+06         44.5645
            2061     2.57859E-03     147.626E-03         1.35625    -67.3977E-03        -1.07156    -795.334E-03     951.991E-03     60.6372E-03         1.48173     304.835E-03    -152.309E-03    -152.526E-03    -152.332E-03     304.814E-03    -152.482E-03     2.94504E-03    -44.8798E+06    -76.9665E+06    -122.635E+06    -98.3870E+06    -69.1275E+06    -76.9665E+06    -35.3775E+06         44.5900
            2062     3.43738E-03     147.660E-03         1.36144    -130.645E-03        -1.10828    -680.303E-03     933.468E-03    -130.645E-03         1.84586     305.170E-03    -152.500E-03    -152.670E-03    -152.496E-03     305.135E-03    -152.640E-03     3.85331E-03    -26.4499E+06    -56.6592E+06    -121.033E+06    -89.6083E+06    -57.8748E+06    -56.6592E+06    -43.9924E+06         44.6290
            2063     4.29655E-03     147.704E-03         1.03182    -185.979E-03    -809.558E-03    -371.020E-03     604.974E-03    -197.669E-03         1.49372     305.785E-03    -152.714E-03    -153.071E-03    -152.876E-03     305.730E-03    -152.854E-03     5.14083E-03    -10.2882E+06    -36.0854E+06    -117.822E+06    -79.3356E+06    -48.7747E+06    -36.0854E+06    -51.0377E+06         44.6836
            2064     5.15475E-03     147.761E-03     673.720E-03    -176.371E-03    -538.842E-03    -90.8629E-03     240.744E-03    -191.375E-03     764.368E-03     306.391E-03    -152.683E-03    -153.708E-03    -153.204E-03     306.308E-03    -153.104E-03     7.03310E-03     3.84451E+06    -17.5443E+06    -112.628E+06    -69.4322E+06    -39.3515E+06    -17.5443E+06    -55.9086E+06         44.7557
            2065     6.01162E-03     147.828E-03     543.853E-03    -158.405E-03    -496.220E-03     4.46966E-03     46.4779E-03    -161.720E-03     118.934E-03     306.476E-03    -152.342E-03    -154.135E-03    -153.029E-03     306.360E-03    -153.331E-03     9.91122E-03     15.1481E+06    -1.54508E+06    -106.913E+06    -61.4889E+06    -30.2758E+06    -1.54508E+06    -58.8402E+06         44.8514
            2066     6.86969E-03     147.904E-03     509.589E-03    -152.514E-03    -505.380E-03    -240.086E-03     244.295E-03    -152.514E-03    -89.0460E-03     306.790E-03    -152.301E-03    -154.489E-03    -153.106E-03     306.621E-03    -153.515E-03     13.5561E-03     23.8611E+06     9.69061E+06    -101.216E+06    -55.8496E+06    -23.1091E+06     11.2940E+06    -59.4345E+06         44.9835
            2067     7.72729E-03     147.990E-03     733.795E-03    -187.094E-03    -694.492E-03    -654.372E-03     693.675E-03    -187.094E-03    -46.7147E-03     308.048E-03    -152.802E-03    -155.246E-03    -154.074E-03     307.804E-03    -153.730E-03     17.6695E-03     32.0577E+06     17.0899E+06    -95.8866E+06    -51.6256E+06    -17.0770E+06     21.9635E+06    -59.0002E+06         45.1694
            2068     8.58252E-03     148.087E-03         1.03809    -250.155E-03    -878.588E-03    -851.380E-03         1.01088    -250.155E-03     57.0460E-03     309.723E-03    -153.238E-03    -156.485E-03    -155.359E-03     309.385E-03    -154.025E-03     22.2198E-03     38.0649E+06     23.7229E+06    -90.3549E+06    -47.9309E+06    -12.2589E+06     31.6227E+06    -57.4179E+06         45.4330
            2069     9.43741E-03     148.191E-03     998.003E-03    -302.285E-03    -699.049E-03    -668.628E-03     970.125E-03    -304.829E-03     64.3863E-03     311.862E-03    -153.772E-03    -158.089E-03    -156.976E-03     311.388E-03    -154.412E-03     27.5743E-03     46.2534E+06     30.9075E+06    -79.9721E+06    -42.7427E+06    -4.51688E+06     44.4483E+06    -52.7220E+06         45.8232
            2070     10.2910E-03     148.302E-03     778.122E-03    -203.356E-03    -479.741E-03    -338.472E-03     761.772E-03    -328.275E-03    -85.5079E-03     315.415E-03    -154.705E-03    -160.709E-03    -159.839E-03     314.759E-03    -154.920E-03     33.7495E-03     59.0117E+06     32.8044E+06    -65.3776E+06    -34.9113E+06     2.33813E+06     59.0117E+06    -45.2854E+06         46.4596
            2071     11.1410E-03     148.417E-03     698.412E-03    -121.758E-03    -376.984E-03    -155.787E-03     681.064E-03    -325.607E-03    -124.775E-03     320.713E-03    -155.605E-03    -165.108E-03    -164.248E-03     319.853E-03    -155.605E-03     39.8606E-03     71.9683E+06     30.0045E+06    -48.1759E+06    -26.1961E+06     8.02463E+06     71.9683E+06    -34.9576E+06         47.6358
            2072     11.9874E-03     148.528E-03     769.983E-03    -156.472E-03    -313.123E-03    -120.892E-03     734.403E-03    -313.123E-03    -278.744E-03     328.044E-03    -156.543E-03    -171.501E-03    -170.460E-03     327.003E-03    -156.543E-03     45.0515E-03     83.4573E+06     30.7629E+06    -30.5431E+06    -18.7867E+06     19.0064E+06     83.4573E+06    -23.6470E+06         50.0215
            2073     12.8278E-03     148.635E-03     971.901E-03    -219.397E-03    -345.788E-03    -229.174E-03     939.686E-03    -303.796E-03    -104.670E-03     337.978E-03    -157.817E-03    -180.161E-03    -179.076E-03     336.893E-03    -157.817E-03     47.1774E-03     88.2654E+06     37.5270E+06    -19.8316E+06    -13.7359E+06     31.4313E+06     88.2654E+06    -17.4122E+06         54.8859
            2074     13.6588E-03     148.724E-03         1.27800    -296.030E-03    -474.303E-03    -433.091E-03         1.24601    -305.253E-03    -185.317E-03     347.680E-03    -159.449E-03    -188.231E-03    -187.230E-03     346.679E-03    -159.449E-03     46.1949E-03     75.2693E+06     19.2476E+06    -23.0786E+06    -11.2178E+06     7.38681E+06     75.2693E+06    -12.7784E+06         63.8780
            2075     14.4826E-03     148.794E-03         1.43375    -312.537E-03    -542.348E-03    -517.270E-03         1.41099    -314.849E-03    -143.618E-03     351.136E-03    -161.319E-03    -189.817E-03    -189.054E-03     350.372E-03    -161.319E-03     40.2733E-03     87.4817E+06     19.5837E+06    -16.4228E+06    -6.99441E+06     10.1553E+06     87.4817E+06    -5.58344E+06         76.7017
            2076     852.901E-06     148.952E-03         1.71702     308.108E-03        -1.94306     257.098E-03        -1.01398     838.946E-03    -149.818E-03     321.619E-03    -160.680E-03    -160.939E-03    -160.860E-03     321.606E-03    -160.746E-03    -3.17451E-03    -30.3218E+06    -38.3895E+06    -62.5914E+06    -40.9023E+06    -52.0109E+06    -38.3895E+06    -12.5040E+06         45.8228
            2077     1.70544E-03     148.966E-03         1.34513     143.777E-03        -1.37825     420.953E-03    -821.285E-03     510.995E-03    -655.174E-03     321.493E-03    -160.604E-03    -160.889E-03    -160.563E-03     321.452E-03    -160.889E-03    -6.87280E-03    -16.9638E+06    -27.3243E+06    -65.9049E+06    -37.7033E+06    -45.1654E+06    -27.3243E+06    -22.3410E+06         45.8215
            2078     2.55819E-03     148.991E-03     941.583E-03     320.121E-03        -1.20698     240.474E-03    -633.911E-03     448.156E-03     151.559E-03     321.562E-03    -160.566E-03    -160.996E-03    -160.520E-03     321.485E-03    -160.965E-03    -9.71918E-03    -2.91930E+06    -14.4510E+06    -68.4385E+06    -34.2236E+06    -37.1342E+06    -14.4510E+06    -31.3874E+06         45.8183
            2079     3.41030E-03     149.025E-03     794.664E-03     361.613E-03        -1.21214    -75.3270E-03    -343.585E-03     363.048E-03     835.291E-03     321.923E-03    -160.764E-03    -161.159E-03    -160.674E-03     321.802E-03    -161.128E-03    -12.2860E-03     10.4801E+06    -1.51032E+06    -69.7296E+06    -30.6379E+06    -29.7005E+06    -421.269E+03    -38.7193E+06         45.8110
            2080     4.26149E-03     149.070E-03     671.284E-03     215.393E-03        -1.04137    -339.797E-03    -75.4345E-03     260.539E-03         1.26034     321.551E-03    -160.248E-03    -161.303E-03    -160.083E-03     321.386E-03    -161.303E-03    -14.3244E-03     21.9795E+06     9.27041E+06    -71.2205E+06    -28.2830E+06    -25.6739E+06     13.9863E+06    -43.7415E+06         45.7963
            2081     5.11298E-03     149.126E-03     717.676E-03     98.7867E-03        -1.03735    -735.322E-03     371.941E-03     142.498E-03         1.14070     320.201E-03    -158.856E-03    -161.344E-03    -158.662E-03     320.006E-03    -161.344E-03    -15.1599E-03     31.9995E+06     17.4827E+06    -70.9828E+06    -27.0954E+06    -21.1149E+06     26.7096E+06    -46.5171E+06         45.7751
            2082     5.96680E-03     149.191E-03         1.07542    -4.96849E-03        -1.30415        -1.20031     971.585E-03    -4.96849E-03     644.871E-03     318.714E-03    -157.469E-03    -161.245E-03    -157.242E-03     318.488E-03    -161.245E-03    -15.1094E-03     40.0700E+06     23.9495E+06    -69.2988E+06    -26.5026E+06    -16.7038E+06     37.9271E+06    -47.2076E+06         45.7547
            2083     6.82109E-03     149.266E-03         1.37676    -167.432E-03        -1.43379        -1.42679         1.36975    -167.432E-03     4.29258E-03     317.571E-03    -156.484E-03    -161.087E-03    -156.236E-03     317.323E-03    -161.087E-03    -14.1217E-03     48.3988E+06     27.6783E+06    -66.7216E+06    -25.9083E+06    -12.8679E+06     48.1317E+06    -46.6901E+06         45.7456
            2084     7.67487E-03     149.353E-03         1.35755    -305.100E-03        -1.26114        -1.22784         1.32424    -305.100E-03    -412.929E-03     316.535E-03    -155.618E-03    -160.917E-03    -155.368E-03     316.285E-03    -160.917E-03    -11.9884E-03     57.4275E+06     28.9743E+06    -63.1289E+06    -25.2676E+06    -8.88712E+06     57.4275E+06    -45.1800E+06         45.7606
            2085     8.52926E-03     149.449E-03     970.893E-03    -311.664E-03    -853.313E-03    -718.790E-03     909.185E-03    -384.479E-03    -509.554E-03     315.300E-03    -154.574E-03    -160.725E-03    -154.336E-03     315.061E-03    -160.725E-03    -8.49147E-03     65.4538E+06     30.0033E+06    -60.3922E+06    -25.2031E+06    -5.18580E+06     65.4538E+06    -44.0267E+06         45.8213
            2086     9.38437E-03     149.552E-03     612.952E-03    -257.976E-03    -513.054E-03    -200.189E-03     443.075E-03    -400.964E-03    -227.436E-03     314.172E-03    -153.680E-03    -160.492E-03    -153.456E-03     313.948E-03    -160.492E-03    -3.34410E-03     69.9282E+06     27.6365E+06    -58.7260E+06    -26.1803E+06    -4.90918E+06     69.9282E+06    -41.8242E+06         45.9772
            2087     10.2396E-03     149.666E-03     467.823E-03    -165.873E-03    -373.878E-03     151.014E-03     150.936E-03    -373.878E-03     33.5383E-03     313.547E-03    -153.046E-03    -160.501E-03    -153.082E-03     313.319E-03    -160.238E-03     3.42246E-03     72.8137E+06     23.8778E+06    -54.3442E+06    -27.9931E+06    -2.47327E+06     72.8137E+06    -36.7516E+06         46.3483
            2088     11.0957E-03     149.783E-03     546.678E-03    -118.186E-03    -369.680E-03     202.746E-03     187.438E-03    -331.372E-03     459.587E-03     314.373E-03    -152.842E-03    -161.531E-03    -154.068E-03     314.101E-03    -160.033E-03     11.6681E-03     76.9684E+06     20.2413E+06    -48.5790E+06    -27.0734E+06    -1.26437E+06     76.9684E+06    -31.6970E+06         47.2247
            2089     11.9496E-03     149.905E-03     782.472E-03    -187.826E-03    -403.600E-03    -83.6635E-03     575.900E-03    -301.190E-03     455.935E-03     317.580E-03    -153.652E-03    -163.928E-03    -157.221E-03     317.201E-03    -159.980E-03     20.9976E-03     84.6100E+06     18.1712E+06    -36.5238E+06    -21.1245E+06     2.77197E+06     84.6100E+06    -23.8644E+06         49.2696
            2090     12.7998E-03     150.023E-03         1.03247    -256.975E-03    -501.189E-03    -394.151E-03     963.443E-03    -294.985E-03     480.664E-03     323.522E-03    -155.708E-03    -167.815E-03    -162.790E-03     322.963E-03    -160.173E-03     30.7723E-03     93.5623E+06     30.6664E+06    -19.3073E+06    -13.2736E+06     24.6327E+06     93.5623E+06    -14.3172E+06         53.7977
            2091     13.6439E-03     150.133E-03         1.08992    -300.951E-03    -489.193E-03    -420.931E-03         1.02166    -300.951E-03     110.617E-03     332.890E-03    -159.089E-03    -173.801E-03    -171.417E-03     332.158E-03    -160.741E-03     38.0758E-03     83.4410E+06     20.1717E+06    -25.6757E+06    -6.40700E+06     902.929E+03     83.4410E+06    -8.61939E+06         62.7311
            2092     14.4809E-03     150.214E-03     950.410E-03    -286.126E-03    -349.500E-03    -285.127E-03     903.272E-03    -303.361E-03    -72.7654E-03     341.099E-03    -161.757E-03    -179.343E-03    -178.732E-03     340.489E-03    -161.757E-03     35.0940E-03     84.6005E+06     17.3014E+06    -19.6340E+06    -1.32860E+06    -1.00404E+06     84.6005E+06    -4.39704E+06         76.5028
            2093     841.306E-06     150.345E-03         1.94099    -145.611E-03        -1.11535     95.0080E-03     730.630E-03    -145.611E-03     556.305E-03     348.117E-03    -173.724E-03    -174.393E-03    -174.004E-03     348.065E-03    -174.061E-03    -9.43445E-03     29.5729E+06     26.8585E+06    -23.6729E+06     25.7148E+06    -20.9355E+06     27.9792E+06    -8.95881E+06         47.1601
            2094     1.68318E-03     150.361E-03         1.22210     104.412E-03        -1.16755     622.364E-03    -567.819E-03     104.412E-03    -620.891E-03     347.589E-03    -173.518E-03    -174.071E-03    -173.366E-03     347.437E-03    -174.071E-03    -16.8696E-03     33.3764E+06     28.9043E+06    -23.9565E+06     23.8274E+06    -17.5914E+06     32.0881E+06    -14.5987E+06         47.1376
            2095     2.52487E-03     150.383E-03     925.667E-03     302.208E-03        -1.44614     721.320E-03        -1.24180     302.208E-03     161.198E-03     347.309E-03    -173.270E-03    -174.039E-03    -172.956E-03     346.995E-03    -174.039E-03    -24.4543E-03     40.3659E+06     31.8747E+06    -24.1856E+06     21.3933E+06    -13.2239E+06     39.8856E+06    -19.3563E+06         47.0973
            2096     3.36678E-03     150.419E-03     520.022E-03     322.118E-03        -1.26961     400.696E-03        -1.19844     370.279E-03    -74.0668E-03     346.200E-03    -172.204E-03    -173.997E-03    -171.697E-03     345.694E-03    -173.997E-03    -31.1385E-03     49.0972E+06     32.8123E+06    -24.7993E+06     17.8557E+06    -9.75059E+06     49.0052E+06    -22.6090E+06         47.0355
            2097     4.20843E-03     150.463E-03     438.436E-03     224.399E-03        -1.15169    -174.427E-03    -630.703E-03     316.270E-03     25.3748E-03     344.352E-03    -170.536E-03    -173.816E-03    -169.823E-03     343.640E-03    -173.816E-03    -36.7931E-03     58.2728E+06     31.3908E+06    -26.9912E+06     13.4004E+06    -9.00086E+06     58.2728E+06    -24.4485E+06         46.9516
            2098     5.05321E-03     150.513E-03     750.142E-03     124.078E-03        -1.27126    -887.486E-03     322.661E-03     167.789E-03     30.2692E-03     342.016E-03    -168.520E-03    -173.496E-03    -167.564E-03     341.060E-03    -173.496E-03    -42.0380E-03     67.2511E+06     29.2963E+06    -28.9117E+06     8.78390E+06    -8.39931E+06     67.2511E+06    -25.6254E+06         46.8487
            2099     5.89840E-03     150.575E-03         1.31573    -34.6945E-03        -1.53528        -1.46596         1.24642    -34.6945E-03     54.9134E-03     339.598E-03    -166.512E-03    -173.086E-03    -165.301E-03     338.387E-03    -173.086E-03    -46.8677E-03     76.3685E+06     27.1491E+06    -29.1132E+06     4.98880E+06    -6.95295E+06     76.3685E+06    -25.9630E+06         46.7305
            2100     6.74411E-03     150.647E-03         1.67836    -231.552E-03        -1.60963        -1.60208         1.67081    -231.552E-03    -20.9204E-03     336.701E-03    -164.091E-03    -172.610E-03    -162.635E-03     335.246E-03    -172.610E-03    -50.6769E-03     85.3572E+06     25.1548E+06    -28.6494E+06     1.82757E+06    -5.32221E+06     85.3572E+06    -25.6804E+06         46.5998
            2101     7.59203E-03     150.730E-03         1.42103    -367.375E-03        -1.24997        -1.22383         1.39489    -367.375E-03    -36.6750E-03     332.608E-03    -160.607E-03    -172.001E-03    -158.940E-03     330.941E-03    -172.001E-03    -53.0552E-03     92.0502E+06     22.7984E+06    -28.1953E+06    -1.66502E+06    -3.73197E+06     92.0502E+06    -24.7548E+06         46.4641
            2102     8.44334E-03     150.820E-03     783.761E-03    -348.923E-03    -767.912E-03    -614.954E-03     703.618E-03    -421.738E-03    -71.9018E-03     328.066E-03    -156.847E-03    -171.220E-03    -155.042E-03     326.262E-03    -171.220E-03    -53.6241E-03     96.3244E+06     20.2138E+06    -27.0593E+06    -4.98135E+06    -1.86423E+06     96.3244E+06    -22.7459E+06         46.3444
            2103     9.29657E-03     150.922E-03     307.262E-03    -250.724E-03    -488.557E-03    -125.983E-03     107.467E-03    -413.502E-03     151.918E-03     323.400E-03    -153.104E-03    -170.296E-03    -151.228E-03     321.524E-03    -170.296E-03    -52.4402E-03      98.187E+06     16.4567E+06    -27.2475E+06    -8.38089E+06    -2.40999E+06      98.187E+06    -20.9860E+06         46.2897
            2104     10.1533E-03     151.028E-03     210.496E-03    -214.088E-03    -376.688E-03     108.878E-03    -112.470E-03    -376.688E-03     219.649E-03     318.316E-03    -149.082E-03    -169.234E-03    -147.218E-03     316.453E-03    -169.234E-03    -49.1820E-03     97.3026E+06     12.6549E+06    -27.7805E+06    -10.7205E+06    -4.40517E+06     97.3026E+06    -18.4414E+06         46.4135
            2105     11.0131E-03     151.144E-03     417.595E-03    -219.240E-03    -376.916E-03     116.220E-03     43.8263E-03    -338.608E-03     520.784E-03     313.322E-03    -145.275E-03    -168.047E-03    -143.540E-03     311.587E-03    -168.047E-03    -43.1183E-03     96.2983E+06     15.4943E+06    -26.6198E+06    -11.6172E+06     491.741E+03     96.2983E+06    -17.7058E+06         46.9940
            2106     11.8763E-03     151.264E-03     660.122E-03    -167.285E-03    -414.463E-03     5.61009E-03     384.818E-03    -312.054E-03     641.948E-03     309.142E-03    -142.357E-03    -166.784E-03    -140.844E-03     307.628E-03    -166.784E-03    -33.9532E-03     90.9395E+06     10.6303E+06    -28.9784E+06    -12.6117E+06    -5.73642E+06     90.9395E+06    -15.8788E+06         48.6781
            2107     12.7416E-03     151.388E-03     809.850E-03    -92.5219E-03    -459.989E-03    -93.2630E-03     646.378E-03    -295.776E-03     586.099E-03     306.612E-03    -141.086E-03    -165.526E-03    -139.840E-03     305.366E-03    -165.526E-03    -21.2966E-03     92.4489E+06     20.5961E+06    -21.8874E+06    -11.5335E+06     10.2421E+06     92.4489E+06    -10.0747E+06         52.7886
            2108     13.6091E-03     151.504E-03     731.592E-03    -66.5799E-03    -389.445E-03    -77.0026E-03     633.975E-03    -281.406E-03     214.490E-03     307.857E-03    -142.099E-03    -165.757E-03    -142.566E-03     306.974E-03    -164.408E-03    -5.23977E-03     84.3536E+06     17.9392E+06    -25.7695E+06    -7.10374E+06    -726.512E+03     84.3536E+06    -4.77080E+06         61.3921
            2109     14.4666E-03     151.614E-03     549.865E-03    -140.305E-03    -293.964E-03    -34.7635E-03     415.197E-03    -264.838E-03     169.028E-03     311.190E-03    -142.908E-03    -168.282E-03    -147.230E-03     310.772E-03    -163.543E-03     6.95872E-03     73.4957E+06     13.2432E+06    -21.0882E+06    -2.55179E+06    -5.29316E+06     73.4957E+06    -3.08385E+06         75.4668


