********************************************************************************
Field Output Report, written Tue May  6 13:38:00 2025

Source 1
---------

   ODB: D:/AISI_1020/Vel_40/aisi_1020_2a_40_red_150_cal_10_vel_40_fric_0100.odb
   Step: Step-1
   Frame: Increment   1946587: Step Time =   0.2030

Loc 1 : Nodal values from source 1

Output sorted by column "Node Label".

Field Output reported at nodes for region: DIE_2A_40_D0_36-1.Region_1
   Computation algorithm: EXTRAPOLATE_COMPUTE_AVERAGE
   Averaged at nodes
   Averaging regions: ODB_REGIONS

      Node Label     COORD.COOR1     COORD.COOR2
                          @Loc 1          @Loc 1
-------------------------------------------------
               1     23.7940E-03     115.558E-03


Field Output reported at nodes for region: DIE_2A_40_D0_36-1.Region_2
   Computation algorithm: EXTRAPOLATE_COMPUTE_AVERAGE
   Averaged at nodes
   Averaging regions: ODB_REGIONS

      Node Label     COORD.COOR1     COORD.COOR2
                          @Loc 1          @Loc 1
-------------------------------------------------
               1     23.7940E-03     115.558E-03


Field Output reported at nodes for part: WIRE_1-1
   Computation algorithm: EXTRAPOLATE_COMPUTE_AVERAGE
   Averaged at nodes
   Averaging regions: ODB_REGIONS

      Node Label     COORD.COOR1     COORD.COOR2    ER.Max. Prin    ER.Mid. Prin    ER.Min. Prin         ER.ER11         ER.ER22         ER.ER33         ER.ER12    PE.Max. Prin    PE.Mid. Prin    PE.Min. Prin         PE.PE11         PE.PE22         PE.PE33         PE.PE12     S.Max. Prin     S.Mid. Prin     S.Min. Prin           S.S11           S.S22           S.S33           S.S12            TEMP
                          @Loc 1          @Loc 1          @Loc 1          @Loc 1          @Loc 1          @Loc 1          @Loc 1          @Loc 1          @Loc 1          @Loc 1          @Loc 1          @Loc 1          @Loc 1          @Loc 1          @Loc 1          @Loc 1          @Loc 1          @Loc 1          @Loc 1          @Loc 1          @Loc 1          @Loc 1          @Loc 1          @Loc 1
-----------------------------------------------------------------------------------------------------------------------------------------------------------------------------------------------------------------------------------------------------------------------------------------------------------------------------------------------------------------------------------------------------------------
               1     17.6946E-03     58.7600E-03         2.44803    -663.127E-03    -779.679E-03    -614.123E-03         2.39903    -779.679E-03     774.160E-03     553.627E-03    -18.9706E-03    -534.656E-03    -205.704E-03     224.675E-03    -18.9706E-03     999.515E-03     192.544E+06     186.844E+06     3.30464E+06     3.75341E+06     186.395E+06     192.544E+06    -2.48963E+06         91.5000
               2    -949.971E-09     56.7561E-03         25.6581        -3.04746        -21.7857     435.156E-03         3.43721        -3.04746        -47.3484     37.6944E-03    -18.3198E-03    -19.3746E-03    -18.6607E-03     37.6901E-03    -19.0294E-03     650.854E-06     1.90070E+06    -4.60806E+06    -191.983E+06    -776.995E+03    -191.933E+06    -1.98062E+06     49.0595E+03         22.7481
               3     2.06045E-06     97.1445E-18         1.25828    -597.759E-03        -1.07812    -614.105E-03        -1.06177         1.25828    -174.183E-03     38.8347E-03    -19.2545E-03    -19.5802E-03    -19.5784E-03     38.8329E-03    -19.2545E-03    -652.119E-06    -41.5622E+06    -44.5319E+06    -230.283E+06    -44.6052E+06    -230.209E+06    -41.5622E+06    -3.68965E+06         24.2928
               4     17.6443E-03     97.1445E-18     771.277E-03     76.2139E-03    -356.567E-03    -356.555E-03     771.265E-03     76.2139E-03    -7.51288E-03     238.284E-03    -15.5681E-03    -222.716E-03    -199.980E-03     215.548E-03    -15.5681E-03     199.643E-03     163.695E+06     141.569E+06     15.0296E+06     15.5255E+06     163.199E+06     141.569E+06     8.57266E+06         47.6800
               5     17.3103E-03     115.004E-03     92.0503E-03    -32.7880E-03    -106.946E-03     88.9268E-03    -103.823E-03    -32.7880E-03     49.4698E-03     17.0765E-03     13.6722E-03    -30.7487E-03     15.0201E-03     15.7286E-03    -30.7487E-03     3.32973E-03    -7.33036E+06    -15.6136E+06    -148.154E+06    -7.91146E+06    -15.0325E+06    -148.154E+06     2.11559E+06         31.3975
               6     6.95962E-06     113.407E-03     567.603E-03    -206.084E-03    -274.359E-03    -186.309E-03     547.828E-03    -274.359E-03     244.203E-03     25.1438E-03    -10.9715E-03    -14.1723E-03    -14.1467E-03     25.1182E-03    -10.9715E-03    -2.00679E-03     50.8859E+06       34.85E+06    -5.24396E+06     32.9514E+06    -3.34536E+06     50.8859E+06    -8.51574E+06         21.4239
               7     16.7145E-03     57.4369E-03         2.49034    -706.925E-03    -804.869E-03    -515.870E-03         2.25962    -765.201E-03         1.48946     381.149E-03    -18.5772E-03    -362.572E-03    -120.369E-03     138.946E-03    -18.5772E-03     694.159E-03     159.865E+06     124.876E+06    -7.25335E+06    -6.65377E+06     156.415E+06     127.727E+06     2.55930E+06         84.8646
               8     15.7262E-03     57.0418E-03         2.72189    -758.555E-03        -1.03669    -345.600E-03         2.03080    -758.555E-03         2.85947     137.222E-03    -18.1389E-03    -119.083E-03    -24.8111E-03     42.9500E-03    -18.1389E-03     245.833E-03     106.456E+06     48.5543E+06    -19.1040E+06    -18.2349E+06     105.587E+06     48.5543E+06     8.06506E+06         69.1479
               9     14.7352E-03     56.9367E-03         3.02721    -783.439E-03        -1.36146    -233.365E-03         1.89911    -783.439E-03         3.82880     54.3842E-03    -17.9519E-03    -36.4323E-03    -15.6078E-03     33.5597E-03    -17.9519E-03     73.9889E-03     71.3534E+06     6.60606E+06    -31.4676E+06    -21.2758E+06     70.6529E+06    -2.88525E+06     1.52668E+06         52.1110
              10     13.7520E-03     56.8978E-03         3.22289    -822.706E-03        -1.54923    -177.456E-03         1.85112    -822.706E-03         4.31838     41.7115E-03    -17.7989E-03    -23.9126E-03    -16.6158E-03     34.4148E-03    -17.7989E-03     41.1100E-03     60.3424E+06    -21.2617E+06    -41.9304E+06    -22.3232E+06     60.1197E+06    -40.6461E+06    -2.47831E+06         38.9378
              11     12.7694E-03     56.8596E-03         3.19409    -871.651E-03        -1.48766    -159.581E-03         1.86602    -871.651E-03         4.21862     38.7109E-03    -17.8170E-03    -20.8939E-03    -17.0141E-03     34.8311E-03    -17.8170E-03     28.2390E-03     38.8506E+06    -21.1175E+06    -45.1737E+06    -20.8998E+06     38.6329E+06    -45.1737E+06     1.63838E+06         30.9244
              12     11.7850E-03     56.8434E-03         2.99354    -929.129E-03        -1.23301    -179.475E-03         1.94001    -929.129E-03         3.65012     36.8150E-03    -17.9191E-03    -18.8959E-03    -17.4779E-03     35.3999E-03    -17.9220E-03     17.4249E-03    -1.28825E+06    -26.0818E+06    -43.1263E+06    -18.7487E+06    -8.73997E+06    -43.0077E+06     2.51339E+06         26.8169
              13     10.8035E-03     56.8278E-03         2.61421    -713.272E-03        -1.06865    -237.070E-03         2.06317    -993.811E-03         2.38753     36.5859E-03    -18.0761E-03    -18.5099E-03    -17.5918E-03     35.6707E-03    -18.0790E-03     14.0021E-03    -15.4389E+06    -28.6201E+06    -55.0011E+06    -15.7553E+06    -51.9218E+06    -31.3830E+06     941.367E+03         24.9179
              14     9.81988E-03     56.8159E-03         2.33422    -443.443E-03        -1.06338    -341.288E-03         2.23206        -1.06338     857.876E-03     36.6326E-03    -18.1910E-03    -18.4415E-03    -17.7802E-03     35.9712E-03    -18.1910E-03     11.9802E-03    -13.6205E+06    -27.5616E+06    -84.6368E+06    -13.6695E+06    -84.5878E+06    -27.5616E+06    -1.51911E+06         24.0504
              15     8.83788E-03     56.8053E-03         2.71058    -755.782E-03        -1.13526    -474.210E-03         2.42901        -1.13526        -1.26579     36.8126E-03    -18.2713E-03    -18.5413E-03    -18.0379E-03     36.3092E-03    -18.2713E-03     10.4578E-03    -13.3728E+06    -27.9055E+06    -111.699E+06    -13.4306E+06    -111.641E+06    -27.9055E+06    -1.97313E+06         23.6143
              16     7.85584E-03     56.7957E-03         3.20376        -1.16662        -1.22325    -635.904E-03         2.65650        -1.20670        -2.89688     36.9757E-03    -18.3593E-03    -18.6164E-03    -18.2180E-03     36.5869E-03    -18.3689E-03     9.25675E-03    -12.0018E+06    -21.8750E+06    -135.816E+06    -12.0290E+06    -135.789E+06    -21.8750E+06    -480.366E+03         23.3561
              17     6.87334E-03     56.7874E-03         4.19006        -1.27608        -2.09637    -790.529E-03         2.88421        -1.27608        -4.97650     37.0515E-03    -18.4248E-03    -18.6267E-03    -18.3025E-03     36.7369E-03    -18.4344E-03     8.30500E-03    -9.24075E+06    -17.9578E+06    -150.246E+06    -9.26323E+06    -150.223E+06    -17.9578E+06    -224.926E+03         23.1793
              18     5.89109E-03     56.7788E-03         4.52448        -1.34170        -2.34503    -958.989E-03         3.13843        -1.34170        -5.37900     37.0502E-03    -18.4825E-03    -18.5677E-03    -18.3459E-03     36.8319E-03    -18.4859E-03     6.91681E-03    -7.47058E+06    -16.6089E+06    -161.209E+06    -7.49626E+06    -161.183E+06    -16.6089E+06    -449.925E+03         23.0484
              19     4.90925E-03     56.7736E-03         5.42136        -1.40349        -3.17054        -1.09576         3.34659        -1.40349        -7.12375     37.1750E-03    -18.5562E-03    -18.6187E-03    -18.4501E-03     37.0180E-03    -18.5680E-03     5.89559E-03    -4.57176E+06    -10.6092E+06    -174.613E+06    -4.95277E+06    -174.586E+06    -10.2553E+06     709.094E+03         22.9488
              20     3.92714E-03     56.7670E-03         5.32201        -1.44675        -3.02299        -1.27894         3.58675        -1.45553        -5.18001     37.3297E-03    -18.6206E-03    -18.7091E-03    -18.5920E-03     37.2209E-03    -18.6289E-03     4.88453E-03    -3.03934E+06    -6.51530E+06    -187.640E+06    -3.40399E+06    -187.629E+06    -6.16138E+06     1.01797E+06         22.8734
              21     2.94541E-03     56.7634E-03         6.63095        -1.49251        -4.30238        -1.35493         3.69229        -1.50129        -7.86511     37.3513E-03    -18.6016E-03    -18.7496E-03    -18.6287E-03     37.2895E-03    -18.6608E-03     3.67155E-03    -3.12846E+06    -5.87101E+06    -194.546E+06    -4.47078E+06    -194.540E+06    -4.53440E+06    -8.69118E+03         22.8175
              22     1.96399E-03     56.7593E-03         9.49464        -1.50966        -7.14065        -1.57152         3.92551        -1.50966    -180.751E-03     37.2910E-03    -18.5296E-03    -18.7615E-03    -18.5510E-03     37.2623E-03    -18.7113E-03     2.43933E-03    -2.46344E+06    -5.69133E+06    -195.826E+06    -5.71823E+06    -195.799E+06    -2.46344E+06    -1.04820E+06         22.7789
              23     980.907E-06     56.7578E-03         17.5917        -2.27070        -14.4697    -717.336E-03         3.83928        -2.27070        -15.9311     37.4680E-03    -18.4090E-03    -19.0590E-03    -18.5724E-03     37.4588E-03    -18.8864E-03     1.20937E-03    -179.175E+03    -5.32484E+06    -193.628E+06    -3.43353E+06    -193.579E+06    -2.11984E+06    -767.856E+03         22.7559
              24     1.66127E-06     55.7184E-03         29.4124        -2.38668        -26.2501     80.0158E-03         3.08230        -2.38668        -55.5806     36.6546E-03    -18.0629E-03    -18.5917E-03    -18.5876E-03     36.6505E-03    -18.0629E-03     626.484E-06    -10.2211E+06    -15.4522E+06    -201.594E+06    -12.8735E+06    -201.569E+06    -12.8248E+06    -1.41209E+06         22.7371
              25    -1.34656E-06     54.6849E-03         32.5732        -1.75745        -30.0901    -189.899E-03         2.67302        -1.75745        -62.5976     36.0960E-03    -17.6704E-03    -18.4256E-03    -17.8491E-03     36.0910E-03    -18.2420E-03     973.110E-06    -13.3773E+06    -17.5008E+06    -202.167E+06    -14.9001E+06    -202.164E+06    -15.9810E+06     617.666E+03         22.7219
              26     239.604E-09     53.6473E-03         35.0631        -1.09697        -33.2359    -395.251E-03         2.22245        -1.09697        -68.2483     36.8684E-03    -17.8801E-03    -18.9882E-03    -18.4158E-03     36.8675E-03    -18.4517E-03     259.999E-06    -7.21338E+06    -12.6871E+06    -197.085E+06    -8.74538E+06    -197.073E+06    -11.1673E+06    -445.287E+03         22.7034
              27     757.854E-09     52.6112E-03         36.8264    -573.162E-03        -35.5770    -449.422E-03         1.69886    -573.162E-03        -72.3708     36.5529E-03    -17.9273E-03    -18.6256E-03    -18.4631E-03     36.5522E-03    -18.0891E-03     234.174E-06    -6.41964E+06    -16.1301E+06    -199.680E+06    -12.1863E+06    -199.670E+06    -10.3735E+06    -1.18911E+06         22.6830
              28    -1.00351E-06     51.5750E-03         37.9269    -75.1861E-03        -37.2075    -469.443E-03         1.18882    -75.1861E-03        -75.1157     35.7858E-03    -17.7831E-03    -18.0026E-03    -17.7798E-03     35.7824E-03    -18.0026E-03     806.684E-06    -13.5354E+06    -20.7619E+06    -207.398E+06    -19.4931E+06    -207.197E+06    -15.0053E+06    -4.63816E+06         22.6641
              29     864.432E-09     50.5387E-03         38.3371     417.073E-03        -38.1808    -486.760E-03     643.031E-03     417.073E-03        -76.5089     35.5789E-03    -17.5063E-03    -18.0727E-03    -18.0106E-03     35.5746E-03    -17.5640E-03     957.767E-06    -8.43651E+06    -10.7192E+06    -200.282E+06    -8.64967E+06    -200.068E+06    -10.7192E+06    -5.49709E+06         22.6528
              30     119.130E-09     49.5051E-03         38.2496     759.655E-03        -38.4836    -367.451E-03     133.402E-03     759.655E-03        -76.7309     35.0903E-03    -17.0439E-03    -18.0464E-03    -17.5488E-03     35.0865E-03    -17.5377E-03     892.921E-06    -10.4899E+06    -13.5608E+06    -202.217E+06    -10.5635E+06    -202.143E+06    -13.5608E+06     1.32809E+06         22.6539
              31    -1.12555E-06     48.4693E-03         37.7061         1.03584        -38.2187    -221.584E-03    -290.961E-03         1.03584        -75.9244     35.5555E-03    -17.3816E-03    -18.1738E-03    -17.6764E-03     35.5517E-03    -17.8754E-03     886.705E-06    -9.87377E+06    -13.9123E+06    -201.966E+06    -10.1672E+06    -201.673E+06    -13.9123E+06     7.13187E+06         22.6679
              32     1.68566E-06     47.4347E-03         36.6377         1.18834        -37.3566    -80.6662E-03    -638.259E-03         1.18834        -73.9918     36.5057E-03    -18.0188E-03    -18.4868E-03    -18.4851E-03     36.5040E-03    -18.0188E-03     492.537E-06    -4.72845E+06    -12.0086E+06    -195.819E+06    -10.4615E+06    -195.586E+06    -6.50885E+06     4.43789E+06         22.6896
              33    -1.28040E-06     46.3973E-03         35.0951         1.09281        -35.7146     210.401E-03    -829.851E-03         1.09281        -70.8015     36.4694E-03    -17.8599E-03    -18.6095E-03    -18.0270E-03     36.4669E-03    -18.4399E-03     584.696E-06    -2.34526E+06    -12.2034E+06    -194.230E+06    -7.84647E+06    -194.229E+06    -6.70364E+06    -20.9428E+03         22.7115
              34     76.9039E-09     45.3617E-03         33.0406     866.751E-03        -33.4324     471.844E-03    -863.632E-03     866.751E-03        -66.4594     37.1832E-03    -17.9231E-03    -19.2601E-03    -18.6728E-03     37.1760E-03    -18.5031E-03     1.26071E-03    -1.53049E+06    -9.18988E+06    -191.186E+06    -4.83617E+06    -191.181E+06    -5.88887E+06    -356.278E+03         22.7280
              35     1.44200E-06     44.3218E-03         30.3855     502.456E-03        -30.5056     674.578E-03    -794.645E-03     502.456E-03        -60.8732     37.5025E-03    -18.3381E-03    -19.1643E-03    -19.0854E-03     37.4927E-03    -18.4074E-03     1.48285E-03    -5.16943E+06    -8.56659E+06    -190.993E+06    -8.48749E+06    -190.976E+06    -5.26558E+06     493.615E+03         22.7367
              36    -1.59126E-06     43.2875E-03         27.3255    -84.2987E-03        -26.8457         1.02334    -543.486E-03    -84.2987E-03        -54.1484     36.5402E-03    -18.0521E-03    -18.4881E-03    -18.0471E-03     36.5352E-03    -18.4881E-03     680.158E-06    -9.35434E+06    -12.4247E+06    -195.880E+06    -9.36879E+06    -195.865E+06    -12.4247E+06     728.406E+03         22.7388
              37     827.791E-09     42.2507E-03         23.9235    -719.340E-03        -22.8153         1.29727    -189.059E-03    -719.340E-03        -46.7151     36.4990E-03    -17.7834E-03    -18.7156E-03    -18.3472E-03     36.4973E-03    -18.1501E-03     370.330E-06    -9.01441E+06    -18.0572E+06    -199.427E+06    -15.1181E+06    -199.392E+06    -11.9887E+06    -2.11156E+06         22.7384
              38     356.860E-09     41.2146E-03         20.2302        -1.41730        -18.5208         1.49475     214.679E-03        -1.41730        -38.7298     36.7324E-03    -17.9166E-03    -18.8158E-03    -18.4804E-03     36.7307E-03    -18.2503E-03     477.383E-06     1.65643E+06    -10.6340E+06    -191.750E+06    -4.48374E+06    -191.678E+06    -4.56551E+06    -3.66259E+06         22.7399
              39    -1.09869E-06     40.1786E-03         16.4943        -2.28056        -13.9075         1.85759     729.143E-03        -2.28056        -30.3806     36.9375E-03    -18.1672E-03    -18.7704E-03    -18.4361E-03     36.9371E-03    -18.5009E-03     263.515E-06    -3.06771E+06    -11.7666E+06    -195.227E+06    -5.76375E+06    -195.008E+06    -9.28964E+06     2.17274E+06         22.7466
              40     1.65858E-06     39.1402E-03         12.6974        -3.12571        -9.27300         2.21646         1.20791        -3.12571        -21.9469     37.2304E-03    -18.3913E-03    -18.8391E-03    -18.6551E-03     37.2248E-03    -18.5697E-03     977.192E-06    -10.2612E+06    -13.1806E+06    -200.026E+06    -12.9193E+06    -199.845E+06    -10.7037E+06     4.01210E+06         22.7586
              41    -2.02847E-06     38.1035E-03         8.87034        -2.98073        -5.63998         2.53012         1.61493        -3.89540        -13.5619     37.5397E-03    -18.5689E-03    -18.9708E-03    -18.5624E-03     37.5332E-03    -18.9708E-03     1.14516E-03    -1.31915E+06    -2.95364E+06    -191.273E+06    -1.32059E+06    -191.271E+06    -2.95364E+06    -442.926E+03         22.7725
              42     1.56827E-06     37.0668E-03         5.31508    -371.138E-03        -4.68484         3.00667         1.93727        -4.68484        -5.44144     38.1670E-03    -18.8976E-03    -19.2693E-03    -19.0442E-03     38.1654E-03    -19.1212E-03     573.048E-06    -3.89757E+06    -5.78617E+06    -195.665E+06    -4.64264E+06    -195.617E+06    -5.08955E+06    -2.48584E+06         22.7837
              43    -1.27018E-06     36.0274E-03         4.74126     848.556E-03        -5.35759         3.49596         2.09386        -5.35759         2.06883     38.0440E-03    -18.8966E-03    -19.1474E-03    -19.0416E-03     38.0409E-03    -18.9993E-03     755.602E-06    -8.04787E+06    -9.24610E+06    -198.600E+06    -9.30381E+06    -198.542E+06    -8.04787E+06    -3.12119E+06         22.7887
              44     1.06656E-06     34.9901E-03         7.52804        -1.53238        -5.84222         3.91247         2.08319        -5.84222         8.86375     37.9031E-03    -18.7568E-03    -19.1463E-03    -19.0377E-03     37.8972E-03    -18.8595E-03     1.15768E-03    -5.98427E+06    -7.84228E+06    -196.738E+06    -6.49673E+06    -196.727E+06    -7.34067E+06    -1.13976E+06         22.7865
              45    -531.368E-09     33.9523E-03         10.6640        -4.29539        -6.26473         4.43627         1.93231        -6.26473         14.7483     37.6660E-03    -18.4954E-03    -19.1706E-03    -18.7785E-03     37.6623E-03    -18.8838E-03     870.144E-06    -9.44832E+06    -10.8521E+06    -201.286E+06    -9.46231E+06    -201.272E+06    -10.8521E+06     1.00386E+06         22.7779
              46    -237.432E-09     32.9153E-03         13.1877        -6.07802        -7.04662         4.96404         1.64362        -6.54464         19.4867     37.1174E-03    -18.1416E-03    -18.9758E-03    -18.5836E-03     37.1136E-03    -18.5299E-03     867.154E-06    -9.93557E+06    -11.7416E+06    -200.074E+06    -11.7148E+06    -200.053E+06    -9.98295E+06     351.760E+03         22.7652
              47     1.12583E-06     31.8777E-03         15.0636        -6.63601        -8.43409         5.39698         1.23257        -6.63601         23.1252     36.9276E-03    -18.1943E-03    -18.7334E-03    -18.6319E-03     36.9194E-03    -18.2875E-03     1.33877E-03    -2.08008E+06    -5.03573E+06    -193.158E+06    -3.85433E+06    -193.142E+06    -3.27707E+06     128.816E+03         22.7524
              48    -1.33904E-06     30.8426E-03         16.3768        -6.68933        -9.74754         5.85668     772.556E-03        -6.68933         25.6232     37.0697E-03    -18.4650E-03    -18.6048E-03    -18.4598E-03     37.0646E-03    -18.6048E-03     830.696E-06    -2.04429E+06    -4.64963E+06    -193.271E+06    -3.53319E+06    -193.190E+06    -3.24129E+06    -1.66927E+06         22.7434
              49     1.26366E-06     29.8049E-03         17.0511        -6.66329        -10.4780         6.26820     304.872E-03        -6.66329         26.8736     37.1065E-03    -18.4449E-03    -18.6616E-03    -18.6114E-03     37.1028E-03    -18.4914E-03     709.138E-06    -11.3657E+06    -13.0160E+06    -201.087E+06    -12.8460E+06    -201.015E+06    -11.6077E+06    -2.44441E+06         22.7394
              50    -942.055E-09     28.7673E-03         17.0993        -6.49285        -10.7553         6.49453    -150.590E-03        -6.49285         27.0486     36.6058E-03    -18.1893E-03    -18.4165E-03    -18.3509E-03     36.5972E-03    -18.2463E-03     1.36935E-03    -11.1324E+06    -11.5728E+06    -201.074E+06    -11.1868E+06    -201.019E+06    -11.5728E+06     2.41969E+06         22.7388
              51     815.670E-09     27.7320E-03         16.6937        -6.33998        -10.5453         6.67633    -527.979E-03        -6.33998         26.2654     36.5124E-03    -18.1752E-03    -18.3372E-03    -18.2731E-03     36.5054E-03    -18.2323E-03     1.21570E-03    -3.76026E+06    -4.96499E+06    -194.168E+06    -4.83738E+06    -194.097E+06    -3.95866E+06     1.02373E+06         22.7380
              52    -601.820E-09     26.6960E-03         15.8122        -6.18092        -9.87388         6.77226    -833.917E-03        -6.18092         24.5301     36.9614E-03    -18.3932E-03    -18.5682E-03    -18.4934E-03     36.9567E-03    -18.4633E-03     1.02669E-03    -2.63461E+06    -5.59809E+06    -193.544E+06    -3.67034E+06    -193.515E+06    -4.59176E+06    -2.35692E+06         22.7333
              53     431.313E-09     25.6584E-03         14.4789        -5.90262        -8.91633         6.62358        -1.06100        -5.90262         22.0935     37.1543E-03    -18.4982E-03    -18.6562E-03    -18.4950E-03     37.1512E-03    -18.6562E-03     763.029E-06    -5.73723E+06    -7.90400E+06    -195.515E+06    -5.97961E+06    -195.482E+06    -7.69437E+06    -2.47509E+06         22.7222
              54    -601.976E-09     24.6221E-03         12.8977        -5.63096        -7.67735         6.40620        -1.18585        -5.63096         19.1149     36.6049E-03    -18.1847E-03    -18.4202E-03    -18.3273E-03     36.5999E-03    -18.2726E-03     923.084E-06    -10.0391E+06    -11.4166E+06    -200.079E+06    -10.2705E+06    -200.057E+06    -11.2070E+06    -948.583E+03         22.7047
              55     865.681E-09     23.5841E-03         11.1618        -5.36080        -6.21183         6.13079        -1.18084        -5.36080         15.7515     35.9869E-03    -17.7832E-03    -18.2038E-03    -18.1979E-03     35.9811E-03    -17.7832E-03     1.07088E-03    -7.39613E+06    -12.9641E+06    -199.403E+06    -11.8405E+06    -199.358E+06    -8.56402E+06    -1.55321E+06         22.6828
              56    -274.507E-09     22.5526E-03         9.29532        -4.64545        -5.13947         5.65283        -1.12388        -5.01855         12.3081     35.8191E-03    -17.7311E-03    -18.0879E-03    -18.0012E-03     35.8161E-03    -17.8149E-03     792.398E-06    -8.81121E+06    -16.4160E+06    -200.305E+06    -13.2542E+06    -200.262E+06    -12.0159E+06    -1.77563E+06         22.6585
              57     62.5043E-09     21.5126E-03         7.49882        -3.33449        -4.70933         5.11876    -954.432E-03        -4.70933         8.95076     35.4647E-03    -17.6418E-03    -17.8229E-03    -17.7361E-03     35.4618E-03    -17.7256E-03     791.485E-06    -17.2569E+06    -21.3213E+06    -206.398E+06    -18.1252E+06    -206.389E+06    -20.4616E+06     1.07100E+06         22.6315
              58     134.862E-09     20.4813E-03         5.87951        -1.99518        -4.43728         4.58693    -702.596E-03        -4.43728         5.78504     34.8912E-03    -17.2886E-03    -17.6026E-03    -17.3786E-03     34.8839E-03    -17.5053E-03     1.15204E-03    -11.9560E+06    -13.6828E+06    -202.065E+06    -12.8389E+06    -202.042E+06    -12.8232E+06     2.07927E+06         22.5979
              59    -586.005E-09     19.4438E-03         4.40049    -907.780E-03        -4.10191         3.90129    -408.574E-03        -4.10191         3.01826     34.5031E-03    -17.0292E-03    -17.4739E-03    -17.2494E-03     34.4953E-03    -17.2459E-03     1.21443E-03    -5.20437E+06    -7.16053E+06    -197.159E+06    -6.31108E+06    -197.141E+06    -6.07156E+06     1.71062E+06         22.5506
              60     1.04221E-06     18.4120E-03         3.31162    -131.499E-03        -3.79382         3.20833    -28.2043E-03        -3.79382     735.736E-03     33.9680E-03    -16.8200E-03    -17.1480E-03    -17.1404E-03     33.9604E-03    -16.8200E-03     1.19410E-03    -4.30090E+06    -7.93508E+06    -193.626E+06    -7.93905E+06    -193.622E+06    -4.30090E+06     167.681E+03         22.4814
              61    -825.111E-09     17.3776E-03         2.78279     163.684E-03        -3.54136         2.57033     376.138E-03        -3.54136        -1.06905     32.8739E-03    -16.2288E-03    -16.6451E-03    -16.3229E-03     32.8679E-03    -16.5450E-03     644.238E-06    -903.534E+03    -9.24350E+06    -191.099E+06    -3.46440E+06    -191.083E+06    -6.69829E+06     838.750E+03         22.3836
              62     121.881E-09     16.3471E-03         2.64670    -14.6605E-03        -3.23135         1.83602     796.017E-03        -3.23135        -2.33651     31.1766E-03    -15.2809E-03    -15.8958E-03    -15.5792E-03     31.1763E-03    -15.5970E-03    -264.189E-06     1.55902E+06    -10.3233E+06    -192.932E+06    -4.56556E+06    -192.895E+06    -4.23573E+06    -266.343E+03         22.2551
              63     546.444E-09     15.3168E-03         2.74049    -403.360E-03        -2.95394         1.15390         1.18323        -2.95394        -3.10629     28.7881E-03    -14.2212E-03    -14.5670E-03    -14.5197E-03     28.7879E-03    -14.2682E-03    -199.656E-06    -1.05139E+06    -11.5290E+06    -196.247E+06    -7.16210E+06    -196.224E+06    -5.44140E+06    -1.67016E+06         22.0989
              64    -701.018E-09     14.2901E-03         2.88289    -743.896E-03        -2.74489     599.606E-03         1.53939        -2.74489        -3.48147     25.9937E-03    -12.8888E-03    -13.1049E-03    -12.8885E-03     25.9934E-03    -13.1049E-03    -196.864E-06     106.520E+03    -6.45852E+06    -193.632E+06    -2.06903E+06    -193.632E+06    -4.28350E+06    -222.223E+03         21.9224
              65     391.975E-09     13.2659E-03         2.91820        -1.06061        -2.48821     37.9779E-03         1.81962        -2.48821        -3.53618     22.9778E-03    -11.3322E-03    -11.6455E-03    -11.4748E-03     22.9761E-03    -11.5013E-03    -433.588E-06     3.05775E+06    -2.44640E+06    -189.612E+06     861.613E+03    -189.591E+06    -271.381E+03     1.42678E+06         21.7368
              66    -157.086E-09     12.2454E-03         2.88699        -1.28166        -2.25063    -418.166E-03         2.02349        -2.25063        -3.36774     19.6473E-03    -9.63508E-03    -10.0123E-03    -9.77756E-03     19.6456E-03    -9.86802E-03    -439.409E-06     7.66973E+06     1.80451E+06    -185.149E+06     5.08692E+06    -185.102E+06     4.34060E+06     2.97715E+06         21.5574
              67    -274.887E-09     11.2282E-03         2.82042        -1.36249        -2.06425    -689.804E-03         2.14773        -2.06425        -3.06461     16.6933E-03    -8.18232E-03    -8.51098E-03    -8.27149E-03     16.6868E-03    -8.41526E-03    -676.226E-06     5.27175E+06     1.40864E+06    -182.673E+06     2.64819E+06    -182.585E+06     3.94473E+06    -817.199E+03         21.4009
              68     431.366E-09     10.2144E-03         2.67496        -1.46016        -1.81140    -937.592E-03         2.15239        -1.81140        -2.74228     14.5179E-03    -7.17716E-03    -7.34076E-03    -7.33425E-03     14.5114E-03    -7.17716E-03    -653.534E-06     5.47842E+06     1.13039E+06    -182.822E+06     2.35317E+06    -182.717E+06     4.15140E+06    -373.479E+03         21.2833
              69    -259.115E-09     9.20019E-03         2.44556        -1.47425        -1.55780        -1.09022         2.03942        -1.53569        -2.39350     12.9897E-03    -6.40446E-03    -6.58524E-03    -6.47201E-03     12.9894E-03    -6.51735E-03    -121.439E-06     16.4800E+06     11.7718E+06    -176.545E+06     13.3923E+06    -176.478E+06     14.7928E+06     3.52060E+06         21.2189
              70     8.41529E-09     8.18980E-03         2.14526        -1.28027        -1.39983        -1.07454         1.81998        -1.28027        -2.04672     12.3483E-03    -6.08400E-03    -6.26427E-03    -6.08294E-03     12.3472E-03    -6.26427E-03     192.331E-06     15.7618E+06     11.4950E+06    -174.971E+06     13.0481E+06    -174.836E+06     14.0746E+06    -1.66224E+06         21.2191
              71    -111.776E-09     7.17730E-03         1.76647    -937.006E-03        -1.34848        -1.06604         1.48404    -937.006E-03        -1.78884     12.8554E-03    -6.37204E-03    -6.48338E-03    -6.36666E-03     12.8500E-03    -6.48338E-03     613.618E-06     9.84123E+06     2.85210E+06    -182.054E+06     7.13524E+06    -181.928E+06      5.4317E+06    -4.44943E+06         21.2894
              72    -49.3840E-09     6.16554E-03         1.30151    -542.044E-03        -1.26747        -1.01733         1.05137    -542.044E-03        -1.52198     14.8039E-03    -7.31871E-03    -7.48524E-03    -7.31014E-03     14.7954E-03    -7.48524E-03     869.356E-06     4.10160E+06    -4.89717E+06    -188.713E+06    -544.937E+03    -188.656E+06    -307.930E+03    -3.19427E+06         21.4311
              73    -145.799E-09     5.15007E-03     814.518E-03    -175.132E-03        -1.10833    -868.930E-03     575.116E-03    -175.132E-03        -1.26311     18.3506E-03    -9.05308E-03    -9.29751E-03    -9.16925E-03     18.3449E-03    -9.17564E-03     751.984E-06    -3.62659E+06    -9.35597E+06    -195.393E+06    -8.28784E+06    -195.321E+06    -4.76673E+06    -3.65918E+06         21.6446
              74     350.637E-09     4.13099E-03     525.867E-03     61.7487E-03        -1.04251    -775.014E-03     81.4746E-03     238.650E-03        -1.08325     23.0122E-03    -11.3716E-03    -11.6405E-03    -11.4893E-03     23.0080E-03    -11.5187E-03     756.248E-06    -17.9298E+06    -19.7896E+06    -209.038E+06    -18.0320E+06    -208.935E+06    -19.7896E+06    -4.32878E+06         21.9388
              75    -675.637E-09     3.10581E-03     650.310E-03    -96.5468E-03        -1.00865    -720.025E-03    -385.169E-03     650.310E-03    -831.110E-03     28.3679E-03    -14.0712E-03    -14.2966E-03    -14.1464E-03     28.3647E-03    -14.2182E-03     661.993E-06    -26.1686E+06    -28.5554E+06    -218.536E+06    -27.9303E+06    -218.441E+06    -26.8882E+06    -4.09783E+06         22.3451
              76     805.592E-09     2.07529E-03     937.914E-03    -372.706E-03    -983.223E-03    -617.648E-03    -738.281E-03     937.914E-03    -554.685E-03     33.6352E-03    -16.5547E-03    -17.0805E-03    -16.6285E-03     33.6307E-03    -17.0021E-03     866.860E-06    -32.8225E+06    -38.2687E+06    -227.512E+06    -34.6129E+06    -227.389E+06    -36.6014E+06     1.61588E+06         22.9281
              77    -1.82586E-06     1.03860E-03         1.15219    -516.496E-03        -1.03755    -583.039E-03    -971.009E-03         1.15219    -315.018E-03     37.4370E-03    -18.4133E-03    -19.0236E-03    -18.5712E-03     37.4320E-03    -18.8608E-03     335.553E-06    -41.7578E+06    -47.0216E+06    -233.693E+06    -43.3789E+06    -233.557E+06    -45.5368E+06     1.26998E+06         23.7834
              78     980.577E-06     97.1445E-18     811.400E-03    -130.693E-03        -1.07700    -124.792E-03        -1.06883     797.324E-03    -89.1293E-03     38.4881E-03    -19.0684E-03    -19.4198E-03    -19.2294E-03     38.4863E-03    -19.2569E-03    -8.03103E-06    -36.4852E+06    -43.0881E+06    -228.659E+06    -43.1437E+06    -228.604E+06    -36.4852E+06    -520.650E+03         24.2792
              79     1.96171E-03     97.1445E-18     357.604E-03     340.280E-03        -1.07062     355.811E-03        -1.06883     340.280E-03    -73.1806E-03     37.2375E-03    -18.1931E-03    -19.0445E-03    -18.1913E-03     37.2358E-03    -19.0445E-03     630.229E-06    -32.8104E+06    -38.5935E+06    -228.877E+06    -38.6278E+06    -228.843E+06    -32.8104E+06     101.040E+03         24.2407
              80     2.94471E-03     97.1445E-18     360.670E-03     346.241E-03        -1.05880     358.412E-03        -1.05654     346.241E-03    -107.544E-03     35.2580E-03    -16.7478E-03    -18.5101E-03    -16.7444E-03     35.2545E-03    -18.5101E-03     817.608E-06    -32.8993E+06    -37.2384E+06    -227.498E+06    -33.5950E+06    -227.467E+06    -36.5732E+06    -2.43193E+06         24.1802
              81     3.92875E-03     97.1445E-18     364.943E-03     349.870E-03        -1.03284     362.270E-03        -1.03017     349.870E-03    -114.117E-03     33.0429E-03    -15.2117E-03    -17.8313E-03    -15.2070E-03     33.0382E-03    -17.8313E-03     952.275E-06    -29.5361E+06    -42.2177E+06    -225.054E+06    -29.6154E+06    -224.975E+06    -42.2177E+06    -3.72936E+06         24.1008
              82     4.91503E-03     97.1445E-18     354.857E-03     345.443E-03    -983.489E-03     345.994E-03    -980.147E-03     350.964E-03    -131.841E-03     30.7429E-03    -13.6847E-03    -17.0582E-03    -13.6769E-03     30.7352E-03    -17.0582E-03     1.13726E-03    -25.0566E+06    -54.4777E+06    -223.646E+06    -25.1598E+06    -223.543E+06    -54.4777E+06    -4.49091E+06         24.0099
              83     5.90198E-03     97.1445E-18     348.268E-03     325.104E-03    -910.901E-03     321.613E-03    -907.411E-03     348.268E-03    -128.507E-03     28.4371E-03    -12.2086E-03    -16.2285E-03    -12.1992E-03     28.4277E-03    -16.2285E-03     1.23388E-03    -20.9152E+06    -69.6383E+06    -210.724E+06    -21.3227E+06    -210.317E+06    -69.6383E+06    -7.72986E+06         23.9182
              84     6.89179E-03     97.1445E-18     341.678E-03     284.348E-03    -813.281E-03     280.563E-03    -809.496E-03     341.678E-03    -128.206E-03     26.1754E-03    -10.7970E-03    -15.3783E-03    -10.7845E-03     26.1629E-03    -15.3783E-03     1.32551E-03    -15.8084E+06    -82.6615E+06    -179.524E+06    -16.2998E+06    -179.033E+06    -82.6615E+06    -8.75848E+06         23.8379
              85     7.88093E-03     97.1445E-18     330.362E-03     223.497E-03    -689.532E-03     219.770E-03    -685.805E-03     330.362E-03    -114.657E-03     24.0380E-03    -9.49296E-03    -14.5451E-03    -9.47738E-03     24.0224E-03    -14.5451E-03     1.44433E-03    -9.60364E+06    -93.1749E+06    -144.396E+06    -10.0900E+06    -143.910E+06    -93.1749E+06    -7.71185E+06         23.7872
              86     8.87381E-03     97.1445E-18     313.660E-03     142.719E-03    -540.684E-03     138.914E-03    -536.879E-03     313.660E-03    -101.696E-03     22.1570E-03    -8.39651E-03    -13.7605E-03    -8.37586E-03     22.1364E-03    -13.7605E-03     1.55879E-03    -4.85389E+06    -91.1824E+06    -115.842E+06    -5.44957E+06    -107.028E+06    -99.4005E+06    -7.80089E+06         23.8052
              87     9.86485E-03     97.1445E-18     291.519E-03     49.8175E-03    -374.051E-03     45.3367E-03    -369.571E-03     291.519E-03    -82.0204E-03     20.5504E-03    -7.52913E-03    -13.0213E-03    -7.49954E-03     20.5209E-03    -13.0213E-03     1.81911E-03    -1.76304E+06    -58.6929E+06    -102.318E+06    -2.56709E+06    -57.8888E+06    -102.318E+06    -6.02240E+06         23.9786
              88     10.8592E-03     97.1445E-18     264.764E-03    -30.9658E-03    -210.795E-03    -49.5616E-03    -192.199E-03     264.764E-03    -75.4532E-03     19.2109E-03    -6.82427E-03    -12.3866E-03    -6.77989E-03     19.1665E-03    -12.3866E-03     2.11940E-03     11.2518E+06    -18.1412E+06    -95.4238E+06    -3.07050E+06    -3.81890E+06    -95.4238E+06    -3.36347E+06         24.4823
              89     11.8515E-03     97.1445E-18     234.933E-03     2.65036E-03    -154.618E-03    -133.815E-03    -18.1528E-03     234.933E-03    -65.2301E-03     18.2293E-03    -6.27724E-03    -11.9520E-03    -6.22205E-03     18.1741E-03    -11.9520E-03     2.32329E-03     36.5045E+06    -5.21913E+06    -66.6421E+06    -5.20192E+06     36.4873E+06    -66.6421E+06    -755.712E+03         25.6164
              90     12.8469E-03     97.1445E-18     223.243E-03     129.274E-03    -205.453E-03    -202.133E-03     145.433E-03     203.766E-03    -66.0434E-03     16.8860E-03    -5.23941E-03    -11.6466E-03    -5.18627E-03     16.8329E-03    -11.6466E-03     2.16451E-03     56.5378E+06    -7.85222E+06    -27.6448E+06    -8.02225E+06     56.4631E+06    -27.4000E+06     1.28397E+06         27.7860
              91     13.8403E-03     97.1445E-18     297.910E-03     172.642E-03    -258.174E-03    -256.143E-03     295.879E-03     172.642E-03    -65.0350E-03     16.2310E-03    -4.87437E-03    -11.3566E-03    -4.80273E-03     16.1593E-03    -11.3566E-03     2.43911E-03     67.4925E+06     4.22325E+06    -10.8763E+06    -10.7932E+06     67.4094E+06     4.22325E+06     2.32644E+06         31.3297
              92     14.8400E-03     97.1445E-18     434.200E-03     142.548E-03    -296.933E-03    -295.673E-03     432.940E-03     142.548E-03    -60.3183E-03     17.3040E-03    -6.15219E-03    -11.1518E-03    -5.98569E-03     17.1375E-03    -11.1518E-03     3.85607E-03     76.2739E+06     30.8177E+06    -14.3958E+06    -14.3751E+06     76.2532E+06     30.8177E+06     75.4109E+03         36.1748
              93     15.8238E-03     97.1445E-18     561.279E-03     114.164E-03    -322.779E-03    -321.836E-03     560.336E-03     114.164E-03    -57.1230E-03     15.4357E-03    -4.44469E-03    -10.9910E-03    -4.04985E-03     15.0408E-03    -10.9910E-03     5.23632E-03     88.2565E+06     59.9013E+06    -17.2355E+06    -17.1767E+06     88.1977E+06     59.9013E+06     1.04698E+06         41.5395
              94     16.8264E-03     97.1445E-18     697.122E-03     88.3370E-03    -344.426E-03    -344.046E-03     696.742E-03     88.3370E-03    -30.4862E-03     125.539E-03    -8.73274E-03    -116.806E-03    -100.665E-03     113.898E-03    -13.2323E-03     102.603E-03     129.732E+06     108.930E+06    -1.11736E+06    -818.943E+03     129.433E+06     108.930E+06     5.97374E+06         45.9420
              95     17.6699E-03     1.45430E-03     702.751E-03     68.2629E-03    -327.885E-03    -327.715E-03     702.581E-03     68.2629E-03    -21.2613E-03     289.547E-03    -15.5800E-03    -273.967E-03    -213.479E-03     229.059E-03    -15.5800E-03     335.997E-03     151.209E+06     136.811E+06    -7.04712E+06    -5.19834E+06     146.025E+06     140.146E+06    -6.95834E+06         48.6027
              96     17.6577E-03     2.82065E-03     524.882E-03     47.4342E-03    -251.976E-03    -251.512E-03     524.418E-03     47.4342E-03    -36.7756E-03     387.878E-03    -15.8395E-03    -372.038E-03    -233.781E-03     249.620E-03    -15.8395E-03     583.207E-03     157.546E+06     147.389E+06    -14.7026E+06    -11.8984E+06     144.585E+06     157.546E+06    -1.41454E+06         51.5327
              97     17.6905E-03     4.10213E-03     282.605E-03     21.0805E-03    -149.641E-03    -148.329E-03     281.293E-03     21.0805E-03    -41.4120E-03     435.397E-03    -16.3627E-03    -419.034E-03    -214.726E-03     231.088E-03    -16.3627E-03     726.370E-03     184.706E+06     169.414E+06     7.00616E+06     8.56853E+06     167.851E+06     184.706E+06     15.2074E+06         55.8399
              98     17.6954E-03     5.14207E-03     87.5842E-03    -1.68716E-03    -106.513E-03    -33.7821E-03     14.8530E-03    -1.68716E-03    -31.0418E-03     463.119E-03    -16.3066E-03    -446.812E-03    -216.007E-03     232.313E-03    -16.3066E-03     791.217E-03     174.796E+06     149.514E+06    -14.2395E+06    -11.4255E+06     146.700E+06     174.796E+06    -8.67133E+06         60.3182
              99     17.6850E-03     6.43562E-03     72.1161E-03    -12.4977E-03    -227.486E-03     71.4116E-03    -226.781E-03    -12.4977E-03     10.8282E-03     507.177E-03    -15.9482E-03    -491.229E-03    -256.079E-03     272.027E-03    -15.9482E-03     847.248E-03     170.597E+06     139.646E+06    -24.6755E+06    -21.8972E+06     136.868E+06     170.597E+06    -8.92667E+06         64.3260
             100     17.7014E-03     7.57741E-03     143.231E-03    -6.05056E-03    -397.364E-03     140.939E-03    -395.072E-03    -6.05056E-03     67.8881E-03     527.659E-03    -16.4510E-03    -511.208E-03    -249.566E-03     266.017E-03    -16.4510E-03     900.612E-03     187.565E+06     156.042E+06    -7.14835E+06    -6.79086E+06     155.685E+06     187.565E+06     6.79348E+06         67.6432
             101     17.6952E-03     8.62330E-03     184.401E-03     19.5309E-03    -491.851E-03     177.629E-03    -485.079E-03     19.5309E-03     132.037E-03     530.949E-03    -16.9490E-03    -514.000E-03    -238.827E-03     255.776E-03    -16.9490E-03     920.261E-03     186.553E+06     152.712E+06    -10.3680E+06    -10.0555E+06     152.400E+06     186.553E+06    -3.07898E+06         70.4254
             102     17.6829E-03     9.76501E-03     201.854E-03     61.3963E-03    -517.104E-03     187.304E-03    -502.555E-03     61.3963E-03     199.402E-03     533.483E-03    -17.0700E-03    -516.413E-03    -246.291E-03     263.361E-03    -17.0700E-03     917.880E-03     182.214E+06     148.424E+06    -14.5282E+06    -13.8806E+06     147.777E+06     182.214E+06     726.055E+03         72.7927
             103     17.6946E-03     10.8488E-03     192.487E-03     111.146E-03    -478.298E-03     167.969E-03    -453.780E-03     111.146E-03     249.182E-03     539.844E-03    -17.4104E-03    -522.434E-03    -245.767E-03     263.177E-03    -17.4104E-03     932.420E-03     184.045E+06     149.928E+06    -13.1229E+06    -12.7486E+06     149.554E+06     184.045E+06     4.84009E+06         74.8303
             104     17.6695E-03     11.9670E-03     180.661E-03     143.363E-03    -407.197E-03     131.785E-03    -372.770E-03     157.812E-03     270.302E-03     549.862E-03    -17.8238E-03    -532.038E-03    -252.557E-03     270.380E-03    -17.8238E-03     947.098E-03     179.398E+06     145.074E+06    -17.0009E+06    -16.8542E+06     144.928E+06     179.398E+06    -4.01305E+06         76.6668
             105     17.6739E-03     13.0807E-03     191.027E-03     136.657E-03    -325.967E-03     91.5979E-03    -280.908E-03     191.027E-03     271.714E-03     564.309E-03    -18.3335E-03    -545.976E-03    -254.209E-03     272.542E-03    -18.3335E-03     977.211E-03     179.087E+06     144.511E+06    -17.1940E+06    -16.7972E+06     144.114E+06     179.087E+06     1.16537E+06         78.3408
             106     17.6745E-03     14.1670E-03     203.086E-03     114.030E-03    -256.872E-03     57.9711E-03    -200.813E-03     203.086E-03     264.005E-03     579.271E-03    -18.6987E-03    -560.572E-03    -249.973E-03     268.671E-03    -18.6987E-03         1.01499     183.011E+06     149.822E+06    -12.6392E+06    -12.2674E+06     149.450E+06     183.011E+06     7.62013E+06         79.8626
             107     17.6768E-03     15.2665E-03     190.778E-03     102.490E-03    -216.398E-03     37.9580E-03    -151.866E-03     190.778E-03     255.751E-03     594.894E-03    -18.9771E-03    -575.917E-03    -248.024E-03     267.001E-03    -18.9771E-03         1.05137     182.321E+06     149.369E+06    -13.4889E+06    -13.2865E+06     149.166E+06     182.321E+06     5.71970E+06         81.1357
             108     17.6812E-03     16.3213E-03     155.706E-03     106.133E-03    -207.671E-03     34.3640E-03    -135.902E-03     155.706E-03     263.564E-03     605.257E-03    -19.3751E-03    -585.882E-03    -235.768E-03     255.143E-03    -19.3751E-03         1.08502     182.450E+06     149.894E+06    -13.7752E+06    -13.5518E+06     149.671E+06     182.450E+06     6.00238E+06         82.0842
             109     17.6879E-03     17.3291E-03     126.809E-03     92.0014E-03    -222.433E-03     43.5863E-03    -149.632E-03     102.422E-03     277.923E-03     604.562E-03    -19.5580E-03    -585.004E-03    -220.712E-03     240.270E-03    -19.5580E-03         1.09658     181.843E+06     151.980E+06    -12.7384E+06    -12.5891E+06     151.831E+06     181.843E+06     4.34188E+06         82.7316
             110     17.6898E-03     18.3437E-03     130.103E-03     37.6106E-03    -255.485E-03     61.4710E-03    -186.852E-03     37.6106E-03     294.427E-03     594.828E-03    -19.5079E-03    -575.320E-03    -211.942E-03     231.450E-03    -19.5079E-03         1.08289     187.396E+06     158.198E+06    -6.70761E+06    -6.68915E+06     158.179E+06     187.396E+06     1.72857E+06         83.0882
             111     17.6891E-03     19.3363E-03     145.229E-03    -29.6516E-03    -298.141E-03     80.7427E-03    -233.655E-03    -29.6516E-03     312.051E-03     577.778E-03    -19.4975E-03    -558.281E-03    -202.252E-03     221.749E-03    -19.4975E-03         1.05396     188.786E+06     160.922E+06    -4.23514E+06    -4.22334E+06     160.910E+06     188.786E+06     102.938E+03         83.1983
             112     17.6863E-03     20.3268E-03     154.956E-03    -88.9481E-03    -332.016E-03     92.3483E-03    -269.408E-03    -88.9481E-03     325.973E-03     562.937E-03    -19.3296E-03    -543.607E-03    -196.465E-03     215.795E-03    -19.3296E-03         1.02687     191.726E+06     165.307E+06    -383.965E+03    -359.079E+03     165.282E+06     191.726E+06     638.595E+03         83.2288
             113     17.6957E-03     21.3661E-03     158.682E-03    -129.623E-03    -342.475E-03     89.1958E-03    -272.989E-03    -129.623E-03     345.892E-03     549.094E-03    -18.9329E-03    -530.161E-03    -194.339E-03     213.272E-03    -18.9329E-03     999.320E-03     200.573E+06     173.064E+06     6.61022E+06     6.64884E+06     173.025E+06     200.573E+06     2.53462E+06         83.3365
             114     17.6938E-03     22.3723E-03     162.229E-03    -142.124E-03    -328.538E-03     71.2509E-03    -237.560E-03    -142.124E-03     378.926E-03     548.232E-03    -18.5667E-03    -529.665E-03    -211.235E-03     229.802E-03    -18.5667E-03     982.937E-03     198.007E+06     169.120E+06     2.25220E+06     2.39949E+06     168.972E+06     198.007E+06    -2.01874E+06         83.5267
             115     17.6707E-03     23.5239E-03     184.438E-03    -121.911E-03    -299.609E-03     36.0518E-03    -151.223E-03    -121.911E-03     437.075E-03     574.624E-03    -18.5113E-03    -556.113E-03    -243.804E-03     262.315E-03    -18.5113E-03         1.01107     182.239E+06     154.054E+06    -13.1653E+06    -12.6025E+06     153.491E+06     182.239E+06    -9.29115E+06         83.7650
             116     17.6844E-03     24.6183E-03     246.261E-03    -72.3052E-03    -283.964E-03    -23.5028E-03    -14.2004E-03    -72.3052E-03     517.869E-03     599.633E-03    -18.8839E-03    -580.749E-03    -248.230E-03     267.114E-03    -18.8839E-03         1.06162     179.236E+06     153.690E+06    -14.8494E+06    -14.1312E+06     152.971E+06     179.236E+06    -1.12758E+06         84.1182
             117     17.6819E-03     25.6453E-03     339.357E-03    -1.56136E-03    -299.904E-03    -95.3841E-03     134.837E-03    -1.56136E-03     589.499E-03     607.408E-03    -19.2045E-03    -588.203E-03    -238.125E-03     257.329E-03    -19.2045E-03         1.08812     184.760E+06     158.768E+06    -10.1938E+06    -9.87903E+06     158.453E+06     184.760E+06     3.27970E+06         84.5676
             118     17.6869E-03     26.6977E-03     437.342E-03     80.1150E-03    -333.827E-03    -157.170E-03     260.685E-03     80.1150E-03     646.059E-03     606.603E-03    -19.4077E-03    -587.195E-03    -226.640E-03     246.048E-03    -19.4077E-03         1.09603     185.138E+06     158.954E+06    -10.4918E+06    -10.2249E+06     158.687E+06     185.138E+06     2.86200E+06         84.9233
             119     17.6939E-03     27.6709E-03     508.725E-03     162.275E-03    -364.733E-03    -201.688E-03     345.680E-03     162.275E-03     679.759E-03     594.075E-03    -19.6065E-03    -574.468E-03    -207.012E-03     226.619E-03    -19.6065E-03         1.08505     186.450E+06     163.639E+06    -6.91526E+06    -6.66406E+06     163.388E+06     186.450E+06     3.33548E+06         85.1007
             120     17.6860E-03     28.6598E-03     526.204E-03     236.510E-03    -374.663E-03    -227.953E-03     379.493E-03     236.510E-03     664.918E-03     578.193E-03    -19.5572E-03    -558.636E-03    -199.536E-03     219.094E-03    -19.5572E-03         1.05692     188.136E+06     166.222E+06    -4.51021E+06    -4.49493E+06     166.207E+06     188.136E+06    -1.06867E+06         85.1346
             121     17.6909E-03     29.6819E-03     494.513E-03     296.169E-03    -363.469E-03    -231.026E-03     362.070E-03     296.169E-03     619.977E-03     565.881E-03    -19.2716E-03    -546.610E-03    -199.635E-03     218.906E-03    -19.2716E-03         1.03076     195.677E+06     172.657E+06     1.59737E+06     1.64680E+06     172.608E+06     195.677E+06     2.12854E+06         85.1306
             122     17.6937E-03     30.6878E-03     414.599E-03     335.844E-03    -332.160E-03    -213.008E-03     295.448E-03     335.844E-03     546.811E-03     551.156E-03    -18.9378E-03    -532.218E-03    -201.347E-03     220.284E-03    -18.9378E-03     997.869E-03     198.094E+06     175.025E+06     3.62355E+06     3.84096E+06     174.808E+06     198.094E+06    -1.73291E+06         85.2090
             123     17.6798E-03     31.7378E-03     357.999E-03     285.278E-03    -284.348E-03    -172.808E-03     179.095E-03     352.642E-03     452.109E-03     560.087E-03    -18.6588E-03    -541.428E-03    -225.848E-03     244.507E-03    -18.6588E-03     995.565E-03     190.841E+06     167.289E+06    -3.90351E+06    -3.73533E+06     167.120E+06     190.841E+06    -3.67998E+06         85.3920
             124     17.6791E-03     32.9034E-03     348.111E-03     187.775E-03    -261.577E-03    -112.060E-03     38.2583E-03     348.111E-03     411.415E-03     591.758E-03    -18.6724E-03    -573.086E-03    -251.817E-03     270.490E-03    -18.6724E-03         1.04117     187.123E+06     162.228E+06    -9.01265E+06    -8.99502E+06     162.210E+06     187.123E+06    -1.11410E+06         85.6925
             125     17.6824E-03     33.9574E-03     327.903E-03     151.281E-03    -292.290E-03    -49.7621E-03    -91.2465E-03     327.903E-03     433.210E-03     609.459E-03    -19.0898E-03    -590.369E-03    -248.708E-03     267.798E-03    -19.0898E-03         1.08279     182.360E+06     158.494E+06    -13.2888E+06    -13.2705E+06     158.475E+06     182.360E+06    -969.711E+03         86.1024
             126     17.6787E-03     34.9882E-03     298.970E-03     161.431E-03    -351.462E-03    -3.25971E-03    -186.771E-03     298.970E-03     477.201E-03     617.529E-03    -19.4145E-03    -598.114E-03    -240.462E-03     259.876E-03    -19.4145E-03         1.10789     179.698E+06     159.246E+06    -13.3529E+06    -13.2486E+06     159.141E+06     179.698E+06     3.24524E+06         86.5121
             127     17.6919E-03     36.0424E-03     268.775E-03     208.723E-03    -406.865E-03     18.0568E-03    -216.199E-03     268.775E-03     568.608E-03     613.144E-03    -19.6941E-03    -593.450E-03    -223.331E-03     243.025E-03    -19.6941E-03         1.11248     185.455E+06     164.455E+06    -8.21982E+06    -8.11434E+06     164.349E+06     185.455E+06     2.58119E+06         86.7674
             128     17.6879E-03     36.9528E-03     274.479E-03     236.870E-03    -430.367E-03     3.81171E-03    -165.864E-03     243.034E-03     674.195E-03     587.826E-03    -19.9045E-03    -567.922E-03    -196.524E-03     216.428E-03    -19.9045E-03         1.07941     183.106E+06     165.340E+06    -7.43514E+06    -7.43025E+06     165.335E+06     183.106E+06     94.9294E+03         86.8218
             129     17.6872E-03     37.9564E-03     337.506E-03     223.739E-03    -419.272E-03    -49.5867E-03    -32.1791E-03     223.739E-03     746.075E-03     570.543E-03    -19.5090E-03    -551.034E-03    -195.503E-03     215.012E-03    -19.5090E-03         1.04355     188.800E+06     173.417E+06      87.764E+03     212.383E+03     173.292E+06     188.800E+06     3.75082E+06         86.7639
             130     17.6967E-03     39.0123E-03     472.279E-03     210.357E-03    -419.280E-03    -129.954E-03     182.954E-03     210.357E-03     822.617E-03     556.924E-03    -19.0258E-03    -537.899E-03    -195.443E-03     214.469E-03    -19.0258E-03         1.01514     203.425E+06     184.626E+06     10.7520E+06     10.9801E+06     184.398E+06     203.425E+06     6.28995E+06         86.7253
             131     17.6981E-03     39.9688E-03     663.144E-03     198.323E-03    -447.248E-03    -235.122E-03     451.018E-03     198.323E-03     856.622E-03     545.155E-03    -18.7802E-03    -526.375E-03    -200.548E-03     219.329E-03    -18.7802E-03     985.370E-03     194.756E+06     173.163E+06     453.388E+03     1.44162E+06     172.175E+06     194.756E+06    -5.59720E+06         86.7970
             132     17.6664E-03     41.1057E-03     891.913E-03     180.595E-03    -497.380E-03    -353.379E-03     747.911E-03     180.595E-03     836.219E-03     571.455E-03    -18.5617E-03    -552.893E-03    -242.910E-03     261.472E-03    -18.5617E-03         1.00420     183.201E+06     162.069E+06    -10.6795E+06    -9.64103E+06     161.031E+06     183.201E+06    -12.3335E+06         86.9961
             133     17.6821E-03     42.2733E-03         1.16155     152.004E-03    -574.539E-03    -454.459E-03         1.04147     152.004E-03     879.619E-03     602.226E-03    -18.8112E-03    -583.415E-03    -256.930E-03     275.741E-03    -18.8112E-03         1.05864     181.787E+06     163.184E+06    -11.7385E+06    -11.3393E+06     162.785E+06     181.787E+06     913.791E+03         87.4003
             134     17.6852E-03     43.2322E-03         1.39504     107.278E-03    -645.758E-03    -539.549E-03         1.28883     107.278E-03     901.970E-03     600.362E-03    -19.2383E-03    -581.123E-03    -232.889E-03     252.128E-03    -19.2383E-03         1.07723     178.130E+06     160.787E+06     -14.922E+06    -14.5010E+06     160.366E+06     178.130E+06     648.075E+03         87.9894
             135     17.6841E-03     44.2953E-03         1.55368     41.7654E-03    -687.864E-03    -607.955E-03         1.47377     41.7654E-03     827.176E-03     613.258E-03    -19.1939E-03    -594.064E-03    -241.256E-03     260.450E-03    -19.1939E-03         1.09792     190.557E+06     172.815E+06    -3.92491E+06    -2.57924E+06     171.469E+06     190.557E+06     6.15335E+06         88.4951
             136     17.6903E-03     45.4283E-03         1.67704    -40.6163E-03    -712.188E-03    -641.194E-03         1.60605    -40.6163E-03     811.327E-03     618.666E-03    -19.5343E-03    -599.131E-03    -233.195E-03     252.730E-03    -19.5343E-03         1.11576     185.415E+06     168.682E+06    -8.35299E+06    -6.67564E+06     167.005E+06     185.415E+06     3.42048E+06         88.7011
             137     17.6863E-03     46.2354E-03         1.73817    -136.433E-03    -709.471E-03    -640.782E-03         1.66948    -136.433E-03     807.799E-03     591.076E-03    -19.9816E-03    -571.094E-03    -191.755E-03     211.737E-03    -19.9816E-03         1.08965     177.898E+06     165.722E+06    -12.3065E+06    -11.4306E+06     164.846E+06     177.898E+06    -972.445E+03         88.7195
             138     17.7008E-03     47.3093E-03         1.71733    -245.922E-03    -670.111E-03    -611.026E-03         1.65825    -245.922E-03     741.620E-03     573.859E-03    -19.3091E-03    -554.550E-03    -193.645E-03     212.954E-03    -19.3091E-03         1.05191     195.671E+06     185.015E+06     7.45047E+06     7.84777E+06     184.618E+06     195.671E+06     7.38026E+06         88.6980
             139     17.6939E-03     48.3281E-03         1.66986    -359.104E-03    -619.013E-03    -562.835E-03         1.61368    -359.104E-03     708.177E-03     553.224E-03    -18.8768E-03    -534.348E-03    -197.638E-03     216.515E-03    -18.8768E-03         1.00553     192.248E+06     179.879E+06     2.27165E+06     3.27143E+06     178.880E+06     192.248E+06    -7.61284E+06         88.5645
             140     17.6862E-03     49.2742E-03         1.62303    -464.829E-03    -569.652E-03    -516.248E-03         1.56963    -464.829E-03     675.800E-03     548.412E-03    -18.8012E-03    -529.611E-03    -208.973E-03     227.774E-03    -18.8012E-03     984.690E-03     187.875E+06     177.668E+06    -2.56787E+06    -1.09773E+06     176.198E+06     187.875E+06    -2.55652E+06         88.5112
             141     17.6775E-03     50.4852E-03         1.60965    -513.712E-03    -569.652E-03    -473.607E-03         1.55491    -555.022E-03     674.544E-03     572.829E-03    -18.5155E-03    -554.314E-03    -245.201E-03     263.716E-03    -18.5155E-03         1.00561     184.780E+06     174.232E+06    -6.11633E+06    -4.86975E+06     172.985E+06     184.780E+06    -1.43108E+06         88.7218
             142     17.6762E-03     51.5324E-03         1.65893    -517.345E-03    -621.735E-03    -449.422E-03         1.59101    -621.735E-03     755.860E-03     591.284E-03    -18.8154E-03    -572.468E-03    -247.251E-03     266.067E-03    -18.8154E-03         1.04406     177.631E+06     164.984E+06    -15.1073E+06    -14.1785E+06     164.055E+06     177.631E+06    -4.07944E+06         89.1819
             143     17.6867E-03     52.5974E-03         1.74405    -530.747E-03    -664.024E-03    -451.592E-03         1.66489    -664.024E-03     833.751E-03     594.392E-03    -19.1411E-03    -575.251E-03    -230.650E-03     249.792E-03    -19.1411E-03         1.06635     181.787E+06     169.888E+06    -10.5753E+06    -10.3418E+06     169.655E+06     181.787E+06     6.18317E+06         89.8759
             144     17.6898E-03     53.6045E-03         1.86174    -558.002E-03    -685.911E-03    -476.761E-03         1.78049    -685.911E-03     871.440E-03     588.198E-03    -19.2710E-03    -568.927E-03    -221.521E-03     240.793E-03    -19.2710E-03         1.06075     184.252E+06     172.814E+06    -7.96928E+06    -7.87934E+06     172.724E+06     184.252E+06     200.888E+03         90.4845
             145     17.6772E-03     54.6372E-03         2.01521    -594.833E-03    -694.106E-03    -517.147E-03         1.93752    -694.106E-03     886.500E-03     592.696E-03    -19.4102E-03    -573.286E-03    -226.303E-03     245.714E-03    -19.4102E-03         1.06613     183.536E+06     174.561E+06    -6.60595E+06    -6.49265E+06     174.448E+06     183.536E+06     656.581E+03         90.8050
             146     17.6860E-03     55.7123E-03         2.17598    -628.806E-03    -698.048E-03    -550.251E-03         2.09742    -698.048E-03     925.542E-03     593.144E-03    -19.6060E-03    -573.538E-03    -218.706E-03     238.312E-03    -19.6060E-03         1.07314     184.686E+06     174.446E+06    -6.86227E+06    -6.78291E+06     174.366E+06     184.686E+06     1.80219E+06         90.9735
             147     17.6883E-03     56.6448E-03         2.31148    -656.788E-03    -708.297E-03    -581.079E-03         2.23577    -708.297E-03     934.569E-03     572.079E-03    -19.6479E-03    -552.431E-03    -198.349E-03     217.997E-03    -19.6479E-03         1.04459     184.436E+06     178.001E+06    -4.10887E+06    -4.01058E+06     177.903E+06     184.436E+06     2.12923E+06         91.1196
             148     17.6842E-03     57.6717E-03         2.39523    -668.739E-03    -734.035E-03    -607.774E-03         2.33427    -734.035E-03     853.279E-03     560.266E-03    -19.1731E-03    -541.093E-03    -203.338E-03     222.511E-03    -19.1731E-03         1.01549     189.232E+06     187.653E+06     4.32242E+06     4.51965E+06     187.456E+06     189.232E+06     6.00655E+06         91.2915
             149     17.6769E-03     59.7229E-03         2.47907    -648.177E-03    -847.502E-03    -609.931E-03         2.44082    -847.502E-03     684.214E-03     553.094E-03    -19.0729E-03    -534.021E-03    -213.838E-03     232.910E-03    -19.0729E-03     990.670E-03     180.669E+06     175.061E+06    -8.39363E+06    -7.98273E+06     174.651E+06     180.669E+06    -8.08919E+06         91.8228
             150     17.6694E-03     60.8881E-03         2.46693    -613.904E-03    -937.278E-03    -583.814E-03         2.43684    -937.278E-03     605.940E-03     587.282E-03    -18.9216E-03    -568.361E-03    -250.903E-03     269.824E-03    -18.9216E-03         1.03148     179.427E+06     175.398E+06    -7.43218E+06    -7.25097E+06     175.216E+06     179.427E+06     725.446E+03         92.3333
             151     17.6833E-03     62.0284E-03         2.43016    -566.729E-03        -1.03990    -533.207E-03         2.39663        -1.03990     628.748E-03     604.267E-03    -19.3696E-03    -584.898E-03    -242.669E-03     262.039E-03    -19.3696E-03         1.07536     178.533E+06     172.535E+06    -10.7960E+06    -9.94035E+06     171.679E+06     178.533E+06    -5.02683E+06         92.9399
             152     17.6794E-03     62.8952E-03         2.38031    -527.454E-03        -1.14543    -493.926E-03         2.34678        -1.14543     619.884E-03     589.931E-03    -19.8203E-03    -570.111E-03    -213.106E-03     232.926E-03    -19.8203E-03         1.07086     172.690E+06     161.523E+06    -14.3427E+06    -12.7314E+06     167.725E+06     164.876E+06     629.527E+03         93.5302
             153     17.6777E-03     64.0243E-03         2.34135    -496.913E-03        -1.24630    -465.354E-03         2.30979        -1.24630     594.747E-03     602.588E-03    -19.4912E-03    -583.097E-03    -230.880E-03     250.371E-03    -19.4912E-03         1.08336     182.107E+06     172.009E+06    -2.55193E+06    -1.61810E+06     178.889E+06     174.293E+06     6.44849E+06         93.9667
             154     17.6921E-03     65.1048E-03         2.34438    -483.921E-03        -1.33123    -443.770E-03         2.30423        -1.33123     667.145E-03     601.077E-03    -19.7992E-03    -581.278E-03    -207.887E-03     227.686E-03    -19.7992E-03         1.09678     190.136E+06     185.974E+06     2.17703E+06     2.41815E+06     185.733E+06     190.136E+06     1.62189E+06         94.1617
             155     17.7057E-03     65.8814E-03         2.36961    -496.848E-03        -1.39049    -456.545E-03         2.32931        -1.39049     672.705E-03     565.725E-03    -19.8398E-03    -545.885E-03    -177.195E-03     197.035E-03    -19.8398E-03         1.04619     181.931E+06     173.929E+06     3.53883E+06     3.93901E+06     179.653E+06     175.806E+06    -275.741E+03         94.2053
             156     17.6628E-03     67.0407E-03         2.45825    -527.411E-03        -1.41842    -491.736E-03         2.42257        -1.41842     648.812E-03     576.106E-03    -19.0793E-03    -557.027E-03    -231.336E-03     250.416E-03    -19.0793E-03         1.02317     172.389E+06     165.566E+06    -5.18202E+06    -4.30369E+06     171.511E+06     165.566E+06    -12.1328E+06         94.0282
             157     17.6755E-03     68.1964E-03         2.62598    -584.056E-03        -1.41602    -535.898E-03         2.57782        -1.41602     776.854E-03     596.704E-03    -19.3499E-03    -577.355E-03    -238.255E-03     257.605E-03    -19.3499E-03         1.06160     175.836E+06     174.460E+06    -12.7787E+06    -11.4854E+06     173.865E+06     175.138E+06    -88.9595E+03         93.8701
             158     17.7034E-03     69.0390E-03         2.75318    -655.403E-03        -1.38902    -605.595E-03         2.70337        -1.38902     813.493E-03     567.384E-03    -19.5339E-03    -547.850E-03    -192.591E-03     212.125E-03    -19.5339E-03         1.03921     187.383E+06     177.782E+06     1.84602E+06     2.61636E+06     185.935E+06     178.459E+06     11.1802E+06         94.1764
             159     17.6766E-03     70.1174E-03         2.84288    -710.010E-03        -1.34047    -674.912E-03         2.80778        -1.34047     699.984E-03     566.293E-03    -18.8437E-03    -547.450E-03    -225.856E-03     244.699E-03    -18.8437E-03         1.00688     185.259E+06     172.348E+06     335.079E+03     721.178E+03     184.873E+06     172.348E+06    -1.42936E+06         94.6070
             160     17.6658E-03     71.3257E-03         2.95496    -751.630E-03        -1.27816    -714.138E-03         2.91747        -1.27816     738.428E-03     594.673E-03    -19.1255E-03    -575.548E-03    -252.114E-03     271.239E-03    -19.1255E-03         1.04587     164.211E+06     159.484E+06    -22.9025E+06    -22.2427E+06     162.812E+06     160.224E+06    -10.9880E+06         94.8852
             161     17.6833E-03     72.2398E-03         2.96529    -769.161E-03        -1.21389    -726.429E-03         2.92256        -1.21389     794.153E-03     587.088E-03    -19.8053E-03    -567.283E-03    -211.272E-03     231.077E-03    -19.8053E-03         1.06542     168.858E+06     163.435E+06    -17.9254E+06    -16.6643E+06     166.858E+06     164.174E+06     2.81556E+06         95.4300
             162     17.6943E-03     73.2576E-03         2.84199    -749.227E-03        -1.15179    -717.508E-03         2.81027        -1.15179     666.947E-03     588.938E-03    -19.2674E-03    -569.670E-03    -219.208E-03     238.475E-03    -19.2674E-03         1.06285     195.153E+06     182.672E+06     8.41819E+06     9.47186E+06     194.100E+06     182.672E+06     13.2029E+06         96.2425
             163     17.6762E-03     74.4548E-03         2.69465    -704.885E-03        -1.09426    -679.204E-03         2.66897        -1.09426     587.572E-03     606.989E-03    -19.1453E-03    -587.844E-03    -244.667E-03     263.812E-03    -19.1453E-03         1.08109     182.498E+06     171.380E+06    -6.84457E+06    -5.37230E+06     181.026E+06     171.380E+06    -6.72451E+06         96.7562
             164     17.6818E-03     75.3476E-03         2.47844    -630.306E-03        -1.04381    -603.794E-03         2.45192        -1.04381     571.720E-03     598.027E-03    -19.8319E-03    -578.195E-03    -214.054E-03     233.886E-03    -19.8319E-03         1.08682     167.659E+06     161.630E+06    -23.7034E+06    -22.3801E+06     166.336E+06     161.630E+06    -8.85146E+06         97.0364
             165     17.6968E-03     76.3595E-03         2.15395    -523.281E-03    -996.308E-03    -503.392E-03         2.13406    -996.308E-03     458.173E-03     602.558E-03    -19.3804E-03    -583.178E-03    -226.476E-03     245.856E-03    -19.3804E-03         1.08577     196.829E+06     182.749E+06     8.77417E+06     9.78284E+06     195.820E+06     182.749E+06     11.5609E+06         97.4349
             166     17.6720E-03     77.5713E-03         1.84525    -416.897E-03    -947.742E-03    -396.220E-03         1.82457    -947.742E-03     423.340E-03     617.254E-03    -19.2506E-03    -598.004E-03    -252.879E-03     272.129E-03    -19.2506E-03         1.09584     179.062E+06     164.417E+06    -9.69456E+06    -5.62868E+06     174.996E+06     164.417E+06    -7.55361E+06         97.6274
             167     17.6775E-03     78.4262E-03         1.55460    -323.452E-03    -893.559E-03    -293.902E-03         1.52505    -893.559E-03     464.670E-03     592.478E-03    -20.0170E-03    -572.461E-03    -203.596E-03     223.613E-03    -20.0170E-03         1.08171     164.230E+06     156.798E+06    -27.0411E+06    -22.1244E+06     159.314E+06     156.798E+06    -3.92540E+06         97.6734
             168     17.7125E-03     79.3848E-03         1.24828    -236.750E-03    -822.319E-03    -206.380E-03         1.21791    -822.319E-03     420.226E-03     575.871E-03    -19.4889E-03    -556.382E-03    -203.116E-03     222.605E-03    -19.4889E-03         1.04624     196.149E+06     182.660E+06     22.4148E+06     24.2258E+06     194.338E+06     182.660E+06     13.2560E+06         97.8693
             169     17.6457E-03     80.6036E-03         1.06163    -193.045E-03    -729.120E-03    -145.452E-03         1.01403    -729.120E-03     465.990E-03     588.523E-03    -19.2382E-03    -569.285E-03    -246.343E-03     265.581E-03    -19.2382E-03         1.03848     169.582E+06     151.833E+06    -11.4640E+06    -7.88568E+06     166.003E+06     151.833E+06    -18.6270E+06         97.8072
             170     17.6762E-03     81.5318E-03     980.653E-03    -199.906E-03    -617.319E-03    -119.862E-03     900.609E-03    -617.319E-03     590.556E-03     578.270E-03    -19.8485E-03    -558.422E-03    -210.175E-03     230.023E-03    -19.8485E-03         1.04545     175.001E+06     156.300E+06    -32.6800E+06    -23.7433E+06     166.064E+06     156.300E+06     4.22829E+06         97.8709
             171     17.7156E-03     82.4926E-03     892.441E-03    -215.727E-03    -486.685E-03    -139.519E-03     816.233E-03    -486.685E-03     558.111E-03     568.772E-03    -19.1092E-03    -549.662E-03    -215.715E-03     234.824E-03    -19.1092E-03         1.01950     202.536E+06     179.311E+06     21.9632E+06     28.0790E+06     196.420E+06     179.311E+06     15.5440E+06         98.4999
             172     17.6259E-03     83.7697E-03     893.356E-03    -246.537E-03    -352.252E-03    -182.719E-03     821.247E-03    -343.961E-03     556.226E-03     597.291E-03    -18.9927E-03    -578.299E-03    -272.292E-03     291.284E-03    -18.9927E-03         1.03169     159.264E+06     138.108E+06    -22.3991E+06    -19.0054E+06     155.870E+06     138.108E+06    -24.0339E+06         98.9088
             173     17.6780E-03     84.7537E-03     964.775E-03    -204.823E-03    -314.676E-03    -217.533E-03     867.631E-03    -204.823E-03     677.026E-03     602.670E-03    -20.1335E-03    -582.537E-03    -228.732E-03     248.865E-03    -20.1335E-03         1.07971     171.129E+06     152.473E+06    -43.6274E+06    -35.9080E+06     163.410E+06     152.473E+06     6.47357E+06         99.2936
             174     17.7084E-03     85.6511E-03     956.141E-03    -78.2804E-03    -351.645E-03    -271.272E-03     875.768E-03    -78.2804E-03     617.062E-03     582.386E-03    -19.7319E-03    -562.655E-03    -201.873E-03     221.604E-03    -19.7319E-03         1.06207     201.719E+06     178.135E+06     11.3024E+06     16.4151E+06     196.606E+06     178.135E+06     21.4036E+06         100.156
             175     17.6510E-03     86.8619E-03     932.122E-03     31.1374E-03    -376.323E-03    -326.947E-03     882.746E-03     31.1374E-03     498.464E-03     603.199E-03    -19.1110E-03    -584.088E-03    -257.046E-03     276.157E-03    -19.1110E-03         1.06018     178.240E+06     153.685E+06    -9.85405E+06    -9.07079E+06     177.457E+06     153.685E+06    -10.4950E+06         100.739
             176     17.6777E-03     87.9226E-03     922.713E-03     116.739E-03    -392.244E-03    -336.737E-03     867.206E-03     116.739E-03     527.028E-03     611.193E-03    -19.9443E-03    -591.249E-03    -230.719E-03     250.663E-03    -19.9443E-03         1.09716     184.980E+06     164.270E+06    -28.9807E+06    -26.7471E+06     182.746E+06     164.270E+06     3.59374E+06         100.966
             177     17.7140E-03     88.7327E-03     833.864E-03     174.925E-03    -383.757E-03    -339.822E-03     789.929E-03     174.925E-03     444.672E-03     573.284E-03    -19.7590E-03    -553.525E-03    -181.374E-03     201.133E-03    -19.7590E-03         1.05964     209.273E+06     159.750E+06     11.6490E+06     13.3217E+06     207.600E+06     159.750E+06     16.6811E+06         101.404
             178     17.6674E-03     89.8684E-03     698.179E-03     208.383E-03    -357.190E-03    -337.498E-03     678.487E-03     208.383E-03     284.656E-03     568.187E-03    -18.8210E-03    -549.366E-03    -222.602E-03     241.423E-03    -18.8210E-03         1.01452     195.654E+06     143.647E+06    -1.78190E+06     486.138E+03     193.386E+06     143.647E+06    -10.6119E+06         101.720
             179     17.6787E-03     90.9778E-03     557.382E-03     222.959E-03    -315.495E-03    -297.568E-03     539.455E-03     222.959E-03     245.116E-03     585.091E-03    -19.1852E-03    -565.906E-03    -232.984E-03     252.169E-03    -19.1852E-03         1.04213     185.519E+06     162.290E+06    -27.6426E+06    -24.9273E+06     182.803E+06     162.290E+06    -6.56480E+06         101.857
             180     17.7007E-03     91.9067E-03     382.398E-03     225.852E-03    -261.395E-03    -242.194E-03     363.197E-03     225.852E-03     218.634E-03     583.021E-03    -19.0360E-03    -563.985E-03    -209.920E-03     228.956E-03    -19.0360E-03         1.05969     194.370E+06     139.535E+06    -5.97588E+06    -4.99616E+06     193.390E+06     139.535E+06     13.8636E+06         102.537
             181     17.6927E-03     93.0401E-03     256.289E-03     182.638E-03    -214.495E-03    -186.857E-03     184.473E-03     226.816E-03     199.824E-03     595.369E-03    -18.2541E-03    -577.115E-03    -232.293E-03     250.548E-03    -18.2541E-03         1.06809     201.806E+06     146.609E+06     4.27520E+06     4.62649E+06     201.455E+06     146.609E+06     6.72245E+06         103.591
             182     17.7076E-03     94.1243E-03     235.565E-03     109.012E-03    -205.213E-03    -144.713E-03     48.5129E-03     235.565E-03     237.979E-03     599.537E-03    -18.6413E-03    -580.895E-03    -223.371E-03     242.012E-03    -18.6413E-03         1.08364     206.829E+06     181.771E+06    -7.81064E+06    -7.68286E+06     206.701E+06     181.771E+06    -2.54040E+06         104.203
             183     17.7040E-03     94.9839E-03     259.407E-03     52.8842E-03    -223.189E-03    -128.057E-03    -42.2481E-03     259.407E-03     259.844E-03     584.317E-03    -18.8214E-03    -565.495E-03    -201.147E-03     219.968E-03    -18.8214E-03         1.06981     190.158E+06     167.594E+06    -14.1400E+06    -14.0232E+06     190.042E+06     167.594E+06    -3.52115E+06         104.508
             184     17.7051E-03     96.1229E-03     302.503E-03     30.0447E-03    -239.838E-03    -128.789E-03    -81.0044E-03     302.503E-03     265.618E-03     591.088E-03    -18.1570E-03    -572.931E-03    -223.742E-03     241.899E-03    -18.1570E-03         1.06649     204.032E+06     186.306E+06     2.00602E+06     2.03284E+06     195.597E+06     194.714E+06     1.72673E+06         104.962
             185     17.7207E-03     97.1801E-03     361.324E-03     55.2344E-03    -260.049E-03    -147.966E-03    -56.8492E-03     361.324E-03     300.033E-03     581.063E-03    -18.1511E-03    -562.912E-03    -201.648E-03     219.799E-03    -18.1511E-03         1.06142     220.652E+06     205.842E+06     5.12698E+06     5.22980E+06     212.141E+06     214.250E+06     4.48470E+06         105.265
             186     17.7325E-03     98.0011E-03     429.182E-03     56.9601E-03    -263.574E-03    -180.165E-03    -26.4489E-03     429.182E-03     278.271E-03     553.155E-03    -17.9938E-03    -535.161E-03    -184.816E-03     202.810E-03    -17.9938E-03         1.01562     213.738E+06     202.622E+06     10.8601E+06     11.0308E+06     213.567E+06     202.622E+06    -178.756E+03         105.373
             187     17.6859E-03     99.2040E-03     500.522E-03     33.4982E-03    -247.148E-03    -203.933E-03    -9.71613E-03     500.522E-03     199.215E-03     571.405E-03    -17.2813E-03    -554.123E-03    -244.092E-03     261.373E-03    -17.2813E-03         1.00400     185.275E+06     177.995E+06    -11.7099E+06    -8.39793E+06     181.963E+06     177.995E+06    -20.7063E+06         105.525
             188     17.7026E-03     100.341E-03     564.961E-03     51.9072E-03    -245.393E-03    -219.280E-03     25.7942E-03     564.961E-03     167.443E-03     584.939E-03    -17.7276E-03    -567.211E-03    -235.025E-03     252.752E-03    -17.7276E-03         1.03991     177.019E+06     172.709E+06    -28.0631E+06    -22.9924E+06     170.205E+06     174.452E+06    -3.99865E+06         105.742
             189     17.7361E-03     101.171E-03     610.048E-03     42.7343E-03    -236.596E-03    -223.138E-03     29.2763E-03     610.048E-03     111.831E-03     548.829E-03    -18.1087E-03    -530.721E-03    -176.039E-03     194.147E-03    -18.1087E-03         1.01405     201.818E+06     192.309E+06     17.2484E+06     19.1024E+06     190.455E+06     201.818E+06     13.4687E+06         105.881
             190     17.7064E-03     102.247E-03     628.689E-03    -57.6959E-03    -184.878E-03    -181.995E-03    -60.5787E-03     628.689E-03     34.1074E-03     540.211E-03    -17.6191E-03    -522.592E-03    -189.823E-03     207.442E-03    -17.6191E-03     984.772E-03     180.086E+06     163.540E+06     129.538E+03     3.54439E+06     160.125E+06     180.086E+06    -17.5361E+06         105.277
             191     17.7142E-03     103.361E-03     620.776E-03    -91.7613E-03    -217.585E-03    -101.101E-03    -208.246E-03     620.776E-03     26.8875E-03     544.509E-03    -18.3358E-03    -526.173E-03    -171.103E-03     189.439E-03    -18.3358E-03         1.00443     180.932E+06     147.839E+06    -27.6845E+06    -22.5592E+06     142.714E+06     180.932E+06    -5.43434E+06         103.788
             192     17.7391E-03     104.127E-03     587.835E-03    -22.7541E-03    -363.110E-03    -24.0113E-03    -361.852E-03     587.835E-03     2.71684E-03     489.518E-03    -19.2717E-03    -470.246E-03    -85.1248E-03     104.397E-03    -19.2717E-03     938.563E-03     220.562E+06     150.648E+06     19.2602E+06     21.1244E+06     148.784E+06     220.562E+06     9.20295E+06         101.669
             193     17.7327E-03     105.009E-03     529.565E-03     53.8483E-03    -528.908E-03     52.5711E-03    -527.631E-03     529.565E-03    -54.1267E-03     426.209E-03    -18.3588E-03    -407.850E-03    -62.8999E-03     81.2588E-03    -18.3588E-03     820.352E-03     205.530E+06     148.076E+06     28.0920E+06     28.2467E+06     147.921E+06     205.530E+06    -2.34623E+06         98.4797
             194     17.7335E-03     106.050E-03     450.040E-03     157.487E-03    -728.289E-03     156.146E-03    -726.948E-03     450.040E-03    -65.9550E-03     412.548E-03    -17.1128E-03    -395.435E-03    -98.2933E-03     115.406E-03    -17.1128E-03     778.584E-03     169.706E+06     135.462E+06    -10.0164E+06    -7.70999E+06     133.156E+06     169.706E+06    -12.3957E+06         94.4285
             195     17.7246E-03     107.101E-03     359.524E-03     253.821E-03    -910.516E-03     253.086E-03    -909.781E-03     359.524E-03    -58.1200E-03     406.701E-03    -16.8930E-03    -389.808E-03    -106.985E-03     123.878E-03    -16.8930E-03     762.256E-03     171.475E+06     125.834E+06    -6.22119E+06    -3.77806E+06     123.391E+06     171.475E+06    -9.86786E+06         90.4239
             196     17.7324E-03     108.044E-03     327.781E-03     257.959E-03        -1.01357     316.143E-03        -1.01321     269.231E-03    -17.3426E-03     361.743E-03    -16.7591E-03    -344.984E-03    -86.1498E-03     102.909E-03    -16.7591E-03     680.919E-03     174.041E+06     115.023E+06    -2.67478E+06    -1.54881E+06     113.897E+06     174.041E+06    -4.65848E+06         86.4530
             197     17.7337E-03     108.984E-03     357.469E-03     187.538E-03        -1.04300     355.732E-03        -1.04126     187.538E-03     80.3322E-03     309.706E-03    -15.8568E-03    -293.849E-03    -84.6508E-03     100.508E-03    -15.8568E-03     573.391E-03     160.720E+06     93.8353E+06    -6.53164E+06    -5.43994E+06     92.7436E+06     160.720E+06    -5.43199E+06         82.1086
             198     17.7376E-03     110.069E-03     372.927E-03     119.611E-03        -1.00543     368.160E-03        -1.00067     119.611E-03     159.741E-03     282.352E-03    -15.0224E-03    -267.330E-03    -98.7494E-03     113.772E-03    -15.0224E-03     506.766E-03     159.792E+06     92.3144E+06     703.221E+03     865.256E+03     92.1524E+06     159.792E+06     3.78404E+06         77.0601
             199     17.7345E-03     111.122E-03     332.980E-03     67.7704E-03    -869.494E-03     326.980E-03    -863.494E-03     67.7704E-03     169.277E-03     259.406E-03    -14.9943E-03    -244.412E-03    -87.9189E-03     102.913E-03    -14.9943E-03     465.944E-03     127.529E+06     65.3906E+06    -30.1761E+06    -25.5963E+06     60.8108E+06     127.529E+06    -12.0095E+06         71.6713
             200     17.7420E-03     112.124E-03     265.790E-03     30.9233E-03    -658.871E-03     260.551E-03    -653.632E-03     30.9233E-03     138.793E-03     217.574E-03    -15.3661E-03    -202.208E-03    -47.7236E-03     63.0897E-03    -15.3661E-03     402.930E-03     54.0628E+06     16.6054E+06    -66.8818E+06    -36.5419E+06    -2.05717E+06     42.3854E+06    -38.2271E+06         64.5579
             201     17.7412E-03     113.072E-03     208.677E-03     3.64032E-03    -435.870E-03     203.712E-03    -430.904E-03     3.64032E-03     111.515E-03     142.902E-03    -17.7467E-03    -125.155E-03    -6.92400E-03     24.6707E-03    -17.7467E-03     265.689E-03     55.8057E+06     3.19779E+06    -67.0836E+06     18.5583E+06    -29.8362E+06     3.19779E+06     4.36941E+06         51.8765
             202     17.5869E-03     113.997E-03     135.168E-03    -20.6962E-03    -215.840E-03     130.956E-03    -211.628E-03    -20.6962E-03     76.1013E-03     56.3215E-03    -3.09700E-03    -53.2245E-03     11.2112E-03     14.0962E-03    -25.3074E-03     87.2609E-03     41.3316E+06    -3.74061E+06    -102.858E+06     27.0869E+06    -22.3432E+06    -70.0106E+06     29.9505E+06         37.5422
             203     16.3350E-03     114.697E-03     156.168E-03    -35.3246E-03    -125.188E-03     151.172E-03    -120.192E-03    -35.3246E-03     74.2406E-03     21.3075E-03     10.0485E-03    -31.3560E-03     12.0355E-03     19.3205E-03    -31.3560E-03     8.24510E-03     17.3462E+06     6.26222E+06    -92.9660E+06    -13.8112E+06     4.46142E+06    -60.0078E+06     17.7563E+06         30.7711
             204     15.3620E-03     114.441E-03     277.290E-03    -44.4073E-03    -171.697E-03     254.120E-03    -148.527E-03    -44.4073E-03     189.257E-03     44.5795E-03    -12.4258E-03    -32.1537E-03    -11.6466E-03     43.2664E-03    -31.6198E-03     6.59295E-03     62.4531E+06     44.0399E+06    -45.2237E+06    -28.4046E+06     34.1631E+06     55.5108E+06    -2.73717E+06         29.2798
             205     14.4596E-03     114.194E-03     355.044E-03    -60.6961E-03    -181.877E-03     321.946E-03    -148.779E-03    -60.6961E-03     256.820E-03     68.4805E-03    -30.1108E-03    -38.3697E-03    -37.9924E-03     68.1032E-03    -30.1108E-03    -9.38279E-03     57.5800E+06     16.1420E+06    -67.4974E+06    -32.7267E+06    -18.6287E+06     57.5800E+06    -22.5036E+06         27.7165
             206     13.5389E-03     114.013E-03     371.563E-03    -81.4682E-03    -164.380E-03     325.231E-03    -118.047E-03    -81.4682E-03     292.434E-03     74.2000E-03    -27.6755E-03    -46.5245E-03    -45.6356E-03     73.3111E-03    -27.6755E-03    -20.5998E-03     46.1750E+06     11.6569E+06    -56.4558E+06    -29.2285E+06    -11.0193E+06     41.6239E+06    -6.37066E+06         26.4412
             207     12.6143E-03     113.867E-03     320.190E-03    -95.6897E-03    -139.106E-03     263.315E-03    -75.0520E-03    -102.869E-03     299.846E-03     71.3528E-03    -25.2732E-03    -46.0796E-03    -45.2358E-03     70.5090E-03    -25.2732E-03    -19.7722E-03     42.8273E+06     8.74326E+06    -42.0729E+06    -32.6485E+06     3.86995E+06     38.2762E+06    -6.10495E+06         25.4089
             208     11.6825E-03     113.752E-03     249.721E-03    -109.054E-03    -122.101E-03     175.468E-03    -34.8018E-03    -122.101E-03     281.527E-03     63.6038E-03    -23.2011E-03    -40.4026E-03    -39.9222E-03     63.1234E-03    -23.2011E-03    -13.9171E-03     40.7823E+06     3.57914E+06    -43.2658E+06    -33.4622E+06    -6.22446E+06     40.7823E+06    -7.54324E+06         24.6093
             209     10.7309E-03     113.666E-03     163.905E-03    -95.8990E-03    -137.179E-03     70.1092E-03    -2.10305E-03    -137.179E-03     244.038E-03     58.2932E-03    -21.3946E-03    -36.8986E-03    -36.6184E-03     58.0130E-03    -21.3946E-03    -10.3122E-03     44.1753E+06     4.74789E+06    -37.7305E+06    -32.6816E+06     -301.04E+03     44.1753E+06    -7.08731E+06         24.0094
             210     9.77775E-03     113.597E-03     92.4463E-03    -103.111E-03    -145.183E-03    -56.3765E-03     45.7119E-03    -145.183E-03     123.656E-03     53.9794E-03    -19.6336E-03    -34.3459E-03    -34.1184E-03     53.7520E-03    -19.6336E-03    -8.94107E-03     34.3341E+06     498.426E+03    -39.3860E+06    -34.8579E+06    -4.02967E+06     34.3341E+06    -4.19633E+06         23.5395
             211     8.81900E-03     113.542E-03     112.972E-03    -135.635E-03    -203.772E-03    -193.347E-03     109.206E-03    -142.294E-03     58.1905E-03     48.2109E-03    -17.9580E-03    -30.2528E-03    -30.0967E-03     48.0547E-03    -17.9580E-03    -6.97024E-03     25.4821E+06     8.07366E+06    -38.9739E+06    -36.4515E+06     5.55122E+06     25.4821E+06    -6.87193E+06         23.1301
             212     7.85258E-03     113.501E-03     148.749E-03    -127.377E-03    -276.953E-03    -275.609E-03     147.404E-03    -127.377E-03     47.7231E-03     42.9831E-03    -16.5058E-03    -26.4773E-03    -26.3606E-03     42.8664E-03    -16.5058E-03    -5.68853E-03     23.4766E+06    -1.27705E+06    -35.2062E+06    -31.8522E+06    -4.63111E+06     23.4766E+06    -9.35673E+06         22.7614
             213     6.88204E-03     113.468E-03     113.681E-03    -105.652E-03    -261.753E-03    -260.985E-03     112.913E-03    -105.652E-03     25.8519E-03     38.2758E-03    -15.2100E-03    -23.0658E-03    -22.9744E-03     38.1844E-03    -15.2100E-03    -4.71733E-03     27.2016E+06     3.93328E+06    -26.9001E+06    -23.9892E+06     1.02237E+06     27.2016E+06    -8.25348E+06         22.4349
             214     5.90781E-03     113.446E-03     115.355E-03    -81.6953E-03    -265.603E-03    -230.360E-03     80.1114E-03    -81.6953E-03    -165.917E-03     33.9507E-03    -14.0385E-03    -19.9122E-03    -19.8537E-03     33.8923E-03    -14.0385E-03    -3.53620E-03     21.3539E+06     375.288E+03    -20.5868E+06    -17.9990E+06    -2.21248E+06     21.3539E+06    -6.46077E+06         22.1498
             215     4.92843E-03     113.427E-03     171.443E-03    -49.0056E-03    -288.959E-03    -252.467E-03     134.950E-03    -49.0056E-03    -199.433E-03     29.7904E-03    -13.0537E-03    -16.7367E-03    -16.6987E-03     29.7524E-03    -13.0537E-03    -2.65325E-03     10.8729E+06     1.35987E+06    -16.8883E+06    -15.4746E+06    -53.8623E+03     10.8729E+06    -4.77961E+06         21.9089
             216     3.94558E-03     113.414E-03     150.849E-03    -4.91913E-03    -203.453E-03    -198.311E-03     145.707E-03    -4.91913E-03    -77.0370E-03     26.8973E-03    -12.3098E-03    -14.5876E-03    -14.5612E-03     26.8710E-03    -12.3098E-03    -2.08711E-03     6.01073E+06     1.19238E+06    -15.3192E+06    -11.6164E+06    -71.1375E+03     3.57145E+06    -7.35247E+06         21.7177
             217     2.96258E-03     113.406E-03     171.951E-03     18.1420E-03    -173.642E-03     21.3349E-03    -23.0264E-03     18.1420E-03     110.508E-03     24.8902E-03    -11.7449E-03    -13.1453E-03    -13.1285E-03     24.8734E-03    -11.7449E-03    -1.58019E-03     8.80466E+06     1.94120E+06    -11.6883E+06    -531.372E+03    -2.35228E+06     1.94120E+06    -6.70894E+06         21.5758
             218     1.97394E-03     113.399E-03     465.430E-03    -36.1485E-03    -404.413E-03     177.629E-03    -116.611E-03    -36.1485E-03    -480.153E-03     22.8729E-03    -10.9160E-03    -11.9570E-03    -11.2738E-03     22.8470E-03    -11.5732E-03    -1.77824E-03     15.8957E+06     2.66250E+06    -6.51819E+06     10.1057E+06    -728.182E+03     2.66250E+06    -8.36587E+06         21.4812
             219     987.091E-06     113.397E-03     635.879E-03    -147.857E-03    -432.960E-03     2.02196E-03     235.034E-03    -181.994E-03    -511.735E-03     23.5756E-03    -10.6590E-03    -12.9166E-03    -12.2262E-03     23.5424E-03    -11.3163E-03    -2.15044E-03     37.9692E+06     21.1423E+06    -3.94292E+06     23.5196E+06     2.48877E+06     29.1602E+06    -11.0298E+06         21.4349
             220    -3.79517E-06     112.374E-03     621.034E-03    -148.367E-03    -405.058E-03    -49.8248E-03     299.938E-03    -182.504E-03     726.966E-03     21.8683E-03    -9.21227E-03    -12.6561E-03    -10.7569E-03     21.8125E-03    -11.0557E-03    -2.49728E-03     23.1845E+06     608.778E+03    -29.7689E+06     8.87970E+06    -23.4821E+06     8.62673E+06    -14.4732E+06         21.3249
             221    -149.023E-09     111.355E-03     582.509E-03    -15.5978E-03    -501.518E-03    -9.89071E-03     90.8814E-03    -15.5978E-03         1.06900     16.0692E-03    -6.80898E-03    -9.26023E-03    -7.36046E-03     16.0129E-03    -8.65241E-03    -746.884E-06    -22.2393E+06    -45.7720E+06      -56.53E+06    -30.6444E+06    -48.1249E+06    -45.7720E+06    -5.80711E+06         21.0846
             222     1.20392E-06     110.341E-03     602.301E-03     86.8534E-03    -605.914E-03    -44.9344E-03     41.3216E-03     86.8534E-03         1.19274     11.7663E-03    -5.52720E-03    -6.23911E-03    -6.21991E-03     11.7471E-03    -5.52720E-03     327.175E-06    -53.7744E+06    -67.8667E+06     -85.088E+06    -78.2762E+06    -60.5862E+06    -67.8667E+06     1.21018E+06         20.8049
             223    -810.197E-09     109.333E-03     749.028E-03     70.6155E-03    -677.472E-03     179.768E-03    -108.212E-03     70.6155E-03         1.37704     7.82937E-03    -3.76929E-03    -4.06008E-03    -3.86599E-03     7.82197E-03    -3.95598E-03    -258.928E-06    -77.5771E+06    -105.986E+06    -135.029E+06    -119.719E+06    -80.6382E+06    -118.235E+06    -10.5129E+06         20.5501
             224     215.650E-09     108.325E-03     783.893E-03     202.795E-03    -794.613E-03     322.820E-03    -333.539E-03     202.795E-03         1.43364     4.78292E-03    -2.23960E-03    -2.54332E-03    -2.35461E-03     4.78090E-03    -2.42629E-03     235.325E-06    -98.6308E+06    -151.727E+06    -174.075E+06    -159.226E+06    -101.231E+06    -163.976E+06    -6.51418E+06         20.3525
             225     139.656E-09     107.323E-03     990.823E-03     407.173E-03        -1.18004     457.079E-03    -646.294E-03     407.173E-03         1.86617     2.84090E-03    -1.35589E-03    -1.48501E-03    -1.47228E-03     2.84026E-03    -1.36798E-03     104.905E-06    -122.777E+06    -199.835E+06    -215.606E+06    -209.320E+06    -123.391E+06    -205.506E+06    -4.48115E+06         20.2291
             226    -256.459E-09     106.319E-03         1.39480     464.131E-03        -1.52104     818.033E-03    -944.269E-03     464.131E-03         2.31509     1.84606E-03    -912.290E-06    -933.765E-06    -910.133E-06     1.84390E-03    -933.765E-06     136.672E-06    -100.815E+06    -166.260E+06    -182.653E+06    -158.581E+06    -119.215E+06    -171.932E+06     8.78227E+06         20.1827
             227     127.860E-09     105.319E-03         1.78300     644.865E-03        -2.00536         1.09299        -1.31535     644.865E-03         2.92356     2.43286E-03    -1.20692E-03    -1.22594E-03    -1.19971E-03     2.42565E-03    -1.22594E-03     321.160E-06    -23.7225E+06    -41.9981E+06    -83.3588E+06    -42.2591E+06    -64.8221E+06    -41.9981E+06     27.2171E+06         20.2073
             228    -65.4002E-09     104.315E-03         2.30846     810.969E-03        -2.68146         1.33759        -1.71059     810.969E-03         3.95001     3.47182E-03    -1.67264E-03    -1.79918E-03    -1.78274E-03     3.46503E-03    -1.68228E-03     353.272E-06     29.8066E+06     15.4143E+06    -17.2455E+06     9.65145E+06     2.90963E+06     15.4143E+06     19.9219E+06         20.2924
             229     265.353E-09     103.312E-03         3.04736     802.866E-03        -3.33777         1.75414        -2.04456     802.866E-03         5.13206     5.31711E-03    -2.51889E-03    -2.79821E-03    -2.59980E-03     5.28112E-03    -2.68131E-03     957.439E-06     56.9888E+06     20.1085E+06     12.8340E+06     16.5882E+06     53.2346E+06     20.1085E+06     8.83875E+06         20.4326
             230    -589.629E-09     102.304E-03         3.86960     824.438E-03        -4.14562         2.09126        -2.36728     824.438E-03         6.65423     8.68304E-03    -4.07594E-03    -4.60710E-03    -4.38574E-03     8.62410E-03    -4.23836E-03     1.71557E-03     79.1237E+06     37.3012E+06     27.7494E+06     32.6890E+06     78.4816E+06     33.0036E+06    -953.676E+03         20.6281
             231     1.20591E-06     101.293E-03         4.85892     771.033E-03        -5.08772         2.39383        -2.62263     771.033E-03         8.58513     12.2447E-03    -5.90800E-03    -6.33671E-03    -6.23698E-03     12.2050E-03    -5.96797E-03     1.68823E-03     72.5774E+06     51.9020E+06     42.5065E+06     47.4206E+06     71.9608E+06     47.6044E+06    -2.11427E+06         20.8728
             232    -1.29164E-06     100.280E-03         6.08796     538.299E-03        -6.00413         2.85031        -2.76647     538.299E-03         10.7056     16.3771E-03    -8.06751E-03    -8.30955E-03    -8.03681E-03     16.3464E-03    -8.30955E-03     1.72670E-03     86.6600E+06     78.0186E+06     66.3816E+06     78.6348E+06     74.4068E+06     78.0186E+06    -3.53886E+06         21.1533
             233     825.485E-09     99.2598E-03         7.37874     289.475E-03        -6.98418         3.25731        -2.86274     289.475E-03         12.9898     21.0630E-03    -10.3803E-03    -10.6827E-03    -10.4621E-03     21.0245E-03    -10.5624E-03     2.20201E-03     109.896E+06     97.8482E+06     71.6760E+06     102.629E+06     74.1122E+06     102.679E+06    -8.33961E+06         21.4480
             234    -559.383E-09     98.2339E-03         8.65896    -28.9468E-03        -7.91537         3.64471        -2.90112    -28.9468E-03         15.2255     24.4991E-03    -12.0527E-03    -12.4465E-03    -12.4082E-03     24.4609E-03    -12.0527E-03     2.35632E-03     109.501E+06     101.250E+06     47.2588E+06     103.691E+06     48.2377E+06     106.081E+06    -6.45388E+06         21.7315
             235     1.02539E-06     97.2114E-03         9.87133    -485.125E-03        -8.60580         4.15236        -2.88682    -485.125E-03         17.0836     27.7583E-03    -13.7342E-03    -14.0241E-03    -14.0076E-03     27.7418E-03    -13.7342E-03     1.42785E-03     113.161E+06     108.871E+06     34.1525E+06     112.066E+06     34.3777E+06     109.741E+06    -3.99125E+06         21.9863
             236    -982.935E-09     96.1803E-03         10.7791    -981.892E-03        -8.99077         4.64974        -2.86145    -981.892E-03         18.2873     31.1955E-03    -15.4803E-03    -15.7153E-03    -15.4904E-03     31.1893E-03    -15.6989E-03     1.03368E-03     107.429E+06     105.950E+06     11.8444E+06     105.585E+06     12.2097E+06     107.429E+06    -5.52909E+06         22.2016
             237     555.585E-09     95.1462E-03         11.2375        -1.50117        -8.94344         5.09398        -2.79989        -1.50117         18.5719     33.6075E-03    -16.5546E-03    -17.0528E-03    -16.8265E-03     33.5999E-03    -16.7733E-03     1.22365E-03     99.7318E+06     98.7828E+06    -7.42800E+06     98.1199E+06    -6.42478E+06     99.3914E+06    -10.0908E+06         22.3719
             238    -7.04375E-09     94.1124E-03         11.2394        -2.11081        -8.31394         5.61634        -2.69091        -2.11081         17.6928     34.7409E-03    -17.1662E-03    -17.5747E-03    -17.4429E-03     34.7380E-03    -17.2951E-03     656.281E-06     97.6846E+06     90.3616E+06    -16.7622E+06     96.9279E+06    -16.0056E+06     90.3616E+06    -3.94367E+06         22.4999
             239    -339.560E-09     93.0770E-03         10.7383        -2.78557        -7.11162         6.15454        -2.52785        -2.78557         15.5764     35.8144E-03    -17.7969E-03    -18.0175E-03    -17.7940E-03     35.8115E-03    -18.0175E-03     675.798E-06     79.0118E+06     64.6706E+06    -40.7964E+06     71.5841E+06    -40.7275E+06     72.0292E+06     2.26573E+06         22.5943
             240     251.258E-09     92.0395E-03         9.76692        -3.46410        -5.46601         6.60158        -2.30068        -3.46410         12.3029     37.3852E-03    -18.4294E-03    -18.9558E-03    -18.8600E-03     37.3811E-03    -18.5211E-03     943.143E-06     74.3415E+06     62.3124E+06    -41.7788E+06     66.4571E+06    -41.2531E+06     69.6711E+06    -5.27077E+06         22.6642
             241     543.212E-09     91.0008E-03         8.65892        -3.22145        -4.58432         7.07356        -2.00577        -4.21464         8.01170     37.8950E-03    -18.5622E-03    -19.3327E-03    -18.9947E-03     37.8927E-03    -18.8980E-03     710.966E-06      56.975E+06     52.1402E+06    -57.5159E+06     56.3035E+06    -56.8444E+06     52.1402E+06    -2.61314E+06         22.7141
             242    -1.20520E-06     89.9636E-03         7.92703        -2.04995        -5.02704         7.52694        -1.64986        -5.02704         2.96189     38.0369E-03    -18.7876E-03    -19.2493E-03    -18.7858E-03     38.0351E-03    -19.2493E-03     646.046E-06     33.1073E+06     31.6457E+06    -78.8623E+06     32.9605E+06    -78.7155E+06     31.6457E+06     2.82604E+06         22.7468
             243     937.953E-09     88.9233E-03         8.21126        -1.57608        -5.81278         7.86882        -1.23364        -5.81278        -2.43480     38.4708E-03    -18.8278E-03    -19.6431E-03    -19.5161E-03     38.4697E-03    -18.9536E-03     473.453E-06     36.8635E+06     28.9966E+06    -81.9233E+06     29.3405E+06    -80.9700E+06     35.5663E+06    -7.34593E+06         22.7642
             244     514.113E-09     87.8865E-03         9.71674        -2.26624        -6.65151         8.20242    -751.925E-03        -6.65151        -7.70660     38.0829E-03    -18.6272E-03    -19.4557E-03    -19.3150E-03     38.0813E-03    -18.7663E-03     543.392E-06     8.17711E+06    -5.71369E+06    -114.427E+06     346.067E+03    -113.166E+06     856.001E+03    -11.5567E+06         22.7680
             245    -883.605E-09     86.8471E-03         11.8218        -3.49891        -7.53343         8.53582    -212.950E-03        -7.53343        -12.4991     37.8987E-03    -18.7219E-03    -19.1769E-03    -18.7200E-03     37.8968E-03    -19.1769E-03     173.184E-06     6.27046E+06    -3.17115E+06    -113.812E+06     3.77503E+06    -113.437E+06    -1.05066E+06    -6.24132E+06         22.7647
             246     291.918E-09     85.8106E-03         13.7767        -4.65044        -8.34734         8.76874     357.506E-03        -8.34734        -16.3688     38.4283E-03    -18.8814E-03    -19.5469E-03    -19.2302E-03     38.4275E-03    -19.1972E-03    -24.3870E-06     6.44019E+06     1.68103E+06    -129.470E+06     4.24862E+06    -129.399E+06     3.80152E+06    -2.54351E+06         22.7595
             247     357.116E-09     84.7696E-03         15.2506        -5.30396        -9.17338         9.01303     933.589E-03        -9.17338        -18.8943     38.5450E-03    -19.0498E-03    -19.4952E-03    -19.3973E-03     38.5429E-03    -19.1455E-03     654.359E-06    -19.8046E+06    -23.3600E+06    -163.696E+06    -20.7371E+06    -163.681E+06    -22.4433E+06     320.157E+03         22.7518
             248    -537.581E-09     83.7319E-03         16.0600        -5.30891        -9.95957         9.27044         1.48062        -9.95957        -19.8975     37.9578E-03    -18.8183E-03    -19.1395E-03    -18.8146E-03     37.9542E-03    -19.1395E-03     907.591E-06    -20.0395E+06    -21.5921E+06    -169.897E+06    -22.2324E+06    -169.257E+06    -20.0395E+06    -6.19879E+06         22.7433
             249     106.754E-09     82.6938E-03         15.9769        -4.58310        -10.5984         9.43727         1.95651        -10.5984        -19.1499     37.7448E-03    -18.5397E-03    -19.2051E-03    -18.9763E-03     37.7415E-03    -18.7652E-03     866.178E-06    -7.84118E+06    -9.70948E+06    -172.011E+06    -9.41817E+06    -171.070E+06    -9.07357E+06    -12.1682E+06         22.7391
             250     739.135E-09     81.6572E-03         15.0607        -3.05172        -11.2110         9.65725         2.35170        -11.2110        -16.5600     37.8533E-03    -18.6586E-03    -19.1947E-03    -19.1914E-03     37.8501E-03    -18.6586E-03     857.072E-06    -21.8406E+06    -24.4295E+06    -196.914E+06    -22.1530E+06    -196.601E+06    -24.4295E+06    -5.16664E+06         22.7411
             251    -575.893E-09     80.6180E-03         13.4451    -891.459E-03        -11.7399         9.90545         2.64821        -11.7399        -12.2968     37.8810E-03    -18.8551E-03    -19.0259E-03    -18.9486E-03     37.8784E-03    -18.9298E-03     749.833E-06    -22.3930E+06    -24.0603E+06    -200.582E+06    -22.4453E+06    -200.529E+06    -24.0603E+06     2.04147E+06         22.7484
             252     421.261E-09     79.5821E-03         11.4612         1.43210        -12.0735         10.0765         2.81681        -12.0735        -6.42010     38.1056E-03    -18.9050E-03    -19.2006E-03    -19.1247E-03     38.1045E-03    -18.9797E-03     110.161E-06    -10.9620E+06    -11.3326E+06    -188.825E+06    -11.0435E+06    -188.743E+06    -11.3326E+06     3.75857E+06         22.7584
             253     7.36598E-09     78.5431E-03         10.7444         2.37619        -12.3146         10.2641         2.85649        -12.3146     767.056E-03     38.2274E-03    -18.8574E-03    -19.3700E-03    -19.0717E-03     38.2209E-03    -19.1491E-03     650.882E-06    -17.5847E+06    -20.1311E+06    -205.740E+06    -20.1021E+06    -205.709E+06    -17.6445E+06     2.02407E+06         22.7679
             254    -562.209E-09     77.5041E-03         12.6054     620.367E-03        -12.4073         10.4226         2.80311        -12.4073         8.81947     37.9394E-03    -18.7302E-03    -19.2092E-03    -18.7233E-03     37.9324E-03    -19.2092E-03     1.12300E-03    -21.1014E+06    -29.0513E+06    -213.707E+06    -23.8864E+06    -213.409E+06    -26.5646E+06    -4.94300E+06         22.7748
             255     121.662E-09     76.4676E-03         16.1532        -3.01457        -12.2894         10.4724         2.66624        -12.2894         17.4195     37.9689E-03    -18.5408E-03    -19.4281E-03    -19.2375E-03     37.9656E-03    -18.7281E-03     829.289E-06    -13.4555E+06    -22.4590E+06    -204.156E+06    -17.3678E+06    -203.784E+06    -18.9187E+06    -2.71291E+06         22.7776
             256     1.29126E-06     75.4296E-03         20.1012        -7.12310        -12.1000         10.4715         2.50668        -12.1000         26.0060     38.1919E-03    -18.7152E-03    -19.4767E-03    -19.4125E-03     38.1893E-03    -18.7767E-03     486.739E-06    -8.67395E+06    -12.3683E+06    -196.387E+06    -12.3383E+06    -196.262E+06    -8.82809E+06     486.185E+03         22.7741
             257    -1.41731E-06     74.3922E-03         23.8418        -10.4068        -12.5553         10.3331         2.36970        -11.8231         34.0495     37.5896E-03    -18.4793E-03    -19.1103E-03    -18.4792E-03     37.5895E-03    -19.1103E-03    -120.819E-06    -18.7294E+06    -24.3533E+06    -209.297E+06    -18.9291E+06    -209.097E+06    -24.3533E+06     1.70002E+06         22.7634
             258     223.845E-09     73.3548E-03         27.1829        -11.4527        -14.8550         10.0595         2.26840        -11.4527         41.3029     37.3546E-03    -18.2404E-03    -19.1141E-03    -18.5444E-03     37.3543E-03    -18.8099E-03     105.437E-06    -9.89202E+06    -22.2478E+06    -204.901E+06    -17.2372E+06    -204.442E+06    -15.3618E+06    -1.44592E+06         22.7482
             259     465.184E-09     72.3174E-03         29.9365        -11.0816        -17.9514         9.73117         2.25392        -11.0816         47.2967     36.9784E-03    -18.2776E-03    -18.7008E-03    -18.6984E-03     36.9760E-03    -18.2776E-03     649.065E-06    -4.10619E+06    -15.8581E+06    -200.135E+06    -11.5059E+06    -199.621E+06    -8.97208E+06    -9.77051E+06         22.7329
             260    -302.215E-09     71.2803E-03         31.8944        -10.6895        -20.2933         9.29209         2.30906        -10.6895         51.7157     36.4701E-03    -18.1626E-03    -18.3076E-03    -18.3038E-03     36.4664E-03    -18.1626E-03     905.888E-06    -12.1875E+06    -17.7980E+06    -206.802E+06    -12.4952E+06    -206.495E+06    -17.7980E+06    -1.35857E+06         22.7222
             261     337.875E-09     70.2461E-03         33.0165        -10.3229        -21.7921         8.77670         2.44764        -10.3229         54.4400     36.8904E-03    -18.3582E-03    -18.5322E-03    -18.5290E-03     36.8872E-03    -18.3582E-03     845.179E-06    -16.3819E+06    -19.4168E+06    -210.918E+06    -18.7984E+06    -210.792E+06    -17.1265E+06     4.64832E+06         22.7203
             262    -23.8491E-09     69.2060E-03         33.1902        -9.97678        -22.2703         8.22032         2.69962        -9.97678         55.1833     36.9031E-03    -18.3136E-03    -18.5895E-03    -18.5821E-03     36.8957E-03    -18.3136E-03     1.22562E-03    -11.8566E+06    -15.6772E+06    -207.400E+06    -14.2206E+06    -207.326E+06    -13.3869E+06     3.71396E+06         22.7294
             263     240.498E-09     68.1720E-03         32.3266        -9.59155        -21.7726         7.57810         2.97587        -9.59155         53.9018     36.9559E-03    -18.3969E-03    -18.5590E-03    -18.5191E-03     36.9501E-03    -18.4310E-03     829.027E-06    -10.4633E+06    -12.1621E+06    -203.385E+06    -10.5261E+06    -203.322E+06    -12.1621E+06     1.09000E+06         22.7486
             264    -312.113E-09     67.1360E-03         30.4477        -9.22274        -20.2779         6.91809         3.25170        -9.22274         50.5920     37.6887E-03    -18.7916E-03    -18.8971E-03    -18.8615E-03     37.6872E-03    -18.8257E-03     443.883E-06    -10.8337E+06    -11.6697E+06    -201.658E+06    -11.5489E+06    -201.611E+06    -11.0022E+06    -2.92216E+06         22.7737
             265     455.890E-09     66.0946E-03         27.5113        -8.79113        -17.7544         6.21967         3.53716        -8.79113         45.1850     37.9756E-03    -18.9108E-03    -19.0648E-03    -19.0590E-03     37.9699E-03    -18.9108E-03     1.11047E-03    -261.058E+03    -4.89007E+06    -191.591E+06    -1.10830E+06    -191.412E+06    -4.22258E+06     1.92100E+06         22.7985
             266    -356.301E-09     65.0600E-03         23.5565        -8.27022        -14.3425         5.45642         3.75766        -8.27022         37.8598     38.1184E-03    -18.8965E-03    -19.2219E-03    -18.9748E-03     38.1141E-03    -19.1393E-03     648.559E-06    -2.03321E+06    -9.23576E+06    -197.164E+06    -5.49510E+06    -196.943E+06    -5.99473E+06     6.42600E+06         22.8178
             267    -78.3739E-09     64.0212E-03         18.7992        -7.74491        -10.1191         4.73400         3.94615        -7.74491         28.9058     38.6440E-03    -18.9675E-03    -19.6765E-03    -19.4299E-03     38.6402E-03    -19.2103E-03     620.278E-06    -3.93797E+06    -9.34531E+06    -195.858E+06    -9.74054E+06    -195.463E+06    -3.93797E+06    -2.68617E+06         22.8282
             268     1.01619E-06     62.9801E-03         13.3289        -5.07631        -7.29314         3.99258         4.09720        -7.13037         18.5608     38.2569E-03    -18.7297E-03    -19.5272E-03    -19.1916E-03     38.2526E-03    -19.0610E-03     923.906E-06     6.32352E+06    -5.51885E+06    -185.903E+06     3.82547E+06    -185.572E+06    -3.35253E+06    -4.26882E+06         22.8275
             269    -1.79973E-06     61.9469E-03         7.49109    -90.6016E-03        -6.45375         3.23800         4.16249        -6.45375         7.34919     38.0293E-03    -18.8197E-03    -19.2096E-03    -18.8772E-03     38.0281E-03    -19.1509E-03     2.73439E-06    -1.39949E+06    -17.4260E+06    -197.815E+06    -8.00957E+06    -197.556E+06    -11.0755E+06     5.84514E+06         22.8173
             270     1.99744E-06     60.9054E-03         6.47629     277.121E-03        -5.81823         2.59067         4.16274        -5.81823        -4.26447     38.3048E-03    -19.0074E-03    -19.2974E-03    -19.2945E-03     38.3019E-03    -19.0074E-03     260.468E-06    -8.43006E+06    -15.6802E+06    -199.641E+06    -16.1361E+06    -199.185E+06    -8.43006E+06     334.327E+03         22.8019
             271    -1.53771E-06     59.8682E-03         11.0750        -3.33479        -6.82002         1.95432         4.08688        -5.12105        -15.9584     37.6402E-03    -18.6560E-03    -18.9842E-03    -18.8836E-03     37.6365E-03    -18.7529E-03     912.148E-06     740.786E+03    -4.16791E+06    -190.600E+06    -369.358E+03    -190.389E+06    -3.26816E+06    -3.98826E+06         22.7847
             272     1.28702E-06     58.8312E-03         16.2948        -4.39683        -11.0131         1.33240         3.94939        -4.39683        -27.1803     37.1965E-03    -18.3595E-03    -18.8369E-03    -18.7384E-03     37.1949E-03    -18.4564E-03     244.631E-06    -6.36996E+06    -13.1728E+06    -199.761E+06    -9.18835E+06    -199.736E+06    -10.3789E+06     1.86757E+06         22.7688
             273    -506.382E-09     57.7955E-03         21.2083        -3.74325        -16.6364     854.603E-03         3.71728        -3.74325        -37.7348     37.4952E-03    -18.2025E-03    -19.2927E-03    -18.5785E-03     37.4907E-03    -18.9121E-03     536.573E-06    -3.65373E+06    -10.3290E+06    -197.169E+06    -6.49580E+06    -197.121E+06    -7.53506E+06     3.02957E+06         22.7571
             274     16.7082E-03     56.4163E-03         2.45909    -694.595E-03    -811.644E-03    -514.587E-03         2.19468    -727.244E-03         1.59984     384.388E-03    -18.9420E-03    -365.446E-03    -118.428E-03     137.370E-03    -18.9420E-03     702.046E-03     157.144E+06     125.244E+06    -7.79106E+06    -7.68909E+06     156.253E+06     126.033E+06     2.88306E+06         84.7173
             275     15.7091E-03     55.9996E-03         2.74747    -729.123E-03        -1.13247    -374.164E-03         1.98917    -729.123E-03         3.03323     137.267E-03    -18.6568E-03    -118.610E-03    -26.1751E-03     44.8319E-03    -18.6568E-03     243.529E-03     108.539E+06     55.9202E+06    -18.9467E+06    -18.8819E+06     108.474E+06     55.9202E+06    -262.424E+03         69.1237
             276     14.7331E-03     55.9032E-03         3.09347    -752.089E-03        -1.49839    -302.091E-03         1.89718    -752.089E-03         4.02627     55.1906E-03    -18.3513E-03    -36.8393E-03    -18.1270E-03     36.4783E-03    -18.3513E-03     72.5620E-03     76.5679E+06     15.8581E+06    -27.9924E+06    -17.3683E+06     76.2967E+06     5.50510E+06     1.08280E+06         52.2003
             277     13.7489E-03     55.8594E-03         3.30522    -784.314E-03        -1.70242    -266.984E-03         1.86979    -784.314E-03         4.52776     43.1034E-03    -18.0354E-03    -25.0680E-03    -17.8779E-03     35.9133E-03    -18.0354E-03     41.5530E-03     59.2794E+06    -19.8164E+06    -44.8076E+06    -19.5975E+06     59.0605E+06    -44.8076E+06     633.383E+03         39.0707
             278     12.7656E-03     55.8251E-03         3.27393    -823.456E-03        -1.64466    -258.585E-03         1.88785    -823.456E-03         4.42276     39.8305E-03    -17.9853E-03    -21.8452E-03    -18.1474E-03     36.1327E-03    -17.9853E-03     28.3792E-03     36.3165E+06    -18.9476E+06    -49.4763E+06    -18.7399E+06     36.1087E+06    -49.4763E+06     439.614E+03         31.0231
             279     11.7842E-03     55.8056E-03         3.06578    -868.914E-03        -1.39397    -276.935E-03         1.94874    -868.914E-03         3.86026     37.5457E-03    -18.0580E-03    -19.4876E-03    -18.0990E-03     36.1571E-03    -18.0580E-03     17.2968E-03     2.00041E+06    -22.3130E+06    -41.6892E+06    -13.1731E+06    -7.86223E+06    -40.9664E+06     925.890E+03         26.8683
             280     10.8015E-03     55.7918E-03         2.65193    -734.276E-03        -1.11449    -322.219E-03         2.04526    -919.885E-03         2.57380     37.1294E-03    -18.1905E-03    -18.9389E-03    -18.0813E-03     36.2717E-03    -18.1905E-03     13.7200E-03    -9.52748E+06    -23.8638E+06    -52.8650E+06    -9.53707E+06    -50.0925E+06    -26.6267E+06    -475.731E+03         24.9362
             281     9.81945E-03     55.7798E-03         2.30570    -529.910E-03    -974.711E-03    -403.066E-03         2.17886    -974.711E-03         1.05352     37.0164E-03    -18.2825E-03    -18.7339E-03    -18.0906E-03     36.3731E-03    -18.2825E-03     11.7994E-03    -8.52718E+06    -22.0480E+06    -84.3870E+06    -8.57276E+06    -84.3414E+06    -22.0480E+06    -49.8284E+03         24.0520
             282     8.83702E-03     55.7681E-03         2.62481    -765.736E-03        -1.06614    -505.917E-03         2.33036        -1.03151        -1.12460     37.0201E-03    -18.3491E-03    -18.6709E-03    -18.2224E-03     36.5715E-03    -18.3491E-03     9.91033E-03    -9.35600E+06    -22.0743E+06    -112.115E+06    -9.39406E+06    -112.077E+06    -22.0743E+06     107.491E+03         23.6094
             283     7.85466E-03     55.7596E-03         3.01622        -1.08143        -1.14833    -634.434E-03         2.50891        -1.08801        -2.71477     37.1931E-03    -18.4297E-03    -18.7634E-03    -18.3928E-03     36.8225E-03    -18.4297E-03     9.04671E-03    -9.50484E+06    -16.8411E+06    -136.131E+06    -9.51156E+06    -136.124E+06    -16.8411E+06    -711.661E+03         23.3489
             284     6.87333E-03     55.7496E-03         4.02561        -1.14290        -2.09343    -755.977E-03         2.68816        -1.14290        -4.89292     37.2315E-03    -18.4779E-03    -18.7536E-03    -18.4717E-03     36.9497E-03    -18.4779E-03     7.86454E-03    -8.43811E+06    -13.0053E+06    -150.532E+06    -8.44769E+06    -150.522E+06    -13.0053E+06    -765.216E+03         23.1715
             285     5.89131E-03     55.7433E-03         4.27663        -1.19468        -2.28060    -892.062E-03         2.88809        -1.19468        -5.17407     37.1009E-03    -18.5089E-03    -18.5920E-03    -18.3966E-03     36.9054E-03    -18.5089E-03     6.56974E-03    -6.88463E+06    -12.6105E+06    -161.200E+06    -6.89919E+06    -161.185E+06    -12.6105E+06    -886.893E+03         23.0401
             286     4.90900E-03     55.7357E-03         5.27044        -1.24333        -3.21585    -998.734E-03         3.05332        -1.24333        -7.15342     37.2269E-03    -18.5641E-03    -18.6628E-03    -18.5179E-03     37.0820E-03    -18.5641E-03     5.66252E-03    -5.45906E+06    -10.0807E+06    -175.760E+06    -5.83873E+06    -175.734E+06    -9.72678E+06    -683.281E+03         22.9401
             287     3.92754E-03     55.7309E-03         5.24569        -1.28145        -3.14620        -1.14518         3.24743        -1.28421        -4.87354     37.3632E-03    -18.6118E-03    -18.7514E-03    -18.6515E-03     37.2633E-03    -18.6118E-03     4.69864E-03    -3.19904E+06    -4.95749E+06    -187.948E+06    -4.15888E+06    -187.926E+06    -4.01928E+06     734.859E+03         22.8642
             288     2.94552E-03     55.7256E-03         6.87433        -1.31810        -4.75472        -1.20015         3.32252        -1.32086        -8.21259     37.3898E-03    -18.6033E-03    -18.7865E-03    -18.7300E-03     37.3332E-03    -18.6033E-03     3.46688E-03    -613.902E+03    -2.89025E+06    -192.998E+06    -2.44590E+06    -192.986E+06    -1.07015E+06     399.306E+03         22.8078
             289     1.96358E-03     55.7230E-03         10.6128        -1.32744        -8.47971        -1.37899         3.51213        -1.32744     640.423E-03     37.2637E-03    -18.4516E-03    -18.8121E-03    -18.7030E-03     37.2417E-03    -18.5388E-03     2.06998E-03     264.600E+03    -4.42849E+06    -194.000E+06    -4.45727E+06    -193.972E+06     264.600E+03    -1.62431E+06         22.7686
             290     982.382E-06     55.7205E-03         20.2058        -1.85049        -17.5511    -777.425E-03         3.43208        -1.85049        -18.2500     36.9064E-03    -18.1892E-03    -18.7172E-03    -18.6236E-03     36.8998E-03    -18.2763E-03     1.00825E-03    -5.16128E+06    -11.2341E+06    -198.216E+06    -9.96840E+06    -198.180E+06    -6.46310E+06    -1.93181E+06         22.7451
             291     16.6705E-03     55.3509E-03         2.40740    -682.496E-03    -833.793E-03    -516.321E-03         2.11568    -708.251E-03         1.69207     384.418E-03    -19.4918E-03    -364.926E-03    -119.555E-03     139.047E-03    -19.4918E-03     702.441E-03     158.280E+06     126.526E+06    -9.60362E+06     -9.4028E+06     154.862E+06     129.744E+06     3.14670E+06         84.5584
             292     15.7176E-03     54.9610E-03         2.75849    -716.318E-03        -1.22750    -434.502E-03         1.96549    -716.318E-03         3.14814     131.231E-03    -19.0916E-03    -112.140E-03    -29.2825E-03     48.3740E-03    -19.0916E-03     229.345E-03     111.464E+06     58.9288E+06    -17.3779E+06    -17.0603E+06     111.147E+06     58.9288E+06     2.99702E+06         69.0967
             293     14.7260E-03     54.8686E-03         3.14035    -734.958E-03        -1.61818    -408.712E-03         1.93088    -734.958E-03         4.14027     55.9022E-03    -18.6273E-03    -37.2748E-03    -18.5551E-03     37.1825E-03    -18.6273E-03     72.4804E-03     75.3191E+06     8.33890E+06    -25.8865E+06    -22.4714E+06     74.8974E+06     5.34541E+06     1.60127E+06         52.3149
             294     13.7442E-03     54.8195E-03         3.36506    -757.865E-03        -1.83041    -399.541E-03         1.93419    -757.865E-03         4.64010     44.1945E-03    -18.2765E-03    -25.9179E-03    -19.3809E-03     37.6575E-03    -18.2765E-03     40.2902E-03     60.2083E+06    -22.7542E+06    -40.0839E+06    -22.4255E+06     59.8796E+06    -40.0839E+06     1.56805E+06         39.1992
             295     12.7647E-03     54.7886E-03         3.33117    -784.452E-03        -1.77682    -403.654E-03         1.95800    -784.452E-03         4.52497     40.4265E-03    -18.0881E-03    -22.3384E-03    -19.2576E-03     37.3457E-03    -18.0881E-03     26.0981E-03     37.6066E+06    -19.2785E+06    -53.6795E+06    -18.8827E+06     37.2108E+06    -53.6795E+06    -868.547E+03         31.1185
             296     11.7826E-03     54.7670E-03         3.11815    -814.653E-03        -1.53449    -421.213E-03         2.00487    -814.653E-03         3.96576     37.8432E-03    -18.1055E-03    -19.7376E-03    -18.6356E-03     36.7412E-03    -18.1055E-03     15.4453E-03     2.09048E+06    -23.8500E+06    -45.7860E+06    -14.5877E+06    -7.89459E+06    -45.0633E+06    -2.33371E+06         26.9177
             297     10.8011E-03     54.7563E-03         2.68609    -764.770E-03        -1.15059    -453.066E-03         2.07195    -848.156E-03         2.66189     37.3732E-03    -18.2367E-03    -19.1365E-03    -18.4526E-03     36.6892E-03    -18.2367E-03     12.2840E-03    -10.8704E+06    -23.0951E+06    -52.3826E+06    -10.9806E+06    -51.1239E+06    -24.2436E+06    -667.756E+03         24.9532
             298     9.81918E-03     54.7411E-03         2.29588    -642.176E-03    -884.049E-03    -506.174E-03         2.15988    -884.049E-03         1.15239     37.2788E-03    -18.3011E-03    -18.9777E-03    -18.4739E-03     36.7750E-03    -18.3011E-03     10.4445E-03    -9.35940E+06    -17.5414E+06    -84.8887E+06    -9.43724E+06    -84.8108E+06    -17.5414E+06    -191.445E+03         24.0535
             299     8.83760E-03     54.7330E-03         2.57117    -762.805E-03        -1.04211    -571.972E-03         2.25952    -921.291E-03        -1.06589     37.0762E-03    -18.3423E-03    -18.7340E-03    -18.3791E-03     36.7214E-03    -18.3423E-03     8.86272E-03    -5.97378E+06    -14.9441E+06    -111.571E+06    -6.03951E+06    -111.505E+06    -14.9441E+06    -129.317E+03         23.6044
             300     7.85556E-03     54.7213E-03         2.86653    -958.402E-03        -1.14707    -656.612E-03         2.37607    -958.402E-03        -2.61711     37.1581E-03    -18.4009E-03    -18.7572E-03    -18.4581E-03     36.8635E-03    -18.4054E-03     8.06274E-03    -3.73917E+06    -8.95324E+06    -135.450E+06    -3.74523E+06    -135.444E+06    -8.95324E+06    -496.444E+03         23.3414
             301     6.87344E-03     54.7137E-03         3.88185    -994.575E-03        -2.12837    -735.248E-03         2.48872    -994.575E-03        -4.87448     37.1031E-03    -18.4378E-03    -18.6653E-03    -18.4430E-03     36.8853E-03    -18.4423E-03     6.91995E-03    -2.77747E+06    -5.95256E+06    -150.612E+06    -2.78873E+06    -150.600E+06    -5.95256E+06    -1.17075E+06         23.1626
             302     5.89144E-03     54.7055E-03         4.04382        -1.02861        -2.24991    -828.165E-03         2.62207        -1.02861        -5.04529     37.0942E-03    -18.4635E-03    -18.6308E-03    -18.4663E-03     36.9298E-03    -18.4635E-03     6.01561E-03    -2.62665E+06    -5.68640E+06    -162.293E+06    -2.63894E+06    -162.280E+06    -5.68640E+06    -171.621E+03         23.0300
             303     4.90989E-03     54.6997E-03         5.10825        -1.06069        -3.27673    -895.208E-03         2.72673        -1.06069        -7.21080     37.1171E-03    -18.4842E-03    -18.6329E-03    -18.5072E-03     36.9914E-03    -18.4842E-03     5.26902E-03    -4.01240E+06    -6.08899E+06    -175.951E+06    -4.03603E+06    -175.927E+06    -6.08899E+06     568.213E+03         22.9288
             304     3.92743E-03     54.6932E-03         5.17917        -1.08723        -3.31904    -998.434E-03         2.85857        -1.08723        -4.65094     37.1813E-03    -18.4922E-03    -18.6891E-03    -18.6019E-03     37.0941E-03    -18.4922E-03     4.36344E-03    -4.90023E+06    -6.59560E+06    -188.782E+06    -5.66829E+06    -188.755E+06    -5.85467E+06    -19.3704E+03         22.8516
             305     2.94613E-03     54.6891E-03         7.07452        -1.11125        -5.20045        -1.02793         2.90200        -1.11125        -8.52124     37.1610E-03    -18.4532E-03    -18.7078E-03    -18.6588E-03     37.1120E-03    -18.4532E-03     3.22193E-03    -4.43233E+06    -7.00181E+06    -191.331E+06    -7.03891E+06    -191.293E+06    -4.43233E+06     422.467E+03         22.7943
             306     1.96451E-03     54.6855E-03         11.5125        -1.11363        -9.62763        -1.15678         3.04170        -1.11363         1.28375     36.9815E-03    -18.3194E-03    -18.6621E-03    -18.6196E-03     36.9612E-03    -18.3416E-03     1.99900E-03    -4.00598E+06    -9.21743E+06    -193.560E+06    -9.08349E+06    -193.530E+06    -4.16936E+06     73.8529E+03         22.7543
             307     982.846E-06     54.6841E-03         22.3812        -1.43000        -20.1923    -774.801E-03         2.96374        -1.43000        -20.3015     36.4731E-03    -17.9484E-03    -18.5247E-03    -18.2099E-03     36.4663E-03    -18.2564E-03     1.17253E-03    -8.47872E+06    -13.9234E+06    -200.343E+06    -12.4614E+06    -200.340E+06    -9.94392E+06    -102.501E+03         22.7302
             308     16.6914E-03     54.2760E-03         2.31945    -666.932E-03    -861.329E-03    -526.990E-03         2.01973    -701.553E-03         1.70586     388.297E-03    -19.5082E-03    -368.789E-03    -123.423E-03     142.932E-03    -19.5082E-03     705.721E-03     158.919E+06     127.684E+06    -12.5183E+06    -12.0581E+06     153.338E+06     132.804E+06     101.570E+03         84.4633
             309     15.7032E-03     53.9343E-03         2.74224    -710.838E-03        -1.30240    -515.870E-03         1.95571    -710.838E-03         3.17528     126.409E-03    -19.2519E-03    -107.158E-03    -24.9165E-03     44.1684E-03    -19.2519E-03     219.916E-03     111.555E+06     62.5626E+06    -20.1060E+06    -19.5545E+06     111.004E+06     62.5626E+06     1.23658E+06         69.0848
             310     14.7238E-03     53.8228E-03         3.15170    -722.396E-03        -1.70150    -537.509E-03         1.98771    -722.396E-03         4.14144     57.4308E-03    -18.7754E-03    -38.6554E-03    -21.3364E-03     40.1118E-03    -18.7754E-03     70.7949E-03     75.6988E+06     10.5251E+06    -27.3410E+06    -22.1817E+06     75.2849E+06     5.77965E+06     2.83247E+06         52.3820
             311     13.7456E-03     53.7848E-03         3.38446    -734.003E-03        -1.91886    -557.912E-03         2.02351    -734.003E-03         4.63009     43.8252E-03    -18.3090E-03    -25.5162E-03    -20.5270E-03     38.8360E-03    -18.3090E-03     35.6093E-03     62.1646E+06    -23.6034E+06    -36.5674E+06    -23.2109E+06     61.7721E+06    -36.5674E+06     1.05229E+06         39.3089
             312     12.7638E-03     53.7449E-03         3.34854    -745.951E-03        -1.86963    -574.786E-03         2.05370    -745.951E-03         4.50162     39.9613E-03    -18.0395E-03    -21.9219E-03    -19.5548E-03     37.5943E-03    -18.0395E-03     22.3192E-03     40.8352E+06    -21.8620E+06    -54.3380E+06    -21.4314E+06     40.4045E+06    -54.3380E+06    -1.40854E+06         31.2004
             313     11.7845E-03     53.7338E-03         3.13323    -758.618E-03        -1.64064    -591.238E-03         2.08383    -758.618E-03         3.94923     37.6258E-03    -17.9752E-03    -19.6506E-03    -18.9208E-03     36.8960E-03    -17.9752E-03     12.7784E-03     187.918E+03    -28.0491E+06    -56.8934E+06    -19.0498E+06    -8.81145E+06    -56.8934E+06      -3.365E+06         26.9582
             314     10.8019E-03     53.7156E-03         2.69368    -756.248E-03        -1.20189    -607.737E-03         2.11542    -772.146E-03         2.63702     37.2056E-03    -18.0799E-03    -19.1258E-03    -18.6110E-03     36.6909E-03    -18.0799E-03     10.6039E-03    -15.8155E+06    -31.6729E+06    -58.6531E+06    -16.1692E+06    -53.7124E+06    -36.2599E+06    -1.88477E+06         24.9662
             315     9.82115E-03     53.7067E-03         2.27991    -718.301E-03    -824.584E-03    -631.387E-03         2.15474    -786.328E-03         1.14416     36.8836E-03    -18.1282E-03    -18.7554E-03    -18.3887E-03     36.5169E-03    -18.1282E-03     8.98331E-03    -13.5529E+06    -28.7086E+06    -85.0062E+06    -13.6215E+06    -84.9376E+06    -28.7086E+06    -607.778E+03         24.0527
             316     8.83835E-03     53.6941E-03         2.52878    -748.912E-03        -1.04251    -654.743E-03         2.19315    -801.041E-03        -1.09742     36.9146E-03    -18.1497E-03    -18.7648E-03    -18.4523E-03     36.6021E-03    -18.1497E-03     8.29105E-03    -13.0748E+06    -27.7875E+06    -111.741E+06    -13.1380E+06    -111.678E+06    -27.7875E+06    -921.543E+03         23.5978
             317     7.85717E-03     53.6860E-03         2.74246    -815.751E-03        -1.19389    -690.100E-03         2.23867    -815.751E-03        -2.61353     36.8599E-03    -18.1822E-03    -18.6777E-03    -18.4313E-03     36.6180E-03    -18.1867E-03     7.29168E-03    -11.9007E+06    -22.4174E+06    -134.478E+06    -11.9203E+06    -134.458E+06    -22.4174E+06    -975.082E+03         23.3321
             318     6.87469E-03     53.6762E-03         3.75528    -830.219E-03        -2.19646    -719.196E-03         2.27802    -830.219E-03        -4.92323     36.6685E-03    -18.1997E-03    -18.4688E-03    -18.2649E-03     36.4917E-03    -18.2268E-03     6.20029E-03    -11.3926E+06    -17.1832E+06    -151.168E+06    -11.4008E+06    -151.160E+06    -17.1832E+06    -691.139E+03         23.1514
             319     5.89285E-03     53.6695E-03         3.82276    -843.947E-03        -2.24982    -758.604E-03         2.33154    -843.947E-03        -5.00051     36.6650E-03    -18.2294E-03    -18.4356E-03    -18.2795E-03     36.5314E-03    -18.2519E-03     5.41387E-03    -11.5149E+06    -15.7756E+06    -163.315E+06    -11.5243E+06    -163.305E+06    -15.7756E+06     198.278E+03         23.0171
             320     4.91028E-03     53.6624E-03         4.93436    -857.013E-03        -3.35310    -784.474E-03         2.36574    -857.013E-03        -7.30453     36.7875E-03    -18.2732E-03    -18.5143E-03    -18.4056E-03     36.6788E-03    -18.2732E-03     4.88158E-03    -9.42573E+06    -13.2208E+06    -175.931E+06    -10.0620E+06    -175.915E+06    -12.6004E+06     1.19797E+06         22.9142
             321     3.92903E-03     53.6569E-03         5.10601    -867.189E-03        -3.51092    -834.016E-03         2.42911    -867.189E-03        -4.51188     36.7649E-03    -18.2738E-03    -18.4911E-03    -18.4182E-03     36.6920E-03    -18.2738E-03     3.97437E-03    -8.28100E+06    -10.7803E+06    -188.008E+06    -9.13599E+06    -187.930E+06    -10.0033E+06     1.97156E+06         22.8354
             322     2.94637E-03     53.6522E-03         7.20189    -877.043E-03        -5.60560    -836.568E-03         2.43286    -877.043E-03        -8.78148     36.5660E-03    -18.1317E-03    -18.4344E-03    -18.2714E-03     36.5220E-03    -18.2506E-03     3.07801E-03    -8.81654E+06    -12.9431E+06    -191.218E+06    -10.2216E+06    -191.094E+06    -11.6622E+06     898.320E+03         22.7767
             323     1.96446E-03     53.6491E-03         12.1896    -869.274E-03        -10.5950    -924.285E-03         2.51884    -869.274E-03         1.80449     36.4732E-03    -18.0688E-03    -18.4045E-03    -18.1435E-03     36.4506E-03    -18.3071E-03     2.13566E-03    -5.66642E+06    -11.3746E+06    -194.296E+06    -9.55539E+06    -194.238E+06    -7.54364E+06    -298.891E+03         22.7358
             324     981.509E-06     53.6486E-03         24.0865    -976.092E-03        -22.3711    -734.160E-03         2.44957    -976.092E-03        -21.9633     36.6821E-03    -18.0043E-03    -18.6778E-03    -18.2665E-03     36.6760E-03    -18.4095E-03     910.748E-06    -5.19933E+06    -10.8063E+06    -197.734E+06    -8.67408E+06    -197.726E+06    -7.33966E+06    -233.931E+03         22.7116
             325     16.7036E-03     53.2807E-03         2.20736    -647.114E-03    -874.872E-03    -536.899E-03         1.91903    -696.750E-03         1.65754     391.320E-03    -19.2184E-03    -372.102E-03    -124.972E-03     144.190E-03    -19.2184E-03     710.328E-03     157.396E+06     118.799E+06    -10.5909E+06    -10.1757E+06     152.493E+06     123.286E+06    -1.09726E+06         84.3501
             326     15.7019E-03     52.8807E-03         2.69443    -701.185E-03        -1.33858    -599.006E-03         1.95485    -701.185E-03         3.10002     127.490E-03    -18.9960E-03    -108.494E-03    -23.3150E-03     42.3110E-03    -18.9960E-03     222.331E-03     108.587E+06     52.4180E+06    -20.4383E+06    -20.0783E+06     108.227E+06     52.4180E+06    -1.43737E+06         69.0438
             327     14.7284E-03     52.7869E-03         3.12007    -703.237E-03        -1.74107    -671.081E-03         2.05008    -703.237E-03         4.02524     55.0136E-03    -18.6155E-03    -36.3981E-03    -22.3087E-03     40.9242E-03    -18.6155E-03     63.4887E-03     75.4380E+06     10.8300E+06    -27.5586E+06    -24.7374E+06     75.2304E+06     8.21640E+06     1.92082E+06         52.4114
             328     13.7476E-03     52.7391E-03         3.35456    -702.236E-03        -1.96004    -719.314E-03         2.11383    -702.236E-03         4.49308     42.5662E-03    -18.0817E-03    -24.4844E-03    -20.6590E-03     38.7407E-03    -18.0817E-03     30.6779E-03     65.2423E+06    -20.0983E+06    -34.0925E+06    -21.5546E+06     64.9738E+06    -32.3678E+06     331.963E+03         39.3924
             329     12.7694E-03     52.7118E-03         3.31629    -698.511E-03        -1.91836    -747.195E-03         2.14513    -698.511E-03         4.35501     38.4729E-03    -17.7976E-03    -20.6752E-03    -19.0675E-03     36.8652E-03    -17.7976E-03     18.3036E-03     42.6119E+06    -17.8519E+06    -50.8572E+06    -17.6706E+06     42.4307E+06    -50.8572E+06    -2.54479E+06         31.2662
             330     11.7852E-03     52.6922E-03         3.09808    -692.680E-03        -1.70422    -761.263E-03         2.15512    -692.680E-03         3.81053     36.7948E-03    -17.7513E-03    -19.0435E-03    -18.5165E-03     36.2678E-03    -17.7513E-03     10.5663E-03     3.63310E+06    -26.2383E+06    -53.7226E+06    -14.1599E+06    -9.14181E+06    -53.0261E+06    -2.24213E+06         26.9911
             331     10.8061E-03     52.6814E-03         2.66012    -685.292E-03        -1.27314    -761.582E-03         2.14856    -685.292E-03         2.50122     36.4973E-03    -17.8572E-03    -18.6401E-03    -18.2651E-03     36.1223E-03    -17.8572E-03     8.91323E-03    -13.4712E+06    -32.4220E+06    -59.8344E+06    -13.7376E+06    -56.1296E+06    -35.8604E+06    -1.31957E+06         24.9762
             332     9.82184E-03     52.6684E-03         2.23316    -676.818E-03    -852.565E-03    -753.542E-03         2.13414    -676.818E-03         1.03282     36.3294E-03    -17.9078E-03    -18.4216E-03    -18.1073E-03     36.0152E-03    -17.9078E-03     8.18193E-03    -14.0538E+06    -29.7619E+06    -85.3801E+06    -14.0935E+06    -85.3404E+06    -29.7619E+06     259.457E+03         24.0508
             333     8.84109E-03     52.6588E-03         2.47490    -667.902E-03        -1.10297    -735.946E-03         2.10788    -667.902E-03        -1.21794     36.4432E-03    -17.9422E-03    -18.5009E-03    -18.2394E-03     36.1817E-03    -17.9422E-03     7.50342E-03    -13.3168E+06    -26.6136E+06    -111.506E+06    -13.3564E+06    -111.466E+06    -26.6136E+06     279.613E+03         23.5905
             334     7.85814E-03     52.6483E-03         2.62982    -658.912E-03        -1.26985    -720.100E-03         2.08007    -658.912E-03        -2.69619     36.4209E-03    -17.9798E-03    -18.4412E-03    -18.2291E-03     36.2089E-03    -17.9798E-03     6.75785E-03    -13.0022E+06    -21.1166E+06    -134.659E+06    -13.0351E+06    -134.626E+06    -21.1166E+06    -517.378E+03         23.3219
             335     6.87692E-03     52.6408E-03         3.63694    -650.435E-03        -2.29085    -695.920E-03         2.04201    -650.435E-03        -5.03882     36.3150E-03    -17.9848E-03    -18.3302E-03    -18.1469E-03     36.1543E-03    -18.0073E-03     5.89404E-03    -12.5674E+06    -16.5740E+06    -151.553E+06    -12.6364E+06    -151.547E+06    -16.5115E+06    -370.301E+03         23.1392
             336     5.89383E-03     52.6331E-03         3.61398    -642.434E-03        -2.28214    -682.477E-03         2.01431    -642.434E-03        -5.03814     36.2784E-03    -18.0025E-03    -18.2759E-03    -18.1207E-03     36.1458E-03    -18.0250E-03     5.34994E-03    -10.7505E+06    -13.0909E+06    -163.518E+06    -10.8159E+06    -163.515E+06    -13.0284E+06    -248.462E+03         23.0032
             337     4.91223E-03     52.6263E-03         4.75653    -635.528E-03        -3.43541    -657.171E-03         1.97829    -635.528E-03        -7.42848     36.2886E-03    -18.0230E-03    -18.2656E-03    -18.1664E-03     36.1894E-03    -18.0230E-03     4.63186E-03    -9.12517E+06    -13.8054E+06    -176.876E+06    -9.75490E+06    -176.867E+06    -13.1850E+06     283.388E+03         22.8984
             338     3.92927E-03     52.6207E-03         5.01358    -628.691E-03        -3.69791    -655.776E-03         1.97145    -628.691E-03        -4.45137     36.1651E-03    -17.9853E-03    -18.1798E-03    -18.0634E-03     36.0960E-03    -18.0326E-03     3.84948E-03    -7.65243E+06    -11.8430E+06    -187.521E+06    -8.35956E+06    -187.434E+06    -11.2226E+06     1.48209E+06         22.8179
             339     2.94757E-03     52.6163E-03         7.25745    -624.565E-03        -5.95192    -622.603E-03         1.92813    -624.565E-03        -9.01164     36.0131E-03    -17.8833E-03    -18.1297E-03    -17.8968E-03     35.9733E-03    -18.0764E-03     2.87657E-03    -4.45074E+06    -8.40678E+06    -188.232E+06    -5.21815E+06    -188.089E+06    -7.78250E+06     695.649E+03         22.7577
             340     1.96396E-03     52.6139E-03         12.6706    -611.065E-03        -11.3719    -663.161E-03         1.96194    -611.065E-03         2.19001     36.1653E-03    -17.9577E-03    -18.2077E-03    -17.9478E-03     36.1486E-03    -18.2008E-03     1.82859E-03    -476.473E+03    -7.72215E+06    -193.985E+06    -6.08979E+06    -193.903E+06    -2.19031E+06    -806.947E+03         22.7160
             341     982.244E-06     52.6110E-03         25.2994    -585.434E-03        -24.0241    -609.526E-03         1.88478    -585.434E-03        -23.1435     36.4711E-03    -18.0088E-03    -18.4622E-03    -18.2794E-03     36.4665E-03    -18.1871E-03     785.936E-06    -2.42983E+06    -12.1926E+06    -199.451E+06    -10.2390E+06    -199.428E+06    -4.40677E+06    -1.29259E+06         22.6913
             342     16.6913E-03     52.2426E-03         2.09367    -619.158E-03    -869.691E-03    -541.248E-03         1.82919    -683.113E-03         1.58081     391.475E-03    -18.9813E-03    -372.494E-03    -127.240E-03     146.222E-03    -18.9813E-03     710.873E-03     157.704E+06     118.690E+06    -11.5323E+06    -11.3271E+06     151.780E+06     124.409E+06     3.51351E+06         84.0395
             343     15.7230E-03     51.8500E-03         2.62189    -676.595E-03        -1.33662    -675.337E-03         1.96060    -676.595E-03         2.93420     129.407E-03    -18.5432E-03    -110.863E-03    -27.3680E-03     45.9112E-03    -18.5432E-03     225.777E-03     112.818E+06     56.3128E+06    -17.0630E+06    -16.8157E+06     112.571E+06     56.3128E+06     4.84060E+06         68.8786
             344     14.7327E-03     51.7424E-03         3.04608    -667.300E-03        -1.73775    -788.406E-03         2.09674    -667.300E-03         3.81309     52.5161E-03    -18.0546E-03    -34.4615E-03    -20.8827E-03     38.9373E-03    -18.0546E-03     59.1200E-03     78.0456E+06     13.0921E+06    -27.1566E+06    -21.7505E+06     77.6183E+06     8.11328E+06    -1.32031E+06         52.4327
             345     13.7566E-03     51.7014E-03         3.27490    -653.381E-03        -1.95744    -859.941E-03         2.17740    -653.381E-03         4.25728     39.1557E-03    -17.5998E-03    -21.5559E-03    -18.7654E-03     36.3651E-03    -17.5998E-03     25.0063E-03     66.2081E+06    -18.8416E+06    -34.2154E+06    -20.1371E+06     65.7787E+06    -32.4906E+06    -4.62872E+06         39.4648
             346     12.7723E-03     51.6738E-03         3.23259    -634.097E-03        -1.92511    -897.501E-03         2.20497    -634.097E-03         4.11140     36.5289E-03    -17.4334E-03    -19.0954E-03    -17.6665E-03     35.0999E-03    -17.4334E-03     16.5114E-03     42.9196E+06    -15.3809E+06    -44.5644E+06    -15.0681E+06     42.6068E+06    -44.5644E+06    -3.69399E+06         31.3248
             347     11.7928E-03     51.6566E-03         3.01002    -610.226E-03        -1.72399    -905.281E-03         2.19131    -610.226E-03         3.57641     35.4651E-03    -17.4570E-03    -18.0081E-03    -17.5198E-03     34.9768E-03    -17.4570E-03     9.89714E-03     1.13311E+06    -26.6219E+06    -48.1970E+06    -13.9173E+06    -12.2681E+06    -47.5004E+06    -603.593E+03         27.0227
             348     10.8068E-03     51.6450E-03         2.57797    -582.721E-03        -1.32081    -888.879E-03         2.14605    -582.721E-03         2.28024     35.5566E-03    -17.6128E-03    -17.9438E-03    -17.5733E-03     35.1861E-03    -17.6128E-03     8.57290E-03    -13.6325E+06    -28.7730E+06    -57.2270E+06    -14.1790E+06    -56.5699E+06    -28.8836E+06     1.64996E+06         24.9877
             349     9.82661E-03     51.6325E-03         2.14477    -552.462E-03    -919.119E-03    -852.128E-03         2.07778    -552.462E-03     837.929E-03     35.7925E-03    -17.6806E-03    -18.1119E-03    -17.7984E-03     35.4790E-03    -17.6806E-03     8.02604E-03    -12.3213E+06    -22.4885E+06    -84.0970E+06    -12.6246E+06    -84.0483E+06    -22.2339E+06    -619.950E+03         24.0513
             350     8.84265E-03     51.6227E-03         2.39721    -520.766E-03        -1.20371    -795.434E-03         1.98894    -520.766E-03        -1.40656     35.8294E-03    -17.7290E-03    -18.1004E-03    -17.8232E-03     35.5523E-03    -17.7290E-03     7.56543E-03    -8.38602E+06    -18.1928E+06    -112.014E+06    -8.45079E+06    -111.949E+06    -18.1928E+06    -1.14056E+06         23.5854
             351     7.86109E-03     51.6124E-03         2.51931    -488.781E-03        -1.36371    -732.455E-03         1.88805    -488.781E-03        -2.84973     35.8309E-03    -17.7909E-03    -18.0400E-03    -17.8249E-03     35.6158E-03    -17.7909E-03     6.73728E-03    -5.61841E+06    -11.6502E+06    -135.178E+06    -5.66671E+06    -135.130E+06    -11.6502E+06     170.812E+03         23.3139
             352     6.87750E-03     51.6050E-03         3.52143    -457.645E-03        -2.40415    -659.390E-03         1.77667    -457.645E-03        -5.20493     35.9337E-03    -17.8082E-03    -18.1255E-03    -17.9433E-03     35.7515E-03    -17.8082E-03     6.22267E-03    -4.84326E+06    -11.2453E+06    -150.749E+06    -4.94287E+06    -150.712E+06    -11.1829E+06    -531.523E+03         23.1292
             353     5.89610E-03     51.5970E-03         3.42041    -428.182E-03        -2.33747    -590.963E-03         1.67390    -428.182E-03        -5.13811     36.0138E-03    -17.8181E-03    -18.1957E-03    -18.0482E-03     35.8663E-03    -17.8181E-03     5.62181E-03    -5.35384E+06    -8.97187E+06    -165.246E+06    -5.47781E+06    -165.184E+06    -8.90943E+06     213.519E+03         22.9916
             354     4.91299E-03     51.5908E-03         4.57733    -401.667E-03        -3.52556    -516.824E-03         1.56860    -401.667E-03        -7.57322     35.7994E-03    -17.8105E-03    -17.9889E-03    -17.8762E-03     35.6866E-03    -17.8105E-03     4.89612E-03    -6.47095E+06    -9.78808E+06    -176.991E+06    -6.52228E+06    -176.940E+06    -9.78808E+06     1.43183E+06         22.8854
             355     3.93093E-03     51.5850E-03         4.89165    -378.156E-03        -3.86284    -463.702E-03         1.49251    -378.156E-03        -4.46117     35.6691E-03    -17.7736E-03    -17.8955E-03    -17.7647E-03     35.5941E-03    -17.8294E-03     3.93478E-03    -7.61163E+06    -10.2984E+06    -186.508E+06    -7.75002E+06    -186.482E+06    -10.1860E+06    -136.888E+03         22.8033
             356     2.94715E-03     51.5813E-03         7.23298    -360.412E-03        -6.22353    -396.175E-03         1.40563    -360.412E-03        -9.20750     35.6774E-03    -17.7907E-03    -17.8868E-03    -17.7640E-03     35.6373E-03    -17.8733E-03     2.90027E-03    -6.17772E+06    -8.43211E+06    -186.607E+06    -8.00906E+06    -186.544E+06    -6.66378E+06    -195.851E+03         22.7417
             357     1.96568E-03     51.5776E-03         12.9166    -342.086E-03        -11.9305    -388.064E-03         1.37417    -342.086E-03         2.38194     35.7992E-03    -17.8535E-03    -17.9458E-03    -17.8519E-03     35.7773E-03    -17.9254E-03     2.07412E-03    -2.03501E+06    -8.37003E+06    -191.636E+06    -8.45956E+06    -191.546E+06    -2.03501E+06     614.982E+03         22.6987
             358     982.725E-06     51.5757E-03         26.0146    -202.696E-03        -25.1681    -457.116E-03         1.30361    -202.696E-03        -23.9767     35.8083E-03    -17.8233E-03    -17.9850E-03    -17.8222E-03     35.8003E-03    -17.9781E-03     1.19328E-03    -6.58120E+06    -14.8736E+06    -202.982E+06    -14.2850E+06    -202.836E+06    -7.31616E+06    -2.08095E+06         22.6729
             359     16.7101E-03     51.2031E-03         1.99269    -585.103E-03    -848.971E-03    -550.240E-03         1.76060    -651.741E-03         1.47100     391.841E-03    -18.6587E-03    -373.182E-03    -135.252E-03     153.910E-03    -18.6587E-03     706.512E-03     161.350E+06     126.208E+06    -10.0139E+06    -9.80190E+06     155.188E+06     132.157E+06     3.83889E+06         83.5404
             360     15.7198E-03     50.8121E-03         2.52951    -629.405E-03        -1.31080    -735.486E-03         1.95420    -629.405E-03         2.72271     124.947E-03    -17.8761E-03    -107.071E-03    -29.2911E-03     47.1672E-03    -17.8761E-03     217.207E-03     118.606E+06     65.0404E+06    -13.9623E+06    -13.5946E+06     118.239E+06     65.0404E+06     20.7774E+03         68.6821
             361     14.7523E-03     50.6994E-03         2.93875    -607.969E-03        -1.70473    -876.115E-03         2.11014    -607.969E-03         3.55373     48.5853E-03    -17.3275E-03    -31.2578E-03    -16.9003E-03     34.2278E-03    -17.3275E-03     57.9971E-03     81.8656E+06     19.0948E+06    -25.7543E+06    -13.3040E+06     81.2519E+06     7.25830E+06    -3.52251E+06         52.4702
             362     13.7638E-03     50.6722E-03         3.15209    -581.600E-03        -1.92223    -962.030E-03         2.19189    -581.600E-03         3.97249     36.3650E-03    -17.0661E-03    -19.2990E-03    -15.4191E-03     32.4851E-03    -17.0661E-03     27.2631E-03     67.1204E+06    -11.1749E+06    -37.7973E+06    -10.7214E+06     66.6668E+06    -37.7973E+06    -4.90394E+06         39.5401
             363     12.7797E-03     50.6346E-03         3.10029    -548.065E-03        -1.89474        -1.00173         2.20728    -548.065E-03         3.81935     35.1508E-03    -16.9407E-03    -18.2101E-03    -15.9576E-03     33.0496E-03    -17.0920E-03     19.3826E-03     39.3974E+06    -15.3986E+06    -47.8746E+06    -14.1266E+06     38.1254E+06    -47.8746E+06    -535.524E+03         31.3847
             364     11.7931E-03     50.6254E-03         2.87285    -508.086E-03        -1.70635        -1.00302         2.16951    -508.086E-03         3.29935     34.6384E-03    -17.0418E-03    -17.5966E-03    -16.6849E-03     33.8780E-03    -17.1931E-03     12.1388E-03    -2.83683E+06    -28.7800E+06    -51.8006E+06    -16.8530E+06    -14.7638E+06    -51.8006E+06     2.91694E+06         27.0596
             365     10.8121E-03     50.6069E-03         2.44663    -462.804E-03        -1.32897    -970.489E-03         2.08815    -462.804E-03         2.01677     35.0465E-03    -17.2910E-03    -17.7555E-03    -17.1363E-03     34.4876E-03    -17.3514E-03     10.5317E-03    -14.0697E+06    -32.1885E+06    -59.4691E+06    -14.6242E+06    -53.8387E+06    -37.2645E+06     771.346E+03         25.0059
             366     9.82725E-03     50.5994E-03         2.01025    -413.398E-03    -946.949E-03    -908.608E-03         1.97191    -413.398E-03     601.607E-03     35.2617E-03    -17.3876E-03    -17.8741E-03    -17.3455E-03     34.7934E-03    -17.4479E-03     9.70243E-03    -10.8998E+06    -29.9196E+06    -82.1847E+06    -11.2122E+06    -82.1268E+06    -29.6650E+06    -1.29204E+06         24.0578
             367     8.84538E-03     50.5855E-03         2.29247    -361.619E-03        -1.28637    -819.361E-03         1.82546    -361.619E-03        -1.62823     35.4351E-03    -17.5078E-03    -17.9273E-03    -17.5360E-03     35.0438E-03    -17.5078E-03     8.97972E-03    -10.5443E+06    -29.5939E+06    -113.289E+06    -10.6103E+06    -113.223E+06    -29.5939E+06    -2.06631E+06         23.5858
             368     7.86172E-03     50.5788E-03         2.40636    -309.168E-03        -1.46296    -716.316E-03         1.65972    -309.168E-03        -3.04131     35.4571E-03    -17.5880E-03    -17.8691E-03    -17.5738E-03     35.1618E-03    -17.5880E-03     7.84156E-03    -8.38447E+06    -22.2758E+06    -135.890E+06    -8.44576E+06    -135.829E+06    -22.2758E+06    -1.39016E+06         23.3112
             369     6.87932E-03     50.5686E-03         3.40383    -257.651E-03        -2.52112    -600.762E-03         1.48347    -257.651E-03        -5.38364     35.6288E-03    -17.6298E-03    -17.9990E-03    -17.7466E-03     35.3844E-03    -17.6378E-03     7.17245E-03    -6.35930E+06    -17.2631E+06    -151.146E+06    -6.43665E+06    -151.068E+06    -17.2631E+06     217.057E+03         23.1249
             370     5.89623E-03     50.5620E-03         3.24194    -208.778E-03        -2.41349    -483.057E-03         1.31151    -208.778E-03        -5.26738     35.6768E-03    -17.6747E-03    -18.0022E-03    -17.8130E-03     35.4958E-03    -17.6828E-03     6.19979E-03    -5.80030E+06    -11.4907E+06    -166.850E+06    -6.29847E+06    -166.758E+06    -11.0843E+06     1.19158E+06         22.9862
             371     4.91397E-03     50.5554E-03         4.40546    -164.208E-03        -3.62528    -367.375E-03         1.14755    -164.208E-03        -7.71786     35.6077E-03    -17.7087E-03    -17.8991E-03    -17.7567E-03     35.4710E-03    -17.7142E-03     5.37373E-03    -3.83520E+06    -6.93120E+06    -176.346E+06    -5.70035E+06    -176.272E+06    -5.13947E+06     1.94077E+06         22.8790
             372     3.93062E-03     50.5502E-03         4.75283    -125.768E-03        -4.00691    -260.692E-03         1.00661    -125.768E-03        -4.51333     35.5301E-03    -17.7228E-03    -17.8074E-03    -17.7023E-03     35.4390E-03    -17.7368E-03     4.34934E-03    -2.38644E+06    -5.71669E+06    -184.645E+06    -5.61046E+06    -184.615E+06    -2.52252E+06     1.32744E+06         22.7959
             373     2.94889E-03     50.5459E-03         7.13812    -95.5022E-03        -6.43077    -169.464E-03     876.817E-03    -95.5022E-03        -9.34879     35.4975E-03    -17.7125E-03    -17.7850E-03    -17.7121E-03     35.4414E-03    -17.7293E-03     3.39293E-03    -4.21879E+06    -7.89045E+06    -186.614E+06    -7.07584E+06    -186.597E+06    -5.05001E+06    -280.129E+03         22.7333
             374     1.96509E-03     50.5424E-03         12.9858    -71.3327E-03        -12.3136    -115.280E-03     787.518E-03    -71.3327E-03         2.46188     35.4434E-03    -17.6864E-03    -17.7569E-03    -17.6710E-03     35.4145E-03    -17.7435E-03     2.41966E-03    -4.94975E+06    -9.86435E+06    -192.123E+06    -8.50916E+06    -192.073E+06    -6.35450E+06    -10.2128E+03         22.6890
             375     982.496E-06     50.5408E-03         26.2740     178.549E-03        -25.8647    -298.119E-03     707.363E-03     178.549E-03        -24.3839     35.5129E-03    -17.5905E-03    -17.9224E-03    -17.8341E-03     35.5021E-03    -17.6680E-03     1.43158E-03    -6.44098E+06    -10.6341E+06    -200.176E+06    -9.06086E+06    -200.034E+06    -8.15587E+06    -2.16018E+06         22.6621
             376     16.7051E-03     50.1492E-03         1.91045    -545.228E-03    -818.585E-03    -568.980E-03         1.71304    -597.423E-03         1.34261     386.576E-03    -18.0685E-03    -368.507E-03    -139.911E-03     157.980E-03    -18.0685E-03     689.857E-03     155.331E+06     119.357E+06    -16.3280E+06    -15.8254E+06     148.504E+06     125.681E+06    -2.17163E+06         83.0963
             377     15.7602E-03     49.7725E-03         2.43016    -556.453E-03        -1.27811    -778.430E-03         1.93048    -556.453E-03         2.51290     122.637E-03    -17.1935E-03    -105.443E-03    -22.7408E-03     39.9343E-03    -17.1935E-03     218.055E-03     117.680E+06     60.5218E+06    -12.6508E+06    -12.3301E+06     117.360E+06     60.5218E+06    -4.02536E+06         68.5887
             378     14.7527E-03     49.6810E-03         2.80636    -522.996E-03        -1.65316    -924.136E-03         2.07733    -522.996E-03         3.29703     50.3588E-03    -16.9394E-03    -33.4194E-03    -13.0751E-03     30.0145E-03    -16.9394E-03     69.3833E-03     82.7498E+06     19.8586E+06    -24.8702E+06    -7.13188E+06     82.2074E+06     2.66267E+06    -6.18247E+06         52.5060
             379     13.7646E-03     49.6305E-03         2.99449    -485.633E-03        -1.86242        -1.00899         2.14106    -485.633E-03         3.69517     36.5847E-03    -16.8465E-03    -19.7381E-03    -13.8092E-03     30.6558E-03    -16.8465E-03     34.2881E-03     61.2253E+06    -10.3749E+06    -49.7176E+06    -9.35068E+06     60.2011E+06    -49.7176E+06     401.471E+03         39.6118
             380     12.7788E-03     49.6098E-03         2.92884    -440.342E-03        -1.83814        -1.04607         2.13678    -440.342E-03         3.54096     35.3738E-03    -16.8209E-03    -18.5530E-03    -15.3003E-03     32.2725E-03    -16.9722E-03     24.1710E-03     36.2793E+06    -15.5538E+06    -56.0574E+06    -13.6038E+06     34.3294E+06    -56.0574E+06     6.23135E+06         31.4561
             381     11.7951E-03     49.5842E-03         2.69106    -387.446E-03        -1.65583        -1.04014         2.07537    -387.446E-03         3.03008     34.7700E-03    -16.7897E-03    -17.9803E-03    -16.4099E-03     33.5610E-03    -17.1511E-03     15.4558E-03     2.83644E+06    -25.1541E+06    -48.5955E+06    -11.5932E+06    -10.8436E+06    -48.4763E+06     3.50737E+06         27.1099
             382     10.8109E-03     49.5774E-03         2.26739    -328.080E-03        -1.29819    -995.093E-03         1.96429    -328.080E-03         1.76347     35.0325E-03    -17.0559E-03    -17.9766E-03    -16.8554E-03     34.1817E-03    -17.3263E-03     13.2187E-03    -7.84429E+06    -30.4823E+06    -56.3227E+06    -7.88136E+06    -51.3203E+06    -35.4476E+06    -127.387E+03         25.0343
             383     9.82785E-03     49.5608E-03         1.82820    -263.591E-03    -931.980E-03    -912.181E-03         1.80840    -263.591E-03     366.026E-03     35.4429E-03    -17.3912E-03    -18.0518E-03    -17.2759E-03     34.7274E-03    -17.4515E-03     12.1609E-03    -8.18325E+06    -28.0029E+06    -83.0793E+06    -8.23492E+06    -83.0276E+06    -28.0029E+06     618.142E+03         24.0725
             384     8.84470E-03     49.5533E-03         2.15312    -195.953E-03        -1.33695    -799.672E-03         1.61585    -195.953E-03        -1.84834     35.5493E-03    -17.5330E-03    -18.0164E-03    -17.4971E-03     35.0300E-03    -17.5330E-03     10.4717E-03    -9.19099E+06    -24.9698E+06    -111.598E+06    -9.22564E+06    -111.564E+06    -24.9698E+06     443.248E+03         23.5936
             385     7.86179E-03     49.5418E-03         2.28774    -127.238E-03        -1.55481    -664.560E-03         1.39749    -127.238E-03        -3.23341     35.6867E-03    -17.6008E-03    -18.0858E-03    -17.6634E-03     35.2642E-03    -17.6008E-03     9.43958E-03    -10.2386E+06    -21.2471E+06    -137.168E+06    -10.2768E+06    -137.130E+06    -21.2471E+06    -1.24626E+06         23.3159
             386     6.87941E-03     49.5346E-03         3.28547    -59.5446E-03        -2.63288    -515.614E-03         1.16820    -59.5446E-03        -5.55390     35.6610E-03    -17.6465E-03    -18.0144E-03    -17.6790E-03     35.3337E-03    -17.6546E-03     8.32116E-03    -9.12843E+06    -15.9325E+06    -153.044E+06    -9.40492E+06    -152.996E+06    -15.7043E+06    -42.7741E+03         23.1283
             387     5.89639E-03     49.5264E-03         3.08904     5.00322E-03        -2.51065    -361.240E-03     939.632E-03     5.00322E-03        -5.40301     35.6583E-03    -17.7086E-03    -17.9497E-03    -17.6865E-03     35.4032E-03    -17.7166E-03     7.30782E-03    -6.12807E+06    -8.97002E+06    -166.282E+06    -7.21440E+06    -166.249E+06    -7.91708E+06     456.367E+03         22.9890
             388     4.91368E-03     49.5203E-03         4.24709     64.2120E-03        -3.72988    -209.514E-03     726.722E-03     64.2120E-03        -7.83508     35.7213E-03    -17.7495E-03    -17.9718E-03    -17.7897E-03     35.5447E-03    -17.7551E-03     6.09077E-03    -2.51512E+06    -5.23876E+06    -176.473E+06    -5.27502E+06    -176.437E+06    -2.51512E+06     167.210E+03         22.8816
             389     3.93134E-03     49.5153E-03         4.58993     115.114E-03        -4.12100    -63.8971E-03     532.822E-03     115.114E-03        -4.59835     35.6550E-03    -17.7512E-03    -17.9039E-03    -17.7652E-03     35.5322E-03    -17.7670E-03     5.06976E-03     463.106E+03    -3.58435E+06    -183.165E+06    -3.16562E+06    -183.131E+06       11.01E+03     835.187E+03         22.7984
             390     2.94778E-03     49.5104E-03         6.98348     155.779E-03        -6.56406     51.9721E-03     367.447E-03     155.779E-03        -9.44593     35.5920E-03    -17.7327E-03    -17.8594E-03    -17.7653E-03     35.5166E-03    -17.7513E-03     3.95731E-03    -1.14797E+06    -4.61351E+06    -185.771E+06    -3.33216E+06    -185.769E+06    -2.43128E+06     524.398E+03         22.7355
             391     1.96587E-03     49.5082E-03         12.8868     184.055E-03        -12.5137     143.278E-03     229.817E-03     184.055E-03         2.42401     35.5864E-03    -17.6970E-03    -17.8894E-03    -17.8425E-03     35.5515E-03    -17.7090E-03     2.63355E-03    -3.41145E+06    -6.76478E+06    -191.710E+06    -5.37277E+06    -191.697E+06    -4.81621E+06     258.287E+03         22.6908
             392     982.949E-06     49.5048E-03         26.1695     477.119E-03        -26.1093    -87.4900E-03     147.630E-03     477.119E-03        -24.4549     35.3431E-03    -17.3618E-03    -17.9812E-03    -17.7200E-03     35.3323E-03    -17.6123E-03     1.41700E-03    -6.71827E+06      -10.29E+06    -200.565E+06    -8.22934E+06    -200.517E+06    -8.82726E+06     587.587E+03         22.6634
             393     16.7618E-03     49.1171E-03         1.85658    -497.926E-03    -790.400E-03    -597.702E-03         1.68454    -518.581E-03         1.24126     382.629E-03    -17.8244E-03    -364.804E-03    -132.578E-03     150.403E-03    -17.8244E-03     684.420E-03     160.152E+06     121.146E+06    -10.0878E+06    -8.63757E+06     153.428E+06     126.420E+06    -5.34878E+06         82.8232
             394     15.7248E-03     48.7576E-03         2.33834    -458.986E-03        -1.24851    -798.235E-03         1.88806    -458.986E-03         2.35563     130.475E-03    -17.1851E-03    -113.290E-03    -18.5363E-03     35.7214E-03    -17.1851E-03     235.088E-03     116.956E+06     51.4054E+06    -9.04515E+06    -7.70155E+06     115.612E+06     51.4054E+06    -9.42661E+06         68.5293
             395     14.7491E-03     48.6373E-03         2.66107    -414.877E-03        -1.59116    -920.986E-03         1.99089    -414.877E-03         3.09774     53.1294E-03    -17.0657E-03    -36.0637E-03    -14.8310E-03     31.8967E-03    -17.0657E-03     73.8383E-03     74.4393E+06     7.14262E+06    -33.3240E+06    -10.2686E+06     72.4598E+06    -13.9333E+06    -2.37507E+06         52.5384
             396     13.7645E-03     48.6105E-03         2.81787    -369.297E-03        -1.79172    -994.388E-03         2.02053    -369.297E-03         3.48525     38.1606E-03    -17.0007E-03    -21.1599E-03    -13.7134E-03     30.7140E-03    -17.0007E-03     39.1154E-03     55.1355E+06    -21.1771E+06    -56.1193E+06    -18.8778E+06     52.8362E+06    -56.1193E+06     7.58505E+06         39.7175
             397     12.7759E-03     48.5675E-03         2.73370    -315.617E-03        -1.76719        -1.02667         1.99317    -315.617E-03         3.33023     36.9951E-03    -17.1205E-03    -19.8746E-03    -15.6100E-03     32.7676E-03    -17.1576E-03     28.5602E-03     39.0271E+06    -16.6799E+06    -52.5617E+06    -15.7120E+06     38.0592E+06    -52.5617E+06     6.15775E+06         31.5559
             398     11.7937E-03     48.5562E-03         2.48092    -253.905E-03        -1.58340        -1.01209         1.90960    -253.905E-03         2.82443     35.4132E-03    -17.0841E-03    -18.3291E-03    -16.4736E-03     33.8049E-03    -17.3313E-03     18.1521E-03     5.07325E+06    -22.2827E+06    -45.2503E+06    -10.1175E+06    -7.21116E+06    -45.1312E+06     2.29458E+06         27.1789
             399     10.8082E-03     48.5387E-03         2.04889    -185.145E-03        -1.23255    -958.553E-03         1.77490    -185.145E-03         1.56651     35.7285E-03    -17.3287E-03    -18.3998E-03    -17.0201E-03     34.5589E-03    -17.5388E-03     15.5865E-03    -9.20621E+06    -28.1352E+06    -52.8339E+06    -9.72793E+06    -51.4793E+06    -28.9681E+06     2.69273E+06         25.0751
             400     9.82633E-03     48.5282E-03         1.60214    -110.513E-03    -875.294E-03    -863.739E-03         1.59059    -110.513E-03     174.309E-03     35.9797E-03    -17.6611E-03    -18.3186E-03    -17.4359E-03     35.0970E-03    -17.6611E-03     13.6623E-03    -9.67187E+06    -22.0402E+06    -83.1748E+06    -9.76428E+06    -83.0823E+06    -22.0402E+06     1.58684E+06         24.0961
             401     8.84282E-03     48.5163E-03         1.98532    -32.2424E-03        -1.35107    -733.343E-03         1.36759    -32.2424E-03        -2.02629     36.1479E-03    -17.7515E-03    -18.3964E-03    -17.7066E-03     35.4581E-03    -17.7515E-03     12.1133E-03    -7.32776E+06    -15.6803E+06    -110.563E+06    -7.35569E+06    -110.535E+06    -15.6803E+06     850.148E+03         23.6089
             402     7.86099E-03     48.5073E-03         2.16907     47.2661E-03        -1.63465    -577.373E-03         1.11179     47.2661E-03        -3.40106     36.2338E-03    -17.8173E-03    -18.4165E-03    -17.8935E-03     35.7108E-03    -17.8173E-03     10.6008E-03    -6.65001E+06    -11.0746E+06    -136.955E+06    -6.68684E+06    -136.918E+06    -11.0746E+06     1.40375E+06         23.3280
             403     6.87763E-03     48.4989E-03         3.17071     125.774E-03        -2.73243    -407.227E-03     845.510E-03     125.774E-03        -5.68986     36.0913E-03    -17.8300E-03    -18.2613E-03    -17.8571E-03     35.6871E-03    -17.8300E-03     9.30823E-03    -7.72524E+06    -13.4988E+06    -152.881E+06    -7.99541E+06    -152.839E+06    -13.2706E+06    -56.0979E+03         23.1394
             404     5.89546E-03     48.4913E-03         2.97425     200.589E-03        -2.62302    -224.847E-03     576.077E-03     200.589E-03        -5.52598     35.9903E-03    -17.8649E-03    -18.1254E-03    -17.8144E-03     35.6793E-03    -17.8649E-03     8.14979E-03    -6.65499E+06    -12.2850E+06    -165.789E+06    -7.31474E+06    -165.776E+06    -11.6384E+06    -1.05741E+06         23.0002
             405     4.91255E-03     48.4850E-03         4.11520     269.647E-03        -3.84273    -54.7434E-03     327.219E-03     269.647E-03        -7.91782     35.9947E-03    -17.9087E-03    -18.0861E-03    -17.8576E-03     35.7663E-03    -17.9087E-03     6.98766E-03    -5.12542E+06    -9.67434E+06    -176.659E+06    -6.07006E+06    -176.647E+06    -8.74242E+06    -1.26674E+06         22.8932
             406     3.93000E-03     48.4795E-03         4.41231     329.536E-03        -4.20401     117.953E-03     90.3419E-03     329.536E-03        -4.69314     36.0882E-03    -17.9095E-03    -18.1787E-03    -18.0173E-03     35.9371E-03    -17.9198E-03     5.65865E-03    -4.76356E+06    -8.41168E+06    -183.929E+06    -5.29072E+06    -183.915E+06    -7.89807E+06    -1.03630E+06         22.8107
             407     2.94795E-03     48.4760E-03         6.77681     378.332E-03        -6.62038     249.219E-03    -92.7860E-03     378.332E-03        -9.47323     36.0154E-03    -17.9044E-03    -18.1110E-03    -18.0096E-03     35.9275E-03    -17.9179E-03     4.32657E-03    -2.38258E+06    -5.02911E+06    -185.942E+06    -4.09201E+06    -185.929E+06    -3.33332E+06     852.351E+03         22.7484
             408     1.96498E-03     48.4714E-03         12.6251     411.606E-03        -12.5269     367.214E-03    -268.952E-03     411.606E-03         2.28483     35.8983E-03    -17.8191E-03    -18.0792E-03    -17.9539E-03     35.8528E-03    -17.8989E-03     3.02988E-03    -587.881E+03    -6.34570E+06    -190.403E+06    -6.37007E+06    -190.379E+06    -587.881E+03     1.94282E+06         22.7042
             409     983.208E-06     48.4712E-03         25.7296     729.415E-03        -25.9537     116.906E-03    -341.011E-03     729.415E-03        -24.2492     35.7003E-03    -17.5566E-03    -18.1437E-03    -17.8067E-03     35.6867E-03    -17.8799E-03     1.56592E-03    -5.56161E+06    -11.6429E+06    -199.855E+06    -9.78266E+06    -199.696E+06    -7.58088E+06     4.63680E+06         22.6772
             410     16.6946E-03     48.1131E-03         1.83815    -417.733E-03    -783.713E-03    -621.847E-03         1.67629    -417.733E-03         1.20489     372.484E-03    -18.2348E-03    -354.250E-03    -120.827E-03     139.061E-03    -18.2348E-03     674.692E-03     165.790E+06     118.445E+06    -14.4831E+03     1.56967E+06     159.102E+06     123.548E+06    -5.55803E+06         82.6839
             411     15.7333E-03     47.6977E-03         2.24877    -342.864E-03        -1.21505    -780.072E-03         1.81379    -342.864E-03         2.26846     129.056E-03    -17.6039E-03    -111.452E-03    -22.8764E-03     40.4802E-03    -17.6039E-03     229.556E-03     110.929E+06     35.0717E+06    -11.8576E+06    -9.07655E+06     108.148E+06     35.0717E+06    -1.22276E+06         68.5559
             412     14.7489E-03     47.6196E-03         2.51654    -291.345E-03        -1.53455    -869.738E-03         1.85172    -291.345E-03         2.99833     52.5895E-03    -17.5024E-03    -35.0871E-03    -13.3995E-03     30.9019E-03    -17.5024E-03     73.8802E-03     66.2754E+06    -6.68624E+06    -38.5506E+06    -24.5078E+06     62.9703E+06    -17.4240E+06     9.56534E+06         52.6745
             413     13.7539E-03     47.5706E-03         2.64399    -240.556E-03        -1.72741    -924.994E-03         1.84158    -240.556E-03         3.38093     42.4167E-03    -17.5039E-03    -24.9128E-03    -15.2810E-03     32.7849E-03    -17.5039E-03     46.5271E-03     59.2606E+06    -22.4280E+06    -46.0896E+06    -23.4008E+06     57.6947E+06    -43.5510E+06     6.87112E+06         39.8685
             414     12.7743E-03     47.5379E-03         2.53583    -182.467E-03        -1.69414    -943.788E-03         1.78548    -182.467E-03         3.22371     38.8870E-03    -17.5238E-03    -21.3632E-03    -16.5817E-03     34.1426E-03    -17.5609E-03     31.6193E-03     41.1740E+06    -17.4778E+06    -47.3386E+06    -16.9458E+06     40.6420E+06    -47.3386E+06     2.11768E+06         31.6851
             415     11.7866E-03     47.5186E-03         2.26157    -116.645E-03        -1.50542    -924.716E-03         1.68086    -116.645E-03         2.71766     36.8989E-03    -17.6436E-03    -19.2554E-03    -17.1678E-03     34.8484E-03    -17.6807E-03     20.6388E-03     1.82499E+06    -24.7899E+06    -45.4304E+06    -14.8464E+06    -8.45058E+06    -45.0983E+06     4.32184E+06         27.2655
             416     10.8069E-03     47.5045E-03         1.80480    -43.5519E-03        -1.14189    -866.846E-03         1.52976    -43.5519E-03         1.46032     36.8349E-03    -17.8353E-03    -18.9996E-03    -17.7051E-03     35.5404E-03    -17.8353E-03     16.6920E-03    -13.2130E+06    -30.8731E+06    -51.4390E+06    -13.9713E+06    -49.8479E+06    -31.7060E+06     3.52582E+06         25.1266
             417     9.82220E-03     47.4923E-03         1.34105     35.6312E-03    -776.778E-03    -765.372E-03         1.32964     35.6312E-03     62.1572E-03     36.7002E-03    -17.9179E-03    -18.7823E-03    -17.7697E-03     35.6876E-03    -17.9179E-03     14.7633E-03    -10.6003E+06    -27.2464E+06    -80.6303E+06    -10.6673E+06    -80.5633E+06    -27.2464E+06     859.738E+03         24.1265
             418     8.84071E-03     47.4805E-03         1.78971     118.712E-03        -1.32786    -628.397E-03         1.09025     118.712E-03        -2.12978     36.8432E-03    -18.0030E-03    -18.8402E-03    -18.0958E-03     36.0988E-03    -18.0030E-03     12.7240E-03    -9.61185E+06    -22.1244E+06    -112.797E+06    -9.62811E+06    -112.780E+06    -22.1244E+06     516.204E+03         23.6295
             419     7.85758E-03     47.4715E-03         2.05018     202.990E-03        -1.69264    -460.170E-03     817.710E-03     202.990E-03        -3.51081     36.7554E-03    -18.0695E-03    -18.6859E-03    -18.1364E-03     36.2058E-03    -18.0695E-03     10.9638E-03    -8.69868E+06    -15.6630E+06    -136.244E+06    -8.73333E+06    -136.210E+06    -15.6630E+06     1.50716E+06         23.3450
             420     6.87630E-03     47.4627E-03         3.06204     286.003E-03        -2.80708    -279.662E-03     534.625E-03     286.003E-03        -5.76663     36.6685E-03    -18.0803E-03    -18.5882E-03    -18.1585E-03     36.2388E-03    -18.0803E-03     9.67736E-03    -6.99083E+06    -17.0225E+06    -150.833E+06    -7.03968E+06    -150.784E+06    -17.0225E+06     792.294E+03         23.1557
             421     5.89356E-03     47.4559E-03         2.89533     365.062E-03        -2.74008    -86.3938E-03     241.640E-03     365.062E-03        -5.61836     36.5587E-03    -18.0991E-03    -18.4596E-03    -18.1295E-03     36.2287E-03    -18.0991E-03     8.47771E-03    -5.58565E+06    -17.9254E+06    -164.936E+06    -5.63530E+06    -164.886E+06    -17.9254E+06    -1.32513E+06         23.0169
             422     4.91124E-03     47.4492E-03         4.01050     438.506E-03        -3.94444     89.4576E-03    -23.3999E-03     438.506E-03        -7.94698     36.5551E-03    -18.1571E-03    -18.3980E-03    -18.1582E-03     36.3153E-03    -18.1571E-03     7.20225E-03    -3.50036E+06    -11.9641E+06    -177.636E+06    -3.53700E+06    -177.599E+06    -11.9641E+06    -1.97094E+06         22.9110
             423     3.92884E-03     47.4438E-03         4.22427     502.324E-03        -4.22759     277.291E-03    -280.613E-03     502.324E-03        -4.79110     36.6199E-03    -18.1946E-03    -18.4253E-03    -18.2712E-03     36.4658E-03    -18.1946E-03     5.77605E-03    -3.11451E+06    -7.01120E+06    -185.971E+06    -3.13331E+06    -185.952E+06    -7.01120E+06    -255.739E+03         22.8297
             424     2.94683E-03     47.4393E-03         6.51196     556.187E-03        -6.57725     405.518E-03    -470.811E-03     556.187E-03        -9.42091     36.5760E-03    -18.1905E-03    -18.3855E-03    -18.2910E-03     36.4848E-03    -18.1937E-03     4.41342E-03    -1.58795E+06    -5.55613E+06    -187.008E+06    -4.09459E+06    -186.985E+06    -3.07220E+06     1.22263E+06         22.7683
             425     1.96480E-03     47.4370E-03         12.2234     590.990E-03        -12.3333     554.073E-03    -663.942E-03     590.990E-03         2.07656     36.3769E-03    -18.1225E-03    -18.2544E-03    -18.1152E-03     36.3340E-03    -18.2188E-03     2.95132E-03     2.19559E+06    -4.93571E+06    -189.445E+06    -4.96833E+06    -189.413E+06     2.19559E+06     2.12027E+06         22.7249
             426     981.321E-06     47.4342E-03         24.9494     894.374E-03        -25.3705     306.494E-03    -727.558E-03     894.374E-03        -23.6955     36.4024E-03    -18.0377E-03    -18.3647E-03    -18.2596E-03     36.3904E-03    -18.1307E-03     1.34481E-03    -551.337E+03    -8.83881E+06    -194.182E+06    -8.08631E+06    -194.045E+06    -1.44154E+06     3.60618E+06         22.6986
             427     16.7071E-03     47.0188E-03         1.83419    -303.603E-03    -800.823E-03    -632.668E-03         1.66603    -303.603E-03         1.22331     367.631E-03    -18.5970E-03    -349.034E-03    -113.057E-03     131.654E-03    -18.5970E-03     670.653E-03     158.300E+06     114.104E+06    -7.76781E+06    -6.73489E+06     151.083E+06     120.289E+06     1.60228E+06         82.7523
             428     15.7365E-03     46.6874E-03         2.16607    -218.064E-03        -1.19233    -731.418E-03         1.70516    -218.064E-03         2.27708     127.888E-03    -18.3724E-03    -109.516E-03    -20.5323E-03     38.9047E-03    -18.3724E-03     228.436E-03     103.724E+06     40.0096E+06    -24.1603E+06    -21.8945E+06     101.458E+06     40.0096E+06     14.2053E+06         68.6669
             429     14.7240E-03     46.5868E-03         2.39075    -162.706E-03        -1.49935    -780.445E-03         1.67184    -162.706E-03         3.01378     61.2691E-03    -18.3249E-03    -42.9442E-03    -16.1325E-03     34.4574E-03    -18.3249E-03     87.0966E-03     73.3857E+06     6.45740E+06    -31.8898E+06    -25.1821E+06     71.3851E+06     1.75040E+06     9.37874E+06         52.8315
             430     13.7501E-03     46.5319E-03         2.49267    -110.003E-03        -1.68445    -807.612E-03         1.61583    -110.003E-03         3.39506     45.2936E-03    -18.1126E-03    -27.1810E-03    -18.3504E-03     36.4630E-03    -18.1126E-03     46.4473E-03     61.8309E+06    -17.8714E+06    -42.0724E+06    -19.9265E+06     61.3473E+06    -39.5338E+06     938.106E+03         40.0423
             431     12.7631E-03     46.5045E-03         2.36063    -51.6749E-03        -1.64188    -812.776E-03         1.53153    -51.6749E-03         3.23451     40.7391E-03    -18.0122E-03    -22.7269E-03    -18.0482E-03     36.0603E-03    -18.0122E-03     32.0175E-03     37.7481E+06    -19.4312E+06    -52.8134E+06    -18.7777E+06     37.0945E+06    -52.8134E+06     3.09502E+06         31.8318
             432     11.7847E-03     46.4799E-03         2.05994     13.6232E-03        -1.43781    -787.051E-03         1.40917     13.6232E-03         2.71535     38.5389E-03    -18.0734E-03    -20.4655E-03    -18.5507E-03     36.6240E-03    -18.0734E-03     20.3793E-03     2.15542E+06    -26.0354E+06    -45.5011E+06    -16.4208E+06    -7.79140E+06     -45.169E+06     3.48787E+06         27.3619
             433     10.8004E-03     46.4695E-03         1.55680     85.7453E-03        -1.03860    -728.449E-03         1.24665     85.7453E-03         1.45733     37.6982E-03    -18.1705E-03    -19.5277E-03    -18.3497E-03     36.5201E-03    -18.1705E-03     16.1634E-03    -9.65326E+06    -27.2760E+06    -50.4355E+06    -9.96807E+06    -47.4140E+06    -29.9827E+06     1.02931E+06         25.1829
             434     9.82003E-03     46.4546E-03         1.05894     163.774E-03    -644.975E-03    -627.926E-03         1.04189     163.774E-03     40.6473E-03     37.7048E-03    -18.2238E-03    -19.4810E-03    -18.5515E-03     36.7753E-03    -18.2238E-03     14.3118E-03    -7.47669E+06    -24.7019E+06    -79.8500E+06    -7.48994E+06    -79.8367E+06    -24.7019E+06     923.947E+03         24.1597
             435     8.83754E-03     46.4447E-03         1.57294     245.523E-03        -1.26063    -491.367E-03     803.682E-03     245.523E-03        -2.14473     37.3906E-03    -18.2850E-03    -19.1056E-03    -18.4596E-03     36.7446E-03    -18.2850E-03     11.9724E-03    -6.36603E+06    -19.1062E+06    -113.448E+06    -6.38519E+06    -113.428E+06    -19.1062E+06     1.41094E+06         23.6519
             436     7.85628E-03     46.4344E-03         1.93403     328.183E-03        -1.72430    -323.169E-03     532.897E-03     328.183E-03        -3.54823     37.2173E-03    -18.3380E-03    -18.8793E-03    -18.3943E-03     36.7323E-03    -18.3380E-03     10.3474E-03    -5.44502E+06    -14.4879E+06    -136.563E+06    -5.45631E+06    -136.552E+06    -14.4879E+06     915.579E+03         23.3633
             437     6.87340E-03     46.4268E-03         2.95923     409.368E-03        -2.85168    -145.424E-03     252.975E-03     409.368E-03        -5.77567     37.0997E-03    -18.3662E-03    -18.7335E-03    -18.3552E-03     36.7214E-03    -18.3662E-03     9.12736E-03    -3.98750E+06    -13.6916E+06    -149.921E+06    -3.99811E+06    -149.911E+06    -13.6916E+06     732.493E+03         23.1732
             438     5.89167E-03     46.4192E-03         2.84710     486.475E-03        -2.84034     45.2828E-03    -38.5262E-03     486.475E-03        -5.67199     37.1953E-03    -18.3871E-03    -18.8082E-03    -18.5073E-03     36.8944E-03    -18.3871E-03     8.14420E-03    -3.11845E+06    -13.5436E+06    -162.857E+06    -3.16549E+06    -162.810E+06    -13.5436E+06     145.171E+03         23.0351
             439     4.90998E-03     46.4129E-03         3.92401     558.294E-03        -4.01070     213.684E-03    -300.377E-03     558.294E-03        -7.91204     37.1828E-03    -18.4069E-03    -18.7759E-03    -18.5638E-03     36.9707E-03    -18.4069E-03     6.82374E-03    -3.21934E+06    -11.6060E+06    -178.174E+06    -3.26408E+06    -178.129E+06    -11.6060E+06    -1.14392E+06         22.9302
             440     3.92808E-03     46.4074E-03         4.00491     621.064E-03        -4.16683     398.428E-03    -560.341E-03     621.064E-03        -4.89187     37.0139E-03    -18.4157E-03    -18.5982E-03    -18.4296E-03     36.8733E-03    -18.4437E-03     5.55810E-03    -2.69429E+06    -6.24423E+06    -187.897E+06    -2.71103E+06    -187.881E+06    -6.24423E+06     30.9565E+03         22.8497
             441     2.94580E-03     46.4029E-03         6.17947     674.506E-03        -6.39425     523.056E-03    -737.833E-03     674.506E-03        -9.28407     37.0261E-03    -18.4398E-03    -18.5863E-03    -18.4758E-03     36.9436E-03    -18.4678E-03     4.17855E-03    -136.471E+03    -3.08857E+06    -186.717E+06    -1.82156E+06    -186.706E+06    -1.41410E+06     863.044E+03         22.7892
             442     1.96384E-03     46.4002E-03         11.6492     706.811E-03        -11.9086     679.564E-03    -938.968E-03     706.811E-03         1.78489     37.0685E-03    -18.4304E-03    -18.6381E-03    -18.5890E-03     37.0359E-03    -18.4469E-03     2.60448E-03     4.05031E+06    -2.69592E+06    -188.073E+06    -2.70998E+06    -188.059E+06     4.05031E+06     905.526E+03         22.7465
             443     982.980E-06     46.3983E-03         23.8173     903.266E-03        -24.2685     524.269E-03    -975.471E-03     903.266E-03        -22.7582     36.7312E-03    -18.1192E-03    -18.6120E-03    -18.2958E-03     36.7215E-03    -18.4258E-03     1.25519E-03     1.90584E+06    -8.09500E+06    -191.788E+06    -5.93031E+06    -191.774E+06    -273.345E+03     767.669E+03         22.7204
             444     16.7097E-03     45.9859E-03         1.82907    -186.062E-03    -829.427E-03    -635.047E-03         1.63469    -186.062E-03         1.29491     378.015E-03    -19.4331E-03    -358.582E-03    -109.119E-03     128.553E-03    -19.4331E-03     694.332E-03     157.987E+06     125.041E+06    -11.5141E+06    -10.6277E+06     151.773E+06     130.368E+06     5.26616E+06         82.8235
             445     15.6776E-03     45.6641E-03         2.09342    -95.7167E-03        -1.19669    -661.101E-03         1.55783    -95.7167E-03         2.39010     130.035E-03    -19.4669E-03    -110.568E-03    -24.8304E-03     44.2974E-03    -19.4669E-03     226.031E-03     105.854E+06     55.5128E+06    -26.5502E+06    -25.2990E+06     104.603E+06     55.5128E+06     1.05922E+06         68.7058
             446     14.7232E-03     45.5272E-03         2.29557    -40.1723E-03        -1.50116    -663.012E-03         1.45742    -40.1723E-03         3.13934     61.6218E-03    -19.0230E-03    -42.5989E-03    -22.3979E-03     41.4208E-03    -19.0230E-03     78.8136E-03     76.3092E+06     14.3999E+06    -30.8302E+06    -19.0798E+06     75.4985E+06     3.46029E+06    -250.002E+03         52.9673
             447     13.7410E-03     45.5065E-03         2.38363     10.9235E-03        -1.68291    -660.471E-03         1.36120     10.9235E-03         3.51882     45.2485E-03    -18.5649E-03    -26.6836E-03    -20.0277E-03     38.5926E-03    -18.5649E-03     41.3393E-03     60.7790E+06    -20.0909E+06    -41.8364E+06    -19.5441E+06     60.2322E+06    -41.8364E+06     3.78699E+06         40.2314
             448     12.7604E-03     45.4573E-03         2.23196     65.8773E-03        -1.62916    -648.737E-03         1.25154     65.8773E-03         3.35041     42.2176E-03    -18.3845E-03    -23.8331E-03    -19.9035E-03     38.2880E-03    -18.3845E-03     29.5355E-03     38.5644E+06    -19.2827E+06    -49.7187E+06    -18.7264E+06     38.0081E+06    -49.7187E+06     3.35180E+06         31.9790
             449     11.7798E-03     45.4470E-03         1.90562     126.409E-03        -1.40543    -614.394E-03         1.11458     126.409E-03         2.81312     38.9497E-03    -18.3389E-03    -20.6109E-03    -19.3252E-03     37.6640E-03    -18.3389E-03     17.1707E-03     2.32399E+06    -21.8949E+06    -46.0742E+06    -13.6870E+06    -5.88387E+06    -46.0742E+06    -199.726E+03         27.4556
             450     10.7989E-03     45.4289E-03         1.33763     192.644E-03    -943.932E-03    -556.161E-03     949.855E-03     192.644E-03         1.54746     38.4143E-03    -18.3989E-03    -20.0154E-03    -19.0935E-03     37.4924E-03    -18.3989E-03     14.4312E-03    -10.8875E+06    -26.3206E+06    -51.8947E+06    -11.0126E+06    -47.2204E+06    -30.8698E+06    -279.472E+03         25.2361
             451     9.81767E-03     45.4186E-03     781.664E-03     263.996E-03    -491.892E-03    -461.365E-03     751.137E-03     263.996E-03     106.558E-03     38.0711E-03    -18.4240E-03    -19.6471E-03    -18.9603E-03     37.3843E-03    -18.4240E-03     12.4714E-03    -8.05618E+06    -24.5838E+06    -81.3336E+06    -8.08424E+06    -81.3055E+06    -24.5838E+06     116.377E+03         24.1904
             452     8.83632E-03     45.4065E-03         1.35130     338.429E-03        -1.15708    -333.795E-03     528.009E-03     338.429E-03        -2.07190     37.7464E-03    -18.4597E-03    -19.2867E-03    -18.7702E-03     37.2300E-03    -18.4597E-03     10.7289E-03    -4.73539E+06    -19.1468E+06    -113.082E+06    -4.74805E+06    -113.069E+06    -19.1468E+06     646.922E+03         23.6720
             453     7.85425E-03     45.3981E-03         1.82886     413.338E-03        -1.72903    -177.701E-03     277.529E-03     413.338E-03        -3.51920     37.4884E-03    -18.5143E-03    -18.9741E-03    -18.5962E-03     37.1106E-03    -18.5143E-03     9.15887E-03    -1.95745E+06    -12.2319E+06    -136.839E+06    -1.97634E+06    -136.820E+06    -12.2319E+06     1.16086E+06         23.3792
             454     6.87277E-03     45.3896E-03         2.86249     486.592E-03        -2.85635    -15.2587E-03     21.4036E-03     486.592E-03        -5.71081     37.4536E-03    -18.5463E-03    -18.9073E-03    -18.6124E-03     37.1587E-03    -18.5463E-03     8.10168E-03    -1.57074E+06    -9.31578E+06    -149.578E+06    -1.60172E+06    -149.547E+06    -9.31578E+06     1.70414E+06         23.1880
             455     5.89079E-03     45.3823E-03         2.81725     555.807E-03        -2.90635     159.486E-03    -248.583E-03     555.807E-03        -5.68663     37.4574E-03    -18.5656E-03    -18.8918E-03    -18.6638E-03     37.2294E-03    -18.5656E-03     7.11858E-03    -1.97158E+06    -8.15268E+06    -161.596E+06    -2.00021E+06    -161.568E+06    -8.15268E+06     1.63331E+06         23.0499
             456     4.90901E-03     45.3755E-03         3.84719     620.438E-03        -4.02706     306.738E-03    -486.602E-03     620.438E-03        -7.82144     37.4238E-03    -18.5737E-03    -18.8501E-03    -18.6856E-03     37.2593E-03    -18.5737E-03     6.02860E-03    -3.03700E+06    -9.09065E+06    -176.947E+06    -3.08344E+06    -176.901E+06    -9.09065E+06     1.46073E+06         22.9455
             457     3.92738E-03     45.3708E-03         3.75847     676.837E-03        -4.01081     477.769E-03    -730.105E-03     676.837E-03        -4.98497     37.3783E-03    -18.5576E-03    -18.8207E-03    -18.6820E-03     37.2676E-03    -18.5856E-03     4.93232E-03    -3.91140E+06    -7.05893E+06    -188.063E+06    -3.96545E+06    -188.009E+06    -7.05893E+06    -226.551E+03         22.8656
             458     2.94540E-03     45.3662E-03         5.77688     725.290E-03        -6.07461     584.388E-03    -882.111E-03     725.290E-03        -9.05928     37.2673E-03    -18.5263E-03    -18.7410E-03    -18.6163E-03     37.2012E-03    -18.5848E-03     3.77034E-03    -3.26715E+06    -4.42241E+06    -187.023E+06    -3.90889E+06    -186.994E+06    -3.80926E+06    -102.354E+03         22.8054
             459     1.96394E-03     45.3627E-03         10.9018     750.888E-03        -11.2458     742.615E-03        -1.08666     750.888E-03         1.38995     37.1841E-03    -18.4309E-03    -18.7532E-03    -18.5588E-03     37.1565E-03    -18.5977E-03     2.35128E-03    -560.748E+03    -4.42221E+06    -188.075E+06    -4.44766E+06    -188.050E+06    -560.748E+03     -96.749E+03         22.7628
             460     981.631E-06     45.3620E-03         22.3176     809.860E-03        -22.7014     696.132E-03        -1.07997     809.860E-03        -21.4998     37.1736E-03    -18.1337E-03    -19.0399E-03    -18.6043E-03     37.1643E-03    -18.5600E-03     1.41622E-03     206.390E+03    -6.87161E+06    -191.647E+06    -4.70977E+06    -191.630E+06    -1.97280E+06    -1.05222E+06         22.7369
             461     16.6261E-03     44.9433E-03         1.80348    -76.0525E-03    -857.143E-03    -622.801E-03         1.56914    -76.0525E-03         1.39674     380.009E-03    -20.1109E-03    -359.898E-03    -114.801E-03     134.912E-03    -20.1109E-03     696.149E-03     155.168E+06     120.672E+06    -15.6518E+06    -14.3021E+06     147.731E+06     126.759E+06     1.97431E+06         82.8021
             462     15.7122E-03     44.5878E-03         2.02514     13.2718E-03        -1.22307    -576.306E-03         1.37838     13.2718E-03         2.55133     118.412E-03    -19.8554E-03    -98.5570E-03    -29.9886E-03     49.8440E-03    -19.8554E-03     199.243E-03     110.029E+06     52.4074E+06    -19.3736E+06    -17.8141E+06     108.469E+06     52.4074E+06     2.20909E+06         68.7545
             463     14.7204E-03     44.5096E-03         2.23456     65.5688E-03        -1.54477    -532.576E-03         1.22236     65.5688E-03         3.33575     57.5118E-03    -19.2095E-03    -38.3023E-03    -21.3441E-03     40.5537E-03    -19.2095E-03     70.6061E-03     71.7438E+06     3.24983E+06    -30.2252E+06    -23.1033E+06     70.8544E+06    -2.98280E+06     2.88725E+06         53.1349
             464     13.7346E-03     44.4503E-03         2.32266     112.478E-03        -1.73160    -500.789E-03         1.09185     112.478E-03         3.71757     45.8195E-03    -18.7968E-03    -27.0228E-03    -21.3798E-03     40.1766E-03    -18.7968E-03     38.1039E-03     61.1489E+06    -22.6049E+06    -37.9680E+06    -24.7955E+06     60.5691E+06    -35.1977E+06     3.12418E+06         40.3944
             465     12.7615E-03     44.4263E-03         2.16221     161.156E-03        -1.66707    -466.385E-03     961.527E-03     161.156E-03         3.54295     41.7773E-03    -18.5154E-03    -23.2619E-03    -20.8409E-03     39.3564E-03    -18.5154E-03     23.7565E-03     43.2389E+06    -18.5740E+06    -43.9984E+06    -18.0689E+06     42.7338E+06    -43.9984E+06    -1.39957E+06         32.1058
             466     11.7778E-03     44.4029E-03         1.81846     213.324E-03        -1.42321    -423.326E-03     818.581E-03     213.324E-03         2.98268     38.8546E-03    -18.3969E-03    -20.4577E-03    -19.5657E-03     37.9626E-03    -18.3969E-03     14.1134E-03     5.22887E+06    -23.8326E+06    -47.1267E+06    -12.0464E+06    -6.55739E+06    -47.1267E+06    -1.59766E+06         27.5343
             467     10.7991E-03     44.3936E-03         1.18387     269.507E-03    -888.598E-03    -363.722E-03     658.998E-03     269.507E-03         1.71287     38.3470E-03    -18.4402E-03    -19.9068E-03    -19.3083E-03     37.7485E-03    -18.4402E-03     11.6287E-03    -8.75217E+06    -27.9118E+06    -52.8411E+06    -8.89529E+06    -48.4682E+06    -32.1416E+06    -79.5663E+03         25.2794
             468     9.81673E-03     44.3790E-03     573.446E-03     301.084E-03    -343.824E-03    -276.685E-03     478.202E-03     329.189E-03     241.206E-03     37.9457E-03    -18.4546E-03    -19.4911E-03    -18.9838E-03     37.4384E-03    -18.4546E-03     10.6447E-03    -8.29773E+06    -26.9829E+06    -81.8286E+06    -8.34021E+06    -81.7862E+06    -26.9829E+06     245.486E+03         24.2142
             469     8.83595E-03     44.3699E-03         1.16630     362.791E-03        -1.02290    -167.391E-03     282.689E-03     390.896E-03        -1.92938     37.6597E-03    -18.4785E-03    -19.1812E-03    -18.8265E-03     37.3050E-03    -18.4785E-03     8.87197E-03    -8.16182E+06    -24.3926E+06    -113.375E+06    -8.16571E+06    -113.371E+06    -24.3926E+06     247.668E+03         23.6868
             470     7.85420E-03     44.3604E-03         1.73603     452.454E-03        -1.70188    -32.8970E-03     67.0481E-03     452.454E-03        -3.42754     37.5134E-03    -18.5327E-03    -18.9807E-03    -18.6994E-03     37.2321E-03    -18.5327E-03     7.92883E-03    -7.57562E+06    -16.7186E+06    -137.314E+06    -7.59128E+06    -137.299E+06    -16.7186E+06     976.581E+03         23.3902
             471     6.87245E-03     44.3526E-03         2.77171     512.133E-03        -2.81798     102.148E-03    -148.420E-03     512.133E-03        -5.58179     37.5325E-03    -18.5500E-03    -18.9824E-03    -18.7513E-03     37.3013E-03    -18.5500E-03     7.17958E-03    -5.99235E+06    -12.9866E+06    -149.596E+06    -6.02646E+06    -149.562E+06    -12.9866E+06     2.01948E+06         23.1974
             472     5.89103E-03     44.3448E-03         2.79492     568.129E-03        -2.92545     246.941E-03    -377.467E-03     568.129E-03        -5.66228     37.4036E-03    -18.5696E-03    -18.8340E-03    -18.6609E-03     37.2305E-03    -18.5696E-03     6.19608E-03    -4.41753E+06    -9.71184E+06    -161.510E+06    -4.97797E+06    -161.456E+06    -9.20516E+06     2.48522E+06         23.0587
             473     4.90903E-03     44.3390E-03         3.76523     620.547E-03        -3.97434     362.634E-03    -571.749E-03     620.547E-03        -7.66509     37.3513E-03    -18.5933E-03    -18.7580E-03    -18.6330E-03     37.2263E-03    -18.5933E-03     5.26264E-03    -3.83594E+06    -7.55947E+06    -175.451E+06    -4.40781E+06    -175.386E+06    -7.05279E+06     2.12262E+06         22.9541
             474     3.92714E-03     44.3331E-03         3.47818     665.651E-03        -3.74829     509.623E-03    -779.735E-03     665.651E-03        -5.07602     37.4460E-03    -18.5986E-03    -18.8474E-03    -18.7649E-03     37.3635E-03    -18.5986E-03     4.26680E-03    -2.88418E+06    -5.27898E+06    -185.691E+06    -3.84458E+06    -185.611E+06    -4.39920E+06     1.05912E+06         22.8741
             475     2.94607E-03     44.3294E-03         5.29605     706.034E-03        -5.60837     579.587E-03    -891.902E-03     706.034E-03        -8.75094     37.2462E-03    -18.5235E-03    -18.7228E-03    -18.6236E-03     37.1974E-03    -18.5738E-03     3.26681E-03    -3.86757E+06    -5.28420E+06    -187.846E+06    -5.10940E+06    -187.771E+06    -4.11765E+06     18.7591E+03         22.8139
             476     1.96346E-03     44.3261E-03         9.99611     720.278E-03        -10.3319     746.946E-03        -1.08277     720.278E-03     902.810E-03     37.0499E-03    -18.4222E-03    -18.6277E-03    -18.4202E-03     37.0290E-03    -18.6088E-03     1.96076E-03    -3.44762E+06    -4.45012E+06    -188.634E+06    -4.51429E+06    -188.570E+06    -3.44762E+06    -2.07745E+06         22.7712
             477     981.290E-06     44.3251E-03         20.4234     607.998E-03        -20.6556     818.911E-03        -1.05114     607.998E-03        -19.8641     37.2988E-03    -18.3653E-03    -18.9336E-03    -18.7548E-03     37.2911E-03    -18.5362E-03     1.30188E-03    -3.39314E+06    -5.80745E+06    -192.111E+06    -5.80432E+06    -192.067E+06    -3.44121E+06    -1.60581E+06         22.7455
             478     16.7116E-03     43.8674E-03         1.72736     16.8931E-03    -864.869E-03    -583.224E-03         1.44572     16.8931E-03         1.46724     390.307E-03    -19.5955E-03    -370.711E-03    -125.519E-03     145.114E-03    -19.5955E-03     705.812E-03     162.236E+06     124.960E+06    -10.0219E+06    -8.45395E+06     152.301E+06     133.326E+06     6.24117E+06         82.8244
             479     15.6949E-03     43.5705E-03         1.95769     100.783E-03        -1.26245    -477.061E-03         1.17230     100.783E-03         2.72215     116.551E-03    -19.5793E-03    -96.9712E-03    -20.6147E-03     40.1941E-03    -19.5793E-03     199.051E-03     112.138E+06     57.9545E+06    -17.5943E+06    -16.4306E+06     110.975E+06     57.9545E+06     9.24291E+06         68.8068
             480     14.7120E-03     43.4565E-03         2.20218     147.816E-03        -1.62211    -396.758E-03     976.826E-03     147.816E-03         3.55697     59.2714E-03    -19.1668E-03    -40.1046E-03    -23.6949E-03     42.8617E-03    -19.1668E-03     68.2129E-03     74.7769E+06     8.10865E+06    -25.7148E+06    -23.0711E+06     74.1015E+06     6.14028E+06     4.41280E+06         53.2180
             481     13.7449E-03     43.4145E-03         2.30317     188.310E-03        -1.81872    -336.742E-03     821.199E-03     188.310E-03         3.94617     44.0472E-03    -18.6102E-03    -25.4370E-03    -21.8155E-03     40.4258E-03    -18.6102E-03     29.7771E-03     65.5655E+06    -16.8584E+06    -33.9481E+06    -19.1556E+06     65.0923E+06    -31.1778E+06    -3.28148E+06         40.5170
             482     12.7585E-03     43.3811E-03         2.14836     228.446E-03        -1.75255    -283.523E-03     679.332E-03     228.446E-03         3.77184     39.8597E-03    -18.2977E-03    -21.5620E-03    -19.9049E-03     38.2025E-03    -18.2977E-03     18.1960E-03     41.9095E+06    -14.9261E+06    -48.0074E+06    -14.5076E+06     41.4911E+06    -48.0074E+06    -4.30519E+06         32.2041
             483     11.7832E-03     43.3677E-03         1.79994     269.671E-03        -1.48874    -226.134E-03     537.334E-03     269.671E-03         3.18849     38.0561E-03    -18.2209E-03    -19.8352E-03    -19.3130E-03     37.5339E-03    -18.2209E-03     10.3116E-03     4.05866E+06    -23.4852E+06    -49.6539E+06    -11.7970E+06    -7.62948E+06    -49.6539E+06    -2.83716E+06         27.5927
             484     10.7987E-03     43.3532E-03         1.12747     312.413E-03    -899.519E-03    -164.111E-03     392.062E-03     312.413E-03         1.91610     37.4622E-03    -18.2961E-03    -19.1661E-03    -18.7640E-03     37.0601E-03    -18.2961E-03     9.41749E-03    -7.67502E+06    -27.3397E+06    -56.9829E+06    -7.96056E+06    -51.2590E+06    -32.7781E+06    -257.423E+03         25.3101
             485     9.81919E-03     43.3428E-03     495.412E-03     249.231E-03    -238.777E-03    -87.5173E-03     236.912E-03     356.471E-03     411.582E-03     37.4388E-03    -18.3571E-03    -19.0817E-03    -18.7543E-03     37.1114E-03    -18.3571E-03     8.46887E-03    -6.63617E+06    -22.3478E+06    -82.7818E+06    -6.76367E+06    -82.6543E+06    -22.3478E+06     2.69456E+06         24.2300
             486     8.83654E-03     43.3316E-03         1.05624     293.678E-03    -869.460E-03     489.330E-06     79.0471E-03     400.918E-03        -1.74683     37.1687E-03    -18.3958E-03    -18.7729E-03    -18.5212E-03     36.9169E-03    -18.3958E-03     7.47673E-03     -7.8779E+06    -19.6209E+06    -112.267E+06    -7.97438E+06    -112.170E+06    -19.6209E+06     2.40773E+06         23.6956
             487     7.85512E-03     43.3240E-03         1.66529     444.279E-03        -1.65236     103.661E-03    -90.7306E-03     444.279E-03        -3.30528     37.2997E-03    -18.4439E-03    -18.8558E-03    -18.6362E-03     37.0801E-03    -18.4439E-03     6.99067E-03    -8.99225E+06    -15.3686E+06    -137.627E+06    -9.01170E+06    -137.608E+06    -15.3686E+06     1.16606E+06         23.3957
             488     6.87337E-03     43.3146E-03         2.68928     485.620E-03        -2.74075     200.454E-03    -251.927E-03     485.620E-03        -5.40935     37.2173E-03    -18.4530E-03    -18.7643E-03    -18.5780E-03     37.0310E-03    -18.4530E-03     6.42606E-03    -8.47237E+06    -13.7646E+06    -149.859E+06    -8.47756E+06    -149.854E+06    -13.7646E+06     678.079E+03         23.2012
             489     5.89147E-03     43.3083E-03         2.78074     523.562E-03        -2.89685     307.629E-03    -423.736E-03     523.562E-03        -5.61076     37.2129E-03    -18.4820E-03    -18.7309E-03    -18.5848E-03     37.0667E-03    -18.4820E-03     5.69160E-03    -5.34716E+06    -8.90233E+06    -161.849E+06    -6.06509E+06    -161.813E+06    -8.22086E+06     1.40533E+06         23.0615
             490     4.90973E-03     43.3016E-03         3.67810     559.024E-03        -3.85611     379.471E-03    -557.481E-03     559.024E-03        -7.45701     37.2385E-03    -18.4991E-03    -18.7394E-03    -18.6315E-03     37.1306E-03    -18.4991E-03     4.89577E-03    -3.17190E+06    -4.72124E+06    -174.285E+06    -4.06805E+06    -174.235E+06    -3.87505E+06     1.38104E+06         22.9562
             491     3.92807E-03     43.2965E-03         3.17124     589.036E-03        -3.39674     488.566E-03    -714.058E-03     589.036E-03        -5.16468     37.1120E-03    -18.4744E-03    -18.6376E-03    -18.5494E-03     37.0405E-03    -18.4912E-03     3.94389E-03    -2.20388E+06    -5.07756E+06    -184.283E+06    -3.29912E+06    -184.232E+06    -4.03307E+06     1.20042E+06         22.8759
             492     2.94561E-03     43.2920E-03         4.76115     616.901E-03        -5.01093     522.365E-03    -772.145E-03     616.901E-03        -8.37060     37.0258E-03    -18.4553E-03    -18.5705E-03    -18.4952E-03     36.9871E-03    -18.4919E-03     2.88740E-03    -1.32539E+06    -3.98193E+06    -186.035E+06    -2.91123E+06    -185.980E+06    -2.45143E+06     296.012E+03         22.8156
             493     1.96417E-03     43.2901E-03         8.93262     620.774E-03        -9.20440     666.876E-03    -938.658E-03     620.774E-03     330.659E-03     37.0499E-03    -18.4429E-03    -18.6070E-03    -18.5683E-03     37.0311E-03    -18.4628E-03     1.95360E-03    -2.08015E+06    -5.40609E+06    -188.019E+06    -5.44955E+06    -187.976E+06    -2.08015E+06    -1.44593E+06         22.7731
             494     982.677E-06     43.2871E-03         18.2172     262.398E-03        -18.1216     955.186E-03    -859.591E-03     262.398E-03        -17.8785     36.8201E-03    -18.2448E-03    -18.5754E-03    -18.3492E-03     36.8119E-03    -18.4628E-03     1.08666E-03    -5.86623E+06    -10.0766E+06    -194.700E+06    -8.57008E+06    -194.671E+06    -7.40142E+06    -635.056E+03         22.7474
             495     16.7023E-03     42.8954E-03         1.61699     91.4319E-03    -860.568E-03    -515.750E-03         1.27217     91.4319E-03         1.54299     396.710E-03    -19.0685E-03    -377.642E-03    -128.605E-03     147.673E-03    -19.0685E-03     716.935E-03     157.114E+06     116.543E+06    -13.0207E+06    -12.2847E+06     147.507E+06     125.414E+06     1.08572E+06         82.6718
             496     15.6935E-03     42.5217E-03         1.89040     163.909E-03        -1.30970    -364.295E-03     945.001E-03     163.909E-03         2.88199     122.560E-03    -18.9754E-03    -103.585E-03    -21.2469E-03     40.2223E-03    -18.9754E-03     210.110E-03     108.563E+06     57.7237E+06    -20.4187E+06    -19.8933E+06     108.038E+06     57.7237E+06    -3.10793E+06         68.7513
             497     14.7337E-03     42.4056E-03         2.18519     203.768E-03        -1.71713    -261.781E-03     729.837E-03     203.768E-03         3.76369     52.5879E-03    -18.5743E-03    -34.0136E-03    -23.1289E-03     41.7032E-03    -18.5743E-03     53.7231E-03     81.1627E+06     23.0874E+06    -24.3591E+06    -13.2520E+06     80.5535E+06     12.5895E+06    -2.91045E+06         53.2686
             498     13.7473E-03     42.3786E-03         2.30870     236.273E-03        -1.92520    -180.836E-03     564.340E-03     236.273E-03         4.16017     39.6153E-03    -18.0230E-03    -21.5923E-03    -19.1647E-03     37.1877E-03    -18.0230E-03     23.5112E-03      67.939E+06    -10.6732E+06    -35.2056E+06    -10.4691E+06     67.7349E+06    -35.2056E+06    -2.67962E+06         40.6194
             499     12.7703E-03     42.3415E-03         2.17074     266.412E-03        -1.85947    -107.437E-03     418.709E-03     266.412E-03         3.98905     37.2647E-03    -17.3944E-03    -19.8703E-03    -17.9783E-03     35.8393E-03    -17.8609E-03     15.9379E-03     40.6952E+06    -11.9239E+06    -50.8377E+06    -11.6859E+06     40.4572E+06    -50.8377E+06    -1.74158E+06         32.2776
             500     11.7840E-03     42.3303E-03         1.82967     294.940E-03        -1.58231    -35.6736E-03     283.032E-03     294.940E-03         3.38917     36.1280E-03    -17.4367E-03    -18.6914E-03    -17.8324E-03     35.7356E-03    -17.9033E-03     8.87409E-03     139.322E+03    -22.5266E+06    -51.2948E+06    -12.9391E+06    -9.44823E+06    -51.2948E+06    -875.432E+03         27.6349
             501     10.8043E-03     42.3169E-03         1.16119     322.045E-03    -973.865E-03     29.7069E-03     157.621E-03     322.045E-03         2.11835     36.5626E-03    -17.9548E-03    -18.6079E-03    -18.1306E-03     36.1736E-03    -18.0430E-03     9.14791E-03    -13.9213E+06    -32.0206E+06    -57.5867E+06    -14.2923E+06    -53.3269E+06    -35.9094E+06     1.64013E+03         25.3316
             502     9.82064E-03     42.3044E-03     508.568E-03     238.533E-03    -268.595E-03     96.9011E-03     33.8818E-03     347.724E-03     579.760E-03     36.4760E-03    -18.0442E-03    -18.4318E-03    -18.0398E-03     36.1722E-03    -18.1324E-03     8.05509E-03    -10.8581E+06    -27.3363E+06    -85.3236E+06    -11.0055E+06    -85.1762E+06    -27.3363E+06     1.91598E+06         24.2401
             503     8.83897E-03     42.2965E-03     983.737E-03     262.519E-03    -795.325E-03     159.687E-03    -80.4659E-03     371.710E-03        -1.56033     36.6940E-03    -18.2184E-03    -18.4756E-03    -18.2211E-03     36.4394E-03    -18.2184E-03     7.46592E-03    -7.62011E+06    -19.2401E+06    -111.277E+06    -7.77459E+06    -111.122E+06    -19.2401E+06     3.73091E+06         23.7002
             504     7.85647E-03     42.2854E-03         1.62216     393.334E-03        -1.59066     227.889E-03    -196.394E-03     393.334E-03        -3.18113     36.8298E-03    -18.2893E-03    -18.5404E-03    -18.3236E-03     36.6153E-03    -18.2917E-03     6.84794E-03    -7.65411E+06    -12.6216E+06    -135.536E+06    -7.72800E+06    -135.462E+06    -12.6216E+06     2.47348E+06         23.3976
             505     6.87470E-03     42.2793E-03         2.62164     412.427E-03        -2.63279     281.155E-03    -292.305E-03     412.427E-03        -5.21907     36.8038E-03    -18.3132E-03    -18.4906E-03    -18.3084E-03     36.6240E-03    -18.3156E-03     6.29330E-03    -8.64143E+06    -12.6152E+06    -149.599E+06    -8.65405E+06    -149.586E+06    -12.6152E+06     778.020E+03         23.2016
             506     5.89223E-03     42.2706E-03         2.77850     428.355E-03        -2.83193     340.982E-03    -394.406E-03     428.355E-03        -5.55017     36.8631E-03    -18.3291E-03    -18.5341E-03    -18.3749E-03     36.7040E-03    -18.3291E-03     5.90384E-03    -8.02667E+06    -13.6675E+06    -161.545E+06    -8.20817E+06    -161.538E+06    -13.4927E+06    -525.639E+03         23.0609
             507     4.91062E-03     42.2652E-03         3.59369     442.907E-03        -3.68537     362.416E-03    -454.096E-03     442.907E-03        -7.21741     36.9591E-03    -18.3607E-03    -18.5984E-03    -18.4814E-03     36.8421E-03    -18.3607E-03     5.05820E-03    -5.59138E+06    -9.09492E+06    -175.190E+06    -6.17510E+06    -175.168E+06    -8.53309E+06     332.836E+03         22.9550
             508     3.92837E-03     42.2595E-03         2.89964     453.933E-03        -3.02026     424.172E-03    -544.799E-03     453.933E-03        -5.24987     36.8389E-03    -18.3493E-03    -18.4897E-03    -18.3978E-03     36.7639E-03    -18.3661E-03     4.02821E-03    -5.29133E+06    -7.44395E+06    -183.486E+06    -5.70547E+06    -183.459E+06    -7.05692E+06     1.14544E+06         22.8744
             509     2.94649E-03     42.2562E-03         4.23683     466.423E-03        -4.36715     409.850E-03    -540.172E-03     466.423E-03        -7.93917     36.7898E-03    -18.3421E-03    -18.4476E-03    -18.3877E-03     36.7466E-03    -18.3589E-03     3.03958E-03    -4.13151E+06    -7.50848E+06    -183.940E+06    -4.73564E+06    -183.913E+06    -6.93185E+06    -129.060E+03         22.8143
             510     1.96410E-03     42.2523E-03         7.76769     458.480E-03        -7.91485     525.838E-03    -672.999E-03     458.480E-03    -302.345E-03     36.8161E-03    -18.2918E-03    -18.5243E-03    -18.4302E-03     36.7944E-03    -18.3642E-03     2.08639E-03    -316.421E+03    -6.60248E+06    -187.438E+06    -5.58999E+06    -187.416E+06    -1.35117E+06     270.152E+03         22.7722
             511     982.095E-06     42.2517E-03         15.7739    -138.964E-03        -15.3034         1.02179    -551.284E-03    -138.964E-03        -15.6945     36.6342E-03    -18.0010E-03    -18.6332E-03    -18.3707E-03     36.6274E-03    -18.2567E-03     960.478E-06    -3.80016E+06    -12.9962E+06    -196.113E+06    -11.5329E+06    -196.090E+06    -5.28728E+06    -510.717E+03         22.7469
             512     16.6912E-03     41.8779E-03         1.48344     146.260E-03    -852.334E-03    -433.489E-03         1.06459     146.260E-03         1.62693     392.093E-03    -18.7695E-03    -373.324E-03    -136.037E-03     154.806E-03    -18.7695E-03     706.332E-03     157.730E+06     117.019E+06    -12.1989E+06    -11.7662E+06     148.626E+06     125.690E+06     1.49907E+06         82.2588
             513     15.7409E-03     41.4697E-03         1.81561     203.396E-03        -1.36080    -259.325E-03     714.140E-03     203.396E-03         2.99383     121.245E-03    -18.0464E-03    -103.199E-03    -27.1494E-03     45.1958E-03    -18.0464E-03     210.197E-03     113.882E+06     54.6923E+06    -11.0788E+06    -10.1536E+06     112.957E+06     54.6923E+06    -4.79126E+06         68.6329
             514     14.7422E-03     41.3813E-03         2.16423     234.791E-03        -1.80428    -138.758E-03     498.704E-03     234.791E-03         3.90879     48.0701E-03    -17.6209E-03    -30.4492E-03    -15.3943E-03     33.0152E-03    -17.6209E-03     57.5424E-03     76.4161E+06     13.5168E+06    -26.7509E+06    -10.1754E+06     75.7005E+06    -2.34308E+06    -6.47332E+06         53.3482
             515     13.7595E-03     41.3340E-03         2.31279     258.817E-03        -2.01904    -37.1205E-03     330.871E-03     258.817E-03         4.31008     36.7624E-03    -17.3134E-03    -19.4490E-03    -15.8107E-03     33.2579E-03    -17.4472E-03     26.6152E-03     64.4814E+06    -9.05964E+06    -42.4772E+06    -8.92281E+06     64.3446E+06    -42.4772E+06     1.12194E+06         40.6911
             516     12.7731E-03     41.3118E-03         2.19984     278.169E-03        -1.95634     56.3517E-03     187.148E-03     278.169E-03         4.14867     35.2239E-03    -16.8876E-03    -18.3363E-03    -15.9650E-03     33.4530E-03    -17.4880E-03     18.1419E-03     41.6061E+06    -11.4398E+06    -50.5160E+06    -10.8119E+06     40.9782E+06    -50.5160E+06     3.78198E+06         32.3344
             517     11.7892E-03     41.2928E-03         1.87415     292.979E-03        -1.67112     141.104E-03     61.9192E-03     292.979E-03         3.53781     34.9905E-03    -16.9583E-03    -18.0321E-03    -16.6333E-03     34.2853E-03    -17.6520E-03     11.7948E-03     2.34056E+06    -24.3403E+06    -47.7897E+06    -12.7051E+06    -9.29465E+06    -47.7897E+06     3.96591E+06         27.6706
             518     10.8053E-03     41.2806E-03         1.23688     303.281E-03        -1.06948     210.113E-03    -42.7079E-03     303.281E-03         2.27795     35.6483E-03    -17.5357E-03    -18.1126E-03    -17.2996E-03     35.1506E-03    -17.8510E-03     10.1909E-03    -13.2618E+06    -32.0176E+06    -55.3275E+06    -13.6435E+06    -53.0149E+06    -33.9485E+06     2.11598E+06         25.3505
             519     9.82272E-03     41.2699E-03     564.110E-03     279.115E-03    -399.382E-03     267.241E-03    -132.570E-03     309.172E-03     711.382E-03     35.9479E-03    -17.8726E-03    -18.0753E-03    -17.5566E-03     35.5174E-03    -17.9608E-03     9.53929E-03    -14.9357E+06    -31.7168E+06    -85.9984E+06    -15.0398E+06    -85.8943E+06    -31.7168E+06     661.890E+03         24.2489
             520     8.83983E-03     41.2583E-03     937.464E-03     280.916E-03    -801.956E-03     305.435E-03    -199.984E-03     310.972E-03        -1.40113     36.3370E-03    -18.0692E-03    -18.2678E-03    -17.9231E-03     35.9924E-03    -18.0692E-03     8.57653E-03    -12.6760E+06    -24.4953E+06    -112.489E+06    -12.7411E+06    -112.423E+06    -24.4953E+06     1.70872E+06         23.7038
             521     7.85794E-03     41.2508E-03         1.60756     308.692E-03        -1.52546     338.263E-03    -256.169E-03     308.692E-03        -3.07472     36.4881E-03    -18.1720E-03    -18.3162E-03    -18.0387E-03     36.2130E-03    -18.1743E-03     7.71047E-03    -8.93696E+06    -13.4322E+06    -133.484E+06    -9.00358E+06    -133.417E+06    -13.4322E+06     2.47146E+06         23.3990
             522     6.87500E-03     41.2415E-03         2.57190     302.941E-03        -2.50620     345.652E-03    -279.956E-03     302.941E-03        -5.03258     36.5779E-03    -18.2179E-03    -18.3600E-03    -18.1318E-03     36.3520E-03    -18.2203E-03     6.98981E-03    -6.58805E+06    -11.5328E+06    -147.689E+06    -6.61062E+06    -147.667E+06    -11.5328E+06     779.231E+03         23.2020
             523     5.89327E-03     41.2355E-03         2.79235     293.973E-03        -2.74199     353.565E-03    -303.211E-03     293.973E-03        -5.49014     36.6426E-03    -18.2480E-03    -18.3945E-03    -18.2043E-03     36.4523E-03    -18.2480E-03     6.45290E-03    -5.77944E+06    -12.9726E+06    -161.373E+06    -5.80111E+06    -161.351E+06    -12.9726E+06    -56.7809E+03         23.0608
             524     4.91038E-03     41.2278E-03         3.51742     284.789E-03        -3.47867     317.075E-03    -278.322E-03     284.789E-03        -6.95861     36.6878E-03    -18.2880E-03    -18.3998E-03    -18.2521E-03     36.5464E-03    -18.2942E-03     5.51175E-03    -6.28420E+06    -11.9276E+06    -176.803E+06    -6.53051E+06    -176.779E+06    -11.7053E+06     13.0463E+03         22.9548
             525     3.92867E-03     41.2239E-03         2.78321     274.080E-03        -2.75219     326.570E-03    -295.552E-03     274.080E-03        -5.34272     36.7988E-03    -18.3305E-03    -18.4683E-03    -18.3751E-03     36.7117E-03    -18.3367E-03     4.36406E-03    -3.62478E+06    -6.61668E+06    -182.570E+06    -4.95164E+06    -182.551E+06    -5.30894E+06    -211.987E+03         22.8744
             526     2.94631E-03     41.2191E-03         3.84353     269.470E-03        -3.81222     252.981E-03    -221.667E-03     269.470E-03        -7.46742     36.7446E-03    -18.2968E-03    -18.4478E-03    -18.3514E-03     36.6896E-03    -18.3381E-03     3.43438E-03    -1.29386E+06    -4.92468E+06    -182.844E+06    -3.27699E+06    -182.817E+06    -2.96816E+06    -375.874E+03         22.8148
             527     1.96456E-03     41.2168E-03         6.53896     246.362E-03        -6.49971     347.239E-03    -307.992E-03     246.362E-03    -978.078E-03     36.6784E-03    -18.2368E-03    -18.4416E-03    -18.3029E-03     36.6534E-03    -18.3505E-03     2.22176E-03    -828.634E+03    -6.87296E+06    -189.520E+06    -4.21270E+06    -189.498E+06    -3.51127E+06     472.403E+03         22.7732
             528     981.931E-06     41.2148E-03         13.1466    -598.215E-03        -12.2715         1.03978    -164.618E-03    -598.215E-03        -13.3491     36.7177E-03    -18.0696E-03    -18.6480E-03    -18.4017E-03     36.7106E-03    -18.3089E-03     1.02810E-03     843.347E+03    -9.44036E+06    -193.009E+06    -4.72641E+06    -192.964E+06    -3.91551E+06    -922.531E+03         22.7484
             529     16.7188E-03     40.7843E-03         1.30842     180.947E-03    -834.355E-03    -342.969E-03     817.038E-03     180.947E-03         1.64283     388.986E-03    -18.1448E-03    -370.841E-03    -141.277E-03     159.422E-03    -18.1448E-03     691.644E-03     162.279E+06     122.792E+06    -10.5897E+06    -9.30083E+06     151.689E+06     132.093E+06    -2.84540E+06         81.8707
             530     15.7380E-03     40.4612E-03         1.72495     223.621E-03        -1.40280    -160.223E-03     482.371E-03     223.621E-03         3.04000     121.280E-03    -17.3804E-03    -103.899E-03    -19.7848E-03     37.1652E-03    -17.3804E-03     215.801E-03     117.949E+06     53.8230E+06    -8.25253E+06    -6.51588E+06     116.212E+06     53.8230E+06    -3.55617E+06         68.5276
             531     14.7486E-03     40.3406E-03         2.12044     246.745E-03        -1.86086    -26.7597E-03     286.340E-03     246.745E-03         3.96222     51.6966E-03    -17.1752E-03    -34.5215E-03    -13.8029E-03     30.9780E-03    -17.1752E-03     70.5923E-03     71.2593E+06     5.19122E+06    -33.2488E+06    -10.0565E+06     70.3514E+06    -17.0931E+06    -2.57897E+06         53.3603
             532     13.7612E-03     40.3077E-03         2.29383     262.087E-03        -2.07441     94.4338E-03     124.988E-03     262.087E-03         4.36314     36.0123E-03    -17.0347E-03    -18.9776E-03    -13.6737E-03     30.8423E-03    -17.1686E-03     31.8869E-03     56.6986E+06    -13.0801E+06    -53.1000E+06    -12.5527E+06     56.1712E+06    -53.1000E+06     832.983E+03         40.7467
             533     12.7736E-03     40.2750E-03         2.20735     270.420E-03        -2.01531     204.543E-03    -12.5015E-03     270.420E-03         4.21207     35.2478E-03    -17.1666E-03    -18.0812E-03    -15.0259E-03     32.3858E-03    -17.3600E-03     22.7366E-03     41.7144E+06    -11.6075E+06    -49.1083E+06    -10.0970E+06     40.2039E+06    -49.1083E+06     7.34866E+06         32.3921
             534     11.7905E-03     40.2594E-03         1.90180     271.298E-03        -1.72685     302.422E-03    -127.476E-03     271.298E-03         3.59662     34.9984E-03    -17.2797E-03    -17.7186E-03    -16.3558E-03     33.9402E-03    -17.5844E-03     14.6469E-03     5.78600E+06    -20.5391E+06    -43.6543E+06    -9.59730E+06    -7.41251E+06    -41.3976E+06     7.35112E+06         27.7124
             535     10.8061E-03     40.2453E-03         1.30609     264.571E-03        -1.14437     373.242E-03    -211.527E-03     264.571E-03         2.35837     35.3350E-03    -17.5019E-03    -17.8331E-03    -16.7821E-03     34.5996E-03    -17.8175E-03     12.2458E-03    -10.1499E+06    -25.6834E+06    -52.8661E+06    -11.4781E+06    -50.4447E+06    -26.7766E+06     6.13745E+06         25.3745
             536     9.82297E-03     40.2337E-03     663.394E-03     250.528E-03    -512.288E-03     419.831E-03    -268.726E-03     250.528E-03     774.483E-03     35.8694E-03    -17.8745E-03    -17.9949E-03    -17.3458E-03     35.2908E-03    -17.9449E-03     11.0650E-03    -13.0807E+06    -26.7753E+06    -82.7587E+06    -13.4557E+06    -82.3837E+06    -26.7753E+06     2.82354E+06         24.2610
             537     8.84025E-03     40.2232E-03     949.250E-03     229.827E-03    -801.573E-03     436.005E-03    -288.327E-03     229.827E-03        -1.29351     36.1886E-03    -18.0519E-03    -18.1367E-03    -17.6531E-03     35.7050E-03    -18.0519E-03     10.1287E-03    -12.9359E+06    -26.2450E+06    -113.537E+06    -12.9528E+06    -113.520E+06    -26.2450E+06    -568.633E+03         23.7100
             538     7.85726E-03     40.2138E-03         1.62397     202.986E-03        -1.47148     434.965E-03    -282.473E-03     202.986E-03        -3.00929     36.4616E-03    -18.1632E-03    -18.2985E-03    -17.9274E-03     36.0906E-03    -18.1632E-03     8.94940E-03    -9.49985E+06    -18.3390E+06    -133.811E+06    -9.53472E+06    -133.776E+06    -18.3390E+06    -598.317E+03         23.4029
             539     6.87544E-03     40.2062E-03         2.54156     171.383E-03        -2.37512     397.077E-03    -230.643E-03     171.383E-03        -4.86700     36.6445E-03    -18.2366E-03    -18.4079E-03    -18.0982E-03     36.3348E-03    -18.2366E-03     8.19233E-03    -6.28774E+06    -12.7236E+06    -145.537E+06    -6.31215E+06    -145.512E+06    -12.7236E+06    -436.407E+03         23.2053
             540     5.89259E-03     40.1983E-03         2.82767     136.238E-03        -2.64669     351.794E-03    -170.814E-03     136.238E-03        -5.44773     36.7593E-03    -18.2987E-03    -18.4606E-03    -18.2196E-03     36.5183E-03    -18.2987E-03     7.23357E-03    -4.90938E+06    -9.86015E+06    -163.191E+06    -4.92674E+06    -163.174E+06    -9.86015E+06     641.752E+03         23.0643
             541     4.91089E-03     40.1925E-03         3.45461     102.077E-03        -3.26173     253.247E-03    -60.3665E-03     102.077E-03        -6.69955     36.7475E-03    -18.3308E-03    -18.4168E-03    -18.2334E-03     36.5747E-03    -18.3413E-03     6.11688E-03    -4.27148E+06      -9.612E+06    -175.449E+06    -4.29390E+06    -175.427E+06      -9.612E+06     836.806E+03         22.9587
             542     3.92807E-03     40.1866E-03         2.84191     69.1470E-03        -2.63480     203.516E-03     3.59439E-03     69.1470E-03        -5.45050     36.8149E-03    -18.3691E-03    -18.4458E-03    -18.3068E-03     36.7000E-03    -18.3932E-03     4.97864E-03    -2.86813E+06    -7.81777E+06    -182.164E+06    -4.00113E+06    -182.117E+06    -6.73236E+06    -1.78318E+06         22.8789
             543     2.94652E-03     40.1831E-03         3.62214     45.9746E-03        -3.39420     79.0371E-03     148.908E-03     45.9746E-03        -6.98518     36.9001E-03    -18.3807E-03    -18.5194E-03    -18.3987E-03     36.8344E-03    -18.4356E-03     3.74099E-03    -1.23980E+06    -5.24536E+06    -185.110E+06    -3.91201E+06    -185.059E+06    -2.62341E+06    -778.845E+03         22.8200
             544     1.96371E-03     40.1802E-03         5.25877     9.07145E-03        -5.01567     131.960E-03     111.143E-03     9.07145E-03        -1.69283     36.8905E-03    -18.3422E-03    -18.5483E-03    -18.3989E-03     36.8597E-03    -18.4608E-03     2.56517E-03     976.585E+03    -4.65903E+06    -187.984E+06    -3.03393E+06    -187.961E+06    -671.306E+03      688.98E+03         22.7792
             545     982.470E-06     40.1782E-03         10.4543        -1.15125        -9.03850         1.10684     308.992E-03        -1.15125        -10.9068     36.9218E-03    -18.2433E-03    -18.6785E-03    -18.4242E-03     36.9116E-03    -18.4874E-03     1.17984E-03     44.0307E+03     -8.4045E+06    -192.954E+06    -3.76644E+06    -192.833E+06    -4.71483E+06     829.321E+03         22.7548
             546     16.7547E-03     39.8065E-03         1.11896     201.165E-03    -812.276E-03    -241.940E-03     548.623E-03     201.165E-03         1.62858     381.571E-03    -17.8690E-03    -363.702E-03    -129.931E-03     147.800E-03    -17.8690E-03     683.235E-03     153.973E+06     105.445E+06    -9.97302E+06    -8.53405E+06     141.969E+06     116.011E+06    -11.9857E+06         81.6269
             547     15.7280E-03     39.4180E-03         1.62474     231.677E-03        -1.42700    -61.2564E-03     258.991E-03     231.677E-03         3.02247     129.297E-03    -17.3121E-03    -111.985E-03    -17.7350E-03     35.0471E-03    -17.3121E-03     232.516E-03     108.829E+06     39.0928E+06    -11.1314E+06    -9.64449E+06     107.342E+06     39.0928E+06    -5.89337E+06         68.4558
             548     14.7494E-03     39.3121E-03         2.04423     247.325E-03        -1.87638     75.2073E-03     92.6452E-03     247.325E-03         3.91541     51.9500E-03    -17.2819E-03    -34.6680E-03    -14.9828E-03     32.2648E-03    -17.2819E-03     71.4396E-03     70.3759E+06     6.34675E+06    -37.8330E+06    -13.3790E+06     68.9213E+06    -16.6526E+06     1.42876E+06         53.3679
             549     13.7592E-03     39.2769E-03         2.23547     254.413E-03        -2.07907     210.935E-03    -54.5277E-03     254.413E-03         4.30197     37.6020E-03    -17.2470E-03    -20.3550E-03    -13.0502E-03     30.2973E-03    -17.2470E-03     38.1271E-03     52.3218E+06    -17.4483E+06    -57.6411E+06    -16.4112E+06     51.2848E+06    -57.6411E+06     3.51076E+06         40.8283
             550     12.7742E-03     39.2413E-03         2.17476     252.218E-03        -2.02074     338.854E-03    -184.833E-03     252.218E-03         4.15734     36.7865E-03    -17.4090E-03    -19.3776E-03    -15.2379E-03     32.7063E-03    -17.4685E-03     27.9809E-03     38.4815E+06    -16.4948E+06    -52.9402E+06    -15.2201E+06     37.2068E+06    -52.9402E+06     6.14471E+06         32.4710
             551     11.7885E-03     39.2248E-03         1.89245     239.730E-03        -1.73525     447.312E-03    -290.109E-03     239.730E-03         3.54459     35.7691E-03    -17.6263E-03    -18.1428E-03    -16.4742E-03     34.1781E-03    -17.7039E-03     17.9130E-03     6.98716E+06    -21.5244E+06    -44.3768E+06    -11.2857E+06    -6.85198E+06    -40.7764E+06     9.08945E+06         27.7692
             552     10.8055E-03     39.2102E-03         1.34394     216.788E-03        -1.18162     518.520E-03    -356.206E-03     216.788E-03         2.33970     36.0307E-03    -17.8373E-03    -18.1935E-03    -17.0677E-03     35.0040E-03    -17.9363E-03     14.6821E-03    -6.95331E+06    -22.8595E+06    -49.1256E+06    -9.31081E+06    -46.7681E+06    -22.8595E+06     8.20838E+06         25.4081
             553     9.82197E-03     39.1984E-03     769.189E-03     183.758E-03    -595.848E-03     555.954E-03    -382.613E-03     183.758E-03     755.423E-03     36.1602E-03    -17.9809E-03    -18.1793E-03    -17.3061E-03     35.3679E-03    -18.0619E-03     12.9651E-03    -7.83509E+06    -22.0977E+06    -77.7816E+06    -8.33927E+06    -77.2774E+06    -22.0977E+06     4.66594E+06         24.2792
             554     8.83885E-03     39.1872E-03     999.349E-03     141.582E-03    -803.838E-03     550.870E-03    -355.359E-03     141.582E-03        -1.24972     36.4909E-03    -18.1739E-03    -18.3170E-03    -17.7019E-03     35.8757E-03    -18.1739E-03     11.4804E-03    -8.42958E+06    -24.2094E+06    -111.249E+06     -8.5297E+06    -111.149E+06    -24.2094E+06     439.874E+03         23.7206
             555     7.85653E-03     39.1779E-03         1.66753     91.1642E-03        -1.43659     519.315E-03    -288.378E-03     91.1642E-03        -2.99160     36.6820E-03    -18.2835E-03    -18.3985E-03    -17.9334E-03     36.2170E-03    -18.2835E-03     10.0613E-03    -8.61912E+06    -21.1236E+06    -134.105E+06    -8.65497E+06    -134.069E+06    -21.1236E+06    -2.05227E+06         23.4106
             556     6.87359E-03     39.1696E-03         2.52997     34.4916E-03        -2.25410     439.258E-03    -163.387E-03     34.4916E-03        -4.73453     36.9540E-03    -18.3747E-03    -18.5793E-03    -18.2028E-03     36.5774E-03    -18.3747E-03     9.07395E-03    -7.45970E+06    -15.4459E+06    -147.114E+06    -7.47964E+06    -147.094E+06    -15.4459E+06    -1.11433E+06         23.2126
             557     5.89201E-03     39.1621E-03         2.87977    -25.9266E-03        -2.56351     339.552E-03    -23.2910E-03    -25.9266E-03        -5.43016     37.0617E-03    -18.4393E-03    -18.6224E-03    -18.3274E-03     36.7815E-03    -18.4541E-03     7.84994E-03    -7.29092E+06    -11.0443E+06    -165.102E+06    -7.30069E+06    -165.093E+06    -11.0443E+06     712.643E+03         23.0722
             558     4.90952E-03     39.1557E-03         3.40903    -84.1990E-03        -3.05657     183.468E-03     168.983E-03    -84.1990E-03        -6.45745     37.0428E-03    -18.4714E-03    -18.5714E-03    -18.3417E-03     36.8322E-03    -18.4905E-03     6.80626E-03    -5.89125E+06    -11.9614E+06    -172.669E+06    -5.92588E+06    -172.635E+06    -11.9614E+06     214.888E+03         22.9674
             559     3.92785E-03     39.1506E-03         2.98082    -138.220E-03        -2.59878     71.8342E-03     310.208E-03    -138.220E-03        -5.56887     37.0995E-03    -18.5216E-03    -18.5780E-03    -18.4062E-03     36.9561E-03    -18.5499E-03     5.59052E-03    -4.55703E+06    -10.8182E+06    -181.503E+06    -4.63383E+06    -181.426E+06    -10.8182E+06    -805.648E+03         22.8884
             560     2.94510E-03     39.1461E-03         3.48570    -178.326E-03        -3.06113    -100.404E-03     524.974E-03    -178.326E-03        -6.50865     37.2589E-03    -18.5979E-03    -18.6610E-03    -18.5574E-03     37.1795E-03    -18.6220E-03     4.14711E-03    -3.15967E+06    -6.73635E+06    -187.530E+06    -4.74771E+06    -187.429E+06    -5.24917E+06    -949.115E+03         22.8302
             561     1.96420E-03     39.1434E-03         3.99857    -227.743E-03        -3.54203    -84.6385E-03     541.180E-03    -227.743E-03        -2.42423     37.3182E-03    -18.5789E-03    -18.7393E-03    -18.6282E-03     37.2844E-03    -18.6562E-03     2.60385E-03     567.145E+03    -5.82568E+06    -186.636E+06    -5.91741E+06    -186.545E+06     567.145E+03    -72.5806E+03         22.7901
             562     981.126E-06     39.1418E-03         7.73725        -1.69475        -5.79661         1.16672     773.930E-03        -1.69475        -8.43642     37.2477E-03    -18.4512E-03    -18.7965E-03    -18.6200E-03     37.2377E-03    -18.6177E-03     1.36834E-03    -4.06422E+06    -10.4296E+06    -195.196E+06    -10.3409E+06    -195.064E+06    -4.28547E+06     2.60679E+06         22.7665
             563     16.6926E-03     38.7771E-03     946.521E-03     213.114E-03    -793.300E-03    -141.086E-03     294.307E-03     213.114E-03         1.60764     372.902E-03    -18.3289E-03    -354.573E-03    -117.113E-03     135.442E-03    -18.3289E-03     679.368E-03     161.771E+06     116.869E+06    -1.70015E+06    -996.194E+03     150.270E+06     127.666E+06     11.2804E+03         81.4547
             564     15.7331E-03     38.3716E-03         1.50628     235.058E-03        -1.42189     21.6521E-03     62.7428E-03     235.058E-03         2.92104     131.770E-03    -17.8307E-03    -113.939E-03    -23.6729E-03     41.5035E-03    -17.8307E-03     235.516E-03     104.598E+06     40.6835E+06    -13.5960E+06    -12.8215E+06     103.823E+06     40.6835E+06     2.66742E+06         68.4185
             565     14.7426E-03     38.2891E-03         1.93093     244.906E-03        -1.84479     163.807E-03    -77.6623E-03     244.906E-03         3.76392     53.0167E-03    -17.7241E-03    -35.2925E-03    -13.5507E-03     31.2749E-03    -17.7241E-03     74.9377E-03     67.2016E+06    -539.801E+03    -34.8484E+06    -21.3986E+06     65.9953E+06    -12.7832E+06     3.42311E+06         53.4534
             566     13.7535E-03     38.2412E-03         2.13149     244.957E-03        -2.02938     315.056E-03    -212.946E-03     244.957E-03         4.12262     41.8849E-03    -17.7064E-03    -24.1786E-03    -14.6515E-03     32.3579E-03    -17.7064E-03     46.0043E-03     53.1902E+06    -21.6127E+06    -52.2839E+06    -20.6303E+06     52.2079E+06    -52.2839E+06     6.40627E+06         40.9370
             567     12.7680E-03     38.2096E-03         2.09601     233.404E-03        -1.97444     459.588E-03    -338.024E-03     233.404E-03         3.98546     39.1568E-03    -17.8205E-03    -21.3363E-03    -16.4702E-03     34.2907E-03    -17.8205E-03     32.1081E-03     34.9505E+06    -20.7583E+06    -55.8130E+06    -19.8949E+06     34.0871E+06    -55.8130E+06     5.87184E+06         32.5742
             568     11.7845E-03     38.1878E-03         1.83997     208.937E-03        -1.69844     576.985E-03    -435.456E-03     208.937E-03         3.38074     37.2947E-03    -18.0085E-03    -19.2863E-03    -17.2899E-03     35.2983E-03    -18.0085E-03     20.5199E-03     3.89761E+06    -24.5657E+06    -42.6339E+06    -15.5956E+06    -6.51372E+06    -41.1927E+06     6.14374E+06         27.8412
             569     10.8022E-03     38.1748E-03         1.34692     171.388E-03        -1.18342     649.203E-03    -485.704E-03     171.388E-03         2.22318     36.9788E-03    -18.1933E-03    -18.7855E-03    -17.5790E-03     35.7829E-03    -18.2038E-03     16.1407E-03    -7.33440E+06    -22.0485E+06    -45.6268E+06    -8.65383E+06    -44.3074E+06    -22.0485E+06     5.01091E+06         25.4501
             570     9.81918E-03     38.1626E-03     855.508E-03     121.271E-03    -661.305E-03     677.012E-03    -482.808E-03     121.271E-03     658.052E-03     37.1335E-03    -18.3162E-03    -18.8173E-03    -17.8408E-03     36.1675E-03    -18.3267E-03     14.5180E-03    -3.43501E+06    -15.8420E+06    -74.6807E+06    -3.68560E+06    -74.4301E+06    -15.8420E+06     3.99748E+06         24.3025
             571     8.83709E-03     38.1505E-03         1.05801     59.7981E-03    -817.913E-03     653.184E-03    -413.087E-03     59.7981E-03        -1.26568     37.1734E-03    -18.4333E-03    -18.7400E-03    -18.0590E-03     36.4924E-03    -18.4333E-03     12.2072E-03    -1.96341E+06    -14.4585E+06    -107.935E+06    -2.13437E+06    -107.764E+06    -14.4585E+06     3.11688E+06         23.7349
             572     7.85433E-03     38.1421E-03         1.72835    -11.7449E-03        -1.42476     592.581E-03    -288.992E-03    -11.7449E-03        -3.01462     37.2661E-03    -18.5123E-03    -18.7537E-03    -18.2372E-03     36.7495E-03    -18.5123E-03     10.6986E-03    -3.88861E+06    -16.1174E+06    -132.654E+06    -3.95713E+06    -132.585E+06    -16.1174E+06     406.082E+03         23.4216
             573     6.87265E-03     38.1323E-03         2.52875    -90.7324E-03        -2.15334     473.952E-03    -98.5452E-03    -90.7324E-03        -4.63438     37.3951E-03    -18.5782E-03    -18.8169E-03    -18.4135E-03     36.9972E-03    -18.5837E-03     9.36975E-03    -5.39524E+06    -15.6320E+06    -150.301E+06    -5.41949E+06    -150.277E+06    -15.6320E+06     79.3873E+03         23.2229
             574     5.89031E-03     38.1256E-03         2.93822    -173.555E-03        -2.50133     325.347E-03     111.551E-03    -173.555E-03        -5.43307     37.4307E-03    -18.6533E-03    -18.7774E-03    -18.4724E-03     37.1460E-03    -18.6736E-03     7.96371E-03    -4.14729E+06    -9.45206E+06    -164.740E+06    -4.18811E+06    -164.700E+06    -9.45206E+06     505.362E+03         23.0830
             575     4.90844E-03     38.1188E-03         3.36764    -252.842E-03        -2.87772     115.186E-03     374.738E-03    -252.842E-03        -6.23158     37.4992E-03    -18.7024E-03    -18.7968E-03    -18.5590E-03     37.2862E-03    -18.7272E-03     6.87181E-03    -3.32894E+06    -8.67472E+06    -171.530E+06    -3.39280E+06    -171.466E+06    -8.67472E+06    -198.574E+03         22.9790
             576     3.92625E-03     38.1135E-03         3.13695    -325.320E-03        -2.59954    -46.8265E-03     584.237E-03    -325.320E-03        -5.69541     37.6110E-03    -18.7669E-03    -18.8441E-03    -18.6845E-03     37.4718E-03    -18.7873E-03     5.55366E-03    -3.04385E+06    -6.99268E+06    -181.593E+06    -3.11096E+06    -181.526E+06    -6.99268E+06     323.062E+03         22.9007
             577     2.94518E-03     38.1091E-03         3.36623    -379.342E-03        -2.77573    -268.598E-03     859.093E-03    -379.342E-03        -6.02929     37.6845E-03    -18.8030E-03    -18.8815E-03    -18.7591E-03     37.6041E-03    -18.8449E-03     4.19902E-03    -2.49917E+06    -4.39125E+06    -186.849E+06    -3.74585E+06    -186.772E+06    -3.22201E+06    -284.284E+03         22.8431
             578     1.96266E-03     38.1058E-03         2.90707    -336.581E-03        -2.35494    -276.737E-03     931.197E-03    -438.910E-03        -3.14490     37.7601E-03    -18.8284E-03    -18.9316E-03    -18.8657E-03     37.7255E-03    -18.8598E-03     2.65259E-03    -2.01804E+06    -5.86018E+06    -189.883E+06    -5.75123E+06    -189.774E+06    -2.23650E+06    -495.972E+03         22.8035
             579     982.676E-06     38.1047E-03         5.16958        -1.62787        -3.31453         1.22733         1.18738        -2.18754        -5.97745     37.6918E-03    -18.7134E-03    -18.9784E-03    -18.7666E-03     37.6809E-03    -18.9144E-03     1.48231E-03    -1.53045E+06    -5.02060E+06    -192.871E+06    -4.04392E+06    -192.812E+06    -2.56615E+06    -97.1590E+03         22.7803
             580     16.7079E-03     37.7021E-03     785.841E-03     222.887E-03    -770.701E-03    -55.7576E-03     70.8981E-03     222.887E-03         1.52017     373.054E-03    -18.8804E-03    -354.174E-03    -113.038E-03     131.918E-03    -18.8804E-03     682.637E-03     163.288E+06     125.768E+06    -7.64500E+06    -7.31055E+06     153.555E+06     135.167E+06     5.30682E+06         81.4080
             581     15.7208E-03     37.3524E-03         1.36789     241.236E-03        -1.37839     89.9805E-03    -100.480E-03     241.236E-03         2.73552     129.279E-03    -18.6931E-03    -110.585E-03    -22.7512E-03     41.4443E-03    -18.6931E-03     229.894E-03     104.241E+06     52.2309E+06    -21.0561E+06    -20.5395E+06     103.724E+06     52.2309E+06     5.51840E+06         68.4443
             582     14.7254E-03     37.2522E-03         1.78744     247.495E-03        -1.76908     242.562E-03    -224.211E-03     247.495E-03         3.52193     58.1024E-03    -18.5045E-03    -39.5980E-03    -16.2541E-03     34.7585E-03    -18.5045E-03     81.0373E-03     66.1484E+06     5.34047E+06    -32.1153E+06    -20.8430E+06     65.5206E+06    -5.30414E+06     5.92696E+06         53.5522
             583     13.7441E-03     37.2082E-03         1.99051     242.025E-03        -1.93819     408.926E-03    -356.604E-03     242.025E-03         3.84829     45.1254E-03    -18.3251E-03    -26.8003E-03    -17.9222E-03     36.2473E-03    -18.3251E-03     46.8360E-03     52.7134E+06    -24.9299E+06    -47.5679E+06    -24.2399E+06     52.0235E+06    -47.5679E+06     5.79915E+06         41.0690
             584     12.7615E-03     37.1713E-03         1.97894     222.860E-03        -1.89219     566.413E-03    -479.668E-03     222.860E-03         3.71984     41.3054E-03    -18.2845E-03    -23.0209E-03    -18.4529E-03     36.7374E-03    -18.2845E-03     31.8591E-03     36.8311E+06    -20.3074E+06    -48.9940E+06    -19.7987E+06     36.3223E+06    -48.9940E+06     4.58613E+06         32.6959
             585     11.7811E-03     37.1512E-03         1.75558     188.470E-03        -1.63372     693.245E-03    -571.383E-03     188.470E-03         3.13118     38.3773E-03    -18.3381E-03    -20.0392E-03    -18.3128E-03     36.6509E-03    -18.3381E-03     19.5193E-03     2.58195E+06    -22.1636E+06    -43.1651E+06    -13.7365E+06    -5.94250E+06    -43.0677E+06     1.42882E+06         27.9231
             586     10.7976E-03     37.1388E-03         1.32559     138.662E-03        -1.16699     765.948E-03    -607.349E-03     138.662E-03         2.03275     37.8340E-03    -18.4807E-03    -19.3534E-03    -18.2361E-03     36.7168E-03    -18.4807E-03     15.7454E-03    -8.10935E+06    -21.5596E+06    -47.7046E+06    -8.20153E+06    -43.4015E+06    -25.7704E+06     916.518E+03         25.4967
             587     9.81639E-03     37.1243E-03     931.507E-03     74.2374E-03    -725.846E-03     784.960E-03    -579.299E-03     74.2374E-03     500.936E-03     37.8822E-03    -18.5803E-03    -19.3019E-03    -18.4437E-03     37.0239E-03    -18.5803E-03     13.7985E-03    -4.46494E+06    -18.6138E+06    -75.5661E+06    -4.53803E+06    -75.4930E+06    -18.6138E+06     2.06525E+06         24.3283
             588     8.83426E-03     37.1147E-03         1.12282    -3.29863E-03    -850.595E-03     744.109E-03    -471.886E-03    -3.29863E-03        -1.32733     37.7764E-03    -18.6645E-03    -19.1119E-03    -18.4805E-03     37.1450E-03    -18.6645E-03     11.8743E-03    -1.66300E+06    -15.3790E+06    -106.940E+06    -1.77789E+06    -106.826E+06    -15.3790E+06     3.36899E+06         23.7506
             589     7.85276E-03     37.1039E-03         1.79674    -92.1817E-03        -1.44099     656.619E-03    -300.872E-03    -92.1817E-03        -3.07126     37.8918E-03    -18.7511E-03    -19.1407E-03    -18.6537E-03     37.4048E-03    -18.7511E-03     10.4652E-03    -560.072E+03    -10.3263E+06    -131.233E+06    -740.638E+03    -131.053E+06    -10.3263E+06     3.85928E+06         23.4333
             590     6.87088E-03     37.0959E-03         2.52737    -189.093E-03        -2.08097     503.735E-03    -57.3348E-03    -189.093E-03        -4.56048     37.8536E-03    -18.7936E-03    -19.0600E-03    -18.6890E-03     37.4881E-03    -18.7992E-03     9.04461E-03    -1.51128E+06    -11.0761E+06    -149.557E+06    -1.64488E+06    -149.423E+06    -11.0761E+06     1.78337E+06         23.2334
             591     5.88910E-03     37.0879E-03         2.99252    -289.625E-03        -2.46766     315.079E-03     209.780E-03    -289.625E-03        -5.45538     37.8861E-03    -18.8547E-03    -19.0314E-03    -18.7652E-03     37.6254E-03    -18.8602E-03     7.65264E-03    -1.05099E+06    -8.02947E+06    -163.489E+06    -1.09898E+06    -163.441E+06    -8.02947E+06    -496.655E+03         23.0934
             592     4.90750E-03     37.0817E-03         3.31901    -385.495E-03        -2.73031     62.7462E-03     525.955E-03    -385.495E-03        -6.02092     37.9683E-03    -18.9174E-03    -19.0509E-03    -18.8587E-03     37.7860E-03    -18.9274E-03     6.39306E-03     1.47961E+06    -2.59191E+06    -173.309E+06     356.973E+03    -173.274E+06    -1.50451E+06     510.748E+03         22.9897
             593     3.92613E-03     37.0758E-03         3.27309    -472.201E-03        -2.62418    -142.141E-03     791.047E-03    -472.201E-03        -5.81877     37.9687E-03    -18.9339E-03    -19.0347E-03    -18.8841E-03     37.8501E-03    -18.9660E-03     5.15905E-03     1.22036E+06    -1.02064E+06    -181.128E+06     83.4808E+03    -181.078E+06     66.7630E+03     1.49245E+06         22.9117
             594     2.94413E-03     37.0716E-03         3.24807    -538.158E-03        -2.52994    -393.261E-03         1.11139    -538.158E-03        -5.55808     37.9721E-03    -18.9400E-03    -19.0321E-03    -18.9085E-03     37.9020E-03    -18.9935E-03     3.93171E-03     130.353E+03    -1.14357E+06    -185.404E+06    -534.338E+03    -185.350E+06    -532.890E+03     341.528E+03         22.8543
             595     1.96329E-03     37.0684E-03         2.56085    -502.377E-03        -1.87252    -436.834E-03         1.22749    -604.706E-03        -3.82304     38.0149E-03    -18.9405E-03    -19.0743E-03    -18.9391E-03     37.9838E-03    -19.0446E-03     2.55535E-03     1.91530E+06    -1.01985E+06    -190.055E+06    -850.441E+03    -190.006E+06     1.69685E+06    -1.09557E+06         22.8149
             596     980.405E-06     37.0665E-03         3.46729    -406.667E-03        -2.84277         1.37170         1.51200        -2.66585        -3.58984     38.1043E-03    -18.9130E-03    -19.1914E-03    -18.9983E-03     38.0957E-03    -19.0975E-03     1.21435E-03    -234.606E+03    -3.50338E+06    -194.048E+06    -2.73808E+06    -193.999E+06    -1.04905E+06    -2.26789E+06         22.7915
             597     16.6879E-03     36.6656E-03     658.006E-03     237.168E-03    -746.932E-03     13.6627E-03    -102.589E-03     237.168E-03         1.39100     378.295E-03    -19.5430E-03    -358.752E-03    -111.202E-03     130.745E-03    -19.5430E-03     694.050E-03     158.138E+06     117.041E+06    -9.05632E+06    -8.90921E+06     150.300E+06     124.732E+06    -375.162E+03         81.4438
             598     15.6905E-03     36.3136E-03         1.22730     256.108E-03        -1.30318     150.838E-03    -226.718E-03     256.108E-03         2.49950     128.196E-03    -19.5313E-03    -108.665E-03    -24.1778E-03     43.7091E-03    -19.5313E-03     224.033E-03     101.554E+06     48.2945E+06    -21.9135E+06    -21.7730E+06     101.413E+06     48.2945E+06    -584.084E+03         68.4865
             599     14.7194E-03     36.2113E-03         1.62756     260.584E-03        -1.66365     312.402E-03    -348.489E-03     260.584E-03         3.22037     59.2091E-03    -19.2225E-03    -39.9866E-03    -21.1125E-03     40.3350E-03    -19.2225E-03     75.7232E-03     64.3611E+06     9.02515E+06    -32.1206E+06    -25.1017E+06     63.7886E+06     2.57868E+06     6.05500E+06         53.6554
             600     13.7380E-03     36.1704E-03         1.83167     251.325E-03        -1.82730     491.146E-03    -486.775E-03     251.325E-03         3.52005     46.5616E-03    -18.8005E-03    -27.7611E-03    -20.8381E-03     39.6386E-03    -18.8005E-03     42.9013E-03     56.7984E+06    -19.5811E+06    -41.1803E+06    -22.9440E+06     56.2376E+06    -37.2567E+06     4.46306E+06         41.2226
             601     12.7593E-03     36.1299E-03         1.84568     226.606E-03        -1.79817     660.179E-03    -612.675E-03     226.606E-03         3.40593     42.0444E-03    -18.5762E-03    -23.4681E-03    -19.9802E-03     38.5564E-03    -18.5762E-03     28.1724E-03     38.7323E+06    -15.9728E+06    -46.6306E+06    -15.8087E+06     38.5682E+06    -46.6306E+06    -479.348E+03         32.8241
             602     11.7770E-03     36.1159E-03         1.65998     184.823E-03        -1.56721     793.091E-03    -700.322E-03     184.823E-03         2.84357     38.8736E-03    -18.5437E-03    -20.3299E-03    -19.0964E-03     37.6401E-03    -18.5437E-03     16.7388E-03     4.42264E+06    -18.7063E+06    -43.4551E+06    -9.29704E+06    -4.98666E+06    -43.4551E+06    -1.09545E+06         28.0052
             603     10.7967E-03     36.0988E-03         1.29649     125.885E-03        -1.15512     866.118E-03    -724.749E-03     125.885E-03         1.80890     38.4137E-03    -18.6474E-03    -19.7663E-03    -18.9358E-03     37.5832E-03    -18.6474E-03     13.6526E-03    -6.55916E+06    -20.6105E+06    -50.3024E+06    -6.59313E+06    -44.9484E+06    -25.9306E+06    -300.402E+03         25.5423
             604     9.81491E-03     36.0884E-03     999.935E-03     50.7937E-03    -798.123E-03     878.467E-03    -676.655E-03     50.7937E-03     321.581E-03     38.0729E-03    -18.7294E-03    -19.3435E-03    -18.7383E-03     37.4678E-03    -18.7294E-03     11.6661E-03    -4.99034E+06    -16.5820E+06    -77.6601E+06    -5.04941E+06    -77.6011E+06    -16.5820E+06     1.71290E+06         24.3526
             605     8.83304E-03     36.0758E-03         1.18606    -38.4975E-03    -906.444E-03     820.981E-03    -541.369E-03    -38.4975E-03        -1.40688     38.0123E-03    -18.7881E-03    -19.2242E-03    -18.7573E-03     37.5454E-03    -18.7881E-03     10.1906E-03    -4.27707E+06    -14.7159E+06    -107.332E+06    -4.35765E+06    -107.252E+06    -14.7159E+06     2.53413E+06         23.7646
             606     7.85155E-03     36.0670E-03         1.85742    -139.658E-03        -1.48154     711.154E-03    -335.282E-03    -139.658E-03        -3.13886     37.9895E-03    -18.8703E-03    -19.1192E-03    -18.7584E-03     37.6287E-03    -18.8703E-03     8.98045E-03    -1.46811E+06    -7.70629E+06    -131.048E+06    -1.59595E+06    -130.920E+06    -7.70629E+06     3.32598E+06         23.4427
             607     6.86995E-03     36.0575E-03         2.51448    -248.908E-03        -2.03732     532.045E-03    -54.8831E-03    -248.908E-03        -4.49986     38.0283E-03    -18.9199E-03    -19.1084E-03    -18.8239E-03     37.7438E-03    -18.9199E-03     7.98949E-03     682.021E+03    -5.63036E+06    -146.246E+06     517.897E+03    -146.082E+06    -5.63036E+06     2.81804E+06         23.2407
             608     5.88875E-03     36.0507E-03         3.02382    -361.135E-03        -2.45948     312.400E-03     251.948E-03    -361.135E-03        -5.47755     38.1480E-03    -18.9560E-03    -19.1920E-03    -18.9751E-03     37.9310E-03    -18.9560E-03     7.02278E-03    -950.884E+03    -5.99396E+06    -162.432E+06    -1.01195E+06    -162.371E+06    -5.99396E+06     713.703E+03         23.0998
             609     4.90726E-03     36.0434E-03         3.25430    -468.132E-03        -2.61209     37.3941E-03     604.824E-03    -468.132E-03        -5.82468     38.2037E-03    -18.9921E-03    -19.2115E-03    -19.0561E-03     38.0482E-03    -18.9921E-03     5.91146E-03    -625.711E+03    -3.36390E+06    -174.917E+06    -1.97450E+06    -174.915E+06    -2.01704E+06     183.297E+03         22.9957
             610     3.92577E-03     36.0385E-03         3.36673    -564.665E-03        -2.65902    -199.262E-03     906.972E-03    -564.665E-03        -5.92215     38.0968E-03    -18.9841E-03    -19.1127E-03    -18.9938E-03     38.0000E-03    -19.0062E-03     4.66991E-03     1.40638E+06    -613.107E+03    -180.570E+06     9.72725E+03    -180.546E+06     760.087E+03     836.988E+03         22.9176
             611     2.94447E-03     36.0336E-03         3.12446    -639.489E-03        -2.33644    -466.295E-03         1.25431    -639.489E-03        -5.10997     38.0319E-03    -18.9817E-03    -19.0501E-03    -18.9519E-03     37.9727E-03    -19.0208E-03     3.61944E-03     1.38401E+06     217.650E+03    -184.535E+06     1.05155E+06    -184.493E+06     507.182E+03     609.254E+03         22.8601
             612     1.96246E-03     36.0306E-03         2.87780    -711.831E-03        -2.01218    -538.841E-03         1.40446    -711.831E-03        -4.44954     38.0832E-03    -18.9683E-03    -19.1149E-03    -19.0004E-03     38.0584E-03    -19.0580E-03     2.23556E-03     2.85654E+06    -1.79744E+06    -189.264E+06    -1.58841E+06    -189.242E+06     2.62600E+06     91.5310E+03         22.8203
             613     982.141E-06     36.0288E-03         3.87702     46.6917E-03        -3.74030         1.54569         1.69410        -3.05638        -1.38075     38.0762E-03    -18.9155E-03    -19.1607E-03    -19.0306E-03     38.0701E-03    -19.0395E-03     1.09340E-03    -1.83100E+06    -6.59036E+06    -195.637E+06    -6.62035E+06    -195.607E+06    -1.83100E+06    -1.26536E+06         22.7967
             614     16.6599E-03     35.6177E-03     570.658E-03     256.275E-03    -715.762E-03     59.6161E-03    -207.802E-03     259.357E-03         1.25260     381.580E-03    -20.0237E-03    -361.556E-03    -114.222E-03     134.246E-03    -20.0237E-03     699.537E-03     157.227E+06     117.074E+06    -11.5497E+06    -10.9409E+06     147.735E+06     125.957E+06     2.88767E+06         81.4516
             615     15.7004E-03     35.2661E-03         1.09332     281.609E-03        -1.20781     196.061E-03    -310.550E-03     281.609E-03         2.24288     121.502E-03    -19.9557E-03    -101.546E-03    -27.0335E-03     46.9891E-03    -19.9557E-03     207.888E-03     102.577E+06     53.0565E+06    -22.7139E+06    -21.8353E+06     101.699E+06     53.0565E+06     6.27439E+06         68.5131
             616     14.7126E-03     35.1744E-03         1.47397     285.815E-03        -1.55080     371.210E-03    -448.044E-03     285.815E-03         2.90813     58.3387E-03    -19.4665E-03    -38.8721E-03    -22.7808E-03     42.2473E-03    -19.4665E-03     69.3625E-03     66.9119E+06     8.99419E+06    -28.5030E+06    -27.8112E+06     66.2597E+06     8.95456E+06     3.44494E+06         53.7781
             617     13.7364E-03     35.1221E-03         1.68245     274.451E-03        -1.72221     560.790E-03    -600.550E-03     274.451E-03         3.19428     46.0870E-03    -18.9251E-03    -27.1620E-03    -22.2035E-03     41.1285E-03    -18.9251E-03     36.1774E-03     60.9387E+06    -18.4224E+06    -35.7369E+06    -21.8655E+06     60.4582E+06    -31.8132E+06    -1.89115E+06         41.3675
             618     12.7578E-03     35.0945E-03         1.72165     246.336E-03        -1.71741     735.970E-03    -731.731E-03     246.336E-03         3.10209     41.1698E-03    -18.5957E-03    -22.5741E-03    -20.3096E-03     38.9053E-03    -18.5957E-03     22.6283E-03     39.1354E+06    -16.5714E+06    -50.5395E+06    -16.2779E+06     38.8418E+06    -50.5395E+06    -3.61315E+06         32.9404
             619     11.7776E-03     35.0738E-03         1.57288     200.088E-03        -1.51957     871.518E-03    -818.212E-03     200.088E-03         2.56862     38.8051E-03    -18.5408E-03    -20.2643E-03    -19.4346E-03     37.9754E-03    -18.5408E-03     13.7179E-03     3.15444E+06    -21.5589E+06    -47.1039E+06    -12.7278E+06    -5.67665E+06    -47.1039E+06    -2.42941E+06         28.0772
             620     10.7968E-03     35.0626E-03         1.27193     135.684E-03        -1.16308     944.644E-03    -835.799E-03     135.684E-03         1.60179     38.2860E-03    -18.6287E-03    -19.6572E-03    -19.0982E-03     37.7269E-03    -18.6287E-03     11.2750E-03    -9.57763E+06    -23.4469E+06    -52.6496E+06    -9.64111E+06    -47.6580E+06    -28.3751E+06    -649.016E+03         25.5811
             621     9.81514E-03     35.0490E-03         1.05901     54.3691E-03    -883.162E-03     950.148E-03    -774.303E-03     54.3691E-03     160.362E-03     38.0466E-03    -18.6890E-03    -19.3576E-03    -18.9127E-03     37.6017E-03    -18.6890E-03     10.0272E-03    -7.54097E+06    -18.9200E+06    -79.7229E+06    -7.59412E+06    -79.6698E+06    -18.9200E+06     1.42273E+06         24.3720
             622     8.83446E-03     35.0390E-03         1.23189    -41.5222E-03    -974.246E-03     881.371E-03    -623.729E-03    -41.5222E-03        -1.47136     37.8842E-03    -18.7272E-03    -19.1570E-03    -18.8148E-03     37.5420E-03    -18.7272E-03     8.78011E-03    -5.83509E+06    -16.6179E+06    -107.478E+06    -5.94343E+06    -107.369E+06    -16.6179E+06     2.85983E+06         23.7742
             623     7.85237E-03     35.0288E-03         1.89086    -149.124E-03        -1.53516     753.814E-03    -398.116E-03    -149.124E-03        -3.18274     37.7567E-03    -18.7844E-03    -18.9722E-03    -18.7080E-03     37.4924E-03    -18.7844E-03     7.70650E-03    -6.00715E+06    -13.1988E+06    -130.128E+06    -6.06945E+06    -130.066E+06    -13.1988E+06     2.16234E+06         23.4475
             624     6.87067E-03     35.0205E-03         2.47460    -264.255E-03        -2.01386     558.294E-03    -97.5540E-03    -264.255E-03        -4.42699     37.7570E-03    -18.8485E-03    -18.9085E-03    -18.6968E-03     37.5453E-03    -18.8485E-03     6.89108E-03    -4.56314E+06    -8.62294E+06    -145.195E+06    -4.61479E+06    -145.144E+06    -8.62294E+06     1.93220E+06         23.2429
             625     5.88860E-03     35.0123E-03         3.01787    -381.804E-03        -2.46305     324.160E-03     230.660E-03    -381.804E-03        -5.47297     37.9233E-03    -18.9035E-03    -19.0197E-03    -18.8508E-03     37.7543E-03    -18.9035E-03     6.15801E-03    -1.84519E+06    -5.51693E+06    -161.250E+06    -1.90547E+06    -161.190E+06    -5.51693E+06     2.03372E+06         23.1003
             626     4.90747E-03     35.0059E-03         3.15357    -493.831E-03        -2.51359     38.3929E-03     601.596E-03    -493.831E-03        -5.62030     38.0420E-03    -18.9317E-03    -19.1102E-03    -18.9844E-03     37.9161E-03    -18.9317E-03     5.30921E-03    -1.93487E+06    -4.49966E+06    -173.778E+06    -2.21092E+06    -173.761E+06    -4.24019E+06     425.802E+03         22.9951
             627     3.92618E-03     35.0002E-03         3.40835    -595.615E-03        -2.69118    -206.958E-03     924.126E-03    -595.615E-03        -5.99329     38.0453E-03    -18.9289E-03    -19.1164E-03    -19.0356E-03     37.9645E-03    -18.9289E-03     4.25286E-03    -3.55783E+06    -4.24354E+06    -181.171E+06    -3.84719E+06    -181.167E+06    -3.95775E+06    -286.552E+03         22.9164
             628     2.94451E-03     34.9964E-03         2.99934    -675.845E-03        -2.20523    -485.917E-03         1.28003    -675.845E-03        -4.67975     37.9187E-03    -18.8971E-03    -19.0216E-03    -18.9561E-03     37.8715E-03    -18.9154E-03     3.23685E-03    -2.70757E+06    -4.83141E+06    -184.549E+06    -4.28441E+06    -184.540E+06    -3.26430E+06     676.325E+03         22.8584
             629     1.96336E-03     34.9924E-03         3.22271    -751.467E-03        -2.34571    -575.642E-03         1.45264    -751.467E-03        -4.99323     37.8150E-03    -18.8335E-03    -18.9815E-03    -18.8587E-03     37.7931E-03    -18.9344E-03     2.12411E-03    -828.703E+03    -4.78917E+06    -189.220E+06    -4.43849E+06    -189.205E+06    -1.19417E+06     1.39209E+06         22.8183
             630     981.146E-06     34.9912E-03         5.95110        -1.16391        -4.65017         1.72845         1.72740        -3.31883     626.662E-03     37.8689E-03    -18.7723E-03    -19.0967E-03    -18.9549E-03     37.8611E-03    -18.9062E-03     1.31722E-03    -3.20443E+06    -6.32259E+06    -194.891E+06     -5.5222E+06    -194.879E+06    -4.01756E+06     191.134E+03         22.7945
             631     16.6850E-03     34.5581E-03     521.790E-03     258.528E-03    -662.723E-03     76.3743E-03    -247.334E-03     288.554E-03         1.10528     390.223E-03    -19.7808E-03    -370.442E-03    -123.831E-03     143.612E-03    -19.7808E-03     709.652E-03     156.667E+06     122.257E+06    -16.2521E+06    -15.6446E+06     145.560E+06     132.757E+06     4.82510E+06         81.4052
             632     15.6927E-03     34.2377E-03     985.036E-03     315.117E-03        -1.11390     224.675E-03    -353.535E-03     315.117E-03         2.01630     118.025E-03    -19.7173E-03    -98.3075E-03    -24.3242E-03     44.0415E-03    -19.7173E-03     201.372E-03     107.056E+06     65.3776E+06    -22.7480E+06    -21.8589E+06     106.167E+06     65.3776E+06     4.42383E+06         68.5224
             633     14.7181E-03     34.1210E-03         1.35296     320.100E-03        -1.45575     414.696E-03    -517.482E-03     320.100E-03         2.64673     56.8078E-03    -19.1704E-03    -37.6374E-03    -23.5140E-03     42.6845E-03    -19.1704E-03     62.9613E-03     72.9804E+06     16.3799E+06    -26.2158E+06    -18.9778E+06     72.3845E+06     9.73794E+06    -2.22631E+06         53.8733
             634     13.7426E-03     34.0855E-03         1.56661     308.154E-03        -1.64283     610.723E-03    -686.945E-03     308.154E-03         2.93007     42.6567E-03    -18.6003E-03    -24.0564E-03    -21.1267E-03     39.7269E-03    -18.6003E-03     27.1896E-03     61.6285E+06    -16.9029E+06    -36.2506E+06    -16.5231E+06     61.2488E+06    -36.2506E+06    -5.24676E+06         41.4924
             635     12.7606E-03     34.0514E-03         1.62480     278.957E-03        -1.66537     785.893E-03    -826.457E-03     278.957E-03         2.86145     39.2059E-03    -18.3473E-03    -20.8586E-03    -19.3352E-03     37.6825E-03    -18.3473E-03     17.8024E-03     38.7040E+06    -15.0717E+06    -51.2284E+06    -14.5966E+06     38.2289E+06    -51.2284E+06    -4.05667E+06         33.0363
             636     11.7804E-03     34.0379E-03         1.50626     231.466E-03        -1.50009     920.575E-03    -914.405E-03     231.466E-03         2.35812     37.6645E-03    -18.3200E-03    -19.3445E-03    -18.8364E-03     37.1563E-03    -18.3200E-03     10.5968E-03     669.519E+03    -22.7881E+06    -51.8364E+06    -13.1116E+06    -9.00701E+06    -51.8364E+06    -2.12178E+06         28.1349
             637     10.7980E-03     34.0228E-03         1.25199     165.734E-03        -1.19018     991.542E-03    -929.736E-03     165.734E-03         1.45071     37.5000E-03    -18.4332E-03    -19.0668E-03    -18.6634E-03     37.0966E-03    -18.4332E-03     9.48409E-03    -12.2424E+06    -27.8021E+06    -54.5305E+06    -12.3163E+06    -48.8593E+06    -33.3994E+06     198.564E+03         25.6104
             638     9.81762E-03     34.0122E-03         1.09615     83.1624E-03    -969.077E-03     993.086E-03    -866.012E-03     83.1624E-03     52.5042E-03     37.5259E-03    -18.5010E-03    -19.0249E-03    -18.6871E-03     37.1881E-03    -18.5010E-03     8.69173E-03    -12.1005E+06    -25.7913E+06    -81.7733E+06    -12.1231E+06    -81.7506E+06    -25.7913E+06     1.04356E+06         24.3848
             639     8.83486E-03     34.0007E-03         1.24714    -13.6657E-03        -1.04114     917.991E-03    -711.993E-03    -13.6657E-03        -1.49157     37.4546E-03    -18.5481E-03    -18.9065E-03    -18.6168E-03     37.1649E-03    -18.5481E-03     8.04181E-03    -10.7580E+06    -22.2805E+06    -108.672E+06    -10.8506E+06    -108.580E+06    -22.2805E+06     2.77046E+06         23.7785
             640     7.85395E-03     33.9917E-03         1.88843    -121.524E-03        -1.59001     782.500E-03    -484.078E-03    -121.524E-03        -3.18451     37.4910E-03    -18.6124E-03    -18.8786E-03    -18.6468E-03     37.2592E-03    -18.6124E-03     7.18806E-03    -8.62346E+06    -14.3731E+06    -127.171E+06    -8.70886E+06    -127.085E+06    -14.3731E+06     2.36827E+06         23.4473
             641     6.87195E-03     33.9830E-03         2.39799    -236.042E-03        -1.99915     581.586E-03    -182.745E-03    -236.042E-03        -4.31822     37.4669E-03    -18.6548E-03    -18.8120E-03    -18.6278E-03     37.2826E-03    -18.6548E-03     6.42515E-03    -7.54904E+06    -11.6875E+06    -145.175E+06    -7.55187E+06    -145.172E+06    -11.6875E+06     202.823E+03         23.2400
             642     5.89049E-03     33.9751E-03         2.96730    -352.371E-03        -2.47150     347.182E-03     148.627E-03    -352.371E-03        -5.42608     37.4285E-03    -18.6770E-03    -18.7516E-03    -18.5899E-03     37.2847E-03    -18.6947E-03     5.65206E-03    -5.31975E+06    -10.8663E+06    -161.159E+06    -5.33838E+06    -161.140E+06    -10.8663E+06     397.122E+03         23.0953
             643     4.90819E-03     33.9681E-03         3.01317    -463.584E-03        -2.42717     69.0222E-03     516.975E-03    -463.584E-03        -5.40043     37.5087E-03    -18.7130E-03    -18.7957E-03    -18.6499E-03     37.4047E-03    -18.7547E-03     4.81794E-03    -2.44355E+06    -6.57290E+06    -172.803E+06    -2.47188E+06    -172.775E+06    -6.57290E+06     868.737E+03         22.9886
             644     3.92641E-03     33.9628E-03         3.38548    -565.251E-03        -2.71859    -175.515E-03     842.408E-03    -565.251E-03        -6.01721     37.7040E-03    -18.7721E-03    -18.9319E-03    -18.8348E-03     37.6308E-03    -18.7960E-03     4.03024E-03    -1.46276E+06    -3.82123E+06    -181.836E+06    -2.52535E+06    -181.823E+06    -2.77102E+06     915.605E+03         22.9087
             645     2.94543E-03     33.9583E-03         2.89289    -630.418E-03        -2.16722    -443.419E-03         1.18643    -647.766E-03        -4.28176     37.6870E-03    -18.7877E-03    -18.8994E-03    -18.8556E-03     37.6446E-03    -18.7890E-03     3.05622E-03    -861.375E+03    -4.00003E+06    -184.037E+06    -3.67704E+06    -184.034E+06    -1.18757E+06     687.592E+03         22.8500
             646     1.96328E-03     33.9559E-03         3.52223    -706.722E-03        -2.72803    -554.349E-03         1.36590    -724.071E-03        -5.43873     37.5286E-03    -18.7109E-03    -18.8177E-03    -18.7123E-03     37.5072E-03    -18.7949E-03     2.15234E-03    -229.760E+03    -4.96841E+06    -187.556E+06    -4.84049E+06    -187.549E+06    -364.691E+03     825.105E+03         22.8096
             647     981.698E-06     33.9532E-03         8.08114        -2.53091        -5.46111         1.98235         1.62235        -3.51558         2.37670     37.5750E-03    -18.5703E-03    -19.0047E-03    -18.7192E-03     37.5663E-03    -18.8471E-03     1.30536E-03    -4.87637E+06    -8.55467E+06    -196.168E+06    -7.73129E+06    -196.155E+06    -5.71319E+06     1.12717E+06         22.7859
             648     16.6983E-03     33.5572E-03     509.265E-03     251.929E-03    -598.943E-03     63.8394E-03    -222.287E-03     320.699E-03     997.005E-03     394.980E-03    -19.2315E-03    -375.749E-03    -132.517E-03     151.748E-03    -19.2315E-03     713.130E-03     157.965E+06     121.041E+06    -13.1711E+06    -13.0962E+06     147.664E+06     131.267E+06     785.867E+03         81.2258
             649     15.7084E-03     33.1875E-03     918.543E-03     349.927E-03        -1.03987     231.246E-03    -352.573E-03     349.927E-03         1.86739     118.254E-03    -18.8880E-03    -99.3657E-03    -23.5536E-03     42.4416E-03    -18.8880E-03     203.505E-03     110.576E+06     59.5900E+06    -16.5984E+06    -16.1939E+06     110.172E+06     59.5900E+06    -5.13021E+06         68.4935
             650     14.7331E-03     33.0813E-03         1.27769     356.074E-03        -1.39122     433.290E-03    -546.823E-03     356.074E-03         2.48063     51.8113E-03    -18.4201E-03    -33.3912E-03    -20.6420E-03     39.0621E-03    -18.4201E-03     56.7608E-03     72.3547E+06     11.7361E+06    -27.5386E+06     -15.947E+06     71.7624E+06     736.906E+03    -7.01828E+06         53.9523
             651     13.7489E-03     33.0449E-03         1.49314     345.126E-03        -1.59710     629.998E-03    -733.957E-03     345.126E-03         2.76850     38.7250E-03    -18.0213E-03    -20.7037E-03    -18.2338E-03     36.2551E-03    -18.0213E-03     23.6364E-03     60.9184E+06    -12.2707E+06    -40.3289E+06    -11.9753E+06     60.6230E+06    -40.3289E+06      -4.484E+06         41.5952
             652     12.7681E-03     33.0156E-03         1.56129     317.338E-03        -1.64239     801.290E-03    -882.386E-03     317.338E-03         2.72098     36.8911E-03    -17.8507E-03    -19.0404E-03    -17.5749E-03     35.5000E-03    -17.9251E-03     16.4102E-03     36.7502E+06    -11.7377E+06    -51.7167E+06    -11.3098E+06     36.3222E+06    -51.7167E+06    -2.07453E+06         33.1131
             653     11.7840E-03     32.9995E-03         1.45788     272.039E-03        -1.50293     929.434E-03    -974.485E-03     272.039E-03         2.24367     36.1765E-03    -17.9374E-03    -18.2391E-03    -17.7144E-03     35.7262E-03    -18.0118E-03     9.71559E-03     390.249E+03    -22.5473E+06    -47.7503E+06    -10.9336E+06    -11.7280E+06    -47.2457E+06     355.269E+03         28.1810
             654     10.8026E-03     32.9867E-03         1.22939     209.395E-03        -1.22673     997.377E-03    -994.725E-03     209.395E-03         1.38622     36.4539E-03    -18.0943E-03    -18.3596E-03    -17.9178E-03     36.0993E-03    -18.1815E-03     8.77003E-03    -10.9685E+06    -26.2364E+06    -51.6270E+06    -11.0713E+06    -49.7458E+06    -28.0148E+06     1.92436E+06         25.6329
             655     9.81891E-03     32.9741E-03         1.10019     130.742E-03        -1.03816     998.682E-03    -936.645E-03     130.742E-03     23.9478E-03     36.6541E-03    -18.2092E-03    -18.4448E-03    -18.0510E-03     36.3473E-03    -18.2963E-03     8.17236E-03    -12.0850E+06    -19.3048E+06    -82.3186E+06    -12.2115E+06    -82.1921E+06    -19.3048E+06     2.67781E+06         24.3928
             656     8.83809E-03     32.9645E-03         1.21956     38.7266E-03        -1.08978     924.273E-03    -794.497E-03     38.7266E-03        -1.44656     36.8740E-03    -18.3433E-03    -18.5307E-03    -18.2637E-03     36.6070E-03    -18.3433E-03     7.66691E-03    -11.6537E+06    -20.7222E+06    -108.003E+06    -11.7916E+06    -107.865E+06    -20.7222E+06     1.21537E+06         23.7788
             657     7.85504E-03     32.9540E-03         1.84073    -63.3058E-03        -1.62922     791.751E-03    -580.243E-03    -63.3058E-03        -3.11968     37.0201E-03    -18.3935E-03    -18.6266E-03    -18.3938E-03     36.7873E-03    -18.3935E-03     7.16401E-03    -7.44647E+06    -16.7577E+06    -125.882E+06    -7.52689E+06    -125.801E+06    -16.7577E+06    -635.353E+03         23.4435
             658     6.87378E-03     32.9460E-03         2.28463    -171.158E-03        -1.98303     599.383E-03    -297.781E-03    -171.158E-03        -4.16313     37.1873E-03    -18.4552E-03    -18.7321E-03    -18.5444E-03     36.9996E-03    -18.4552E-03     6.45468E-03    -3.78151E+06    -9.61690E+06    -145.257E+06    -4.06750E+06    -145.247E+06    -9.34117E+06     41.3853E+03         23.2337
             659     5.89149E-03     32.9380E-03         2.86635    -280.191E-03        -2.47523     375.264E-03     15.8490E-03    -280.191E-03        -5.31715     37.0815E-03    -18.4668E-03    -18.6147E-03    -18.4499E-03     36.9345E-03    -18.4846E-03     5.70079E-03    -4.05988E+06    -8.80704E+06    -161.315E+06    -4.34541E+06    -161.305E+06    -8.53132E+06     260.672E+03         23.0872
             660     4.90970E-03     32.9316E-03         2.83361    -384.803E-03        -2.35092     121.121E-03     361.568E-03    -384.803E-03        -5.16055     36.9838E-03    -18.4538E-03    -18.5300E-03    -18.3459E-03     36.8729E-03    -18.5270E-03     4.93127E-03    -4.76433E+06    -8.86873E+06    -173.405E+06    -4.77711E+06    -173.392E+06    -8.86873E+06     386.170E+03         22.9788
             661     3.92756E-03     32.9254E-03         3.29700    -481.004E-03        -2.73900    -111.704E-03     669.706E-03    -481.004E-03        -5.98279     37.0759E-03    -18.4582E-03    -18.6177E-03    -18.3940E-03     36.9967E-03    -18.6028E-03     4.15954E-03    -1.73881E+06    -6.34621E+06    -181.284E+06    -2.79915E+06    -181.274E+06    -5.29599E+06     836.792E+03         22.8976
             662     2.94510E-03     32.9213E-03         2.83514    -543.371E-03        -2.22213    -356.609E-03     986.962E-03    -560.719E-03        -3.92116     37.3082E-03    -18.5813E-03    -18.7269E-03    -18.5919E-03     37.2623E-03    -18.6704E-03     3.14045E-03     1.91499E+06    -2.90929E+06    -183.899E+06    -1.04369E+06    -183.896E+06     47.2095E+03     261.288E+03         22.8380
             663     1.96377E-03     32.9184E-03         3.80798    -616.102E-03        -3.14270    -477.171E-03         1.15981    -633.451E-03        -5.79196     37.4334E-03    -18.6868E-03    -18.7466E-03    -18.7254E-03     37.4122E-03    -18.6868E-03     2.14701E-03     4.44534E+06    -2.86135E+06    -187.425E+06    -2.87492E+06    -187.411E+06     4.44534E+06     865.896E+03         22.7973
             664     982.031E-06     32.9163E-03         9.77456        -3.37519        -6.35810         2.26392         1.38585        -3.60850         3.78047     37.2534E-03    -18.4090E-03    -18.8444E-03    -18.6414E-03     37.2445E-03    -18.6031E-03     1.31482E-03    -1.93561E+06    -8.23903E+06    -194.998E+06    -8.23829E+06    -194.975E+06    -1.95930E+06     1.02374E+06         22.7733
             665     16.7012E-03     32.5153E-03     512.265E-03     260.304E-03    -540.851E-03     25.3408E-03    -142.238E-03     348.615E-03     944.425E-03     393.005E-03    -18.6060E-03    -374.399E-03    -137.961E-03     156.567E-03    -18.6060E-03     704.835E-03     160.274E+06     119.308E+06    -11.8778E+06    -11.8668E+06     148.330E+06     131.241E+06    -139.447E+03         80.9398
             666     15.7340E-03     32.1547E-03     893.357E-03     377.061E-03    -991.648E-03     208.851E-03    -307.142E-03     377.061E-03         1.80833     120.041E-03    -17.9795E-03    -102.061E-03    -22.2868E-03     40.2663E-03    -17.9795E-03     211.237E-03     113.998E+06     55.2749E+06    -10.4184E+06    -10.1063E+06     113.686E+06     55.2749E+06    -3.11917E+06         68.4340
             667     14.7415E-03     32.0457E-03         1.24889     384.412E-03        -1.36053     418.638E-03    -530.274E-03     384.412E-03         2.42847     49.9853E-03    -17.6471E-03    -32.3383E-03    -16.3397E-03     33.9867E-03    -17.6471E-03     61.4859E-03     70.5293E+06     8.16874E+06    -31.3601E+06    -11.2480E+06     69.5478E+06    -10.9619E+06    -7.74309E+06         54.0129
             668     13.7586E-03     32.0094E-03         1.45899     376.033E-03        -1.58007     610.534E-03    -731.611E-03     376.033E-03         2.72217     36.2790E-03    -17.4802E-03    -18.7988E-03    -15.3727E-03     32.8529E-03    -17.4802E-03     26.3085E-03     55.0999E+06    -13.1537E+06    -51.8341E+06    -12.3118E+06     54.2580E+06    -51.8341E+06    -3.67587E+06         41.6718
             669     12.7716E-03     31.9811E-03         1.52541     352.214E-03        -1.64129     771.684E-03    -887.569E-03     352.214E-03         2.69308     35.6488E-03    -17.4842E-03    -18.1645E-03    -16.0668E-03     33.6255E-03    -17.5586E-03     19.2596E-03     35.3107E+06    -13.5641E+06    -54.3413E+06    -13.1174E+06     34.8640E+06    -54.3413E+06     2.39023E+06         33.1777
             670     11.7888E-03     31.9633E-03         1.42019     312.542E-03        -1.51591     890.747E-03    -986.463E-03     312.542E-03         2.23363     35.2807E-03    -17.5152E-03    -17.7655E-03    -16.8728E-03     34.5862E-03    -17.7134E-03     11.8414E-03    -570.834E+03    -24.5961E+06    -50.4151E+06    -13.6994E+06    -11.9720E+06    -49.9106E+06     2.80712E+06         28.2227
             671     10.8047E-03     31.9506E-03         1.19615     257.208E-03        -1.25690     955.691E-03        -1.01644     257.208E-03         1.41680     35.6766E-03    -17.7067E-03    -17.9699E-03    -17.2467E-03     35.1644E-03    -17.9177E-03     10.2897E-03    -12.2152E+06    -28.1748E+06    -55.6286E+06    -12.4664E+06    -51.2903E+06    -32.2620E+06     2.96519E+06         25.6535
             672     9.82269E-03     31.9385E-03         1.06442     187.403E-03        -1.07836     959.803E-03    -973.741E-03     187.403E-03     83.6142E-03     36.1259E-03    -17.9796E-03    -18.1464E-03    -17.6312E-03     35.6979E-03    -18.0667E-03     9.48940E-03    -10.1628E+06    -21.0834E+06    -80.8273E+06    -10.3644E+06    -80.6257E+06    -21.0834E+06     2.69145E+06         24.3995
             673     8.83885E-03     31.9272E-03         1.14560     105.470E-03        -1.10443     896.499E-03    -855.329E-03     105.470E-03        -1.32890     36.3778E-03    -18.1335E-03    -18.2443E-03    -17.9123E-03     36.0458E-03    -18.1335E-03     8.44092E-03    -6.79326E+06    -21.1473E+06    -103.934E+06    -6.91187E+06    -103.815E+06    -21.1473E+06    -822.471E+03         23.7780
             674     7.85743E-03     31.9183E-03         1.74637     14.5800E-03        -1.64019     776.871E-03    -670.694E-03     14.5800E-03        -2.98162     36.5882E-03    -18.1989E-03    -18.3893E-03    -18.0978E-03     36.2967E-03    -18.1989E-03     7.95839E-03    -5.64146E+06    -20.4016E+06    -127.417E+06    -5.70183E+06    -127.357E+06    -20.4016E+06    -1.70255E+06         23.4387
             675     6.87441E-03     31.9085E-03         2.13626    -81.3175E-03        -1.95635     604.779E-03    -424.873E-03    -81.3175E-03        -3.95526     36.7788E-03    -18.2865E-03    -18.4923E-03    -18.2599E-03     36.5464E-03    -18.2865E-03     7.08065E-03    -5.67518E+06    -13.0230E+06    -147.392E+06    -5.96359E+06    -147.379E+06    -12.7473E+06     184.409E+03         23.2268
             676     5.89297E-03     31.9018E-03         2.72301    -178.101E-03        -2.46788     404.345E-03    -149.220E-03    -178.101E-03        -5.14510     36.8111E-03    -18.3418E-03    -18.4693E-03    -18.2953E-03     36.6370E-03    -18.3418E-03     6.16956E-03    -5.24344E+06    -8.16997E+06    -161.090E+06    -5.55667E+06    -161.052E+06    -7.89424E+06     1.56360E+06         23.0788
             677     4.91042E-03     31.8947E-03         2.61948    -270.926E-03        -2.28565     179.471E-03     154.351E-03    -270.926E-03        -4.89323     36.7410E-03    -18.3373E-03    -18.4037E-03    -18.2279E-03     36.5967E-03    -18.3688E-03     5.59804E-03    -5.35426E+06    -10.2135E+06    -172.646E+06    -5.38527E+06    -172.615E+06    -10.2135E+06     1.21687E+06         22.9693
             678     3.92808E-03     31.8894E-03         3.15490    -356.634E-03        -2.75196    -25.5227E-03     428.467E-03    -356.634E-03        -5.88651     36.7401E-03    -18.3061E-03    -18.4340E-03    -18.2119E-03     36.6421E-03    -18.4301E-03     4.60081E-03    -4.68983E+06    -9.82414E+06    -180.298E+06    -4.78218E+06    -180.294E+06    -9.73635E+06    -472.371E+03         22.8870
             679     2.94582E-03     31.8843E-03         2.83571    -428.199E-03        -2.37702    -243.325E-03     702.020E-03    -428.199E-03        -3.59122     36.9206E-03    -18.3611E-03    -18.5595E-03    -18.3376E-03     36.8642E-03    -18.5267E-03     3.47265E-03    -2.01195E+06    -5.80181E+06    -184.487E+06    -3.78967E+06    -184.482E+06    -4.02921E+06    -674.939E+03         22.8266
             680     1.96376E-03     31.8810E-03         4.08064    -491.872E-03        -3.57386    -358.416E-03     865.200E-03    -491.872E-03        -6.01820     37.1874E-03    -18.5108E-03    -18.6766E-03    -18.5791E-03     37.1629E-03    -18.5839E-03     2.19076E-03     2.28952E+06    -3.48913E+06    -188.738E+06    -3.37299E+06    -188.704E+06     2.14003E+06    -445.091E+03         22.7851
             681     981.873E-06     31.8798E-03         11.0179        -3.58052        -7.44003         2.53204         1.04581        -3.58052         4.88135     37.1130E-03    -18.3918E-03    -18.7212E-03    -18.6657E-03     37.1041E-03    -18.4384E-03     1.39466E-03     1.15528E+06    -4.26689E+06    -192.594E+06    -3.70895E+06    -192.553E+06     556.783E+03    -150.081E+03         22.7606
             682     16.7372E-03     31.4948E-03     532.149E-03     284.379E-03    -512.839E-03    -25.9076E-03    -34.9505E-03     364.547E-03     940.272E-03     389.355E-03    -18.0682E-03    -371.287E-03    -136.181E-03     154.249E-03    -18.0682E-03     696.337E-03     162.564E+06     118.764E+06    -9.87033E+06    -9.25960E+06     149.506E+06     131.211E+06    -4.94701E+06         80.6785
             683     15.7291E-03     31.1224E-03     909.775E-03     388.195E-03    -975.842E-03     165.933E-03    -232.001E-03     388.195E-03         1.83551     126.203E-03    -17.4758E-03    -108.728E-03    -18.9592E-03     36.4350E-03    -17.4758E-03     226.071E-03     114.672E+06     52.6748E+06    -9.01633E+06    -8.25288E+06     113.908E+06     52.6748E+06    -7.00579E+06         68.3691
             684     14.7496E-03     31.0116E-03         1.25897     396.404E-03        -1.35990     367.902E-03    -468.830E-03     396.404E-03         2.47758     50.5838E-03    -17.3167E-03    -33.2671E-03    -14.9474E-03     32.2641E-03    -17.3167E-03     67.1798E-03     66.9433E+06     7.47494E+06    -37.0710E+06    -10.3584E+06     66.0993E+06    -18.3936E+06    -3.75610E+06         54.0352
             685     13.7589E-03     30.9800E-03         1.45594     391.974E-03        -1.58484     546.088E-03    -674.986E-03     391.974E-03         2.77904     36.5211E-03    -17.2515E-03    -19.2697E-03    -13.7531E-03     31.0045E-03    -17.2515E-03     32.9867E-03     48.8631E+06    -15.6732E+06    -60.9292E+06    -14.8633E+06     48.0531E+06    -60.9292E+06     595.140E+03         41.7391
             686     12.7739E-03     30.9450E-03         1.50929     374.441E-03        -1.65252     692.294E-03    -835.518E-03     374.441E-03         2.76271     36.2293E-03    -17.4256E-03    -18.8037E-03    -15.6757E-03     33.1013E-03    -17.4256E-03     24.1615E-03     33.3412E+06    -15.3438E+06    -56.8140E+06    -14.4201E+06     32.4175E+06    -56.8140E+06     4.78360E+06         33.2432
             687     11.7895E-03     30.9295E-03         1.38830     343.450E-03        -1.52931     800.130E-03    -941.131E-03     343.450E-03         2.31777     35.2169E-03    -17.4917E-03    -17.7252E-03    -16.5246E-03     34.1401E-03    -17.6155E-03     14.7869E-03    -23.2551E+03    -22.3691E+06    -49.7268E+06    -12.8787E+06    -10.7016E+06    -48.5389E+06     5.49604E+06         28.2684
             688     10.8060E-03     30.9151E-03         1.14998     299.131E-03        -1.27241     863.202E-03    -985.634E-03     299.131E-03         1.52879     35.6645E-03    -17.7021E-03    -17.9624E-03    -17.0307E-03     34.8566E-03    -17.8259E-03     12.9773E-03    -11.1649E+06    -29.0578E+06    -54.7318E+06    -11.9471E+06    -49.8625E+06    -33.1450E+06     3.03155E+06         25.6772
             689     9.82240E-03     30.9025E-03     989.826E-03     242.305E-03        -1.08145     875.532E-03    -967.156E-03     242.305E-03     218.462E-03     36.1366E-03    -17.9629E-03    -18.1737E-03    -17.5359E-03     35.4988E-03    -17.9629E-03     11.6291E-03    -8.23762E+06    -25.2146E+06    -78.2136E+06    -8.35606E+06    -78.0952E+06    -25.2146E+06    -192.790E+03         24.4083
             690     8.84077E-03     30.8916E-03         1.02709     174.855E-03        -1.07926     829.716E-03    -881.882E-03     174.855E-03        -1.14988     36.3771E-03    -18.0637E-03    -18.3133E-03    -17.8334E-03     35.8972E-03    -18.0637E-03     10.1258E-03    -6.10184E+06    -20.1680E+06    -102.720E+06    -6.13938E+06    -102.683E+06    -20.1680E+06    -602.448E+03         23.7786
             691     7.85716E-03     30.8817E-03         1.61534     99.4392E-03        -1.62049     735.084E-03    -740.235E-03     99.4392E-03        -2.78905     36.5178E-03    -18.1436E-03    -18.3743E-03    -17.9947E-03     36.1382E-03    -18.1436E-03     9.05529E-03    -7.03946E+06    -18.8397E+06    -129.625E+06    -7.07744E+06    -129.587E+06    -18.8397E+06     1.08772E+06         23.4355
             692     6.87550E-03     30.8727E-03         1.96471     19.5181E-03        -1.91803     592.991E-03    -546.306E-03     19.5181E-03        -3.70911     36.5210E-03    -18.1972E-03    -18.3238E-03    -18.0086E-03     36.2208E-03    -18.2122E-03     8.04823E-03    -7.69437E+06    -17.5352E+06    -147.956E+06    -7.71882E+06    -147.931E+06    -17.5352E+06     1.32597E+06         23.2218
             693     5.89237E-03     30.8651E-03         2.55386    -61.1086E-03        -2.45178     424.437E-03    -322.356E-03    -61.1086E-03        -4.92910     36.6885E-03    -18.2829E-03    -18.4057E-03    -18.1656E-03     36.4634E-03    -18.2979E-03     6.98822E-03    -6.60578E+06    -11.1079E+06    -161.713E+06    -6.65089E+06    -161.668E+06    -11.1079E+06     1.02183E+06         23.0728
             694     4.91049E-03     30.8589E-03         2.39510    -138.500E-03        -2.23474     238.915E-03    -78.5591E-03    -138.500E-03        -4.61356     36.8620E-03    -18.3449E-03    -18.5171E-03    -18.3497E-03     36.6946E-03    -18.3449E-03     6.05918E-03    -3.67216E+06    -7.65290E+06    -170.853E+06    -4.44611E+06    -170.810E+06    -6.92181E+06     1.15641E+06         22.9627
             695     3.92832E-03     30.8526E-03         2.97741    -209.719E-03        -2.76385     64.4822E-03     149.080E-03    -209.719E-03        -5.73448     36.8236E-03    -18.3613E-03    -18.4623E-03    -18.3492E-03     36.7139E-03    -18.3647E-03     4.87017E-03    -3.15038E+06    -7.10656E+06    -179.110E+06    -3.98163E+06    -179.097E+06    -6.28768E+06    -93.4363E+03         22.8799
             696     2.94633E-03     30.8483E-03         2.85028    -269.794E-03        -2.59256    -110.663E-03     368.387E-03    -269.794E-03        -3.30056     36.7224E-03    -18.3019E-03    -18.4205E-03    -18.2530E-03     36.6569E-03    -18.4039E-03     3.77524E-03    -4.18219E+06    -6.18437E+06    -184.461E+06    -4.28210E+06    -184.448E+06    -6.09658E+06    -1.28315E+06         22.8188
             697     1.96378E-03     30.8443E-03         4.27719    -322.686E-03        -3.98325    -214.840E-03     508.778E-03    -322.686E-03        -6.11032     36.8521E-03    -18.3113E-03    -18.5407E-03    -18.3336E-03     36.8187E-03    -18.4850E-03     2.55904E-03    -2.15361E+06    -4.83168E+06    -189.474E+06    -3.69043E+06    -189.441E+06    -3.32837E+06    -2.18557E+06         22.7766
             698     982.302E-06     30.8425E-03         11.8425        -3.51936        -8.37312         2.82071     648.693E-03        -3.51936         5.66890     37.0591E-03    -18.4292E-03    -18.6299E-03    -18.4750E-03     37.0492E-03    -18.5742E-03     1.28377E-03    -1.16931E+06    -3.97528E+06    -194.474E+06    -3.44380E+06    -194.407E+06    -1.76781E+06    -2.37737E+06         22.7517
             699     16.7230E-03     30.4940E-03     563.571E-03     328.327E-03    -528.877E-03    -81.8404E-03     82.8529E-03     362.010E-03     996.159E-03     381.655E-03    -18.0670E-03    -363.588E-03    -126.386E-03     144.453E-03    -18.0670E-03     688.811E-03     164.915E+06     115.243E+06    -3.58595E+06    -2.75084E+06     152.303E+06     127.019E+06    -4.20455E+06         80.4693
             700     15.7347E-03     30.0776E-03     961.130E-03     377.252E-03    -992.928E-03     104.288E-03    -136.086E-03     377.252E-03         1.92917     132.833E-03    -17.5157E-03    -115.317E-03    -21.0415E-03     38.5573E-03    -17.5157E-03     239.006E-03     109.972E+06     41.7041E+06    -10.6602E+06    -9.76337E+06     109.075E+06     41.7041E+06     -3.7117E+06         68.3096
             701     14.7451E-03     29.9872E-03         1.29941     385.795E-03        -1.38473     282.499E-03    -367.821E-03     385.795E-03         2.59847     50.9262E-03    -17.4607E-03    -33.4655E-03    -13.8257E-03     31.2864E-03    -17.4607E-03     70.2180E-03     61.9625E+06     -491.11E+03     -38.528E+06    -19.2699E+06     61.6097E+06    -19.3964E+06     1.11994E+06         54.0681
             702     13.7570E-03     29.9456E-03         1.47596     386.321E-03        -1.60582     436.647E-03    -566.512E-03     386.321E-03         2.90657     39.5072E-03    -17.4279E-03    -22.0793E-03    -14.2165E-03     31.6444E-03    -17.4279E-03     40.7537E-03     45.9578E+06    -21.1784E+06    -60.7465E+06    -20.7988E+06     45.5783E+06    -60.7465E+06     4.41936E+06         41.8162
             703     12.7721E-03     29.9117E-03         1.50970     376.846E-03        -1.66957     563.552E-03    -723.425E-03     376.846E-03         2.89955     37.7912E-03    -17.5563E-03    -20.2349E-03    -16.1941E-03     33.7504E-03    -17.5563E-03     28.4769E-03     30.8642E+06    -19.5782E+06    -61.0577E+06    -18.7983E+06     30.0844E+06    -61.0577E+06     4.31904E+06         33.3214
             704     11.7880E-03     29.8940E-03         1.36310     356.887E-03        -1.53875     659.888E-03    -835.538E-03     356.887E-03         2.46485     36.2245E-03    -17.7503E-03    -18.4742E-03    -16.9198E-03     34.6701E-03    -17.7503E-03     17.9979E-03     2.67080E+06    -22.9860E+06    -46.0760E+06    -12.7065E+06    -8.79667E+06    -44.8880E+06     4.41672E+06         28.3236
             705     10.8048E-03     29.8801E-03         1.09643     326.365E-03        -1.27276     722.236E-03    -898.567E-03     326.365E-03         1.69629     36.4263E-03    -17.9518E-03    -18.4745E-03    -17.4086E-03     35.3604E-03    -17.9518E-03     15.1064E-03    -6.07982E+06    -23.4824E+06    -47.0602E+06    -6.69735E+06    -45.3574E+06    -24.5676E+06     1.69257E+06         25.7073
             706     9.82219E-03     29.8664E-03     884.693E-03     285.621E-03        -1.04726     746.395E-03    -908.959E-03     285.621E-03     403.511E-03     36.5478E-03    -18.0659E-03    -18.4819E-03    -17.6584E-03     35.7243E-03    -18.0659E-03     13.3165E-03    -5.12096E+06    -20.0702E+06    -77.0778E+06    -5.15220E+06    -77.0466E+06    -20.0702E+06    -498.006E+03         24.4209
             707     8.83862E-03     29.8555E-03     872.718E-03     235.855E-03        -1.01565     725.087E-03    -868.024E-03     235.855E-03    -934.809E-03     36.7957E-03    -18.1633E-03    -18.6324E-03    -18.0260E-03     36.1893E-03    -18.1633E-03     11.4721E-03    -5.64194E+06    -16.3835E+06    -106.128E+06    -5.68578E+06    -106.084E+06    -16.3835E+06     1.23029E+06         23.7821
             708     7.85760E-03     29.8453E-03         1.45398     179.074E-03        -1.56939     662.052E-03    -777.458E-03     179.074E-03        -2.55920     36.7972E-03    -18.2435E-03    -18.5536E-03    -18.0954E-03     36.3389E-03    -18.2435E-03     10.0049E-03    -5.49301E+06    -12.3588E+06    -130.346E+06    -5.56144E+06    -130.278E+06    -12.3588E+06     2.91072E+06         23.4349
             709     6.87434E-03     29.8369E-03         1.78511     118.005E-03        -1.87013     560.005E-03    -645.026E-03     118.005E-03        -3.45002     36.7689E-03    -18.2703E-03    -18.4986E-03    -18.1214E-03     36.4067E-03    -18.2853E-03     8.87109E-03    -4.16037E+06    -13.9850E+06    -146.119E+06    -4.20677E+06    -146.073E+06    -13.9850E+06     1.81231E+06         23.2195
             710     5.89239E-03     29.8288E-03         2.37009     56.0455E-03        -2.42538     429.846E-03    -485.135E-03     56.0455E-03        -4.68257     36.9310E-03    -18.3388E-03    -18.5922E-03    -18.3173E-03     36.6711E-03    -18.3538E-03     7.54119E-03    -2.93479E+06    -9.58237E+06    -161.834E+06    -2.95990E+06    -161.809E+06    -9.58237E+06     397.318E+03         23.0701
             711     4.91024E-03     29.8219E-03         2.18601    -3.69883E-03        -2.20292     290.198E-03    -307.110E-03    -3.69883E-03        -4.34275     37.0569E-03    -18.4006E-03    -18.6563E-03    -18.4699E-03     36.8705E-03    -18.4006E-03     6.40529E-03    -2.22805E+06    -3.98394E+06    -170.653E+06    -2.98030E+06    -170.632E+06    -3.25285E+06     661.802E+03         22.9598
             712     3.92858E-03     29.8163E-03         2.78899    -58.4263E-03        -2.77527     150.462E-03    -136.739E-03    -58.4263E-03        -5.54008     37.0196E-03    -18.3892E-03    -18.6304E-03    -18.5053E-03     36.8945E-03    -18.3892E-03     5.21628E-03    -2.01754E+06    -3.95380E+06    -177.187E+06    -2.75778E+06    -177.178E+06    -3.22272E+06     583.924E+03         22.8769
             713     2.94630E-03     29.8118E-03         2.81614    -105.009E-03        -2.76887     21.9948E-03     25.2673E-03    -105.009E-03        -3.05578     36.8627E-03    -18.3445E-03    -18.5182E-03    -18.4194E-03     36.7894E-03    -18.3700E-03     3.98230E-03    -2.09305E+06    -4.67307E+06    -183.942E+06    -2.10258E+06    -183.933E+06    -4.67307E+06    -693.403E+03         22.8156
             714     1.96435E-03     29.8082E-03         4.34929    -144.903E-03        -4.27668    -67.6481E-03     140.254E-03    -144.903E-03        -6.09635     36.7166E-03    -18.2587E-03    -18.4579E-03    -18.2685E-03     36.6805E-03    -18.4120E-03     2.72001E-03    -2.10765E+06    -5.00563E+06    -189.474E+06    -3.38429E+06    -189.459E+06    -3.74408E+06    -1.06923E+06         22.7730
             715     981.319E-06     29.8057E-03         12.2227        -3.41362        -8.89916         3.08589     237.663E-03        -3.41362         6.08162     36.8908E-03    -18.3273E-03    -18.5634E-03    -18.4015E-03     36.8798E-03    -18.4784E-03     1.34993E-03    -6.87378E+06    -8.96051E+06    -198.824E+06    -8.88314E+06    -198.780E+06    -6.99479E+06    -1.55108E+06         22.7478
             716     16.7053E-03     29.4407E-03     626.406E-03     336.402E-03    -568.915E-03    -131.600E-03     189.092E-03     336.402E-03         1.09192     375.823E-03    -18.5478E-03    -357.276E-03    -118.142E-03     136.690E-03    -18.5478E-03     685.209E-03     164.014E+06     117.934E+06    -5.24993E+06    -4.98839E+06     152.217E+06     129.469E+06     1.68820E+06         80.3117
             717     15.7270E-03     29.0471E-03         1.03094     341.187E-03        -1.03414     26.3083E-03    -29.5070E-03     341.187E-03         2.05409     132.463E-03    -18.1137E-03    -114.350E-03    -23.8032E-03     41.9169E-03    -18.1137E-03     237.240E-03     106.430E+06     43.3893E+06    -16.0093E+06    -15.5541E+06     105.975E+06     43.3893E+06     5.75970E+06         68.2600
             718     14.7367E-03     28.9575E-03         1.35941     349.817E-03        -1.42820     167.875E-03    -236.664E-03     349.817E-03         2.75173     54.7423E-03    -17.9770E-03    -36.7652E-03    -14.3860E-03     32.3630E-03    -17.9770E-03     76.9426E-03     62.5799E+06     -243.26E+03    -36.9814E+06    -21.4562E+06     61.8778E+06    -15.0663E+06     6.58348E+06         54.1240
             719     13.7505E-03     28.9108E-03         1.51411     355.754E-03        -1.63693     289.092E-03    -411.910E-03     355.754E-03         3.06399     43.2229E-03    -17.8858E-03    -25.3371E-03    -16.5219E-03     34.4078E-03    -17.8858E-03     45.5512E-03     46.4363E+06    -25.1089E+06    -56.4433E+06    -24.5393E+06     45.8668E+06    -56.4433E+06     5.18062E+06         41.9078
             720     12.7669E-03     28.8766E-03         1.52663     355.365E-03        -1.69125     393.218E-03    -557.839E-03     355.365E-03         3.06502     39.6852E-03    -17.8860E-03    -21.7992E-03    -17.4107E-03     35.2967E-03    -17.8860E-03     30.6715E-03     31.6010E+06    -20.1392E+06    -61.3854E+06    -19.9481E+06     31.4098E+06    -61.3854E+06     2.07365E+06         33.4142
             721     11.7841E-03     28.8581E-03         1.34889     347.870E-03        -1.54479     477.198E-03    -673.094E-03     347.870E-03         2.63565     37.6410E-03    -17.9797E-03    -19.6613E-03    -17.9244E-03     35.9040E-03    -17.9797E-03     19.4593E-03     1.31327E+06    -22.0907E+06    -51.9862E+06    -13.4771E+06    -7.30028E+06    -51.9862E+06    -499.563E+03         28.3878
             722     10.8024E-03     28.8430E-03         1.04597     332.793E-03        -1.26092     541.041E-03    -755.986E-03     332.793E-03         1.87977     37.3347E-03    -18.1544E-03    -19.1803E-03    -18.0158E-03     36.1702E-03    -18.1544E-03     16.0366E-03    -8.18395E+06    -23.0634E+06    -50.2718E+06    -8.48354E+06    -44.8115E+06    -28.2242E+06    -269.996E+03         25.7424
             723     9.81951E-03     28.8312E-03     761.375E-03     309.872E-03    -984.235E-03     579.527E-03    -802.387E-03     309.872E-03     603.730E-03     37.3807E-03    -18.2540E-03    -19.1267E-03    -18.2069E-03     36.4609E-03    -18.2540E-03     14.2533E-03    -6.52901E+06    -19.9133E+06    -77.9409E+06    -6.58324E+06    -77.8867E+06    -19.9133E+06     1.67397E+06         24.4367
             724     8.83834E-03     28.8179E-03     693.152E-03     279.597E-03    -916.238E-03     585.982E-03    -809.067E-03     279.597E-03    -714.121E-03     37.2739E-03    -18.3216E-03    -18.9523E-03    -18.3148E-03     36.6364E-03    -18.3216E-03     11.8337E-03    -5.79158E+06    -16.9165E+06    -107.794E+06    -5.86050E+06    -107.725E+06    -16.9165E+06     2.34715E+06         23.7877
             725     7.85505E-03     28.8096E-03         1.27509     243.175E-03        -1.49180     559.876E-03    -776.579E-03     243.175E-03        -2.32120     37.2089E-03    -18.3955E-03    -18.8134E-03    -18.3498E-03     36.7453E-03    -18.3955E-03     10.1264E-03    -4.69944E+06    -10.6731E+06    -130.155E+06    -4.74815E+06    -130.106E+06    -10.6731E+06     2.29662E+06         23.4361
             726     6.87367E-03     28.7997E-03         1.60619     202.471E-03        -1.81329     502.672E-03    -709.772E-03     202.471E-03        -3.19665     37.2488E-03    -18.4164E-03    -18.8324E-03    -18.4607E-03     36.8771E-03    -18.4164E-03     9.05699E-03    -3.94659E+06    -11.7154E+06    -144.481E+06    -4.00009E+06    -144.428E+06    -11.7154E+06     1.82871E+06         23.2191
             727     5.89179E-03     28.7924E-03         2.18802     160.216E-03        -2.38652     417.581E-03    -616.080E-03     160.216E-03        -4.42939     37.2376E-03    -18.4426E-03    -18.7951E-03    -18.5175E-03     36.9600E-03    -18.4426E-03     7.84958E-03    -3.38897E+06    -11.3377E+06    -161.548E+06    -3.42727E+06    -161.510E+06    -11.3377E+06     1.36519E+06         23.0692
             728     4.90981E-03     28.7851E-03         2.00414     118.769E-03        -2.18777     325.551E-03    -509.186E-03     118.769E-03        -4.09188     37.2042E-03    -18.4800E-03    -18.7242E-03    -18.5203E-03     37.0004E-03    -18.4800E-03     6.71266E-03    -2.52925E+06    -6.03073E+06    -170.799E+06    -2.53829E+06    -170.790E+06    -6.03073E+06     554.788E+03         22.9589
             729     3.92758E-03     28.7795E-03         2.61220     80.4792E-03        -2.78042     226.686E-03    -394.905E-03     80.4792E-03        -5.32046     37.2418E-03    -18.4853E-03    -18.7565E-03    -18.6218E-03     37.1071E-03    -18.4853E-03     5.44292E-03    -1.19721E+06    -3.03099E+06    -176.659E+06    -1.19881E+06    -176.657E+06    -3.03099E+06     186.237E+03         22.8762
             730     2.94622E-03     28.7750E-03         2.73326     47.8720E-03        -2.88849     137.422E-03    -292.650E-03     47.8720E-03        -2.85456     37.1987E-03    -18.4484E-03    -18.7503E-03    -18.6741E-03     37.1226E-03    -18.4484E-03     4.06161E-03    -479.681E+03    -2.80222E+06    -183.494E+06    -1.45823E+06    -183.479E+06    -1.83832E+06     846.250E+03         22.8150
             731     1.96420E-03     28.7718E-03         4.29965     21.9006E-03        -4.43016     68.0462E-03    -198.560E-03     21.9006E-03        -5.96966     36.9287E-03    -18.3420E-03    -18.5867E-03    -18.4989E-03     36.8936E-03    -18.3947E-03     2.71375E-03     143.508E+03    -4.35559E+06    -189.279E+06    -3.76929E+06    -189.254E+06    -467.637E+03     1.49563E+06         22.7726
             732     982.696E-06     28.7695E-03         12.1920        -3.24114        -9.07765         3.26291    -148.522E-03        -3.24114         6.18321     36.6945E-03    -18.2304E-03    -18.4640E-03    -18.3685E-03     36.6801E-03    -18.3116E-03     1.73063E-03    -5.27412E+06    -8.41838E+06    -198.289E+06    -8.23693E+06    -198.250E+06    -5.49433E+06     2.14957E+06         22.7473
             733     16.6927E-03     28.3707E-03     703.619E-03     287.250E-03    -610.510E-03    -166.776E-03     259.885E-03     287.250E-03         1.18524     376.874E-03    -19.1476E-03    -357.726E-03    -114.779E-03     133.926E-03    -19.1476E-03     689.286E-03     161.440E+06     120.455E+06    -10.1727E+06    -10.1133E+06     149.871E+06     131.965E+06     238.726E+03         80.2439
             734     15.7126E-03     28.0235E-03         1.10363     280.894E-03        -1.08699    -55.3022E-03     71.9369E-03     280.894E-03         2.17928     129.103E-03    -18.9489E-03    -110.154E-03    -23.7572E-03     42.7062E-03    -18.9489E-03     228.314E-03     104.133E+06     51.0218E+06    -22.4761E+06    -21.9552E+06     103.612E+06     51.0218E+06     4.14921E+06         68.2373
             735     14.7229E-03     27.9180E-03         1.42571     289.395E-03        -1.47815     34.4531E-03    -86.8958E-03     289.395E-03         2.89556     58.5693E-03    -18.6727E-03    -39.8966E-03    -18.3270E-03     36.9997E-03    -18.6727E-03     79.0184E-03     64.1821E+06     4.30985E+06    -34.3133E+06    -23.1602E+06     63.2520E+06    -5.91321E+06     8.75548E+06         54.1793
             736     13.7442E-03     27.8746E-03         1.56553     300.634E-03        -1.67400     115.677E-03    -224.145E-03     300.634E-03         3.21403     45.1794E-03    -18.3786E-03    -26.8009E-03    -19.1533E-03     37.5319E-03    -18.3786E-03     44.0304E-03     51.1613E+06    -22.3612E+06    -48.5398E+06    -21.9161E+06     50.7161E+06    -48.5398E+06     3.98969E+06         42.0154
             737     12.7618E-03     27.8391E-03         1.55597     309.652E-03        -1.71255     192.731E-03    -349.303E-03     309.652E-03         3.21352     41.2605E-03    -18.2209E-03    -23.0395E-03    -19.1796E-03     37.4005E-03    -18.2209E-03     29.2398E-03     34.3848E+06    -17.0342E+06    -58.3873E+06    -16.9318E+06     34.2824E+06    -58.3873E+06    -785.732E+03         33.5162
             738     11.7816E-03     27.8197E-03         1.34830     315.087E-03        -1.54786     265.432E-03    -464.992E-03     315.087E-03         2.78643     38.3762E-03    -18.2234E-03    -20.1528E-03    -18.7748E-03     36.9982E-03    -18.2234E-03     17.5433E-03     1.80620E+06    -21.8555E+06    -52.3422E+06    -12.5067E+06    -7.54254E+06    -52.3422E+06    -2.04447E+06         28.4566
             739     10.7987E-03     27.8076E-03         1.00599     315.863E-03        -1.24243     332.287E-03    -568.722E-03     315.863E-03         2.03632     37.9600E-03    -18.3560E-03    -19.6040E-03    -18.6193E-03     36.9753E-03    -18.3560E-03     14.8436E-03    -10.6326E+06    -24.8542E+06    -53.3709E+06    -10.9351E+06    -47.9792E+06    -29.9434E+06    -283.828E+03         25.7790
             740     9.81801E-03     27.7920E-03     632.690E-03     311.096E-03    -898.763E-03     386.123E-03    -652.195E-03     311.096E-03     776.588E-03     37.8971E-03    -18.4190E-03    -19.4782E-03    -18.7087E-03     37.1276E-03    -18.4190E-03     13.0725E-03    -10.1637E+06    -21.5171E+06    -79.6700E+06    -10.2377E+06    -79.5959E+06    -21.5171E+06     2.17444E+06         24.4528
             741     8.83579E-03     27.7825E-03     503.522E-03     300.593E-03    -791.628E-03     421.509E-03    -709.615E-03     300.593E-03    -524.044E-03     37.6144E-03    -18.4501E-03    -19.1644E-03    -18.6196E-03     37.0697E-03    -18.4501E-03     10.9912E-03    -8.54511E+06    -19.2144E+06    -107.332E+06    -8.61733E+06    -107.259E+06    -19.2144E+06     2.44961E+06         23.7931
             742     7.85488E-03     27.7714E-03         1.09549     284.719E-03        -1.39764     433.809E-03    -735.961E-03     284.719E-03        -2.10849     37.5338E-03    -18.4930E-03    -19.0409E-03    -18.6332E-03     37.1262E-03    -18.4930E-03     9.54059E-03    -7.27602E+06    -14.5090E+06    -128.956E+06    -7.29896E+06    -128.934E+06    -14.5090E+06     1.52402E+06         23.4369
             743     6.87289E-03     27.7635E-03         1.44208     264.439E-03        -1.75476     422.376E-03    -735.055E-03     264.439E-03        -2.97802     37.4603E-03    -18.5198E-03    -18.9405E-03    -18.6121E-03     37.1318E-03    -18.5198E-03     8.56585E-03    -5.79283E+06    -11.7351E+06    -144.960E+06    -5.83027E+06    -144.923E+06    -11.7351E+06     1.98635E+06         23.2181
             744     5.89083E-03     27.7549E-03         2.02023     241.571E-03        -2.34151     385.825E-03    -707.100E-03     241.571E-03        -4.19679     37.4247E-03    -18.5358E-03    -18.8889E-03    -18.6331E-03     37.1689E-03    -18.5358E-03     7.53700E-03    -4.46793E+06    -11.2448E+06    -160.401E+06    -4.50466E+06    -160.365E+06    -11.2448E+06     1.88950E+06         23.0677
             745     4.90920E-03     27.7486E-03         1.85937     217.526E-03        -2.18501     342.731E-03    -668.372E-03     217.526E-03        -3.88404     37.4048E-03    -18.5448E-03    -18.8600E-03    -18.6782E-03     37.2230E-03    -18.5448E-03     6.34817E-03    -2.50585E+06    -9.04700E+06    -169.336E+06    -2.52148E+06    -169.321E+06    -9.04700E+06    -455.380E+03         22.9573
             746     3.92752E-03     27.7423E-03         2.45090     194.393E-03        -2.77780     283.331E-03    -610.233E-03     194.393E-03        -5.09486     37.3527E-03    -18.5632E-03    -18.7895E-03    -18.6689E-03     37.2331E-03    -18.5642E-03     5.13106E-03    -660.720E+03    -3.82366E+06    -178.424E+06    -823.312E+03    -178.399E+06    -3.68640E+06    -38.6054E+03         22.8746
             747     2.94555E-03     27.7379E-03         2.59853     173.358E-03        -2.92517     235.585E-03    -562.228E-03     173.358E-03        -2.71349     37.3240E-03    -18.5586E-03    -18.7654E-03    -18.6969E-03     37.2565E-03    -18.5596E-03     3.82706E-03     1.63913E+06    -833.587E+03    -183.353E+06    -315.159E+03    -183.328E+06     1.09560E+06     1.57219E+06         22.8136
             748     1.96414E-03     27.7350E-03         4.11654     158.326E-03        -4.43023     178.384E-03    -492.071E-03     158.326E-03        -5.75134     37.2260E-03    -18.4978E-03    -18.7282E-03    -18.6959E-03     37.1936E-03    -18.4978E-03     2.63136E-03     4.27610E+06    -2.25046E+06    -188.663E+06    -2.28482E+06    -188.628E+06     4.27610E+06     2.21240E+06         22.7715
             749     981.929E-06     27.7331E-03         11.8326        -3.09326        -8.90900         3.40103    -477.408E-03        -3.09326         6.01648     36.8226E-03    -18.3127E-03    -18.5099E-03    -18.4676E-03     36.8088E-03    -18.3412E-03     1.66574E-03     596.848E+03    -4.74015E+06    -194.533E+06    -4.69824E+06    -194.475E+06     497.649E+03     1.95489E+06         22.7465
             750     16.6854E-03     27.3330E-03     748.226E-03     218.364E-03    -642.458E-03    -186.823E-03     292.591E-03     218.364E-03         1.25602     379.958E-03    -19.5814E-03    -360.377E-03    -113.411E-03     132.992E-03    -19.5814E-03     696.312E-03     155.980E+06     113.723E+06    -13.3521E+06    -13.2035E+06     144.875E+06     124.680E+06     332.866E+03         80.2296
             751     15.6941E-03     26.9801E-03         1.16355     200.978E-03        -1.13817    -133.255E-03     158.636E-03     200.978E-03         2.27892     125.807E-03    -19.5209E-03    -106.287E-03    -24.9340E-03     44.4548E-03    -19.5209E-03     218.568E-03     100.830E+06     50.3015E+06    -25.1839E+06    -24.8496E+06     100.496E+06     50.3015E+06     3.06535E+06         68.2295
             752     14.7222E-03     26.8784E-03         1.48480     209.052E-03        -1.52209    -106.183E-03     68.8968E-03     209.052E-03         2.99722     58.5774E-03    -19.1187E-03    -39.4587E-03    -21.8774E-03     40.9962E-03    -19.1187E-03     73.0250E-03     66.2168E+06     9.18446E+06    -31.9119E+06    -24.2931E+06     65.9181E+06     1.86436E+06     3.92571E+06         54.2441
             753     13.7386E-03     26.8352E-03         1.61493     225.287E-03        -1.70436    -70.3537E-03    -19.0829E-03     225.287E-03         3.31219     45.5503E-03    -18.6305E-03    -26.9198E-03    -21.0782E-03     39.7088E-03    -18.6305E-03     39.0591E-03     56.1124E+06    -18.7111E+06    -42.2075E+06    -18.5947E+06     55.9961E+06    -42.2075E+06     1.40732E+06         42.1315
             754     12.7615E-03     26.7975E-03         1.58683     243.375E-03        -1.72508    -20.2436E-03    -118.009E-03     243.375E-03         3.30180     41.2591E-03    -18.3779E-03    -22.8812E-03    -20.1509E-03     38.5288E-03    -18.3779E-03     24.5849E-03     36.2549E+06    -14.8700E+06    -52.7928E+06    -14.6272E+06     36.0120E+06    -52.7928E+06    -2.09891E+06         33.6182
             755     11.7796E-03     26.7841E-03         1.35464     261.188E-03        -1.54431     42.2055E-03    -231.881E-03     261.188E-03         2.87331     38.5356E-03    -18.3352E-03    -20.2004E-03    -19.2827E-03     37.6179E-03    -18.3352E-03     14.4491E-03     2.39323E+06    -23.3554E+06    -46.5587E+06    -11.4955E+06    -9.46671E+06    -46.5587E+06    -1.54848E+06         28.5222
             756     10.7995E-03     26.7674E-03     975.942E-03     276.992E-03        -1.21788     112.209E-03    -354.149E-03     276.992E-03         2.12499     38.2086E-03    -18.4202E-03    -19.7884E-03    -19.1013E-03     37.5215E-03    -18.4202E-03     12.4711E-03    -9.69453E+06    -24.3995E+06    -52.2541E+06    -9.72891E+06    -50.7630E+06    -25.8562E+06     955.394E+03         25.8127
             757     9.81764E-03     26.7563E-03     548.859E-03     249.076E-03    -797.985E-03     182.890E-03    -472.209E-03     289.269E-03     887.740E-03     37.8007E-03    -18.4523E-03    -19.3484E-03    -18.8318E-03     37.2841E-03    -18.4523E-03     10.7404E-03    -8.58278E+06    -17.5257E+06    -80.4929E+06    -8.62575E+06    -80.4499E+06    -17.5257E+06     1.73758E+06         24.4663
             758     8.83623E-03     26.7436E-03     362.675E-03     256.993E-03    -655.409E-03     245.299E-03    -578.227E-03     297.187E-03    -396.132E-03     37.5159E-03    -18.4653E-03    -19.0506E-03    -18.6698E-03     37.1351E-03    -18.4653E-03     9.19414E-03    -6.84103E+06    -16.6205E+06    -107.009E+06    -6.87810E+06    -106.972E+06    -16.6205E+06     1.49446E+06         23.7961
             759     7.85425E-03     26.7351E-03     930.467E-03     300.476E-03        -1.29665     292.729E-03    -658.914E-03     300.476E-03        -1.94422     37.4419E-03    -18.5056E-03    -18.9363E-03    -18.6264E-03     37.1320E-03    -18.5056E-03     8.28456E-03    -4.61512E+06    -11.7246E+06    -128.539E+06    -4.64139E+06    -128.513E+06    -11.7246E+06     1.34666E+06         23.4351
             760     6.87251E-03     26.7256E-03         1.30635     299.129E-03        -1.70006     325.927E-03    -719.632E-03     299.129E-03        -2.81510     37.4328E-03    -18.5376E-03    -18.8951E-03    -18.6386E-03     37.1762E-03    -18.5376E-03     7.53117E-03    -4.02393E+06    -8.40862E+06    -145.827E+06    -4.05180E+06    -145.800E+06    -8.40862E+06     1.91086E+06         23.2143
             761     5.89108E-03     26.7184E-03         1.87136     294.119E-03        -2.29179     333.730E-03    -754.160E-03     294.119E-03        -3.99768     37.3992E-03    -18.5429E-03    -18.8563E-03    -18.6541E-03     37.1969E-03    -18.5429E-03     6.70727E-03    -3.52407E+06    -8.52034E+06    -158.115E+06    -3.54162E+06    -158.098E+06    -8.52034E+06     1.29533E+06         23.0630
             762     4.90921E-03     26.7108E-03         1.75159     285.688E-03        -2.18840     339.828E-03    -776.639E-03     285.688E-03        -3.73455     37.3752E-03    -18.5354E-03    -18.8398E-03    -18.6899E-03     37.2253E-03    -18.5354E-03     5.76964E-03    -2.83946E+06    -9.30704E+06    -168.427E+06    -2.86339E+06    -168.403E+06    -9.30704E+06     112.526E+03         22.9521
             763     3.92762E-03     26.7057E-03         2.30479     275.557E-03        -2.76028     315.772E-03    -771.262E-03     275.557E-03        -4.87891     37.2998E-03    -18.5498E-03    -18.7500E-03    -18.6503E-03     37.2012E-03    -18.5509E-03     4.65810E-03    -2.64204E+06    -5.79949E+06    -179.145E+06    -3.19008E+06    -179.110E+06    -5.28638E+06     364.369E+03         22.8692
             764     2.94566E-03     26.7009E-03         2.39430     263.627E-03        -2.86173     306.778E-03    -774.200E-03     263.627E-03        -2.64896     37.1803E-03    -18.5332E-03    -18.6471E-03    -18.5576E-03     37.1243E-03    -18.5667E-03     3.47688E-03    -905.301E+03    -2.93482E+06    -183.220E+06    -2.94898E+06    -183.206E+06    -905.301E+03     446.341E+03         22.8082
             765     1.96355E-03     26.6979E-03         3.79706     256.663E-03        -4.26746     256.671E-03    -727.077E-03     256.663E-03        -5.47843     37.1846E-03    -18.5227E-03    -18.6619E-03    -18.5822E-03     37.1597E-03    -18.5776E-03     2.27023E-03     2.74515E+06    -2.97559E+06    -188.475E+06    -2.98743E+06    -188.463E+06     2.74515E+06     586.204E+03         22.7663
             766     982.327E-06     26.6963E-03         11.1441        -2.96208        -8.41218         3.47575    -743.795E-03        -2.96208         5.56515     37.0897E-03    -18.4655E-03    -18.6243E-03    -18.5582E-03     37.0811E-03    -18.5229E-03     1.34247E-03     1.32013E+06    -4.36594E+06    -192.949E+06    -3.41378E+06    -192.923E+06     341.557E+03    -537.700E+03         22.7416
             767     16.6752E-03     26.2952E-03     751.995E-03     136.157E-03    -656.393E-03    -192.343E-03     287.944E-03     136.157E-03         1.28927     386.105E-03    -19.6910E-03    -366.413E-03    -117.892E-03     137.583E-03    -19.6910E-03     706.269E-03     159.651E+06     121.499E+06    -11.1974E+06    -10.7789E+06     147.827E+06     132.904E+06     6.28821E+06         80.1729
             768     15.7033E-03     25.9361E-03         1.19105     109.335E-03        -1.17032    -206.915E-03     227.644E-03     109.335E-03         2.31920     122.754E-03    -19.6010E-03    -103.153E-03    -25.9147E-03     45.5157E-03    -19.6010E-03     211.187E-03     106.035E+06     58.4698E+06    -19.2347E+06    -18.9415E+06     105.742E+06     58.4698E+06     4.63177E+06         68.2053
             769     14.7163E-03     25.8382E-03         1.51519     117.176E-03        -1.54111    -242.290E-03     216.369E-03     117.176E-03         3.01835     57.1487E-03    -19.0805E-03    -38.0682E-03    -23.0198E-03     42.1003E-03    -19.0805E-03     66.2803E-03     67.4864E+06     7.89792E+06    -27.7090E+06    -22.3297E+06     67.4284E+06     2.57660E+06    -623.805E+03         54.3107
             770     13.7437E-03     25.7898E-03         1.64185     137.869E-03        -1.71049    -250.081E-03     181.448E-03     137.869E-03         3.31926     44.2362E-03    -18.5399E-03    -25.6963E-03    -21.6246E-03     40.1645E-03    -18.5399E-03     32.3013E-03     58.2924E+06    -19.0311E+06    -37.6738E+06    -18.8822E+06     58.1434E+06    -37.6738E+06    -2.32199E+06         42.2367
             771     12.7619E-03     25.7616E-03         1.60032     163.965E-03        -1.71698    -224.929E-03     108.269E-03     163.965E-03         3.29325     39.8346E-03    -18.2645E-03    -21.5701E-03    -19.7749E-03     38.0393E-03    -18.2645E-03     19.4959E-03     36.0568E+06    -15.0511E+06    -49.0250E+06    -14.8176E+06     35.8232E+06    -49.0250E+06    -2.83381E+06         33.7088
             772     11.7818E-03     25.7428E-03         1.35075     192.568E-03        -1.52376    -172.253E-03    -753.698E-06     192.568E-03         2.86034     37.9965E-03    -18.2042E-03    -19.7923E-03    -19.2005E-03     37.4047E-03    -18.2042E-03     11.5160E-03      5.7595E+03    -24.5985E+06    -47.6735E+06    -12.4369E+06    -12.1559E+06    -47.6735E+06    -1.16287E+06         28.5780
             773     10.8006E-03     25.7314E-03     948.361E-03     221.277E-03        -1.18280    -96.9538E-03    -137.484E-03     221.277E-03         2.11716     37.7685E-03    -18.2720E-03    -19.4964E-03    -19.0146E-03     37.2866E-03    -18.2720E-03     10.4184E-03    -9.40349E+06    -26.1216E+06    -55.1698E+06    -9.44529E+06    -52.7056E+06    -28.5440E+06     579.739E+03         25.8396
             774     9.81940E-03     25.7170E-03     508.173E-03     134.520E-03    -690.601E-03    -10.9833E-03    -284.916E-03     247.992E-03     909.329E-03     37.4161E-03    -18.3016E-03    -19.1145E-03    -18.7356E-03     37.0371E-03    -18.3016E-03     9.17961E-03    -6.46118E+06    -18.7181E+06    -80.5506E+06    -6.48507E+06    -80.5267E+06    -18.7181E+06     1.11110E+06         24.4750
             775     8.83782E-03     25.7079E-03     284.788E-03     155.588E-03    -523.349E-03     75.0466E-03    -429.398E-03     271.378E-03    -352.351E-03     37.1130E-03    -18.3196E-03    -18.7933E-03    -18.5026E-03     36.8222E-03    -18.3196E-03     8.02731E-03    -5.17357E+06    -16.6155E+06    -106.278E+06    -5.20033E+06    -106.251E+06    -16.6155E+06     1.03453E+06         23.7952
             776     7.85563E-03     25.6971E-03     807.446E-03     288.305E-03        -1.21103     152.647E-03    -558.546E-03     290.624E-03        -1.84876     37.0676E-03    -18.3643E-03    -18.7033E-03    -18.4714E-03     36.8357E-03    -18.3643E-03     7.16319E-03    -5.18589E+06    -12.6879E+06    -130.395E+06    -5.22534E+06    -130.356E+06    -12.6879E+06     1.81657E+06         23.4296
             777     6.87390E-03     25.6892E-03         1.20850     305.116E-03        -1.65887     220.983E-03    -671.357E-03     305.116E-03        -2.71972     37.0839E-03    -18.3866E-03    -18.6972E-03    -18.5088E-03     36.8954E-03    -18.3866E-03     6.46188E-03    -4.83995E+06    -10.2496E+06    -144.560E+06    -4.87306E+06    -144.527E+06    -10.2496E+06     1.81919E+06         23.2065
             778     5.89168E-03     25.6807E-03         1.75245     315.046E-03        -2.24265     267.707E-03    -757.907E-03     315.046E-03        -3.84748     37.0361E-03    -18.4077E-03    -18.6284E-03    -18.4752E-03     36.8829E-03    -18.4077E-03     5.80509E-03    -3.45642E+06    -7.22978E+06    -156.451E+06    -3.46556E+06    -156.442E+06    -7.22978E+06     646.985E+03         23.0539
             779     4.90986E-03     25.6745E-03         1.67095     319.628E-03        -2.19198     313.859E-03    -834.888E-03     319.628E-03        -3.64152     36.9599E-03    -18.4034E-03    -18.5566E-03    -18.4126E-03     36.8411E-03    -18.4285E-03     5.10105E-03    -3.57045E+06    -6.78129E+06    -168.950E+06    -3.59524E+06    -168.925E+06    -6.78129E+06     1.52592E+06         22.9422
             780     3.92776E-03     25.6682E-03         2.17583     319.842E-03        -2.72278     323.591E-03    -870.543E-03     319.842E-03        -4.68549     37.0030E-03    -18.4301E-03    -18.5729E-03    -18.4647E-03     36.9200E-03    -18.4552E-03     4.25662E-03    -3.78039E+06    -5.38028E+06    -178.349E+06    -4.18388E+06    -178.321E+06    -5.00443E+06     1.49317E+06         22.8586
             781     2.94609E-03     25.6646E-03         2.15687     315.396E-03        -2.73064     339.959E-03    -913.731E-03     315.396E-03        -2.64647     36.9811E-03    -18.4354E-03    -18.5457E-03    -18.4656E-03     36.9335E-03    -18.4679E-03     3.20222E-03    -3.31104E+06    -4.70410E+06    -182.704E+06    -4.69298E+06    -182.690E+06    -3.33648E+06    -646.890E+03         22.7973
             782     1.96406E-03     25.6609E-03         3.39445     313.846E-03        -3.97426     304.077E-03    -883.885E-03     313.846E-03        -5.15202     36.9062E-03    -18.3897E-03    -18.5165E-03    -18.3818E-03     36.8854E-03    -18.5036E-03     2.06551E-03    -1.73122E+06    -4.75825E+06    -188.039E+06    -4.77223E+06    -188.025E+06    -1.73122E+06    -1.24479E+06         22.7552
             783     981.412E-06     25.6596E-03         10.1788        -2.79314        -7.68428         3.42540    -930.843E-03        -2.79314         4.90305     37.0360E-03    -18.4378E-03    -18.5982E-03    -18.4313E-03     37.0295E-03    -18.5982E-03     1.12371E-03    -2.82122E+06    -5.93988E+06    -193.988E+06    -4.98145E+06    -193.968E+06    -3.79980E+06    -1.74292E+06         22.7305
             784     16.6921E-03     25.2522E-03     703.947E-03     49.3025E-03    -643.489E-03    -183.595E-03     244.054E-03     49.3025E-03         1.25967     391.454E-03    -19.3401E-03    -372.113E-03    -126.187E-03     145.527E-03    -19.3401E-03     710.859E-03     159.483E+06     120.179E+06    -12.8904E+06    -12.5217E+06     146.022E+06     133.271E+06     2.72827E+06         80.0244
             785     15.7013E-03     24.9027E-03         1.17042     17.0808E-03        -1.16456    -266.281E-03     272.139E-03     17.0808E-03         2.27134     121.200E-03    -19.1253E-03    -102.075E-03    -24.6276E-03     43.7529E-03    -19.1253E-03     208.810E-03     109.589E+06     63.0591E+06    -16.2656E+06    -15.9943E+06     109.317E+06     63.0591E+06     2.34128E+06         68.1474
             786     14.7297E-03     24.7883E-03         1.49827     25.2065E-03        -1.51747    -357.455E-03     338.252E-03     25.2065E-03         2.93203     54.3069E-03    -18.6135E-03    -35.6934E-03    -22.2682E-03     40.8818E-03    -18.6135E-03     60.3430E-03     70.0881E+06     13.4153E+06    -26.9291E+06    -17.1961E+06     69.7209E+06     4.04944E+06    -2.08764E+06         54.3569
             787     13.7477E-03     24.7539E-03         1.62399     49.4043E-03        -1.67585    -402.759E-03     350.899E-03     49.4043E-03         3.20871     40.8624E-03    -18.1080E-03    -22.7544E-03    -19.9400E-03     38.0480E-03    -18.1080E-03     26.1140E-03     57.7539E+06    -16.4603E+06    -39.9087E+06    -16.0377E+06     57.3313E+06    -39.9087E+06    -4.81537E+06         42.3246
             788     12.7677E-03     24.7199E-03         1.57251     81.6490E-03        -1.67059    -399.412E-03     301.331E-03     81.6490E-03         3.16121     37.9206E-03    -17.9163E-03    -20.0043E-03    -18.6078E-03     36.5241E-03    -17.9163E-03     16.5268E-03     34.4325E+06    -14.3408E+06    -49.8718E+06    -14.2334E+06     34.3251E+06    -49.8718E+06    -2.10107E+06         33.7820
             789     11.7857E-03     24.7081E-03         1.31808     118.349E-03        -1.47464    -353.218E-03     196.653E-03     118.349E-03         2.73193     36.7413E-03    -17.8934E-03    -18.8479E-03    -18.4057E-03     36.2991E-03    -17.8934E-03     9.87157E-03    -625.806E+03    -24.8182E+06    -51.0703E+06    -11.5495E+06    -13.8946E+06    -51.0703E+06    -992.246E+03         28.6227
             790     10.8034E-03     24.6915E-03     905.420E-03     156.582E-03        -1.12663    -273.390E-03     52.1836E-03     156.582E-03         1.99682     36.8285E-03    -17.9887E-03    -18.8398E-03    -18.4568E-03     36.4455E-03    -17.9887E-03     9.13417E-03    -8.65126E+06    -28.4903E+06    -59.3168E+06    -8.68246E+06    -54.4821E+06    -33.2938E+06    -233.341E+03         25.8596
             791     9.82190E-03     24.6818E-03     454.946E-03     42.5277E-03    -592.387E-03    -175.021E-03    -113.709E-03     193.817E-03     828.265E-03     36.6617E-03    -18.0442E-03    -18.6174E-03    -18.3291E-03     36.3733E-03    -18.0442E-03     7.94742E-03    -7.40945E+06    -22.6761E+06    -80.7330E+06    -7.43036E+06    -80.7121E+06    -22.6761E+06     880.827E+03         24.4790
             792     8.83925E-03     24.6697E-03     240.228E-03     74.6078E-03    -442.974E-03    -69.2635E-03    -287.090E-03     228.216E-03    -402.458E-03     36.5769E-03    -18.0831E-03    -18.4938E-03    -18.2486E-03     36.3317E-03    -18.0831E-03     7.30521E-03    -7.08157E+06    -18.6334E+06    -106.684E+06    -7.12884E+06    -106.637E+06    -18.6334E+06     1.90973E+06         23.7905
             793     7.85782E-03     24.6615E-03     748.080E-03     256.370E-03        -1.16623     28.5936E-03    -449.062E-03     258.689E-03        -1.83778     36.6097E-03    -18.1329E-03    -18.4768E-03    -18.2709E-03     36.4038E-03    -18.1329E-03     6.71486E-03    -6.53321E+06    -13.3786E+06    -131.229E+06    -6.58704E+06    -131.176E+06    -13.3786E+06     2.55722E+06         23.4203
             794     6.87537E-03     24.6518E-03         1.16075     284.417E-03        -1.64107     121.029E-03    -601.345E-03     284.417E-03        -2.70091     36.5894E-03    -18.1442E-03    -18.4452E-03    -18.2686E-03     36.4128E-03    -18.1442E-03     6.21149E-03    -5.50181E+06    -11.4539E+06    -142.155E+06    -5.52363E+06    -142.133E+06    -11.4539E+06     1.12473E+06         23.1948
             795     5.89361E-03     24.6448E-03         1.67136     304.987E-03        -2.20299     195.488E-03    -727.125E-03     304.987E-03        -3.75538     36.5385E-03    -18.1811E-03    -18.3574E-03    -18.2263E-03     36.4075E-03    -18.1811E-03     5.33849E-03    -4.03827E+06    -7.58326E+06    -156.425E+06    -5.16705E+06    -156.419E+06    -6.46012E+06     573.819E+03         23.0407
             796     4.91107E-03     24.6376E-03         1.62190     318.965E-03        -2.19333     269.006E-03    -840.432E-03     318.965E-03        -3.61065     36.4251E-03    -18.1698E-03    -18.2553E-03    -18.1059E-03     36.3276E-03    -18.2216E-03     4.60462E-03    -3.11290E+06    -5.38847E+06    -169.930E+06    -4.72968E+06    -169.908E+06    -3.79375E+06     1.68002E+06         22.9277
             797     3.92864E-03     24.6324E-03         2.06089     326.684E-03        -2.66549     304.211E-03    -908.813E-03     326.684E-03        -4.51829     36.4002E-03    -18.1257E-03    -18.2745E-03    -18.0741E-03     36.3285E-03    -18.2544E-03     3.92769E-03    -3.53774E+06    -6.12723E+06    -176.643E+06    -4.02956E+06    -176.623E+06    -5.65565E+06     1.17159E+06         22.8433
             798     2.94625E-03     24.6272E-03         1.90155     326.971E-03        -2.54011     341.820E-03    -980.378E-03     326.971E-03        -2.69814     36.5685E-03    -18.2286E-03    -18.3399E-03    -18.2194E-03     36.5248E-03    -18.3054E-03     3.05383E-03    -2.28406E+06    -4.88827E+06    -181.531E+06    -2.99596E+06    -181.517E+06    -4.19027E+06    -578.082E+03         22.7812
             799     1.96423E-03     24.6253E-03         2.93030     329.384E-03        -3.58593     309.729E-03    -965.359E-03     329.384E-03        -4.79770     36.6942E-03    -18.2914E-03    -18.4028E-03    -18.3245E-03     36.6750E-03    -18.3504E-03     1.95467E-03     348.517E+03    -4.58287E+06    -188.173E+06    -4.59912E+06    -188.157E+06     348.517E+03    -1.45723E+06         22.7384
             800     982.432E-06     24.6224E-03         9.04101        -2.64834        -6.75803         3.31652        -1.03354        -2.64834         4.07402     36.6428E-03    -18.2140E-03    -18.4289E-03    -18.3194E-03     36.6363E-03    -18.3169E-03     1.11832E-03    -4.27554E+06    -9.19768E+06    -196.426E+06    -8.63074E+06    -196.409E+06    -4.85948E+06    -1.22602E+06         22.7132
             801     16.7075E-03     24.2460E-03     620.958E-03    -32.0431E-03    -609.774E-03    -158.096E-03     169.280E-03    -32.0431E-03         1.18078     394.298E-03    -18.8580E-03    -375.440E-03    -134.177E-03     153.035E-03    -18.8580E-03     711.286E-03     160.066E+06     119.087E+06    -11.0556E+06    -10.7605E+06     146.775E+06     132.083E+06     2.08696E+06         79.7463
             802     15.7233E-03     23.8557E-03         1.10084    -63.5403E-03        -1.11569    -303.421E-03     288.575E-03    -63.5403E-03         2.13442     122.193E-03    -18.3585E-03    -103.835E-03    -24.9441E-03     43.3026E-03    -18.3585E-03     212.809E-03     112.629E+06     62.8199E+06    -14.5134E+06    -13.7405E+06     111.856E+06     62.8199E+06    -2.53288E+06         68.0460
             803     14.7386E-03     23.7534E-03         1.42189    -54.2721E-03        -1.44042    -437.861E-03     419.335E-03    -54.2721E-03         2.72913     51.0587E-03    -17.9128E-03    -33.1459E-03    -18.7171E-03     36.6299E-03    -17.9128E-03     59.6630E-03     72.5513E+06     17.8836E+06    -30.2600E+06    -12.8676E+06     71.6308E+06     1.41174E+06    -5.39145E+06         54.3868
             804     13.7572E-03     23.7135E-03         1.54306    -27.9208E-03        -1.58537    -508.673E-03     466.361E-03    -27.9208E-03         2.97002     37.9396E-03    -17.5478E-03    -20.3918E-03    -17.3694E-03     34.9172E-03    -17.5478E-03     25.6809E-03     54.8840E+06    -10.6654E+06    -49.3615E+06    -10.3695E+06     54.5881E+06    -49.3615E+06    -2.87647E+06         42.3885
             805     12.7730E-03     23.6865E-03         1.48784     7.65220E-03        -1.57399    -518.396E-03     432.245E-03     7.65220E-03         2.90738     36.2005E-03    -17.4891E-03    -18.7114E-03    -17.1451E-03     34.6342E-03    -17.4891E-03     17.2012E-03     32.5220E+06    -9.64052E+06    -56.6153E+06    -9.52515E+06     32.4066E+06    -56.6153E+06     36.4765E+03         33.8388
             806     11.7894E-03     23.6696E-03         1.23883     48.6765E-03        -1.38303    -478.706E-03     334.507E-03     48.6765E-03         2.48843     35.7343E-03    -17.5658E-03    -18.1685E-03    -17.6261E-03     35.1919E-03    -17.5658E-03     10.6512E-03     221.583E+03    -23.3915E+06    -51.0852E+06    -9.27857E+06    -14.0102E+06    -50.9664E+06     1.22867E+06         28.6591
             807     10.8077E-03     23.6568E-03     831.163E-03     92.0121E-03        -1.03996    -396.439E-03     187.643E-03     92.0121E-03         1.77245     35.9195E-03    -17.6987E-03    -18.2208E-03    -17.8081E-03     35.5068E-03    -17.6987E-03     9.34045E-03    -10.6736E+06    -31.4442E+06    -58.2681E+06    -10.8493E+06    -55.2681E+06    -34.2685E+06     1.37089E+06         25.8754
             808     9.82440E-03     23.6442E-03     387.174E-03     27.0148E-03    -553.425E-03    -287.932E-03     14.0569E-03     134.638E-03     654.541E-03     35.9531E-03    -17.7765E-03    -18.1766E-03    -17.8581E-03     35.6346E-03    -17.7765E-03     8.20550E-03    -11.1480E+06    -24.5907E+06    -81.0492E+06    -11.1917E+06    -81.0055E+06    -24.5907E+06     1.38893E+06         24.4800
             809     8.84271E-03     23.6347E-03     232.194E-03     66.8337E-03    -469.849E-03    -172.711E-03    -172.567E-03     174.457E-03    -540.229E-03     36.0600E-03    -17.8324E-03    -18.2276E-03    -17.9746E-03     35.8070E-03    -17.8324E-03     7.35920E-03    -9.41243E+06    -18.9191E+06    -107.407E+06    -9.44837E+06    -107.371E+06    -18.9191E+06     1.58195E+06         23.7831
             810     7.85941E-03     23.6245E-03     753.755E-03     210.340E-03        -1.17066    -63.5115E-03    -353.397E-03     210.340E-03        -1.89976     36.0726E-03    -17.8863E-03    -18.1863E-03    -17.9734E-03     35.8597E-03    -17.8863E-03     6.76926E-03    -6.20185E+06    -12.3633E+06    -130.554E+06    -6.22982E+06    -130.526E+06    -12.3633E+06     1.16384E+06         23.4084
             811     6.87744E-03     23.6164E-03         1.16414     241.375E-03        -1.64975     40.1338E-03    -525.737E-03     241.375E-03        -2.75106     36.0713E-03    -17.9051E-03    -18.1662E-03    -17.9839E-03     35.8890E-03    -17.9051E-03     6.26680E-03    -4.16170E+06    -9.74458E+06    -141.108E+06    -4.18654E+06    -141.084E+06    -9.74458E+06     1.02854E+06         23.1803
             812     5.89468E-03     23.6080E-03         1.62690     267.279E-03        -2.17331     124.282E-03    -670.693E-03     267.279E-03        -3.71289     36.0532E-03    -17.9477E-03    -18.1055E-03    -17.9662E-03     35.9139E-03    -17.9477E-03     5.46709E-03    -3.25525E+06    -6.78824E+06    -156.979E+06    -4.71032E+06    -156.958E+06    -5.35385E+06     1.29288E+06         23.0245
             813     4.91253E-03     23.6025E-03         1.60304     286.018E-03        -2.19116     214.625E-03    -802.741E-03     286.018E-03        -3.62678     36.0088E-03    -17.9552E-03    -18.0536E-03    -17.9227E-03     35.9046E-03    -17.9819E-03     4.72655E-03    -3.03649E+06    -5.05425E+06    -170.051E+06    -4.94942E+06    -170.045E+06    -3.14828E+06     962.118E+03         22.9103
             814     3.92993E-03     23.5960E-03         1.96317     297.717E-03        -2.58681     259.169E-03    -882.816E-03     297.717E-03        -4.37240     35.8937E-03    -17.8858E-03    -18.0078E-03    -17.8190E-03     35.8191E-03    -18.0001E-03     3.97308E-03    -4.05207E+06    -6.86573E+06    -174.459E+06    -4.87937E+06    -174.453E+06    -6.04462E+06     526.396E+03         22.8247
             815     2.94699E-03     23.5923E-03         1.65555     300.258E-03        -2.30981     312.678E-03    -966.944E-03     300.258E-03        -2.79306     35.9881E-03    -17.9314E-03    -18.0567E-03    -17.8885E-03     35.9438E-03    -18.0553E-03     3.04145E-03    -4.66520E+06    -8.03163E+06    -180.712E+06    -5.41567E+06    -180.706E+06    -7.28748E+06    -168.513E+03         22.7615
             816     1.96459E-03     23.5875E-03         2.44964     305.352E-03        -3.13047     276.079E-03    -956.914E-03     305.352E-03        -4.43051     36.2450E-03    -18.0758E-03    -18.1692E-03    -18.1151E-03     36.2272E-03    -18.1121E-03     1.83267E-03    -2.02426E+06    -7.39554E+06    -189.845E+06    -6.66290E+06    -189.836E+06    -2.76577E+06    -1.12311E+06         22.7177
             817     982.358E-06     23.5877E-03         7.79715        -2.52409        -5.66993         3.15106        -1.02383        -2.52409         3.12376     36.1768E-03    -17.9554E-03    -18.2214E-03    -18.2155E-03     36.1710E-03    -17.9554E-03     1.09825E-03    -3.45566E+06    -10.4748E+06    -197.166E+06    -9.91994E+06    -197.137E+06    -4.03961E+06    -1.57547E+06         22.6915
             818     16.7013E-03     23.1814E-03     521.629E-03    -97.2011E-03    -567.895E-03    -122.896E-03     76.6302E-03    -97.2011E-03         1.05998     389.524E-03    -18.3431E-03    -371.181E-03    -137.472E-03     155.815E-03    -18.3431E-03     697.275E-03     159.212E+06     122.058E+06    -13.1627E+06    -12.2197E+06     145.496E+06     134.831E+06    -3.07471E+06         79.4294
             819     15.7358E-03     22.8303E-03     983.133E-03    -121.244E-03        -1.02290    -318.137E-03     278.372E-03    -121.244E-03         1.91199     122.461E-03    -17.6658E-03    -104.795E-03    -21.7840E-03     39.4498E-03    -17.6658E-03     217.092E-03     115.709E+06     62.6043E+06    -10.8539E+06    -9.65744E+06     114.513E+06     62.6043E+06    -5.89655E+06         67.9427
             820     14.7470E-03     22.7156E-03         1.28225    -109.873E-03        -1.30669    -468.574E-03     444.137E-03    -109.873E-03         2.42180     50.9938E-03    -17.3329E-03    -33.6609E-03    -15.9732E-03     33.3061E-03    -17.3329E-03     65.4114E-03     69.4527E+06     10.2559E+06    -33.6055E+06    -11.4189E+06     68.6205E+06    -11.0986E+06    -5.39254E+06         54.3943
             821     13.7609E-03     22.6813E-03         1.39614    -83.4389E-03        -1.43644    -546.897E-03     506.595E-03    -83.4389E-03         2.62831     36.3112E-03    -17.1491E-03    -19.1622E-03    -15.2473E-03     32.3963E-03    -17.1491E-03     28.3035E-03     49.9996E+06    -12.2819E+06    -57.5605E+06    -12.0083E+06     49.7260E+06    -57.5605E+06    -1.05300E+06         42.4350
             822     12.7756E-03     22.6510E-03         1.34090    -48.1158E-03        -1.42368    -564.990E-03     482.207E-03    -48.1158E-03         2.55729     35.6372E-03    -17.2065E-03    -18.4307E-03    -16.2126E-03     33.4191E-03    -17.2065E-03     20.2096E-03     31.1623E+06    -11.7242E+06    -59.3544E+06    -11.1315E+06     30.5697E+06    -59.3544E+06     3.23782E+06         33.8900
             823     11.7930E-03     22.6343E-03         1.10407    -7.29483E-03        -1.24293    -529.070E-03     390.211E-03    -7.29483E-03         2.15759     35.1487E-03    -17.3496E-03    -17.7991E-03    -17.0577E-03     34.4072E-03    -17.3496E-03     12.3502E-03    -597.894E+03    -25.1592E+06    -50.0471E+06    -11.9573E+06    -14.9816E+06    -48.8653E+06     5.42618E+06         28.6948
             824     10.8091E-03     22.6210E-03     716.540E-03     35.7554E-03    -914.805E-03    -446.888E-03     248.623E-03     35.7554E-03         1.47233     35.3634E-03    -17.5010E-03    -17.8624E-03    -17.3058E-03     34.8068E-03    -17.5010E-03     10.7543E-03    -11.7203E+06    -32.4012E+06    -53.3886E+06    -12.6135E+06    -52.4954E+06    -32.4012E+06     4.52665E+06         25.8910
             825     9.82671E-03     22.6091E-03     310.414E-03     48.2795E-03    -540.844E-03    -337.872E-03     77.8291E-03     77.8921E-03     412.158E-03     35.5768E-03    -17.5708E-03    -18.0060E-03    -17.5735E-03     35.1442E-03    -17.5708E-03     9.55083E-03    -12.4081E+06    -28.1658E+06    -80.4165E+06    -12.4849E+06    -80.3398E+06    -28.1658E+06     1.38911E+06         24.4803
             826     8.84354E-03     22.5983E-03     263.877E-03     87.2017E-03    -561.474E-03    -219.794E-03    -107.415E-03     116.814E-03    -739.529E-03     35.7490E-03    -17.6275E-03    -18.1215E-03    -17.7787E-03     35.4062E-03    -17.6275E-03     8.52784E-03    -10.5995E+06    -23.7623E+06    -107.602E+06    -10.6048E+06    -107.596E+06    -23.7623E+06     259.198E+03         23.7741
             827     7.86177E-03     22.5897E-03     812.752E-03     151.463E-03        -1.21284    -112.519E-03    -287.566E-03     151.463E-03        -2.01651     35.8126E-03    -17.6765E-03    -18.1361E-03    -17.8584E-03     35.5348E-03    -17.6765E-03     7.68460E-03    -9.79977E+06    -17.8474E+06    -129.712E+06    -9.80807E+06    -129.703E+06    -17.8474E+06     492.019E+03         23.3945
             828     6.87867E-03     22.5802E-03         1.20672     181.301E-03        -1.67860    -12.9406E-03    -458.941E-03     181.301E-03        -2.84671     35.6336E-03    -17.6923E-03    -17.9413E-03    -17.7182E-03     35.4104E-03    -17.6923E-03     6.86533E-03    -9.07165E+06    -16.7745E+06    -142.221E+06    -9.09507E+06    -142.198E+06    -16.7745E+06     807.092E+03         23.1637
             829     5.89609E-03     22.5735E-03         1.61666     206.154E-03        -2.14921     68.3268E-03    -600.879E-03     206.154E-03        -3.70468     35.6219E-03    -17.7386E-03    -17.8833E-03    -17.7083E-03     35.4469E-03    -17.7386E-03     6.07108E-03    -6.52726E+06    -13.1318E+06    -156.789E+06    -6.85686E+06    -156.771E+06    -12.8205E+06     964.196E+03         23.0062
             830     4.91319E-03     22.5660E-03         1.60698     224.195E-03        -2.18116     153.982E-03    -728.154E-03     224.195E-03        -3.66636     35.7323E-03    -17.7935E-03    -17.9388E-03    -17.8120E-03     35.6056E-03    -17.7935E-03     5.17884E-03    -4.30602E+06    -8.02093E+06    -169.497E+06    -5.87853E+06    -169.492E+06    -6.45362E+06     861.946E+03         22.8908
             831     3.93052E-03     22.5617E-03         1.88452     235.336E-03        -2.48915     199.058E-03    -803.687E-03     235.336E-03        -4.23991     35.7400E-03    -17.7907E-03    -17.9493E-03    -17.8527E-03     35.6541E-03    -17.8015E-03     4.26581E-03    -4.31504E+06    -6.62184E+06    -174.142E+06    -6.51967E+06    -174.132E+06    -4.42682E+06     1.20383E+06         22.8041
             832     2.94818E-03     22.5557E-03         1.46303     237.490E-03        -2.09949     249.627E-03    -886.082E-03     237.490E-03        -2.90255     35.5986E-03    -17.7376E-03    -17.8610E-03    -17.7596E-03     35.5484E-03    -17.7888E-03     3.21762E-03    -6.72844E+06    -8.52756E+06    -179.171E+06    -7.67659E+06    -179.162E+06    -7.58860E+06     647.582E+03         22.7396
             833     1.96523E-03     22.5534E-03         2.01729     242.332E-03        -2.67751     213.760E-03    -873.976E-03     242.332E-03        -4.05270     35.5580E-03    -17.7121E-03    -17.8459E-03    -17.7082E-03     35.5366E-03    -17.8284E-03     2.03300E-03    -8.16332E+06    -9.96999E+06    -189.719E+06    -8.96796E+06    -189.701E+06    -9.18305E+06    -1.24579E+06         22.6946
             834     982.706E-06     22.5500E-03         6.49382        -2.19805        -4.74974         2.88378    -953.145E-03        -2.38460         2.15298     35.7241E-03    -17.7262E-03    -17.9979E-03    -17.8735E-03     35.7175E-03    -17.8439E-03     1.11790E-03    -8.29125E+06    -13.0401E+06    -198.814E+06    -11.3146E+06    -198.777E+06    -10.0532E+06    -2.04464E+06         22.6676
             835     16.7534E-03     22.1845E-03     423.314E-03    -136.461E-03    -524.053E-03    -86.7917E-03    -13.9473E-03    -136.461E-03     903.947E-03     382.864E-03    -17.8433E-03    -365.021E-03    -131.949E-03     149.792E-03    -17.8433E-03     685.781E-03     156.450E+06     109.989E+06    -10.9238E+06    -10.1318E+06     141.566E+06     124.082E+06    -9.62076E+06         79.2060
             836     15.7321E-03     21.7935E-03     828.409E-03    -147.584E-03    -890.782E-03    -297.254E-03     234.881E-03    -147.584E-03         1.63102     128.653E-03    -17.2335E-03    -111.420E-03    -18.7357E-03     35.9692E-03    -17.2335E-03     231.581E-03     109.974E+06     46.0017E+06    -10.6034E+06    -9.93257E+06     109.303E+06     46.0017E+06    -6.36635E+06         67.8734
             837     14.7512E-03     21.6837E-03         1.09383    -134.307E-03        -1.13018    -436.670E-03     400.322E-03    -134.307E-03         2.06019     51.3097E-03    -17.1233E-03    -34.1864E-03    -15.2034E-03     32.3267E-03    -17.1233E-03     68.9898E-03     65.6213E+06     4.63459E+06    -38.6818E+06    -14.1239E+06     65.0782E+06    -19.3802E+06    -1.52020E+06         54.3934
             838     13.7632E-03     21.6509E-03         1.19378    -110.289E-03        -1.24260    -510.596E-03     461.776E-03    -110.289E-03         2.23376     37.0098E-03    -17.0287E-03    -19.9811E-03    -14.2761E-03     31.3048E-03    -17.0287E-03     33.8868E-03     46.3609E+06    -17.8495E+06    -60.6974E+06    -17.3704E+06     45.8818E+06    -60.6974E+06     1.69605E+06         42.4887
             839     12.7778E-03     21.6152E-03         1.13799    -79.0680E-03        -1.22589    -526.786E-03     438.877E-03    -79.0680E-03         2.15764     36.3141E-03    -17.1485E-03    -19.1656E-03    -16.0108E-03     33.1593E-03    -17.1485E-03     24.4032E-03     28.7756E+06    -18.2194E+06    -57.9755E+06    -17.0342E+06     27.5904E+06    -57.9755E+06     5.27181E+06         33.9489
             840     11.7936E-03     21.6005E-03     919.016E-03    -43.4185E-03        -1.05913    -493.688E-03     353.574E-03    -43.4185E-03         1.78674     35.2745E-03    -17.2838E-03    -17.9907E-03    -16.8749E-03     34.1587E-03    -17.2838E-03     15.0505E-03    -1.59745E+06    -26.2138E+06    -50.0685E+06    -13.5994E+06    -15.2749E+06    -49.0055E+06     6.78263E+06         28.7363
             841     10.8103E-03     21.5855E-03     555.454E-03    -6.37469E-03    -749.466E-03    -416.720E-03     222.708E-03    -6.37469E-03         1.13493     35.4810E-03    -17.4294E-03    -18.0516E-03    -17.2846E-03     34.7140E-03    -17.4294E-03     12.6389E-03    -8.88883E+06    -30.1412E+06    -51.7400E+06    -9.96601E+06    -48.7941E+06    -32.0099E+06     5.34968E+06         25.9095
             842     9.82723E-03     21.5738E-03     248.275E-03     29.0380E-03    -497.265E-03    -314.931E-03     65.9399E-03     29.0380E-03     138.272E-03     35.5812E-03    -17.5063E-03    -18.0749E-03    -17.5070E-03     35.0134E-03    -17.5063E-03     10.9249E-03    -8.18333E+06    -26.2812E+06    -77.8402E+06    -8.40449E+06    -77.6191E+06    -26.2812E+06     2.99345E+06         24.4808
             843     8.84443E-03     21.5634E-03     344.925E-03     60.5726E-03    -654.485E-03    -206.427E-03    -103.133E-03     60.5726E-03    -966.292E-03     35.7607E-03    -17.5581E-03    -18.2027E-03    -17.7691E-03     35.3272E-03    -17.5581E-03     9.59425E-03    -9.74893E+06    -24.4093E+06    -107.976E+06    -9.82064E+06    -107.905E+06    -24.4093E+06     1.45425E+06         23.7635
             844     7.86149E-03     21.5532E-03     894.902E-03     87.3765E-03        -1.27078    -112.800E-03    -263.076E-03     87.3765E-03        -2.15948     35.7335E-03    -17.5985E-03    -18.1350E-03    -17.8068E-03     35.4052E-03    -17.5985E-03     8.37091E-03    -10.7609E+06    -19.9132E+06    -129.848E+06    -10.7730E+06    -129.835E+06    -19.9132E+06     1.13718E+06         23.3779
             845     6.87929E-03     21.5461E-03         1.27256     109.307E-03        -1.71448    -30.5476E-03    -411.380E-03     109.307E-03        -2.96039     35.5982E-03    -17.6041E-03    -17.9941E-03    -17.7277E-03     35.3318E-03    -17.6041E-03     7.52975E-03    -9.46997E+06    -19.2111E+06    -141.989E+06    -9.47884E+06    -141.980E+06    -19.2111E+06     604.629E+03         23.1441
             846     5.89623E-03     21.5374E-03         1.62911     126.557E-03        -2.12423     32.3392E-03    -527.469E-03     126.557E-03        -3.71074     35.5345E-03    -17.6302E-03    -17.9044E-03    -17.6992E-03     35.3294E-03    -17.6302E-03     6.58196E-03    -8.44356E+06    -17.2350E+06    -156.975E+06    -8.45187E+06    -156.967E+06    -17.2350E+06     644.859E+03         22.9848
             847     4.91353E-03     21.5318E-03         1.63110     137.920E-03        -2.16220     96.9231E-03    -628.023E-03     137.920E-03        -3.71443     35.6163E-03    -17.6703E-03    -17.9461E-03    -17.8031E-03     35.4734E-03    -17.6703E-03     5.50199E-03    -7.26969E+06    -11.9749E+06    -169.404E+06    -8.53571E+06    -169.394E+06    -10.7189E+06     992.494E+03         22.8682
             848     3.93121E-03     21.5250E-03         1.82431     143.412E-03        -2.37851     127.911E-03    -682.114E-03     143.412E-03        -4.11562     35.6067E-03    -17.6584E-03    -17.9483E-03    -17.8549E-03     35.5134E-03    -17.6584E-03     4.42976E-03    -5.68905E+06    -8.68929E+06     -174.14E+06    -7.54623E+06    -174.128E+06    -6.84380E+06     161.169E+03         22.7803
             849     2.94852E-03     21.5218E-03         1.36496     141.364E-03        -1.94730     162.471E-03    -744.811E-03     141.364E-03        -3.01231     35.3713E-03    -17.6149E-03    -17.7564E-03    -17.6841E-03     35.3151E-03    -17.6310E-03     3.42505E-03    -5.30985E+06    -6.65562E+06    -178.555E+06    -5.93268E+06    -178.522E+06    -6.06619E+06     1.09113E+06         22.7147
             850     1.96583E-03     21.5173E-03         1.68570     142.528E-03        -2.28909     122.306E-03    -725.690E-03     142.528E-03        -3.68758     35.2296E-03    -17.5635E-03    -17.6660E-03    -17.5344E-03     35.2004E-03    -17.6660E-03     2.39994E-03    -5.19211E+06    -8.36372E+06    -187.906E+06    -8.06480E+06    -187.831E+06    -5.56610E+06     1.86578E+06         22.6686
             851     982.377E-06     21.5167E-03         5.24100        -1.59353        -4.14880         2.57524    -795.618E-03        -2.28096         1.20700     35.3522E-03    -17.5876E-03    -17.7646E-03    -17.6271E-03     35.3431E-03    -17.7160E-03     1.29409E-03    -11.2005E+06    -16.1899E+06    -200.615E+06    -14.4828E+06    -200.560E+06    -12.9625E+06     1.18165E+06         22.6409
             852     16.7097E-03     21.1646E-03     343.891E-03    -143.966E-03    -477.801E-03    -49.0021E-03    -84.9081E-03    -143.966E-03     753.189E-03     376.669E-03    -18.0244E-03    -358.645E-03    -121.301E-03     139.325E-03    -18.0244E-03     683.503E-03     164.900E+06     115.265E+06    -1.19898E+06    -960.309E+03     150.217E+06     129.709E+06     672.587E+03         79.0055
             853     15.7384E-03     20.7527E-03     664.342E-03    -139.971E-03    -744.804E-03    -237.966E-03     157.504E-03    -139.971E-03         1.34875     135.358E-03    -17.4749E-03    -117.883E-03    -23.3101E-03     40.7850E-03    -17.4749E-03     243.555E-03     106.791E+06     41.4226E+06    -11.7299E+06    -11.3078E+06     106.369E+06     41.4226E+06     1.33717E+06         67.7844
             854     14.7474E-03     20.6588E-03     882.474E-03    -125.855E-03    -940.101E-03    -346.961E-03     289.334E-03    -125.855E-03         1.70649     53.2631E-03    -17.3434E-03    -35.9197E-03    -14.8078E-03     32.1511E-03    -17.3434E-03     74.2362E-03     62.6956E+06    -11.3067E+03    -38.4532E+06    -19.6564E+06     62.2184E+06    -18.3310E+06     2.19487E+06         54.4112
             855     13.7593E-03     20.6145E-03     960.004E-03    -106.710E-03        -1.02905    -400.450E-03     331.401E-03    -106.710E-03         1.84763     40.1110E-03    -17.2347E-03    -22.8763E-03    -15.2673E-03     32.5019E-03    -17.2347E-03     40.7805E-03     44.6318E+06    -20.9462E+06    -60.8997E+06    -20.4820E+06     44.1676E+06    -60.8997E+06     5.17328E+06         42.5534
             856     12.7755E-03     20.5836E-03     903.125E-03    -83.2789E-03        -1.00655    -405.996E-03     302.572E-03    -83.2789E-03         1.77108     37.9133E-03    -17.2829E-03    -20.6304E-03    -16.6747E-03     33.9576E-03    -17.2829E-03     28.4927E-03     26.2638E+06    -19.8056E+06    -63.5941E+06    -18.6267E+06     25.0849E+06    -63.5941E+06     5.87596E+06         34.0198
             857     11.7913E-03     20.5637E-03     700.174E-03    -57.5653E-03    -849.151E-03    -373.306E-03     224.329E-03    -57.5653E-03         1.42600     36.3762E-03    -17.3835E-03    -18.9927E-03    -17.4811E-03     34.8647E-03    -17.3835E-03     17.7546E-03    -2.47386E+06    -25.5863E+06    -52.6774E+06    -14.9314E+06    -13.1288E+06    -52.6774E+06     5.13904E+06         28.7849
             858     10.8096E-03     20.5509E-03     359.746E-03    -32.0567E-03    -556.714E-03    -306.283E-03     109.315E-03    -32.0567E-03     811.389E-03     36.1588E-03    -17.5066E-03    -18.6522E-03    -17.7274E-03     35.2340E-03    -17.5066E-03     14.1005E-03    -10.0076E+06    -28.2355E+06    -52.9909E+06    -10.5585E+06    -47.5035E+06    -33.1720E+06     4.12032E+06         25.9300
             859     9.82612E-03     20.5385E-03     198.100E-03    -9.34717E-03    -441.032E-03    -219.924E-03    -23.0071E-03    -9.34717E-03    -122.584E-03     36.1716E-03    -17.5700E-03    -18.6016E-03    -17.8982E-03     35.4682E-03    -17.5700E-03     12.2471E-03    -7.96451E+06    -23.6127E+06    -76.9948E+06    -8.29036E+06    -76.6690E+06    -23.6127E+06     4.66403E+06         24.4795
             860     8.84426E-03     20.5271E-03     448.994E-03     8.70980E-03    -742.721E-03    -134.192E-03    -159.535E-03     8.70980E-03        -1.17960     36.0694E-03    -17.6010E-03    -18.4684E-03    -18.0000E-03     35.6010E-03    -17.6010E-03     10.0261E-03    -7.53771E+06    -19.5986E+06    -106.731E+06    -7.71933E+06    -106.549E+06    -19.5986E+06     3.72231E+06         23.7488
             861     7.86178E-03     20.5189E-03     974.663E-03     21.5590E-03        -1.32142    -65.1204E-03    -281.637E-03     21.5590E-03        -2.28511     35.8428E-03    -17.6150E-03    -18.2278E-03    -17.8787E-03     35.4937E-03    -17.6150E-03     8.64839E-03    -6.84091E+06    -16.8614E+06    -128.542E+06    -6.87798E+06    -128.505E+06    -16.8614E+06     1.55474E+06         23.3559
             862     6.87883E-03     20.5096E-03         1.34155     29.3999E-03        -1.73898    -12.7343E-03    -384.691E-03     29.3999E-03        -3.05727     35.8156E-03    -17.6115E-03    -18.2041E-03    -17.9354E-03     35.5469E-03    -17.6115E-03     7.56869E-03    -6.45651E+06    -15.2446E+06    -142.314E+06    -6.47328E+06    -142.297E+06    -15.2446E+06     1.11806E+06         23.1183
             863     5.89667E-03     20.5033E-03         1.64727     33.1486E-03        -2.08572     16.5471E-03    -454.998E-03     33.1486E-03        -3.70266     35.7360E-03    -17.5991E-03    -18.1369E-03    -17.9396E-03     35.5387E-03    -17.5991E-03     6.48756E-03    -7.02342E+06    -13.8450E+06    -157.718E+06    -7.06190E+06    -157.679E+06    -13.8450E+06     2.15467E+06         22.9570
             864     4.91413E-03     20.4955E-03         1.66504     32.1351E-03        -2.12708     49.4104E-03    -511.454E-03     32.1351E-03        -3.74652     35.5300E-03    -17.5725E-03    -17.9575E-03    -17.8134E-03     35.3859E-03    -17.5725E-03     5.52405E-03    -6.57475E+06    -13.1036E+06    -167.633E+06    -6.60078E+06    -167.607E+06    -13.1036E+06     932.594E+03         22.8388
             865     3.93135E-03     20.4908E-03         1.77768     27.3883E-03        -2.25777     46.4525E-03    -526.533E-03     27.3883E-03        -3.98954     35.3583E-03    -17.5583E-03    -17.8000E-03    -17.7043E-03     35.2625E-03    -17.5583E-03     4.47360E-03    -5.93330E+06    -11.0864E+06    -174.648E+06    -5.94816E+06    -174.634E+06    -11.0864E+06    -331.715E+03         22.7496
             866     2.94863E-03     20.4859E-03         1.35888     17.3222E-03        -1.85736     60.1522E-03    -558.635E-03     17.3222E-03        -3.10870     35.2825E-03    -17.5428E-03    -17.7396E-03    -17.6733E-03     35.2280E-03    -17.5547E-03     3.32313E-03    -4.49801E+06    -8.13834E+06    -179.997E+06    -5.95115E+06    -179.959E+06    -6.72292E+06     1.34276E+06         22.6829
             867     1.96545E-03     20.4838E-03         1.46338     12.7415E-03        -1.98336     776.445E-06    -520.764E-03     12.7415E-03        -3.34812     35.1761E-03    -17.5202E-03    -17.6560E-03    -17.6092E-03     35.1518E-03    -17.5427E-03     2.16337E-03    -1.92628E+06    -7.37819E+06    -187.169E+06    -7.38126E+06    -187.070E+06    -2.02205E+06     3.89059E+06         22.6359
             868     983.322E-06     20.4801E-03         4.10278    -989.818E-03        -3.64791         2.24170    -565.782E-03        -2.21087     306.293E-03     34.9899E-03    -17.3982E-03    -17.5917E-03    -17.4628E-03     34.9800E-03    -17.5172E-03     1.37992E-03    -6.49852E+06    -11.3027E+06    -197.374E+06    -10.9541E+06    -197.289E+06    -6.93211E+06     3.63260E+06         22.6076
             869     16.7076E-03     20.1003E-03     280.674E-03    -119.473E-03    -428.587E-03    -10.1742E-03    -137.739E-03    -119.473E-03     627.577E-03     373.122E-03    -18.6383E-03    -354.484E-03    -115.105E-03     133.743E-03    -18.6383E-03     682.156E-03     163.579E+06     119.311E+06    -6.20216E+06    -6.02531E+06     149.648E+06     133.065E+06     3.13145E+06         78.8285
             870     15.7228E-03     19.7253E-03     515.366E-03    -101.804E-03    -615.076E-03    -150.939E-03     51.2291E-03    -101.804E-03         1.10691     132.992E-03    -18.2114E-03    -114.781E-03    -26.3402E-03     44.5516E-03    -18.2114E-03     236.332E-03     106.058E+06     48.5908E+06    -17.6206E+06    -17.2813E+06     105.719E+06     48.5908E+06     4.86977E+06         67.7008
             871     14.7358E-03     19.6226E-03     685.943E-03    -88.4456E-03    -774.803E-03    -209.703E-03     120.844E-03    -88.4456E-03         1.41535     56.4248E-03    -17.8829E-03    -38.5420E-03    -16.8577E-03     34.7406E-03    -17.8829E-03     77.7618E-03     62.6362E+06     4.16110E+06    -38.6062E+06    -19.2816E+06     62.1534E+06    -14.6807E+06     5.82082E+06         54.4418
             872     13.7544E-03     19.5815E-03     740.115E-03    -76.3637E-03    -841.398E-03    -228.688E-03     127.405E-03    -76.3637E-03         1.53027     42.9121E-03    -17.6493E-03    -25.2628E-03    -17.4418E-03     35.0912E-03    -17.6493E-03     43.2042E-03     42.7078E+06    -22.8516E+06    -61.6621E+06    -21.9757E+06     41.8319E+06    -61.6621E+06     7.16731E+06         42.6311
             873     12.7699E-03     19.5469E-03     684.076E-03    -63.7990E-03    -814.338E-03    -217.194E-03     86.9316E-03    -63.7990E-03         1.45244     40.0275E-03    -17.5774E-03    -22.4501E-03    -18.3843E-03     35.9617E-03    -17.5774E-03     29.6630E-03     27.9263E+06    -21.2540E+06    -64.0667E+06    -20.2846E+06     26.9569E+06    -64.0667E+06     6.67805E+06         34.1002
             874     11.7897E-03     19.5274E-03     500.283E-03    -51.9863E-03    -667.631E-03    -180.851E-03     13.5023E-03    -51.9863E-03         1.13099     37.5679E-03    -17.5873E-03    -19.9806E-03    -18.5509E-03     36.1382E-03    -17.5873E-03     17.6086E-03    -1.75192E+06    -25.7973E+06    -53.0694E+06    -16.7092E+06    -10.8400E+06    -53.0694E+06     3.65515E+06         28.8365
             875     10.8063E-03     19.5153E-03     206.447E-03    -42.7431E-03    -411.761E-03    -125.760E-03    -79.5541E-03    -42.7431E-03     547.407E-03     37.0375E-03    -17.6433E-03    -19.3942E-03    -18.5329E-03     36.1762E-03    -17.6433E-03     13.7619E-03    -12.7795E+06    -30.1013E+06    -53.0170E+06    -13.1023E+06    -48.2661E+06    -34.5294E+06     3.06189E+06         25.9476
             876     9.82567E-03     19.5015E-03     179.701E-03    -37.7714E-03    -422.265E-03    -64.6240E-03    -177.940E-03    -37.7714E-03    -328.254E-03     36.8010E-03    -17.6310E-03    -19.1700E-03    -18.5449E-03     36.1759E-03    -17.6310E-03     11.6182E-03    -9.75087E+06    -27.6540E+06    -77.3224E+06    -9.97061E+06    -77.1027E+06    -27.6540E+06     3.71662E+06         24.4714
             877     8.84329E-03     19.4919E-03     545.986E-03    -38.3922E-03    -823.157E-03    -8.87761E-03    -268.294E-03    -38.3922E-03        -1.33684     36.3470E-03    -17.6272E-03    -18.7198E-03    -18.3180E-03     35.9452E-03    -17.6272E-03     9.30048E-03    -6.56523E+06    -20.3620E+06    -104.893E+06    -6.73127E+06    -104.727E+06    -20.3620E+06     3.84405E+06         23.7248
             878     7.86112E-03     19.4826E-03         1.04026    -44.6944E-03        -1.35119     22.4768E-03    -333.410E-03    -44.6944E-03        -2.36223     36.1302E-03    -17.6187E-03    -18.5115E-03    -18.2172E-03     35.8358E-03    -17.6187E-03     7.92331E-03    -6.02624E+06    -14.8035E+06    -126.590E+06    -6.12908E+06    -126.488E+06    -14.8035E+06     3.05251E+06         23.3232
             879     6.87915E-03     19.4748E-03         1.39496    -55.9185E-03        -1.73601     34.2592E-03    -375.311E-03    -55.9185E-03        -3.10382     35.9135E-03    -17.5741E-03    -18.3394E-03    -18.1154E-03     35.6895E-03    -17.5741E-03     6.89961E-03    -7.29148E+06    -15.2682E+06    -143.720E+06    -7.37046E+06    -143.641E+06    -15.2682E+06     2.81743E+06         23.0809
             880     5.89684E-03     19.4668E-03         1.65950    -70.7341E-03        -2.02174     21.7408E-03    -383.984E-03    -70.7341E-03        -3.65795     35.7264E-03    -17.5191E-03    -18.2073E-03    -18.0407E-03     35.5598E-03    -17.5191E-03     5.95352E-03    -6.33719E+06    -15.1416E+06    -157.010E+06    -6.39136E+06    -156.956E+06    -15.1416E+06     2.55296E+06         22.9167
             881     4.91448E-03     19.4613E-03         1.69352    -88.5208E-03        -2.06853     5.29804E-03    -380.306E-03    -88.5208E-03        -3.74081     35.4122E-03    -17.4609E-03    -17.9512E-03    -17.8314E-03     35.2924E-03    -17.4609E-03     5.00294E-03    -4.23483E+06    -14.6717E+06    -164.917E+06    -4.26154E+06    -164.890E+06    -14.6717E+06     1.11326E+06         22.7965
             882     3.93156E-03     19.4553E-03         1.74139    -107.696E-03        -2.12395    -34.7894E-03    -347.766E-03    -107.696E-03        -3.84872     35.1887E-03    -17.4509E-03    -17.7378E-03    -17.6618E-03     35.1127E-03    -17.4509E-03     3.93532E-03    -2.98306E+06    -10.1123E+06    -176.365E+06    -3.39667E+06    -176.349E+06    -9.71512E+06     938.206E+03         22.7057
             883     2.94866E-03     19.4517E-03         1.39907    -128.494E-03        -1.79476    -62.0128E-03    -333.678E-03    -128.494E-03        -3.16900     35.1171E-03    -17.4365E-03    -17.6806E-03    -17.6402E-03     35.0767E-03    -17.4365E-03     2.83282E-03    -1.61405E+06    -5.62592E+06    -181.963E+06    -4.08162E+06    -181.920E+06    -3.20128E+06     2.25113E+06         22.6376
             884     1.96669E-03     19.4478E-03         1.32340    -141.100E-03        -1.73057    -136.880E-03    -270.295E-03    -141.100E-03        -3.03080     34.9084E-03    -17.3722E-03    -17.5362E-03    -17.5192E-03     34.8914E-03    -17.3722E-03     1.83431E-03    -359.947E+03    -5.22733E+06    -184.946E+06    -5.29656E+06    -184.877E+06    -359.947E+03     2.88728E+06         22.5896
             885     982.964E-06     19.4474E-03         3.08893    -525.065E-03        -3.14407         1.83685    -294.934E-03        -2.12213    -470.009E-03     34.6231E-03    -17.1803E-03    -17.4429E-03    -17.3260E-03     34.6146E-03    -17.2886E-03     1.29844E-03    -2.41562E+06    -6.23363E+06    -192.476E+06    -5.84284E+06    -192.433E+06    -2.84921E+06     2.24437E+06         22.5605
             886     16.6873E-03     19.0465E-03     238.980E-03    -69.0103E-03    -387.850E-03     28.7897E-03    -177.659E-03    -69.0103E-03     542.683E-03     375.162E-03    -19.1760E-03    -355.986E-03    -114.678E-03     133.854E-03    -19.1760E-03     686.179E-03     158.873E+06     115.520E+06    -9.80931E+06    -9.79051E+06     145.645E+06     128.730E+06    -147.401E+03         78.7472
             887     15.7105E-03     18.6863E-03     415.562E-03    -41.2706E-03    -536.097E-03    -41.3710E-03    -79.1641E-03    -41.2706E-03     941.261E-03     128.108E-03    -18.8607E-03    -109.247E-03    -26.2048E-03     45.0655E-03    -18.8607E-03     224.742E-03     103.601E+06     46.2809E+06    -21.7864E+06    -21.6508E+06     103.466E+06     46.2809E+06     2.13916E+06         67.6751
             888     14.7309E-03     18.5856E-03     556.090E-03    -30.8090E-03    -683.137E-03    -40.7308E-03    -86.3158E-03    -30.8090E-03         1.22169     57.6603E-03    -18.4523E-03    -39.2080E-03    -19.5082E-03     37.9605E-03    -18.4523E-03     76.0794E-03     61.4462E+06     131.171E+03    -39.2394E+06    -24.3930E+06     60.3873E+06    -13.6564E+06     8.08739E+06         54.4810
             889     13.7460E-03     18.5450E-03     604.100E-03    -27.3848E-03    -747.684E-03    -18.4420E-03    -125.142E-03    -27.3848E-03         1.32289     45.3722E-03    -18.0771E-03    -27.2951E-03    -20.2736E-03     38.3508E-03    -18.0771E-03     42.4593E-03     44.2596E+06    -25.3977E+06    -55.3091E+06    -24.0725E+06     42.9344E+06    -55.3091E+06     8.67587E+06         42.7152
             890     12.7683E-03     18.5064E-03     562.472E-03    -27.8125E-03    -728.062E-03     18.2418E-03    -183.832E-03    -27.8125E-03         1.24175     41.5582E-03    -17.8262E-03    -23.7320E-03    -20.4625E-03     38.2888E-03    -17.8262E-03     27.0257E-03     31.0077E+06    -19.4480E+06    -59.5604E+06    -18.8899E+06     30.4495E+06    -59.5604E+06     4.72973E+06         34.1794
             891     11.7865E-03     18.4918E-03     421.281E-03    -32.6503E-03    -613.638E-03     59.6593E-03    -252.016E-03    -32.6503E-03     938.161E-03     38.4921E-03    -17.6992E-03    -20.7929E-03    -19.8069E-03     37.5061E-03    -17.6992E-03     14.8327E-03     1.67427E+06    -24.5084E+06    -51.7370E+06    -13.3830E+06    -9.45116E+06    -51.7370E+06     3.27548E+06         28.8805
             892     10.8070E-03     18.4765E-03     225.366E-03    -42.8416E-03    -444.728E-03     102.115E-03    -321.477E-03    -42.8416E-03     378.253E-03     37.6996E-03    -17.6676E-03    -20.0320E-03    -19.4579E-03     37.1255E-03    -17.6676E-03     11.2461E-03    -11.2275E+06    -30.7168E+06    -52.5618E+06    -11.5772E+06    -48.9720E+06    -33.9569E+06     3.05909E+06         25.9533
             893     9.82539E-03     18.4657E-03     274.328E-03    -59.2051E-03    -516.567E-03     135.613E-03    -377.852E-03    -59.2051E-03    -446.524E-03     36.9588E-03    -17.5828E-03    -19.3760E-03    -18.9960E-03     36.5788E-03    -17.5828E-03     9.03806E-03    -9.78328E+06    -28.2582E+06    -76.9272E+06    -9.89444E+06    -76.8160E+06    -28.2582E+06     2.66232E+06         24.4488
             894     8.84391E-03     18.4552E-03     639.124E-03    -82.1974E-03    -897.252E-03     151.931E-03    -410.059E-03    -82.1974E-03        -1.41097     36.4541E-03    -17.5232E-03    -18.9309E-03    -18.6905E-03     36.2137E-03    -17.5232E-03     7.07318E-03    -7.92765E+06    -22.0210E+06    -104.636E+06    -8.01666E+06    -104.547E+06    -22.0210E+06     2.90518E+06         23.6848
             895     7.86236E-03     18.4468E-03         1.08303    -111.308E-03        -1.35107     139.779E-03    -407.824E-03    -111.308E-03        -2.36510     36.0648E-03    -17.4789E-03    -18.5859E-03    -18.4259E-03     35.9048E-03    -17.4789E-03     5.76982E-03    -6.02130E+06    -13.5336E+06    -126.873E+06    -6.15812E+06    -126.736E+06    -13.5336E+06     4.00357E+06         23.2733
             896     6.88019E-03     18.4388E-03         1.42368    -145.214E-03        -1.69680     102.060E-03    -375.175E-03    -145.214E-03        -3.08209     35.6745E-03    -17.3957E-03    -18.2788E-03    -18.1513E-03     35.5470E-03    -17.3957E-03     5.10656E-03    -4.21713E+06    -12.5775E+06    -142.175E+06    -4.33932E+06    -142.053E+06    -12.5775E+06     3.87245E+06         23.0252
             897     5.89772E-03     18.4320E-03         1.65539    -181.915E-03        -1.92817     38.7096E-03    -311.493E-03    -181.915E-03        -3.56457     35.3377E-03    -17.3194E-03    -18.0183E-03    -17.9220E-03     35.2414E-03    -17.3194E-03     4.35244E-03    -3.07458E+06    -12.2014E+06    -155.702E+06    -3.11850E+06    -155.658E+06    -12.2014E+06     2.29024E+06         22.8572
             898     4.91517E-03     18.4257E-03         1.71084    -219.729E-03        -1.98237    -32.3432E-03    -239.189E-03    -219.729E-03        -3.68573     35.0847E-03    -17.2480E-03    -17.8367E-03    -17.7732E-03     35.0212E-03    -17.2480E-03     3.52190E-03    -2.96413E+06    -10.2041E+06    -163.854E+06    -3.08329E+06    -163.823E+06    -10.1152E+06     1.98874E+06         22.7342
             899     3.93274E-03     18.4212E-03         1.71402    -256.171E-03        -1.97912    -119.947E-03    -145.145E-03    -256.171E-03        -3.68745     34.8189E-03    -17.1898E-03    -17.6291E-03    -17.5889E-03     34.7787E-03    -17.1898E-03     2.80065E-03    -2.71376E+06    -6.79510E+06    -176.140E+06    -3.23779E+06    -176.102E+06    -6.30900E+06     2.32392E+06         22.6411
             900     2.95005E-03     18.4164E-03         1.46316    -290.296E-03        -1.72751    -191.371E-03    -72.9730E-03    -290.296E-03        -3.18209     34.4830E-03    -17.1382E-03    -17.3448E-03    -17.3226E-03     34.4608E-03    -17.1382E-03     2.07214E-03    -1.89623E+06    -4.07225E+06    -183.494E+06    -3.27057E+06    -183.434E+06    -2.75779E+06     1.98858E+06         22.5710
             901     1.96603E-03     18.4144E-03         1.25505    -313.597E-03        -1.51375    -288.262E-03     29.5627E-03    -313.597E-03        -2.73181     34.2787E-03    -17.0985E-03    -17.1802E-03    -17.1698E-03     34.2683E-03    -17.0985E-03     1.22353E-03     2.05144E+06    -2.50225E+06    -182.860E+06    -2.54068E+06    -182.821E+06     2.05144E+06     1.04341E+06         22.5215
             902     983.565E-06     18.4122E-03         2.33633    -225.815E-03        -2.70131         1.41738     48.7985E-03        -2.05698        -1.08580     34.1070E-03    -16.9540E-03    -17.1530E-03    -17.1470E-03     34.1010E-03    -16.9540E-03     947.933E-06     611.695E+03    -4.84181E+06    -189.011E+06    -4.84449E+06    -189.008E+06     611.695E+03     333.351E+03         22.4915
             903     16.6860E-03     17.9980E-03     224.440E-03    -3.24997E-03    -365.235E-03     65.2704E-03    -206.066E-03    -3.24997E-03     503.085E-03     378.974E-03    -19.4613E-03    -359.512E-03    -115.417E-03     134.878E-03    -19.4613E-03     693.036E-03     158.414E+06     114.257E+06    -10.2330E+06    -10.0284E+06     144.278E+06     128.189E+06     2.72547E+06         78.7035
             904     15.7068E-03     17.6451E-03     392.050E-03     29.8801E-03    -534.511E-03     77.9777E-03    -220.438E-03     29.8801E-03     867.586E-03     124.985E-03    -19.2907E-03    -105.694E-03    -24.9909E-03     44.2816E-03    -19.2907E-03     217.682E-03     101.790E+06     45.4745E+06    -23.7473E+06    -23.0512E+06     101.094E+06     45.4745E+06     7.35083E+06         67.6317
             905     14.7199E-03     17.5502E-03     535.806E-03     35.6210E-03    -703.661E-03     140.192E-03    -308.047E-03     35.6210E-03         1.13842     59.6833E-03    -18.8522E-03    -40.8311E-03    -22.6287E-03     41.4809E-03    -18.8522E-03     74.2835E-03     61.4619E+06    -4.61572E+06    -35.7081E+06    -30.7440E+06     60.2804E+06    -8.39830E+06     8.00766E+06         54.4894
             906     13.7454E-03     17.4983E-03     604.989E-03     29.4228E-03    -792.769E-03     207.526E-03    -395.306E-03     29.4228E-03         1.23840     46.8566E-03    -18.2827E-03    -28.5739E-03    -23.3323E-03     41.6150E-03    -18.2827E-03     37.4675E-03     48.0593E+06    -26.9135E+06    -46.1631E+06    -26.1980E+06     47.3439E+06    -46.1631E+06     3.57436E+06         42.7739
             907     12.7670E-03     17.4695E-03     596.841E-03     15.0021E-03    -801.182E-03     269.895E-03    -474.236E-03     15.0021E-03         1.15551     41.9458E-03    -17.8230E-03    -24.1228E-03    -22.1131E-03     39.9361E-03    -17.8230E-03     21.0924E-03     31.8226E+06    -19.0259E+06    -57.2488E+06    -18.8929E+06     31.6896E+06    -57.2488E+06     1.50439E+06         34.2350
             908     11.7888E-03     17.4504E-03     514.037E-03    -7.62286E-03    -733.816E-03     319.937E-03    -539.716E-03    -7.62286E-03     863.773E-03     38.9716E-03    -17.5752E-03    -21.3965E-03    -20.9072E-03     38.4824E-03    -17.5752E-03     10.1576E-03     1.76352E+06    -25.2436E+06    -50.0356E+06    -14.2038E+06    -9.27627E+06    -50.0356E+06     2.51272E+06         28.8999
             909     10.8088E-03     17.4399E-03     406.559E-03    -38.6448E-03    -639.633E-03     350.383E-03    -583.458E-03    -38.6448E-03     322.668E-03     37.6958E-03    -17.4648E-03    -20.2310E-03    -19.9884E-03     37.4532E-03    -17.4648E-03     7.06116E-03    -9.75283E+06    -27.6646E+06    -51.1926E+06    -10.0342E+06    -48.8750E+06    -29.7008E+06     2.68237E+06         25.9349
             910     9.82803E-03     17.4280E-03     449.618E-03    -77.9827E-03    -687.785E-03     355.861E-03    -594.028E-03    -77.9827E-03    -458.610E-03     36.8239E-03    -17.3108E-03    -19.5131E-03    -19.3594E-03     36.6702E-03    -17.3108E-03     5.38806E-03    -8.13713E+06    -23.8255E+06    -76.4450E+06    -8.25316E+06    -76.3289E+06    -23.8255E+06     2.72007E+06         24.4029
             911     8.84720E-03     17.4190E-03     725.708E-03    -125.191E-03    -958.410E-03     331.067E-03    -563.770E-03    -125.191E-03        -1.38388     36.1010E-03    -17.1728E-03    -18.9282E-03    -18.8479E-03     36.0207E-03    -17.1728E-03     3.70974E-03    -6.59885E+06    -20.6637E+06    -104.414E+06    -6.66213E+06    -104.350E+06    -20.6637E+06     2.37344E+06         23.6218
             912     7.86523E-03     17.4109E-03         1.09899    -178.985E-03        -1.31538     270.686E-03    -487.068E-03    -178.985E-03        -2.27821     35.4752E-03    -17.0781E-03    -18.3971E-03    -18.3456E-03     35.4237E-03    -17.0781E-03     2.89972E-03    -3.62990E+06    -12.4353E+06    -128.068E+06    -3.70337E+06    -127.994E+06    -12.4353E+06     2.61482E+06         23.1999
             913     6.88309E-03     17.4037E-03         1.42018    -237.354E-03        -1.61569     179.502E-03    -375.013E-03    -237.354E-03        -2.97961     34.9745E-03    -16.9713E-03    -18.0032E-03    -17.9641E-03     34.9354E-03    -16.9713E-03     2.49247E-03    -1.70690E+06    -7.72238E+06    -140.786E+06    -1.80521E+06    -140.688E+06    -7.72238E+06     3.24571E+06         22.9452
             914     5.90074E-03     17.3970E-03         1.62631    -297.530E-03        -1.80094     60.1150E-03    -234.746E-03    -297.530E-03        -3.41052     34.5242E-03    -16.8721E-03    -17.6520E-03    -17.6260E-03     34.4981E-03    -16.8721E-03     2.02733E-03    -1.12094E+06    -5.36642E+06    -154.668E+06    -1.25366E+06    -154.597E+06    -5.30409E+06     3.09913E+06         22.7725
             915     4.91777E-03     17.3915E-03         1.71006    -356.964E-03        -1.86452    -67.1487E-03    -87.3102E-03    -356.964E-03        -3.57087     34.1413E-03    -16.7718E-03    -17.3694E-03    -17.3523E-03     34.1241E-03    -16.7718E-03     1.67490E-03    -238.684E+03    -4.32431E+06    -164.098E+06    -470.740E+03    -164.017E+06    -4.17306E+06     3.42105E+06         22.6458
             916     3.93472E-03     17.3864E-03         1.68904    -411.977E-03        -1.82569    -208.808E-03     72.1521E-03    -411.977E-03        -3.49471     33.8395E-03    -16.6805E-03    -17.1590E-03    -17.1470E-03     33.8275E-03    -16.6805E-03     1.29314E-03     490.765E+03    -2.75204E+06    -174.303E+06     135.960E+03    -174.225E+06    -2.47547E+06     2.94140E+06         22.5496
             917     2.95106E-03     17.3836E-03         1.53741    -461.241E-03        -1.65210    -321.385E-03     206.702E-03    -461.241E-03        -3.13591     33.4799E-03    -16.5998E-03    -16.8801E-03    -16.8733E-03     33.4731E-03    -16.5998E-03     870.291E-06     1.00449E+06    -1.31830E+06    -181.274E+06    -496.255E+03    -181.235E+06     142.926E+03     1.26775E+06         22.4770
             918     1.96814E-03     17.3801E-03         1.26327    -496.050E-03        -1.36226    -451.826E-03     352.830E-03    -496.050E-03        -2.45572     33.1593E-03    -16.5295E-03    -16.6297E-03    -16.6225E-03     33.1576E-03    -16.5351E-03     377.845E-06     2.52364E+06    -1.64051E+06    -183.257E+06    -1.66553E+06    -183.232E+06     2.52364E+06    -78.2990E+03         22.4255
             919     983.751E-06     17.3795E-03         1.94530    -171.805E-03        -2.37247         1.00923     416.118E-03        -2.02433        -1.55592     32.9661E-03    -16.3660E-03    -16.6002E-03    -16.4335E-03     32.9631E-03    -16.5296E-03     375.534E-06     1.27493E+06    -5.78564E+06    -189.398E+06    -2.90283E+06    -189.384E+06    -1.62245E+06    -21.9662E+03         22.3943
             920     16.6885E-03     16.9567E-03     233.889E-03     66.1289E-03    -367.120E-03     96.9195E-03    -230.150E-03     66.1289E-03     499.921E-03     385.974E-03    -19.5421E-03    -366.432E-03    -118.890E-03     138.433E-03    -19.5421E-03     704.929E-03     154.714E+06     112.662E+06    -14.5785E+06    -14.2760E+06     139.812E+06     127.261E+06      5.3777E+06         78.5467
             921     15.6949E-03     16.6127E-03     438.665E-03     99.2038E-03    -603.858E-03     194.257E-03    -359.450E-03     99.2038E-03     877.792E-03     124.601E-03    -19.4462E-03    -105.155E-03    -25.6742E-03     45.1204E-03    -19.4462E-03     215.010E-03     102.665E+06     53.2592E+06    -25.1788E+06    -24.4221E+06     101.908E+06     53.2592E+06     8.79054E+06         67.4637
             922     14.7228E-03     16.4975E-03     615.045E-03     98.8366E-03    -819.351E-03     315.471E-03    -519.777E-03     98.8366E-03         1.15799     60.6766E-03    -18.8374E-03    -41.8392E-03    -26.2515E-03     45.0889E-03    -18.8374E-03     68.5428E-03     66.5525E+06     7.56465E+06    -35.4084E+06    -25.6156E+06     66.0825E+06    -1.75815E+06     3.78587E+06         54.4140
             923     13.7485E-03     16.4586E-03     721.223E-03     82.6983E-03    -948.354E-03     423.634E-03    -650.765E-03     82.6983E-03         1.26726     46.2904E-03    -18.0329E-03    -28.2575E-03    -25.3529E-03     43.3858E-03    -18.0329E-03     28.1036E-03     50.2475E+06    -23.1219E+06    -45.4092E+06    -23.0893E+06     50.2148E+06    -45.4092E+06    -302.386E+03         42.7722
             924     12.7720E-03     16.4249E-03     750.013E-03     54.4520E-03    -988.953E-03     510.512E-03    -749.452E-03     54.4520E-03         1.18490     41.3872E-03    -17.4578E-03    -23.9294E-03    -22.8949E-03     40.3527E-03    -17.4578E-03     13.7868E-03     31.8166E+06    -21.2925E+06    -55.1870E+06    -21.1705E+06     31.6946E+06    -55.1870E+06     226.208E+03         34.2388
             925     11.7945E-03     16.4130E-03     710.390E-03     14.5308E-03    -953.504E-03     568.998E-03    -812.112E-03     14.5308E-03     903.226E-03     38.5157E-03    -17.1019E-03    -21.4138E-03    -21.2949E-03     38.3968E-03    -17.1019E-03     4.13950E-03    -80.1757E+03    -26.7033E+06    -52.3962E+06    -16.8002E+06    -9.98322E+06    -52.3962E+06    -272.252E+03         28.8759
             926     10.8143E-03     16.4009E-03     633.272E-03    -36.8096E-03    -873.298E-03     591.160E-03    -831.186E-03    -36.8096E-03     377.631E-03     37.1580E-03    -16.9090E-03    -20.2490E-03    -20.2004E-03     37.1094E-03    -16.9090E-03     2.23180E-03    -11.6337E+06    -28.6926E+06    -54.3736E+06    -11.7265E+06    -49.5179E+06    -33.4554E+06     680.409E+03         25.8809
             927     9.83451E-03     16.3917E-03     627.148E-03    -98.7312E-03    -854.313E-03     570.608E-03    -797.773E-03    -98.7312E-03    -366.792E-03     36.1311E-03    -16.6946E-03    -19.4366E-03    -19.4072E-03     36.1017E-03    -16.6946E-03     957.637E-06    -7.88889E+06    -25.0288E+06    -76.3829E+06    -7.97454E+06    -76.2973E+06    -25.0288E+06     2.15940E+06         24.3266
             928     8.85283E-03     16.3828E-03     801.621E-03    -169.959E-03    -999.595E-03     508.096E-03    -706.070E-03    -169.959E-03        -1.25714     35.1214E-03    -16.5078E-03    -18.6136E-03    -18.5954E-03     35.1032E-03    -16.5078E-03    -96.7350E-06    -5.02457E+06    -19.3728E+06    -103.096E+06    -5.06541E+06    -103.055E+06    -19.3728E+06     1.71014E+06         23.5311
             929     7.87106E-03     16.3763E-03         1.08926    -248.366E-03        -1.24736     399.413E-03    -557.516E-03    -248.366E-03        -2.10629     34.3815E-03    -16.3733E-03    -18.0082E-03    -17.9942E-03     34.3675E-03    -16.3733E-03    -406.223E-06    -3.88358E+06    -10.7827E+06    -128.940E+06    -3.92261E+06    -128.901E+06    -10.7827E+06     1.80536E+06         23.0998
             930     6.88846E-03     16.3690E-03         1.38178    -331.082E-03        -1.49567     254.628E-03    -368.514E-03    -331.082E-03        -2.79771     33.6868E-03    -16.2161E-03    -17.4707E-03    -17.4600E-03     33.6761E-03    -16.2161E-03    -369.416E-06    -2.78152E+06    -7.48096E+06    -141.150E+06    -2.85305E+06    -141.078E+06    -7.48096E+06     2.54147E+06         22.8382
             931     5.90523E-03     16.3636E-03         1.57233    -414.725E-03        -1.64219     80.9414E-03    -150.796E-03    -414.725E-03        -3.19826     33.1027E-03    -16.0824E-03    -17.0202E-03    -17.0110E-03     33.0934E-03    -16.0824E-03    -406.313E-06    -1.43556E+06    -4.44126E+06    -154.192E+06    -1.59007E+06    -154.099E+06    -4.37893E+06     3.24807E+06         22.6600
             932     4.92187E-03     16.3580E-03         1.68564    -495.654E-03        -1.71893    -105.018E-03     71.7238E-03    -495.654E-03        -3.39302     32.5767E-03    -15.9523E-03    -16.6244E-03    -16.6165E-03     32.5688E-03    -15.9523E-03    -366.852E-06    -317.322E+03    -4.19587E+06    -164.009E+06    -480.407E+03    -163.908E+06    -4.13354E+06     3.34883E+06         22.5287
             933     3.93769E-03     16.3541E-03         1.67025    -569.761E-03        -1.66567    -293.898E-03     298.475E-03    -569.761E-03        -3.26704     32.1772E-03    -15.8419E-03    -16.3353E-03    -16.3302E-03     32.1721E-03    -15.8419E-03    -440.089E-06     615.608E+03    -3.55127E+06    -172.711E+06     318.450E+03    -172.601E+06    -3.36360E+06     2.96460E+06         22.4286
             934     2.95412E-03     16.3503E-03         1.61299    -634.246E-03        -1.56870    -457.153E-03     501.447E-03    -634.246E-03        -3.02246     31.8305E-03    -15.7575E-03    -16.0730E-03    -16.0695E-03     31.8270E-03    -15.7575E-03    -496.011E-06     1.62107E+06    -532.148E+03    -178.745E+06     277.994E+03    -178.667E+06     733.513E+03     2.14110E+06         22.3530
             935     1.96913E-03     16.3490E-03         1.36262    -681.653E-03        -1.28173    -611.586E-03     692.477E-03    -681.653E-03        -2.19226     31.4564E-03    -15.6681E-03    -15.7883E-03    -15.7807E-03     31.4543E-03    -15.6736E-03    -326.397E-06     576.492E+03    -2.60047E+06    -181.760E+06    -2.63395E+06    -181.726E+06     576.492E+03     727.799E+03         22.2993
             936     984.924E-06     16.3470E-03         1.86604    -356.994E-03        -2.10878     566.499E-03     799.102E-03        -1.96534        -1.85353     31.2473E-03    -15.4557E-03    -15.7916E-03    -15.6274E-03     31.2467E-03    -15.6193E-03    -217.848E-06     347.068E+03    -7.69305E+06    -190.241E+06    -4.83224E+06    -190.205E+06    -2.55031E+06     40.5254E+03         22.2664
             937     16.6809E-03     15.9240E-03     264.648E-03     123.249E-03    -391.550E-03     125.505E-03    -257.618E-03     128.460E-03     525.590E-03     391.270E-03    -19.5159E-03    -371.754E-03    -125.933E-03     145.449E-03    -19.5159E-03     711.453E-03     153.637E+06     117.676E+06    -16.7051E+06    -16.4724E+06     138.473E+06     132.607E+06     5.54801E+06         78.1494
             938     15.7085E-03     15.5695E-03     523.149E-03     155.828E-03    -710.301E-03     297.826E-03    -484.978E-03     155.828E-03     950.534E-03     125.062E-03    -19.1472E-03    -105.915E-03    -30.2745E-03     49.4217E-03    -19.1472E-03     212.414E-03     106.921E+06     62.9895E+06    -20.6626E+06    -20.4790E+06     106.737E+06     62.9895E+06     4.00045E+06         67.1125
             939     14.7304E-03     15.4499E-03     740.188E-03     148.207E-03    -973.674E-03     466.991E-03    -700.477E-03     148.207E-03         1.25215     59.1579E-03    -18.2472E-03    -40.9107E-03    -27.9784E-03     46.2256E-03    -18.2472E-03     61.0050E-03     69.2349E+06     11.5904E+06    -33.4403E+06    -19.9757E+06     69.1704E+06    -1.80981E+06     1.21611E+06         54.2207
             940     13.7584E-03     15.4122E-03     882.005E-03     122.554E-03        -1.13949     608.157E-03    -865.639E-03     122.554E-03         1.37908     44.1380E-03    -17.3290E-03    -26.8090E-03    -25.4405E-03     42.7695E-03    -17.3290E-03     18.7363E-03     51.3825E+06    -19.2537E+06    -46.1825E+06    -19.1945E+06     51.3233E+06    -46.1825E+06     955.133E+03         42.6741
             941     12.7829E-03     15.3853E-03     938.144E-03     81.8409E-03        -1.20148     715.472E-03    -978.805E-03     81.8409E-03         1.29995     39.9929E-03    -16.7078E-03    -23.2852E-03    -22.8685E-03     39.5763E-03    -16.7078E-03     6.45183E-03     32.9329E+06    -16.0646E+06    -52.4133E+06    -15.9206E+06     32.7889E+06    -52.4133E+06    -876.569E+03         34.1651
             942     11.8033E-03     15.3734E-03     920.380E-03     26.5770E-03        -1.17673     780.797E-03        -1.03714     26.5770E-03         1.02895     37.3401E-03    -16.2970E-03    -21.0431E-03    -21.0044E-03     37.3013E-03    -16.2970E-03    -1.52080E-03     462.808E+03    -23.5288E+06    -51.3360E+06    -12.6292E+06    -10.8175E+06    -50.9552E+06    -1.00869E+06         28.7946
             943     10.8246E-03     15.3643E-03     845.875E-03    -42.7664E-03        -1.08291     797.576E-03        -1.03461    -42.7664E-03     517.477E-03     36.1143E-03    -16.0414E-03    -20.0729E-03    -20.0227E-03     36.0641E-03    -16.0414E-03    -2.40978E-03    -11.8277E+06    -30.2812E+06    -55.3129E+06    -11.9408E+06    -50.5934E+06    -34.8876E+06     384.860E+03         25.7843
             944     9.84332E-03     15.3553E-03     787.689E-03    -124.958E-03    -991.858E-03     757.710E-03    -961.878E-03    -124.958E-03    -193.252E-03     34.7783E-03    -15.7636E-03    -19.0147E-03    -18.9483E-03     34.7119E-03    -15.7636E-03    -3.21193E-03    -9.99928E+06    -27.9727E+06    -76.3965E+06    -10.0152E+06    -76.3806E+06    -27.9727E+06     472.801E+03         24.2171
             945     8.86190E-03     15.3489E-03     863.730E-03    -217.979E-03        -1.01865     662.032E-03    -816.948E-03    -217.979E-03        -1.05335     33.6745E-03    -15.5264E-03    -18.1481E-03    -18.0691E-03     33.5955E-03    -15.5264E-03    -3.65514E-03    -7.31074E+06    -22.4416E+06    -103.345E+06    -7.35549E+06    -103.300E+06    -22.4416E+06     1.37434E+06         23.4121
             946     7.87906E-03     15.3421E-03         1.05763    -318.930E-03        -1.15156     512.005E-03    -605.931E-03    -318.930E-03        -1.86695     32.7541E-03    -15.3404E-03    -17.4137E-03    -17.3371E-03     32.6774E-03    -15.3404E-03    -3.57061E-03    -5.90483E+06    -13.9361E+06    -128.645E+06    -5.96751E+06    -128.582E+06    -13.9361E+06     1.86164E+06         22.9736
             947     6.89584E-03     15.3370E-03         1.31486    -424.082E-03        -1.34359     317.393E-03    -346.123E-03    -424.082E-03        -2.55309     31.8562E-03    -15.1312E-03    -16.7250E-03    -16.6621E-03     31.7932E-03    -15.1312E-03    -3.15901E-03    -4.69694E+06    -12.1839E+06    -141.008E+06    -4.75656E+06    -140.948E+06    -12.1839E+06     1.88592E+06         22.7056
             948     5.91196E-03     15.3312E-03         1.49602    -529.314E-03        -1.46056     93.5873E-03    -58.1285E-03    -529.314E-03        -2.93964     31.1141E-03    -14.9613E-03    -16.1528E-03    -16.1023E-03     31.0636E-03    -14.9613E-03    -2.83102E-03    -3.08675E+06    -9.10839E+06    -154.779E+06    -3.15794E+06    -154.708E+06    -9.10839E+06     2.32937E+06         22.5214
             949     4.92737E-03     15.3272E-03         1.64518    -630.308E-03        -1.55342    -143.672E-03     235.432E-03    -630.308E-03        -3.16506     30.4735E-03    -14.8137E-03    -15.6598E-03    -15.6206E-03     30.4343E-03    -14.8137E-03    -2.46770E-03    -2.32936E+06    -6.20449E+06    -164.359E+06    -2.46854E+06    -164.220E+06    -6.20449E+06     3.19638E+06         22.3847
             950     3.94279E-03     15.3229E-03         1.66148    -722.413E-03        -1.51286    -378.372E-03     526.984E-03    -722.413E-03        -3.01588     29.8898E-03    -14.6816E-03    -15.2082E-03    -15.1807E-03     29.8623E-03    -14.6816E-03    -2.05543E-03    -1.96832E+06    -6.20678E+06    -171.873E+06     -2.1312E+06    -171.711E+06    -6.20678E+06     4.11244E+06         22.2802
             951     2.95691E-03     15.3205E-03         1.68997    -801.960E-03        -1.48780    -585.053E-03     787.228E-03    -801.960E-03        -2.85583     29.4784E-03    -14.5955E-03    -14.8829E-03    -14.8624E-03     29.4580E-03    -14.5955E-03    -1.75523E-03    -1.16178E+06    -3.62212E+06    -176.450E+06    -1.49086E+06    -176.376E+06    -3.36750E+06     2.41260E+06         22.2011
             952     1.97176E-03     15.3186E-03         1.53002    -862.318E-03        -1.27777    -766.690E-03         1.01894    -862.318E-03        -1.94729     29.2235E-03    -14.5330E-03    -14.6905E-03    -14.6781E-03     29.2111E-03    -14.5330E-03    -1.33608E-03     1.52952E+06    -1.75897E+06    -178.847E+06    -1.77741E+06    -178.828E+06     1.52952E+06     1.01922E+06         22.1450
             953     985.737E-06     15.3176E-03         1.98943    -644.856E-03        -1.95625     147.516E-03         1.16095        -1.92015        -1.98646     28.9567E-03    -14.3634E-03    -14.5933E-03    -14.5650E-03     28.9520E-03    -14.3870E-03    -647.437E-06     1.25409E+06    -7.01857E+06    -190.181E+06    -4.84676E+06    -190.158E+06    -940.921E+03    -63.4286E+03         22.1107
             954     16.6945E-03     14.8921E-03     315.067E-03     150.251E-03    -430.600E-03     152.252E-03    -292.572E-03     175.037E-03     566.062E-03     393.755E-03    -19.0398E-03    -374.715E-03    -135.331E-03     154.370E-03    -19.0398E-03     709.648E-03     156.173E+06     118.468E+06    -15.1304E+06    -14.9271E+06     139.692E+06     134.746E+06     5.53759E+06         77.5036
             955     15.7149E-03     14.5167E-03     611.748E-03     191.670E-03    -821.112E-03     379.362E-03    -588.726E-03     191.670E-03         1.05449     125.412E-03    -18.2743E-03    -107.137E-03    -33.0128E-03     51.2871E-03    -18.2743E-03     211.276E-03     109.381E+06     65.0440E+06    -17.2505E+06    -17.1568E+06     109.287E+06     65.0440E+06     2.47017E+06         66.5727
             956     14.7502E-03     14.4066E-03     862.660E-03     176.260E-03        -1.11828     580.904E-03    -836.520E-03     176.260E-03         1.38314     55.6536E-03    -17.2312E-03    -38.4224E-03    -28.0706E-03     45.3017E-03    -17.2312E-03     52.7722E-03     70.1606E+06     12.6651E+06    -30.5945E+06    -17.8197E+06     70.1148E+06     -64.012E+03     388.955E+03         53.8729
             957     13.7725E-03     14.3677E-03         1.03115     142.336E-03        -1.30704     744.586E-03        -1.02048     142.336E-03         1.53064     40.8529E-03    -16.2610E-03    -24.5919E-03    -23.9388E-03     40.1998E-03    -16.2610E-03     11.8472E-03     52.3030E+06    -14.3605E+06    -47.2872E+06    -14.2737E+06     52.2162E+06    -47.2872E+06    -537.460E+03         42.4538
             958     12.7960E-03     14.3459E-03         1.10351     91.5748E-03        -1.37868     864.994E-03        -1.14016     91.5748E-03         1.45836     37.8073E-03    -15.6332E-03    -22.1741E-03    -21.9995E-03     37.6327E-03    -15.6332E-03     427.373E-06     33.4583E+06    -11.5223E+06    -56.1019E+06    -11.1732E+06     33.1092E+06    -56.1019E+06    -311.472E+03         34.0008
             959     11.8174E-03     14.3366E-03         1.09708     24.1473E-03        -1.35322     936.836E-03        -1.19297     24.1473E-03         1.19869     35.8203E-03    -15.2302E-03    -20.5901E-03    -20.4253E-03     35.6555E-03    -15.2302E-03    -5.78355E-03     1.72339E+06    -23.7135E+06    -49.2328E+06    -10.9632E+06    -11.4077E+06    -48.8520E+06     1.67710E+06         28.6510
             960     10.8362E-03     14.3278E-03         1.01658    -59.5051E-03        -1.23779     950.049E-03        -1.17125    -59.5051E-03     705.217E-03     34.3900E-03    -14.9389E-03    -19.4511E-03    -19.2615E-03     34.2004E-03    -14.9389E-03    -6.14769E-03    -9.51935E+06    -30.9606E+06    -50.3651E+06    -9.60878E+06    -49.5193E+06    -31.7170E+06     1.03227E+06         25.6450
             961     9.85534E-03     14.3219E-03     917.003E-03    -158.002E-03        -1.08736     898.180E-03        -1.06854    -158.002E-03     25.3286E-03     33.1324E-03    -14.6091E-03    -18.5234E-03    -18.2975E-03     32.9066E-03    -14.6091E-03    -6.59380E-03    -7.37246E+06    -26.8701E+06    -76.0545E+06    -7.37455E+06    -76.0525E+06    -26.8701E+06    -228.465E+03         24.0768
             962     8.87246E-03     14.3156E-03     906.258E-03    -268.900E-03        -1.01065     778.989E-03    -883.384E-03    -268.900E-03    -803.557E-03     31.9054E-03    -14.3216E-03    -17.5838E-03    -17.3482E-03     31.6698E-03    -14.3216E-03    -6.63888E-03    -5.19362E+06    -21.8044E+06    -105.298E+06    -5.23174E+06    -105.259E+06    -21.8044E+06     1.09973E+06         23.2690
             963     7.88941E-03     14.3111E-03         1.00805    -388.572E-03        -1.03505     595.236E-03    -622.241E-03    -388.572E-03        -1.58698     30.8060E-03    -14.0837E-03    -16.7222E-03    -16.5043E-03     30.5881E-03    -14.0837E-03    -6.27163E-03    -3.59952E+06    -12.1083E+06    -127.896E+06    -3.65736E+06    -127.838E+06    -12.1083E+06     1.97806E+06         22.8263
             964     6.90506E-03     14.3061E-03         1.22447    -512.514E-03        -1.17005     360.827E-03    -306.401E-03    -512.514E-03        -2.26624     29.7149E-03    -13.8332E-03    -15.8816E-03    -15.6940E-03     29.5273E-03    -13.8332E-03    -5.66975E-03    -2.45740E+06    -8.54869E+06    -140.690E+06    -2.50641E+06    -140.641E+06    -8.54869E+06     1.49101E+06         22.5531
             965     5.92004E-03     14.3020E-03         1.40334    -635.883E-03        -1.26642     93.8509E-03     43.0679E-03    -635.883E-03        -2.64895     28.7244E-03    -13.6092E-03    -15.1152E-03    -14.9676E-03     28.5767E-03    -13.6092E-03    -4.93587E-03    -1.67194E+06    -8.03293E+06    -155.286E+06    -1.71755E+06    -155.240E+06    -8.03293E+06     1.64519E+06         22.3631
             966     4.93453E-03     14.2981E-03         1.59293    -753.823E-03        -1.37887    -185.032E-03     399.094E-03    -753.823E-03        -2.89893     27.8932E-03    -13.4340E-03    -14.4592E-03    -14.3464E-03     27.7804E-03    -13.4340E-03    -4.22267E-03     21.7470E+03    -4.91724E+06    -165.805E+06    -94.1800E+03    -165.689E+06    -4.91724E+06     3.07573E+06         22.2208
             967     3.94794E-03     14.2952E-03         1.66237    -861.247E-03        -1.37696    -459.145E-03     744.553E-03    -861.247E-03        -2.75105     27.2213E-03    -13.2977E-03    -13.9235E-03    -13.8445E-03     27.1422E-03    -13.2977E-03    -3.49061E-03     2.42974E+06    -1.12604E+06    -170.629E+06     2.23459E+06    -170.491E+06    -1.06950E+06     4.05953E+06         22.1114
             968     2.96162E-03     14.2928E-03         1.77297    -954.314E-03        -1.41710    -699.094E-03         1.05497    -954.314E-03        -2.65555     26.7617E-03    -13.1880E-03    -13.5737E-03    -13.5205E-03     26.7085E-03    -13.1880E-03    -2.84073E-03     3.33043E+06     1.57134E+06    -172.285E+06     3.06978E+06    -172.226E+06     1.77283E+06     2.98525E+06         22.0287
             969     1.97440E-03     14.2911E-03         1.71868        -1.02007        -1.32152    -911.297E-03         1.31403        -1.02565        -1.73435     26.3962E-03    -13.1037E-03    -13.2924E-03    -13.2612E-03     26.3649E-03    -13.1037E-03    -2.16421E-03     3.85976E+06     1.36958E+06    -178.363E+06     1.58510E+06    -178.339E+06     3.62033E+06     1.80283E+06         21.9701
             970     987.629E-06     14.2907E-03         2.17426    -893.530E-03        -1.90295    -209.293E-03         1.48667        -1.89960        -2.00966     26.1096E-03    -12.9809E-03    -13.1288E-03    -13.0091E-03     26.0981E-03    -13.0889E-03    -1.03414E-03     2.35681E+06    -3.03151E+06    -189.433E+06    -842.545E+03    -189.427E+06     161.803E+03     457.968E+03         21.9345
             971     16.7198E-03     13.8767E-03     362.558E-03     156.003E-03    -477.934E-03     176.767E-03    -336.288E-03     200.147E-03     608.267E-03     394.285E-03    -18.2329E-03    -376.052E-03    -144.412E-03     162.645E-03    -18.2329E-03     703.826E-03     156.463E+06     114.158E+06    -13.6588E+06    -13.5264E+06     139.854E+06     130.634E+06     3.53045E+06         76.6009
             972     15.7430E-03     13.4683E-03     682.394E-03     202.421E-03    -914.483E-03     432.536E-03    -664.625E-03     202.421E-03         1.15897     128.334E-03    -17.0253E-03    -111.308E-03    -35.4989E-03     52.5242E-03    -17.0253E-03     217.034E-03     109.953E+06     62.6349E+06    -14.2164E+06    -14.1796E+06     109.916E+06     62.6349E+06     450.824E+03         65.8355
             973     14.7665E-03     13.3613E-03     952.698E-03     179.645E-03        -1.22321     646.578E-03    -917.086E-03     179.645E-03         1.51274     50.9026E-03    -15.9352E-03    -34.9674E-03    -26.5502E-03     42.4853E-03    -15.9352E-03     44.8532E-03     70.5016E+06     16.6478E+06    -29.8459E+06    -13.6508E+06     70.3371E+06     617.159E+03    -2.10180E+06         53.3617
             974     13.7923E-03     13.3301E-03         1.13540     139.622E-03        -1.41728     820.710E-03        -1.10259     139.622E-03         1.67556     37.2306E-03    -14.9913E-03    -22.2392E-03    -21.9147E-03     36.9061E-03    -14.9913E-03     7.59679E-03     51.8263E+06    -13.4609E+06    -47.8556E+06    -13.1278E+06     51.4933E+06    -47.8556E+06    -1.12263E+06         42.1094
             975     12.8114E-03     13.3078E-03         1.21679     82.0073E-03        -1.48942     948.850E-03        -1.22148     82.0073E-03         1.61240     35.1450E-03    -14.4139E-03    -20.7312E-03    -20.4863E-03     34.9001E-03    -14.4139E-03    -3.13143E-03     32.3421E+06    -13.3340E+06    -54.9684E+06    -12.8994E+06     31.9075E+06    -54.9684E+06     2.45833E+06         33.7500
             976     11.8317E-03     13.3011E-03         1.21499     6.48041E-03        -1.45752         1.02397        -1.26651     6.48041E-03         1.36618     33.8208E-03    -14.0101E-03    -19.8108E-03    -19.4239E-03     33.4340E-03    -14.0101E-03    -8.88472E-03     2.01508E+06    -22.8449E+06    -47.5415E+06    -10.5838E+06    -10.9158E+06    -46.8717E+06     2.75996E+06         28.4503
             977     10.8506E-03     13.2951E-03         1.13046    -86.7796E-03        -1.32365         1.03842        -1.23162    -86.7796E-03     892.993E-03     32.3963E-03    -13.6848E-03    -18.7115E-03    -18.3569E-03     32.0417E-03    -13.6848E-03    -8.41754E-03    -7.91516E+06    -29.4834E+06    -47.1402E+06    -8.02385E+06    -46.2751E+06    -30.2399E+06     1.24074E+06         25.4694
             978     9.86792E-03     13.2888E-03         1.00217    -196.490E-03        -1.13086     980.609E-03        -1.10930    -196.490E-03     244.911E-03     31.2046E-03    -13.3292E-03    -17.8754E-03    -17.4621E-03     30.7912E-03    -13.3292E-03    -8.89284E-03    -6.63897E+06    -24.1810E+06    -76.1770E+06    -6.64137E+06    -76.1746E+06    -24.1810E+06     54.1926E+03         23.9127
             979     8.88514E-03     13.2859E-03     924.754E-03    -320.007E-03    -973.458E-03     848.967E-03    -897.671E-03    -320.007E-03    -549.396E-03     29.9134E-03    -12.9934E-03    -16.9200E-03    -16.5058E-03     29.4992E-03    -12.9934E-03    -8.70847E-03    -5.16119E+06    -19.2776E+06    -106.808E+06    -5.17411E+06    -106.795E+06    -19.2776E+06     725.178E+03         23.1093
             980     7.90048E-03     13.2811E-03     946.807E-03    -453.284E-03    -907.445E-03     643.623E-03    -604.260E-03    -453.284E-03        -1.30184     28.6109E-03    -12.6896E-03    -15.9212E-03    -15.5510E-03     28.2407E-03    -12.6896E-03    -8.03754E-03    -2.22697E+06    -10.4819E+06    -126.978E+06    -2.27268E+06    -126.932E+06    -10.4819E+06     1.03142E+06         22.6664
             981     6.91559E-03     13.2786E-03         1.12037    -591.054E-03    -987.559E-03     379.859E-03    -247.053E-03    -591.054E-03        -1.96593     27.3531E-03    -12.3968E-03    -14.9563E-03    -14.6281E-03     27.0248E-03    -12.3968E-03    -7.36690E-03     593.696E+03    -4.51846E+06    -141.076E+06     544.394E+03    -141.026E+06    -4.51846E+06     851.310E+03         22.3901
             982     5.92931E-03     13.2749E-03         1.30310    -727.909E-03        -1.07182     82.5816E-03     148.701E-03    -727.909E-03        -2.34549     26.1092E-03    -12.1246E-03    -13.9846E-03    -13.7212E-03     25.8458E-03    -12.1246E-03    -6.41730E-03     1.64339E+06    -4.30198E+06    -156.201E+06     1.59798E+06    -156.156E+06    -4.30198E+06     2.22174E+06         22.1954
             983     4.94212E-03     13.2726E-03         1.53408    -858.471E-03        -1.20943    -228.816E-03     553.475E-03    -858.471E-03        -2.61217     25.0790E-03    -11.9043E-03    -13.1747E-03    -12.9706E-03     24.8750E-03    -11.9043E-03    -5.51065E-03     1.97873E+06    -3.25792E+06    -166.029E+06     1.92720E+06    -165.977E+06    -3.25792E+06     2.78169E+06         22.0478
             984     3.95461E-03     13.2700E-03         1.67138    -977.526E-03        -1.25871    -529.725E-03     942.395E-03    -977.526E-03        -2.48181     24.2661E-03    -11.7269E-03    -12.5392E-03    -12.3968E-03     24.1236E-03    -11.7269E-03    -4.49773E-03     2.41655E+06    -1.60144E+06    -169.039E+06     2.29545E+06    -168.975E+06    -1.54490E+06     3.02476E+06         21.9336
             985     2.96622E-03     13.2681E-03         1.85044        -1.08056        -1.36131    -799.024E-03         1.28815        -1.08056        -2.43366     23.6323E-03    -11.5964E-03    -12.0359E-03    -11.9476E-03     23.5440E-03    -11.5964E-03    -3.49700E-03     3.34731E+06     476.826E+03    -170.861E+06     3.20936E+06    -170.780E+06     533.366E+03     3.61271E+06         21.8472
             986     1.97792E-03     13.2671E-03         1.89011        -1.13558        -1.37672        -1.02786         1.56650        -1.16084        -1.55112     23.2194E-03    -11.5319E-03    -11.6875E-03    -11.6367E-03     23.1686E-03    -11.5319E-03    -2.60043E-03     4.85881E+06     2.82829E+06    -177.230E+06     3.79709E+06    -177.163E+06     3.82246E+06     3.36447E+06         21.7863
             987     988.571E-06     13.2668E-03         2.30869        -1.10211        -1.84117    -547.184E-03         1.75376        -1.84117        -1.94010     23.0247E-03    -11.4258E-03    -11.5989E-03    -11.4971E-03     23.0074E-03    -11.5103E-03    -1.27821E-03     4.38709E+06     640.852E+03    -186.403E+06     2.26640E+06    -186.364E+06     2.72253E+06     2.25936E+06         21.7494
             988     16.7265E-03     12.8403E-03     386.131E-03     156.566E-03    -531.155E-03     197.611E-03    -387.164E-03     201.094E-03     646.802E-03     390.690E-03    -17.5790E-03    -373.111E-03    -151.913E-03     169.492E-03    -17.5790E-03     691.018E-03     159.159E+06     118.392E+06    -11.1552E+06    -10.9583E+06     142.368E+06     134.986E+06     2.93327E+06         75.4013
             989     15.7597E-03     12.4183E-03     717.906E-03     188.056E-03    -971.569E-03     450.137E-03    -703.800E-03     188.056E-03         1.23329     129.306E-03    -15.7945E-03    -113.512E-03    -40.5890E-03     56.3835E-03    -15.7945E-03     217.834E-03     112.824E+06     63.7822E+06    -9.66831E+06    -9.60888E+06     112.764E+06     63.7822E+06    -2.26687E+06         64.8815
             990     14.7917E-03     12.3237E-03     990.642E-03     159.564E-03        -1.26578     659.183E-03    -934.319E-03     159.564E-03         1.59709     45.7845E-03    -14.5573E-03    -31.2272E-03    -23.8264E-03     38.3837E-03    -14.5573E-03     40.4298E-03     68.2854E+06     11.6099E+06    -30.5475E+06    -12.9960E+06     67.7572E+06    -5.41347E+06    -642.778E+03         52.6996
             991     13.8081E-03     12.2938E-03         1.17580     116.304E-03        -1.45012     832.019E-03        -1.10634     116.304E-03         1.76867     34.1666E-03    -13.7224E-03    -20.4442E-03    -20.0537E-03     33.7761E-03    -13.7224E-03     7.24567E-03     50.3964E+06    -17.2489E+06    -46.6015E+06    -16.6047E+06     49.7522E+06    -46.6015E+06     1.54194E+06         41.6497
             992     12.8296E-03     12.2734E-03         1.25971     55.6206E-03        -1.51467     961.994E-03        -1.21695     55.6206E-03         1.71324     32.5340E-03    -13.1954E-03    -19.3386E-03    -19.0762E-03     32.2716E-03    -13.1954E-03    -3.83183E-03     32.7220E+06    -13.4613E+06    -47.9470E+06    -13.2652E+06     32.5259E+06    -47.9470E+06     1.27231E+06         33.4236
             993     11.8468E-03     12.2688E-03         1.26064    -23.4031E-03        -1.47726         1.03966        -1.25628    -23.4031E-03         1.48301     31.4379E-03    -12.7864E-03    -18.6515E-03    -18.1851E-03     30.9715E-03    -12.7864E-03    -9.57389E-03     3.00537E+06    -19.2676E+06    -43.4351E+06    -7.45381E+06    -10.8194E+06    -41.4240E+06     1.87136E+06         28.2032
             994     10.8645E-03     12.2630E-03         1.17579    -120.940E-03        -1.33318         1.05753        -1.21492    -120.940E-03         1.03375     30.3765E-03    -12.4519E-03    -17.9246E-03    -17.4772E-03     29.9291E-03    -12.4519E-03    -9.24228E-03    -4.61144E+06    -22.9114E+06    -44.1299E+06    -4.77881E+06    -43.9625E+06    -22.9114E+06     2.05152E+06         25.2667
             995     9.88152E-03     12.2599E-03         1.03446    -236.041E-03        -1.11660         1.00261        -1.08475    -236.041E-03     420.922E-03     29.1301E-03    -12.0650E-03    -17.0651E-03    -16.5555E-03     28.6205E-03    -12.0650E-03    -9.62966E-03    -4.99244E+06    -17.1965E+06    -76.1715E+06    -5.06467E+06    -76.0992E+06    -17.1965E+06     1.72311E+06         23.7340
             996     8.89694E-03     12.2568E-03     914.934E-03    -366.129E-03    -909.608E-03     868.559E-03    -863.233E-03    -366.129E-03    -332.434E-03     27.8310E-03    -11.6540E-03    -16.1770E-03    -15.6513E-03     27.3053E-03    -11.6540E-03    -9.54981E-03    -4.42970E+06    -17.9955E+06    -105.893E+06    -4.55138E+06    -105.771E+06    -17.9955E+06     164.189E+03         22.9424
             997     7.91218E-03     12.2553E-03     877.591E-03    -506.939E-03    -777.376E-03     655.121E-03    -554.906E-03    -506.939E-03        -1.04748     26.3464E-03    -11.2757E-03    -15.0707E-03    -14.5945E-03     25.8702E-03    -11.2757E-03    -8.81557E-03    -1.31795E+06    -13.4990E+06    -126.704E+06    -1.40186E+06    -126.620E+06    -13.4990E+06    -1.44632E+06         22.5040
             998     6.92551E-03     12.2525E-03         1.01461    -652.753E-03    -814.093E-03     376.562E-03    -176.048E-03    -652.753E-03        -1.68402     24.9278E-03    -10.9428E-03    -13.9849E-03    -13.5476E-03     24.4904E-03    -10.9428E-03    -8.17922E-03     414.348E+03    -6.44476E+06    -143.416E+06     382.234E+03    -143.384E+06    -6.44476E+06     561.519E+03         22.2276
             999     5.93839E-03     12.2517E-03         1.20387    -779.513E-03    -913.981E-03     61.2506E-03     246.734E-03    -797.606E-03        -2.05535     23.5493E-03    -10.6331E-03    -12.9163E-03    -12.5456E-03     23.1787E-03    -10.6331E-03    -7.27535E-03     625.374E+03    -3.27846E+06    -156.973E+06     561.109E+03    -156.909E+06    -3.27846E+06     2.98835E+06         22.0303
            1000     4.95007E-03     12.2494E-03         1.47272    -917.584E-03        -1.07756    -269.336E-03     682.589E-03    -935.677E-03        -2.32859     22.2638E-03    -10.3563E-03    -11.9075E-03    -11.6266E-03     21.9829E-03    -10.3563E-03    -6.13217E-03     916.571E+03    -3.53697E+06    -165.291E+06     834.920E+03    -165.209E+06    -3.53697E+06     3.61307E+06         21.8791
            1001     3.96092E-03     12.2484E-03         1.67564        -1.04436        -1.17954    -585.481E-03         1.09903        -1.06181        -2.22577     21.2233E-03    -10.1391E-03    -11.0841E-03    -10.8907E-03     21.0298E-03    -10.1391E-03    -4.94096E-03     1.83280E+06    -3.61277E+06    -168.056E+06     1.77594E+06    -167.999E+06    -3.61277E+06     3.05593E+06         21.7611
            1002     2.97119E-03     12.2469E-03         1.90859        -1.15346        -1.33280    -873.677E-03         1.46692        -1.17091        -2.21175     20.4757E-03    -10.0157E-03    -10.4601E-03    -10.3419E-03     20.3575E-03    -10.0157E-03    -3.76088E-03     3.76889E+06     380.702E+03    -170.780E+06     3.60921E+06    -170.727E+06     487.663E+03     2.89396E+06         21.6715
            1003     1.98062E-03     12.2464E-03         2.01704        -1.21811        -1.41059        -1.11135         1.75655        -1.25685        -1.39597     20.1156E-03    -9.95547E-03    -10.1601E-03    -10.0946E-03     20.0500E-03    -9.95547E-03    -2.77375E-03     7.66427E+06     4.25515E+06    -174.592E+06     4.99719E+06    -174.537E+06     6.86735E+06     2.55702E+06         21.6084
            1004     990.777E-06     12.2460E-03         2.38486        -1.24871        -1.77194    -814.562E-03         1.95071        -1.77194        -1.80461     19.8513E-03    -9.78618E-03    -10.0651E-03    -9.92385E-03     19.8265E-03    -9.90266E-03    -1.40602E-03     9.15276E+06     3.71491E+06    -181.937E+06     5.33334E+06    -181.891E+06     7.48820E+06     2.47608E+06         21.5704
            1005     16.7340E-03     11.7749E-03     380.321E-03     151.579E-03    -579.617E-03     213.483E-03    -439.964E-03     178.763E-03     659.059E-03     380.196E-03    -16.8921E-03    -363.304E-03    -155.830E-03     172.722E-03    -16.8921E-03     665.315E-03     157.011E+06     116.022E+06    -14.6353E+06    -14.2486E+06     139.336E+06     133.310E+06    -2.51892E+06         73.9879
            1006     15.7879E-03     11.3713E-03     709.400E-03     152.817E-03    -977.374E-03     433.509E-03    -701.483E-03     152.817E-03         1.24756     124.147E-03    -14.7015E-03    -109.446E-03    -41.2052E-03     55.9067E-03    -14.7015E-03     208.727E-03     109.434E+06     60.5914E+06    -15.5351E+06    -15.1504E+06     109.050E+06     60.5914E+06    -2.13273E+06         63.7510
            1007     14.8044E-03     11.2928E-03     966.396E-03     121.398E-03        -1.23353     619.182E-03    -886.320E-03     121.398E-03         1.60349     42.8137E-03    -13.4254E-03    -29.3884E-03    -22.1242E-03     35.5496E-03    -13.4254E-03     40.0645E-03     66.9561E+06     7.17818E+06    -31.3215E+06    -18.5507E+06     66.3630E+06    -4.99957E+06     2.12525E+06         51.8861
            1008     13.8258E-03     11.2578E-03         1.14249     78.1787E-03        -1.39429     781.146E-03        -1.03295     78.1787E-03         1.77037     32.0521E-03    -12.6128E-03    -19.4393E-03    -18.7907E-03     31.4035E-03    -12.6128E-03     9.59337E-03     52.0983E+06    -15.4992E+06    -44.4940E+06    -15.0573E+06     51.6565E+06    -44.4940E+06    -49.4578E+03         41.0839
            1009     12.8425E-03     11.2433E-03         1.22370     18.4709E-03        -1.44885     907.443E-03        -1.13259     18.4709E-03         1.72276     30.2725E-03    -12.0872E-03    -18.1853E-03    -17.9812E-03     30.0684E-03    -12.0872E-03    -2.47244E-03     31.7542E+06    -11.1671E+06    -48.4024E+06    -11.0199E+06     31.6069E+06    -48.4024E+06    -438.011E+03         33.0311
            1010     11.8604E-03     11.2372E-03         1.22828    -59.2398E-03        -1.40959     988.370E-03        -1.16968    -59.2398E-03         1.50937     29.3822E-03    -11.6763E-03    -17.7058E-03    -17.3518E-03     29.0281E-03    -11.6763E-03    -8.09807E-03     1.52217E+06    -18.7310E+06    -42.5600E+06    -8.54486E+06    -10.0053E+06    -41.2187E+06     686.282E+03         27.9189
            1011     10.8773E-03     11.2348E-03         1.14857    -155.587E-03        -1.26698         1.01231        -1.13073    -155.587E-03         1.09283     28.4100E-03    -11.3252E-03    -17.0848E-03    -16.6776E-03     28.0027E-03    -11.3252E-03    -8.52319E-03    -3.52932E+06    -19.0627E+06    -46.8933E+06    -3.76307E+06    -44.5901E+06    -21.1321E+06     721.735E+03         25.0458
            1012     9.89280E-03     11.2314E-03         1.00967    -270.014E-03        -1.04867     966.821E-03        -1.00582    -270.014E-03     520.559E-03     27.2763E-03    -10.9197E-03    -16.3566E-03    -15.8569E-03     26.7766E-03    -10.9197E-03    -9.26497E-03     516.971E+03    -10.5389E+06    -75.3559E+06     441.043E+03    -75.2800E+06    -10.5389E+06     1.98428E+06         23.5489
            1013     8.90832E-03     11.2314E-03     873.129E-03    -400.285E-03    -821.113E-03     841.627E-03    -789.612E-03    -400.285E-03    -182.333E-03     25.9106E-03    -10.4635E-03    -15.4472E-03    -14.8969E-03     25.3604E-03    -10.4635E-03    -9.47404E-03     2.70731E+06    -10.0167E+06    -101.953E+06     2.59098E+06    -101.837E+06    -10.0167E+06    -291.404E+03         22.7769
            1014     7.92197E-03     11.2301E-03     804.024E-03    -518.189E-03    -679.168E-03     633.175E-03    -484.324E-03    -542.184E-03    -849.188E-03     24.3645E-03    -10.0416E-03    -14.3228E-03    -13.7878E-03     23.8295E-03    -10.0416E-03    -9.02981E-03     2.82389E+06    -7.47997E+06    -128.269E+06     2.15394E+06    -128.203E+06    -6.87566E+06    -1.28539E+06         22.3487
            1015     6.93512E-03     11.2306E-03     914.954E-03    -638.362E-03    -716.802E-03     354.748E-03    -105.188E-03    -689.770E-03        -1.44475     22.7418E-03    -9.65565E-03    -13.0862E-03    -12.5877E-03     22.2434E-03    -9.65565E-03    -8.38761E-03     2.94323E+06    -1.60486E+06    -146.015E+06     2.33461E+06    -146.011E+06    -1.00055E+06     341.881E+03         22.0768
            1016     5.94660E-03     11.2295E-03         1.10997    -737.921E-03    -849.439E-03     35.6263E-03     323.684E-03    -836.699E-03        -1.79787     21.2073E-03    -9.30686E-03    -11.9005E-03    -11.4676E-03     20.7745E-03    -9.30686E-03    -7.51353E-03     5.87236E+06     3.79203E+06    -157.971E+06     4.98375E+06     -157.93E+06     4.64014E+06     1.69333E+06         21.8806
            1017     4.95729E-03     11.2303E-03         1.40413    -903.937E-03        -1.00686    -299.016E-03     769.286E-03    -976.932E-03        -2.06311     19.7308E-03    -8.99763E-03    -10.7332E-03    -10.4094E-03     19.4070E-03    -8.99763E-03    -6.22001E-03     8.45623E+06     5.31733E+06    -164.433E+06     7.23931E+06    -164.362E+06     6.46394E+06     3.22929E+06         21.7284
            1018     3.96668E-03     11.2290E-03         1.65490        -1.05231        -1.13491    -621.779E-03         1.19444        -1.10498        -1.99056     18.5323E-03    -8.75822E-03    -9.77406E-03    -9.55700E-03     18.3152E-03    -8.75822E-03    -4.92001E-03     9.61782E+06     6.14218E+06    -166.885E+06     8.71239E+06    -166.836E+06     6.99838E+06     2.77508E+06         21.6087
            1019     2.97545E-03     11.2294E-03         1.92451        -1.16521        -1.31457    -910.677E-03         1.57166        -1.21625        -1.99688     17.7451E-03    -8.61289E-03    -9.13221E-03    -9.00089E-03     17.6138E-03    -8.61289E-03    -3.69210E-03     11.7591E+06     8.22477E+06    -169.680E+06     8.89951E+06    -169.648E+06     11.0524E+06     2.26949E+06         21.5173
            1020     1.98404E-03     11.2282E-03         2.07360        -1.26918        -1.40212        -1.15723         1.86333        -1.30380        -1.26711     17.2312E-03    -8.49337E-03    -8.73780E-03    -8.65969E-03     17.1646E-03    -8.50491E-03    -2.59909E-03     12.7783E+06     6.94761E+06    -172.184E+06     6.92109E+06    -172.158E+06     12.7783E+06     1.82283E+06         21.4529
            1021     992.046E-06     11.2287E-03         2.40235        -1.31684        -1.70235    -978.565E-03         2.06407        -1.70235        -1.64438     16.8734E-03    -8.30886E-03    -8.56449E-03    -8.40908E-03     16.8460E-03    -8.43688E-03    -1.44752E-03     8.78555E+06     3.29323E+06    -179.853E+06     3.90286E+06    -179.799E+06     8.12204E+06     228.994E+03         21.4141
            1022     16.7674E-03     10.7150E-03     356.496E-03     131.153E-03    -609.360E-03     221.907E-03    -481.995E-03     138.378E-03     632.659E-03     370.172E-03    -16.2119E-03    -353.960E-03    -154.876E-03     171.088E-03    -16.2119E-03     644.969E-03     153.221E+06     110.280E+06    -18.0452E+06    -17.6031E+06     135.617E+06     127.442E+06    -1.96166E+06         72.4185
            1023     15.7899E-03     10.3326E-03     653.089E-03     104.542E-03    -922.994E-03     384.980E-03    -654.885E-03     104.542E-03         1.18387     120.062E-03    -13.8859E-03    -106.176E-03    -40.8453E-03     54.7313E-03    -13.8859E-03     201.137E-03     106.365E+06     60.1584E+06    -19.9163E+06    -18.7931E+06     105.242E+06     60.1584E+06    -1.90572E+06         62.4563
            1024     14.8198E-03     10.2557E-03     876.254E-03     73.6990E-03        -1.12274     532.286E-03    -778.772E-03     73.6990E-03         1.50838     41.0489E-03    -12.5930E-03    -28.4559E-03    -21.6777E-03     34.2707E-03    -12.5930E-03     38.6741E-03     68.6702E+06     16.4885E+06    -33.1194E+06    -15.4624E+06     67.8345E+06    -332.883E+03    -3.48419E+06         50.9293
            1025     13.8363E-03     10.2298E-03         1.03371     33.9339E-03        -1.25116     676.575E-03    -894.031E-03     33.9339E-03         1.65676     30.7797E-03    -11.7276E-03    -19.0521E-03    -18.1842E-03     29.9117E-03    -11.7276E-03     11.6262E-03     51.3285E+06    -12.4755E+06    -47.5433E+06    -12.2686E+06     51.1217E+06    -47.5433E+06    -621.157E+03         40.4213
            1026     12.8541E-03     10.2112E-03         1.11109    -20.9035E-03        -1.29682     798.067E-03    -983.803E-03    -20.9035E-03         1.61605     28.6270E-03    -11.2187E-03    -17.4083E-03    -17.2090E-03     28.4277E-03    -11.2187E-03    -620.252E-06     31.5547E+06    -12.3225E+06    -48.0334E+06    -12.0217E+06     31.2540E+06    -48.0334E+06     871.042E+03         32.5792
            1027     11.8708E-03     10.2102E-03         1.11974    -92.7814E-03        -1.26267     880.429E-03        -1.02336    -92.7814E-03         1.42588     27.7578E-03    -10.8067E-03    -16.9511E-03    -16.7246E-03     27.5313E-03    -10.8067E-03    -6.28845E-03     2.69552E+06    -18.6784E+06    -39.5490E+06    -9.11926E+06    -8.20018E+06    -38.2124E+06    -1.04212E+06         27.6034
            1028     10.8868E-03     10.2060E-03         1.05307    -182.752E-03        -1.13524     914.261E-03    -996.427E-03    -182.752E-03         1.04789     26.9017E-03    -10.4292E-03    -16.4725E-03    -16.1806E-03     26.6097E-03    -10.4292E-03    -6.97521E-03    -4.40478E+06    -18.6475E+06    -47.4291E+06    -6.20237E+06    -45.1357E+06    -19.1434E+06    -1.50747E+06         24.8122
            1029     9.90293E-03     10.2066E-03     929.285E-03    -290.758E-03    -934.560E-03     883.344E-03    -888.619E-03    -290.758E-03     526.278E-03     25.7237E-03    -9.98510E-03    -15.7386E-03    -15.3240E-03     25.3091E-03    -9.98510E-03    -8.21722E-03     316.119E+03    -9.45447E+06    -74.1024E+06    -1.49220E+06    -73.8676E+06    -7.88087E+06    -2.39178E+06         23.3632
            1030     8.91691E-03     10.2061E-03     801.920E-03    -415.015E-03    -718.106E-03     776.024E-03    -692.210E-03    -415.015E-03    -114.263E-03     24.2879E-03    -9.51335E-03    -14.7746E-03    -14.2838E-03     23.7972E-03    -9.51335E-03    -8.67789E-03     5.49603E+06    -3.52095E+06    -102.201E+06     3.93199E+06    -102.009E+06    -2.14923E+06    -1.29527E+06         22.6196
            1031     7.93075E-03     10.2085E-03     729.922E-03    -485.976E-03    -618.508E-03     585.420E-03    -408.321E-03    -551.661E-03    -723.256E-03     22.6775E-03    -9.06872E-03    -13.6088E-03    -13.0953E-03     22.1640E-03    -9.06872E-03    -8.56876E-03     7.29488E+06     2.43567E+06    -128.325E+06     4.98430E+06    -128.304E+06     4.72451E+06     338.196E+03         22.2085
            1032     6.94258E-03     10.2091E-03     827.027E-03    -553.467E-03    -694.817E-03     321.399E-03    -47.8389E-03    -694.817E-03        -1.26355     20.8800E-03    -8.62633E-03    -12.2536E-03    -11.7768E-03     20.4031E-03    -8.62633E-03    -7.89021E-03     7.73582E+06     5.13407E+06    -146.032E+06     5.75499E+06    -146.002E+06     7.08451E+06    -1.46213E+06         21.9471
            1033     5.95346E-03     10.2115E-03         1.02023    -642.809E-03    -838.045E-03     14.0754E-03     363.341E-03    -838.045E-03        -1.58507     19.1848E-03    -8.24487E-03    -10.9400E-03    -10.5294E-03     18.7743E-03    -8.24487E-03    -6.98065E-03     11.8261E+06     7.92123E+06    -160.232E+06     8.53557E+06    -160.195E+06     11.1748E+06    -1.44465E+06         21.7573
            1034     4.96281E-03     10.2120E-03         1.31794    -834.186E-03    -975.177E-03    -311.543E-03     795.296E-03    -975.177E-03        -1.83191     17.6745E-03    -7.92568E-03    -9.74884E-03    -9.43651E-03     17.3622E-03    -7.92568E-03    -5.80641E-03     16.3314E+06     11.3368E+06    -164.869E+06     11.3066E+06    -164.839E+06     16.3314E+06     265.113E+03         21.6087
            1035     3.97139E-03     10.2136E-03         1.59012        -1.00384        -1.10077    -625.793E-03         1.21207        -1.10077        -1.77655     16.4081E-03    -7.65813E-03    -8.74995E-03    -8.54451E-03     16.2026E-03    -7.65813E-03    -4.49823E-03     17.1988E+06     12.6496E+06    -166.361E+06     12.6086E+06    -166.320E+06     17.1988E+06     1.72172E+06         21.4908
            1036     2.97913E-03     10.2131E-03         1.87251        -1.13442        -1.27625    -910.783E-03         1.58255        -1.20994        -1.79478     15.4833E-03    -7.46391E-03    -8.01939E-03    -7.90353E-03     15.3674E-03    -7.46391E-03    -3.25408E-03     16.9271E+06     12.1273E+06    -168.936E+06     12.0958E+06    -168.904E+06     16.9271E+06     1.83123E+06         21.4001
            1037     1.98633E-03     10.2139E-03         2.04599        -1.25755        -1.36298        -1.14909         1.87121        -1.29666        -1.15291     14.8506E-03    -7.33344E-03    -7.51713E-03    -7.44939E-03     14.7944E-03    -7.34499E-03    -2.19440E-03     16.6578E+06     11.0137E+06    -170.682E+06     10.9780E+06    -170.646E+06     16.6578E+06     2.11152E+06         21.3357
            1038     993.125E-06     10.2135E-03         2.33358        -1.35774        -1.57247        -1.09458         2.07042        -1.57247        -1.48147     14.5588E-03    -7.22888E-03    -7.32994E-03    -7.29840E-03     14.5388E-03    -7.24043E-03    -1.18157E-03     10.5896E+06     5.79634E+06    -177.957E+06     6.38293E+06    -177.880E+06     9.92613E+06     1.31608E+06         21.2966
            1039     16.7449E-03     9.63641E-03     322.880E-03     88.7582E-03    -607.016E-03     214.583E-03    -498.719E-03     88.7582E-03     562.180E-03     358.066E-03    -15.8118E-03    -342.254E-03    -152.225E-03     168.037E-03    -15.8118E-03     622.026E-03     161.214E+06     124.343E+06    -11.3760E+06    -10.7840E+06     143.564E+06     141.402E+06     2.18535E+06         70.6658
            1040     15.8090E-03     9.28666E-03     546.125E-03     53.5170E-03    -804.642E-03     305.860E-03    -564.377E-03     53.5170E-03         1.03159     111.372E-03    -13.3631E-03    -98.0086E-03    -40.8099E-03     54.1729E-03    -13.3631E-03     183.386E-03     111.485E+06     66.8164E+06    -9.45137E+06    -8.44501E+06     110.478E+06     66.8164E+06    -4.19588E+06         60.9805
            1041     14.8260E-03     9.22697E-03     725.026E-03     26.9076E-03    -938.689E-03     412.070E-03    -625.733E-03     26.9076E-03         1.29980     39.6677E-03    -11.9620E-03    -27.7056E-03    -21.1868E-03     33.1489E-03    -11.9620E-03     37.8771E-03     64.7211E+06     8.99068E+06    -30.1891E+06    -12.3689E+06     64.0067E+06    -8.11506E+06    -3.04744E+06         49.8286
            1042     13.8454E-03     9.19678E-03     859.663E-03    -6.47311E-03        -1.03615     535.985E-03    -712.473E-03    -6.47311E-03         1.42435     30.5865E-03    -11.1224E-03    -19.4641E-03    -18.3795E-03     29.5019E-03    -11.1224E-03     12.7928E-03     49.3923E+06    -16.2319E+06    -46.8110E+06    -15.9888E+06     49.1492E+06    -46.8110E+06     1.71048E+06         39.6553
            1043     12.8625E-03     9.18508E-03     931.674E-03    -53.0850E-03        -1.07550     649.519E-03    -793.343E-03    -53.0850E-03         1.39198     27.3780E-03    -10.6082E-03    -16.7698E-03    -16.6527E-03     27.2609E-03    -10.6082E-03     645.063E-06     33.9932E+06    -12.4709E+06    -40.6710E+06    -12.2576E+06     33.7799E+06    -40.6710E+06    -126.600E+03         32.0680
            1044     11.8778E-03     9.18120E-03     947.339E-03    -115.284E-03        -1.05454     734.190E-03    -841.389E-03    -115.284E-03         1.22877     26.4037E-03    -10.1907E-03    -16.2130E-03    -16.0954E-03     26.2861E-03    -10.1907E-03    -4.27352E-03     2.60402E+06    -17.1581E+06    -33.5751E+06    -9.04206E+06    -7.20220E+06    -31.8849E+06    -1.29914E+06         27.2575
            1045     10.8944E-03     9.18077E-03     899.860E-03    -194.471E-03    -955.344E-03     778.499E-03    -833.983E-03    -194.471E-03     899.594E-03     25.7114E-03    -9.79537E-03    -15.9160E-03    -15.7201E-03     25.5155E-03    -9.79537E-03    -5.60019E-03    -5.37350E+06    -16.1811E+06    -43.2121E+06    -7.39199E+06    -42.7672E+06    -14.6075E+06    -3.49755E+06         24.5676
            1046     9.90893E-03     9.18087E-03     805.381E-03    -291.064E-03    -792.630E-03     766.711E-03    -753.960E-03    -291.064E-03     439.421E-03     24.4109E-03    -9.33747E-03    -15.0734E-03    -14.7715E-03     24.1089E-03    -9.33747E-03    -6.82142E-03    -800.200E+03    -8.86466E+06    -74.6233E+06    -5.52872E+06    -73.9994E+06    -4.76001E+06    -5.72751E+06         23.1798
            1047     8.92362E-03     9.18421E-03     709.212E-03    -403.868E-03    -615.639E-03     684.003E-03    -590.431E-03    -403.868E-03    -129.334E-03     22.9045E-03    -8.84666E-03    -14.0578E-03    -13.6865E-03     22.5332E-03    -8.84666E-03    -7.33767E-03     894.711E+03    -6.15160E+06    -105.585E+06    -3.44891E+06    -105.144E+06    -2.24883E+06    -4.41909E+06         22.4745
            1048     7.93601E-03     9.18655E-03     658.589E-03    -446.731E-03    -562.537E-03     520.615E-03    -341.807E-03    -529.487E-03    -667.624E-03     21.2055E-03    -8.39285E-03    -12.8127E-03    -12.4203E-03     20.8132E-03    -8.39285E-03    -7.23195E-03     7.17590E+06     2.54584E+06    -127.630E+06      2.5889E+06    -127.303E+06     6.80573E+06    -3.78565E+06         22.0890
            1049     6.94776E-03     9.19103E-03     753.133E-03    -488.033E-03    -662.444E-03     284.652E-03    -19.5528E-03    -662.444E-03        -1.14489     19.4527E-03    -7.96832E-03    -11.4844E-03    -11.1161E-03     19.0844E-03    -7.96832E-03    -6.68416E-03     14.2735E+06     7.48166E+06    -145.052E+06     7.35409E+06    -144.924E+06     14.2735E+06    -3.93848E+06         21.8459
            1050     5.95760E-03     9.19363E-03     931.789E-03    -574.176E-03    -796.549E-03     3.16014E-03     354.453E-03    -796.549E-03        -1.42669     17.7709E-03    -7.57932E-03    -10.1916E-03    -9.88573E-03     17.4650E-03    -7.57932E-03    -5.78027E-03     16.7358E+06     8.43769E+06    -162.099E+06     8.31525E+06    -161.976E+06     16.7358E+06    -4.27544E+06         21.6693
            1051     4.96667E-03     9.19711E-03         1.20618    -753.639E-03    -925.680E-03    -300.031E-03     752.575E-03    -925.680E-03        -1.64099     16.2891E-03    -7.23140E-03    -9.05771E-03    -8.83081E-03     16.0622E-03    -7.23140E-03    -4.71999E-03     18.4721E+06      9.4752E+06    -168.109E+06     9.38460E+06    -168.018E+06     18.4721E+06    -3.43103E+06         21.5304
            1052     3.97445E-03     9.19851E-03         1.46833    -920.449E-03        -1.04478    -592.420E-03         1.14030        -1.04478        -1.59674     15.0063E-03    -6.93659E-03    -8.06970E-03    -7.92384E-03     14.8604E-03    -6.93659E-03    -3.59646E-03     20.0737E+06     11.6397E+06    -167.412E+06     11.5653E+06    -167.338E+06     20.0737E+06    -1.55472E+06         21.4191
            1053     2.98153E-03     9.20031E-03         1.74186        -1.06564        -1.19709    -864.893E-03         1.49267        -1.14865        -1.61131     13.9705E-03    -6.71731E-03    -7.25318E-03    -7.17371E-03     13.8910E-03    -6.71731E-03    -2.53795E-03     19.8141E+06     14.8478E+06    -169.097E+06     14.7890E+06    -169.038E+06     19.8141E+06    -552.657E+03         21.3326
            1054     1.98779E-03     9.20047E-03         1.91966        -1.18889        -1.28030        -1.08837         1.77070        -1.23186        -1.04628     13.3482E-03    -6.59841E-03    -6.74983E-03    -6.71299E-03     13.3114E-03    -6.59841E-03    -1.65662E-03     20.8085E+06     16.2980E+06    -171.027E+06     16.2801E+06    -171.009E+06     20.8085E+06     323.945E+03         21.2704
            1055     994.010E-06     9.20146E-03         2.16607        -1.32803        -1.41277        -1.13380         1.96078        -1.40172        -1.31240     13.0806E-03    -6.48721E-03    -6.59343E-03    -6.52618E-03     13.0698E-03    -6.54366E-03    -700.285E-06     19.7278E+06     13.9979E+06    -174.172E+06     14.7905E+06    -174.121E+06     18.8842E+06     2.20393E+06         21.2321
            1056     16.7778E-03     8.55051E-03     267.883E-03     40.8120E-03    -556.703E-03     187.596E-03    -476.416E-03     40.8120E-03     438.054E-03     344.886E-03    -15.4002E-03    -329.486E-03    -149.652E-03     165.053E-03    -15.4002E-03     595.828E-03     159.518E+06     116.399E+06    -9.53931E+06    -8.96521E+06     142.049E+06     133.294E+06    -3.53858E+06         68.7011
            1057     15.8071E-03     8.25338E-03     399.512E-03     10.7055E-03    -628.755E-03     209.196E-03    -438.439E-03     10.7055E-03     795.526E-03     101.410E-03    -12.9346E-03    -88.4752E-03    -38.1885E-03     51.1231E-03    -12.9346E-03     164.581E-03     106.392E+06     56.2807E+06    -11.3587E+06    -10.6767E+06     105.710E+06     56.2807E+06    -528.981E+03         59.2822
            1058     14.8305E-03     8.19203E-03     531.543E-03    -8.89909E-03    -704.059E-03     277.321E-03    -449.836E-03    -8.89909E-03     998.516E-03     39.8101E-03    -11.6008E-03    -28.2093E-03    -21.9895E-03     33.5902E-03    -11.6008E-03     36.0636E-03     63.1403E+06     2.97200E+06    -25.7116E+06    -19.6447E+06     62.5793E+06    -2.53387E+06     3.95923E+06         48.5450
            1059     13.8511E-03     8.16655E-03     641.092E-03    -33.8074E-03    -774.356E-03     379.150E-03    -512.414E-03    -33.8074E-03         1.09713     29.8929E-03    -10.7082E-03    -19.1846E-03    -18.4442E-03     29.1525E-03    -10.7082E-03     10.0713E-03     50.9303E+06    -19.7283E+06    -38.6825E+06    -19.5370E+06     50.7390E+06    -38.6825E+06    -836.953E+03         38.7728
            1060     12.8677E-03     8.15834E-03     706.653E-03    -69.7803E-03    -813.244E-03     482.166E-03    -588.756E-03    -69.7803E-03         1.07492     26.0727E-03    -10.1521E-03    -15.9206E-03    -15.8769E-03     26.0291E-03    -10.1521E-03     856.841E-06     33.6979E+06    -16.4877E+06    -40.2199E+06    -16.4066E+06     33.6168E+06    -40.2199E+06    -1.28139E+06         31.4877
            1061     11.8834E-03     8.15503E-03     732.015E-03    -119.448E-03    -812.017E-03     568.767E-03    -648.769E-03    -119.448E-03     942.608E-03     25.2165E-03    -9.77087E-03    -15.4456E-03    -15.3933E-03     25.1641E-03    -9.77087E-03    -2.67391E-03     4.24468E+06    -17.7642E+06    -31.6171E+06    -12.9116E+06    -4.17695E+06    -28.0481E+06    -2.79085E+06         26.8769
            1062     10.8983E-03     8.15505E-03     711.184E-03    -184.568E-03    -753.736E-03     624.566E-03    -667.118E-03    -184.568E-03     669.923E-03     24.4445E-03    -9.40462E-03    -15.0398E-03    -14.9037E-03     24.3083E-03    -9.40462E-03    -4.49781E-03    -2.81647E+06    -13.6203E+06    -42.5739E+06    -8.10136E+06    -40.7061E+06    -10.2031E+06    -6.46571E+06         24.3114
            1063     9.91317E-03     8.15793E-03     657.273E-03    -265.994E-03    -646.042E-03     633.546E-03    -622.315E-03    -265.994E-03     280.080E-03     23.1312E-03    -9.00478E-03    -14.1264E-03    -13.9181E-03     22.9229E-03    -9.00478E-03    -5.49569E-03     2.90444E+06    -6.49329E+06    -75.7032E+06    -6.15595E+06    -74.8541E+06     1.71801E+06    -6.90128E+06         23.0000
            1064     8.92604E-03     8.16185E-03     608.182E-03    -363.038E-03    -530.252E-03     578.622E-03    -500.692E-03    -363.038E-03    -205.102E-03     21.6324E-03    -8.55784E-03    -13.0746E-03    -12.8456E-03     21.4035E-03    -8.55784E-03    -5.54971E-03     3.26835E+06    -3.72972E+06    -105.357E+06    -4.21222E+06    -104.504E+06     2.89818E+06    -8.75903E+06         22.3442
            1065     7.93855E-03     8.16756E-03     596.094E-03    -415.610E-03    -503.546E-03     449.782E-03    -299.940E-03    -472.904E-03    -668.029E-03     20.1174E-03    -8.14095E-03    -11.9765E-03    -11.7512E-03     19.8921E-03    -8.14095E-03    -5.25585E-03     8.01390E+06     33.4357E+03    -129.361E+06    -532.990E+03    -128.424E+06     7.64374E+06    -10.6143E+06         21.9939
            1066     6.94908E-03     8.17240E-03     687.794E-03    -466.052E-03    -590.693E-03     250.511E-03    -28.7699E-03    -590.693E-03        -1.07358     18.5988E-03    -7.77337E-03    -10.8254E-03    -10.6233E-03     18.3966E-03    -7.77337E-03    -4.72611E-03     17.6126E+06     5.15823E+06    -147.546E+06     4.51811E+06    -146.906E+06     17.6126E+06    -8.89371E+06         21.7778
            1067     5.95904E-03     8.17809E-03     835.031E-03    -537.019E-03    -710.687E-03     6.24871E-03     291.763E-03    -710.687E-03        -1.31087     17.1821E-03    -7.41439E-03    -9.76770E-03    -9.61114E-03     17.0255E-03    -7.41439E-03    -3.95418E-03     22.3290E+06     8.61949E+06    -163.065E+06     8.26313E+06    -162.709E+06     22.3290E+06    -7.32794E+06         21.6225
            1068     4.96748E-03     8.18181E-03         1.06387    -684.842E-03    -827.465E-03    -259.491E-03     638.519E-03    -827.465E-03        -1.48695     15.8397E-03    -7.06494E-03    -8.77477E-03    -8.66888E-03     15.7338E-03    -7.06494E-03    -3.07265E-03     22.6556E+06     10.0157E+06    -171.416E+06     9.65870E+06    -171.059E+06     22.6556E+06    -7.42082E+06         21.5003
            1069     3.97542E-03     8.18545E-03         1.28660    -827.906E-03    -936.018E-03    -524.032E-03     982.727E-03    -936.018E-03        -1.44198     14.6075E-03    -6.75093E-03    -7.85660E-03    -7.79201E-03     14.5429E-03    -6.75093E-03    -2.28277E-03     22.8311E+06     12.2884E+06    -170.864E+06     11.9774E+06    -170.553E+06     22.8311E+06    -6.81640E+06         21.4016
            1070     2.98221E-03     8.18745E-03         1.52850    -960.228E-03        -1.06555    -766.340E-03         1.30110        -1.03204        -1.44418     13.5883E-03    -6.51197E-03    -7.07633E-03    -7.04158E-03     13.5536E-03    -6.51197E-03    -1.54661E-03     23.9912E+06     14.9129E+06    -170.947E+06     14.7082E+06    -170.743E+06     23.9912E+06    -5.26877E+06         21.3238
            1071     1.98850E-03     8.18912E-03         1.69127        -1.07742        -1.14295    -977.686E-03         1.55802        -1.10944    -948.027E-03     12.8874E-03    -6.34883E-03    -6.53861E-03    -6.52533E-03     12.8742E-03    -6.34883E-03    -891.071E-06     23.7573E+06     15.4175E+06    -172.789E+06     15.3120E+06    -172.683E+06     23.7573E+06    -2.56766E+06         21.2668
            1072     994.305E-06     8.18918E-03         1.90684        -1.17934        -1.27114        -1.07360         1.74132        -1.21136        -1.14882     12.4881E-03    -6.18470E-03    -6.30340E-03    -6.20910E-03     12.4839E-03    -6.27484E-03    -220.754E-06     19.3230E+06     12.9936E+06    -174.879E+06     13.7670E+06    -174.809E+06     18.4794E+06    -1.18365E+06         21.2314
            1073     16.7634E-03     7.47296E-03     190.032E-03     4.70612E-03    -450.523E-03     141.089E-03    -401.581E-03     4.70612E-03     282.365E-03     334.953E-03    -15.2161E-03    -319.736E-03    -148.644E-03     163.860E-03    -15.2161E-03     573.814E-03     154.189E+06     109.869E+06    -13.8703E+06    -13.5112E+06     136.910E+06     126.789E+06    -115.563E+03         66.3777
            1074     15.8124E-03     7.21652E-03     237.010E-03    -15.3888E-03    -415.956E-03     108.661E-03    -287.607E-03    -15.3888E-03     513.597E-03     91.3541E-03    -12.6347E-03    -78.7194E-03    -40.7899E-03     53.4246E-03    -12.6347E-03     138.004E-03     102.722E+06     58.6463E+06    -20.9126E+06    -20.0340E+06     101.843E+06     58.6463E+06     2.23205E+06         57.2747
            1075     14.8375E-03     7.15323E-03     324.853E-03    -26.5065E-03    -449.050E-03     144.620E-03    -268.817E-03    -26.5065E-03     653.075E-03     37.0155E-03    -11.2079E-03    -25.8076E-03    -21.1612E-03     32.3691E-03    -11.2079E-03     28.9145E-03     67.9063E+06     15.2641E+06    -26.8353E+06    -21.3791E+06     67.1895E+06     10.5247E+06      524.61E+03         47.0628
            1076     13.8578E-03     7.14015E-03     406.029E-03    -41.7583E-03    -499.278E-03     222.923E-03    -316.172E-03    -41.7583E-03     724.303E-03     27.6639E-03    -10.3192E-03    -17.3446E-03    -17.1109E-03     27.4301E-03    -10.3192E-03     5.41739E-03     50.5649E+06    -22.0600E+06    -34.7155E+06    -21.7688E+06     50.2737E+06    -34.7155E+06     893.096E+03         37.7523
            1077     12.8719E-03     7.13176E-03     465.104E-03    -65.7604E-03    -542.442E-03     316.226E-03    -393.564E-03    -65.7604E-03     710.203E-03     24.4473E-03    -9.80344E-03    -14.6438E-03    -14.6275E-03     24.4310E-03    -9.80344E-03     733.112E-06     37.7282E+06    -23.2715E+06    -41.7084E+06    -21.9923E+06     36.4490E+06    -41.7084E+06    -1.99519E+06         30.8245
            1078     11.8865E-03     7.13045E-03     502.539E-03    -101.272E-03    -568.036E-03     403.031E-03    -468.528E-03    -101.272E-03     611.472E-03     23.6610E-03    -9.48609E-03    -14.1749E-03    -14.1443E-03     23.6304E-03    -9.48609E-03    -1.47380E-03     9.14054E+06    -20.5423E+06    -36.6193E+06    -16.8460E+06    -111.831E+03    -31.0632E+06    -7.76187E+06         26.4570
            1079     10.9006E-03     7.13075E-03     514.897E-03    -150.336E-03    -560.118E-03     469.954E-03    -515.175E-03    -150.336E-03     397.359E-03     22.7779E-03    -9.23517E-03    -13.5428E-03    -13.4608E-03     22.6960E-03    -9.23517E-03    -3.27526E-03    -4.69476E+06    -14.7007E+06    -44.8453E+06    -11.8807E+06    -41.0765E+06    -11.2835E+06    -9.34951E+06         24.0437
            1080     9.91350E-03     7.13595E-03     510.598E-03    -214.220E-03    -521.172E-03     499.852E-03    -510.426E-03    -214.220E-03     83.3241E-03     21.5606E-03    -8.96386E-03    -12.5967E-03    -12.4965E-03     21.4604E-03    -8.96386E-03    -3.50995E-03     3.58102E+06    -6.58989E+06    -75.6751E+06    -7.40715E+06    -73.6106E+06     2.33378E+06    -11.1484E+06         22.8261
            1081     8.92553E-03     7.14152E-03     516.656E-03    -292.657E-03    -479.921E-03     473.849E-03    -437.114E-03    -292.657E-03    -314.697E-03     20.4895E-03    -8.66086E-03    -11.8286E-03    -11.7408E-03     20.4016E-03    -8.66086E-03    -3.09071E-03     6.14078E+06    -1.24644E+06    -104.968E+06    -3.07278E+06    -103.094E+06     6.09383E+06    -13.5017E+06         22.2318
            1082     7.93647E-03     7.14815E-03     541.352E-03    -367.126E-03    -468.029E-03     381.251E-03    -291.699E-03    -383.355E-03    -695.795E-03     19.4835E-03    -8.36587E-03    -11.1176E-03    -11.0425E-03     19.4084E-03    -8.36587E-03    -2.66651E-03     9.67855E+06     1.54877E+06    -131.531E+06    -128.573E+03    -129.806E+06     9.63160E+06    -14.8413E+06         21.9264
            1083     6.94713E-03     7.15536E-03     624.710E-03    -441.993E-03    -521.064E-03     225.340E-03    -81.5212E-03    -482.166E-03        -1.02998     18.5315E-03    -8.09162E-03    -10.4399E-03    -10.3832E-03     18.4748E-03    -8.09162E-03    -2.12259E-03     17.6948E+06     3.55264E+06    -152.537E+06     2.05492E+06    -151.039E+06     17.6948E+06    -14.9718E+06         21.7458
            1084     5.95652E-03     7.16139E-03     727.071E-03    -507.266E-03    -602.395E-03     26.2687E-03     175.304E-03    -584.163E-03        -1.21767     17.5483E-03    -7.79952E-03    -9.74874E-03    -9.70797E-03     17.5075E-03    -7.79952E-03    -1.65183E-03     24.4708E+06     6.87405E+06    -166.380E+06     5.75810E+06    -165.264E+06     24.4708E+06    -13.1810E+06         21.6198
            1085     4.96575E-03     7.16724E-03     891.282E-03    -616.955E-03    -694.475E-03    -194.556E-03     459.085E-03    -684.678E-03        -1.35446     16.4748E-03    -7.49153E-03    -8.98324E-03    -8.95855E-03     16.4501E-03    -7.49153E-03    -1.18648E-03     27.7255E+06     10.2396E+06    -174.193E+06     9.34769E+06    -173.301E+06     27.7255E+06    -12.4111E+06         21.5216
            1086     3.97365E-03     7.17136E-03         1.05273    -712.390E-03    -789.442E-03    -416.920E-03     747.460E-03    -779.645E-03        -1.29968     15.3793E-03    -7.17363E-03    -8.20568E-03    -8.19148E-03     15.3651E-03    -7.17363E-03    -751.344E-06     24.5218E+06     12.0498E+06    -176.067E+06     11.1812E+06    -175.198E+06     24.5218E+06    -12.2790E+06         21.4419
            1087     2.98114E-03     7.17502E-03         1.24368    -812.202E-03    -904.514E-03    -629.658E-03         1.02131    -864.687E-03        -1.28793     14.4439E-03    -6.90846E-03    -7.53544E-03    -7.52902E-03     14.4375E-03    -6.90846E-03    -370.257E-06     23.3181E+06     12.1875E+06    -176.530E+06     11.6259E+06    -175.968E+06     23.3181E+06    -9.41673E+06         21.3779
            1088     1.98784E-03     7.17679E-03         1.37521    -901.607E-03    -974.412E-03    -813.267E-03         1.24704    -934.585E-03    -850.645E-03     13.6559E-03    -6.69495E-03    -6.96097E-03    -6.95870E-03     13.6536E-03    -6.69495E-03    -82.2370E-06     22.2975E+06     9.80397E+06    -176.579E+06     9.54679E+06    -176.322E+06     22.2975E+06    -5.82584E+06         21.3302
            1089     994.089E-06     7.17816E-03         1.55676    -918.062E-03        -1.15678    -979.274E-03         1.41223    -951.040E-03        -1.01543     13.0758E-03    -6.48322E-03    -6.59260E-03    -6.53385E-03     13.0727E-03    -6.53889E-03     307.342E-06     15.1660E+06     5.61882E+06    -179.203E+06     7.64891E+06    -179.029E+06     12.9613E+06    -4.43945E+06         21.3000
            1090     16.7545E-03     6.34679E-03     102.024E-03    -13.1459E-03    -296.340E-03     78.6676E-03    -272.984E-03    -13.1459E-03     129.206E-03     314.314E-03    -14.6883E-03    -299.625E-03    -148.947E-03     163.636E-03    -14.6883E-03     527.095E-03     159.130E+06     128.967E+06    -11.6264E+06    -10.9403E+06     142.682E+06     144.729E+06     2.36117E+06         63.6821
            1091     15.8309E-03     6.18036E-03     90.0607E-03    -21.0369E-03    -198.757E-03     8.29815E-03    -116.994E-03    -21.0369E-03     238.983E-03     71.5263E-03    -12.0710E-03    -59.4554E-03    -34.9396E-03     47.0106E-03    -12.0710E-03     101.094E-03     108.904E+06     75.6693E+06    -17.1015E+06    -15.6057E+06     107.408E+06     75.6693E+06     680.444E+03         54.9574
            1092     14.8465E-03     6.12441E-03     140.959E-03    -23.1732E-03    -212.455E-03     22.2449E-03    -93.7406E-03    -23.1732E-03     317.554E-03     34.4744E-03    -10.7176E-03    -23.7568E-03    -19.0290E-03     29.7466E-03    -10.7176E-03     26.5770E-03     67.8747E+06     14.2797E+06    -26.2328E+06    -21.5872E+06     66.7355E+06     10.7732E+06     3.86018E+06         45.3274
            1093     13.8610E-03     6.11106E-03     187.006E-03    -28.4188E-03    -245.161E-03     83.1898E-03    -141.344E-03    -28.4188E-03     360.322E-03     24.8830E-03    -9.99454E-03    -14.8885E-03    -14.8183E-03     24.8128E-03    -9.99454E-03     2.29269E-03     52.8656E+06    -21.9350E+06    -30.6342E+06    -24.4158E+06     52.1130E+06    -27.4008E+06     1.38137E+06         36.5620
            1094     12.8758E-03     6.11052E-03     237.641E-03    -40.1607E-03    -296.138E-03     165.739E-03    -224.235E-03    -40.1607E-03     354.500E-03     22.4014E-03    -9.57900E-03    -12.8224E-03    -12.7902E-03     22.3692E-03    -9.57900E-03     1.25854E-03     45.0499E+06    -20.6699E+06    -37.7566E+06    -19.0358E+06     43.4158E+06    -37.7566E+06    -4.68851E+06         30.0708
            1095     11.8874E-03     6.10502E-03     291.320E-03    -61.0392E-03    -354.958E-03     252.393E-03    -316.032E-03    -61.0392E-03     285.856E-03     21.5164E-03    -9.35887E-03    -12.1575E-03    -12.1066E-03     21.4655E-03    -9.35887E-03     100.260E-06     11.8765E+06    -23.4949E+06    -41.2657E+06    -16.9087E+06     2.64699E+06    -38.6224E+06    -9.74667E+06         26.0000
            1096     10.8998E-03     6.11042E-03     342.777E-03    -93.3857E-03    -405.705E-03     328.957E-03    -391.884E-03    -93.3857E-03     128.458E-03     20.5850E-03    -9.29409E-03    -11.2909E-03    -11.2578E-03     20.5519E-03    -9.29409E-03    -1.43337E-03    -7.83297E+06    -20.3479E+06    -46.4093E+06    -14.3307E+06    -39.9116E+06    -20.3479E+06    -13.2646E+06         23.7710
            1097     9.91000E-03     6.11475E-03     389.327E-03    -138.693E-03    -439.738E-03     377.285E-03    -427.696E-03    -138.693E-03    -111.295E-03     19.9763E-03    -9.24351E-03    -10.7328E-03    -10.7093E-03     19.9529E-03    -9.24351E-03    -563.109E-06    -1.94295E+06    -8.97671E+06    -76.7927E+06    -10.2197E+06    -72.7255E+06    -4.76721E+06    -15.9210E+06         22.6655
            1098     8.92079E-03     6.12228E-03     443.230E-03    -197.048E-03    -469.590E-03     379.640E-03    -406.000E-03    -197.048E-03    -423.875E-03     19.7195E-03    -9.15921E-03    -10.5603E-03    -10.5406E-03     19.6998E-03    -9.15921E-03    -178.118E-06     2.28159E+06    -4.47479E+06    -106.408E+06    -7.69807E+06    -103.137E+06     2.23465E+06    -17.7722E+06         22.1438
            1099     7.93085E-03     6.12945E-03     492.556E-03    -266.663E-03    -489.341E-03     323.114E-03    -319.898E-03    -266.663E-03    -724.511E-03     19.4745E-03    -9.04388E-03    -10.4306E-03    -10.4097E-03     19.4535E-03    -9.04388E-03     340.354E-06     6.93869E+06    -903.839E+03    -134.019E+06    -4.00777E+06    -130.868E+06     6.89174E+06    -19.8903E+06         21.8910
            1100     6.94086E-03     6.13713E-03     558.349E-03    -344.080E-03    -522.537E-03     211.506E-03    -175.693E-03    -344.080E-03    -988.192E-03     19.2886E-03    -8.92083E-03    -10.3678E-03    -10.3481E-03     19.2689E-03    -8.92083E-03     649.285E-06     16.9781E+06     2.93103E+06    -157.209E+06     105.439E+03    -154.383E+06     16.9781E+06    -20.7014E+06         21.7527
            1101     5.95113E-03     6.14434E-03     613.076E-03    -414.373E-03    -550.126E-03     62.8256E-03     11.1773E-03    -425.426E-03        -1.13018     18.8508E-03    -8.73330E-03    -10.1175E-03    -10.0981E-03     18.8314E-03    -8.73330E-03     855.844E-06     23.5259E+06     5.67207E+06    -172.412E+06     3.31785E+06    -170.058E+06     23.5259E+06    -20.1111E+06         21.6626
            1102     4.96049E-03     6.15078E-03     705.460E-03    -495.938E-03    -598.539E-03    -108.359E-03     226.332E-03    -506.991E-03        -1.22759     18.1666E-03    -8.48583E-03    -9.68079E-03    -9.66223E-03     18.1481E-03    -8.48583E-03     928.515E-06     25.0133E+06     8.33813E+06    -179.050E+06     6.44563E+06    -177.157E+06     25.0133E+06    -18.3801E+06         21.5950
            1103     3.96964E-03     6.15648E-03     787.040E-03    -563.882E-03    -641.696E-03    -283.066E-03     450.177E-03    -585.650E-03        -1.16370     17.3503E-03    -8.20987E-03    -9.14042E-03    -9.12729E-03     17.3372E-03    -8.20987E-03     898.528E-06     22.1190E+06     9.15392E+06    -181.447E+06     7.75020E+06    -180.043E+06     22.1190E+06    -16.1164E+06         21.5401
            1104     2.97791E-03     6.16051E-03     911.283E-03    -635.661E-03    -720.738E-03    -458.776E-03     671.088E-03    -657.429E-03        -1.13579     16.5211E-03    -7.95025E-03    -8.57083E-03    -8.55989E-03     16.5101E-03    -7.95025E-03     870.861E-06     18.2392E+06     7.62529E+06    -185.586E+06     6.63330E+06    -184.594E+06     18.2392E+06    -13.1263E+06         21.4953
            1105     1.98582E-03     6.16359E-03     991.558E-03    -686.534E-03    -775.726E-03    -611.965E-03     858.867E-03    -717.604E-03    -747.558E-03     15.7646E-03    -7.71719E-03    -8.04740E-03    -8.04003E-03     15.7572E-03    -7.71719E-03     737.610E-06     16.1741E+06     5.71876E+06    -184.415E+06     5.20110E+06    -183.897E+06     16.1741E+06    -9.03379E+06         21.4610
            1106     993.166E-06     6.16509E-03         1.12259    -612.096E-03        -1.00588    -845.740E-03     993.523E-03    -643.166E-03    -873.409E-03     15.1038E-03    -7.46189E-03    -7.64190E-03    -7.55204E-03     15.0972E-03    -7.54515E-03     728.951E-06     9.56067E+06    -172.572E+03    -185.740E+06     1.85125E+06    -185.559E+06     7.35590E+06    -5.24609E+06         21.4389
            1107     16.8419E-03     5.30875E-03     69.2000E-03    -11.6073E-03    -166.123E-03    -1.18690E-03    -95.7357E-03    -11.6073E-03     3.40249E-03     299.174E-03    -14.0177E-03    -285.156E-03    -145.554E-03     159.572E-03    -14.0177E-03     498.147E-03     148.846E+06     114.909E+06    -14.4796E+06    -12.6986E+06     131.589E+06     130.385E+06    -6.73605E+06         60.5214
            1108     15.8239E-03     5.14463E-03     87.9673E-03    -7.30745E-03    -115.704E-03    -85.8566E-03     58.1201E-03    -7.30745E-03     9.96891E-03     65.9020E-03    -11.4624E-03    -54.4396E-03    -28.6292E-03     40.0916E-03    -11.4624E-03     95.9143E-03     102.163E+06     67.2876E+06    -16.1713E+06    -15.0063E+06     100.999E+06     67.2876E+06     2.89174E+06         52.2439
            1109     14.8507E-03     5.09259E-03     100.563E-03    -901.798E-06    -118.793E-03    -81.2205E-03     62.9903E-03    -901.798E-06     36.7215E-03     32.1957E-03    -10.4098E-03    -21.7859E-03    -17.9781E-03     28.3879E-03    -10.4098E-03     21.2931E-03     70.5169E+06     20.4001E+06    -24.4296E+06    -23.4701E+06     69.5573E+06     20.4001E+06     5.84134E+06         43.2815
            1110     13.8667E-03     5.09035E-03     81.6297E-03     3.41814E-03    -109.673E-03    -32.1862E-03     4.14284E-03     3.41814E-03     60.3844E-03     22.0172E-03    -9.78715E-03    -12.2301E-03    -12.1526E-03     21.9397E-03    -9.78715E-03     980.985E-06     60.3134E+06    -10.8920E+06    -25.7361E+06    -18.9089E+06     59.7313E+06    -17.1370E+06    -1.99734E+06         35.2035
            1111     12.8753E-03     5.08685E-03     83.8650E-03     3.35777E-03    -132.969E-03     40.9094E-03    -90.0137E-03     3.35777E-03     60.0840E-03     19.9592E-03    -9.31065E-03    -10.6486E-03    -10.3544E-03     19.8436E-03    -9.48924E-03     3.00239E-03     46.0274E+06    -19.3043E+06    -43.3298E+06    -18.7297E+06     45.4529E+06    -43.3298E+06    -4.66741E+06         29.2422
            1112     11.8868E-03     5.08561E-03     137.117E-03    -3.47519E-03    -210.127E-03     125.868E-03    -198.878E-03    -3.47519E-03     17.1533E-03     18.9610E-03    -8.68247E-03    -10.2785E-03    -9.41935E-03     18.8827E-03    -9.46337E-03     1.95100E-03     16.3798E+06    -25.9968E+06    -47.6615E+06    -18.2969E+06     8.37732E+06    -47.3589E+06    -8.95562E+06         25.5272
            1113     10.8944E-03     5.09045E-03     220.838E-03    -19.5206E-03    -313.597E-03     209.201E-03    -301.959E-03    -19.5206E-03    -91.5805E-03     18.5069E-03    -8.55504E-03    -9.95187E-03    -8.79284E-03     18.4439E-03    -9.65111E-03     1.39028E-03    -5.84894E+06    -26.1303E+06    -51.2328E+06    -16.6404E+06    -36.8598E+06    -29.7118E+06    -16.2546E+06         23.5145
            1114     9.90368E-03     5.09632E-03     304.554E-03    -46.4407E-03    -407.817E-03     274.192E-03    -377.455E-03    -46.4407E-03    -266.375E-03     18.9685E-03    -8.94589E-03    -10.0226E-03    -9.02935E-03     18.8898E-03    -9.86047E-03     2.51113E-03    -7.36474E+06    -14.2962E+06    -79.8586E+06    -14.5432E+06    -73.6462E+06    -13.3301E+06    -19.4145E+06         22.5368
            1115     8.91215E-03     5.10267E-03     383.898E-03    -84.5635E-03    -489.048E-03     300.437E-03    -405.588E-03    -84.5635E-03    -498.858E-03     19.5381E-03    -9.30861E-03    -10.2294E-03    -9.44330E-03     19.4576E-03    -10.0143E-03     2.69223E-03    -1.97041E+06    -6.39810E+06    -107.877E+06    -10.5002E+06    -102.813E+06    -2.93208E+06    -22.0393E+06         22.0950
            1116     7.92200E-03     5.11067E-03     443.017E-03    -132.597E-03    -543.562E-03     279.274E-03    -379.819E-03    -132.597E-03    -726.734E-03     20.1856E-03    -9.73631E-03    -10.4493E-03    -9.98441E-03     20.0892E-03    -10.1047E-03     3.16515E-03     3.05354E+06    -2.63608E+06    -136.416E+06    -6.94193E+06    -131.381E+06     2.32440E+06    -25.3091E+06         21.8989
            1117     6.93200E-03     5.11768E-03     489.258E-03    -187.904E-03    -580.687E-03     211.167E-03    -302.596E-03    -187.904E-03    -924.368E-03     20.6283E-03    -10.0254E-03    -10.6029E-03    -10.3935E-03     20.5335E-03    -10.1400E-03     3.23796E-03     8.89971E+06     448.199E+03    -163.114E+06    -2.87441E+06    -158.466E+06     7.57456E+06    -27.0729E+06         21.8064
            1118     5.94217E-03     5.12547E-03     503.398E-03    -247.432E-03    -579.024E-03     110.670E-03    -186.296E-03    -247.432E-03        -1.02440     20.8356E-03    -10.0822E-03    -10.7534E-03    -10.6337E-03     20.7468E-03    -10.1132E-03     3.19600E-03     15.6405E+06     3.97081E+06    -179.732E+06     1.37063E+06    -175.807E+06     14.3154E+06    -26.3674E+06         21.7561
            1119     4.95266E-03     5.13238E-03     532.920E-03    -308.658E-03    -583.171E-03    -7.21419E-03    -43.0374E-03    -308.658E-03        -1.08887     20.7350E-03    -9.99675E-03    -10.7383E-03    -10.6675E-03     20.6642E-03    -9.99675E-03     2.89858E-03     16.0340E+06     6.31639E+06    -187.095E+06     3.43102E+06    -184.210E+06     16.0340E+06    -23.3233E+06         21.7234
            1120     3.96290E-03     5.13852E-03     532.827E-03    -369.191E-03    -554.085E-03    -135.806E-03     114.549E-03    -369.191E-03        -1.01875     20.3274E-03    -9.82122E-03    -10.5061E-03    -10.4532E-03     20.2744E-03    -9.82122E-03     2.48594E-03     14.5872E+06     5.15940E+06    -189.308E+06     3.35793E+06    -187.507E+06     14.5872E+06    -18.3469E+06         21.6983
            1121     2.97291E-03     5.14378E-03     576.631E-03    -426.150E-03    -567.533E-03    -265.975E-03     275.073E-03    -426.150E-03    -978.091E-03     19.7671E-03    -9.62738E-03    -10.1397E-03    -10.1026E-03     19.7300E-03    -9.62738E-03     2.05454E-03     11.6724E+06     2.78252E+06    -193.077E+06     1.67708E+06    -191.972E+06     11.6724E+06    -14.5491E+06         21.6771
            1122     1.98225E-03     5.14716E-03     575.007E-03    -457.110E-03    -566.625E-03    -389.587E-03     415.970E-03    -475.111E-03    -641.939E-03     19.1348E-03    -9.42590E-03    -9.70891E-03    -9.68850E-03     19.1144E-03    -9.42590E-03     1.50291E-03     5.61233E+06    -1.46745E+06    -195.869E+06    -2.16068E+06    -195.176E+06     5.61233E+06    -11.0127E+06         21.6601
            1123     991.314E-06     5.14968E-03     651.663E-03    -318.003E-03    -802.603E-03    -658.309E-03     525.369E-03    -336.004E-03    -735.276E-03     18.5916E-03    -9.19279E-03    -9.39880E-03    -9.32787E-03     18.5819E-03    -9.25407E-03     991.061E-06    -306.082E+03    -6.74955E+06    -196.152E+06    -6.41652E+06    -195.915E+06    -876.153E+03    -6.00337E+06         21.6487
            1124     16.7509E-03     4.23793E-03     160.659E-03     6.11555E-03    -138.110E-03    -95.7676E-03     118.317E-03     6.11555E-03    -83.8319E-03     280.986E-03    -14.3019E-03    -266.684E-03    -136.015E-03     150.317E-03    -14.3019E-03     456.488E-03     141.383E+06     113.208E+06    -16.6235E+06    -13.8928E+06     126.011E+06     125.848E+06     3.42066E+06         56.6896
            1125     15.8395E-03     4.10375E-03     235.860E-03     20.7392E-03    -179.408E-03    -165.985E-03     222.438E-03     20.7392E-03    -146.198E-03     66.8321E-03    -11.4275E-03    -55.4046E-03    -37.9667E-03     49.3942E-03    -11.4275E-03     76.2771E-03     97.4634E+06     66.8145E+06    -18.6036E+06    -17.1432E+06     96.0030E+06     66.8145E+06     6.98855E+06         49.0633
            1126     14.8566E-03     4.06653E-03     209.062E-03     34.3232E-03    -176.569E-03    -160.748E-03     193.242E-03     34.3232E-03    -150.061E-03     27.2857E-03    -9.67662E-03    -17.6090E-03    -14.8850E-03     25.0898E-03    -10.2048E-03     14.1965E-03     76.6958E+06     26.9344E+06    -16.1238E+06    -15.9275E+06     76.4995E+06     26.9344E+06    -2.25313E+06         41.0213
            1127     13.8645E-03     4.07078E-03     135.845E-03     47.0789E-03    -140.010E-03    -120.134E-03     115.969E-03     47.0789E-03    -137.322E-03     19.2739E-03    -8.91545E-03    -10.3584E-03    -9.16243E-03     18.9393E-03    -9.77683E-03     2.60740E-03     60.5175E+06     -11.121E+06    -22.1446E+06    -16.6465E+06     60.4485E+06    -16.5502E+06    -962.772E+03         33.7515
            1128     12.8747E-03     4.06720E-03     77.8131E-03     52.6122E-03    -119.653E-03    -55.4848E-03     8.80136E-03     57.4554E-03    -135.402E-03     17.9608E-03    -8.24372E-03    -9.71707E-03    -7.85151E-03     17.5441E-03    -9.69261E-03     6.02280E-03     47.6705E+06    -19.7391E+06    -44.0935E+06    -19.5644E+06     47.4958E+06    -44.0935E+06    -1.04087E+06         28.4044
            1129     11.8803E-03     4.06802E-03     88.8305E-03     54.4116E-03    -170.049E-03     26.8602E-03    -116.933E-03     63.2664E-03    -160.260E-03     16.9498E-03    -7.10746E-03    -9.84233E-03    -6.86728E-03     16.7096E-03    -9.84233E-03     4.34768E-03     19.4994E+06    -23.7129E+06    -57.6800E+06    -20.1634E+06     15.9500E+06    -57.6800E+06    -7.14235E+06         25.0935
            1130     10.8872E-03     4.07363E-03     155.856E-03     58.1426E-03    -282.565E-03     114.032E-03    -244.752E-03     62.1542E-03    -231.474E-03     17.4922E-03    -7.25162E-03    -10.2406E-03    -6.98658E-03     17.2271E-03    -10.2406E-03     4.69304E-03    -5.32704E+06    -31.5630E+06    -61.0607E+06    -19.6404E+06    -31.7053E+06    -46.6050E+06    -16.1842E+06         23.3196
            1131     9.89370E-03     4.07712E-03     243.780E-03     52.4297E-03    -407.555E-03     190.619E-03    -354.395E-03     52.4297E-03    -352.495E-03     18.7215E-03    -8.05823E-03    -10.6633E-03    -7.81451E-03     18.4778E-03    -10.6633E-03     4.95921E-03    -7.71645E+06    -32.5491E+06    -81.5343E+06    -16.5920E+06    -72.6588E+06    -32.5491E+06    -23.3879E+06         22.4774
            1132     8.90226E-03     4.08443E-03     329.723E-03     33.4005E-03    -519.292E-03     239.852E-03    -429.421E-03     33.4005E-03    -519.390E-03     19.9467E-03    -8.92054E-03    -11.0262E-03    -8.69038E-03     19.7166E-03    -11.0262E-03     5.03242E-03    -3.13727E+06    -22.5755E+06    -110.583E+06    -10.6489E+06    -103.072E+06    -22.5755E+06    -27.1067E+06         22.1166
            1133     7.91073E-03     4.08975E-03     387.502E-03     5.87834E-03    -598.015E-03     249.355E-03    -459.868E-03     5.87834E-03    -680.610E-03     21.2382E-03    -9.87926E-03    -11.3589E-03    -9.66491E-03     21.0238E-03    -11.3589E-03     5.10320E-03     1.51182E+06    -11.3421E+06    -139.720E+06    -4.99587E+06    -133.425E+06    -11.1293E+06    -28.8652E+06         21.9762
            1134     6.92093E-03     4.09757E-03     422.070E-03    -28.2225E-03    -646.419E-03     222.115E-03    -446.463E-03    -28.2225E-03    -822.803E-03     22.3081E-03    -10.7058E-03    -11.6023E-03    -10.5146E-03     22.1169E-03    -11.6023E-03     4.99212E-03     3.05759E+06    -6.80347E+06    -167.412E+06    -2.76780E+06    -161.799E+06    -6.59069E+06    -30.3863E+06         21.9287
            1135     5.93137E-03     4.10404E-03     416.957E-03    -66.7877E-03    -647.308E-03     167.842E-03    -398.192E-03    -66.7877E-03    -885.601E-03     23.1672E-03    -11.2797E-03    -11.8876E-03    -11.2258E-03     23.0008E-03    -11.7750E-03     4.76292E-03     4.88476E+06    -4.01696E+06    -187.724E+06    -2.26925E+06    -182.840E+06    -1.74638E+06    -29.9009E+06         21.9182
            1136     4.94281E-03     4.11096E-03     406.578E-03    -107.933E-03    -633.362E-03     95.8651E-03    -322.649E-03    -107.933E-03    -923.283E-03     23.6977E-03    -11.5987E-03    -12.0990E-03    -11.7021E-03     23.5733E-03    -11.8712E-03     4.17774E-03     5.47221E+06    -857.457E+03    -197.966E+06    -2.54715E+06    -194.700E+06     3.89543E+06    -25.0637E+06         21.9219
            1137     3.95429E-03     4.11753E-03     356.205E-03    -150.307E-03    -571.882E-03     15.8137E-03    -231.491E-03    -150.307E-03    -851.373E-03     23.8828E-03    -11.7751E-03    -12.1077E-03    -11.9325E-03     23.7934E-03    -11.8609E-03     3.56222E-03     3.17473E+06    -2.31536E+06    -199.273E+06    -4.24729E+06    -197.341E+06     3.17473E+06    -19.2077E+06         21.9292
            1138     2.96596E-03     4.12262E-03     333.696E-03    -191.638E-03    -537.603E-03    -75.1095E-03    -128.798E-03    -191.638E-03    -809.719E-03     23.7916E-03    -11.7687E-03    -12.0229E-03    -11.9448E-03     23.7349E-03    -11.7901E-03     2.81395E-03    -1.01213E+06    -6.45904E+06    -201.716E+06    -7.51136E+06    -200.664E+06    -1.01213E+06    -14.1090E+06         21.9351
            1139     1.97761E-03     4.12729E-03     234.474E-03    -221.077E-03    -441.055E-03    -162.942E-03    -36.3271E-03    -228.388E-03    -526.051E-03     23.5467E-03    -11.6966E-03    -11.8502E-03    -11.8211E-03     23.5177E-03    -11.6966E-03     1.99040E-03    -4.28953E+06    -11.4630E+06    -205.458E+06    -12.0078E+06    -204.914E+06    -4.28953E+06    -9.76617E+06         21.9379
            1140     988.873E-06     4.12949E-03     310.721E-03    -84.4036E-03    -676.218E-03    -487.723E-03     41.0876E-03    -3.26463E-03    -621.091E-03     23.2086E-03    -11.5109E-03    -11.6978E-03    -11.6130E-03     23.1973E-03    -11.5844E-03     1.18061E-03    -11.3237E+06    -16.9879E+06    -208.196E+06    -16.2937E+06    -207.960E+06    -12.2536E+06    -6.02115E+06         21.9387
            1141     16.7888E-03     3.10545E-03     344.792E-03     33.2764E-03    -196.908E-03    -188.860E-03     336.745E-03     33.2764E-03    -116.295E-03     251.650E-03    -14.2469E-03    -237.403E-03    -133.649E-03     147.896E-03    -14.2469E-03     381.554E-03     149.331E+06     133.491E+06    -6.68102E+06    -4.28970E+06     139.293E+06     141.137E+06     10.8110E+06         52.5548
            1142     15.8368E-03     3.06511E-03     382.509E-03     54.8140E-03    -248.348E-03    -230.330E-03     364.491E-03     54.8140E-03    -207.217E-03     47.8089E-03    -11.2697E-03    -36.5391E-03    -33.8066E-03     45.0763E-03    -11.2697E-03     26.9528E-03     102.273E+06     74.9361E+06    -11.0825E+06    -9.32758E+06     100.518E+06     74.9361E+06     2.43134E+06         45.8170
            1143     14.8538E-03     3.04752E-03     318.914E-03     74.0435E-03    -243.129E-03    -219.091E-03     294.875E-03     74.0435E-03    -225.426E-03     22.1940E-03    -8.51495E-03    -13.6791E-03    -10.6067E-03     20.8363E-03    -10.2296E-03     10.2053E-03     76.2730E+06     23.2668E+06    -9.66160E+06    -9.30332E+06     75.9148E+06     23.2668E+06     803.701E+03         38.7984
            1144     13.8612E-03     3.05355E-03     228.683E-03     93.8596E-03    -214.214E-03    -182.995E-03     197.464E-03     93.8596E-03    -222.946E-03     17.4675E-03    -7.36310E-03    -10.1044E-03    -6.59585E-03     16.7002E-03    -10.1044E-03     6.85522E-03     59.5185E+06    -12.2579E+06    -19.6615E+06    -17.9125E+06     59.2954E+06    -13.7837E+06     2.12189E+06         32.3921
            1145     12.8660E-03     3.04828E-03     149.817E-03     93.9110E-03    -179.196E-03    -123.887E-03     75.4965E-03     112.923E-03    -221.391E-03     17.0686E-03    -6.84498E-03    -10.2236E-03    -6.12851E-03     16.3521E-03    -10.2236E-03     7.93024E-03     49.9985E+06    -18.6127E+06    -37.9950E+06    -18.6031E+06     49.9889E+06    -37.9950E+06     568.949E+03         27.6928
            1146     11.8722E-03     3.05435E-03     129.325E-03     77.3794E-03    -188.879E-03    -46.1996E-03    -65.3002E-03     129.325E-03    -234.618E-03     16.4411E-03    -5.97587E-03    -10.4652E-03    -5.49239E-03     15.9576E-03    -10.4652E-03     6.43557E-03     25.6822E+06    -18.8854E+06    -65.4153E+06    -17.3088E+06     24.1056E+06    -65.4153E+06    -3.86646E+06         24.7998
            1147     10.8766E-03     3.05462E-03     157.764E-03     91.2159E-03    -278.743E-03     41.8987E-03    -212.665E-03     141.004E-03    -279.949E-03     17.6818E-03    -6.72795E-03    -10.9539E-03    -6.23757E-03     17.1915E-03    -10.9539E-03     6.75088E-03     1.27055E+06    -35.9611E+06    -71.7304E+06    -15.5964E+06    -23.0928E+06    -67.7318E+06    -14.0686E+06         23.2653
            1148     9.88409E-03     3.06039E-03     204.354E-03     129.335E-03    -411.711E-03     127.192E-03    -351.403E-03     146.189E-03    -359.164E-03     19.1253E-03    -7.61144E-03    -11.5139E-03    -7.25087E-03     18.7647E-03    -11.5139E-03     6.16384E-03    -3.76505E+06    -55.9841E+06    -81.4464E+06    -13.1843E+06    -68.9300E+06    -59.0813E+06    -24.4997E+06         22.5533
            1149     8.89065E-03     3.06343E-03     270.659E-03     143.902E-03    -541.380E-03     194.506E-03    -465.228E-03     143.902E-03    -471.912E-03     20.7031E-03    -8.66473E-03    -12.0383E-03    -8.34852E-03     20.3869E-03    -12.0383E-03     6.03200E-03    -1.01605E+06    -52.8673E+06    -113.116E+06    -9.73641E+06    -104.395E+06    -52.8673E+06    -29.6995E+06         22.2667
            1150     7.90009E-03     3.06959E-03     330.582E-03     134.376E-03    -642.824E-03     232.534E-03    -544.777E-03     134.376E-03    -580.952E-03     22.3299E-03    -9.73641E-03    -12.5935E-03    -9.48398E-03     22.0775E-03    -12.5935E-03     5.65302E-03     723.089E+03    -36.2913E+06    -144.582E+06    -5.89304E+06    -137.966E+06    -36.2913E+06    -29.9636E+06         22.1759
            1151     6.90916E-03     3.07448E-03     363.786E-03     118.839E-03    -710.873E-03     240.285E-03    -587.372E-03     118.839E-03    -674.582E-03     23.9364E-03    -10.8465E-03    -13.0898E-03    -10.6340E-03     23.7239E-03    -13.0898E-03     5.40065E-03     1.46671E+06    -22.5080E+06    -170.384E+06    -3.75021E+06    -165.167E+06    -22.5080E+06    -29.3984E+06         22.1681
            1152     5.92070E-03     3.08073E-03     363.035E-03     98.7563E-03    -736.387E-03     225.437E-03    -598.790E-03     98.7563E-03    -711.174E-03     25.3696E-03    -11.8679E-03    -13.5017E-03    -11.6933E-03     25.1950E-03    -13.5017E-03     5.06440E-03    -1.71781E+06    -15.8599E+06    -195.454E+06    -5.89481E+06    -191.277E+06    -15.8599E+06    -27.7522E+06         22.1936
            1153     4.93219E-03     3.08659E-03     347.618E-03     75.4041E-03    -737.535E-03     193.935E-03    -583.853E-03     75.4041E-03    -729.826E-03     26.5648E-03    -12.7377E-03    -13.8271E-03    -12.6028E-03     26.4299E-03    -13.8271E-03     4.57225E-03    -5.09896E+06    -12.6511E+06    -208.704E+06    -9.56575E+06    -205.953E+06    -10.9356E+06    -23.1034E+06         22.2312
            1154     3.94523E-03     3.09227E-03     298.328E-03     49.5214E-03    -694.653E-03     153.886E-03    -550.212E-03     49.5214E-03    -665.102E-03     27.4755E-03    -13.4345E-03    -14.0409E-03    -13.3435E-03     27.3844E-03    -14.0409E-03     3.80844E-03    -7.63667E+06    -12.7948E+06    -208.734E+06    -12.8010E+06    -207.079E+06    -9.28621E+06    -17.8124E+06         22.2700
            1155     2.95851E-03     3.09779E-03     252.255E-03     23.0176E-03    -655.020E-03     98.0295E-03    -500.795E-03     23.0176E-03    -626.112E-03     28.0349E-03    -13.8608E-03    -14.1741E-03    -13.8187E-03     27.9813E-03    -14.1627E-03     2.94917E-03    -11.8600E+06    -15.7691E+06    -211.354E+06    -16.1197E+06    -210.477E+06    -12.3864E+06    -12.6879E+06         22.3030
            1156     1.97216E-03     3.10163E-03     146.881E-03    -1.98917E-03    -551.651E-03     44.6904E-03    -449.460E-03    -1.98917E-03    -402.443E-03     28.3536E-03    -14.0900E-03    -14.2635E-03    -14.1061E-03     28.3261E-03    -14.2200E-03     2.09901E-03    -15.1625E+06    -20.0953E+06    -214.792E+06    -19.9144E+06    -214.446E+06    -15.6889E+06    -7.67165E+06         22.3267
            1157     986.302E-06     3.10477E-03     344.548E-03    -55.2898E-03    -725.027E-03    -346.778E-03    -407.129E-03     318.139E-03    -474.384E-03     28.4205E-03    -14.1214E-03    -14.2991E-03    -14.1831E-03     28.4109E-03    -14.2278E-03     1.15345E-03    -21.1814E+06    -25.1916E+06    -217.308E+06    -24.9527E+06    -217.187E+06    -21.5412E+06    -4.68378E+06         22.3405
            1158     16.8198E-03     2.04785E-03     527.772E-03     60.8336E-03    -272.999E-03    -268.237E-03     523.010E-03     60.8336E-03    -102.170E-03     211.473E-03    -13.4942E-03    -197.979E-03    -128.745E-03     142.239E-03    -13.4942E-03     294.285E-03     140.706E+06     120.919E+06    -6.97300E+06    -5.23030E+06     133.885E+06     125.997E+06    -4.13463E+06         48.8788
            1159     15.8401E-03     2.02748E-03     484.244E-03     85.7158E-03    -291.327E-03    -279.410E-03     472.327E-03     85.7158E-03    -183.253E-03     26.6347E-03    -8.82367E-03    -17.8110E-03    -15.6433E-03     26.4848E-03    -10.8415E-03     4.14268E-03     101.273E+06     65.6797E+06    -5.52117E+06    -4.70971E+06     100.462E+06     65.6797E+06     669.565E+03         43.1954
            1160     14.8479E-03     2.03775E-03     386.507E-03     109.604E-03    -277.744E-03    -260.595E-03     369.358E-03     109.604E-03    -204.337E-03     17.7379E-03    -6.59499E-03    -11.1429E-03    -6.49725E-03     17.0556E-03    -10.5584E-03     6.80204E-03     73.9427E+06     22.4319E+06    -13.2500E+06    -12.4865E+06     73.1792E+06     22.4319E+06     7.52423E+06         37.0394
            1161     13.8500E-03     2.03181E-03     275.845E-03     134.920E-03    -247.455E-03    -224.394E-03     252.784E-03     134.920E-03    -207.951E-03     17.2718E-03    -6.59938E-03    -10.6724E-03    -5.63174E-03     16.3041E-03    -10.6724E-03     8.98252E-03     63.7099E+06    -4.13371E+06    -16.5934E+06    -15.2841E+06     63.3620E+06    -5.09516E+06     4.57323E+06         31.4252
            1162     12.8583E-03     2.03492E-03     194.876E-03     120.601E-03    -207.289E-03    -168.926E-03     116.572E-03     160.541E-03    -208.115E-03     16.8309E-03    -5.94829E-03    -10.8826E-03    -5.37559E-03     16.2582E-03    -10.8826E-03     6.84922E-03     51.5636E+06    -15.7184E+06    -34.6408E+06    -15.8340E+06     51.5079E+06    -34.4696E+06     1.07290E+06         27.3151
            1163     11.8614E-03     2.03606E-03     184.963E-03     61.6217E-03    -193.220E-03    -95.4470E-03    -36.1514E-03     184.963E-03    -215.644E-03     17.0905E-03    -5.92230E-03    -11.1682E-03    -5.41586E-03     16.5841E-03    -11.1682E-03     6.66569E-03     31.4636E+06    -13.6294E+06    -69.4067E+06    -13.0669E+06     30.9012E+06    -69.4067E+06    -2.90647E+06         24.7944
            1164     10.8684E-03     2.03854E-03     206.474E-03     56.5379E-03    -263.871E-03    -9.12966E-03    -198.204E-03     206.474E-03    -240.993E-03     18.3571E-03    -6.69840E-03    -11.6587E-03    -6.27214E-03     17.9308E-03    -11.6587E-03     6.32421E-03     8.62471E+06    -30.5885E+06    -84.1959E+06    -8.89603E+06    -13.0678E+06    -84.1959E+06    -10.8245E+06         23.4674
            1165     9.87353E-03     2.04006E-03     224.474E-03     125.897E-03    -403.180E-03     82.0865E-03    -358.179E-03     223.284E-03    -290.203E-03     19.7985E-03    -7.49520E-03    -12.3033E-03    -7.19680E-03     19.5001E-03    -12.3033E-03     5.58410E-03    -501.842E+03    -62.9269E+06    -86.2881E+06    -7.07157E+06    -64.0986E+06    -78.5467E+06    -20.0660E+06         22.8646
            1166     8.88225E-03     2.04382E-03     255.736E-03     188.672E-03    -548.277E-03     163.471E-03    -501.453E-03     234.113E-03    -358.537E-03     21.4925E-03    -8.53717E-03    -12.9554E-03    -8.30043E-03     21.2558E-03    -12.9554E-03     5.19940E-03    -1.31681E+06    -72.9900E+06    -111.779E+06    -7.61371E+06    -105.483E+06    -72.9900E+06    -24.8435E+06         22.6379
            1167     7.88967E-03     2.04665E-03     292.592E-03     222.896E-03    -671.430E-03     223.864E-03    -618.510E-03     238.704E-03    -424.925E-03     23.2741E-03    -9.63985E-03    -13.6343E-03    -9.45673E-03     23.0910E-03    -13.6343E-03     4.81253E-03    -3.62635E+06    -62.1751E+06    -147.173E+06    -8.76786E+06    -142.032E+06    -62.1751E+06    -26.2088E+06         22.5859
            1168     6.90041E-03     2.05091E-03     321.527E-03     236.449E-03    -765.120E-03     260.046E-03    -704.857E-03     237.666E-03    -481.235E-03     25.1445E-03    -10.8315E-03    -14.3130E-03    -10.6832E-03     24.9962E-03    -14.3130E-03     4.52252E-03    -5.44236E+06    -48.1520E+06    -175.223E+06    -9.34696E+06    -171.318E+06    -48.1520E+06    -24.9130E+06         22.6091
            1169     5.91052E-03     2.05490E-03     336.681E-03     232.018E-03    -824.604E-03     275.095E-03    -763.019E-03     232.018E-03    -499.942E-03     27.0618E-03    -12.0928E-03    -14.9691E-03    -11.9757E-03     26.9448E-03    -14.9691E-03     4.18327E-03    -8.74150E+06    -34.5393E+06    -202.550E+06    -11.2614E+06    -200.031E+06    -34.5393E+06    -21.3658E+06         22.6633
            1170     4.92341E-03     2.05949E-03     336.916E-03     222.711E-03    -857.770E-03     274.574E-03    -795.428E-03     222.711E-03    -505.896E-03     28.8781E-03    -13.3491E-03    -15.5290E-03    -13.2579E-03     28.7870E-03    -15.5290E-03     3.81993E-03    -13.6407E+06    -27.5224E+06    -216.617E+06    -15.2706E+06    -214.987E+06    -27.5224E+06    -17.7210E+06         22.7286
            1171     3.93668E-03     2.06369E-03     317.870E-03     210.193E-03    -860.835E-03     264.245E-03    -807.210E-03     210.193E-03    -460.124E-03     30.4602E-03    -14.4802E-03    -15.9800E-03    -14.4172E-03     30.3972E-03    -15.9800E-03     3.27359E-03    -16.9041E+06    -26.2905E+06    -217.004E+06    -19.0751E+06    -215.984E+06    -25.1392E+06    -13.7095E+06         22.7939
            1172     2.95167E-03     2.06805E-03     287.807E-03     195.619E-03    -847.763E-03     239.018E-03    -798.974E-03     195.619E-03    -427.602E-03     31.8304E-03    -15.4806E-03    -16.3498E-03    -15.4442E-03     31.7940E-03    -16.3498E-03     2.55814E-03    -19.3540E+06    -24.6518E+06    -219.564E+06    -22.0611E+06    -219.070E+06    -22.4381E+06    -9.40581E+06         22.8505
            1173     1.96728E-03     2.07167E-03     239.348E-03     180.658E-03    -813.982E-03     209.459E-03    -784.093E-03     180.658E-03    -272.897E-03     32.7845E-03    -16.1757E-03    -16.6088E-03    -16.1573E-03     32.7661E-03    -16.6088E-03     1.81013E-03    -22.3479E+06    -26.8281E+06    -221.981E+06    -26.4973E+06    -221.786E+06    -22.8744E+06    -6.00914E+06         22.8928
            1174     983.284E-06     2.07387E-03     569.798E-03    -99.7438E-03    -882.800E-03    -209.304E-03    -759.008E-03     555.566E-03    -321.782E-03     33.3883E-03    -16.4919E-03    -16.8964E-03    -16.5237E-03     33.3809E-03    -16.8572E-03     1.13099E-03    -28.3962E+06    -34.0107E+06    -225.383E+06    -32.2503E+06    -225.254E+06    -30.2857E+06    -1.67708E+06         22.9190
            1175     16.8329E-03     1.00805E-03     651.995E-03     80.9409E-03    -325.158E-03    -323.429E-03     650.266E-03     80.9409E-03    -59.9239E-03     153.890E-03    -10.9399E-03    -142.950E-03    -110.319E-03     123.508E-03    -13.1897E-03     169.173E-03     128.745E+06     106.704E+06    -7.71107E+06    -6.76096E+06     126.127E+06     108.372E+06    -2.75639E+06         46.5964
            1176     15.8385E-03     1.01810E-03     542.921E-03     106.727E-03    -315.192E-03    -311.068E-03     538.798E-03     106.727E-03    -105.432E-03     16.9549E-03    -5.54844E-03    -11.4065E-03    -5.91279E-03     16.7522E-03    -10.8394E-03     2.65609E-03     93.7570E+06     59.1419E+06    -12.4116E+06    -11.9475E+06     93.2930E+06     59.1419E+06     3.62520E+06         41.8325
            1177     14.8359E-03     1.01915E-03     422.982E-03     133.939E-03    -293.036E-03    -286.811E-03     416.757E-03     133.939E-03    -116.859E-03     16.6428E-03    -5.68302E-03    -10.9598E-03    -5.17396E-03     16.1337E-03    -10.9598E-03     5.41753E-03     75.3547E+06     26.9663E+06    -15.2064E+06    -14.6708E+06     74.8191E+06     26.9663E+06     4.63607E+06         36.2586
            1178     13.8461E-03     1.01502E-03     293.228E-03     162.799E-03    -256.431E-03    -247.775E-03     284.572E-03     162.799E-03    -121.472E-03     16.8965E-03    -5.73112E-03    -11.1654E-03    -5.22777E-03     16.3932E-03    -11.1654E-03     5.44973E-03     66.3177E+06     642.464E+03    -12.7566E+06    -12.5697E+06     66.1308E+06     642.464E+03     3.55324E+06         31.2065
            1179     12.8482E-03     1.01797E-03     216.292E-03     129.504E-03    -209.003E-03    -194.593E-03     138.865E-03     192.522E-03    -122.317E-03     16.8316E-03    -5.40101E-03    -11.4306E-03    -5.18754E-03     16.6181E-03    -11.4306E-03     3.85180E-03     55.0649E+06    -10.4726E+06    -30.1577E+06    -10.6742E+06     54.9728E+06    -29.8641E+06     1.57433E+06         27.5130
            1180     11.8555E-03     1.01878E-03     221.980E-03     25.5884E-03    -171.681E-03    -123.979E-03    -22.1127E-03     221.980E-03    -125.363E-03     17.9089E-03    -6.18045E-03    -11.7284E-03    -5.93243E-03     17.6608E-03    -11.7284E-03     4.32016E-03     34.9774E+06    -8.11147E+06    -69.2150E+06    -7.75348E+06     34.6194E+06    -69.2150E+06    -2.06460E+06         25.2506
            1181     10.8604E-03     1.01935E-03     249.674E-03    -2.35061E-03    -230.645E-03    -39.3525E-03    -193.643E-03     249.674E-03    -138.087E-03     18.9616E-03    -6.77658E-03    -12.1850E-03    -6.60705E-03     18.7920E-03    -12.1850E-03     3.77724E-03     11.1200E+06    -21.4141E+06    -93.3524E+06    -4.43345E+06    -5.86064E+06    -93.3524E+06    -6.31967E+06         24.0657
            1182     9.86847E-03     1.02070E-03     273.904E-03     72.5212E-03    -384.182E-03     54.1557E-03    -365.816E-03     273.904E-03    -160.262E-03     20.3389E-03    -7.49837E-03    -12.8406E-03    -7.37583E-03     20.2164E-03    -12.8406E-03     3.30930E-03    -843.174E+03    -59.9584E+06    -96.6586E+06    -3.51568E+06    -59.6507E+06    -94.2937E+06    -11.2652E+06         23.5362
            1183     8.87462E-03     1.02182E-03     293.135E-03     162.223E-03    -544.284E-03     145.647E-03    -527.708E-03     293.135E-03    -193.746E-03     22.0087E-03    -8.44107E-03    -13.5676E-03    -8.35260E-03     21.9202E-03    -13.5676E-03     2.95024E-03    -3.30854E+06    -84.7713E+06    -112.836E+06    -5.63081E+06    -106.404E+06    -88.8804E+06    -13.9416E+06         23.3489
            1184     7.88445E-03     1.02378E-03     306.727E-03     237.487E-03    -685.604E-03     220.160E-03    -668.277E-03     306.727E-03    -224.317E-03     23.8616E-03    -9.54351E-03    -14.3181E-03    -9.47222E-03     23.7903E-03    -14.3181E-03     2.75751E-03    -7.67505E+06    -82.9070E+06    -145.934E+06    -9.76045E+06    -143.848E+06    -82.9070E+06    -15.1286E+06         23.3220
            1185     6.89297E-03     1.02567E-03     323.102E-03     285.042E-03    -800.601E-03     274.885E-03    -782.266E-03     314.924E-03    -250.499E-03     25.8935E-03    -10.7913E-03    -15.1022E-03    -10.7360E-03     25.8382E-03    -15.1022E-03     2.54923E-03    -12.7240E+06    -73.2086E+06    -178.745E+06    -14.4920E+06    -176.977E+06    -73.2086E+06    -15.2578E+06         23.3655
            1186     5.90488E-03     1.02794E-03     338.978E-03     306.804E-03    -888.074E-03     309.659E-03    -870.337E-03     318.386E-03    -256.969E-03     28.1005E-03    -12.1919E-03    -15.9086E-03    -12.1483E-03     28.0569E-03    -15.9086E-03     2.35930E-03    -17.2732E+06    -58.5965E+06    -208.244E+06    -18.2838E+06    -207.233E+06    -58.5965E+06    -12.5957E+06         23.4388
            1187     4.91680E-03     1.03011E-03     346.800E-03     315.277E-03    -949.398E-03     327.131E-03    -932.490E-03     318.037E-03    -259.008E-03     30.2810E-03    -13.6156E-03    -16.6654E-03    -13.5837E-03     30.2492E-03    -16.6654E-03     2.12229E-03    -21.1083E+06    -45.4408E+06    -221.722E+06    -21.6971E+06    -221.134E+06    -45.4408E+06    -9.50053E+06         23.5233
            1188     3.93110E-03     1.03268E-03     350.326E-03     314.120E-03    -987.020E-03     336.623E-03    -973.317E-03     314.120E-03    -231.837E-03     32.3813E-03    -15.0461E-03    -17.3352E-03    -15.0223E-03     32.3575E-03    -17.3352E-03     1.87889E-03    -25.4780E+06    -38.4042E+06    -222.826E+06    -25.8054E+06    -222.499E+06    -38.4042E+06    -7.17620E+06         23.6071
            1189     2.94630E-03     1.03483E-03     341.138E-03     307.478E-03        -1.00256     329.202E-03    -990.625E-03     307.478E-03    -217.574E-03     34.3813E-03    -16.4557E-03    -17.9256E-03    -16.4410E-03     34.3666E-03    -17.9256E-03     1.53168E-03    -28.5628E+06    -34.3523E+06    -225.759E+06    -30.1313E+06    -225.585E+06    -32.9574E+06    -5.08194E+06         23.6803
            1190     1.96346E-03     1.03712E-03     323.717E-03     299.345E-03        -1.00464     316.611E-03    -997.534E-03     299.345E-03    -137.785E-03     36.0354E-03    -17.6533E-03    -18.3821E-03    -17.6461E-03     36.0282E-03    -18.3821E-03     1.09774E-03    -28.0632E+06    -34.0382E+06    -226.292E+06    -34.1200E+06    -226.210E+06    -28.0632E+06    -2.39236E+06         23.7359
            1191     981.541E-06     1.03865E-03     734.132E-03    -110.779E-03        -1.02086    -133.670E-03    -987.396E-03     723.562E-03    -173.563E-03     37.0792E-03    -18.2856E-03    -18.7937E-03    -18.3624E-03     37.0747E-03    -18.7122E-03     621.509E-06    -34.1356E+06    -41.3476E+06    -229.219E+06    -39.5540E+06    -229.123E+06    -36.0251E+06     359.215E+03         23.7710
            1192     982.390E-06     57.7944E-03         14.5708        -2.69416        -10.9993    -595.901E-03         4.16736        -2.69416        -13.1507     37.5149E-03    -18.4638E-03    -19.0511E-03    -18.6495E-03     37.5036E-03    -18.8541E-03     1.27689E-03     417.606E+03    -7.47903E+06    -195.106E+06    -5.58968E+06    -195.054E+06    -1.52306E+06     2.86735E+06         22.7649
            1193     1.96289E-03     57.7968E-03         8.25855        -1.66050        -5.71866        -1.72148         4.26137        -1.66050        -1.11047     37.4623E-03    -18.6753E-03    -18.7870E-03    -18.6628E-03     37.4327E-03    -18.7699E-03     2.52345E-03     2.35309E+06    -3.40426E+06    -193.497E+06    -3.43927E+06    -193.462E+06     2.35309E+06     503.689E+03         22.7879
            1194     2.94552E-03     57.7997E-03         6.38180        -1.64363        -3.88363        -1.49057         3.99476        -1.64965        -7.48429     37.3269E-03    -18.5807E-03    -18.7462E-03    -18.5613E-03     37.2675E-03    -18.7061E-03     3.59430E-03    -966.150E+03    -3.88686E+06    -194.928E+06    -2.17387E+06    -194.919E+06    -2.68854E+06    -1.21919E+06         22.8263
            1195     3.92741E-03     57.8047E-03         5.43172        -1.59290        -2.96336        -1.40078         3.87516        -1.59892        -5.53725     37.1891E-03    -18.5288E-03    -18.6602E-03    -18.4539E-03     37.0845E-03    -18.6306E-03     4.77676E-03    -2.09169E+06    -6.03653E+06    -189.039E+06    -2.09612E+06    -189.035E+06    -6.03653E+06    -413.964E+03         22.8819
            1196     4.90944E-03     57.8095E-03         5.55727        -1.53983        -3.14129        -1.19013         3.60611        -1.53983        -7.10341     37.0750E-03    -18.5141E-03    -18.5609E-03    -18.3647E-03     36.9256E-03    -18.5609E-03     5.74022E-03    -519.343E+03    -5.39927E+06    -174.054E+06    -543.732E+03    -174.030E+06    -5.39927E+06    -199.302E+03         22.9574
            1197     5.89179E-03     57.8164E-03         4.77843        -1.46952        -2.44275        -1.03658         3.37225        -1.46952        -5.63331     37.0988E-03    -18.4864E-03    -18.6124E-03    -18.3872E-03     36.8849E-03    -18.4977E-03     6.84205E-03     386.046E+03    -6.56124E+06    -161.016E+06     350.674E+03    -160.981E+06    -6.56124E+06     -88.077E+03         23.0572
            1198     6.87366E-03     57.8233E-03         4.37598        -1.39498        -2.13221    -844.970E-03         3.08875        -1.39498        -5.09772     37.0258E-03    -18.4434E-03    -18.5824E-03    -18.2893E-03     36.7423E-03    -18.4529E-03     7.90056E-03    -1.18056E+06    -7.44538E+06    -151.283E+06    -1.20588E+06    -151.258E+06    -7.44538E+06     873.397E+03         23.1884
            1199     7.85588E-03     57.8326E-03         3.42852        -1.23576        -1.35165    -671.779E-03         2.82917        -1.31628        -3.13479     36.7791E-03    -18.3135E-03    -18.4655E-03    -18.0441E-03     36.4340E-03    -18.3899E-03     8.67865E-03    -2.97038E+06    -7.99742E+06    -134.093E+06    -3.19115E+06    -134.052E+06    -7.81771E+06     965.700E+03         23.3652
            1200     8.83830E-03     57.8414E-03         2.84442    -765.747E-03        -1.23538    -488.368E-03         2.56704        -1.23538        -1.46430     36.5612E-03    -18.2069E-03    -18.3544E-03    -17.8479E-03     36.1216E-03    -18.2737E-03     9.73150E-03    -6.86660E+06    -15.1221E+06    -110.708E+06    -7.11594E+06    -110.639E+06    -14.9424E+06    -392.391E+03         23.6221
            1201     9.82162E-03     57.8520E-03         2.41350    -408.833E-03        -1.15384    -334.617E-03         2.33928        -1.15384     597.811E-03     36.4457E-03    -18.1639E-03    -18.2818E-03    -17.6780E-03     35.8448E-03    -18.1668E-03     11.3298E-03    -12.0354E+06    -19.7411E+06    -85.5580E+06    -12.0927E+06    -85.5008E+06    -19.7411E+06    -257.362E+03         24.0523
            1202     10.8029E-03     57.8643E-03         2.60053    -665.352E-03        -1.08088    -212.443E-03         2.14141        -1.07466         2.13616     36.1246E-03    -18.0043E-03    -18.1203E-03    -17.2918E-03     35.3170E-03    -18.0252E-03     13.0613E-03    -14.1891E+06    -27.5464E+06    -54.9714E+06    -14.5198E+06    -54.6408E+06    -27.5464E+06     1.48736E+06         24.9042
            1203     11.7883E-03     57.8776E-03         2.92796    -947.420E-03        -1.12876    -143.979E-03         1.99659        -1.00084         3.37144     36.0447E-03    -17.7954E-03    -18.2493E-03    -16.8950E-03     34.7083E-03    -17.8133E-03     16.5561E-03     2.75220E+06    -26.2906E+06    -43.8476E+06    -15.6447E+06    -9.18223E+06    -42.5591E+06     2.29531E+06         26.7727
            1204     12.7694E-03     57.8976E-03         3.11753    -935.190E-03        -1.32800    -119.666E-03         1.90920    -935.190E-03         3.95198     37.4042E-03    -17.6442E-03    -19.7600E-03    -16.3015E-03     33.9457E-03    -17.6442E-03     26.3732E-03     41.6658E+06    -16.4085E+06    -47.4782E+06    -16.2822E+06     41.5396E+06    -47.4782E+06     1.20678E+06         30.8389
            1205     13.7564E-03     57.9285E-03         3.14205    -879.469E-03        -1.39231    -141.329E-03         1.89108    -879.469E-03         4.05124     39.9600E-03    -17.5970E-03    -22.3630E-03    -15.1805E-03     32.7775E-03    -17.5970E-03     39.4026E-03     61.9507E+06    -21.3129E+06    -39.2469E+06    -21.6442E+06     60.9977E+06    -37.9627E+06     2.09353E+06         38.8306
            1206     14.7420E-03     57.9760E-03         2.96539    -835.413E-03        -1.23028    -210.097E-03         1.94520    -835.413E-03         3.59051     50.2112E-03    -17.6563E-03    -32.5549E-03    -14.3400E-03     31.9964E-03    -17.6563E-03     66.8708E-03     68.7254E+06    -6.82170E+06    -29.6812E+06    -25.2079E+06     66.1004E+06    -8.67017E+06    -158.973E+03         52.0428
            1207     15.7364E-03     58.0573E-03         2.69686    -785.968E-03    -971.143E-03    -334.615E-03         2.08434    -809.973E-03         2.67056     138.612E-03    -17.7843E-03    -120.827E-03    -26.1821E-03     43.9664E-03    -17.7843E-03     247.853E-03     107.534E+06     35.7342E+06    -13.1968E+06    -10.5749E+06     104.912E+06     35.7342E+06    -2.78310E+06         69.2157
            1208     16.6961E-03     58.5113E-03         2.50761    -701.777E-03    -833.481E-03    -510.673E-03         2.30847    -825.446E-03         1.37176     385.642E-03    -18.4686E-03    -367.174E-03    -126.045E-03     144.514E-03    -18.4686E-03     699.016E-03     159.300E+06     116.866E+06    -4.06615E+06    -2.93259E+06     155.362E+06     119.670E+06    -4.67912E+06         85.1085
            1209     981.242E-06     58.8321E-03         11.3527        -3.07472        -7.35420    -429.988E-03         4.42852        -3.07472        -10.1151     37.3984E-03    -18.5377E-03    -18.8607E-03    -18.8020E-03     37.3882E-03    -18.5862E-03     1.14963E-03    -1.44056E+06    -9.59611E+06    -196.682E+06    -5.78859E+06    -196.636E+06    -5.29366E+06     1.43657E+06         22.7765
            1210     1.96407E-03     58.8339E-03         7.01597        -1.77143        -4.33746        -1.84626         4.52477        -1.77143        -2.14725     37.5606E-03    -18.7298E-03    -18.8308E-03    -18.7969E-03     37.5331E-03    -18.7362E-03     2.44822E-03     1.87197E+06    -3.74899E+06    -192.297E+06    -1.94096E+06    -192.256E+06      23.352E+03     306.856E+03         22.7992
            1211     2.94489E-03     58.8370E-03         6.15388        -1.76337        -3.51302        -1.60106         4.24192        -1.76337        -7.06728     37.4097E-03    -18.6599E-03    -18.7499E-03    -18.6168E-03     37.3562E-03    -18.7395E-03     3.40634E-03     98.3425E+03    -2.69019E+06    -194.453E+06    -1.92618E+06    -194.445E+06    -674.358E+03    -394.509E+03         22.8375
            1212     3.92727E-03     58.8408E-03         5.58065        -1.71138        -2.97222        -1.50874         4.11716        -1.71138        -5.92710     37.1826E-03    -18.5264E-03    -18.6562E-03    -18.4361E-03     37.0923E-03    -18.6562E-03     4.45298E-03    -1.88219E+06    -7.24005E+06    -188.671E+06    -3.04149E+06    -188.661E+06    -6.09106E+06    -1.02578E+06         22.8929
            1213     4.90943E-03     58.8468E-03         5.67554        -1.65022        -3.12677        -1.28703         3.83581        -1.65022        -7.07530     37.0765E-03    -18.4930E-03    -18.5835E-03    -18.3901E-03     36.9475E-03    -18.5575E-03     5.33216E-03    -4.69648E+06    -11.3633E+06    -173.678E+06    -4.72118E+06    -173.654E+06    -11.3633E+06    -1.89922E+06         22.9685
            1214     5.89139E-03     58.8524E-03         5.03245        -1.57683        -2.56100        -1.12488         3.59633        -1.57683        -5.90411     37.1105E-03    -18.5076E-03    -18.6029E-03    -18.4120E-03     36.9275E-03    -18.5155E-03     6.34439E-03    -5.83134E+06    -10.4427E+06    -162.775E+06    -5.85741E+06    -162.748E+06    -10.4427E+06    -217.917E+03         23.0687
            1215     6.87351E-03     58.8609E-03         4.56913        -1.49891        -2.19442    -925.766E-03         3.30048        -1.49891        -5.22520     36.9955E-03    -18.4437E-03    -18.5519E-03    -18.2893E-03     36.7649E-03    -18.4757E-03     7.12990E-03    -6.30418E+06    -10.0961E+06    -151.925E+06    -6.31748E+06    -151.911E+06    -10.0961E+06     1.30906E+06         23.2006
            1216     7.85571E-03     58.8682E-03         3.68100        -1.31756        -1.49885    -746.449E-03         3.02786        -1.41681        -3.39749     36.6842E-03    -18.2698E-03    -18.4144E-03    -17.9968E-03     36.3964E-03    -18.3996E-03     7.88593E-03    -6.45606E+06    -11.6356E+06    -133.624E+06    -6.65791E+06    -133.602E+06    -11.4559E+06     1.30018E+06         23.3779
            1217     8.83863E-03     58.8781E-03         3.02885    -832.797E-03        -1.33245    -553.431E-03         2.74949        -1.33245        -1.68002     36.4871E-03    -18.1914E-03    -18.2957E-03    -17.8358E-03     36.1292E-03    -18.2933E-03     8.79968E-03    -7.18447E+06    -15.0851E+06    -110.406E+06    -7.44430E+06    -110.326E+06    -14.9054E+06     2.25126E+06         23.6341
            1218     9.82036E-03     58.8877E-03         2.55934    -444.528E-03        -1.24719    -389.664E-03         2.50447        -1.24719     312.242E-03     36.2194E-03    -18.0337E-03    -18.1857E-03    -17.5627E-03     35.7459E-03    -18.1833E-03     9.98601E-03    -9.45730E+06    -18.3803E+06    -86.7483E+06    -9.55207E+06    -86.6536E+06    -18.3803E+06     2.43473E+06         24.0598
            1219     10.8050E-03     58.9003E-03         2.64133    -609.622E-03        -1.16405    -255.954E-03         2.28766        -1.16405         1.86391     36.0220E-03    -17.8703E-03    -18.1517E-03    -17.3506E-03     35.3814E-03    -18.0308E-03     11.6189E-03    -11.8205E+06    -25.5910E+06    -55.7605E+06    -11.8676E+06    -54.3616E+06    -26.9429E+06     1.26787E+06         24.8991
            1220     11.7859E-03     58.9127E-03         2.90448    -920.221E-03        -1.12005    -177.613E-03         2.12793        -1.08611         3.07404     35.5511E-03    -17.5332E-03    -18.0179E-03    -16.7371E-03     34.5464E-03    -17.8093E-03     14.1364E-03     2.81167E+06    -22.0940E+06    -43.6161E+06    -11.8447E+06    -8.60744E+06    -42.4462E+06    -7.60724E+03         26.7420
            1221     12.7730E-03     58.9318E-03         3.07401        -1.00276        -1.20824    -146.545E-03         2.02604        -1.01649         3.66770     36.5906E-03    -17.3701E-03    -19.2205E-03    -16.1166E-03     33.7479E-03    -17.6312E-03     23.3879E-03     41.2652E+06    -13.6521E+06    -47.1955E+06    -13.2971E+06     40.9102E+06    -47.1955E+06     484.953E+03         30.7746
            1222     13.7550E-03     58.9631E-03         3.09123    -957.179E-03        -1.25992    -163.667E-03         1.99497    -957.179E-03         3.77418     37.6080E-03    -17.4998E-03    -20.1082E-03    -14.6602E-03     32.1600E-03    -17.4998E-03     33.2477E-03     59.5990E+06    -13.4465E+06    -48.2170E+06    -12.4021E+06     58.5546E+06    -48.2170E+06     3.16801E+06         38.7530
            1223     14.7448E-03     59.0037E-03         2.93145    -910.431E-03        -1.12158    -228.248E-03         2.03811    -910.431E-03         3.34891     50.5699E-03    -17.6603E-03    -32.9096E-03    -16.5085E-03     34.1688E-03    -17.6603E-03     64.6953E-03     77.9797E+06     16.5055E+06    -29.9277E+06    -7.49837E+06     75.7779E+06    -3.72207E+06    -3.45598E+06         51.9978
            1224     15.7168E-03     59.1008E-03         2.68845    -806.991E-03    -950.934E-03    -343.446E-03         2.15868    -884.712E-03         2.48098     136.441E-03    -17.8271E-03    -118.614E-03    -21.0378E-03     38.8649E-03    -17.8271E-03     244.278E-03     113.836E+06     54.2347E+06    -12.1779E+06    -10.0432E+06     111.701E+06     54.2347E+06    -13.7930E+06         69.3513
            1225     16.7417E-03     59.5351E-03         2.50752    -668.649E-03    -908.057E-03    -498.399E-03         2.33727    -908.057E-03         1.26069     398.047E-03    -18.3416E-03    -379.705E-03    -136.550E-03     154.892E-03    -18.3416E-03     713.123E-03     153.124E+06     119.927E+06    -11.6944E+06    -10.6986E+06     150.113E+06     121.942E+06    -7.53805E+06         85.5074
            1226     982.613E-06     59.8690E-03         8.26231        -2.57874        -4.72653    -172.904E-03         4.60181        -3.47187        -6.91232     37.6296E-03    -18.6588E-03    -18.9707E-03    -18.8451E-03     37.6227E-03    -18.7776E-03     1.13775E-03    -2.28790E+06    -7.34386E+06    -194.710E+06    -3.61097E+06    -194.590E+06    -6.14099E+06    -1.99530E+06         22.7920
            1227     1.96288E-03     59.8714E-03         6.03414        -1.84483        -3.25386        -1.93316         4.71343        -1.84483        -3.26105     37.5302E-03    -18.6595E-03    -18.8707E-03    -18.7174E-03     37.5107E-03    -18.7933E-03     1.95612E-03    -4.42066E+06    -8.00286E+06    -194.508E+06    -6.17528E+06    -194.487E+06    -6.26928E+06    -124.016E+03         22.8143
            1228     2.94562E-03     59.8739E-03         5.95185        -1.84070        -3.21158        -1.68242         4.42269        -1.84070        -6.61144     37.5066E-03    -18.7081E-03    -18.7985E-03    -18.6842E-03     37.4627E-03    -18.7785E-03     3.08183E-03    -2.60406E+06    -4.98218E+06    -193.059E+06    -4.74023E+06    -193.052E+06    -2.85261E+06    -216.288E+03         22.8524
            1229     3.92689E-03     59.8781E-03         5.75927        -1.79090        -3.05204        -1.60161         4.30884        -1.79090        -6.33295     37.4658E-03    -18.6930E-03    -18.7728E-03    -18.6615E-03     37.3909E-03    -18.7294E-03     4.05736E-03    -2.71197E+06    -7.16706E+06    -187.207E+06    -3.87330E+06    -187.195E+06    -6.01808E+06    -1.09923E+06         22.9080
            1230     4.90892E-03     59.8830E-03         5.77255        -1.73238        -3.11986        -1.38052         4.03321        -1.73238        -7.02378     37.3354E-03    -18.6278E-03    -18.7077E-03    -18.5683E-03     37.2255E-03    -18.6572E-03     4.93132E-03    -5.88696E+06    -12.3559E+06    -174.530E+06    -5.93696E+06    -174.480E+06    -12.3559E+06    -100.931E+03         22.9836
            1231     5.89079E-03     59.8900E-03         5.27341        -1.66125        -2.69576        -1.22479         3.80243        -1.66125        -6.16896     37.2219E-03    -18.5808E-03    -18.6412E-03    -18.4657E-03     37.0667E-03    -18.6010E-03     5.84772E-03    -10.2467E+06    -16.4353E+06    -165.255E+06    -10.2962E+06    -165.205E+06    -16.4353E+06     1.77991E+06         23.0840
            1232     6.87276E-03     59.8969E-03         4.75549        -1.58582        -2.27535        -1.03168         3.51182        -1.58582        -5.33464     37.0223E-03    -18.4752E-03    -18.5471E-03    -18.2979E-03     36.8319E-03    -18.5340E-03     6.47912E-03    -12.9689E+06    -19.3584E+06    -150.871E+06    -12.9842E+06    -150.856E+06    -19.3584E+06     868.038E+03         23.2164
            1233     7.85512E-03     59.9052E-03         3.94271        -1.40568        -1.65466    -857.169E-03         3.24581        -1.50627        -3.64492     36.8417E-03    -18.3821E-03    -18.4596E-03    -18.1636E-03     36.6153E-03    -18.4517E-03     7.03679E-03    -12.8334E+06    -22.2947E+06    -133.837E+06    -12.8400E+06    -133.830E+06    -22.2947E+06    -142.752E+03         23.3943
            1234     8.83706E-03     59.9137E-03         3.24968    -949.605E-03        -1.42444    -668.647E-03         2.96872        -1.42444        -1.87803     36.6113E-03    -18.2413E-03    -18.3700E-03    -17.9581E-03     36.3202E-03    -18.3621E-03     7.93559E-03    -12.0437E+06    -24.0825E+06    -112.786E+06    -12.1291E+06    -112.701E+06    -24.0825E+06     1.72573E+06         23.6503
            1235     9.82029E-03     59.9247E-03         2.77099    -553.811E-03        -1.34143    -503.989E-03         2.72117        -1.34143     46.1280E-03     36.4079E-03    -18.0342E-03    -18.3737E-03    -17.7928E-03     36.0593E-03    -18.2666E-03     8.67154E-03    -11.9901E+06    -24.8391E+06    -86.2560E+06    -12.0962E+06    -86.1499E+06    -24.8391E+06     2.66852E+06         24.0731
            1236     10.8019E-03     59.9345E-03         2.75821    -623.407E-03        -1.25997    -366.198E-03         2.50100        -1.25997         1.61772     36.1606E-03    -17.8088E-03    -18.3517E-03    -17.5478E-03     35.6715E-03    -18.1237E-03     10.1362E-03    -12.0033E+06    -28.6681E+06    -56.0222E+06    -12.0587E+06    -52.3189E+06    -32.3160E+06     687.598E+03         24.9028
            1237     11.7861E-03     59.9509E-03         2.95185    -902.888E-03        -1.18304    -281.267E-03         2.33023        -1.18304         2.80337     35.8228E-03    -17.4872E-03    -18.3356E-03    -17.2383E-03     35.1591E-03    -17.9207E-03     11.8311E-03     2.53257E+06    -25.2736E+06    -49.1989E+06    -15.0778E+06    -7.66322E+06    -49.1989E+06    -599.535E+03         26.7256
            1238     12.7675E-03     59.9626E-03         3.09416        -1.05679        -1.17678    -240.090E-03         2.21444        -1.11376         3.41558     36.5003E-03    -17.5174E-03    -18.9828E-03    -16.3728E-03     34.1513E-03    -17.7786E-03     20.6615E-03     40.5931E+06    -17.7728E+06    -51.8167E+06    -17.3396E+06     40.1598E+06    -51.8167E+06    -1.03635E+06         30.7294
            1239     13.7534E-03     60.0021E-03         3.09792        -1.05416        -1.17900    -244.689E-03         2.16361        -1.05416         3.52887     37.7411E-03    -17.7298E-03    -20.0113E-03    -16.0415E-03     33.7712E-03    -17.7298E-03     29.1816E-03     61.7646E+06    -12.5642E+06    -45.8818E+06    -12.3991E+06     60.4276E+06    -44.7099E+06    -6.65105E+06         38.6905
            1240     14.7379E-03     60.0281E-03         2.94344    -983.486E-03        -1.07991    -288.797E-03         2.17552        -1.00668         3.13874     51.3661E-03    -17.9511E-03    -33.4150E-03    -16.4583E-03     34.4094E-03    -17.9511E-03     63.8974E-03     81.2968E+06     23.6706E+06    -27.1173E+06    -7.33718E+06     79.8958E+06     5.29147E+06    -3.73090E+06         52.0009
            1241     15.7295E-03     60.1534E-03         2.71240    -823.307E-03    -992.293E-03    -382.796E-03         2.26047    -980.877E-03         2.31446     126.965E-03    -18.3210E-03    -108.644E-03    -24.4584E-03     42.7794E-03    -18.3210E-03     223.176E-03     113.357E+06     62.4979E+06    -16.0477E+06    -14.5020E+06     111.811E+06     62.4979E+06     4.42261E+06         69.4430
            1242     16.7082E-03     60.5102E-03         2.50756    -636.671E-03        -1.00763    -487.650E-03         2.35854        -1.00763         1.20831     396.818E-03    -18.9119E-03    -377.906E-03    -137.583E-03     156.495E-03    -18.9119E-03     711.635E-03     150.993E+06     120.998E+06    -17.9764E+06    -16.2779E+06     146.295E+06     123.997E+06    -454.679E+03         85.8673
            1243     980.215E-06     60.9073E-03         6.05487    -789.294E-03        -4.28755     125.546E-03         4.68945        -3.83697        -3.53624     38.0445E-03    -18.8633E-03    -19.1812E-03    -19.0029E-03     38.0391E-03    -19.0362E-03     746.546E-06    -3.35688E+06    -11.1238E+06    -196.519E+06    -11.3603E+06    -196.283E+06    -3.35688E+06     548.712E+03         22.8094
            1244     1.96350E-03     60.9080E-03         5.65368        -1.87955        -2.81407        -1.97480         4.81441        -1.87955        -4.39188     37.7938E-03    -18.7688E-03    -19.0251E-03    -18.7793E-03     37.7781E-03    -18.9988E-03     1.76160E-03    -951.206E+03    -6.48552E+06    -192.826E+06    -5.61295E+06    -192.813E+06    -1.83673E+06     71.5286E+03         22.8319
            1245     2.94453E-03     60.9114E-03         5.80260        -1.87971        -3.00215        -1.73749         4.53794        -1.87971        -6.11963     37.7887E-03    -18.8247E-03    -18.9639E-03    -18.8385E-03     37.7562E-03    -18.9178E-03     2.67171E-03    -4.56975E+06    -6.39445E+06    -192.210E+06    -5.11070E+06    -192.176E+06    -5.88748E+06    -1.62340E+06         22.8703
            1246     3.92657E-03     60.9153E-03         5.94815        -1.83560        -3.17415        -1.67158         4.44558        -1.83560        -6.72290     37.7896E-03    -18.8517E-03    -18.9380E-03    -18.8367E-03     37.7313E-03    -18.8946E-03     3.59351E-03    -4.22039E+06    -5.01755E+06    -186.694E+06    -4.49313E+06    -186.658E+06    -4.78034E+06    -1.51988E+06         22.9260
            1247     4.90787E-03     60.9206E-03         5.83887        -1.78356        -3.11668        -1.46650         4.18869        -1.78356        -6.93786     37.7640E-03    -18.8530E-03    -18.9110E-03    -18.8108E-03     37.6707E-03    -18.8600E-03     4.56954E-03    -3.26852E+06    -6.35107E+06    -178.029E+06    -3.54720E+06    -177.987E+06    -6.11387E+06     1.10048E+06         23.0017
            1248     5.88973E-03     60.9266E-03         5.48371        -1.71964        -2.83381        -1.33026         3.98016        -1.71964        -6.39899     37.5679E-03    -18.7399E-03    -18.8280E-03    -18.6449E-03     37.4452E-03    -18.8003E-03     5.23294E-03    -3.85838E+06    -9.88177E+06    -165.960E+06    -3.91136E+06    -165.907E+06    -9.88177E+06     2.45961E+06         23.1020
            1249     6.87181E-03     60.9341E-03         4.91852        -1.65195        -2.35877        -1.15394         3.71368        -1.65195        -5.39543     37.3798E-03    -18.6415E-03    -18.7383E-03    -18.4884E-03     37.2266E-03    -18.7383E-03     5.82535E-03    -4.19199E+06    -10.0879E+06    -149.102E+06    -4.21275E+06    -149.081E+06    -10.0879E+06     1.11932E+06         23.2346
            1250     7.85355E-03     60.9418E-03         4.19099        -1.49559        -1.80620    -998.650E-03         3.46832        -1.58047        -3.84193     37.3042E-03    -18.6296E-03    -18.6747E-03    -18.4542E-03     37.1201E-03    -18.6659E-03     6.38994E-03    -5.88324E+06    -13.1574E+06    -133.729E+06    -5.89640E+06    -133.716E+06    -13.1574E+06     202.937E+03         23.4131
            1251     8.83579E-03     60.9508E-03         3.48475        -1.09775        -1.50675    -823.648E-03         3.21064        -1.50675        -2.01720     37.1150E-03    -18.4929E-03    -18.6221E-03    -18.3182E-03     36.8968E-03    -18.5786E-03     6.91833E-03    -7.47791E+06    -18.5485E+06    -114.732E+06    -7.52369E+06    -114.686E+06    -18.5485E+06     483.570E+03         23.6693
            1252     9.81772E-03     60.9602E-03         3.03322    -722.927E-03        -1.43146    -669.238E-03         2.97953        -1.43146    -154.292E-03     37.0211E-03    -18.3866E-03    -18.6345E-03    -18.2433E-03     36.7360E-03    -18.4927E-03     7.89883E-03    -7.17018E+06    -20.5596E+06    -86.0411E+06    -7.22698E+06    -85.9843E+06    -20.5596E+06     1.02602E+06         24.0903
            1253     10.7999E-03     60.9731E-03         2.95188    -721.926E-03        -1.35699    -535.223E-03         2.76518        -1.35699         1.43999     36.8055E-03    -18.1801E-03    -18.6255E-03    -18.0862E-03     36.4589E-03    -18.3728E-03     8.62975E-03    -8.92134E+06    -26.2952E+06    -53.2893E+06    -9.03915E+06    -50.8754E+06    -28.5913E+06     1.04163E+06         24.9127
            1254     11.7825E-03     60.9835E-03         3.08863    -942.205E-03        -1.28595    -446.837E-03         2.59326        -1.28595         2.60436     36.5039E-03    -17.8754E-03    -18.6284E-03    -17.7827E-03     35.9717E-03    -18.1890E-03     10.5162E-03     3.32602E+06    -22.5773E+06    -47.7711E+06    -12.1897E+06    -7.71722E+06    -47.1155E+06     311.985E+03         26.7177
            1255     12.7648E-03     61.0043E-03         3.19852        -1.11880        -1.23202    -394.508E-03         2.46340        -1.22119         3.23896     37.3783E-03    -17.9570E-03    -19.4213E-03    -17.5881E-03     35.6863E-03    -18.0982E-03     18.0642E-03     43.6307E+06    -13.7574E+06    -47.7755E+06    -13.3751E+06     43.2483E+06    -47.7755E+06    -3.28308E+06         30.6930
            1256     13.7500E-03     61.0275E-03         3.17928        -1.14939        -1.18808    -378.958E-03         2.38539        -1.16461         3.35577     39.9807E-03    -18.2481E-03    -21.7326E-03    -18.3342E-03     36.5823E-03    -18.2481E-03     27.7164E-03     69.2169E+06    -13.5842E+06    -33.1101E+06    -20.0710E+06     67.9538E+06    -25.3602E+06    -6.42451E+06         38.6254
            1257     14.7273E-03     61.0796E-03         3.01901        -1.04488        -1.13107    -394.465E-03         2.35596        -1.11844         2.99756     50.1228E-03    -18.5458E-03    -31.5771E-03    -19.1322E-03     37.6779E-03    -18.5458E-03     54.9994E-03     71.7167E+06     243.582E+03    -28.6395E+06    -26.2096E+06     69.2868E+06     243.582E+03    -5.63512E+06         51.9428
            1258     15.7163E-03     61.1589E-03         2.77476    -843.268E-03        -1.09280    -444.449E-03         2.37594        -1.09280         2.22683     131.980E-03    -19.0439E-03    -112.936E-03    -31.2284E-03     50.2722E-03    -19.0439E-03     227.018E-03     111.456E+06     47.6523E+06    -13.0125E+06    -10.1047E+06     108.548E+06     47.6523E+06    -1.30652E+06         69.5353
            1259     16.6534E-03     61.6066E-03         2.51172    -625.466E-03        -1.11636    -486.170E-03         2.37242        -1.11636         1.18454     397.660E-03    -19.5995E-03    -378.061E-03    -128.239E-03     147.838E-03    -19.5995E-03     723.263E-03     160.484E+06     121.625E+06    -5.83955E+06    -3.56155E+06     156.529E+06     123.302E+06     1.55097E+06         86.2742
            1260     982.234E-06     61.9440E-03         7.20003    -968.464E-03        -5.23888     457.105E-03         4.68562        -4.15004    -188.491E-03     38.2098E-03    -18.8752E-03    -19.3346E-03    -19.0609E-03     38.2043E-03    -19.1435E-03     740.396E-06     542.591E+03    -11.4974E+06    -195.522E+06    -6.16966E+06    -195.374E+06    -4.93339E+06     1.78836E+06         22.8253
            1261     1.96232E-03     61.9464E-03         5.91128        -1.84571        -3.08523        -1.97660         4.82930        -1.87235        -5.50198     38.3436E-03    -19.0105E-03    -19.3330E-03    -19.1823E-03     38.3273E-03    -19.1450E-03     1.87433E-03     1.76468E+06    -4.45812E+06    -192.002E+06    -2.95601E+06    -191.980E+06     241.200E+03    -1.36891E+06         22.8487
            1262     2.94403E-03     61.9489E-03         5.74398        -1.85193        -2.94996        -1.75995         4.58061        -1.87858        -5.60141     38.2564E-03    -19.0744E-03    -19.1819E-03    -19.0815E-03     38.2237E-03    -19.1422E-03     2.69264E-03    -489.700E+03    -2.88835E+06    -191.383E+06    -1.84398E+06    -191.339E+06    -1.57786E+06    -641.780E+03         22.8875
            1263     3.92526E-03     61.9529E-03         6.11885        -1.84275        -3.32069        -1.71482         4.51298        -1.84275        -7.07356     38.2387E-03    -19.0755E-03    -19.1632E-03    -19.0625E-03     38.1809E-03    -19.1184E-03     3.60463E-03    -2.65310E+06    -3.81669E+06    -187.694E+06    -3.65941E+06    -187.649E+06    -2.85574E+06    -542.409E+03         22.9435
            1264     4.90712E-03     61.9582E-03         5.86514        -1.80052        -3.11027        -1.53838         4.29325        -1.80052        -6.80498     38.1285E-03    -18.9883E-03    -19.1402E-03    -18.9641E-03     38.0466E-03    -19.0824E-03     4.31354E-03    -3.89394E+06    -5.66646E+06    -180.223E+06    -4.86050E+06    -180.218E+06    -4.70550E+06     140.054E+03         23.0192
            1265     5.88828E-03     61.9645E-03         5.65031        -1.74788        -2.96081        -1.43035         4.11985        -1.74788        -6.57277     37.9620E-03    -18.8843E-03    -19.0777E-03    -18.8293E-03     37.8409E-03    -19.0116E-03     5.17299E-03    -3.30391E+06    -8.21666E+06    -166.179E+06    -3.31983E+06    -166.163E+06    -8.21666E+06     371.466E+03         23.1195
            1266     6.86987E-03     61.9711E-03         5.04010        -1.69241        -2.43523        -1.28442         3.88929        -1.69241        -5.39079     37.9094E-03    -18.8766E-03    -19.0328E-03    -18.8104E-03     37.7569E-03    -18.9465E-03     5.85971E-03    -2.46603E+06    -9.50964E+06    -148.373E+06    -2.48672E+06    -148.352E+06    -9.50964E+06     701.301E+03         23.2523
            1267     7.85181E-03     61.9796E-03         4.41010        -1.57467        -1.94274        -1.15632         3.68270        -1.63369        -3.96288     37.8458E-03    -18.8742E-03    -18.9716E-03    -18.7715E-03     37.6754E-03    -18.9039E-03     6.20062E-03    -3.06841E+06    -9.30712E+06    -133.775E+06    -3.08183E+06    -133.762E+06    -9.30712E+06     1.09842E+06         23.4314
            1268     8.83317E-03     61.9879E-03         3.71338        -1.25859        -1.57278        -1.00585         3.46063        -1.57278        -2.06743     37.8133E-03    -18.8352E-03    -18.9780E-03    -18.7729E-03     37.6081E-03    -18.8352E-03     6.79898E-03    -4.54036E+06    -14.2189E+06    -114.270E+06    -4.58825E+06    -114.222E+06    -14.2189E+06     810.893E+03         23.6881
            1269     9.81475E-03     61.9982E-03         3.31636    -929.488E-03        -1.50994    -870.447E-03         3.25731        -1.50994    -261.973E-03     37.8121E-03    -18.7527E-03    -19.0594E-03    -18.7649E-03     37.5379E-03    -18.7730E-03     7.83795E-03    -6.89243E+06    -17.7164E+06    -87.5321E+06    -6.95008E+06    -87.4745E+06    -17.7164E+06     719.193E+03         24.1076
            1270     10.7968E-03     62.0094E-03         3.20838    -893.853E-03        -1.44705    -747.830E-03         3.06236        -1.44705         1.36342     37.8024E-03    -18.6721E-03    -19.1303E-03    -18.7958E-03     37.4883E-03    -18.6924E-03     8.40414E-03    -8.08784E+06    -22.3950E+06    -52.2538E+06    -8.24502E+06    -50.7652E+06    -23.7265E+06     1.59901E+06         24.9228
            1271     11.7771E-03     62.0231E-03         3.30859        -1.07303        -1.38617    -659.546E-03         2.89511        -1.38617         2.51185     37.6454E-03    -18.4267E-03    -19.2186E-03    -18.6422E-03     37.2101E-03    -18.5679E-03     9.68462E-03     6.02680E+06    -18.4416E+06    -37.7061E+06    -8.38333E+06    -4.68705E+06    -37.0505E+06    -965.391E+03         26.7083
            1272     12.7613E-03     62.0369E-03         3.38668        -1.22988        -1.32973    -596.667E-03         2.75347        -1.32973         3.16610     39.7987E-03    -18.4292E-03    -21.3695E-03    -19.6664E-03     38.2368E-03    -18.5704E-03     18.1116E-03     46.1418E+06    -12.6420E+06    -37.2325E+06    -12.1406E+06     45.6404E+06    -37.2325E+06    -2.76597E+06         30.6440
            1273     13.7361E-03     62.0741E-03         3.34023        -1.25202        -1.27909    -556.161E-03         2.64438        -1.27909         3.28851     42.0260E-03    -18.7431E-03    -23.2830E-03    -20.2086E-03     38.9517E-03    -18.7431E-03     27.3006E-03     67.7078E+06    -9.19355E+06    -37.9832E+06    -15.4192E+06     67.3555E+06    -31.4052E+06    -331.235E+03         38.5300
            1274     14.7220E-03     62.1099E-03         3.16117        -1.12978        -1.23612    -533.894E-03         2.56528        -1.23612         2.95935     55.6776E-03    -19.2392E-03    -36.4384E-03    -23.6531E-03     42.8923E-03    -19.2392E-03     60.5992E-03     77.2049E+06     20.0162E+06    -31.0534E+06    -14.6118E+06     75.6618E+06     5.11767E+06    -7.34925E+06         51.8279
            1275     15.6824E-03     62.2183E-03         2.87274    -898.969E-03        -1.20970    -528.453E-03         2.50222        -1.20970         2.21742     134.213E-03    -19.5956E-03    -114.617E-03    -22.6076E-03     42.2032E-03    -19.5956E-03     232.594E-03     106.051E+06     53.4579E+06    -20.7795E+06    -18.8143E+06     104.085E+06     53.4579E+06    -10.7061E+06         69.6532
            1276     16.7226E-03     62.6301E-03         2.52582    -632.837E-03        -1.22437    -496.498E-03         2.38948        -1.22437         1.18080     400.798E-03    -19.5277E-03    -381.271E-03    -124.142E-03     143.670E-03    -19.5277E-03     728.431E-03     151.574E+06     118.401E+06    -13.5239E+06    -12.4513E+06     149.360E+06     119.543E+06     139.192E+03         86.6670
            1277     981.161E-06     62.9836E-03         11.0001        -3.43765        -6.56747     867.587E-03         4.59211        -4.46469         3.05495     38.4250E-03    -18.8967E-03    -19.5284E-03    -19.2871E-03     38.4206E-03    -19.1335E-03     966.969E-06     1.48122E+06    -5.73329E+06    -192.143E+06     208.864E+03    -191.954E+06    -4.65014E+06    -2.50937E+06         22.8358
            1278     1.96258E-03     62.9843E-03         6.57075        -1.74557        -3.84712        -1.93291         4.73670        -1.82572        -6.54981     38.5535E-03    -19.1322E-03    -19.4213E-03    -19.3004E-03     38.5356E-03    -19.2352E-03     1.84426E-03    -2.13117E+06    -6.08388E+06    -193.060E+06    -4.82106E+06    -193.029E+06    -3.42450E+06    -281.212E+03         22.8599
            1279     2.94360E-03     62.9872E-03         5.81892        -1.75667        -3.11374        -1.74368         4.52901        -1.83681        -5.07053     38.6284E-03    -19.2401E-03    -19.3883E-03    -19.3156E-03     38.5876E-03    -19.2720E-03     3.05169E-03    -2.41964E+06    -5.39797E+06    -191.072E+06    -5.40766E+06    -191.044E+06    -2.43862E+06     173.408E+03         22.8995
            1280     3.92488E-03     62.9911E-03         6.25115        -1.81062        -3.47528        -1.72695         4.50282        -1.81062        -7.36927     38.6250E-03    -19.2316E-03    -19.3934E-03    -19.2851E-03     38.5552E-03    -19.2701E-03     3.97220E-03    -3.47401E+06    -5.69814E+06    -189.245E+06    -4.54200E+06    -189.200E+06    -4.67442E+06     636.706E+03         22.9558
            1281     4.90540E-03     62.9966E-03         5.83877        -1.78067        -3.09684        -1.58793         4.32986        -1.78067        -6.62561     38.3959E-03    -19.0983E-03    -19.2975E-03    -19.0743E-03     38.2983E-03    -19.2240E-03     4.70276E-03    -4.18585E+06    -8.79208E+06    -179.699E+06    -4.93520E+06    -179.674E+06    -8.06833E+06     475.960E+03         23.0317
            1282     5.88769E-03     63.0015E-03         5.75738        -1.74245        -3.06995        -1.51719         4.20462        -1.74245        -6.68138     38.2625E-03    -19.0460E-03    -19.2165E-03    -18.9843E-03     38.1175E-03    -19.1332E-03     5.68855E-03    -6.46983E+06    -15.2520E+06    -165.390E+06    -6.47970E+06    -165.380E+06    -15.2520E+06    -398.090E+03         23.1323
            1283     6.86900E-03     63.0100E-03         5.11175        -1.70269        -2.49357        -1.41008         4.02826        -1.70269        -5.31420     38.2848E-03    -19.0628E-03    -19.2220E-03    -19.0291E-03     38.0919E-03    -19.0628E-03     6.62134E-03    -7.95440E+06     -19.705E+06    -149.274E+06    -7.97515E+06    -149.253E+06     -19.705E+06    -496.727E+03         23.2657
            1284     7.84983E-03     63.0168E-03         4.58401        -1.63613        -2.05207        -1.31527         3.87134        -1.66026        -3.99522     38.2835E-03    -19.0391E-03    -19.2444E-03    -19.0207E-03     38.0598E-03    -19.0391E-03     7.11560E-03    -8.49298E+06    -17.8360E+06    -134.556E+06    -8.54740E+06    -134.502E+06    -17.8360E+06     901.115E+03         23.4454
            1285     8.83156E-03     63.0266E-03         3.91521        -1.41750        -1.61572        -1.19871         3.69642        -1.61572        -2.02496     38.3803E-03    -19.0033E-03    -19.3769E-03    -19.0896E-03     38.0929E-03    -19.0033E-03     8.06621E-03    -9.23868E+06    -18.7020E+06    -114.537E+06    -9.31272E+06    -114.463E+06    -18.7020E+06     1.62595E+06         23.7024
            1286     9.81272E-03     63.0358E-03         3.59587        -1.15153        -1.56892        -1.08804         3.53238        -1.56892    -262.763E-03     38.6265E-03    -18.9562E-03    -19.6703E-03    -19.2957E-03     38.2519E-03    -18.9562E-03     9.23852E-03    -10.9455E+06    -23.5796E+06    -87.1273E+06    -11.0281E+06    -87.0447E+06    -23.5796E+06     1.25024E+06         24.1199
            1287     10.7928E-03     63.0489E-03         3.49407        -1.11179        -1.52104    -982.299E-03         3.36457        -1.52104         1.39732     38.5819E-03    -18.8884E-03    -19.6935E-03    -19.2514E-03     38.1397E-03    -18.8884E-03     10.0571E-03    -10.1850E+06    -28.3655E+06    -54.4208E+06    -11.0206E+06    -50.2556E+06    -31.6952E+06    -575.703E+03         24.9260
            1288     11.7754E-03     63.0603E-03         3.58058        -1.27226        -1.47443    -898.468E-03         3.20594        -1.47358         2.53370     39.4034E-03    -18.8235E-03    -20.5798E-03    -19.9090E-03     38.7326E-03    -18.8235E-03     12.2353E-03     8.90565E+06    -24.4899E+06    -43.3114E+06    -13.3306E+06    -2.25364E+06    -43.3114E+06    -801.047E+03         26.6862
            1289     12.7519E-03     63.0788E-03         3.63916        -1.38750        -1.44675    -824.254E-03         3.05736        -1.42820         3.21601     41.4676E-03    -18.8702E-03    -22.5974E-03    -20.1882E-03     39.0584E-03    -18.8702E-03     22.6863E-03     46.9317E+06    -17.4187E+06    -44.2109E+06    -16.4730E+06     45.9861E+06    -44.2109E+06    -889.768E+03         30.5727
            1290     13.7348E-03     63.1154E-03         3.56551        -1.37377        -1.41582    -758.463E-03         2.92000        -1.38562         3.33859     44.8983E-03    -19.0896E-03    -25.8087E-03    -21.3609E-03     40.4505E-03    -19.0896E-03     33.9981E-03     67.7732E+06    -7.01591E+06    -40.6295E+06    -13.6071E+06     66.9498E+06    -33.2149E+06    -5.68610E+06         38.4008
            1291     14.7095E-03     63.1493E-03         3.35198        -1.24794        -1.35952    -690.980E-03         2.78253        -1.34702         3.02946     59.3225E-03    -19.5911E-03    -39.7314E-03    -21.9798E-03     41.5709E-03    -19.5911E-03     71.2691E-03     82.6849E+06     31.1277E+06    -31.0203E+06    -13.4538E+06      80.017E+06     16.2292E+06     690.494E+03         51.7277
            1292     15.6981E-03     63.2755E-03         3.00796    -992.253E-03        -1.31898    -625.506E-03         2.64121        -1.31898         2.28799     123.761E-03    -20.0372E-03    -103.724E-03    -24.4201E-03     44.4574E-03    -20.0372E-03     211.988E-03     100.339E+06     58.5415E+06    -31.4589E+06    -28.7817E+06     97.6615E+06     58.5415E+06     10.3969E+06         69.5644
            1293     16.6799E-03     63.5840E-03         2.57983    -662.286E-03        -1.32010    -518.061E-03         2.43561        -1.32010         1.25339     388.594E-03    -19.9690E-03    -368.625E-03    -117.900E-03     137.869E-03    -19.9690E-03     707.512E-03     146.619E+06     121.800E+06    -20.2637E+06    -19.6465E+06     143.921E+06     123.881E+06     6.20075E+06         86.6979
            1294     980.918E-06     64.0213E-03         14.6222        -4.72899        -8.92074         1.30226         4.39922        -4.72899         6.08108     38.5590E-03    -19.0579E-03    -19.5011E-03    -19.2830E-03     38.5510E-03    -19.2680E-03     1.07019E-03     1.81986E+06    -6.96307E+06    -194.621E+06    -6.51268E+06    -194.416E+06     1.16449E+06    -548.580E+03         22.8369
            1295     1.96243E-03     64.0226E-03         7.44709        -1.68522        -4.78693        -1.84176         4.55542        -1.73872        -7.47040     38.6157E-03    -19.2194E-03    -19.3964E-03    -19.2857E-03     38.5937E-03    -19.3080E-03     2.11828E-03     4.35271E+06    -4.48415E+06    -192.679E+06    -2.43317E+06    -192.666E+06     2.28863E+06     988.612E+03         22.8618
            1296     2.94365E-03     64.0257E-03         6.05472        -1.70038        -3.39906        -1.69212         4.40129        -1.75389        -4.53301     38.7408E-03    -19.2686E-03    -19.4722E-03    -19.3849E-03     38.6902E-03    -19.3053E-03     3.35133E-03    -339.863E+03    -3.51879E+06    -191.744E+06    -2.16741E+06    -191.686E+06    -1.74857E+06     939.238E+03         22.9022
            1297     3.92415E-03     64.0299E-03         6.32446        -1.73886        -3.61750        -1.70387         4.41083        -1.73886        -7.58820     38.6067E-03    -19.2176E-03    -19.3891E-03    -19.2297E-03     38.5225E-03    -19.2928E-03     4.37875E-03    -2.84536E+06    -5.32524E+06    -189.354E+06    -3.35106E+06    -189.270E+06    -4.90391E+06     895.611E+03         22.9591
            1298     4.90653E-03     64.0341E-03         5.75899        -1.72298        -3.07280        -1.61181         4.29801        -1.72298        -6.40516     38.5743E-03    -19.2010E-03    -19.3734E-03    -19.2051E-03     38.4447E-03    -19.2395E-03     5.42460E-03    -3.43553E+06    -9.10638E+06    -179.070E+06    -3.47170E+06    -179.034E+06    -9.10638E+06     120.519E+03         23.0358
            1299     5.88671E-03     64.0406E-03         5.79690        -1.70161        -3.14988        -1.58315         4.23017        -1.70161        -6.71361     38.6047E-03    -19.2016E-03    -19.4031E-03    -19.2250E-03     38.4267E-03    -19.2016E-03     6.39553E-03    -3.15781E+06    -10.2128E+06    -164.094E+06    -3.18650E+06    -164.065E+06    -10.2128E+06    -856.470E+03         23.1373
            1300     6.86837E-03     64.0470E-03         5.12373        -1.67984        -2.52604        -1.51789         4.11558        -1.67984        -5.16934     38.4738E-03    -19.1498E-03    -19.3239E-03    -19.0711E-03     38.2383E-03    -19.1672E-03     7.32710E-03    -3.32687E+06    -10.5236E+06    -150.227E+06    -3.38120E+06    -150.173E+06    -10.5236E+06    -551.653E+03         23.2715
            1301     7.85014E-03     64.0563E-03         4.70063        -1.65442        -2.14915        -1.46428         4.01739        -1.65606        -3.94186     38.5270E-03    -19.1160E-03    -19.4109E-03    -19.1102E-03     38.2436E-03    -19.1334E-03     8.07754E-03    -3.67187E+06    -10.2667E+06    -135.831E+06    -3.76431E+06    -135.739E+06    -10.2667E+06     471.428E+03         23.4518
            1302     8.83106E-03     64.0636E-03         4.07472        -1.53711        -1.65255        -1.38196         3.89722        -1.63021        -1.89406     38.7775E-03    -19.1060E-03    -19.6715E-03    -19.2863E-03     38.3923E-03    -19.1060E-03     9.37469E-03    -4.45048E+06    -10.8099E+06    -115.733E+06    -4.60986E+06    -115.573E+06    -10.8099E+06     1.44761E+06         23.7084
            1303     9.81177E-03     64.0762E-03         3.84202        -1.36761        -1.60155        -1.30191         3.77631        -1.60155    -165.901E-03     38.9014E-03    -19.0576E-03    -19.8439E-03    -19.3202E-03     38.3778E-03    -19.0576E-03     11.0120E-03     -4.8189E+06    -15.2015E+06    -85.5420E+06    -5.02502E+06    -85.3359E+06    -15.2015E+06     1.05150E+06         24.1223
            1304     10.7934E-03     64.0864E-03         3.77045        -1.34823        -1.57075        -1.21534         3.63756        -1.57075         1.53131     39.2269E-03    -18.9892E-03    -20.2377E-03    -19.5904E-03     38.5796E-03    -18.9892E-03     12.2750E-03    -6.66534E+06    -24.0467E+06    -53.0510E+06    -8.36439E+06    -49.3538E+06    -26.0449E+06     260.165E+03         24.9159
            1305     11.7727E-03     64.1007E-03         3.86675        -1.45843        -1.58693        -1.13579         3.49565        -1.53847         2.66447     39.8763E-03    -18.9062E-03    -20.9702E-03    -19.7837E-03     38.6899E-03    -18.9062E-03     16.3837E-03     8.64273E+06    -21.8158E+06    -44.4026E+06    -11.8114E+06    -3.57457E+06    -42.1897E+06     263.847E+03         26.6443
            1306     12.7537E-03     64.1215E-03         3.91582        -1.50550        -1.62592        -1.05134         3.34124        -1.50550         3.37382     41.8223E-03    -18.9446E-03    -22.8777E-03    -19.9219E-03     38.8665E-03    -18.9446E-03     26.2931E-03     50.8598E+06    -11.7846E+06    -40.5941E+06    -12.9968E+06     49.4691E+06    -37.9911E+06    -1.77461E+06         30.4746
            1307     13.7362E-03     64.1485E-03         3.82222        -1.47208        -1.60229    -960.016E-03         3.17995        -1.47208         3.50341     46.5035E-03    -19.2037E-03    -27.2997E-03    -20.9920E-03     40.1957E-03    -19.2037E-03     40.6719E-03     71.2113E+06    -9.83637E+06    -32.6936E+06    -23.2511E+06     69.5995E+06    -17.6671E+06    -25.7287E+03         38.2366
            1308     14.7114E-03     64.2092E-03         3.57236        -1.36863        -1.49668    -850.419E-03         2.99590        -1.43843         3.18993     56.8719E-03    -19.5543E-03    -37.3176E-03    -20.5699E-03     40.1242E-03    -19.5543E-03     69.4462E-03     71.3092E+06     5.74714E+06    -36.4681E+06    -32.3117E+06     67.1528E+06     5.74714E+06     4.12410E+06         51.5377
            1309     15.7018E-03     64.2803E-03         3.16626        -1.10825        -1.40903    -722.390E-03         2.78040        -1.40903         2.43655     135.050E-03    -19.9040E-03    -115.146E-03    -29.7761E-03     49.6801E-03    -19.9040E-03     232.983E-03     101.036E+06     37.4804E+06    -18.5392E+06    -15.0421E+06     97.5392E+06     37.4804E+06     8.81213E+06         69.4689
            1310     16.6225E-03     64.7072E-03         2.65769    -715.679E-03        -1.39348    -555.824E-03         2.49783        -1.39348         1.33914     385.824E-03    -19.9583E-03    -365.865E-03    -108.723E-03     128.681E-03    -19.9583E-03     710.863E-03     153.975E+06     113.635E+06     2.21273E+06     3.05037E+06     152.198E+06     114.574E+06     6.10319E+06         86.7161
            1311     981.671E-06     65.0590E-03         17.7999        -4.92842        -11.8923         1.75563         4.15199        -4.92842         8.69654     38.3594E-03    -19.0424E-03    -19.3170E-03    -19.1683E-03     38.3495E-03    -19.1812E-03     1.24934E-03     2.72908E+06    -6.94425E+06    -196.280E+06    -4.44364E+06    -196.152E+06     100.156E+03     2.55726E+06         22.8270
            1312     1.96254E-03     65.0615E-03         8.38443        -1.61122        -5.79345        -1.71030         4.30128        -1.61122        -8.24781     38.5806E-03    -19.1826E-03    -19.3980E-03    -19.3113E-03     38.5507E-03    -19.2394E-03     2.50093E-03     6.38693E+06    -3.18629E+06     -194.72E+06    -1.21374E+06    -194.636E+06     4.33006E+06     840.113E+03         22.8529
            1313     2.94331E-03     65.0640E-03         6.38413        -1.63151        -3.79456        -1.60709         4.19666        -1.63151        -4.03161     38.4730E-03    -19.1587E-03    -19.3143E-03    -19.1778E-03     38.4124E-03    -19.2346E-03     3.67346E-03     3.66059E+06    -1.33608E+06    -192.017E+06     1.32924E+06    -191.899E+06     877.735E+03     2.24737E+06         22.8941
            1314     3.92565E-03     65.0679E-03         6.33731        -1.62943        -3.74120        -1.64925         4.24535        -1.62943        -7.73059     38.4959E-03    -19.1724E-03    -19.3235E-03    -19.1893E-03     38.3983E-03    -19.2090E-03     4.70087E-03     1.68882E+06    -927.095E+03    -188.393E+06     1.24754E+06    -188.317E+06    -562.433E+03     726.022E+03         22.9521
            1315     4.90582E-03     65.0725E-03         5.62718        -1.62915        -3.03851        -1.60711         4.19578        -1.62915        -6.15535     38.5707E-03    -19.1838E-03    -19.3869E-03    -19.2362E-03     38.4200E-03    -19.1838E-03     5.85295E-03     527.069E+03    -2.87926E+06    -178.072E+06     238.929E+03    -178.027E+06    -2.63596E+06    -641.430E+03         23.0299
            1316     5.88797E-03     65.0790E-03         5.76648        -1.62606        -3.20006        -1.62248         4.18890        -1.62606        -6.67813     38.6129E-03    -19.1581E-03    -19.4548E-03    -19.2345E-03     38.3926E-03    -19.1581E-03     7.09950E-03    -693.555E+03    -5.06079E+06    -163.790E+06    -744.075E+03    -163.740E+06    -5.06079E+06    -1.10522E+06         23.1326
            1317     6.86852E-03     65.0857E-03         5.07507        -1.62373        -2.53472        -1.60294         4.14329        -1.62373        -4.97332     38.5339E-03    -19.1056E-03    -19.4284E-03    -19.1338E-03     38.2567E-03    -19.1229E-03     7.97541E-03    -2.69525E+06    -9.00877E+06    -151.132E+06    -2.75026E+06    -151.077E+06    -9.00877E+06    -22.2018E+03         23.2676
            1318     7.85000E-03     65.0936E-03         4.75436        -1.61975        -2.23532        -1.58723         4.10627        -1.61975        -3.82140     38.5163E-03    -19.0653E-03    -19.4510E-03    -19.0559E-03     38.1386E-03    -19.0827E-03     9.18882E-03    -5.00512E+06    -11.9099E+06    -136.697E+06    -5.08840E+06    -136.613E+06    -11.9099E+06     603.159E+03         23.4483
            1319     8.83114E-03     65.1036E-03         4.17649        -1.58866        -1.70405        -1.54362         4.04088        -1.61347        -1.70038     38.6611E-03    -19.0482E-03    -19.6129E-03    -19.1130E-03     38.1612E-03    -19.0482E-03     10.6531E-03    -4.66321E+06    -11.7409E+06    -115.628E+06    -4.90842E+06    -115.383E+06    -11.7409E+06     194.587E+03         23.7038
            1320     9.81281E-03     65.1134E-03         4.03195        -1.53429        -1.62949        -1.49109         3.96300        -1.60374    -1.34224E-03     38.8105E-03    -18.9988E-03    -19.8117E-03    -19.1482E-03     38.1470E-03    -18.9988E-03     12.3139E-03    -3.99043E+06    -13.5908E+06    -85.3912E+06    -4.40276E+06    -84.9788E+06    -13.5908E+06     590.582E+03         24.1124
            1321     10.7938E-03     65.1264E-03         4.00768        -1.53003        -1.63441        -1.42304         3.85674        -1.59046         1.73667     39.1237E-03    -18.9270E-03    -20.1968E-03    -19.3013E-03     38.2283E-03    -18.9270E-03     14.3860E-03    -3.22937E+06    -21.2531E+06    -51.0902E+06    -4.48125E+06    -49.8383E+06    -21.2531E+06     1.70965E+06         24.8897
            1322     11.7744E-03     65.1408E-03         4.12243        -1.55780        -1.75622        -1.34703         3.72904        -1.57360         2.87068     39.2345E-03    -18.8058E-03    -20.4287E-03    -19.0534E-03     37.8592E-03    -18.8058E-03     17.6852E-03     13.4063E+06    -19.6757E+06    -39.4682E+06    -6.86692E+06    -2.17933E+06    -36.6914E+06     794.934E+03         26.5804
            1323     12.7584E-03     65.1566E-03         4.17705        -1.55317        -1.85228        -1.25171         3.57648        -1.55317         3.60752     42.3406E-03    -18.8095E-03    -23.5311E-03    -19.7608E-03     38.5703E-03    -18.8095E-03     29.3628E-03     49.6434E+06    -14.9154E+06    -39.2619E+06    -16.0533E+06     48.1784E+06    -36.6589E+06     3.47756E+06         30.3419
            1324     13.7317E-03     65.1990E-03         4.07010        -1.52873        -1.80817        -1.13453         3.39646        -1.52873         3.74272     45.3316E-03    -18.9328E-03    -26.3988E-03    -19.1692E-03     38.1019E-03    -18.9328E-03     42.6242E-03     65.9917E+06    -15.3209E+06    -37.6049E+06    -21.5349E+06     64.5938E+06     -29.993E+06     9.25775E+06         38.0265
            1325     14.7222E-03     65.2352E-03         3.79635        -1.47346        -1.63466    -993.963E-03         3.18234        -1.50015         3.42686     59.1045E-03    -19.2559E-03    -39.8486E-03    -20.6705E-03     39.9264E-03    -19.2559E-03     76.3276E-03     75.5520E+06     16.0637E+06    -32.1630E+06    -19.9918E+06     73.3251E+06     6.11939E+06     3.97155E+06         51.2881
            1326     15.6842E-03     65.3450E-03         3.32668        -1.23298        -1.47716    -821.269E-03         2.90704        -1.46924         2.62907     135.963E-03    -19.0822E-03    -116.881E-03    -13.9436E-03     33.0258E-03    -19.0822E-03     241.154E-03     99.5730E+06     30.4152E+06    -18.7473E+06    -14.4779E+06     95.3037E+06     30.4152E+06    -8.91810E+06         69.4610
            1327     16.7664E-03     65.7349E-03         2.75727    -780.949E-03        -1.43602    -606.985E-03         2.58331        -1.43602         1.41057     387.491E-03    -18.8550E-03    -368.636E-03    -117.699E-03     136.554E-03    -18.8550E-03     699.696E-03     141.011E+06     90.9229E+06    -10.3400E+06    -6.92008E+06     137.591E+06     90.9229E+06    -13.5585E+06         86.7471
            1328     981.465E-06     66.0984E-03         20.4205        -5.11065        -14.3204         2.25031         3.84986        -5.11065         10.8515     38.0624E-03    -18.9170E-03    -19.1454E-03    -19.0778E-03     38.0518E-03    -18.9740E-03     1.47518E-03    -598.528E+03    -4.06440E+06    -196.249E+06    -1.57833E+06    -196.107E+06    -3.22746E+06     1.39385E+06         22.8079
            1329     1.96265E-03     66.0989E-03         9.21271        -1.45311        -6.77629        -1.54571         3.98213        -1.45311        -8.86706     38.1077E-03    -18.9520E-03    -19.1557E-03    -19.0270E-03     38.0754E-03    -19.0484E-03     2.58342E-03     572.742E+03    -3.28734E+06    -198.598E+06    -2.75767E+06    -198.479E+06    -75.4242E+03     2.31227E+06         22.8346
            1330     2.94484E-03     66.1024E-03         6.69756        -1.47812        -4.25477        -1.49213         3.93491        -1.47812        -3.59970     38.1280E-03    -18.9949E-03    -19.1331E-03    -19.0277E-03     38.0619E-03    -19.0342E-03     3.83745E-03    -268.582E+03    -4.61704E+06    -191.475E+06    -3.32926E+06    -191.388E+06    -1.64274E+06     1.92411E+06         22.8770
            1331     3.92531E-03     66.1055E-03         6.28905        -1.48918        -3.83460        -1.56376         4.01821        -1.48918        -7.80944     38.1917E-03    -19.0116E-03    -19.1801E-03    -19.0674E-03     38.0790E-03    -19.0116E-03     5.02598E-03    -2.42792E+06    -6.42109E+06    -187.423E+06    -2.97020E+06    -187.390E+06    -5.91220E+06     708.485E+03         22.9362
            1332     4.90747E-03     66.1115E-03         5.45124        -1.50496        -2.99558        -1.57641         4.03207        -1.50496        -5.90532     38.2515E-03    -18.9867E-03    -19.2647E-03    -19.0828E-03     38.0695E-03    -18.9867E-03     6.40340E-03    -3.51593E+06    -9.98269E+06    -176.655E+06    -3.78973E+06    -176.624E+06    -9.73939E+06    -270.804E+03         23.0151
            1333     5.88818E-03     66.1162E-03         5.67351        -1.52068        -3.21965        -1.63243         4.08629        -1.52068        -6.59462     38.1863E-03    -18.9333E-03    -19.2530E-03    -18.9836E-03     37.9324E-03    -18.9488E-03     7.58484E-03    -6.35532E+06    -14.7761E+06    -164.146E+06    -6.38135E+06    -164.120E+06    -14.7761E+06    -665.191E+03         23.1189
            1334     6.87019E-03     66.1248E-03         4.96924        -1.53786        -2.52037        -1.65802         4.10689        -1.53786        -4.75345     38.2066E-03    -18.8954E-03    -19.3113E-03    -18.9497E-03     37.8606E-03    -18.9109E-03     8.81421E-03    -8.26757E+06    -18.4664E+06    -152.810E+06    -8.30343E+06    -152.774E+06    -18.4664E+06     777.214E+03         23.2550
            1335     7.85127E-03     66.1309E-03         4.74115        -1.55359        -2.29205        -1.67902         4.12813        -1.55359        -3.66190     38.2791E-03    -18.8718E-03    -19.4073E-03    -18.9342E-03     37.8060E-03    -18.8718E-03     10.3170E-03    -8.32069E+06    -20.1819E+06    -135.262E+06    -8.43857E+06    -135.145E+06    -20.1819E+06     213.907E+03         23.4360
            1336     8.83325E-03     66.1421E-03         4.21506        -1.56652        -1.76929        -1.66929         4.11506        -1.56652        -1.48354     38.2711E-03    -18.8312E-03    -19.4399E-03    -18.8195E-03     37.6507E-03    -18.8312E-03     11.8168E-03    -8.81902E+06    -21.0043E+06    -114.934E+06    -9.02665E+06    -114.727E+06    -21.0043E+06    -1.03260E+06         23.6900
            1337     9.81438E-03     66.1512E-03         4.15174        -1.57503        -1.71641        -1.64175         4.07708        -1.57503     196.053E-03     38.4578E-03    -18.7690E-03    -19.6888E-03    -18.8507E-03     37.6197E-03    -18.7690E-03     13.7659E-03    -9.40681E+06    -23.9143E+06    -86.5056E+06    -9.73642E+06     -86.176E+06    -23.9143E+06    -44.2261E+03         24.0921
            1338     10.7956E-03     66.1657E-03         4.17677        -1.57838        -1.76467        -1.58762         3.99971        -1.57838         1.96408     38.3227E-03    -18.6673E-03    -19.6554E-03    -18.5686E-03     37.2359E-03    -18.6673E-03     15.6936E-03    -9.46740E+06    -26.6406E+06    -54.6075E+06    -9.84778E+06    -49.5409E+06    -31.3269E+06    -377.583E+03         24.8508
            1339     11.7789E-03     66.1773E-03         4.31888        -1.57585        -1.94159        -1.51185         3.88914        -1.57585         3.10133     39.0086E-03    -18.5390E-03    -20.4696E-03    -18.8078E-03     37.3468E-03    -18.5390E-03     19.3220E-03     6.85809E+06    -21.5941E+06    -44.4785E+06    -12.0263E+06    -3.27363E+06    -43.9146E+06     2.70749E+06         26.5000
            1340     12.7563E-03     66.1986E-03         4.38564        -1.56681        -2.05040        -1.40435         3.73959        -1.56681         3.86459     41.0914E-03    -18.4392E-03    -22.6521E-03    -18.0194E-03     36.4586E-03    -18.4392E-03     31.6200E-03     42.5411E+06    -14.4936E+06    -51.6128E+06    -13.1757E+06     41.2232E+06    -51.6128E+06     7.50719E+06         30.1912
            1341     13.7459E-03     66.2349E-03         4.27009        -1.55042        -1.98682        -1.26556         3.54884        -1.55042         3.99366     44.1970E-03    -18.4578E-03    -25.7393E-03    -17.5441E-03     36.0019E-03    -18.4578E-03     44.9090E-03     64.9443E+06    -10.9196E+06    -40.9727E+06    -11.0188E+06     64.4197E+06    -40.3489E+06     5.27614E+06         37.8025
            1342     14.7225E-03     66.2735E-03         3.97902        -1.52611        -1.76422        -1.09397         3.30877        -1.52611         3.68573     58.1383E-03    -18.5660E-03    -39.5723E-03    -15.1291E-03     33.6951E-03    -18.5660E-03     80.9618E-03     80.5359E+06     13.9553E+06    -20.4015E+06    -5.86143E+06     80.0289E+06    -77.8305E+03     5.72411E+06         51.0972
            1343     15.7247E-03     66.3897E-03         3.46630        -1.30751        -1.53224    -884.030E-03         3.00374        -1.49316         2.82555     120.939E-03    -18.6297E-03    -102.309E-03    -17.5184E-03     36.1481E-03    -18.6297E-03     210.703E-03     107.880E+06     52.7194E+06    -18.7983E+06    -11.4043E+06     104.575E+06     48.6305E+06    -3.88556E+06         69.1898
            1344     16.6959E-03     66.6676E-03         2.89700    -843.571E-03        -1.44520    -650.738E-03         2.70417        -1.44520         1.54060     384.235E-03    -18.9969E-03    -365.239E-03    -130.716E-03     149.713E-03    -18.9969E-03     684.944E-03     149.392E+06     121.724E+06    -19.6247E+06    -16.1182E+06     145.546E+06     122.063E+06    -8.10615E+06         86.4600
            1345     981.418E-06     67.1344E-03         22.3310        -5.23940        -16.1213         2.72603         3.48365        -5.23940         12.4681     37.6216E-03    -18.7461E-03    -18.8755E-03    -18.7692E-03     37.6090E-03    -18.8398E-03     1.37443E-03    -4.24719E+06    -8.91417E+06    -201.046E+06    -8.91423E+06    -200.962E+06    -4.33143E+06     950.724E+03         22.7834
            1346     1.96376E-03     67.1374E-03         9.80963        -1.27610        -7.55383        -1.35709         3.61289        -1.27610        -9.28614     37.6660E-03    -18.7599E-03    -18.9061E-03    -18.7991E-03     37.6356E-03    -18.8365E-03     2.60416E-03     758.793E+03    -4.87050E+06    -198.642E+06    -4.17395E+06    -198.574E+06    -5.24173E+03     1.97668E+06         22.8110
            1347     2.94468E-03     67.1391E-03         6.90669        -1.30473        -4.63662        -1.35805         3.62811        -1.30473        -3.24219     37.7113E-03    -18.7628E-03    -18.9485E-03    -18.8359E-03     37.6443E-03    -18.8085E-03     3.78812E-03    -1.35670E+06    -4.65839E+06    -192.109E+06    -2.27090E+06    -192.077E+06    -3.77654E+06     1.09514E+06         22.8546
            1348     3.92695E-03     67.1443E-03         6.17599        -1.32884        -3.88847        -1.45589         3.74342        -1.32884        -7.82518     37.7205E-03    -18.7415E-03    -18.9790E-03    -18.8146E-03     37.6018E-03    -18.7872E-03     5.16052E-03    -2.52042E+06    -7.32422E+06    -186.382E+06    -2.81402E+06    -186.354E+06    -7.05863E+06     1.09854E+06         22.9151
            1349     4.90828E-03     67.1474E-03         5.24140        -1.36002        -2.93966        -1.52065         3.82239        -1.36002        -5.67126     37.7551E-03    -18.7162E-03    -19.0388E-03    -18.8065E-03     37.5587E-03    -18.7522E-03     6.59479E-03    -3.84541E+06    -10.9135E+06    -175.218E+06    -3.84834E+06    -175.215E+06    -10.9135E+06    -424.877E+03         22.9954
            1350     5.89007E-03     67.1560E-03         5.52628        -1.39374        -3.21052        -1.61549         3.93125        -1.39374        -6.47608     37.7205E-03    -18.6834E-03    -19.0370E-03    -18.7253E-03     37.4603E-03    -18.7349E-03     7.66307E-03    -4.56839E+06    -11.3042E+06    -165.784E+06    -4.84098E+06    -165.772E+06    -11.0433E+06     413.747E+03         23.1006
            1351     6.87196E-03     67.1596E-03         4.82006        -1.42931        -2.48677        -1.68032         4.01362        -1.42931        -4.53896     37.7367E-03    -18.6749E-03    -19.0618E-03    -18.6769E-03     37.3673E-03    -18.6904E-03     9.03754E-03    -4.52549E+06    -13.9339E+06    -152.039E+06    -4.91375E+06    -151.911E+06    -13.6729E+06    -481.240E+03         23.2379
            1352     7.85381E-03     67.1716E-03         4.66897        -1.46338        -2.31797        -1.73524         4.08624        -1.46338        -3.49014     37.8381E-03    -18.6462E-03    -19.1920E-03    -18.7132E-03     37.3594E-03    -18.6462E-03     10.3999E-03    -3.66813E+06    -15.1607E+06    -133.219E+06    -3.83747E+06    -133.050E+06    -15.1607E+06    -2.25597E+06         23.4194
            1353     8.83514E-03     67.1768E-03         4.19199        -1.49395        -1.82603        -1.75298         4.11895        -1.49395        -1.27494     37.8935E-03    -18.6281E-03    -19.2655E-03    -18.6337E-03     37.2617E-03    -18.6281E-03     11.8590E-03    -4.04910E+06    -13.2906E+06    -116.817E+06    -4.13050E+06    -116.735E+06    -13.2906E+06    -311.362E+03         23.6716
            1354     9.81742E-03     67.1916E-03         4.19697        -1.51890        -1.82706        -1.74553         4.11544        -1.51890     381.646E-03     37.7399E-03    -18.5560E-03    -19.1838E-03    -18.3275E-03     36.8835E-03    -18.5560E-03     13.8295E-03    -6.41897E+06    -15.7573E+06    -85.9170E+06    -6.61752E+06    -85.8356E+06    -15.6401E+06     471.524E+03         24.0665
            1355     10.8000E-03     67.2003E-03         4.26884        -1.53693        -1.90600        -1.70020         4.06304        -1.53693         2.17054     37.7354E-03    -18.4284E-03    -19.3070E-03    -18.2517E-03     36.6801E-03    -18.4284E-03     15.3373E-03    -10.2591E+06    -21.5081E+06    -53.8069E+06    -10.6078E+06    -48.8891E+06    -26.0772E+06     665.342E+03         24.8068
            1356     11.7811E-03     67.2169E-03         4.43623        -1.54676        -2.08880        -1.62067         3.96810        -1.54676         3.30499     37.8401E-03    -18.1265E-03    -19.7136E-03    -17.7773E-03     36.0323E-03    -18.2550E-03     19.7039E-03     1.50813E+06    -19.7082E+06    -45.1624E+06    -12.5643E+06    -8.24588E+06    -42.5523E+06     1.85534E+06         26.4165
            1357     12.7661E-03     67.2358E-03         4.51306        -1.54727        -2.19184        -1.50068         3.82189        -1.54727         4.07411     39.1416E-03    -17.9714E-03    -21.1702E-03    -17.0148E-03     35.1147E-03    -18.0999E-03     29.3491E-03     41.1738E+06    -10.7449E+06    -47.9751E+06    -9.88856E+06     40.3175E+06    -47.9751E+06     1.97899E+06         30.0461
            1358     13.7491E-03     67.2645E-03         4.39761        -1.53758        -2.11421        -1.34458         3.62799        -1.53758         4.20132     42.1241E-03    -18.0409E-03    -24.0832E-03    -15.9732E-03     34.0141E-03    -18.0409E-03     42.6973E-03     66.8715E+06    -8.43924E+06    -39.1344E+06    -8.96972E+06     66.7781E+06    -38.5106E+06     2.60871E+06         37.5989
            1359     14.7352E-03     67.3218E-03         4.08151        -1.51675        -1.85510        -1.14213         3.36854        -1.51675         3.85771     50.1805E-03    -18.0827E-03    -32.0977E-03    -13.3420E-03     31.4248E-03    -18.0827E-03     65.9698E-03     81.0168E+06     14.4714E+06    -22.2237E+06    -6.35958E+06     80.2404E+06    -616.355E+03    -2.51489E+06         50.8800
            1360     15.7343E-03     67.3812E-03         3.55929        -1.32439        -1.55413    -908.456E-03         3.07153        -1.48231         2.93973     131.055E-03    -18.5262E-03    -112.529E-03    -33.8051E-03     52.3313E-03    -18.5262E-03     225.033E-03     115.383E+06     55.8680E+06    -7.81767E+06    -789.595E+03     112.444E+06     51.7791E+06     5.84256E+06         68.9646
            1361     16.6531E-03     67.8227E-03         3.01686    -900.406E-03        -1.42513    -697.719E-03         2.81418        -1.42513         1.60978     386.465E-03    -19.2328E-03    -367.232E-03    -124.331E-03     143.563E-03    -19.2328E-03     703.607E-03     161.713E+06     125.852E+06    -729.446E+03     1.85985E+06     158.785E+06     126.191E+06     15.1823E+06         86.4918
            1362     982.206E-06     68.1721E-03         23.5164        -5.33213        -17.2110         3.18863         3.11674        -5.33213         13.4578     37.1794E-03    -18.4843E-03    -18.6952E-03    -18.6460E-03     37.1669E-03    -18.5209E-03     1.44019E-03    -6.75236E+06    -12.8224E+06    -204.971E+06    -10.5609E+06    -204.908E+06    -9.07659E+06     1.00498E+06         22.7589
            1363     1.96344E-03     68.1739E-03         10.1315        -1.09086        -8.07110        -1.16433         3.22476        -1.09086        -9.52052     37.2666E-03    -18.4996E-03    -18.7670E-03    -18.6343E-03     37.2343E-03    -18.6000E-03     2.60422E-03    -5.30933E+06    -11.4460E+06    -196.543E+06    -9.25484E+06    -196.496E+06    -7.54820E+06     526.898E+03         22.7874
            1364     2.94569E-03     68.1772E-03         6.97529        -1.12416        -4.89419        -1.21680         3.29790        -1.12416        -2.98293     37.1583E-03    -18.4521E-03    -18.7062E-03    -18.5145E-03     37.0930E-03    -18.5785E-03     3.75350E-03    -6.76944E+06    -10.1843E+06    -192.349E+06    -7.00355E+06    -192.267E+06    -10.0323E+06    -689.335E+03         22.8322
            1365     3.92761E-03     68.1799E-03         6.01087        -1.16096        -3.90063        -1.33710         3.44734        -1.16096        -7.78197     37.2939E-03    -18.5152E-03    -18.7787E-03    -18.6051E-03     37.1660E-03    -18.5609E-03     5.25370E-03    -5.40076E+06    -9.40961E+06     -187.18E+06    -5.48115E+06    -187.100E+06    -9.40961E+06    -390.713E+03         22.8943
            1366     4.90922E-03     68.1867E-03         5.01453        -1.20628        -2.87756        -1.44710         3.58406        -1.20628        -5.47243     37.2976E-03    -18.5176E-03    -18.7801E-03    -18.5669E-03     37.1204E-03    -18.5536E-03     6.24007E-03    -4.64011E+06    -7.78397E+06    -173.855E+06    -5.13563E+06    -173.830E+06    -7.31366E+06    -213.730E+03         22.9764
            1367     5.89185E-03     68.1903E-03         5.34769        -1.25605        -3.18091        -1.57434         3.74113        -1.25605        -6.34766     37.3215E-03    -18.5063E-03    -18.8152E-03    -18.5349E-03     37.0772E-03    -18.5423E-03     7.28436E-03    -3.24297E+06    -7.35322E+06    -166.598E+06    -4.00874E+06    -166.564E+06    -6.62197E+06    -666.106E+03         23.0832
            1368     6.87302E-03     68.2000E-03         4.64424        -1.30784        -2.44125        -1.67413         3.87712        -1.30784        -4.35123     37.3752E-03    -18.4951E-03    -18.8801E-03    -18.5536E-03     37.0487E-03    -18.4951E-03     8.50400E-03    -3.07516E+06    -10.3770E+06    -149.098E+06    -3.45357E+06    -148.980E+06    -10.1160E+06    -1.64116E+06         23.2216
            1369     7.85544E-03     68.2050E-03         4.55499        -1.35781        -2.31637        -1.75333         3.99195        -1.35781        -3.34122     37.3811E-03    -18.4628E-03    -18.9183E-03    -18.4805E-03     36.9432E-03    -18.4628E-03     9.81105E-03    -6.58738E+06    -12.7048E+06    -133.834E+06    -6.68295E+06    -133.738E+06    -12.7048E+06    -1.85464E+06         23.4032
            1370     8.83736E-03     68.2180E-03         4.11773        -1.40341        -1.85159        -1.79603         4.06217        -1.40341        -1.11138     37.3727E-03    -18.4335E-03    -18.9392E-03    -18.3954E-03     36.8289E-03    -18.4335E-03     10.9769E-03    -8.10276E+06    -13.2815E+06    -118.357E+06    -8.13952E+06    -118.321E+06    -13.2815E+06    -810.104E+03         23.6532
            1371     9.81935E-03     68.2245E-03         4.17435        -1.44222        -1.88882        -1.80045         4.08599        -1.44222     520.304E-03     37.2142E-03    -18.3621E-03    -18.8520E-03    -18.1288E-03     36.4909E-03    -18.3621E-03     12.5335E-03    -7.02935E+06    -14.3479E+06    -86.5187E+06    -7.22721E+06    -86.4381E+06    -14.2307E+06     587.139E+03         24.0413
            1372     10.8016E-03     68.2408E-03         4.28301        -1.47228        -1.98811        -1.75987         4.05477        -1.47228         2.31025     37.1333E-03    -18.2477E-03    -18.8856E-03    -17.9428E-03     36.1904E-03    -18.2477E-03     14.4043E-03    -6.59469E+06    -20.0373E+06    -49.5923E+06    -6.93361E+06    -49.2682E+06    -20.0224E+06     2.11703E+06         24.7648
            1373     11.7841E-03     68.2514E-03         4.46586        -1.49203        -2.17159        -1.67481         3.96908        -1.49203         3.43198     36.6703E-03    -17.9285E-03    -18.7418E-03    -17.3019E-03     35.3589E-03    -18.0569E-03     16.5188E-03     5.19508E+06    -19.3838E+06    -39.3356E+06    -9.15284E+06    -7.64600E+06    -36.7255E+06     758.493E+03         26.3407
            1374     12.7690E-03     68.2695E-03         4.55326        -1.50011        -2.26731        -1.54404         3.82999        -1.50011         4.19702     38.4994E-03    -17.7720E-03    -20.7274E-03    -16.9791E-03     34.8796E-03    -17.9005E-03     27.0112E-03     41.4413E+06    -14.4372E+06    -44.2777E+06    -13.9443E+06     40.9484E+06    -44.2777E+06    -788.172E+03         29.9176
            1375     13.7481E-03     68.3075E-03         4.43466        -1.49569        -2.17148        -1.37278         3.63595        -1.49569         4.30433     39.8160E-03    -17.8448E-03    -21.9712E-03    -15.4806E-03     33.3254E-03    -17.8448E-03     36.9961E-03     69.3803E+06    -10.5299E+06    -36.0260E+06    -12.0765E+06     69.0307E+06    -34.1298E+06    -2.52621E+06         37.4218
            1376     14.7421E-03     68.3376E-03         4.11836        -1.47830        -1.89380        -1.16762         3.39218        -1.47830         3.91492     51.6148E-03    -18.1109E-03    -33.5039E-03    -18.0265E-03     36.1374E-03    -18.1109E-03     63.9688E-03     83.6470E+06     26.8953E+06    -25.8660E+06    -13.2691E+06     82.0490E+06     15.8964E+06    -2.32496E+06         50.6721
            1377     15.7027E-03     68.4439E-03         3.61068        -1.33007        -1.54911    -947.433E-03         3.12357        -1.44464         2.96688     140.016E-03    -18.1726E-03    -121.844E-03    -22.7926E-03     40.9652E-03    -18.1726E-03     247.631E-03     105.493E+06     42.2362E+06    -19.5806E+06    -14.6657E+06     100.578E+06     42.2362E+06     619.385E+03         69.0790
            1378     16.7396E-03     68.8724E-03         3.09258    -951.936E-03        -1.38173    -755.999E-03         2.89664        -1.38173         1.57102     390.974E-03    -18.3991E-03    -372.575E-03    -124.521E-03     142.920E-03    -18.3991E-03     706.190E-03     150.742E+06     99.1822E+06    -8.77478E+06    -5.01225E+06     146.980E+06     99.1822E+06     230.010E+03         86.9320
            1379     982.133E-06     69.2096E-03         23.9798        -5.43808        -17.5957         3.63986         2.74429        -5.43808         13.8737     36.8949E-03    -18.2588E-03    -18.6361E-03    -18.4968E-03     36.8847E-03    -18.3879E-03     1.45753E-03    -8.00422E+06    -14.2347E+06    -205.397E+06    -12.0469E+06    -205.344E+06    -10.2442E+06     1.85192E+06         22.7399
            1380     1.96404E-03     69.2106E-03         10.1504    -915.093E-03        -8.28917    -978.690E-03         2.83994    -915.093E-03        -9.56115     36.7597E-03    -18.2058E-03    -18.5539E-03    -18.3162E-03     36.7318E-03    -18.4156E-03     2.36297E-03    -7.60438E+06    -13.1109E+06    -196.113E+06    -10.6473E+06    -196.068E+06    -10.1135E+06    -361.739E+03         22.7693
            1381     2.94644E-03     69.2131E-03         6.89188    -951.886E-03        -4.99506        -1.07999         2.97682    -951.886E-03        -2.82513     36.8568E-03    -18.3025E-03    -18.5543E-03    -18.4067E-03     36.7900E-03    -18.3832E-03     3.75833E-03    -10.0084E+06    -13.2767E+06    -190.917E+06    -11.4864E+06    -190.830E+06    -11.8857E+06    -1.47786E+06         22.8154
            1382     3.92812E-03     69.2174E-03         5.79937    -999.675E-03        -3.86568        -1.21617         3.14987    -999.675E-03        -7.69388     36.9689E-03    -18.3875E-03    -18.5814E-03    -18.4660E-03     36.8535E-03    -18.3875E-03     4.95166E-03    -10.8226E+06    -14.1781E+06    -187.597E+06    -12.1592E+06    -187.499E+06    -12.9392E+06    -1.55283E+06         22.8788
            1383     4.91071E-03     69.2223E-03         4.78071        -1.05709        -2.80937        -1.36791         3.33924        -1.05709        -5.32145     36.9956E-03    -18.3695E-03    -18.6261E-03    -18.4644E-03     36.8339E-03    -18.3695E-03     5.87084E-03    -11.5662E+06    -15.9624E+06    -173.595E+06    -12.0885E+06    -173.542E+06    -15.4921E+06    -1.23420E+06         22.9625
            1384     5.89164E-03     69.2285E-03         5.15105        -1.12025        -3.13154        -1.51484         3.53435        -1.12025        -6.22416     37.0800E-03    -18.3738E-03    -18.7062E-03    -18.4911E-03     36.8649E-03    -18.3738E-03     6.78595E-03    -9.88355E+06    -16.2461E+06    -164.397E+06    -11.4541E+06    -164.321E+06    -14.7514E+06    -2.92162E+06         23.0708
            1385     6.87479E-03     69.2350E-03         4.45937        -1.18501        -2.39087        -1.64332         3.71182        -1.18501        -4.21575     37.0980E-03    -18.3550E-03    -18.7430E-03    -18.4533E-03     36.8083E-03    -18.3550E-03     7.90981E-03    -9.55487E+06    -17.2892E+06    -149.930E+06    -10.6480E+06    -149.861E+06    -16.2648E+06    -2.18871E+06         23.2102
            1386     7.85581E-03     69.2440E-03         4.41116        -1.24767        -2.29325        -1.74093         3.85883        -1.24767        -3.23355     37.0824E-03    -18.3283E-03    -18.7540E-03    -18.3842E-03     36.7125E-03    -18.3283E-03     8.95902E-03    -10.3730E+06    -17.8145E+06    -134.652E+06    -10.3839E+06    -134.641E+06    -17.8145E+06     84.4314E+03         23.3915
            1387     8.83836E-03     69.2522E-03         4.00588        -1.30501        -1.84633        -1.79887         3.95842        -1.30501        -1.01885     37.0112E-03    -18.2803E-03    -18.7309E-03    -18.2558E-03     36.5362E-03    -18.2803E-03     10.1259E-03    -12.4851E+06    -21.7988E+06    -117.201E+06    -12.5263E+06    -117.160E+06    -21.7988E+06    -933.492E+03         23.6393
            1388     9.82031E-03     69.2639E-03         4.09339        -1.35439        -1.90401        -1.81234         4.00172        -1.35439     584.159E-03     36.9962E-03    -18.2051E-03    -18.7911E-03    -18.1789E-03     36.3839E-03    -18.2051E-03     11.4950E-03    -12.8723E+06    -26.1106E+06    -87.9148E+06    -13.0507E+06    -87.7363E+06    -26.1106E+06    -1.51908E+06         24.0212
            1389     10.8028E-03     69.2745E-03         4.22151        -1.39351        -2.01028        -1.77245         3.98368        -1.39351         2.35356     36.5858E-03    -18.1021E-03    -18.4837E-03    -17.7020E-03     35.8041E-03    -18.1021E-03     12.9115E-03    -11.6022E+06    -26.5492E+06    -54.7008E+06    -11.7524E+06    -50.9966E+06    -30.1032E+06    -512.065E+03         24.7307
            1390     11.7862E-03     69.2897E-03         4.41322        -1.42048        -2.18624        -1.67972         3.90671        -1.42048         3.45377     36.6058E-03    -17.9452E-03    -18.6606E-03    -17.5884E-03     35.5337E-03    -17.9452E-03     15.1698E-03     2.55990E+06    -19.4057E+06    -40.5075E+06    -11.1669E+06    -5.67890E+06    -40.5075E+06     797.739E+03         26.2797
            1391     12.7659E-03     69.3049E-03         4.50443        -1.43395        -2.27254        -1.54108         3.77297        -1.43395         4.20314     37.6318E-03    -17.8105E-03    -19.8213E-03    -16.5041E-03     34.3146E-03    -17.8105E-03     25.1248E-03     43.5963E+06    -11.5570E+06    -42.8157E+06    -11.3026E+06     43.3419E+06    -42.8157E+06    -797.272E+03         29.8159
            1392     13.7572E-03     69.3401E-03         4.38614        -1.43349        -2.16274        -1.36458         3.58798        -1.43349         4.28237     39.9518E-03    -17.8178E-03    -22.1340E-03    -16.5407E-03     34.3585E-03    -17.8178E-03     35.3475E-03     70.1651E+06    -15.0479E+06    -31.3545E+06    -17.1875E+06     69.7089E+06    -28.7588E+06    -2.37267E+06         37.2858
            1393     14.7307E-03     69.3763E-03         4.09728        -1.41923        -1.89304        -1.17126         3.37549        -1.41923         3.89622     54.0832E-03    -18.0361E-03    -36.0471E-03    -17.3459E-03     35.3820E-03    -18.0361E-03     69.6648E-03     76.4585E+06     6.67809E+06    -22.0314E+06    -20.9084E+06     75.3356E+06     6.67809E+06     5.12164E+06         50.5938
            1394     15.7296E-03     69.4882E-03         3.61707        -1.30666        -1.52882    -969.708E-03         3.13903        -1.38773         2.94513     124.687E-03    -18.1151E-03    -106.572E-03    -17.5791E-03     35.6942E-03    -18.1151E-03     221.027E-03     105.358E+06     46.5054E+06    -18.1068E+06    -15.9169E+06     103.168E+06     46.5054E+06    -1.27287E+06         69.1073
            1395     16.7377E-03     69.8319E-03         3.15352    -978.144E-03        -1.32248    -788.867E-03         2.96424        -1.32248         1.56815     388.762E-03    -18.5833E-03    -370.179E-03    -135.264E-03     153.847E-03    -18.5833E-03     692.823E-03     145.870E+06     110.485E+06    -19.2069E+06    -17.4388E+06     143.732E+06     110.855E+06    -12.5856E+06         87.1041
            1396     981.586E-06     70.2449E-03         23.7212        -5.53783        -17.2782         4.03247         2.41058        -5.53783         13.7132     36.6776E-03    -18.2183E-03    -18.4593E-03    -18.2983E-03     36.6706E-03    -18.3722E-03     1.18706E-03    -8.96482E+06    -15.7509E+06    -204.878E+06    -15.4706E+06    -204.786E+06    -9.33710E+06     1.93663E+06         22.7309
            1397     1.96468E-03     70.2472E-03         9.87826    -764.382E-03        -8.19196    -811.446E-03         2.49775    -764.382E-03        -9.39547     36.6089E-03    -18.1952E-03    -18.4137E-03    -18.2390E-03     36.5881E-03    -18.3491E-03     2.06483E-03    -3.61432E+06    -11.0609E+06    -197.046E+06    -10.0801E+06    -196.993E+06    -4.64862E+06    -946.756E+03         22.7608
            1398     2.94649E-03     70.2493E-03         6.66244    -801.976E-03        -4.93487    -959.346E-03         2.68692    -801.976E-03        -2.75797     36.8025E-03    -18.3243E-03    -18.4782E-03    -18.4209E-03     36.7452E-03    -18.3243E-03     3.43562E-03    -6.58280E+06    -10.1620E+06    -190.347E+06    -8.99489E+06    -190.317E+06    -7.77949E+06    -187.332E+03         22.8075
            1399     3.92862E-03     70.2545E-03         5.55614    -858.747E-03        -3.78356        -1.10734         2.87993    -858.747E-03        -7.55817     36.9045E-03    -18.3502E-03    -18.5543E-03    -18.4667E-03     36.8169E-03    -18.3502E-03     4.38122E-03    -7.24016E+06    -9.80978E+06    -185.043E+06    -9.17434E+06    -184.980E+06    -7.93835E+06    -1.88581E+06         22.8718
            1400     4.91021E-03     70.2581E-03         4.55744    -925.403E-03        -2.73499        -1.28737         3.10981    -925.403E-03        -5.21772     36.8989E-03    -18.3259E-03    -18.5730E-03    -18.4347E-03     36.7606E-03    -18.3259E-03     5.41457E-03    -7.43535E+06    -14.1231E+06    -173.804E+06    -8.14783E+06    -173.724E+06    -13.4905E+06    -3.35252E+06         22.9564
            1401     5.89307E-03     70.2660E-03         4.95126    -998.616E-03        -3.07350        -1.45108         3.32884    -998.616E-03        -6.10978     37.0229E-03    -18.3236E-03    -18.6993E-03    -18.5148E-03     36.8384E-03    -18.3236E-03     6.35895E-03    -7.86266E+06    -15.9259E+06    -162.944E+06    -8.96001E+06    -162.871E+06    -14.9015E+06    -2.44260E+06         23.0658
            1402     6.87370E-03     70.2710E-03         4.28405        -1.07284        -2.34158        -1.59454         3.53701        -1.07284        -4.13721     37.0914E-03    -18.3266E-03    -18.7648E-03    -18.5159E-03     36.8425E-03    -18.3266E-03     7.32815E-03    -9.87620E+06    -17.2398E+06    -151.640E+06    -10.9743E+06    -151.566E+06    -16.2154E+06    -2.45268E+06         23.2058
            1403     7.85679E-03     70.2813E-03         4.25551        -1.14421        -2.25419        -1.70272         3.70403        -1.14421        -3.17491     37.0390E-03    -18.3055E-03    -18.7335E-03    -18.4292E-03     36.7347E-03    -18.3055E-03     8.18088E-03    -10.6167E+06    -18.4881E+06    -135.328E+06    -10.6572E+06    -135.287E+06    -18.4881E+06    -1.31964E+06         23.3869
            1404     8.83830E-03     70.2883E-03         3.86959        -1.20949        -1.81844        -1.77130         3.82245        -1.20949        -1.00203     37.0452E-03    -18.2887E-03    -18.7565E-03    -18.3726E-03     36.6613E-03    -18.2887E-03     9.06187E-03    -9.43402E+06    -17.1098E+06    -115.761E+06    -9.45751E+06    -115.738E+06    -17.1098E+06    -734.992E+03         23.6327
            1405     9.82078E-03     70.3009E-03         3.96695        -1.26586        -1.87698        -1.78706         3.87703        -1.26586     563.535E-03     36.9127E-03    -18.2307E-03    -18.6819E-03    -18.1893E-03     36.4200E-03    -18.2307E-03     10.3166E-03    -10.5724E+06    -19.7145E+06    -86.0631E+06    -10.6952E+06    -85.9402E+06    -19.7145E+06    -2.19493E+06         24.0100
            1406     10.8024E-03     70.3110E-03         4.09865        -1.31075        -1.97781        -1.74577         3.86661        -1.31075         2.29543     36.6415E-03    -18.1126E-03    -18.5288E-03    -17.9496E-03     36.0623E-03    -18.1126E-03     11.1513E-03    -12.2001E+06    -27.3978E+06    -56.7176E+06    -12.3617E+06    -53.1043E+06    -30.8494E+06    -2.19138E+06         24.7092
            1407     11.7851E-03     70.3249E-03         4.28656        -1.34216        -2.14070        -1.64690         3.79275        -1.34216         3.36523     36.3021E-03    -17.8093E-03    -18.4927E-03    -17.4232E-03     35.3775E-03    -17.9543E-03     13.8259E-03     5.47714E+06    -24.1384E+06    -43.0264E+06    -13.4467E+06    -5.95093E+06    -42.2900E+06    -1.47774E+06         26.2372
            1408     12.7704E-03     70.3426E-03         4.37459        -1.35885        -2.21188        -1.50087         3.66357        -1.35885         4.08535     37.3464E-03    -17.7049E-03    -19.6415E-03    -17.2250E-03     35.0749E-03    -17.8499E-03     21.5196E-03     45.4875E+06    -15.3526E+06    -42.8914E+06    -15.2741E+06     45.4090E+06    -42.8914E+06    -927.695E+03         29.7413
            1409     13.7497E-03     70.3698E-03         4.26754        -1.36082        -2.09899        -1.32659         3.49514        -1.36082         4.15524     40.1038E-03    -17.8655E-03    -22.2383E-03    -17.1232E-03     34.9887E-03    -17.8655E-03     33.6282E-03     65.4633E+06    -17.5334E+06    -37.9198E+06    -17.9037E+06     65.1341E+06    -37.2202E+06     3.57551E+06         37.1856
            1410     14.7390E-03     70.4225E-03         3.99368        -1.34861        -1.83104        -1.13453         3.29717        -1.34861         3.77612     49.7261E-03    -18.0638E-03    -31.6623E-03    -16.5364E-03     34.6002E-03    -18.0638E-03     60.8431E-03     75.3220E+06     3.21055E+06    -24.2534E+06    -16.3532E+06     74.2699E+06    -3.63744E+06     1.05398E+06         50.5291
            1411     15.7245E-03     70.4971E-03         3.55629        -1.24788        -1.46200    -938.692E-03         3.10373        -1.31863         2.83102     124.842E-03    -18.6840E-03    -106.158E-03    -32.4372E-03     51.1211E-03    -18.6840E-03     213.528E-03     115.770E+06     56.8664E+06    -8.10970E+06    -7.30251E+06     114.963E+06     56.8664E+06    -1.08059E+06         69.0389
            1412     16.6482E-03     70.8986E-03         3.14771    -962.964E-03        -1.25608    -785.428E-03         2.97017        -1.25608         1.53863     389.495E-03    -19.4806E-03    -370.014E-03    -129.970E-03     149.450E-03    -19.4806E-03     705.474E-03     156.726E+06     126.130E+06     -9.6099E+06    -8.91696E+06     155.663E+06     126.499E+06     2.81536E+06         87.3188
            1413     982.729E-06     71.2823E-03         22.8143        -5.66481        -16.2496         4.38577         2.17899        -5.66481         12.9518     36.6612E-03    -18.2296E-03    -18.4316E-03    -18.4020E-03     36.6564E-03    -18.2544E-03     1.00132E-03    -8.62551E+06    -15.3520E+06    -204.471E+06    -11.2285E+06    -204.291E+06    -12.9287E+06    -2.16056E+06         22.7329
            1414     1.96402E-03     71.2825E-03         9.35158    -648.663E-03        -7.79527    -683.376E-03         2.23969    -648.663E-03        -9.06404     36.8997E-03    -18.3585E-03    -18.5412E-03    -18.4964E-03     36.8798E-03    -18.3833E-03     1.91976E-03    -4.67878E+06    -10.8397E+06    -196.245E+06    -9.37238E+06    -196.214E+06    -6.17676E+06    -1.24478E+06         22.7628
            1415     2.94619E-03     71.2868E-03         6.31170    -686.751E-03        -4.70699    -864.956E-03         2.46967    -686.751E-03        -2.78613     36.9069E-03    -18.4137E-03    -18.4933E-03    -18.4505E-03     36.8642E-03    -18.4137E-03     3.04917E-03    -5.47970E+06    -9.07797E+06    -190.342E+06    -7.72840E+06    -190.333E+06    -6.83833E+06    -283.755E+03         22.8093
            1416     3.92827E-03     71.2899E-03         5.30925    -749.535E-03        -3.65984        -1.01722         2.66663    -749.535E-03        -7.38281     36.9005E-03    -18.3857E-03    -18.5148E-03    -18.4247E-03     36.8225E-03    -18.3977E-03     4.08579E-03    -6.09117E+06    -9.63590E+06    -181.549E+06    -6.76881E+06    -181.504E+06    -9.00338E+06    -2.32890E+06         22.8735
            1417     4.91028E-03     71.2963E-03         4.37070    -822.327E-03        -2.67054        -1.22008         2.92024    -822.327E-03        -5.17200     36.9733E-03    -18.3710E-03    -18.6023E-03    -18.4747E-03     36.8578E-03    -18.3830E-03     5.05565E-03    -6.70624E+06    -11.9912E+06    -173.515E+06    -7.42801E+06    -173.426E+06    -11.3587E+06    -3.81094E+06         22.9583
            1418     5.89194E-03     71.3006E-03         4.77129    -901.966E-03        -3.00986        -1.38649         3.14792    -901.966E-03        -6.01290     37.1161E-03    -18.3760E-03    -18.7401E-03    -18.5723E-03     36.9483E-03    -18.3760E-03     6.06631E-03    -8.19409E+06    -14.1961E+06    -164.539E+06    -8.24578E+06    -164.488E+06    -14.1961E+06    -2.29700E+06         23.0681
            1419     6.87456E-03     71.3103E-03         4.13247    -981.524E-03        -2.30060        -1.53812         3.36999    -981.524E-03        -4.11199     37.2678E-03    -18.4002E-03    -18.8676E-03    -18.6675E-03     37.0677E-03    -18.4002E-03     6.66378E-03    -7.91527E+06    -12.4915E+06    -149.784E+06    -8.90500E+06    -149.754E+06    -11.5310E+06    -1.55741E+06         23.2085
            1420     7.85547E-03     71.3154E-03         4.10340        -1.05751        -2.20623        -1.64730         3.54447        -1.05751        -3.16654     37.3191E-03    -18.4070E-03    -18.9121E-03    -18.6518E-03     37.0588E-03    -18.4070E-03     7.53682E-03    -8.94369E+06    -13.8984E+06    -136.398E+06    -9.96653E+06    -136.336E+06    -12.9379E+06    -2.70619E+06         23.3893
            1421     8.83749E-03     71.3281E-03         3.72414        -1.12659        -1.77330        -1.71885         3.66969        -1.12659        -1.05780     37.2884E-03    -18.3801E-03    -18.9084E-03    -18.5973E-03     36.9773E-03    -18.3801E-03     8.33506E-03    -9.74793E+06    -16.6124E+06    -114.970E+06    -9.80958E+06    -114.908E+06    -16.6124E+06    -2.40834E+06         23.6341
            1422     9.81899E-03     71.3349E-03         3.81007        -1.18614        -1.81774        -1.73395         3.72628        -1.18614     469.129E-03     37.1163E-03    -18.3449E-03    -18.7714E-03    -18.3826E-03     36.7275E-03    -18.3449E-03     9.19759E-03    -8.94063E+06    -16.8159E+06    -85.6158E+06    -8.99150E+06    -85.5649E+06    -16.8159E+06    -1.84414E+06         24.0086
            1423     10.8019E-03     71.3501E-03         3.92820        -1.23344        -1.90093        -1.68967         3.71695        -1.23344         2.14356     37.0757E-03    -18.2506E-03    -18.8251E-03    -18.3633E-03     36.6139E-03    -18.2506E-03     10.0955E-03    -10.6625E+06    -25.7308E+06    -53.4423E+06    -10.7580E+06    -52.2787E+06    -26.7988E+06    -1.77183E+06         24.7003
            1424     11.7833E-03     71.3596E-03         4.10268        -1.26648        -2.04511        -1.58430         3.64186        -1.26648         3.17934     36.8627E-03    -17.9711E-03    -18.8915E-03    -18.1562E-03     36.2723E-03    -18.1161E-03     11.1881E-03     4.42451E+06    -24.9465E+06    -42.9706E+06    -14.1788E+06    -7.07961E+06    -42.2342E+06    -1.42819E+06         26.2096
            1425     12.7655E-03     71.3782E-03         4.18517        -1.28418        -2.10323        -1.43617         3.51812        -1.28418         3.87045     38.5038E-03    -17.9264E-03    -20.5774E-03    -18.4719E-03     36.5433E-03    -18.0714E-03     19.9740E-03     43.8555E+06    -18.2154E+06    -44.5698E+06    -18.1395E+06     43.7796E+06    -44.5698E+06    -262.857E+03         29.6794
            1426     13.7474E-03     71.4116E-03         4.08181        -1.28694        -1.98467        -1.26055         3.35769        -1.28694         3.93158     39.6636E-03    -18.1142E-03    -21.5494E-03    -17.6250E-03     35.7393E-03    -18.1142E-03     29.3949E-03     65.4683E+06    -16.2339E+06    -41.4271E+06    -15.2622E+06     64.4966E+06    -41.4271E+06    -1.66161E+06         37.0924
            1427     14.7303E-03     71.4472E-03         3.82632        -1.27563        -1.71981        -1.07675         3.18327        -1.27563         3.54561     53.0625E-03    -18.5342E-03    -34.5283E-03    -21.4181E-03     39.9523E-03    -18.5342E-03     60.6165E-03     83.8138E+06     23.7445E+06    -25.5024E+06    -8.85051E+06     82.2203E+06     8.68612E+06     -6.2442E+06         50.4224
            1428     15.7026E-03     71.5528E-03         3.43479        -1.18491        -1.37389    -904.823E-03         3.02840        -1.24759         2.63282     136.667E-03    -18.9784E-03    -117.689E-03    -27.0622E-03     46.0406E-03    -18.9784E-03     235.806E-03     110.291E+06     54.3664E+06    -16.2704E+06    -15.4373E+06     109.458E+06     54.3664E+06    -668.753E+03         69.2350
            1429     16.7021E-03     71.9813E-03         3.04007    -926.258E-03        -1.19022    -771.877E-03         2.88569        -1.19022         1.39433     397.510E-03    -19.1451E-03    -378.364E-03    -123.282E-03     142.427E-03    -19.1451E-03     722.282E-03     156.286E+06     115.963E+06    -7.61156E+06    -6.88746E+06     155.562E+06     115.963E+06     10.2425E+06         87.9763
            1430     981.832E-06     72.3179E-03         21.3233        -5.82927        -14.6067         4.67721         2.03940        -5.82927         11.7129     37.0369E-03    -18.3216E-03    -18.7154E-03    -18.6340E-03     37.0332E-03    -18.3992E-03     842.603E-06    -6.50822E+06    -15.0073E+06    -203.420E+06    -11.3449E+06    -203.151E+06    -10.4391E+06    -4.79737E+06         22.7436
            1431     1.96394E-03     72.3202E-03         8.58588    -580.389E-03        -7.10954    -594.482E-03         2.07082    -580.389E-03        -8.57341     37.1236E-03    -18.4424E-03    -18.6812E-03    -18.5825E-03     37.1025E-03    -18.5200E-03     1.95641E-03    -9.05257E+06    -14.3287E+06    -195.387E+06    -11.2891E+06    -195.372E+06    -12.1075E+06    -450.255E+03         22.7730
            1432     2.94560E-03     72.3227E-03         5.84716    -615.470E-03        -4.32493    -805.692E-03         2.32792    -615.470E-03        -2.90737     37.1387E-03    -18.5231E-03    -18.6156E-03    -18.5736E-03     37.0967E-03    -18.5231E-03     3.04981E-03    -9.90272E+06    -14.9655E+06    -188.078E+06    -11.0798E+06    -187.997E+06    -13.8695E+06    -2.76347E+06         22.8190
            1433     3.92753E-03     72.3272E-03         5.06719    -681.168E-03        -3.50720    -954.613E-03         2.51461    -681.168E-03        -7.18417     37.0340E-03    -18.4879E-03    -18.5461E-03    -18.4638E-03     36.9637E-03    -18.4999E-03     3.88423E-03    -10.8510E+06    -15.8790E+06    -181.039E+06    -10.9404E+06    -180.949E+06    -15.8790E+06    -2.82636E+06         22.8826
            1434     4.90989E-03     72.3319E-03         4.22263    -756.281E-03        -2.61487        -1.16796         2.77573    -756.281E-03        -5.17596     37.1861E-03    -18.4839E-03    -18.7022E-03    -18.5830E-03     37.0789E-03    -18.4960E-03     4.87690E-03    -11.7793E+06    -15.6220E+06    -172.219E+06    -12.8129E+06    -172.178E+06    -14.6293E+06    -1.93901E+06         22.9669
            1435     5.89149E-03     72.3390E-03         4.61196    -837.995E-03        -2.94041        -1.32810         2.99966    -837.995E-03        -5.92483     37.3499E-03    -18.4944E-03    -18.8555E-03    -18.7076E-03     37.2020E-03    -18.4944E-03     5.72136E-03    -14.0466E+06    -19.2459E+06    -165.411E+06    -15.1031E+06    -165.347E+06    -18.2533E+06    -2.73634E+06         23.0761
            1436     6.87277E-03     72.3456E-03         4.01291    -918.510E-03        -2.26984        -1.47888         3.22195    -918.510E-03        -4.13448     37.4528E-03    -18.4854E-03    -18.9674E-03    -18.7728E-03     37.2582E-03    -18.4854E-03     6.55095E-03    -13.3062E+06    -22.2728E+06    -148.448E+06    -14.3598E+06    -148.355E+06    -21.3123E+06    -3.08145E+06         23.2160
            1437     7.85465E-03     72.3551E-03         3.96047    -994.766E-03        -2.15031        -1.58101         3.39117    -994.766E-03        -3.18707     37.6018E-03    -18.5035E-03    -19.0983E-03    -18.8608E-03     37.3643E-03    -18.5035E-03     7.21653E-03    -12.0860E+06    -21.8444E+06    -135.467E+06    -13.1573E+06    -135.357E+06    -20.8840E+06    -3.43524E+06         23.3965
            1438     8.83621E-03     72.3627E-03         3.58215        -1.06350        -1.71853        -1.64968         3.51330        -1.06350        -1.16592     37.5591E-03    -18.4692E-03    -19.0899E-03    -18.7822E-03     37.2514E-03    -18.4692E-03     8.23259E-03    -12.6243E+06    -27.6152E+06    -115.175E+06    -12.8150E+06    -114.985E+06    -27.6152E+06    -4.04069E+06         23.6409
            1439     9.81779E-03     72.3751E-03         3.63793        -1.12240        -1.73509        -1.66009         3.56293        -1.12240     320.393E-03     37.6188E-03    -18.4500E-03    -19.1688E-03    -18.8080E-03     37.2580E-03    -18.4500E-03     8.99566E-03    -12.8363E+06    -28.2913E+06    -86.4686E+06    -12.9894E+06    -86.3155E+06    -28.2913E+06    -2.89965E+06         24.0137
            1440     10.7988E-03     72.3841E-03         3.72944        -1.16879        -1.79349        -1.61213         3.54808        -1.16879         1.92858     37.5561E-03    -18.3966E-03    -19.1594E-03    -18.6993E-03     37.0960E-03    -18.3966E-03     10.0619E-03    -13.4897E+06    -27.5281E+06    -58.2513E+06    -13.7068E+06    -51.7751E+06    -33.7873E+06    -1.85504E+06         24.6985
            1441     11.7804E-03     72.4009E-03         3.88478        -1.20071        -1.91583        -1.50207         3.47102        -1.20071         2.92748     38.1225E-03    -18.2853E-03    -19.8372E-03    -19.1695E-03     37.4548E-03    -18.2853E-03     12.2016E-03     772.163E+03    -23.4450E+06    -52.0074E+06    -14.7945E+06    -7.87831E+06    -52.0074E+06    -1.54688E+06         26.1886
            1442     12.7604E-03     72.4133E-03         3.95491        -1.21728        -1.95919        -1.35272         3.34844        -1.21728         3.58557     39.4079E-03    -18.2950E-03    -21.1128E-03    -18.7873E-03     37.0824E-03    -18.2950E-03     21.6241E-03     43.6487E+06    -14.7706E+06    -48.8167E+06    -14.6591E+06     43.5372E+06    -48.8167E+06    -1.65506E+06         29.6212
            1443     13.7419E-03     72.4521E-03         3.85242        -1.21931        -1.83841        -1.18139         3.19540        -1.21931         3.63524     41.5463E-03    -18.4593E-03    -23.0870E-03    -19.0428E-03     37.5021E-03    -18.4593E-03     31.2046E-03     71.1615E+06    -10.1307E+06    -37.8301E+06    -16.9950E+06     70.2797E+06    -30.0839E+06    -6.12423E+06         36.9962
            1444     14.7245E-03     72.4809E-03         3.62392        -1.20812        -1.59380        -1.01601         3.04613        -1.20812         3.26854     59.1913E-03    -18.8684E-03    -40.3229E-03    -21.2642E-03     40.1326E-03    -18.8684E-03     73.0475E-03     77.6755E+06     17.7330E+06    -32.1812E+06    -22.4665E+06     76.1713E+06     9.52259E+06    -744.119E+03         50.3761
            1445     15.6964E-03     72.6172E-03         3.26730        -1.12295        -1.29181    -873.482E-03         2.90863        -1.18261         2.41320     124.161E-03    -18.9445E-03    -105.216E-03    -15.9375E-03     34.8819E-03    -18.9445E-03     218.579E-03     99.4313E+06     38.6497E+06    -23.2517E+06    -22.3754E+06     98.5550E+06     38.6497E+06     7.47721E+06         69.4299
            1446     16.7398E-03     72.9270E-03         2.88704    -875.713E-03        -1.13006    -743.400E-03         2.75473        -1.13006         1.25710     390.012E-03    -18.9355E-03    -371.077E-03    -127.158E-03     146.094E-03    -18.9355E-03     702.344E-03     147.974E+06     103.294E+06    -13.7619E+06    -12.8384E+06     147.051E+06     103.294E+06     86.9366E+03         88.4189
            1447     981.514E-06     73.3553E-03         19.2809        -6.00881        -12.4114         4.87709         1.99241        -6.00881         10.0262     37.3896E-03    -18.4139E-03    -18.9757E-03    -18.6073E-03     37.3835E-03    -18.7762E-03     850.515E-06    -7.63970E+06    -19.5992E+06    -203.669E+06    -17.1009E+06    -203.432E+06    -10.3746E+06    -233.473E+03         22.7588
            1448     1.96354E-03     73.3564E-03         7.61334    -562.670E-03        -6.16971    -553.733E-03         1.99737    -562.670E-03        -7.93090     37.3687E-03    -18.5897E-03    -18.7790E-03    -18.6556E-03     37.3473E-03    -18.6917E-03     2.10900E-03    -9.03056E+06    -17.5536E+06    -193.681E+06    -14.8540E+06    -193.639E+06    -11.7721E+06    -1.04489E+06         22.7880
            1449     2.94541E-03     73.3604E-03         5.29266    -592.336E-03        -3.81506    -783.680E-03         2.26128    -592.336E-03        -3.11167     37.3784E-03    -18.6263E-03    -18.7521E-03    -18.6862E-03     37.3369E-03    -18.6507E-03     3.02233E-03    -13.0035E+06    -17.2550E+06    -184.482E+06    -13.4309E+06    -184.351E+06    -16.9586E+06    -4.29299E+06         22.8334
            1450     3.92710E-03     73.3634E-03         4.83883    -657.271E-03        -3.33092    -921.676E-03         2.42958    -657.271E-03        -6.94381     37.5033E-03    -18.6677E-03    -18.8356E-03    -18.7698E-03     37.4375E-03    -18.6677E-03     3.82752E-03    -12.7425E+06    -15.9307E+06    -181.832E+06    -13.1979E+06    -181.673E+06    -15.6343E+06    -4.32829E+06         22.8960
            1451     4.90854E-03     73.3695E-03         4.12290    -730.208E-03        -2.56765        -1.12939         2.68463    -730.208E-03        -5.20573     37.5261E-03    -18.6721E-03    -18.8539E-03    -18.7458E-03     37.4179E-03    -18.6721E-03     4.88459E-03    -10.6551E+06    -16.1402E+06    -173.350E+06    -11.7166E+06    -173.281E+06    -15.1476E+06    -1.46242E+06         22.9789
            1452     5.89019E-03     73.3759E-03         4.47584    -809.307E-03        -2.86420        -1.28024         2.89188    -809.307E-03        -5.82727     37.5988E-03    -18.6558E-03    -18.9430E-03    -18.7963E-03     37.4521E-03    -18.6558E-03     5.74350E-03    -10.7579E+06    -18.8144E+06    -162.364E+06    -11.8359E+06    -162.278E+06    -17.8218E+06    -2.28249E+06         23.0867
            1453     6.87212E-03     73.3832E-03         3.92483    -886.429E-03        -2.23992        -1.41837         3.10328    -886.429E-03        -4.16980     37.7174E-03    -18.6173E-03    -19.1000E-03    -18.8921E-03     37.5094E-03    -18.6173E-03     6.80371E-03    -13.0405E+06    -25.6505E+06    -147.871E+06    -13.2395E+06    -147.672E+06    -25.6505E+06    -5.11222E+06         23.2255
            1454     7.85334E-03     73.3922E-03         3.83430    -958.637E-03        -2.08677        -1.50895         3.25647    -958.637E-03        -3.21388     37.8689E-03    -18.6309E-03    -19.2380E-03    -18.9931E-03     37.6239E-03    -18.6309E-03     7.43395E-03    -12.3581E+06    -24.9041E+06    -133.703E+06    -12.7057E+06    -133.355E+06    -24.9041E+06    -6.06932E+06         23.4055
            1455     8.83452E-03     73.4009E-03         3.45216        -1.02317        -1.65881        -1.57028         3.36363        -1.02317        -1.29283     37.9720E-03    -18.6303E-03    -19.3417E-03    -19.0422E-03     37.6725E-03    -18.6303E-03     8.17320E-03    -11.9309E+06    -26.7103E+06    -115.847E+06    -12.2899E+06    -115.488E+06    -26.7103E+06    -5.51965E+06         23.6495
            1456     9.81626E-03     73.4118E-03         3.46487        -1.07795        -1.63791        -1.57253         3.39950        -1.07795     156.235E-03     37.9738E-03    -18.6100E-03    -19.3638E-03    -18.9740E-03     37.5841E-03    -18.6100E-03     9.37704E-03    -12.7299E+06    -28.8164E+06    -87.1170E+06    -13.0299E+06    -86.8170E+06    -28.8164E+06    -3.93302E+06         24.0203
            1457     10.7971E-03     73.4241E-03         3.52481        -1.12041        -1.66976        -1.52025         3.37530        -1.12041         1.68847     38.0538E-03    -18.5626E-03    -19.4912E-03    -19.0033E-03     37.5659E-03    -18.5626E-03     10.4437E-03    -13.3345E+06    -28.8009E+06    -58.5225E+06    -13.6813E+06    -52.5936E+06    -34.3830E+06    -2.78843E+06         24.6970
            1458     11.7796E-03     73.4356E-03         3.65438        -1.14883        -1.77179        -1.40890         3.29149        -1.14883         2.65363     38.3144E-03    -18.4437E-03    -19.8707E-03    -18.9944E-03     37.4381E-03    -18.4437E-03     13.8696E-03     3.22961E+06    -25.6809E+06    -52.1130E+06    -15.6624E+06    -6.78892E+06    -52.1130E+06    -2.95337E+06         26.1654
            1459     12.7593E-03     73.4581E-03         3.70832        -1.16248        -1.79987        -1.25962         3.16807        -1.16248         3.27350     39.5707E-03    -18.4335E-03    -21.1372E-03    -18.9418E-03     37.3753E-03    -18.4335E-03     21.8530E-03     45.2278E+06    -18.0666E+06    -50.6866E+06    -17.7112E+06     44.8724E+06    -50.6866E+06     -4.3466E+06         29.5592
            1460     13.7447E-03     73.4803E-03         3.60916        -1.16243        -1.68415        -1.09845         3.02346        -1.16243         3.31957     43.3984E-03    -18.6228E-03    -24.7756E-03    -19.7221E-03     38.3449E-03    -18.6228E-03     34.9084E-03     69.5551E+06    -16.6015E+06    -40.0060E+06    -22.9104E+06     68.1179E+06    -32.2599E+06     1.78539E+06         36.8884
            1461     14.7174E-03     73.5383E-03         3.38893        -1.15041        -1.45805    -943.936E-03         2.87481        -1.15041         2.98000     55.3479E-03    -18.8780E-03    -36.4698E-03    -18.1854E-03     37.0634E-03    -18.8780E-03     69.5510E-03     70.5272E+06    -4.84192E+06    -34.6585E+06    -28.2287E+06     67.9858E+06    -8.73028E+06     4.77627E+06         50.3098
            1462     15.7255E-03     73.6235E-03         3.05649        -1.04604        -1.20256    -806.668E-03         2.74037        -1.12581         2.18508     118.239E-03    -19.2512E-03    -98.9873E-03    -25.3543E-03     44.6056E-03    -19.2512E-03     204.039E-03     102.717E+06     33.9055E+06    -17.5500E+06    -15.8608E+06     101.028E+06     33.9055E+06    -1.83950E+06         69.4029
            1463     16.6453E-03     73.9779E-03         2.68241    -790.393E-03        -1.07691    -674.851E-03         2.56686        -1.07691         1.14779     385.000E-03    -19.6741E-03    -365.326E-03    -124.455E-03     144.129E-03    -19.6741E-03     699.191E-03     150.616E+06     112.360E+06    -13.5804E+06    -12.4666E+06     149.502E+06     112.360E+06    -6.83467E+06         88.5334
            1464     982.246E-06     74.3919E-03         16.8277        -5.50004        -10.4825         5.01786         2.03548        -6.20816         7.96871     37.6926E-03    -18.6500E-03    -19.0426E-03    -18.6910E-03     37.6862E-03    -18.9952E-03     780.657E-06    -11.5477E+06    -20.5471E+06    -203.760E+06    -16.3125E+06    -203.652E+06    -15.8906E+06     130.221E+03         22.7740
            1465     1.96304E-03     74.3946E-03         6.51429    -588.603E-03        -5.07566    -569.790E-03         2.00841    -588.603E-03        -7.16944     37.7504E-03    -18.8130E-03    -18.9374E-03    -18.8649E-03     37.7320E-03    -18.8671E-03     2.00546E-03    -6.17955E+06    -15.4609E+06    -189.482E+06    -12.8236E+06    -189.404E+06    -8.89498E+06    -3.13815E+06         22.8032
            1466     2.94483E-03     74.3966E-03         4.70593    -613.968E-03        -3.23033    -793.587E-03         2.26919    -613.968E-03        -3.36508     37.7103E-03    -18.8075E-03    -18.9028E-03    -18.8259E-03     37.6709E-03    -18.8450E-03     2.92260E-03    -8.74714E+06    -13.9251E+06    -182.183E+06    -11.0566E+06    -182.080E+06    -11.7192E+06    -4.10043E+06         22.8482
            1467     3.92633E-03     74.4020E-03         4.63498    -673.698E-03        -3.13818    -910.851E-03         2.40766    -673.698E-03        -6.65920     37.8131E-03    -18.8176E-03    -18.9955E-03    -18.9079E-03     37.7387E-03    -18.8308E-03     4.06341E-03    -12.4148E+06    -16.0253E+06    -181.615E+06    -12.8135E+06    -181.513E+06    -15.7289E+06    -3.79661E+06         22.9095
            1468     4.90760E-03     74.4063E-03         4.07020    -740.299E-03        -2.53332        -1.10838         2.64526    -740.299E-03        -5.24222     37.8497E-03    -18.8070E-03    -19.0427E-03    -18.9239E-03     37.7309E-03    -18.8070E-03     5.15419E-03    -13.4536E+06    -21.1161E+06    -174.091E+06    -13.7713E+06    -173.773E+06    -21.1161E+06    -4.80954E+06         22.9907
            1469     5.88966E-03     74.4135E-03         4.36112    -812.547E-03        -2.77022        -1.23627         2.82717    -812.547E-03        -5.70047     37.8964E-03    -18.8005E-03    -19.0959E-03    -18.9274E-03     37.7278E-03    -18.8005E-03     6.16294E-03    -9.91061E+06    -19.6917E+06    -160.133E+06    -10.2366E+06    -159.807E+06    -19.6917E+06    -5.02330E+06         23.0967
            1470     6.87056E-03     74.4210E-03         3.86168    -882.076E-03        -2.20723        -1.35998         3.01444    -882.076E-03        -4.19669     37.9881E-03    -18.7926E-03    -19.1955E-03    -18.9859E-03     37.7784E-03    -18.7926E-03     6.89716E-03    -8.81692E+06    -19.1678E+06    -144.432E+06    -9.09496E+06    -144.154E+06    -19.1678E+06    -5.84853E+06         23.2339
            1471     7.85236E-03     74.4297E-03         3.72103    -946.713E-03        -2.01392        -1.43454         3.14165    -946.713E-03        -3.21877     38.1187E-03    -18.7900E-03    -19.3287E-03    -19.0572E-03     37.8471E-03    -18.7900E-03     7.84553E-03    -10.5463E+06    -21.2139E+06    -133.385E+06    -10.9885E+06    -132.943E+06    -21.2139E+06    -7.04641E+06         23.4127
            1472     8.83355E-03     74.4395E-03         3.33584        -1.00374        -1.59223        -1.48264         3.22625        -1.00374        -1.40590     38.3094E-03    -18.7893E-03    -19.5201E-03    -19.1929E-03     37.9822E-03    -18.7893E-03     8.66556E-03    -12.7163E+06    -23.1324E+06    -116.012E+06    -13.0968E+06    -115.631E+06    -23.1324E+06    -5.74287E+06         23.6555
            1473     9.81408E-03     74.4496E-03         3.29954        -1.05147        -1.53505        -1.47731         3.24179        -1.05147     12.4079E-03     38.2507E-03    -18.7642E-03    -19.4865E-03    -19.0727E-03     37.8369E-03    -18.7642E-03     9.69405E-03    -14.0881E+06    -26.3948E+06    -87.8053E+06    -14.4756E+06    -87.4178E+06    -26.3948E+06    -4.87034E+06         24.0227
            1474     10.7967E-03     74.4617E-03         3.32671        -1.08764        -1.54397        -1.42105         3.20379        -1.08764         1.46917     38.5168E-03    -18.7253E-03    -19.7914E-03    -19.2474E-03     37.9728E-03    -18.7253E-03     11.1452E-03    -14.7777E+06    -30.0172E+06    -54.4767E+06    -15.1846E+06    -53.1272E+06    -30.9597E+06    -3.57935E+06         24.6891
            1475     11.7753E-03     74.4761E-03         3.43103        -1.11063        -1.62735        -1.30872         3.11240        -1.11063         2.40262     38.3551E-03    -18.6066E-03    -19.7485E-03    -18.9783E-03     37.5849E-03    -18.6066E-03     12.9544E-03     3.28788E+06    -26.4234E+06    -48.1186E+06    -16.9969E+06    -6.13860E+06    -48.1186E+06    -2.63521E+06         26.1317
            1476     12.7611E-03     74.4913E-03         3.46828        -1.11998        -1.64857        -1.16672         2.98643        -1.11998         2.98567     40.4331E-03    -18.5976E-03    -21.8355E-03    -19.5802E-03     38.1777E-03    -18.5976E-03     21.9742E-03     44.8215E+06    -24.3768E+06    -50.7204E+06    -23.9990E+06     44.4437E+06    -50.7204E+06    -1.35844E+06         29.4745
            1477     13.7345E-03     74.5282E-03         3.36405        -1.11682        -1.53761        -1.01162         2.83806        -1.11682         3.03293     42.5575E-03    -18.6952E-03    -23.8623E-03    -19.2029E-03     37.8980E-03    -18.6952E-03     33.0424E-03     63.5398E+06    -27.0133E+06    -49.3590E+06    -24.3259E+06     60.8524E+06    -49.3590E+06     851.396E+03         36.7420
            1478     14.7270E-03     74.5659E-03         3.14259        -1.10283        -1.32051    -864.254E-03         2.68634        -1.10283         2.69875     55.3164E-03    -19.0695E-03    -36.2469E-03    -21.2055E-03     40.2750E-03    -19.0695E-03     65.8252E-03     81.5596E+06     10.5070E+06    -31.9275E+06    -12.0533E+06     78.4403E+06    -6.24790E+06    -4.52259E+06         50.1193
            1479     15.6850E-03     74.6687E-03         2.81674    -970.899E-03        -1.11385    -729.483E-03         2.53900        -1.07753         1.96426     127.209E-03    -19.3899E-03    -107.819E-03    -20.7642E-03     40.1541E-03    -19.3899E-03     219.204E-03     106.991E+06     44.4875E+06    -16.8078E+06    -15.7445E+06     105.927E+06     44.4875E+06    -7.42600E+06         69.4231
            1480     16.6942E-03     75.0550E-03         2.40174    -685.871E-03        -1.02902    -584.968E-03         2.30084        -1.02902         1.00578     394.209E-03    -19.3679E-03    -374.841E-03    -121.600E-03     140.968E-03    -19.3679E-03     714.431E-03     153.407E+06     113.237E+06    -9.36558E+06    -8.40901E+06     152.451E+06     113.237E+06     3.37737E+06         88.8556
            1481     980.589E-06     75.4300E-03         14.1038        -3.89044        -9.38200         5.06791         2.14238        -6.37891         5.69601     38.1463E-03    -18.8572E-03    -19.2891E-03    -19.2222E-03     38.1399E-03    -18.9177E-03     1.00214E-03    -10.6962E+06    -14.1226E+06    -198.146E+06    -12.5600E+06    -198.053E+06    -12.3525E+06    -1.41906E+06         22.7850
            1482     1.96307E-03     75.4316E-03         5.41002    -649.618E-03        -3.93985    -616.561E-03         2.08673    -649.618E-03        -6.32522     38.0008E-03    -18.9346E-03    -19.0662E-03    -18.9600E-03     37.9820E-03    -19.0219E-03     2.00337E-03    -10.9007E+06    -17.9250E+06    -187.673E+06    -12.8827E+06    -187.600E+06    -16.0155E+06    -3.26163E+06         22.8146
            1483     2.94403E-03     75.4352E-03         4.16418    -668.297E-03        -2.66441    -828.700E-03         2.32847    -668.297E-03        -3.63976     37.9062E-03    -18.8988E-03    -19.0074E-03    -18.8927E-03     37.8623E-03    -18.9696E-03     3.09684E-03    -13.1252E+06    -20.6115E+06    -180.736E+06    -15.3648E+06    -180.660E+06    -18.4484E+06    -3.28203E+06         22.8592
            1484     3.92583E-03     75.4385E-03         4.44878    -720.168E-03        -2.93218    -919.219E-03         2.43583    -720.168E-03        -6.33104     37.8977E-03    -18.9164E-03    -18.9813E-03    -18.8818E-03     37.8113E-03    -18.9295E-03     4.37787E-03    -16.0837E+06    -21.8369E+06    -180.630E+06    -16.4493E+06    -180.518E+06    -21.5832E+06    -3.86023E+06         22.9196
            1485     4.90761E-03     75.4450E-03         4.04693    -776.953E-03        -2.49752        -1.09329         2.64269    -776.953E-03        -5.26443     38.0632E-03    -18.8921E-03    -19.1711E-03    -19.0357E-03     37.9278E-03    -18.8921E-03     5.53419E-03    -16.4959E+06    -25.4284E+06    -169.845E+06    -16.8818E+06    -169.459E+06    -25.4284E+06    -6.73926E+06         22.9992
            1486     5.88817E-03     75.4506E-03         4.25064    -838.722E-03        -2.65784        -1.19737         2.79017    -838.722E-03        -5.53098     38.1566E-03    -18.8740E-03    -19.2826E-03    -19.0910E-03     37.9650E-03    -18.8740E-03     6.59076E-03    -17.8240E+06    -30.0826E+06    -159.228E+06    -18.4887E+06    -158.564E+06    -30.0826E+06    -8.84784E+06         23.1033
            1487     6.87015E-03     75.4596E-03         3.80695    -897.629E-03        -2.16364        -1.30107         2.94437    -897.629E-03        -4.19508     38.1465E-03    -18.8705E-03    -19.2760E-03    -19.0314E-03     37.9019E-03    -18.8705E-03     7.45727E-03    -17.0577E+06    -29.1519E+06    -142.712E+06    -17.6852E+06    -142.084E+06    -29.1519E+06    -8.22823E+06         23.2386
            1488     7.85109E-03     75.4671E-03         3.60641    -951.788E-03        -1.92366        -1.35517         3.03791    -951.788E-03        -3.17831     38.2179E-03    -18.8771E-03    -19.3408E-03    -19.0376E-03     37.9147E-03    -18.8771E-03     8.29843E-03    -16.9325E+06    -27.5562E+06    -133.552E+06    -17.3364E+06    -133.148E+06    -27.5562E+06    -6.68240E+06         23.4152
            1489     8.83254E-03     75.4782E-03         3.22218    -998.846E-03        -1.51915        -1.39136         3.09439    -998.846E-03        -1.47496     38.2690E-03    -18.8441E-03    -19.4249E-03    -19.0364E-03     37.8805E-03    -18.8441E-03     9.39775E-03    -17.3553E+06    -31.1570E+06    -115.626E+06    -17.7975E+06    -115.183E+06    -31.1570E+06    -6.17586E+06         23.6550
            1490     9.81419E-03     75.4876E-03         3.13786        -1.03744        -1.42537        -1.37458         3.08706        -1.03744    -77.1941E-03     38.5664E-03    -18.8142E-03    -19.7522E-03    -19.2616E-03     38.0758E-03    -18.8142E-03     10.6086E-03    -17.4168E+06    -33.4524E+06    -87.3822E+06    -17.9958E+06    -86.8033E+06    -33.4524E+06    -6.26338E+06         24.0166
            1491     10.7937E-03     75.5005E-03         3.14086        -1.06549        -1.42299        -1.31580         3.03367        -1.06549         1.30978     38.5657E-03    -18.7629E-03    -19.8028E-03    -19.1058E-03     37.8687E-03    -18.7629E-03     12.5765E-03    -16.6229E+06    -33.3822E+06      -62.96E+06    -17.7711E+06    -55.2625E+06    -39.9315E+06    -5.29152E+06         24.6697
            1492     11.7769E-03     75.5149E-03         3.22398        -1.08179        -1.49824        -1.20768         2.93343        -1.08179         2.21894     39.1747E-03    -18.6504E-03    -20.5243E-03    -19.5268E-03     38.1772E-03    -18.6504E-03     15.0081E-03     1.01195E+06    -27.0352E+06    -56.7995E+06    -18.9381E+06    -7.08521E+06    -56.7995E+06    -2.53721E+06         26.0818
            1493     12.7531E-03     75.5302E-03         3.24597        -1.08590        -1.51654        -1.07238         2.80181        -1.08590         2.76609     41.0314E-03    -18.6287E-03    -22.4026E-03    -19.3244E-03     37.9532E-03    -18.6287E-03     25.4318E-03     42.0496E+06    -18.9521E+06    -60.4007E+06    -18.7205E+06     41.8181E+06    -60.4007E+06     240.147E+03         29.3633
            1494     13.7392E-03     75.5704E-03         3.13241        -1.07891        -1.41254    -926.746E-03         2.64662        -1.07891         2.80753     43.5728E-03    -18.7730E-03    -24.7998E-03    -19.5852E-03     38.3581E-03    -18.7730E-03     36.0993E-03     68.2970E+06    -14.5796E+06    -50.6261E+06    -17.9112E+06     66.6823E+06    -45.6797E+06     -6.4664E+06         36.5545
            1495     14.7133E-03     75.5977E-03         2.90780        -1.06229        -1.20793    -788.819E-03         2.48869        -1.06229         2.48484     60.2588E-03    -19.1623E-03    -41.0965E-03    -20.0344E-03     39.1967E-03    -19.1623E-03     76.6638E-03     81.4750E+06     16.1548E+06    -36.0180E+06    -21.4829E+06     79.8064E+06     3.28828E+06    -5.72567E+06         49.9258
            1496     15.7001E-03     75.7370E-03         2.57140    -905.948E-03        -1.04424    -659.977E-03         2.31679        -1.03561         1.79527     115.707E-03    -19.1124E-03    -96.5946E-03    -11.6435E-03     30.7560E-03    -19.1124E-03     202.503E-03     100.046E+06     32.1875E+06    -19.1988E+06    -18.8736E+06     99.7206E+06     32.1875E+06     1.95514E+06         69.3725
            1497     16.7453E-03     75.9959E-03         2.11604    -588.526E-03    -983.608E-03    -496.170E-03         2.02369    -983.608E-03     911.180E-03     386.630E-03    -19.0183E-03    -367.612E-03    -128.450E-03     147.468E-03    -19.0183E-03     692.494E-03     143.220E+06     92.3945E+06    -11.6873E+06    -9.59536E+06     141.128E+06     92.3945E+06    -2.87618E+06         88.9830
            1498     982.079E-06     76.4683E-03         11.2367        -1.87820        -8.55673         5.03581         2.28154        -6.51560         3.26275     38.1185E-03    -18.8041E-03    -19.3143E-03    -19.2118E-03     38.1096E-03    -18.8977E-03     1.31985E-03    -12.7540E+06    -19.3334E+06    -196.009E+06    -16.8018E+06    -195.761E+06    -15.5339E+06    -1.13320E+06         22.7891
            1499     1.96199E-03     76.4697E-03         4.44958    -728.735E-03        -2.92040    -676.006E-03         2.20518    -728.735E-03        -5.41964     38.1178E-03    -18.9809E-03    -19.1368E-03    -19.0542E-03     38.0928E-03    -19.0385E-03     2.32544E-03    -14.6676E+06    -20.9760E+06    -184.902E+06    -17.4919E+06    -184.802E+06    -18.2515E+06    -1.32339E+06         22.8195
            1500     2.94443E-03     76.4724E-03         3.79689    -738.308E-03        -2.24780    -873.472E-03         2.42256    -738.308E-03        -3.91824     38.0405E-03    -18.9452E-03    -19.0954E-03    -18.9829E-03     37.9856E-03    -19.0028E-03     3.47551E-03    -16.4212E+06    -23.5536E+06    -177.971E+06    -17.5058E+06    -177.835E+06    -22.6049E+06    -4.24191E+06         22.8644
            1501     3.92544E-03     76.4769E-03         4.27039    -780.437E-03        -2.71554    -935.060E-03         2.48992    -780.437E-03        -5.95305     38.1468E-03    -18.9984E-03    -19.1484E-03    -19.0575E-03     38.0559E-03    -18.9984E-03     4.53503E-03    -15.2073E+06    -21.8278E+06    -176.777E+06    -15.8390E+06    -176.399E+06    -21.5741E+06    -7.32126E+06         22.9242
            1502     4.90687E-03     76.4819E-03         4.03442    -825.500E-03        -2.45558        -1.07991         2.65874    -825.500E-03        -5.25391     38.1592E-03    -18.9560E-03    -19.2032E-03    -19.0315E-03     38.0077E-03    -18.9762E-03     5.81886E-03    -14.4263E+06    -23.4140E+06    -167.698E+06    -14.8357E+06    -167.289E+06    -23.4140E+06    -7.65809E+06         23.0027
            1503     5.88853E-03     76.4900E-03         4.13061    -874.775E-03        -2.52650        -1.15748         2.76158    -874.775E-03        -5.31410     38.2139E-03    -18.9229E-03    -19.2910E-03    -19.0616E-03     38.0047E-03    -18.9431E-03     6.91679E-03    -15.2338E+06    -26.7162E+06    -154.072E+06    -15.9377E+06    -153.368E+06    -26.7162E+06    -9.23037E+06         23.1050
            1504     6.86937E-03     76.4960E-03         3.73732    -921.075E-03        -2.09861        -1.23642         2.87513    -921.075E-03        -4.14091     38.2531E-03    -18.9149E-03    -19.3382E-03    -19.0492E-03     37.9641E-03    -18.9149E-03     8.07515E-03    -16.6169E+06    -31.0720E+06    -144.666E+06    -17.5455E+06    -143.737E+06    -31.0720E+06    -10.7963E+06         23.2378
            1505     7.85086E-03     76.5070E-03         3.47461    -963.035E-03        -1.81433        -1.27179         2.93207    -963.035E-03        -3.07854     38.2571E-03    -18.9105E-03    -19.3466E-03    -18.9898E-03     37.9003E-03    -18.9105E-03     9.02729E-03    -16.1263E+06    -29.0018E+06    -133.029E+06    -16.8249E+06    -132.330E+06    -29.0018E+06    -8.83519E+06         23.4115
            1506     8.83236E-03     76.5141E-03         3.09491    -998.603E-03        -1.42916        -1.29075         2.95651    -998.603E-03        -1.47505     38.2524E-03    -18.8615E-03    -19.3909E-03    -18.9400E-03     37.8015E-03    -18.8615E-03     10.0962E-03    -14.2253E+06    -32.1563E+06    -114.645E+06    -15.1145E+06    -113.756E+06    -32.1563E+06    -9.07352E+06         23.6469
            1507     9.81356E-03     76.5278E-03         2.97049        -1.02670        -1.30922        -1.26554         2.92682        -1.02670    -82.7232E-03     38.3193E-03    -18.8051E-03    -19.5142E-03    -18.8957E-03     37.7007E-03    -18.8051E-03     11.8574E-03    -13.5991E+06    -34.6256E+06    -88.5000E+06    -14.4244E+06    -87.6748E+06    -34.6256E+06    -7.75408E+06         24.0009
            1508     10.7954E-03     76.5382E-03         2.96413        -1.04564        -1.30994        -1.20412         2.85831        -1.04564         1.24007     38.4314E-03    -18.7211E-03    -19.7103E-03    -18.9195E-03     37.6405E-03    -18.7211E-03     13.4208E-03    -14.3940E+06    -33.9248E+06    -65.9251E+06    -15.8837E+06    -55.9565E+06    -42.4038E+06    -6.38432E+06         24.6382
            1509     11.7766E-03     76.5521E-03         3.03523        -1.05445        -1.38945        -1.10214         2.74792        -1.05445         2.13628     38.9056E-03    -18.5789E-03    -20.3267E-03    -18.9000E-03     37.4789E-03    -18.5789E-03     17.7787E-03     960.571E+03    -28.4629E+06    -59.2635E+06     -17.611E+06    -9.89128E+06    -59.2635E+06    -4.65553E+06         26.0150
            1510     12.7585E-03     76.5749E-03         3.04908        -1.05287        -1.41618    -977.657E-03         2.61055        -1.05287         2.65234     40.3625E-03    -18.5248E-03    -21.8377E-03    -18.6907E-03     37.2155E-03    -18.5248E-03     26.5967E-03     43.4669E+06    -17.0823E+06    -58.8220E+06    -16.4869E+06     42.8715E+06    -58.8220E+06    -4.94505E+06         29.2340
            1511     13.7413E-03     76.5972E-03         2.93031        -1.04176        -1.32414    -844.510E-03         2.45068        -1.04176         2.68961     44.9140E-03    -18.6696E-03    -26.2444E-03    -19.4085E-03     38.0781E-03    -18.6696E-03     41.0421E-03     71.4980E+06    -16.9906E+06    -44.7336E+06    -20.6290E+06     70.1900E+06    -39.7872E+06    -1.53021E+06         36.3435
            1512     14.7198E-03     76.6604E-03         2.69032        -1.01512        -1.13550    -712.314E-03         2.27416        -1.02215         2.37643     54.6520E-03    -18.8722E-03    -35.7798E-03    -16.3831E-03     35.2553E-03    -18.8722E-03     70.4056E-03     77.2336E+06    -6.07873E+06    -31.2932E+06    -25.6503E+06     74.9694E+06    -9.45737E+06    -564.291E+03         49.7110
            1513     15.7246E-03     76.7273E-03         2.33463    -836.925E-03    -992.543E-03    -577.448E-03         2.07508    -992.468E-03         1.72057     112.236E-03    -19.2953E-03    -92.9405E-03    -27.3773E-03     46.6727E-03    -19.2953E-03     189.587E-03     104.476E+06     32.4702E+06    -16.8700E+06    -14.8789E+06     102.485E+06     32.4702E+06    -8.41744E+06         69.0880
            1514     16.6358E-03     77.0657E-03         1.84602    -500.510E-03    -934.081E-03    -401.883E-03         1.74739    -934.081E-03     897.004E-03     378.064E-03    -19.8408E-03    -358.223E-03    -122.953E-03     142.794E-03    -19.8408E-03     685.129E-03     145.626E+06     107.654E+06    -16.7163E+06    -13.5585E+06     142.468E+06     107.654E+06    -7.58996E+06         88.8090
            1515     981.128E-06     77.5061E-03         8.59293    -98.4595E-03        -7.71412         4.97470         2.41797        -6.61232     841.071E-03     37.8819E-03    -18.7560E-03    -19.1258E-03    -18.7922E-03     37.8727E-03    -19.0806E-03     1.32664E-03    -18.3436E+06    -25.4786E+06    -199.209E+06    -22.9576E+06    -198.998E+06    -21.0752E+06    -2.17784E+06         22.7865
            1516     1.96372E-03     77.5078E-03         3.72260    -801.512E-03        -2.14047    -738.158E-03         2.32029    -801.512E-03        -4.48104     38.0131E-03    -18.8838E-03    -19.1293E-03    -19.0179E-03     37.9868E-03    -18.9689E-03     2.30566E-03    -13.8778E+06    -18.7497E+06    -177.281E+06    -18.9340E+06    -177.097E+06    -13.8778E+06    -2.68189E+06         22.8176
            1517     2.94386E-03     77.5102E-03         3.64946    -803.673E-03        -2.05350    -910.698E-03         2.50665    -803.673E-03        -4.17209     38.2448E-03    -18.9951E-03    -19.2497E-03    -19.1880E-03     38.1830E-03    -18.9951E-03     3.71355E-03    -12.6712E+06    -18.5752E+06    -173.197E+06    -14.7942E+06    -172.786E+06    -16.8634E+06    -7.67403E+06         22.8630
            1518     3.92555E-03     77.5151E-03         4.09569    -835.608E-03        -2.50393    -946.721E-03         2.53848    -835.608E-03        -5.54872     38.3663E-03    -19.0322E-03    -19.3341E-03    -19.2286E-03     38.2608E-03    -19.0322E-03     4.88337E-03    -12.8454E+06    -18.9654E+06    -172.869E+06    -13.4516E+06    -172.262E+06    -18.9654E+06    -9.63189E+06         22.9226
            1519     4.90637E-03     77.5201E-03         4.00738    -868.939E-03        -2.40837        -1.06120         2.66021    -868.939E-03        -5.20929     38.2613E-03    -19.0206E-03    -19.2407E-03    -19.0651E-03     38.1059E-03    -19.0408E-03     5.91996E-03    -10.5755E+06    -17.9864E+06    -165.267E+06    -11.5401E+06    -164.302E+06    -17.9864E+06    -11.2532E+06         23.0000
            1520     5.88820E-03     77.5270E-03         3.98918    -905.270E-03        -2.37771        -1.10827         2.71974    -905.270E-03        -5.05278     38.1244E-03    -18.9673E-03    -19.1570E-03    -18.8958E-03     37.8915E-03    -18.9957E-03     7.20338E-03    -6.87527E+06    -18.4018E+06    -151.311E+06    -7.99383E+06    -150.193E+06    -18.4018E+06    -11.9677E+06         23.1005
            1521     6.86962E-03     77.5355E-03         3.63894    -938.333E-03        -2.01257        -1.16267         2.78904    -938.333E-03        -4.03671     38.1678E-03    -18.9420E-03    -19.2258E-03    -18.9137E-03     37.8639E-03    -18.9502E-03     8.26638E-03    -6.25478E+06    -20.2247E+06    -143.551E+06    -7.20930E+06    -142.596E+06    -20.2247E+06    -11.4030E+06         23.2312
            1522     7.85142E-03     77.5430E-03         3.31116    -967.494E-03        -1.68093        -1.17726         2.80748    -967.494E-03        -2.91106     38.2163E-03    -18.9101E-03    -19.3062E-03    -18.9019E-03     37.8120E-03    -18.9101E-03     9.50584E-03    -6.42477E+06    -21.8551E+06    -132.782E+06    -7.57688E+06    -131.630E+06    -21.8551E+06    -11.8781E+06         23.4018
            1523     8.83243E-03     77.5545E-03         2.94091    -990.983E-03        -1.31750        -1.17938         2.80279    -990.983E-03        -1.39601     38.2382E-03    -18.8617E-03    -19.3765E-03    -18.8821E-03     37.7438E-03    -18.8617E-03     10.5861E-03    -6.40524E+06    -23.2824E+06    -113.073E+06    -7.65014E+06    -111.828E+06    -23.2824E+06    -11.4007E+06         23.6325
            1524     9.81443E-03     77.5632E-03         2.78905        -1.00809        -1.18412        -1.14526         2.75019        -1.00809     1.00398E-03     38.0103E-03    -18.7963E-03    -19.2140E-03    -18.5880E-03     37.3843E-03    -18.7963E-03     11.8282E-03    -6.53201E+06    -25.8152E+06    -91.7414E+06    -7.78578E+06    -90.4877E+06    -25.8152E+06    -9.91075E+06         23.9777
            1525     10.7968E-03     77.5776E-03         2.78871        -1.01756        -1.20527        -1.08334         2.66679        -1.01756         1.27557     38.2833E-03    -18.6935E-03    -19.5898E-03    -18.7464E-03     37.4399E-03    -18.6935E-03     13.8381E-03    -7.27370E+06    -29.6290E+06    -59.1033E+06    -8.43955E+06    -55.4563E+06    -32.1101E+06    -6.48863E+06         24.5968
            1526     11.7770E-03     77.5908E-03         2.86418        -1.01870        -1.30322    -987.732E-03         2.54870        -1.01870         2.16562     38.0098E-03    -18.5235E-03    -19.4863E-03    -18.2688E-03     36.7923E-03    -18.5235E-03     16.1142E-03     3.60677E+06    -24.1844E+06    -50.6565E+06    -10.7187E+06    -11.0758E+06    -49.4397E+06    -5.92584E+06         25.9346
            1527     12.7627E-03     77.6079E-03         2.87919        -1.01129        -1.35099    -877.335E-03         2.40554        -1.01129         2.65955     40.4128E-03    -18.4627E-03    -21.9501E-03    -18.8016E-03     37.2642E-03    -18.4627E-03     26.0777E-03     45.2781E+06    -21.3340E+06    -49.9346E+06    -19.2119E+06     43.1560E+06    -49.9346E+06    -3.38737E+06         29.0816
            1528     13.7387E-03     77.6455E-03         2.76039    -995.959E-03        -1.27740    -756.361E-03         2.23935    -995.959E-03         2.70338     42.5430E-03    -18.4961E-03    -24.0468E-03    -17.8669E-03     36.3630E-03    -18.4961E-03     37.6757E-03     71.4842E+06    -24.9544E+06    -44.7091E+06    -21.0054E+06     67.5352E+06    -44.7091E+06    -1.93590E+06         36.1026
            1529     14.7296E-03     77.6836E-03         2.50468    -966.072E-03        -1.09116    -631.197E-03         2.05175    -973.098E-03         2.37865     54.0551E-03    -18.8085E-03    -35.2466E-03    -20.3221E-03     39.1306E-03    -18.8085E-03     65.5459E-03     89.9486E+06     12.9398E+06    -27.3689E+06    -8.84035E+06     85.3481E+06    -988.312E+03    -10.2156E+06         49.3874
            1530     15.6920E-03     77.7764E-03         2.11933    -787.895E-03    -941.221E-03    -494.079E-03         1.82337    -939.074E-03         1.74581     130.484E-03    -19.2716E-03    -111.213E-03    -26.3192E-03     45.5908E-03    -19.2716E-03     222.343E-03     106.635E+06     46.4995E+06    -25.4563E+06    -20.1475E+06     101.326E+06     46.4995E+06    -2.64855E+06         68.9621
            1531     16.6784E-03     78.1749E-03         1.57620    -433.412E-03    -870.349E-03    -314.587E-03         1.45738    -870.349E-03     901.314E-03     385.128E-03    -19.4503E-03    -365.677E-03    -115.296E-03     134.746E-03    -19.4503E-03     700.265E-03     148.992E+06     113.948E+06    -11.7495E+06    -6.80094E+06     144.043E+06     113.948E+06     11.5761E+06         88.9628
            1532     981.558E-06     78.5437E-03         6.93296     759.377E-03        -6.91236         4.86193         2.50658        -6.58854        -1.41125     38.0603E-03    -18.8526E-03    -19.2077E-03    -18.9686E-03     38.0521E-03    -19.0835E-03     1.04634E-03    -14.8551E+06    -18.6264E+06    -193.569E+06    -17.3738E+06    -193.424E+06    -16.2525E+06    -2.07511E+06         22.7795
            1533     1.96252E-03     78.5449E-03         3.26208    -844.015E-03        -1.64049    -782.706E-03         2.40679    -846.514E-03        -3.58759     37.9257E-03    -18.8475E-03    -19.0782E-03    -18.9185E-03     37.8994E-03    -18.9809E-03     2.28111E-03    -12.1590E+06    -18.1586E+06    -170.823E+06    -14.6371E+06    -170.492E+06    -16.0112E+06    -6.90942E+06         22.8105
            1534     2.94470E-03     78.5493E-03         3.64228    -844.882E-03        -2.02125    -930.354E-03         2.55138    -844.882E-03        -4.38961     38.1439E-03    -18.9311E-03    -19.2128E-03    -19.1016E-03     38.0810E-03    -18.9794E-03     3.74441E-03    -12.1738E+06    -18.1408E+06    -167.506E+06    -14.6908E+06    -166.927E+06    -16.2026E+06    -9.31004E+06         22.8557
            1535     3.92527E-03     78.5523E-03         3.91694    -868.486E-03        -2.30914    -942.681E-03         2.55048    -868.486E-03        -5.14209     38.2288E-03    -18.9933E-03    -19.2355E-03    -19.1176E-03     38.1108E-03    -18.9933E-03     5.14009E-03    -13.2139E+06    -20.9294E+06    -169.249E+06    -15.0202E+06    -168.364E+06    -20.0080E+06    -11.3394E+06         22.9150
            1536     4.90689E-03     78.5593E-03         3.95236    -891.114E-03        -2.34956        -1.02405         2.62685    -891.114E-03        -5.13367     38.1835E-03    -18.9624E-03    -19.2210E-03    -19.0386E-03     38.0011E-03    -18.9624E-03     6.40812E-03    -13.3406E+06    -24.9408E+06    -158.659E+06    -14.9147E+06    -157.085E+06    -24.9408E+06    -14.4615E+06         22.9916
            1537     5.88782E-03     78.5640E-03         3.81614    -915.126E-03        -2.21673        -1.04368         2.64309    -915.126E-03        -4.76255     38.0251E-03    -18.9085E-03    -19.1166E-03    -18.8500E-03     37.7667E-03    -18.9167E-03     7.58914E-03    -12.9758E+06    -28.9476E+06    -151.205E+06    -14.9866E+06    -149.194E+06    -28.9476E+06    -16.2456E+06         23.0907
            1538     6.87018E-03     78.5735E-03         3.50024    -935.565E-03        -1.90240        -1.07286         2.67070    -935.565E-03        -3.88279     37.9146E-03    -18.8564E-03    -19.0582E-03    -18.7125E-03     37.5771E-03    -18.8646E-03     8.65793E-03    -10.7160E+06    -29.4614E+06    -142.438E+06    -12.7016E+06    -140.452E+06    -29.4614E+06    -15.3390E+06         23.2196
            1539     7.85120E-03     78.5810E-03         3.10892    -952.276E-03        -1.52056        -1.06588         2.65424    -952.276E-03        -2.68909     37.9777E-03    -18.8191E-03    -19.1586E-03    -18.7309E-03     37.5500E-03    -18.8191E-03     9.73758E-03    -7.81870E+06    -27.9131E+06    -131.278E+06    -9.86869E+06    -129.228E+06    -27.9131E+06    -15.3366E+06         23.3876
            1540     8.83374E-03     78.5917E-03         2.75092    -964.086E-03        -1.18598        -1.05469         2.61964    -964.086E-03        -1.24611     37.9058E-03    -18.7583E-03    -19.1475E-03    -18.6096E-03     37.3679E-03    -18.7583E-03     10.9329E-03    -5.30633E+06    -28.3069E+06    -114.338E+06    -7.33138E+06    -112.313E+06    -28.3069E+06    -14.3740E+06         23.6140
            1541     9.81464E-03     78.6019E-03         2.58398    -970.648E-03        -1.04730        -1.01068         2.54736    -970.648E-03     164.730E-03     38.0110E-03    -18.6892E-03    -19.3218E-03    -18.6496E-03     37.3388E-03    -18.6892E-03     12.2645E-03    -4.17208E+06    -30.0443E+06    -92.5678E+06    -6.05798E+06    -90.6819E+06    -30.0443E+06    -12.4300E+06         23.9508
            1542     10.7962E-03     78.6137E-03         2.60957    -970.926E-03        -1.10697    -947.598E-03         2.45020    -970.926E-03         1.39935     37.8285E-03    -18.5673E-03    -19.2612E-03    -18.2846E-03     36.8549E-03    -18.5703E-03     14.6481E-03    -2.57439E+06    -35.3608E+06    -63.6855E+06    -4.86890E+06    -59.1833E+06    -37.5685E+06    -9.92506E+06         24.5510
            1543     11.7794E-03     78.6304E-03         2.70481    -964.633E-03        -1.24118    -860.544E-03         2.32418    -964.633E-03         2.29532     38.2889E-03    -18.4211E-03    -19.8678E-03    -18.5778E-03     37.0018E-03    -18.4240E-03     16.9095E-03     8.23895E+06    -26.3140E+06    -50.2447E+06    -6.76924E+06    -12.5226E+06    -49.0279E+06    -4.34884E+06         25.8483
            1544     12.7578E-03     78.6433E-03         2.73479    -951.526E-03        -1.31722    -761.243E-03         2.17882    -951.526E-03         2.77640     40.2298E-03    -18.3064E-03    -21.9234E-03    -17.9252E-03     36.2316E-03    -18.3064E-03     28.3106E-03     43.7322E+06    -11.7874E+06    -55.2314E+06    -8.05782E+06     40.0025E+06    -55.2314E+06    -1.11249E+06         28.9186
            1545     13.7437E-03     78.6881E-03         2.62120    -932.016E-03        -1.26608    -654.828E-03         2.00995    -932.016E-03         2.82377     42.1945E-03    -18.3456E-03    -23.8489E-03    -17.4706E-03     35.8162E-03    -18.3456E-03     38.8281E-03     79.1569E+06    -3.23751E+06    -45.2697E+06    -7.54935E+06     74.9238E+06    -36.7247E+06    -8.31878E+06         35.8499
            1546     14.7241E-03     78.7097E-03         2.36425    -905.849E-03        -1.08624    -545.101E-03         1.82312    -905.849E-03         2.50199     60.2413E-03    -18.6522E-03    -41.5891E-03    -19.1933E-03     37.8455E-03    -18.6522E-03     79.3541E-03     87.4699E+06     17.6128E+06    -35.9609E+06    -21.0221E+06     83.0806E+06     7.06329E+06    -2.85846E+06         49.1137
            1547     15.7034E-03     78.8531E-03         1.94946    -749.770E-03    -905.639E-03    -418.427E-03         1.58040    -867.922E-03         1.85701     120.395E-03    -18.4990E-03    -101.896E-03    -12.9632E-03     31.4622E-03    -18.4990E-03     212.570E-03     98.0402E+06     27.1709E+06    -35.6435E+06    -11.2226E+06     87.5864E+06     13.2039E+06     4.75941E+06         68.8756
            1548     16.7686E-03     79.1215E-03         1.37915    -400.826E-03    -787.015E-03    -246.151E-03         1.22447    -787.015E-03     961.715E-03     375.914E-03    -18.6843E-03    -357.230E-03    -126.152E-03     144.836E-03    -18.6843E-03     671.783E-03     138.859E+06     86.4891E+06    -23.4945E+06      855.39E+03     128.476E+06     72.5221E+06    -9.01506E+06         88.9723
            1549     981.131E-06     79.5812E-03         6.92675     324.571E-03        -6.46859         4.74277         2.50855        -6.46859        -3.43095     38.1280E-03    -18.9689E-03    -19.1592E-03    -19.1143E-03     38.1205E-03    -19.0062E-03     948.401E-06    -13.4204E+06    -15.2113E+06    -182.887E+06    -13.6155E+06    -182.692E+06    -15.2113E+06    -1.59215E+06         22.7703
            1550     1.96279E-03     79.5836E-03         3.17683    -809.580E-03        -1.59934    -795.107E-03         2.41294    -849.930E-03        -2.78433     37.9843E-03    -18.9370E-03    -19.0473E-03    -18.9693E-03     37.9545E-03    -18.9853E-03     2.49837E-03    -16.8026E+06    -23.2627E+06    -166.552E+06    -17.2793E+06    -166.075E+06    -23.2627E+06    -8.10692E+06         22.8011
            1551     2.94398E-03     79.5859E-03         3.66707    -847.459E-03        -2.06182    -915.199E-03         2.52045    -847.459E-03        -4.56362     37.8322E-03    -18.8241E-03    -19.0081E-03    -18.8300E-03     37.7621E-03    -18.9321E-03     3.91727E-03    -16.8812E+06    -26.4132E+06    -161.371E+06    -18.5036E+06    -160.670E+06    -25.4917E+06    -9.90559E+06         22.8457
            1552     3.92592E-03     79.5918E-03         3.71976    -864.366E-03        -2.13568    -910.104E-03         2.49417    -864.366E-03        -4.74692     37.8275E-03    -18.8320E-03    -18.9955E-03    -18.8194E-03     37.7111E-03    -18.8917E-03     5.10887E-03    -16.0671E+06    -26.8274E+06    -162.856E+06    -18.2878E+06    -161.557E+06    -25.9059E+06    -13.2989E+06         22.9043
            1553     4.90752E-03     79.5951E-03         3.84990    -878.156E-03        -2.27606    -960.513E-03         2.53435    -878.156E-03        -5.02498     37.8194E-03    -18.8187E-03    -19.0006E-03    -18.8042E-03     37.6229E-03    -18.8187E-03     6.59192E-03    -16.8844E+06    -31.9327E+06    -152.550E+06    -19.0417E+06    -150.392E+06    -31.9327E+06    -16.8130E+06         22.9801
            1554     5.88917E-03     79.6041E-03         3.60782    -891.550E-03        -2.04669    -956.435E-03         2.51757    -891.550E-03        -4.45949     37.8631E-03    -18.7827E-03    -19.0804E-03    -18.8138E-03     37.5965E-03    -18.7827E-03     7.76938E-03    -15.6132E+06    -33.7538E+06    -147.125E+06    -18.5799E+06    -144.159E+06    -33.7538E+06    -19.3941E+06         23.0787
            1555     6.87016E-03     79.6086E-03         3.31567    -900.876E-03        -1.76804    -960.796E-03         2.50842    -900.876E-03        -3.69099     37.7771E-03    -18.7306E-03    -19.0466E-03    -18.6745E-03     37.4051E-03    -18.7306E-03     9.08607E-03    -13.1230E+06    -37.4336E+06    -141.407E+06    -16.8933E+06    -137.637E+06    -37.4336E+06    -21.5233E+06         23.2064
            1556     7.85279E-03     79.6206E-03         2.86640    -906.698E-03        -1.34284    -939.290E-03         2.46285    -906.698E-03        -2.43370     37.6190E-03    -18.6681E-03    -18.9510E-03    -18.4893E-03     37.1574E-03    -18.6681E-03     10.1612E-03    -9.62048E+06    -38.1789E+06    -129.928E+06    -13.7502E+06    -125.799E+06    -38.1789E+06    -21.5917E+06         23.3725
            1557     8.83370E-03     79.6272E-03         2.52264    -892.284E-03        -1.04910    -912.244E-03         2.40182    -908.318E-03        -1.05017     37.5017E-03    -18.5949E-03    -18.9068E-03    -18.3388E-03     36.9338E-03    -18.5949E-03     11.1842E-03    -6.46442E+06    -38.8422E+06    -117.762E+06    -10.4630E+06    -113.763E+06    -38.8422E+06    -20.4139E+06         23.5956
            1558     9.81730E-03     79.6404E-03         2.35460    -889.533E-03    -922.359E-03    -862.357E-03         2.31063    -905.567E-03     379.006E-03     37.4660E-03    -18.4527E-03    -19.0133E-03    -18.1718E-03     36.6856E-03    -18.5139E-03     13.1265E-03    -4.21379E+06    -37.2038E+06    -94.7845E+06    -7.46808E+06    -91.5303E+06    -37.2038E+06    -16.5671E+06         23.9256
            1559     10.7983E-03     79.6514E-03         2.42198    -897.782E-03        -1.01745    -796.335E-03         2.20087    -897.782E-03         1.58181     37.4099E-03    -18.3085E-03    -19.1015E-03    -18.0154E-03     36.3880E-03    -18.3726E-03     14.9630E-03    -3.80171E+06    -40.9318E+06    -70.1926E+06    -7.12116E+06    -62.2336E+06    -45.5713E+06    -13.2264E+06         24.5091
            1560     11.7820E-03     79.6645E-03         2.55395    -884.734E-03        -1.19905    -714.141E-03         2.06904    -884.734E-03         2.48751     37.6745E-03    -18.0621E-03    -19.6124E-03    -17.7214E-03     35.9065E-03    -18.1851E-03     19.3529E-03     9.08604E+06    -32.9072E+06    -57.9676E+06    -5.22535E+06    -18.5958E+06    -57.9676E+06    -8.82642E+06         25.7685
            1561     12.7635E-03     79.6886E-03         2.60840    -866.436E-03        -1.31154    -626.771E-03         1.92363    -866.436E-03         2.96243     38.6149E-03    -17.9033E-03    -20.7116E-03    -16.7450E-03     34.7684E-03    -18.0234E-03     28.1743E-03     50.2425E+06    -8.04786E+06    -55.7100E+06    -89.2747E+03     42.2839E+06    -55.7100E+06    -7.90584E+06         28.7751
            1562     13.7519E-03     79.7080E-03         2.51188    -843.063E-03        -1.28594    -535.310E-03         1.76125    -843.063E-03         3.01624     42.8767E-03    -18.0011E-03    -24.8756E-03    -16.8095E-03     34.8106E-03    -18.0011E-03     42.7632E-03     76.1002E+06    -3.83388E+06    -51.4217E+06    -7.98328E+06     71.7046E+06    -42.8767E+06     1.17363E+06         35.6276
            1563     14.7288E-03     79.7731E-03         2.25580    -814.030E-03        -1.12014    -441.085E-03         1.57675    -814.030E-03         2.69815     53.9148E-03    -17.9961E-03    -35.9188E-03    -13.1500E-03     31.1460E-03    -17.9961E-03     74.8827E-03     84.1150E+06     333.639E+03    -39.0195E+06    -10.8142E+06     76.1378E+06    -19.8944E+06     5.20222E+06         48.9172
            1564     15.7422E-03     79.8414E-03         1.82589    -698.900E-03    -876.846E-03    -322.368E-03         1.34426    -771.749E-03         2.02101     118.183E-03    -18.2893E-03    -99.8941E-03    -28.9536E-03     47.2429E-03    -18.2893E-03     203.087E-03     109.368E+06     32.2859E+06    -32.3811E+06     1.11031E+06     98.2704E+06     9.89233E+06    -17.2826E+06         68.5847
            1565     16.6385E-03     80.1840E-03         1.26983    -399.878E-03    -681.434E-03    -186.631E-03         1.05658    -681.434E-03         1.08288     376.684E-03    -19.2566E-03    -357.428E-03    -129.726E-03     148.982E-03    -19.2566E-03     676.898E-03     150.474E+06     107.281E+06    -32.8695E+06    -8.31513E+06     139.887E+06     93.3139E+06    -13.7227E+06         88.7781
            1566     981.794E-06     80.6201E-03         8.02039    -814.626E-03        -6.42718         4.64988         2.40544        -6.27672        -5.06966     37.9139E-03    -18.8988E-03    -19.0150E-03    -18.9704E-03     37.9066E-03    -18.9362E-03     1.20304E-03    -20.1936E+06    -22.8431E+06    -180.857E+06    -21.8749E+06    -180.753E+06    -21.2654E+06    -1.29906E+06         22.7607
            1567     1.96272E-03     80.6206E-03         3.49435    -765.651E-03        -1.97578    -763.861E-03         2.32028    -803.502E-03        -2.10586     37.8825E-03    -18.9146E-03    -18.9680E-03    -18.9377E-03     37.8522E-03    -18.9146E-03     2.48607E-03    -18.8278E+06    -24.5678E+06    -155.479E+06    -20.9930E+06    -154.891E+06    -22.9901E+06    -8.03415E+06         22.7924
            1568     2.94435E-03     80.6246E-03         3.65657    -801.817E-03        -2.11387    -852.440E-03         2.39514    -801.817E-03        -4.67913     37.7037E-03    -18.8009E-03    -18.9028E-03    -18.7740E-03     37.6346E-03    -18.8606E-03     3.89862E-03    -19.3182E+06    -29.3159E+06    -154.784E+06    -20.5820E+06    -153.521E+06    -29.3159E+06    -12.7702E+06         22.8369
            1569     3.92619E-03     80.6276E-03         3.50772    -813.362E-03        -1.98528    -840.717E-03         2.36316    -813.362E-03        -4.39050     37.6158E-03    -18.7411E-03    -18.8747E-03    -18.6802E-03     37.5040E-03    -18.8238E-03     4.98682E-03    -16.7187E+06    -26.3786E+06    -154.125E+06    -18.9510E+06    -151.893E+06    -26.3786E+06    -16.7686E+06         22.8947
            1570     4.90770E-03     80.6345E-03         3.69749    -820.699E-03        -2.19048    -864.004E-03         2.37101    -820.699E-03        -4.89882     37.5544E-03    -18.7440E-03    -18.8104E-03    -18.6117E-03     37.3849E-03    -18.7732E-03     6.12095E-03    -11.2835E+06    -23.5857E+06    -146.798E+06    -14.8303E+06    -143.251E+06    -23.5857E+06    -21.3375E+06         22.9701
            1571     5.88981E-03     80.6393E-03         3.36570    -825.878E-03        -1.87478    -842.524E-03         2.33345    -825.878E-03        -4.16640     37.5936E-03    -18.7088E-03    -18.8848E-03    -18.6295E-03     37.3445E-03    -18.7150E-03     7.44396E-03    -6.18464E+06    -24.8206E+06    -142.251E+06    -10.8098E+06    -137.626E+06    -24.8206E+06    -24.4514E+06         23.0685
            1572     6.87173E-03     80.6488E-03         3.09176    -826.738E-03        -1.62384    -828.723E-03         2.29665    -826.738E-03        -3.49290     37.5947E-03    -18.6654E-03    -18.9294E-03    -18.6026E-03     37.2679E-03    -18.6654E-03     8.52945E-03    -2.50040E+06    -26.1673E+06    -136.637E+06    -7.98612E+06    -131.152E+06    -26.1673E+06    -26.4563E+06         23.1956
            1573     7.85299E-03     80.6549E-03         2.58761    -824.251E-03        -1.15663    -795.167E-03         2.22615    -824.251E-03        -2.18025     37.3669E-03    -18.6021E-03    -18.7648E-03    -18.3337E-03     36.9358E-03    -18.6021E-03     9.73541E-03    -830.328E+03    -28.4320E+06    -130.331E+06    -6.73698E+06    -124.424E+06    -28.4320E+06    -26.9890E+06         23.3607
            1574     8.83639E-03     80.6669E-03         2.25841    -775.467E-03    -914.205E-03    -757.954E-03         2.14481    -818.124E-03    -846.129E-03     37.2441E-03    -18.5278E-03    -18.7163E-03    -18.1995E-03     36.7272E-03    -18.5278E-03     10.6886E-03    -1.29348E+06    -29.2833E+06    -118.343E+06    -6.69234E+06    -112.944E+06    -29.2833E+06    -24.5434E+06         23.5819
            1575     9.81707E-03     80.6747E-03         2.10153    -763.569E-03    -809.561E-03    -700.362E-03         2.03701    -808.245E-03     594.678E-03     36.9264E-03    -18.3665E-03    -18.5599E-03    -17.8509E-03     36.2786E-03    -18.4276E-03     11.7794E-03    -836.461E+03    -30.9031E+06    -99.7114E+06    -6.28676E+06    -94.2611E+06    -30.9031E+06    -22.3254E+06         23.9065
            1576     10.8025E-03     80.6889E-03         2.22340    -792.060E-03    -940.595E-03    -631.952E-03         1.91678    -794.080E-03         1.77637     37.0590E-03    -18.2208E-03    -18.8382E-03    -17.9016E-03     36.1836E-03    -18.2820E-03     13.7859E-03     2.10833E+06    -34.5285E+06    -70.6035E+06    -2.94720E+06    -63.1161E+06    -36.9604E+06    -18.0026E+06         24.4760
            1577     11.7818E-03     80.7022E-03         2.40600    -775.736E-03        -1.17545    -552.934E-03         1.78349    -775.736E-03         2.68854     36.2642E-03    -17.6542E-03    -18.6101E-03    -16.9326E-03     34.9930E-03    -18.0604E-03     15.3652E-03     10.3685E+06    -28.2370E+06    -56.4129E+06    -941.417E+03    -21.7386E+06    -51.6014E+06    -15.5840E+06         25.7035
            1578     12.7719E-03     80.7176E-03         2.48977    -753.227E-03        -1.32333    -474.538E-03         1.64099    -753.227E-03         3.15819     37.7845E-03    -17.4688E-03    -20.3158E-03    -16.7965E-03     34.6715E-03    -17.8750E-03     24.3687E-03     46.4599E+06    -18.6485E+06    -55.4517E+06    -9.55484E+06     37.3663E+06    -55.4517E+06    -7.14264E+06         28.6519
            1579     13.7473E-03     80.7538E-03         2.41780    -726.874E-03        -1.32534    -398.504E-03         1.49096    -726.874E-03         3.22253     39.1236E-03    -16.7055E-03    -22.4182E-03    -15.0030E-03     32.7220E-03    -17.7190E-03     35.7967E-03     75.6039E+06    -15.9937E+06    -56.7135E+06    -5.59081E+06     65.2010E+06    -56.7135E+06    -2.51067E+06         35.4372
            1580     14.7457E-03     80.7910E-03         2.16257    -695.839E-03        -1.15896    -319.307E-03         1.32292    -695.839E-03         2.88002     49.6098E-03    -16.8372E-03    -32.7726E-03    -16.1981E-03     34.0488E-03    -17.8507E-03     62.5308E-03     102.627E+06     25.9625E+06    -32.5646E+06     13.9787E+06     89.3595E+06    -7.31318E+06    -13.6029E+06         48.6725
            1581     15.7155E-03     80.8784E-03         1.72904    -628.413E-03    -852.830E-03    -227.315E-03         1.12483    -649.726E-03         2.16630     138.210E-03    -18.2259E-03    -119.984E-03    -28.0534E-03     46.2792E-03    -18.2259E-03     238.995E-03     119.324E+06     52.5574E+06    -31.7045E+06    -7.04829E+06     103.094E+06     44.1308E+06     3.88882E+06         68.5943
            1582     16.6976E-03     81.3341E-03         1.17817    -396.855E-03    -576.513E-03    -159.374E-03     917.820E-03    -553.646E-03         1.13172     391.845E-03    -18.7370E-03    -373.108E-03    -125.699E-03     144.436E-03    -18.7370E-03     705.586E-03     155.364E+06     109.260E+06    -19.9980E+06    -4.05218E+06     139.418E+06     109.260E+06     21.1730E+06         89.2363
            1583     981.232E-06     81.6568E-03         9.10944        -1.88031        -6.45676         4.54434         2.18799        -5.95996        -6.24158     37.7960E-03    -18.7587E-03    -19.0373E-03    -19.0285E-03     37.7872E-03    -18.7587E-03     1.32448E-03    -17.5417E+06    -23.9419E+06    -173.518E+06    -19.5631E+06    -173.075E+06    -22.3642E+06    -6.54873E+06         22.7540
            1584     1.96316E-03     81.6595E-03         3.90630    -703.262E-03        -2.45572    -681.309E-03         2.13190    -703.262E-03        -1.58509     37.7599E-03    -18.8615E-03    -18.8984E-03    -18.8726E-03     37.7340E-03    -18.8615E-03     2.33508E-03    -13.5068E+06    -20.7236E+06    -145.244E+06    -16.4509E+06    -144.434E+06    -18.5892E+06    -9.65515E+06         22.7867
            1585     2.94462E-03     81.6612E-03         3.57760    -704.017E-03        -2.14306    -743.640E-03         2.17818    -704.017E-03        -4.72875     37.7824E-03    -18.8635E-03    -18.9189E-03    -18.8630E-03     37.7265E-03    -18.8635E-03     3.49328E-03    -13.6526E+06    -18.4222E+06    -144.780E+06    -15.9306E+06    -143.059E+06    -17.8654E+06    -14.6089E+06         22.8317
            1586     3.92588E-03     81.6664E-03         3.26829    -712.279E-03        -1.85296    -729.550E-03         2.14489    -712.279E-03        -4.09397     37.6061E-03    -18.7652E-03    -18.8409E-03    -18.6941E-03     37.5058E-03    -18.8117E-03     4.70522E-03    -12.3391E+06    -22.9932E+06    -144.550E+06    -15.7540E+06    -141.135E+06    -22.9932E+06    -20.6177E+06         22.8895
            1587     4.90795E-03     81.6706E-03         3.49896    -715.561E-03        -2.09614    -733.311E-03         2.13614    -715.561E-03        -4.76636     37.4784E-03    -18.6798E-03    -18.7986E-03    -18.5924E-03     37.3249E-03    -18.7325E-03     5.83830E-03    -10.2026E+06    -27.7980E+06    -139.055E+06    -15.7732E+06    -133.485E+06    -27.7980E+06    -25.8275E+06         22.9648
            1588     5.88956E-03     81.6778E-03         3.09866    -715.546E-03        -1.71561    -703.812E-03         2.08686    -715.546E-03        -3.91504     37.3651E-03    -18.5971E-03    -18.7679E-03    -18.4787E-03     37.1461E-03    -18.6674E-03     6.95728E-03    -8.24639E+06    -30.4159E+06    -137.531E+06    -15.4255E+06    -130.352E+06    -30.4159E+06    -29.2657E+06         23.0630
            1589     6.87143E-03     81.6848E-03         2.83612    -711.395E-03        -1.48530    -680.406E-03         2.03123    -711.395E-03        -3.31517     37.2398E-03    -18.5316E-03    -18.7082E-03    -18.3612E-03     36.9568E-03    -18.5957E-03     7.91279E-03    -6.49311E+06    -33.0344E+06    -133.748E+06    -14.6862E+06    -125.555E+06    -33.0344E+06    -30.8053E+06         23.1902
            1590     7.85408E-03     81.6933E-03         2.28646    -704.034E-03    -977.840E-03    -639.325E-03         1.94794    -704.034E-03        -1.97020     37.2409E-03    -18.5348E-03    -18.7061E-03    -18.3514E-03     36.8862E-03    -18.5348E-03     8.83420E-03    -5.95666E+06    -34.7040E+06    -129.795E+06    -14.2654E+06    -121.486E+06    -34.7040E+06    -30.5066E+06         23.3549
            1591     8.83523E-03     81.7020E-03         1.96713    -636.202E-03    -769.978E-03    -595.401E-03         1.84964    -693.290E-03    -677.785E-03     37.0529E-03    -18.4638E-03    -18.5892E-03    -18.1613E-03     36.6250E-03    -18.4638E-03     9.69264E-03    -2.73306E+06    -35.8680E+06    -120.153E+06    -11.2265E+06    -111.660E+06    -35.8680E+06    -29.7055E+06         23.5744
            1592     9.81904E-03     81.7133E-03         1.82850    -619.947E-03    -686.345E-03    -531.959E-03         1.73322    -679.054E-03     767.090E-03     37.0532E-03    -18.3806E-03    -18.6726E-03    -18.1630E-03     36.5437E-03    -18.3806E-03     10.5951E-03     2.77824E+06    -36.1146E+06    -101.607E+06    -6.10863E+06    -92.7202E+06    -36.1146E+06    -28.6714E+06         23.8940
            1593     10.7987E-03     81.7231E-03         2.01472    -658.846E-03    -869.912E-03    -460.069E-03         1.60690    -660.865E-03         1.92701     36.5901E-03    -17.9503E-03    -18.6398E-03    -17.5982E-03     35.8397E-03    -18.2415E-03     12.6320E-03     9.40571E+06    -42.1739E+06    -76.3530E+06    -1.12476E+06    -65.8225E+06    -42.1739E+06    -27.2739E+06         24.4514
            1594     11.7847E-03     81.7408E-03         2.25155    -639.157E-03        -1.16278    -384.961E-03         1.47373    -639.157E-03         2.84356     36.5379E-03    -17.4805E-03    -19.0574E-03    -17.5850E-03     35.6428E-03    -18.0579E-03     13.6150E-03     10.3642E+06    -33.3383E+06    -60.1270E+06    -913.733E+03    -28.4111E+06    -53.7761E+06    -17.1791E+06         25.6523
            1595     12.7621E-03     81.7492E-03         2.36854    -614.155E-03        -1.34079    -314.564E-03         1.34232    -614.155E-03         3.30652     37.4781E-03    -17.3550E-03    -20.1231E-03    -16.4719E-03     34.3215E-03    -17.8496E-03     23.5045E-03     41.0138E+06    -10.5431E+06    -61.2632E+06     2.59809E+06     27.8726E+06    -61.2632E+06    -8.58091E+06         28.5473
            1596     13.7524E-03     81.7945E-03         2.31719    -586.375E-03        -1.36170    -253.850E-03         1.20934    -586.375E-03         3.36820     38.3257E-03    -16.5889E-03    -21.7369E-03    -15.6788E-03     33.4896E-03    -17.8108E-03     32.2052E-03     87.7166E+06     6.13194E+06    -52.0278E+06     3.86588E+06     75.1527E+06    -37.1979E+06    -14.5472E+06         35.2719
            1597     14.7336E-03     81.8087E-03         2.07661    -554.864E-03        -1.19861    -202.783E-03         1.08078    -554.864E-03         3.00798     55.2228E-03    -17.0244E-03    -38.1984E-03    -18.2511E-03     36.2890E-03    -18.0379E-03     69.5569E-03     89.4781E+06     8.94101E+06     -44.235E+06    -19.6265E+06     77.9642E+06    -4.15365E+06    -251.509E+03         48.4886
            1598     15.7078E-03     81.9562E-03         1.65179    -509.956E-03    -872.843E-03    -165.265E-03     944.213E-03    -509.956E-03         2.26068     123.968E-03    -17.8517E-03    -106.117E-03    -11.1200E-03     28.9717E-03    -17.8517E-03     220.950E-03     109.811E+06     14.3532E+06    -35.7698E+06    -9.92056E+06     84.0088E+06     14.3062E+06     12.1680E+06         68.6884
            1599     16.7920E-03     82.2629E-03         1.13664    -364.336E-03    -506.895E-03    -166.936E-03     845.394E-03    -413.049E-03         1.16146     386.789E-03    -18.2589E-03    -368.530E-03    -137.358E-03     155.616E-03    -18.2589E-03     682.516E-03     150.058E+06     81.8752E+06    -23.2028E+06    -219.306E+03     127.075E+06     81.8752E+06    -9.27291E+06         89.6232
            1600     981.723E-06     82.6954E-03         9.75013        -2.56812        -6.40676         4.47072         1.88029        -5.57577        -6.95071     37.7941E-03    -18.6920E-03    -19.1021E-03    -18.9803E-03     37.7850E-03    -18.8047E-03     1.34642E-03    -10.3986E+06    -15.6884E+06    -158.555E+06    -12.2873E+06    -157.812E+06    -14.5428E+06    -9.74633E+06         22.7523
            1601     1.96292E-03     82.6963E-03         4.12291    -552.502E-03        -2.81769    -550.745E-03         1.85596    -552.502E-03        -1.24465     37.8234E-03    -18.8557E-03    -18.9676E-03    -18.9441E-03     37.7998E-03    -18.8557E-03     2.26216E-03    -13.3890E+06    -20.8012E+06    -137.629E+06    -16.0124E+06    -136.390E+06    -19.4168E+06    -10.6890E+06         22.7855
            1602     2.94425E-03     82.7002E-03         3.41860    -556.710E-03        -2.13042    -587.508E-03         1.87568    -556.710E-03        -4.72205     37.7413E-03    -18.8388E-03    -18.9024E-03    -18.8325E-03     37.6909E-03    -18.8584E-03     3.31407E-03    -12.9043E+06    -20.2436E+06    -133.650E+06    -15.9712E+06    -131.139E+06    -19.6869E+06    -16.6825E+06         22.8311
            1603     3.92601E-03     82.7030E-03         3.00348    -563.276E-03        -1.73095    -579.981E-03         1.85251    -563.276E-03        -3.86778     37.6263E-03    -18.7544E-03    -18.8719E-03    -18.7388E-03     37.5362E-03    -18.7974E-03     4.47299E-03    -10.7368E+06    -26.0525E+06    -133.722E+06    -15.2362E+06    -129.223E+06    -26.0525E+06    -22.6188E+06         22.8897
            1604     4.90766E-03     82.7087E-03         3.26293    -565.332E-03        -2.00341    -573.563E-03         1.83308    -565.332E-03        -4.63967     37.5215E-03    -18.6641E-03    -18.8574E-03    -18.6470E-03     37.3735E-03    -18.7265E-03     5.72116E-03    -9.82011E+06    -31.5728E+06    -129.369E+06    -16.5791E+06    -122.610E+06    -31.5728E+06     -27.456E+06         22.9656
            1605     5.88924E-03     82.7148E-03         2.82222    -563.857E-03        -1.58702    -548.629E-03         1.78383    -563.857E-03        -3.72770     37.3732E-03    -18.5805E-03    -18.7927E-03    -18.4970E-03     37.1805E-03    -18.6835E-03     6.55228E-03    -9.77121E+06    -32.2748E+06    -130.444E+06    -18.5037E+06    -121.711E+06    -32.2748E+06    -31.1854E+06         23.0641
            1606     6.87182E-03     82.7215E-03         2.56639    -558.730E-03        -1.36742    -521.419E-03         1.72038    -558.730E-03        -3.18073     37.2997E-03    -18.5489E-03    -18.7508E-03    -18.4339E-03     37.0469E-03    -18.6130E-03     7.45290E-03    -8.98225E+06    -37.0490E+06    -130.349E+06    -19.3724E+06    -119.959E+06    -37.0490E+06    -33.9182E+06         23.1913
            1607     7.85314E-03     82.7306E-03         1.97950    -550.433E-03    -827.524E-03    -481.825E-03         1.63380    -550.433E-03        -1.82929     37.2222E-03    -18.4972E-03    -18.7250E-03    -18.3801E-03     36.9258E-03    -18.5457E-03     8.10516E-03    -5.96061E+06    -40.3122E+06    -127.036E+06    -17.6527E+06    -115.344E+06    -40.3122E+06    -35.6723E+06         23.3554
            1608     8.83577E-03     82.7390E-03         1.66354    -481.707E-03    -620.333E-03    -431.337E-03         1.53154    -538.701E-03    -576.610E-03     37.0894E-03    -18.4203E-03    -18.6690E-03    -18.2479E-03     36.7166E-03    -18.4688E-03     9.01633E-03    -1.51785E+06    -44.0185E+06    -121.327E+06    -14.6855E+06    -108.159E+06    -44.0185E+06    -37.3701E+06         23.5729
            1609     9.81690E-03     82.7491E-03         1.54500    -466.203E-03    -555.284E-03    -365.909E-03         1.41262    -523.197E-03     861.114E-03     36.9891E-03    -18.2375E-03    -18.7516E-03    -18.0919E-03     36.4744E-03    -18.3825E-03     10.6301E-03     4.81401E+06    -44.7800E+06    -104.890E+06    -10.1444E+06    -89.9313E+06    -44.7800E+06    -37.0210E+06         23.8884
            1610     10.8005E-03     82.7622E-03         1.79610    -503.867E-03    -801.420E-03    -292.787E-03         1.28747    -503.867E-03         1.99732     36.5626E-03    -17.8161E-03    -18.7466E-03    -17.7009E-03     35.9532E-03    -18.2523E-03     11.3684E-03     6.34334E+06    -51.5697E+06    -83.7585E+06    -8.75051E+06    -68.6647E+06    -51.5697E+06    -32.9295E+06         24.4365
            1611     11.7832E-03     82.7708E-03         2.08638    -481.263E-03        -1.14711    -221.952E-03         1.16122    -481.263E-03         2.90765     36.4313E-03    -17.2603E-03    -19.1710E-03    -17.2901E-03     35.3590E-03    -18.0689E-03     14.7042E-03     11.5568E+06    -48.8688E+06    -68.3558E+06    -4.02522E+06    -39.5006E+06    -62.1421E+06    -25.8274E+06         25.6157
            1612     12.7665E-03     82.7968E-03         2.22954    -456.117E-03        -1.34924    -162.150E-03         1.04245    -456.117E-03         3.36084     36.8855E-03    -17.1627E-03    -19.7228E-03    -16.5889E-03     34.4774E-03    -17.8886E-03     21.3904E-03     50.5338E+06    -21.0534E+06    -58.6550E+06     3.36422E+06     26.1162E+06    -58.6550E+06    -20.3726E+06         28.4727
            1613     13.7541E-03     82.8077E-03         2.20047    -428.988E-03        -1.38058    -118.583E-03     938.465E-03    -428.988E-03         3.41644     40.7222E-03    -17.6449E-03    -23.0773E-03    -17.3030E-03     35.1563E-03    -17.8533E-03     34.1926E-03     74.4074E+06    -5.63385E+06    -66.9436E+06    -9.04764E+06     62.9913E+06    -52.1137E+06     694.477E+03         35.1430
            1614     14.7283E-03     82.8793E-03         1.98141    -399.527E-03        -1.22607    -98.9548E-03     854.289E-03    -399.527E-03         3.05852     51.2818E-03    -17.8857E-03    -33.3961E-03    -15.0815E-03     32.9672E-03    -17.8857E-03     65.7739E-03     76.4145E+06    -12.1917E+06    -57.6228E+06    -12.9485E+06     62.3414E+06    -42.7928E+06     12.5670E+06         48.3988
            1615     15.7429E-03     82.9389E-03         1.58444    -358.565E-03    -895.577E-03    -102.590E-03     791.452E-03    -358.565E-03         2.30456     116.689E-03    -18.4180E-03    -98.2709E-03    -30.3479E-03     48.7659E-03    -18.4180E-03     196.537E-03     116.963E+06     19.9719E+06    -23.9099E+06     1.78070E+06     99.7219E+06     11.5222E+06    -15.6621E+06         68.4700
            1616     16.6373E-03     83.3004E-03         1.14659    -268.935E-03    -493.185E-03    -163.347E-03     816.753E-03    -268.935E-03         1.23699     388.908E-03    -19.5566E-03    -369.352E-03    -138.934E-03     158.491E-03    -19.5566E-03     692.359E-03     159.859E+06     106.018E+06    -27.4647E+06    -14.2745E+06     146.668E+06     106.018E+06    -14.9206E+06         89.6070
            1617     981.566E-06     83.7325E-03         9.79931        -2.83174        -6.18899         4.44601         1.48964        -5.15707        -7.12468     37.9235E-03    -18.8031E-03    -19.1203E-03    -18.8646E-03     37.9161E-03    -19.0515E-03     1.24848E-03    -16.8151E+06    -20.8403E+06    -150.215E+06    -21.3581E+06    -149.697E+06    -16.8151E+06    -5.89820E+06         22.7563
            1618     1.96277E-03     83.7353E-03         4.06137    -359.067E-03        -2.94395    -378.008E-03         1.49543    -359.067E-03        -1.08948     37.7635E-03    -18.7805E-03    -18.9830E-03    -18.8383E-03     37.7412E-03    -18.9029E-03     2.16644E-03    -14.8756E+06    -23.0342E+06    -122.659E+06    -19.7814E+06    -121.002E+06    -19.7852E+06    -11.1476E+06         22.7893
            1619     2.94435E-03     83.7370E-03         3.17059    -367.149E-03        -2.06286    -390.658E-03         1.49839    -367.149E-03        -4.64901     37.6752E-03    -18.7797E-03    -18.8955E-03    -18.7916E-03     37.6256E-03    -18.8339E-03     3.30080E-03    -14.6957E+06    -26.4542E+06    -121.914E+06    -18.7999E+06    -117.809E+06    -26.4542E+06    -20.2237E+06         22.8353
            1620     3.92598E-03     83.7414E-03         2.72070    -373.728E-03        -1.62519    -401.287E-03         1.49679    -373.728E-03        -3.72638     37.7429E-03    -18.7996E-03    -18.9434E-03    -18.8348E-03     37.6539E-03    -18.8191E-03     4.44977E-03    -11.1411E+06    -25.2552E+06    -123.881E+06    -17.4664E+06    -117.555E+06    -25.2552E+06    -25.5634E+06         22.8946
            1621     4.90718E-03     83.7460E-03         3.01136    -377.940E-03        -1.93193    -395.580E-03         1.47501    -377.940E-03        -4.53531     37.6736E-03    -18.7585E-03    -18.9151E-03    -18.7448E-03     37.5422E-03    -18.7974E-03     5.41803E-03    -7.53186E+06    -24.6389E+06    -120.914E+06    -15.8416E+06    -112.604E+06    -24.6389E+06    -29.3297E+06         22.9713
            1622     5.88949E-03     83.7522E-03         2.55707    -378.976E-03        -1.50341    -384.502E-03         1.43816    -378.976E-03        -3.61220     37.7027E-03    -18.7390E-03    -18.9637E-03    -18.7517E-03     37.5295E-03    -18.7779E-03     6.22538E-03    -3.75444E+06    -24.2109E+06    -122.350E+06    -14.4102E+06    -111.694E+06    -24.2109E+06    -33.6186E+06         23.0703
            1623     6.87017E-03     83.7592E-03         2.30876    -377.096E-03        -1.29060    -363.216E-03         1.38137    -377.096E-03        -3.10471     37.6482E-03    -18.7121E-03    -18.9361E-03    -18.6815E-03     37.4321E-03    -18.7507E-03     6.95758E-03     842.253E+03    -25.0065E+06    -123.706E+06    -12.0091E+06    -110.855E+06    -25.0065E+06    -37.7246E+06         23.1972
            1624     7.85249E-03     83.7676E-03         1.69717    -371.957E-03    -722.971E-03    -329.231E-03         1.30342    -371.957E-03        -1.77129     37.4103E-03    -18.6015E-03    -18.8088E-03    -18.4576E-03     37.1461E-03    -18.6885E-03     7.65673E-03     4.20328E+06    -29.5411E+06    -123.429E+06    -10.0824E+06    -109.144E+06    -29.5411E+06    -40.1265E+06         23.3602
            1625     8.83428E-03     83.7757E-03         1.36700    -319.364E-03    -479.638E-03    -278.003E-03         1.20897    -362.964E-03    -554.420E-03     37.2732E-03    -18.4735E-03    -18.7997E-03    -18.3403E-03     36.9481E-03    -18.6079E-03     8.44551E-03     5.89829E+06    -34.1439E+06    -117.625E+06    -10.1759E+06    -101.551E+06    -34.1439E+06    -41.4058E+06         23.5761
            1626     9.81698E-03     83.7868E-03         1.26174    -306.040E-03    -419.096E-03    -213.033E-03         1.09927    -349.641E-03     854.446E-03     36.9907E-03    -18.2785E-03    -18.7122E-03    -18.0623E-03     36.5718E-03    -18.5095E-03     9.50685E-03     5.89924E+06    -39.7226E+06    -107.005E+06    -12.6776E+06    -88.4284E+06    -39.7226E+06    -41.5460E+06         23.8891
            1627     10.7995E-03     83.7964E-03         1.57123    -332.283E-03    -732.888E-03    -143.664E-03     982.005E-03    -332.283E-03         1.96483     36.9884E-03    -18.2506E-03    -18.7378E-03    -18.1141E-03     36.5098E-03    -18.3957E-03     10.2281E-03     6.93402E+06    -46.3738E+06    -89.0237E+06    -11.6074E+06    -70.4823E+06    -46.3738E+06    -37.5357E+06         24.4307
            1628     11.7800E-03     83.8116E-03         1.90295    -311.893E-03        -1.11510    -80.8959E-03     868.744E-03    -311.893E-03         2.85464     36.2454E-03    -17.6985E-03    -18.5469E-03    -17.3388E-03     35.5547E-03    -18.2159E-03     11.1710E-03     13.9418E+06    -52.1127E+06    -74.4417E+06    -10.7358E+06    -41.6626E+06    -60.2142E+06    -35.0188E+06         25.5927
            1629     12.7689E-03     83.8216E-03         2.06491    -289.293E-03        -1.32962    -32.7857E-03     768.079E-03    -289.293E-03         3.29308     38.0311E-03    -17.5342E-03    -20.4969E-03    -18.1447E-03     36.1963E-03    -18.0516E-03     18.6484E-03     33.4296E+06    -40.4041E+06    -72.3465E+06    -19.4142E+06     12.4397E+06    -72.3465E+06    -20.8311E+06         28.4123
            1630     13.7410E-03     83.8615E-03         2.05666    -265.441E-03        -1.36876    -6.68892E-03     694.581E-03    -265.441E-03         3.34964     39.6291E-03    -17.5848E-03    -22.0443E-03    -17.4162E-03     35.3546E-03    -17.9384E-03     28.8701E-03     54.2182E+06    -24.1046E+06    -86.9871E+06    -10.5874E+06     40.7010E+06    -86.9871E+06    -4.89071E+06         35.0309
            1631     14.7398E-03     83.8910E-03         1.85568    -240.288E-03        -1.20918    -6.99414E-03     653.498E-03    -240.288E-03         2.99025     50.0764E-03    -17.9133E-03    -32.1630E-03    -19.7339E-03     38.0009E-03    -18.2670E-03     56.0042E-03     94.2392E+06     17.2712E+06    -50.6056E+06     13.7504E+06     77.3276E+06    -30.1731E+06    -12.8311E+06         48.2391
            1632     15.6990E-03     83.9905E-03         1.49238    -204.151E-03    -869.898E-03    -40.7697E-03     663.249E-03    -204.151E-03         2.24520     139.101E-03    -18.9994E-03    -120.101E-03    -35.9544E-03     54.9538E-03    -18.9994E-03     233.967E-03     121.560E+06     40.1234E+06    -20.8148E+06    -1.43689E+06     110.585E+06     31.7207E+06     2.43890E+06         68.5275
            1633     16.6635E-03     84.4395E-03         1.10924    -129.698E-03    -498.298E-03    -169.941E-03     780.884E-03    -129.698E-03         1.18433     399.468E-03    -19.5317E-03    -379.936E-03    -124.582E-03     144.114E-03    -19.5317E-03     725.253E-03     158.590E+06     101.004E+06    -14.5153E+06    -4.63101E+06     148.706E+06     101.004E+06     23.9097E+06         90.1859
            1634     980.786E-06     84.7714E-03         9.22004        -2.71338        -5.72654         4.40231         1.02590        -4.64809        -6.79606     38.1549E-03    -18.8744E-03    -19.2805E-03    -19.0424E-03     38.1480E-03    -19.1057E-03     1.13641E-03    -13.8965E+06    -19.7008E+06    -138.405E+06    -17.5956E+06    -137.585E+06    -16.8212E+06    -5.89801E+06         22.7643
            1635     1.96274E-03     84.7723E-03         3.72513    -132.245E-03        -2.81946    -171.057E-03         1.07673    -132.245E-03        -1.11043     37.7409E-03    -18.7547E-03    -18.9862E-03    -18.7341E-03     37.7203E-03    -18.9862E-03     2.10010E-03    -7.54608E+06    -14.9940E+06    -108.061E+06    -12.2633E+06    -105.765E+06    -12.5727E+06    -14.3615E+06         22.7968
            1636     2.94442E-03     84.7755E-03         2.86264    -145.822E-03        -1.96409    -172.925E-03         1.07148    -145.822E-03        -4.52113     37.8394E-03    -18.8562E-03    -18.9833E-03    -18.8883E-03     37.7926E-03    -18.9043E-03     3.20108E-03    -8.32834E+06    -15.2058E+06    -107.590E+06    -12.5657E+06    -103.353E+06    -15.2058E+06    -19.8131E+06         22.8429
            1637     3.92547E-03     84.7788E-03         2.44372    -155.584E-03        -1.55558    -204.553E-03         1.09270    -155.584E-03        -3.66983     37.9057E-03    -18.8889E-03    -19.0168E-03    -18.9357E-03     37.8246E-03    -18.8889E-03     4.26250E-03    -9.30678E+06    -19.7879E+06    -112.839E+06    -16.5420E+06    -105.604E+06    -19.7879E+06    -26.1105E+06         22.9023
            1638     4.90733E-03     84.7843E-03         2.76879    -165.068E-03        -1.89091    -209.569E-03         1.08744    -165.068E-03        -4.44687     37.9351E-03    -18.8603E-03    -19.0748E-03    -18.9551E-03     37.8154E-03    -18.8603E-03     5.18792E-03    -7.26126E+06    -26.1106E+06    -112.632E+06    -17.9906E+06    -101.903E+06    -26.1106E+06    -31.6460E+06         22.9788
            1639     5.88793E-03     84.7897E-03         2.33258    -172.265E-03        -1.47913    -220.555E-03         1.07401    -172.265E-03        -3.57110     37.8923E-03    -18.7982E-03    -19.0942E-03    -18.8908E-03     37.7205E-03    -18.8297E-03     6.21544E-03    -4.46822E+06    -32.0040E+06    -114.093E+06    -18.7499E+06    -99.8113E+06    -32.0040E+06    -36.6549E+06         23.0772
            1640     6.86991E-03     84.7980E-03         2.08480    -177.540E-03        -1.26485    -214.800E-03         1.03475    -177.540E-03        -3.07753     37.7611E-03    -18.7337E-03    -19.0274E-03    -18.7400E-03     37.5438E-03    -18.8038E-03     6.99702E-03    -1.63592E+06    -34.7247E+06    -118.311E+06    -19.0798E+06    -100.867E+06    -34.7247E+06    -41.2695E+06         23.2033
            1641     7.85142E-03     84.8037E-03         1.47296    -179.398E-03    -681.440E-03    -190.703E-03     982.227E-03    -179.398E-03        -1.79224     37.6701E-03    -18.7114E-03    -18.9587E-03    -18.6463E-03     37.4035E-03    -18.7572E-03     7.72255E-03     769.588E+03    -38.7366E+06    -121.468E+06    -18.2483E+06    -102.450E+06    -38.7366E+06    -43.9073E+06         23.3653
            1642     8.83304E-03     84.8148E-03         1.10418    -159.733E-03    -363.641E-03    -146.631E-03     904.236E-03    -176.804E-03    -611.869E-03     37.5175E-03    -18.5938E-03    -18.9237E-03    -18.5121E-03     37.1991E-03    -18.6870E-03     8.41592E-03     3.56287E+06    -43.1214E+06    -115.418E+06    -16.8281E+06    -95.0273E+06    -43.1214E+06    -44.4853E+06         23.5803
            1643     9.81490E-03     84.8217E-03     987.858E-03    -152.216E-03    -279.035E-03    -87.7399E-03     813.634E-03    -169.288E-03     749.741E-03     37.5064E-03    -18.5311E-03    -18.9753E-03    -18.5007E-03     37.1178E-03    -18.6171E-03     9.27703E-03     6.99617E+06    -46.3788E+06    -106.270E+06    -14.4642E+06    -84.8092E+06    -46.3788E+06    -44.2497E+06         23.8912
            1644     10.7960E-03     84.8362E-03         1.34049    -157.338E-03    -653.519E-03    -26.4045E-03     713.375E-03    -157.338E-03         1.82211     37.2696E-03    -18.5111E-03    -18.7585E-03    -18.2773E-03     36.7884E-03    -18.5111E-03     10.3191E-03     10.7898E+06    -55.3509E+06    -94.4739E+06    -13.3088E+06    -70.3753E+06    -55.3509E+06    -43.7740E+06         24.4272
            1645     11.7803E-03     84.8455E-03         1.69662    -142.368E-03        -1.05589     23.7545E-03     616.975E-03    -142.368E-03         2.68201     37.8028E-03    -18.3978E-03    -19.4050E-03    -18.7967E-03     37.1945E-03    -18.3978E-03     11.2632E-03     7.68662E+06    -58.6826E+06    -80.6025E+06    -16.5450E+06    -46.0691E+06    -68.9844E+06    -34.8840E+06         25.5715
            1646     12.7552E-03     84.8624E-03         1.87133    -125.336E-03        -1.27193     59.5273E-03     539.877E-03    -125.336E-03         3.10335     39.3171E-03    -18.2690E-03    -21.0481E-03    -18.5967E-03     36.8657E-03    -18.2690E-03     21.4585E-03     20.4355E+06    -39.3737E+06    -85.2780E+06    -14.0971E+06    -4.84108E+06    -85.2780E+06    -24.1328E+06         28.3467
            1647     13.7448E-03     84.8978E-03         1.87673    -107.439E-03        -1.31073     71.0936E-03     494.908E-03    -107.439E-03         3.15769     41.1183E-03    -17.9440E-03    -23.1743E-03    -19.0660E-03     37.3636E-03    -18.2976E-03     29.6804E-03     56.2259E+06    -25.2123E+06    -78.8586E+06    -10.6218E+06     41.6354E+06    -78.8586E+06    -24.9180E+06         34.9068
            1648     14.7165E-03     84.9234E-03         1.69592    -88.7118E-03        -1.14392     50.6711E-03     501.327E-03    -88.7118E-03         2.80204     59.0894E-03    -18.4285E-03    -40.6608E-03    -22.7542E-03     41.5364E-03    -18.7822E-03     69.5384E-03     78.5335E+06    -10.8949E+06    -53.0045E+06    -25.9961E+06     69.5690E+06    -28.9387E+06    -10.7009E+06         48.0813
            1649     15.6926E-03     85.0633E-03         1.36612    -62.6033E-03    -815.696E-03    -28.1083E-03     578.537E-03    -62.6033E-03         2.08067     131.794E-03    -18.6733E-03    -113.121E-03    -13.4090E-03     32.0823E-03    -18.6733E-03     233.550E-03     97.4370E+06    -4.05079E+06    -39.9628E+06    -18.0145E+06     84.7297E+06    -13.2918E+06     8.05809E+06         68.7601
            1650     16.7676E-03     85.4076E-03         1.04490    -7.59963E-03    -492.406E-03    -207.007E-03     759.502E-03    -7.59963E-03         1.05456     395.419E-03    -18.6526E-03    -376.766E-03    -129.435E-03     148.088E-03    -18.6526E-03     708.232E-03     144.812E+06     69.7983E+06    -23.8173E+06    -2.89113E+06     133.127E+06     60.5572E+06    -395.667E+03         90.7915
            1651     981.308E-06     85.8090E-03         8.14599        -2.25970        -5.09768         4.37003     526.731E-03        -4.10815        -6.03541     38.2016E-03    -18.8675E-03    -19.3342E-03    -19.0759E-03     38.1969E-03    -19.1210E-03     662.868E-06     4.73273E+06    -2.24824E+06    -116.598E+06     2.67433E+06    -115.600E+06    -1.18799E+06    -8.25143E+06         22.7723
            1652     1.96264E-03     85.8108E-03         3.14964     115.362E-03        -2.48367     51.5126E-03     614.459E-03     115.362E-03        -1.29143     37.9683E-03    -18.9035E-03    -19.0648E-03    -18.9318E-03     37.9444E-03    -19.0126E-03     2.15482E-03    -1.48064E+06    -7.65151E+06    -98.6439E+06    -3.73322E+06    -96.3913E+06    -7.65151E+06    -14.3836E+06         22.8050
            1653     2.94385E-03     85.8132E-03         2.55078     93.8418E-03        -1.88563     56.3072E-03     608.849E-03     93.8418E-03        -4.34214     38.0242E-03    -18.9665E-03    -19.0576E-03    -18.9946E-03     37.9746E-03    -18.9800E-03     3.33220E-03    -4.11255E+06    -9.18684E+06    -94.0461E+06    -7.87053E+06    -90.2881E+06    -9.18684E+06    -17.7317E+06         22.8506
            1654     3.92540E-03     85.8177E-03         2.22353     78.4583E-03        -1.55449    -1.96067E-03     671.001E-03     78.4583E-03        -3.67250     38.1180E-03    -18.9741E-03    -19.1439E-03    -19.0658E-03     38.0398E-03    -18.9741E-03     4.19423E-03    -1.34161E+06    -12.6904E+06    -98.1725E+06    -8.30865E+06    -91.2054E+06    -12.6904E+06    -24.7297E+06         22.9093
            1655     4.90621E-03     85.8217E-03         2.55144     60.8608E-03        -1.88783    -25.7747E-03     689.381E-03     60.8608E-03        -4.36287     38.0805E-03    -18.9141E-03    -19.1663E-03    -19.0102E-03     37.9487E-03    -18.9385E-03     5.42620E-03     246.548E+03    -21.5089E+06    -101.214E+06    -10.8250E+06    -90.1424E+06    -21.5089E+06    -31.4350E+06         22.9846
            1656     5.88784E-03     85.8291E-03         2.16207     44.2253E-03        -1.51475    -66.7673E-03     714.094E-03     44.2253E-03        -3.58267     37.9408E-03    -18.8341E-03    -19.1067E-03    -18.8689E-03     37.7589E-03    -18.8900E-03     6.42084E-03     1.98114E+06    -28.8146E+06    -102.777E+06    -13.5363E+06    -87.2596E+06    -28.8146E+06    -37.1022E+06         23.0818
            1657     6.86946E-03     85.8337E-03         1.91369     28.5478E-03        -1.28677    -81.0498E-03     707.974E-03     28.5478E-03        -3.08365     37.9712E-03    -18.8311E-03    -19.1401E-03    -18.8675E-03     37.7302E-03    -18.8627E-03     7.36777E-03     2.69320E+06    -32.4618E+06    -109.350E+06    -16.4587E+06    -90.1980E+06    -32.4618E+06    -42.1240E+06         23.2068
            1658     7.85048E-03     85.8443E-03         1.32047     16.2485E-03    -713.204E-03    -78.9227E-03     686.185E-03     16.2485E-03        -1.87265     37.9002E-03    -18.8212E-03    -19.0790E-03    -18.7977E-03     37.6262E-03    -18.8285E-03     7.87791E-03     3.31854E+06    -37.3631E+06    -115.142E+06    -18.6781E+06    -93.1451E+06    -37.3631E+06    -45.9894E+06         23.3678
            1659     8.83260E-03     85.8493E-03     891.920E-03     8.75108E-03    -301.094E-03    -47.0633E-03     637.890E-03     8.75108E-03    -732.971E-03     37.8031E-03    -18.7414E-03    -19.0616E-03    -18.6835E-03     37.4322E-03    -18.7487E-03     9.03924E-03     7.22162E+06    -46.7745E+06    -114.112E+06    -18.4453E+06    -88.4451E+06    -46.7745E+06    -49.4750E+06         23.5810
            1660     9.81365E-03     85.8630E-03     738.056E-03     6.83119E-03    -168.406E-03    -2.95664E-03     572.607E-03     6.83119E-03     564.508E-03     37.7698E-03    -18.6869E-03    -19.0829E-03    -18.6030E-03     37.2899E-03    -18.6869E-03     10.3872E-03     10.7427E+06    -50.2918E+06    -107.374E+06    -16.8527E+06    -79.7788E+06    -50.2918E+06    -49.8768E+06         23.8897
            1661     10.7961E-03     85.8701E-03         1.10494     9.72550E-03    -563.985E-03     45.3626E-03     495.595E-03     9.72550E-03         1.59068     37.7530E-03    -18.6026E-03    -19.1504E-03    -18.5734E-03     37.1760E-03    -18.6026E-03     11.3221E-03     8.84642E+06    -59.2968E+06    -97.7151E+06    -17.8807E+06    -70.9880E+06    -59.2968E+06    -45.9603E+06         24.4192
            1662     11.7763E-03     85.8857E-03         1.47032     16.0697E-03    -965.059E-03     82.5295E-03     422.728E-03     16.0697E-03         2.40861     38.1477E-03    -18.3763E-03    -19.7714E-03    -18.6857E-03     37.1787E-03    -18.4931E-03     14.6137E-03     10.1398E+06    -68.1606E+06    -83.6780E+06    -15.9406E+06    -53.4361E+06    -72.3221E+06    -40.0919E+06         25.5424
            1663     12.7607E-03     85.9021E-03         1.65190     24.5863E-03        -1.17773     105.660E-03     368.510E-03     24.5863E-03         2.81638     39.3280E-03    -18.2501E-03    -21.0779E-03    -18.4098E-03     36.7768E-03    -18.3670E-03     23.3541E-03     27.3793E+06    -49.1925E+06    -83.5949E+06    -12.9068E+06    -9.57785E+06    -82.9234E+06    -34.4185E+06         28.2732
            1664     13.7410E-03     85.9276E-03         1.66802     34.2045E-03        -1.20856     104.899E-03     354.560E-03     34.2045E-03         2.86528     44.5686E-03    -18.3853E-03    -26.1833E-03    -20.4362E-03     38.8215E-03    -18.3853E-03     37.8583E-03     41.9896E+06    -34.4146E+06    -89.7144E+06    -23.9293E+06     31.5043E+06    -89.7144E+06    -17.1762E+06         34.7651
            1665     14.7190E-03     85.9850E-03         1.51529     43.9307E-03        -1.05216     63.1497E-03     399.981E-03     43.9307E-03         2.54297     56.1837E-03    -18.5912E-03    -37.5925E-03    -17.8836E-03     36.4748E-03    -18.5912E-03     72.1490E-03     56.2343E+06    -29.1605E+06    -72.4480E+06    -28.7302E+06     52.1706E+06    -68.8147E+06    -1.57559E+06         47.9766
            1666     15.7201E-03     86.0694E-03         1.23168     57.3228E-03    -751.554E-03    -44.0287E-03     524.154E-03     57.3228E-03         1.87923     116.628E-03    -18.8827E-03    -97.7455E-03    -23.6616E-03     42.5443E-03    -18.8827E-03     198.900E-03     87.6866E+06    -11.2917E+06    -52.5860E+06    -21.8841E+06     80.1495E+06    -34.4566E+06    -12.9212E+06         68.5566
            1667     16.6689E-03     86.3939E-03     987.532E-03     91.3260E-03    -476.615E-03    -226.316E-03     737.233E-03     91.3260E-03     984.469E-03     390.507E-03    -19.5123E-03    -370.995E-03    -132.527E-03     152.039E-03    -19.5123E-03     698.322E-03     145.505E+06     82.1272E+06    -38.2354E+06    -23.6691E+06     140.179E+06     72.8861E+06    -10.7744E+06         90.7160
            1668     981.439E-06     86.8484E-03         6.70401        -1.55313        -4.35630         4.35380     11.1662E-03        -3.57039        -4.87822     38.0946E-03    -18.8799E-03    -19.2147E-03    -18.9832E-03     38.0906E-03    -19.1074E-03     671.115E-06     6.37002E+06    -5.03010E+06    -103.507E+06     921.269E+03    -102.802E+06    -286.604E+03    -7.97851E+06         22.7781
            1669     1.96258E-03     86.8482E-03         2.38831     370.469E-03        -1.97442     280.638E-03     133.247E-03     370.469E-03        -1.59710     38.2194E-03    -19.0416E-03    -19.1778E-03    -19.1566E-03     38.1982E-03    -19.0416E-03     2.00407E-03     5.54853E+06    -5.22019E+06    -85.6076E+06    -346.630E+03    -83.3957E+06    -1.53694E+06    -12.9737E+06         22.8109
            1670     2.94394E-03     86.8524E-03         2.27584     339.814E-03        -1.84665     286.411E-03     142.780E-03     339.814E-03        -4.09859     38.1397E-03    -19.0312E-03    -19.1085E-03    -19.0432E-03     38.0875E-03    -19.0443E-03     3.38644E-03     5.61073E+06    -3.63893E+06    -81.6346E+06     1.15366E+06    -77.1775E+06    -3.63893E+06    -19.0306E+06         22.8553
            1671     3.92489E-03     86.8553E-03         2.08782     316.554E-03        -1.64528     194.273E-03     248.276E-03     316.554E-03        -3.71675     38.1839E-03    -19.0273E-03    -19.1566E-03    -19.0528E-03     38.0932E-03    -19.0404E-03     4.51518E-03     9.33164E+06    -2.99275E+06    -84.7808E+06     1.68977E+06    -77.1390E+06    -2.99275E+06    -25.3629E+06         22.9125
            1672     4.90638E-03     86.8613E-03         2.36908     288.134E-03        -1.91823     146.026E-03     304.822E-03     288.134E-03        -4.27286     38.0993E-03    -18.9927E-03    -19.1066E-03    -18.9494E-03     37.9665E-03    -19.0171E-03     5.47714E-03     12.9805E+06    -4.90296E+06    -88.2453E+06     1.96530E+06    -77.2301E+06    -4.90296E+06    -31.4067E+06         22.9865
            1673     5.88809E-03     86.8655E-03         2.04412     259.496E-03        -1.59556     71.7784E-03     376.785E-03     259.496E-03        -3.61961     38.0739E-03    -18.9422E-03    -19.1317E-03    -18.9126E-03     37.8793E-03    -18.9667E-03     6.60077E-03     15.8921E+06    -10.0706E+06    -90.1532E+06     1.20331E+06    -75.4645E+06    -10.0706E+06     -36.457E+06         23.0823
            1674     6.86892E-03     86.8742E-03         1.79181     230.736E-03        -1.35144     28.3844E-03     411.982E-03     230.736E-03        -3.11001     38.0898E-03    -18.9361E-03    -19.1537E-03    -18.8967E-03     37.8328E-03    -18.9361E-03     7.62971E-03     16.6051E+06    -13.8404E+06    -96.4898E+06    -1.12026E+06    -78.7644E+06    -13.8404E+06    -41.1044E+06         23.2058
            1675     7.85091E-03     86.8799E-03         1.23923     204.955E-03    -805.491E-03     1.76615E-03     431.975E-03     204.955E-03        -1.99143     38.0212E-03    -18.8944E-03    -19.1268E-03    -18.8130E-03     37.7074E-03    -18.8944E-03     8.38070E-03     15.9777E+06    -20.3896E+06    -104.201E+06    -4.63997E+06    -83.5836E+06    -20.3896E+06    -45.1863E+06         23.3651
            1676     8.83169E-03     86.8898E-03     749.484E-03     184.007E-03    -320.217E-03     10.2512E-03     419.016E-03     184.007E-03    -890.199E-03     37.8612E-03    -18.8005E-03    -19.0608E-03    -18.6358E-03     37.4401E-03    -18.8043E-03     9.66727E-03     15.7628E+06    -32.2247E+06    -104.339E+06    -10.1171E+06    -78.4587E+06    -32.2247E+06    -49.2290E+06         23.5764
            1677     9.81428E-03     86.8978E-03     537.484E-03     169.056E-03    -116.877E-03     33.5264E-03     387.080E-03     169.056E-03     324.173E-03     37.7317E-03    -18.7201E-03    -19.0116E-03    -18.4434E-03     37.1673E-03    -18.7239E-03     11.1766E-03     13.3407E+06    -41.3040E+06    -105.711E+06    -16.1829E+06    -76.1878E+06    -41.3040E+06    -51.3820E+06         23.8825
            1678     10.7955E-03     86.9106E-03     873.464E-03     159.514E-03    -469.990E-03     64.6099E-03     338.863E-03     159.514E-03         1.30620     37.9951E-03    -18.6283E-03    -19.3669E-03    -18.6305E-03     37.2588E-03    -18.6283E-03     12.8334E-03     12.0295E+06    -52.5450E+06    -99.7291E+06    -17.3951E+06    -70.3046E+06    -52.5450E+06    -49.0189E+06         24.4044
            1679     11.7777E-03     86.9218E-03         1.23357     154.130E-03    -851.238E-03     89.0103E-03     293.325E-03     154.130E-03         2.07387     37.6588E-03    -18.3710E-03    -19.2879E-03    -18.1700E-03     36.6578E-03    -18.4878E-03     14.8576E-03     16.0644E+06    -68.8384E+06    -86.5502E+06    -16.9825E+06    -53.5033E+06    -68.8384E+06    -47.4260E+06         25.5054
            1680     12.7607E-03     86.9374E-03         1.41804     151.705E-03        -1.05248     102.548E-03     263.021E-03     151.705E-03         2.46519     40.1082E-03    -18.2436E-03    -21.8646E-03    -19.0890E-03     37.4494E-03    -18.3604E-03     24.1459E-03     22.1201E+06    -57.6821E+06    -86.6147E+06    -19.4621E+06    -17.8467E+06    -84.8679E+06    -37.8233E+06         28.1833
            1681     13.7401E-03     86.9718E-03         1.44619     151.045E-03        -1.08058     93.8549E-03     271.755E-03     151.045E-03         2.52025     43.5330E-03    -18.2584E-03    -25.2746E-03    -18.9457E-03     37.2041E-03    -18.2584E-03     38.9882E-03     28.0802E+06    -31.8963E+06    -107.811E+06    -13.3342E+06     9.51805E+06    -107.811E+06    -19.8394E+06         34.5996
            1682     14.7248E-03     87.0186E-03         1.32154     150.471E-03    -937.837E-03     47.4803E-03     336.227E-03     150.471E-03         2.23823     51.8842E-03    -18.4758E-03    -33.4085E-03    -18.4602E-03     36.9360E-03    -18.4758E-03     63.7441E-03     65.5253E+06    -6.23626E+06    -77.9657E+06    -2.96979E+06     53.1824E+06    -68.8893E+06    -16.0798E+06         47.7838
            1683     15.7051E-03     87.0943E-03         1.08610     152.471E-03    -666.621E-03    -57.3398E-03     476.816E-03     152.471E-03         1.64549     136.919E-03    -19.0638E-03    -117.855E-03    -36.8957E-03     55.9594E-03    -19.0638E-03     232.672E-03     93.5828E+06     4.38794E+06    -55.7301E+06    -9.78200E+06     84.1803E+06    -32.1576E+06    -2.85448E+06         68.4546
            1684     16.6259E-03     87.5307E-03     887.380E-03     164.937E-03    -441.509E-03    -234.001E-03     679.872E-03     164.937E-03     851.943E-03     393.660E-03    -19.5712E-03    -374.089E-03    -117.749E-03     137.320E-03    -19.5712E-03     721.544E-03     148.586E+06     78.0660E+06    -33.1023E+06    -2.80269E+06     140.908E+06     55.4442E+06     15.4092E+06         90.9235
            1685     981.561E-06     87.8855E-03         5.32027    -870.690E-03        -3.63821         4.30023    -487.439E-03        -3.00142        -3.45768     38.2236E-03    -18.8649E-03    -19.3587E-03    -19.2825E-03     38.2170E-03    -18.9345E-03     1.08131E-03     13.4389E+06    -897.531E+03    -92.7567E+06     5.25464E+06    -91.5405E+06     6.07056E+06    -10.6152E+06         22.7806
            1686     1.96227E-03     87.8885E-03         1.73359     559.582E-03        -1.49194     511.749E-03    -332.005E-03     621.483E-03        -1.98423     38.3417E-03    -19.1106E-03    -19.2311E-03    -19.2119E-03     38.3225E-03    -19.1106E-03     2.04897E-03     16.5493E+06     4.90864E+06    -69.7302E+06     9.85017E+06    -66.7144E+06     8.59189E+06    -14.5301E+06         22.8119
            1687     2.94338E-03     87.8895E-03         2.05507     581.363E-03        -1.85528     501.437E-03    -301.645E-03     581.363E-03        -3.80922     38.2029E-03    -19.0587E-03    -19.1442E-03    -19.0482E-03     38.1514E-03    -19.1032E-03     3.32490E-03     15.6450E+06     5.17150E+06    -70.9409E+06     9.96070E+06    -65.2566E+06     5.17150E+06    -21.2953E+06         22.8544
            1688     3.92522E-03     87.8949E-03         2.02706     547.550E-03        -1.80420     376.775E-03    -153.916E-03     547.550E-03        -3.78234     38.0409E-03    -18.9673E-03    -19.0737E-03    -18.8875E-03     37.9463E-03    -19.0589E-03     4.61871E-03     18.7299E+06     4.76342E+06    -71.6967E+06     9.68038E+06    -62.6472E+06     4.76342E+06    -26.7119E+06         22.9097
            1689     4.90644E-03     87.8984E-03         2.21491     506.534E-03        -1.96659     299.907E-03    -51.5857E-03     506.534E-03        -4.15694     38.0759E-03    -18.9730E-03    -19.1029E-03    -18.9222E-03     37.9423E-03    -19.0201E-03     5.49099E-03     22.2026E+06     4.10549E+06    -77.1866E+06     9.72661E+06    -64.7106E+06     4.10549E+06    -32.8873E+06         22.9822
            1690     5.88756E-03     87.9050E-03         1.96843     464.113E-03        -1.70713     189.640E-03     71.6647E-03     464.113E-03        -3.66783     38.0369E-03    -18.9441E-03    -19.0929E-03    -18.8649E-03     37.8282E-03    -18.9633E-03     6.81913E-03     23.2650E+06    -2.02973E+06    -80.0042E+06     8.46880E+06    -65.2081E+06    -2.02973E+06    -36.0145E+06         23.0765
            1691     6.86964E-03     87.9112E-03         1.69975     420.210E-03        -1.43536     108.933E-03     155.459E-03     420.210E-03        -3.12903     37.9120E-03    -18.8982E-03    -19.0138E-03    -18.7305E-03     37.6480E-03    -18.9175E-03     7.73050E-03     22.5870E+06    -6.24553E+06    -85.3304E+06     5.66884E+06    -68.4123E+06    -6.24553E+06    -39.2164E+06         23.1982
            1692     7.85094E-03     87.9190E-03         1.20345     378.584E-03    -929.105E-03     49.0065E-03     225.341E-03     378.584E-03        -2.12145     37.8089E-03    -18.8080E-03    -19.0008E-03    -18.6120E-03     37.4748E-03    -18.8628E-03     8.62483E-03     22.2172E+06    -11.5472E+06    -93.7019E+06     2.45514E+06    -73.9398E+06    -11.5472E+06    -43.4487E+06         23.3556
            1693     8.83330E-03     87.9268E-03     694.050E-03     340.212E-03    -415.604E-03     22.8912E-03     254.281E-03     341.486E-03        -1.05804     37.6465E-03    -18.7062E-03    -18.9402E-03    -18.4482E-03     37.2130E-03    -18.7648E-03     9.84782E-03     21.4931E+06    -21.2675E+06    -92.1782E+06    -1.55327E+06    -69.1317E+06    -21.2675E+06    -45.5744E+06         23.5658
            1694     9.81467E-03     87.9359E-03     414.342E-03     308.600E-03    -129.660E-03     20.3933E-03     262.374E-03     310.516E-03     72.6851E-03     37.7005E-03    -18.6664E-03    -19.0341E-03    -18.4147E-03     37.0850E-03    -18.6703E-03     11.6604E-03     20.5771E+06    -31.9592E+06    -95.6391E+06    -6.00611E+06    -69.0559E+06    -31.9592E+06    -48.6906E+06         23.8693
            1695     10.7972E-03     87.9474E-03     660.278E-03     285.125E-03    -378.148E-03     32.5356E-03     248.953E-03     285.767E-03         1.00743     37.5387E-03    -18.5270E-03    -19.0117E-03    -18.2058E-03     36.7327E-03    -18.5270E-03     13.3968E-03     23.6891E+06    -50.0180E+06    -96.7767E+06    -8.97056E+06    -64.1171E+06    -50.0180E+06    -53.3922E+06         24.3834
            1696     11.7789E-03     87.9600E-03         1.00589     266.243E-03    -731.858E-03     43.0721E-03     230.964E-03     266.243E-03         1.72643     38.0923E-03    -18.3770E-03    -19.7154E-03    -18.6180E-03     36.9950E-03    -18.3770E-03     15.6361E-03     22.3803E+06    -70.1556E+06    -89.4588E+06    -10.8508E+06    -54.7529E+06    -71.6304E+06    -50.4164E+06         25.4611
            1697     12.7597E-03     87.9741E-03         1.19114     250.972E-03    -915.888E-03     52.0603E-03     223.194E-03     250.972E-03         2.09952     40.5939E-03    -18.2682E-03    -22.3257E-03    -18.7364E-03     37.0046E-03    -18.2682E-03     27.4778E-03     24.3826E+06    -63.1965E+06    -88.4262E+06    -11.8104E+06    -28.0788E+06    -87.3508E+06    -41.9509E+06         28.0781
            1698     13.7403E-03     88.0146E-03         1.22683     238.638E-03    -940.971E-03     42.8630E-03     242.993E-03     238.638E-03         2.15770     42.3218E-03    -18.1375E-03    -24.1843E-03    -17.7203E-03     35.8579E-03    -18.1375E-03     39.2361E-03     31.4629E+06    -43.1580E+06    -106.962E+06    -10.4520E+06    -1.24321E+06    -106.962E+06    -36.0317E+06         34.4190
            1699     14.7278E-03     88.0431E-03         1.12244     227.494E-03    -808.856E-03     4.28367E-03     309.302E-03     227.494E-03         1.90308     56.7871E-03    -18.3190E-03    -38.4681E-03    -19.6233E-03     37.9422E-03    -18.3190E-03     73.1247E-03     56.9048E+06    -20.6151E+06    -86.4760E+06    -14.4679E+06     41.6812E+06    -77.3996E+06    -19.3933E+06         47.5745
            1700     15.6954E-03     88.1641E-03     927.364E-03     217.785E-03    -577.073E-03    -93.5403E-03     443.832E-03     217.785E-03         1.37835     141.918E-03    -18.1756E-03    -123.742E-03    -19.3235E-03     37.4991E-03    -18.1756E-03     254.140E-03     76.8109E+06    -8.57691E+06    -76.7419E+06    -5.56035E+06     64.7180E+06    -67.6655E+06    -2.22341E+06         68.6595
            1701     16.7671E-03     88.5662E-03     756.495E-03     210.946E-03    -402.348E-03    -249.862E-03     604.009E-03     210.946E-03     669.251E-03     390.416E-03    -18.2955E-03    -372.120E-03    -119.614E-03     137.910E-03    -18.2955E-03     708.842E-03     133.565E+06     64.1751E+06    -51.9677E+06     4.19271E+06     120.833E+06     20.7466E+06    -4.82636E+06         91.3891
            1702     980.813E-06     88.9253E-03         4.65189    -404.487E-03        -3.40976         4.24471    -946.128E-03        -2.46094        -1.90397     38.3132E-03    -18.9257E-03    -19.3875E-03    -19.2731E-03     38.3053E-03    -19.0322E-03     1.15494E-03     31.6906E+06     22.4266E+06    -72.8460E+06     25.6899E+06    -71.7529E+06     27.3342E+06    -8.77759E+06         22.7756
            1703     1.96261E-03     88.9262E-03         1.51156     797.139E-03        -1.48878     730.587E-03    -769.711E-03     859.040E-03        -2.41388     38.2266E-03    -19.0585E-03    -19.1681E-03    -19.0961E-03     38.1980E-03    -19.1020E-03     2.46087E-03     26.2776E+06     18.4540E+06    -57.0241E+06     21.9535E+06    -54.3227E+06     20.0767E+06    -13.6934E+06         22.8047
            1704     2.94371E-03     88.9293E-03         1.88483     808.758E-03        -1.90457     696.393E-03    -716.128E-03     808.758E-03        -3.47936     38.2115E-03    -19.0466E-03    -19.1649E-03    -19.0788E-03     38.1568E-03    -19.0780E-03     3.49378E-03     26.1443E+06     16.6662E+06    -57.3152E+06     20.1764E+06    -51.3472E+06     16.6662E+06    -21.2696E+06         22.8453
            1705     3.92481E-03     88.9319E-03         2.00526     763.190E-03        -1.98547     542.673E-03    -522.885E-03     763.190E-03        -3.83668     37.8910E-03    -18.8638E-03    -19.0272E-03    -18.7931E-03     37.7889E-03    -18.9959E-03     4.71271E-03     27.9335E+06     7.80128E+06    -59.6338E+06     17.9209E+06    -49.6212E+06     7.80128E+06    -27.5521E+06         22.8985
            1706     4.90681E-03     88.9378E-03         2.07682     708.691E-03        -2.02277     430.491E-03    -376.442E-03     708.691E-03        -4.00821     37.8230E-03    -18.8306E-03    -18.9924E-03    -18.7275E-03     37.6604E-03    -18.9329E-03     6.03016E-03     27.9027E+06     5.55408E+06    -65.5138E+06     14.9115E+06    -52.5226E+06     5.55408E+06    -32.3030E+06         22.9691
            1707     5.88838E-03     88.9423E-03         1.90592     651.116E-03        -1.82117     282.268E-03    -197.513E-03     651.116E-03        -3.69161     37.8313E-03    -18.8559E-03    -18.9754E-03    -18.7312E-03     37.6080E-03    -18.8767E-03     7.08359E-03     28.0796E+06     1.61158E+06    -71.9173E+06     12.6587E+06    -56.4964E+06     1.61158E+06    -35.9988E+06         23.0619
            1708     6.86986E-03     88.9498E-03         1.61968     590.905E-03        -1.51294     163.891E-03    -57.1516E-03     590.905E-03        -3.11992     37.6842E-03    -18.7953E-03    -18.8889E-03    -18.5734E-03     37.3880E-03    -18.8146E-03     8.13561E-03     27.7956E+06    -3.36578E+06    -75.7254E+06     10.8956E+06    -58.8253E+06    -3.36578E+06    -38.2256E+06         23.1822
            1709     7.85184E-03     88.9563E-03         1.17691     531.921E-03        -1.05187     59.9975E-03     65.0459E-03     531.921E-03        -2.22649     37.4939E-03    -18.6858E-03    -18.8081E-03    -18.4072E-03     37.1478E-03    -18.7406E-03     8.78388E-03     27.5358E+06    -9.66504E+06    -82.7475E+06     7.96067E+06    -63.1724E+06    -9.66504E+06    -41.9844E+06         23.3390
            1710     8.83375E-03     88.9643E-03     697.477E-03     460.408E-03    -534.907E-03    -818.947E-06     146.929E-03     476.868E-03        -1.19655     37.3871E-03    -18.5684E-03    -18.8187E-03    -18.3024E-03     36.9256E-03    -18.6231E-03     10.0639E-03     29.7713E+06    -21.4635E+06    -85.2622E+06     6.57330E+06    -62.0642E+06    -21.4635E+06    -46.1318E+06         23.5487
            1711     9.81625E-03     88.9735E-03     428.150E-03     361.314E-03    -197.475E-03    -35.2313E-03     199.070E-03     428.150E-03    -148.042E-03     37.3833E-03    -18.5268E-03    -18.8565E-03    -18.2063E-03     36.7331E-03    -18.5268E-03     11.9829E-03     34.1617E+06    -27.9636E+06    -84.8290E+06     7.03242E+06    -57.6997E+06    -27.9636E+06    -49.7465E+06         23.8504
            1712     10.7977E-03     88.9848E-03     544.730E-03     335.973E-03    -316.112E-03    -44.6626E-03     222.904E-03     386.349E-03     746.713E-03     37.1794E-03    -18.3822E-03    -18.7972E-03    -17.9833E-03     36.3656E-03    -18.3822E-03     13.3831E-03     36.5765E+06    -44.5512E+06    -87.5450E+06     4.85636E+06    -55.8248E+06    -44.5512E+06    -54.0541E+06         24.3577
            1713     11.7817E-03     88.9953E-03     817.609E-03     351.192E-03    -628.924E-03    -45.2216E-03     233.906E-03     351.192E-03         1.41476     37.8147E-03    -18.2160E-03    -19.5987E-03    -18.1664E-03     36.3823E-03    -18.2160E-03     17.5542E-03     33.3801E+06    -67.0675E+06    -90.0728E+06     1.22302E+06    -56.4409E+06    -68.5423E+06    -53.6292E+06         25.4112
            1714     12.7618E-03     89.0167E-03     999.078E-03     321.842E-03    -799.235E-03    -41.0035E-03     240.847E-03     321.842E-03         1.77322     39.0139E-03    -18.0585E-03    -20.9554E-03    -17.3414E-03     35.3999E-03    -18.0585E-03     27.5225E-03     32.3971E+06    -64.2899E+06    -87.3477E+06    -1.61406E+06    -34.1852E+06    -83.4412E+06    -46.6330E+06         27.9757
            1715     13.7510E-03     89.0412E-03         1.03572     297.060E-03    -816.069E-03    -45.0648E-03     264.712E-03     297.060E-03         1.82273     42.6147E-03    -17.8637E-03    -24.7510E-03    -17.4068E-03     35.2705E-03    -17.8637E-03     41.4438E-03     28.5325E+06    -47.1589E+06    -108.670E+06    -10.5981E+06    -8.02833E+06    -108.670E+06    -36.3893E+06         34.2450
            1716     14.7257E-03     89.0936E-03     949.324E-03     275.010E-03    -701.646E-03    -73.4902E-03     321.168E-03     275.010E-03         1.59682     54.2830E-03    -17.7790E-03    -36.5040E-03    -15.2904E-03     33.0694E-03    -17.7790E-03     74.1573E-03     41.3871E+06    -28.4399E+06    -105.755E+06    -10.1373E+06     23.0845E+06    -105.755E+06    -23.0892E+06         47.4236
            1717     15.7341E-03     89.1818E-03     789.260E-03     254.117E-03    -514.279E-03    -151.196E-03     426.178E-03     254.117E-03         1.14432     125.350E-03    -17.7017E-03    -107.648E-03    -19.4514E-03     37.1531E-03    -17.7017E-03     222.839E-03     65.5378E+06    -15.7657E+06    -89.3627E+06    -3.36917E+06     53.1412E+06    -89.3627E+06    -21.5348E+06         68.5191
            1718     16.6968E-03     89.5404E-03     630.884E-03     233.388E-03    -366.247E-03    -251.075E-03     515.712E-03     233.388E-03     561.509E-03     386.491E-03    -18.3923E-03    -368.099E-03    -129.938E-03     148.330E-03    -18.3923E-03     694.221E-03     128.964E+06     73.3525E+06    -61.7302E+06    -14.3631E+06     121.714E+06     33.2359E+06    -17.0000E+06         91.3623
            1719     981.699E-06     89.9633E-03         4.91330    -469.483E-03        -3.58881         4.17800        -1.36496        -1.95803    -300.813E-03     38.0501E-03    -18.8685E-03    -19.1816E-03    -18.8986E-03     38.0414E-03    -19.1428E-03     1.26162E-03     39.3651E+06     35.9853E+06    -59.6016E+06     35.8304E+06    -58.7159E+06     38.6343E+06    -4.07189E+06         22.7580
            1720     1.96277E-03     89.9649E-03         1.69099         1.07500        -1.93228     930.169E-03        -1.17146         1.07500        -2.84180     37.9854E-03    -18.9225E-03    -19.0628E-03    -18.9600E-03     37.9543E-03    -18.9944E-03     2.55945E-03     43.0901E+06     35.6849E+06    -41.3904E+06     38.1387E+06    -39.0880E+06     38.3340E+06    -13.1854E+06         22.7859
            1721     2.94425E-03     89.9678E-03         1.80133         1.01540        -2.01374     872.200E-03        -1.08461         1.01540        -3.12288     37.8384E-03    -18.8539E-03    -18.9845E-03    -18.8537E-03     37.7771E-03    -18.9234E-03     3.67841E-03     40.9421E+06     29.0929E+06    -42.4847E+06     35.7166E+06    -37.2592E+06     29.0929E+06    -19.6370E+06         22.8248
            1722     3.92571E-03     89.9706E-03         1.99857     958.039E-03        -2.17000     685.271E-03    -856.707E-03     958.039E-03        -3.86590     37.7460E-03    -18.7520E-03    -18.9940E-03    -18.7831E-03     37.6298E-03    -18.8468E-03     5.02682E-03     40.3852E+06     20.1085E+06    -45.5975E+06     31.0629E+06    -36.2752E+06     20.1085E+06    -26.4909E+06         22.8766
            1723     4.90755E-03     89.9747E-03         1.95275     889.631E-03        -2.07422     539.027E-03    -660.503E-03     889.631E-03        -3.82381     37.5940E-03    -18.6861E-03    -18.9078E-03    -18.6218E-03     37.4138E-03    -18.7920E-03     6.34618E-03     39.5245E+06     15.1437E+06    -53.5933E+06     27.5323E+06    -41.6011E+06     15.1437E+06    -31.0841E+06         22.9458
            1724     5.88927E-03     89.9814E-03         1.83877     816.695E-03        -1.91504     352.212E-03    -428.478E-03     816.695E-03        -3.66844     37.4915E-03    -18.6845E-03    -18.8070E-03    -18.5155E-03     37.2524E-03    -18.7369E-03     7.29776E-03     40.2133E+06     12.3482E+06    -61.2197E+06     25.3389E+06    -46.3454E+06     12.3482E+06    -35.7690E+06         23.0373
            1725     6.87131E-03     89.9863E-03         1.52926     739.746E-03        -1.56809     192.606E-03    -231.435E-03     739.746E-03        -3.06191     37.3232E-03    -18.6021E-03    -18.7211E-03    -18.3572E-03     37.0045E-03    -18.6474E-03     8.40009E-03     41.0038E+06     4.41214E+06    -67.2704E+06     23.9226E+06    -50.1892E+06     4.41214E+06    -39.4205E+06         23.1571
            1726     7.85331E-03     89.9948E-03         1.13862     663.000E-03        -1.14091     47.3147E-03    -49.6094E-03     663.000E-03        -2.27479     37.2269E-03    -18.5142E-03    -18.7127E-03    -18.2666E-03     36.8261E-03    -18.5594E-03     9.40155E-03     43.4413E+06    -1.72465E+06    -71.8685E+06     23.7882E+06    -52.2153E+06    -1.72465E+06    -43.2702E+06         23.3143
            1727     8.83553E-03     90.0005E-03     710.996E-03     539.189E-03    -626.740E-03    -52.3289E-03     86.1335E-03     589.640E-03        -1.26841     37.1891E-03    -18.4549E-03    -18.7342E-03    -18.2148E-03     36.6697E-03    -18.4549E-03     10.6710E-03     44.8126E+06    -12.0242E+06    -75.9228E+06     21.7329E+06    -52.8431E+06    -12.0242E+06    -47.4075E+06         23.5249
            1728     9.81741E-03     90.0115E-03     522.664E-03     354.805E-03    -286.159E-03    -118.745E-03     187.390E-03     522.664E-03    -300.947E-03     36.9965E-03    -18.3443E-03    -18.6522E-03    -17.9466E-03     36.2909E-03    -18.3443E-03     12.4092E-03     45.5017E+06    -22.0045E+06    -76.4242E+06     17.0441E+06    -47.9666E+06    -22.0045E+06    -51.2456E+06         23.8268
            1729     10.8013E-03     90.0200E-03     528.726E-03     345.979E-03    -313.311E-03    -150.812E-03     248.820E-03     463.387E-03     564.067E-03     37.1050E-03    -18.2366E-03    -18.8685E-03    -18.0104E-03     36.2470E-03    -18.2366E-03     13.7446E-03     44.3424E+06    -33.2173E+06    -78.9596E+06     12.9359E+06    -47.5531E+06    -33.2173E+06    -53.6563E+06         24.3290
            1730     11.7817E-03     90.0340E-03     698.298E-03     412.091E-03    -577.472E-03    -164.566E-03     285.392E-03     412.091E-03         1.18386     36.7789E-03    -18.0058E-03    -18.7732E-03    -17.3627E-03     35.4291E-03    -18.0665E-03     16.7525E-03     37.3932E+06    -57.6074E+06    -86.1544E+06     6.57668E+06    -55.3378E+06    -57.6074E+06    -53.3407E+06         25.3621
            1731     12.7691E-03     90.0486E-03     869.180E-03     368.258E-03    -729.938E-03    -164.060E-03     303.302E-03     368.258E-03         1.52343     38.1832E-03    -17.8246E-03    -20.3586E-03    -17.2677E-03     35.1530E-03    -17.8853E-03     25.4042E-03     36.0346E+06    -64.9529E+06    -82.8181E+06     967.797E+03    -37.3752E+06    -75.3291E+06    -49.8712E+06         27.8831
            1732     13.7476E-03     90.0796E-03     904.114E-03     330.903E-03    -743.737E-03    -161.925E-03     322.301E-03     330.903E-03         1.57005     40.7357E-03    -17.6606E-03    -23.0752E-03    -16.3983E-03     34.0589E-03    -17.6606E-03     38.2859E-03     33.6189E+06      -48.46E+06    -100.624E+06     2.96702E+06    -17.8081E+06    -100.624E+06    -38.5474E+06         34.0912
            1733     14.7404E-03     90.1265E-03     828.879E-03     298.321E-03    -644.390E-03    -171.530E-03     356.019E-03     298.321E-03         1.36878     49.5414E-03    -17.5969E-03    -31.9446E-03    -15.7141E-03     33.3110E-03    -17.5969E-03     63.7566E-03     55.6354E+06    -30.0995E+06    -92.2813E+06     4.67683E+06     20.8590E+06    -92.2813E+06    -36.1886E+06         47.2477
            1734     15.7191E-03     90.2001E-03     687.307E-03     268.520E-03    -483.834E-03    -206.586E-03     410.059E-03     268.520E-03     980.471E-03     132.560E-03    -17.7825E-03    -114.778E-03    -30.2028E-03     47.9854E-03    -17.7825E-03     231.853E-03     66.7103E+06    -12.0974E+06    -88.2438E+06     2.98421E+06     51.6287E+06    -88.2438E+06    -28.2320E+06         68.3803
            1735     16.6694E-03     90.6371E-03     499.616E-03     239.957E-03    -334.415E-03    -237.581E-03     402.782E-03     239.957E-03     494.315E-03     395.226E-03    -18.4546E-03    -376.771E-03    -126.850E-03     145.305E-03    -18.4546E-03     720.489E-03     122.432E+06     67.4978E+06    -61.0103E+06    -1.43249E+06     118.607E+06     11.7449E+06    -399.464E+03         91.6461
            1736     981.511E-06     91.0017E-03         5.75691    -960.398E-03        -3.93274         4.05834        -1.73758        -1.45699         1.20749     37.7743E-03    -18.6510E-03    -19.1233E-03    -18.8989E-03     37.7661E-03    -18.8672E-03     1.24799E-03     56.3888E+06     48.0394E+06    -44.6398E+06     54.2323E+06    -43.5096E+06     49.0657E+06    -6.82132E+06         22.7252
            1737     1.96306E-03     91.0036E-03         2.08430         1.24617        -2.48842         1.11259        -1.53371         1.26316        -3.21453     37.4457E-03    -18.6171E-03    -18.8286E-03    -18.6271E-03     37.4171E-03    -18.7899E-03     2.43972E-03     55.1281E+06     45.6097E+06    -29.3441E+06     51.5221E+06    -26.7645E+06     46.6360E+06    -13.7383E+06         22.7527
            1738     2.94500E-03     91.0052E-03         1.84985         1.17981        -2.22267         1.02230        -1.41211         1.19681        -2.76153     37.2904E-03    -18.5301E-03    -18.7603E-03    -18.5280E-03     37.2239E-03    -18.6959E-03     3.79111E-03     55.8823E+06     44.7807E+06    -27.8503E+06     50.6255E+06    -22.5935E+06     44.7807E+06    -19.8984E+06         22.7907
            1739     3.92737E-03     91.0087E-03         1.99764         1.12835        -2.33778     809.254E-03        -1.14940         1.12835        -3.85076     37.4187E-03    -18.5976E-03    -18.8211E-03    -18.6588E-03     37.2976E-03    -18.6388E-03     5.16678E-03     57.9745E+06     40.7081E+06    -31.7820E+06     49.8014E+06    -23.6089E+06     40.7081E+06    -25.7284E+06         22.8416
            1740     4.90819E-03     91.0133E-03         1.83270         1.04712        -2.11101     627.563E-03    -905.871E-03         1.04712        -3.59072     37.3391E-03    -18.5407E-03    -18.7985E-03    -18.5616E-03     37.1530E-03    -18.5914E-03     6.42140E-03     58.3997E+06     32.6002E+06    -40.6767E+06     47.3545E+06    -29.6314E+06     32.6002E+06    -31.1279E+06         22.9100
            1741     5.89083E-03     91.0176E-03         1.75779     959.596E-03        -1.97739     404.734E-03    -624.343E-03     959.596E-03        -3.58826     37.0789E-03    -18.4302E-03    -18.6488E-03    -18.2835E-03     36.8121E-03    -18.5286E-03     7.64986E-03     57.6773E+06     26.2970E+06    -49.0361E+06     44.3776E+06    -35.7364E+06     26.2970E+06    -35.1892E+06         23.0009
            1742     6.87264E-03     91.0252E-03         1.41467     866.674E-03        -1.58237     203.732E-03    -371.430E-03     866.674E-03        -2.93119     36.8883E-03    -18.3465E-03    -18.5418E-03    -18.1207E-03     36.5602E-03    -18.4395E-03     8.48902E-03     58.8746E+06     19.7537E+06    -56.2116E+06     41.6656E+06    -39.0026E+06     19.7537E+06    -40.8387E+06         23.1204
            1743     7.85567E-03     91.0295E-03         1.08540     757.447E-03        -1.18073     22.4947E-03    -133.437E-03     773.062E-03        -2.24071     36.8579E-03    -18.3040E-03    -18.5538E-03    -18.0697E-03     36.4189E-03    -18.3493E-03     9.75985E-03     58.6878E+06     12.2205E+06    -63.4306E+06     38.9803E+06    -43.7232E+06     12.2205E+06    -44.8213E+06         23.2782
            1744     8.83753E-03     91.0402E-03     719.598E-03     574.061E-03    -672.142E-03    -116.657E-03     55.7795E-03     682.394E-03        -1.25384     36.8811E-03    -18.2714E-03    -18.6097E-03    -18.0808E-03     36.3522E-03    -18.2714E-03     10.7766E-03     57.0460E+06     5.83725E+06    -65.3322E+06     34.9678E+06    -43.2539E+06     5.83725E+06    -46.7074E+06         23.4904
            1745     9.82080E-03     91.0451E-03     598.105E-03     365.353E-03    -373.426E-03    -211.847E-03     203.774E-03     598.105E-03    -351.967E-03     36.9081E-03    -18.1891E-03    -18.7190E-03    -18.0243E-03     36.2134E-03    -18.1891E-03     12.2535E-03     55.5422E+06    -2.80477E+06    -65.5413E+06     29.8362E+06    -39.8353E+06    -2.80477E+06    -49.0377E+06         23.7935
            1746     10.8019E-03     91.0597E-03     545.012E-03     382.216E-03    -370.283E-03    -267.665E-03     302.361E-03     522.250E-03     481.342E-03     36.8226E-03    -18.1056E-03    -18.7170E-03    -17.8386E-03     35.9442E-03    -18.1056E-03     13.8573E-03     47.9914E+06    -14.5270E+06    -69.3269E+06     20.9971E+06    -42.3326E+06    -14.5270E+06    -48.9709E+06         24.2925
            1747     11.7860E-03     91.0678E-03     660.698E-03     455.470E-03    -597.833E-03    -296.693E-03     359.558E-03     455.470E-03         1.06030     36.8096E-03    -17.8994E-03    -18.9102E-03    -17.7439E-03     35.7041E-03    -17.9602E-03     15.4541E-03     38.8748E+06    -40.1685E+06    -78.0638E+06     11.3867E+06    -50.5757E+06    -40.1685E+06    -49.5684E+06         25.3109
            1748     12.7670E-03     91.0840E-03     818.566E-03     397.727E-03    -732.289E-03    -299.868E-03     386.145E-03     397.727E-03         1.38600     38.5386E-03    -17.7252E-03    -20.8133E-03    -17.4780E-03     35.2640E-03    -17.7860E-03     25.7466E-03     39.7027E+06    -58.4646E+06    -78.5535E+06     3.53514E+06    -35.6632E+06    -65.1874E+06    -50.7215E+06         27.7931
            1749     13.7513E-03     91.1195E-03     845.321E-03     348.459E-03    -741.344E-03    -290.022E-03     393.999E-03     348.459E-03         1.42739     39.6625E-03    -17.5947E-03    -22.0678E-03    -16.4786E-03     34.0733E-03    -17.5947E-03     35.2013E-03     39.7852E+06    -64.1495E+06    -92.6156E+06     97.9180E+03    -24.4622E+06    -92.6156E+06    -49.5483E+06         33.9566
            1750     14.7358E-03     91.1468E-03     772.522E-03     306.463E-03    -650.124E-03    -274.601E-03     396.999E-03     306.463E-03         1.24922     53.4093E-03    -17.6403E-03    -35.7689E-03    -18.8863E-03     36.5266E-03    -17.6403E-03     67.5245E-03     66.6787E+06    -41.5441E+06    -81.6844E+06     1.53727E+06     23.5973E+06    -81.6844E+06    -43.4623E+06         47.0996
            1751     15.7116E-03     91.2641E-03     621.557E-03     269.890E-03    -494.755E-03    -263.132E-03     389.935E-03     269.890E-03     899.655E-03     135.008E-03    -17.4915E-03    -117.517E-03    -20.6243E-03     38.1158E-03    -17.4915E-03     241.076E-03     44.3268E+06    -24.5822E+06    -107.413E+06    -10.2032E+06     29.9478E+06    -107.413E+06    -25.9171E+06         68.5852
            1752     16.7460E-03     91.6580E-03     398.570E-03     217.648E-03    -317.454E-03    -222.416E-03     281.443E-03     239.737E-03     460.105E-03     398.878E-03    -17.7209E-03    -381.157E-03    -125.761E-03     143.482E-03    -17.7209E-03     725.545E-03     96.4230E+06     56.0294E+06    -79.5718E+06    -8.65106E+06     89.9365E+06    -8.40491E+06    -2.94578E+06         92.4500
            1753     981.470E-06     92.0402E-03         6.71470        -1.00257        -4.85749         3.92113        -2.06392        -1.00257         2.50531     37.1133E-03    -18.3766E-03    -18.7367E-03    -18.5850E-03     37.1044E-03    -18.5193E-03     1.34237E-03     72.0011E+06     58.3250E+06    -31.9980E+06     64.8930E+06    -31.3251E+06     64.7601E+06    -6.81902E+06         22.6755
            1754     1.96383E-03     92.0405E-03         2.52364         1.39525        -3.07935         1.27306        -1.85540         1.42188        -3.49452     36.7996E-03    -18.2585E-03    -18.5411E-03    -18.3150E-03     36.7665E-03    -18.4515E-03     2.56617E-03     69.1034E+06     54.7898E+06    -15.4621E+06     63.1058E+06    -12.2203E+06     57.5456E+06    -14.1874E+06         22.7034
            1755     2.94634E-03     92.0429E-03         1.98288         1.32457        -2.50122         1.14853        -1.69350         1.35120        -2.39570     36.7910E-03    -18.2628E-03    -18.5282E-03    -18.3410E-03     36.7153E-03    -18.3742E-03     4.02893E-03     69.0163E+06     54.2415E+06    -14.4685E+06     62.6591E+06    -8.11128E+06     54.2415E+06    -22.0439E+06         22.7408
            1756     3.92747E-03     92.0464E-03         1.99391         1.27367        -2.47263     920.281E-03        -1.39900         1.27367        -3.76634     36.7051E-03    -18.3045E-03    -18.4006E-03    -18.2478E-03     36.5676E-03    -18.3198E-03     5.43086E-03     70.8956E+06     48.8723E+06    -21.2763E+06     61.7934E+06    -12.1741E+06     48.8723E+06    -27.2380E+06         22.7904
            1757     4.91090E-03     92.0502E-03         1.72099         1.18176        -2.13522     699.503E-03        -1.11373         1.18176        -3.31781     36.6975E-03    -18.2682E-03    -18.4294E-03    -18.2130E-03     36.4812E-03    -18.2682E-03     6.85166E-03     71.6458E+06     43.9571E+06    -28.7736E+06     60.3384E+06    -17.4662E+06     43.9571E+06    -31.6679E+06         22.8579
            1758     5.89207E-03     92.0556E-03         1.65188         1.08116        -1.99577     446.169E-03    -790.054E-03         1.08116        -3.42901     36.6108E-03    -18.1674E-03    -18.4434E-03    -18.1039E-03     36.3190E-03    -18.2151E-03     7.96609E-03     72.5508E+06     38.3814E+06    -38.4443E+06     58.4966E+06    -24.3900E+06     38.3814E+06    -36.6327E+06         22.9481
            1759     6.87557E-03     92.0604E-03         1.27836     974.329E-03        -1.55577     211.907E-03    -489.313E-03     974.329E-03        -2.72792     36.5168E-03    -18.1119E-03    -18.4049E-03    -17.9785E-03     36.1382E-03    -18.1597E-03     9.03421E-03     73.2071E+06     34.5420E+06    -44.8929E+06     56.4058E+06    -28.0916E+06     34.5420E+06    -40.7850E+06         23.0670
            1760     7.85701E-03     92.0682E-03         1.04985     773.200E-03        -1.17036    -6.75025E-03    -206.436E-03     865.878E-03        -2.11218     36.5022E-03    -18.1016E-03    -18.4006E-03    -17.9354E-03     36.0370E-03    -18.1016E-03     10.0215E-03     68.1273E+06     27.6787E+06    -53.8552E+06     50.5780E+06    -36.3059E+06     27.6787E+06    -42.4636E+06         23.2243
            1761     8.84071E-03     92.0741E-03     760.032E-03     520.249E-03    -662.522E-03    -173.186E-03     30.9124E-03     760.032E-03        -1.13855     36.5603E-03    -18.0167E-03    -18.5436E-03    -17.9453E-03     35.9621E-03    -18.0167E-03     11.2980E-03     64.0563E+06     16.2971E+06    -55.6281E+06     43.9360E+06    -35.5078E+06     16.2971E+06    -44.3233E+06         23.4362
            1762     9.82164E-03     92.0850E-03     660.755E-03     367.182E-03    -446.657E-03    -298.269E-03     218.794E-03     660.755E-03    -294.043E-03     36.6874E-03    -17.9614E-03    -18.7260E-03    -17.9721E-03     35.9335E-03    -17.9614E-03     12.7475E-03     59.8973E+06     8.74162E+06    -55.9209E+06     37.4287E+06    -33.4523E+06     8.74162E+06    -45.3516E+06         23.7390
            1763     10.8056E-03     92.0927E-03     584.578E-03     423.783E-03    -465.560E-03    -376.197E-03     348.748E-03     570.251E-03     513.441E-03     36.6211E-03    -17.9088E-03    -18.7123E-03    -17.7828E-03     35.6916E-03    -17.9088E-03     14.1727E-03     52.4258E+06    -961.866E+03    -61.7258E+06     31.5105E+06    -40.8106E+06    -961.866E+03    -43.4896E+06         24.2356
            1764     11.7876E-03     92.1064E-03     686.436E-03     489.824E-03    -676.690E-03    -417.913E-03     427.658E-03     489.824E-03         1.05665     37.1534E-03    -17.8050E-03    -19.3484E-03    -18.0538E-03     35.8588E-03    -17.8050E-03     16.7877E-03     43.6917E+06    -22.3562E+06    -65.0559E+06     22.4833E+06    -43.8476E+06    -22.3562E+06    -42.4759E+06         25.2420
            1765     12.7692E-03     92.1206E-03     833.929E-03     419.800E-03    -802.936E-03    -427.514E-03     458.507E-03     419.800E-03         1.37492     38.3573E-03    -17.6603E-03    -20.6970E-03    -17.4515E-03     35.1119E-03    -17.6603E-03     25.7508E-03     41.2983E+06    -43.6212E+06    -64.3060E+06     10.7268E+06    -29.1992E+06    -48.1565E+06    -45.4497E+06         27.6922
            1766     13.7558E-03     92.1496E-03     852.320E-03     360.129E-03    -804.318E-03    -408.380E-03     456.382E-03     360.129E-03         1.41171     41.1729E-03    -17.5005E-03    -23.6724E-03    -17.9584E-03     35.4589E-03    -17.5005E-03     36.5778E-03     39.4778E+06    -60.4757E+06    -87.1041E+06    -1.32855E+06    -21.5386E+06    -85.2348E+06    -49.8050E+06         33.8109
            1767     14.7343E-03     92.1916E-03     773.611E-03     310.323E-03    -714.486E-03    -368.385E-03     427.510E-03     310.323E-03         1.25584     54.4016E-03    -17.5269E-03    -36.8747E-03    -18.0903E-03     35.6172E-03    -17.5269E-03     70.6459E-03     56.2636E+06    -50.7538E+06    -90.3879E+06    -11.9311E+06     17.4408E+06    -90.3879E+06    -44.7944E+06         46.9905
            1768     15.7270E-03     92.2922E-03     593.686E-03     269.765E-03    -546.418E-03    -312.661E-03     359.929E-03     269.765E-03     919.275E-03     122.822E-03    -17.5893E-03    -105.232E-03    -21.8337E-03     39.4230E-03    -17.5893E-03     216.755E-03     38.5568E+06    -52.8172E+06    -106.017E+06    -10.8337E+06    -3.42670E+06    -106.017E+06    -19.5822E+06         68.6134
            1769     16.7101E-03     92.6422E-03     364.634E-03     180.379E-03    -332.601E-03    -211.818E-03     180.574E-03     243.655E-03     492.441E-03     389.855E-03    -18.0913E-03    -371.764E-03    -125.148E-03     143.239E-03    -18.0913E-03     708.021E-03     102.971E+06     52.8306E+06    -75.7494E+06    -7.42788E+06     68.4392E+06     19.0412E+06    -2.26898E+06         92.8092
            1770     982.852E-06     93.0770E-03         7.48963    -598.765E-03        -6.05551         3.77411        -2.33999    -598.765E-03         3.52171     35.9479E-03    -17.8360E-03    -18.1119E-03    -17.9423E-03     35.9372E-03    -17.9948E-03     1.33602E-03     82.3152E+06     70.6676E+06    -21.0951E+06     74.4971E+06    -19.7122E+06     77.1028E+06    -5.60739E+06         22.6060
            1771     1.96515E-03     93.0775E-03         2.89562         1.54216        -3.61453         1.40642        -2.13496         1.55180        -3.65105     36.1036E-03    -17.9072E-03    -18.1964E-03    -18.1070E-03     36.0627E-03    -17.9557E-03     2.84658E-03     83.4556E+06     70.7340E+06     1.96520E+06     76.9037E+06     5.76139E+06     73.4898E+06    -15.8643E+06         22.6341
            1772     2.94665E-03     93.0801E-03         2.12175         1.46969        -2.78261         1.26109        -1.93159         1.47932        -2.04069     35.9812E-03    -17.9173E-03    -18.0639E-03    -17.9568E-03     35.8894E-03    -17.9326E-03     4.38742E-03     81.8777E+06     63.3685E+06    -1.03456E+06     74.8485E+06     5.99463E+06     63.3685E+06    -22.6934E+06         22.6709
            1773     3.93042E-03     93.0826E-03         2.02903         1.34402        -2.58127         1.01209        -1.61567         1.39536        -3.61487     35.8687E-03    -17.8815E-03    -17.9872E-03    -17.8072E-03     35.7040E-03    -17.8968E-03     5.88734E-03     83.0253E+06     60.1369E+06    -9.13793E+06     72.6220E+06     1.26539E+06     60.1369E+06    -29.0698E+06         22.7191
            1774     4.91206E-03     93.0870E-03         1.67396         1.24361        -2.14872     765.971E-03        -1.29207         1.29495        -3.01389     35.8506E-03    -17.8519E-03    -17.9987E-03    -17.7495E-03     35.6013E-03    -17.8519E-03     7.28244E-03     84.1783E+06     56.8516E+06    -19.4139E+06     71.4735E+06    -6.70905E+06     56.8516E+06    -33.8843E+06         22.7844
            1775     5.89583E-03     93.0918E-03         1.57771         1.13445        -1.98093     485.084E-03    -938.079E-03         1.18422        -3.20219     35.8956E-03    -17.8003E-03    -18.0954E-03    -17.7575E-03     35.5578E-03    -17.8003E-03     8.47098E-03     85.1681E+06     51.3150E+06    -28.0629E+06     69.9085E+06    -12.8033E+06     51.3150E+06    -38.4256E+06         22.8723
            1776     6.87730E-03     93.0971E-03         1.17270         1.01639        -1.50267     222.570E-03    -602.322E-03         1.06617        -2.46520     35.9863E-03    -17.7659E-03    -18.2204E-03    -17.7640E-03     35.5299E-03    -17.7659E-03     9.85261E-03     82.1238E+06     46.0497E+06    -36.4566E+06     66.4207E+06    -20.7535E+06     46.0497E+06    -39.9172E+06         22.9891
            1777     7.86120E-03     93.1039E-03         1.02946     727.815E-03        -1.11505    -19.8931E-03    -283.905E-03     946.025E-03        -1.90079     36.0752E-03    -17.7396E-03    -18.3356E-03    -17.7643E-03     35.5040E-03    -17.7396E-03     11.0275E-03     78.4334E+06     41.0459E+06    -44.5302E+06     63.4243E+06    -29.5210E+06     41.0459E+06    -39.9305E+06         23.1441
            1778     8.84253E-03     93.1109E-03     828.313E-03     382.807E-03    -609.212E-03    -212.630E-03    -13.7751E-03     828.313E-03    -935.202E-03     36.1061E-03    -17.6602E-03    -18.4459E-03    -17.7018E-03     35.3620E-03    -17.6602E-03     12.5487E-03     72.3851E+06     27.0244E+06    -45.7834E+06     57.1879E+06    -30.5861E+06     27.0244E+06    -39.2965E+06         23.3536
            1779     9.82702E-03     93.1203E-03     717.144E-03     337.981E-03    -491.150E-03    -359.414E-03     206.245E-03     717.144E-03    -138.542E-03     36.2513E-03    -17.6065E-03    -18.6448E-03    -17.7067E-03     35.3132E-03    -17.6065E-03     14.1690E-03     64.2426E+06     17.1376E+06    -45.3626E+06     47.2864E+06    -28.4064E+06     17.1376E+06    -39.0091E+06         23.6553
            1780     10.8082E-03     93.1296E-03     631.951E-03     463.254E-03    -573.528E-03    -455.875E-03     362.431E-03     615.121E-03     650.306E-03     36.6564E-03    -17.5824E-03    -19.0740E-03    -17.9609E-03     35.5433E-03    -17.5824E-03     15.5251E-03     56.5346E+06     6.51185E+06    -55.4094E+06     38.7188E+06    -37.5936E+06     6.51185E+06    -40.2924E+06         24.1501
            1781     11.7913E-03     93.1417E-03     734.983E-03     523.839E-03    -786.812E-03    -509.928E-03     458.099E-03     523.839E-03         1.16425     36.8858E-03    -17.5044E-03    -19.3813E-03    -17.8588E-03     35.3633E-03    -17.5044E-03     18.1650E-03     48.9218E+06    -14.5508E+06    -58.6487E+06     33.1399E+06    -42.8668E+06    -14.5508E+06    -37.5250E+06         25.1465
            1782     12.7754E-03     93.1569E-03     883.337E-03     444.150E-03    -909.193E-03    -522.139E-03     496.282E-03     444.150E-03         1.47506     38.9727E-03    -17.4462E-03    -21.5265E-03    -18.4504E-03     35.8965E-03    -17.4462E-03     26.1273E-03     47.9521E+06    -28.3782E+06    -44.5991E+06     25.3698E+06    -20.3278E+06    -30.0672E+06    -37.3768E+06         27.5666
            1783     13.7544E-03     93.1852E-03     899.021E-03     376.562E-03    -908.237E-03    -495.305E-03     486.089E-03     376.562E-03         1.51686     42.5901E-03    -17.3899E-03    -25.2002E-03    -19.2441E-03     36.6340E-03    -17.3899E-03     38.0784E-03     40.4215E+06    -41.4725E+06    -68.7392E+06     11.9320E+06    -14.8523E+06    -66.8699E+06    -39.0914E+06         33.6249
            1784     14.7388E-03     93.2311E-03     806.017E-03     321.184E-03    -811.378E-03    -434.700E-03     429.340E-03     321.184E-03         1.36673     52.7158E-03    -17.4481E-03    -35.2677E-03    -19.4950E-03     36.9431E-03    -17.4481E-03     65.6860E-03     50.7507E+06    -43.8139E+06    -91.6445E+06    -5.38882E+06     12.3256E+06    -91.6445E+06    -39.7102E+06         46.7953
            1785     15.7217E-03     93.3157E-03     596.849E-03     279.251E-03    -623.764E-03    -341.798E-03     314.883E-03     279.251E-03         1.02696     129.656E-03    -17.7936E-03    -111.862E-03    -28.8103E-03     46.6039E-03    -17.7936E-03     226.234E-03     44.9521E+06    -75.1306E+06    -110.129E+06    -10.0264E+06    -25.2297E+06    -105.051E+06    -37.2544E+06         68.5398
            1786     16.6618E-03     93.7186E-03     371.033E-03     157.421E-03    -376.321E-03    -207.896E-03     99.3469E-03     260.683E-03     559.896E-03     391.174E-03    -18.4242E-03    -372.750E-03    -119.506E-03     137.930E-03    -18.4242E-03     717.378E-03     105.088E+06     27.0664E+06    -74.6765E+06    -9.15671E+06     45.3664E+06     21.2682E+06    -18.0197E+06         92.9714
            1787     983.260E-06     94.1122E-03         7.92508    -211.534E-03        -6.89259         3.58720        -2.55472    -211.534E-03         4.21435     34.8181E-03    -17.2466E-03    -17.5715E-03    -17.4882E-03     34.8029E-03    -17.3147E-03     1.51907E-03     94.3018E+06     84.8052E+06    -2.80702E+06     92.5657E+06    -1.07095E+06     84.8052E+06    -8.71069E+06         22.5109
            1788     1.96575E-03     94.1144E-03         3.16422         1.65456        -4.00413         1.52157        -2.36149         1.65456        -3.67013     34.8152E-03    -17.3175E-03    -17.4976E-03    -17.4203E-03     34.7668E-03    -17.3465E-03     3.08907E-03     92.4152E+06     81.2110E+06     15.7284E+06     87.5110E+06     20.6326E+06     81.2110E+06    -16.9359E+06         22.5377
            1789     2.94961E-03     94.1155E-03         2.23116         1.58262        -3.01072         1.34941        -2.12897         1.58262        -1.71905     34.8190E-03    -17.3246E-03    -17.4944E-03    -17.3556E-03     34.7054E-03    -17.3499E-03     4.75842E-03     94.0659E+06     80.3254E+06     13.0342E+06     86.1668E+06     20.9334E+06     80.3254E+06    -23.3210E+06         22.5736
            1790     3.93166E-03     94.1187E-03         2.09461         1.35583        -2.66263         1.09586        -1.80226         1.49421        -3.40187     34.8735E-03    -17.3180E-03    -17.5555E-03    -17.3468E-03     34.6648E-03    -17.3180E-03     6.52686E-03     93.9202E+06     73.2273E+06     3.53314E+06     83.2409E+06     14.2125E+06     73.2273E+06    -28.8941E+06         22.6201
            1791     4.91556E-03     94.1226E-03         1.67289         1.25003        -2.16331     825.233E-03        -1.45403         1.38841        -2.68969     34.7955E-03    -17.2768E-03    -17.5187E-03    -17.2090E-03     34.4858E-03    -17.2768E-03     7.96527E-03     94.7323E+06     66.5483E+06    -6.75874E+06     80.2036E+06     7.77005E+06     66.5483E+06    -35.4170E+06         22.6820
            1792     5.89814E-03     94.1269E-03         1.55514         1.11793        -1.95378     529.331E-03        -1.08070         1.27066        -2.93179     34.8308E-03    -17.2291E-03    -17.6016E-03    -17.1539E-03     34.3830E-03    -17.2291E-03     9.56302E-03     92.1143E+06     58.9516E+06    -20.4859E+06     77.0848E+06    -5.45641E+06     58.9516E+06    -38.2037E+06         22.7658
            1793     6.88234E-03     94.1332E-03         1.16069     948.553E-03        -1.43885     246.581E-03    -721.285E-03         1.14509        -2.15959     34.9955E-03    -17.1803E-03    -17.8152E-03    -17.2150E-03     34.3953E-03    -17.1803E-03     11.1283E-03     87.5885E+06     50.9533E+06    -27.8231E+06     72.7296E+06    -12.9641E+06     50.9533E+06    -38.6192E+06         22.8788
            1794     7.86441E-03     94.1386E-03         1.03278     628.981E-03        -1.03581    -9.29018E-03    -381.950E-03         1.01719        -1.63185     35.2333E-03    -17.1627E-03    -18.0706E-03    -17.2761E-03     34.4389E-03    -17.1627E-03     12.8162E-03     83.2557E+06     44.9167E+06    -40.1621E+06     68.6893E+06    -25.5958E+06     44.9167E+06    -39.6393E+06         23.0308
            1795     8.84878E-03     94.1473E-03     891.665E-03     216.136E-03    -527.080E-03    -221.380E-03    -89.5634E-03     891.665E-03    -676.814E-03     35.4368E-03    -17.1073E-03    -18.3296E-03    -17.3499E-03     34.4572E-03    -17.1073E-03     14.3152E-03     77.6465E+06     32.7422E+06    -41.4209E+06     65.4444E+06    -29.2188E+06     32.7422E+06    -36.0371E+06         23.2390
            1796     9.83065E-03     94.1541E-03     772.621E-03     279.248E-03    -511.284E-03    -381.940E-03     149.904E-03     772.621E-03     92.2074E-03     35.8591E-03    -17.0855E-03    -18.7736E-03    -17.5152E-03     34.6007E-03    -17.0855E-03     16.2637E-03     71.5907E+06     26.3300E+06    -35.6281E+06     60.0210E+06    -24.0584E+06     26.3300E+06    -33.1950E+06         23.5416
            1797     10.8147E-03     94.1672E-03     673.685E-03     500.689E-03    -678.954E-03    -492.861E-03     325.350E-03     662.931E-03     856.626E-03     36.3983E-03    -17.1136E-03    -19.2848E-03    -17.8142E-03     34.9278E-03    -17.1136E-03     17.7969E-03     62.7482E+06     19.8032E+06    -45.1346E+06     50.5094E+06    -32.8957E+06     19.8032E+06    -33.5567E+06         24.0377
            1798     11.7963E-03     94.1760E-03     780.457E-03     564.408E-03    -901.291E-03    -554.747E-03     433.913E-03     564.408E-03         1.35087     37.3118E-03    -17.0656E-03    -20.2462E-03    -18.4029E-03     35.4685E-03    -17.0656E-03     20.1302E-03     50.7890E+06    -9.46601E+06    -55.9998E+06     38.9832E+06    -44.1940E+06    -9.46601E+06    -32.8307E+06         25.0285
            1799     12.7782E-03     94.1933E-03     937.274E-03     478.494E-03        -1.02376    -566.170E-03     479.688E-03     478.494E-03         1.65733     40.2094E-03    -17.0864E-03    -23.1230E-03    -19.2890E-03     36.3753E-03    -17.0864E-03     29.5423E-03     49.7821E+06    -19.7012E+06    -40.3465E+06     28.4243E+06    -14.0027E+06    -24.6872E+06    -31.8525E+06         27.4158
            1800     13.7593E-03     94.2263E-03     950.544E-03     406.028E-03        -1.01856    -533.302E-03     465.287E-03     406.028E-03         1.69460     43.5456E-03    -17.1645E-03    -26.3812E-03    -19.6892E-03     36.8536E-03    -17.1645E-03     40.9114E-03     42.6438E+06    -33.8455E+06    -51.5305E+06     19.9935E+06    -13.5919E+06    -49.1338E+06     -31.766E+06         33.4151
            1801     14.7390E-03     94.2635E-03     851.036E-03     347.611E-03    -916.298E-03    -458.607E-03     393.345E-03     347.611E-03         1.54656     57.3918E-03    -17.3045E-03    -40.0872E-03    -21.4766E-03     38.7812E-03    -17.3045E-03     74.4863E-03     67.5754E+06    -29.9529E+06    -71.1778E+06     15.2976E+06     19.9282E+06    -68.7810E+06    -34.4126E+06         46.5516
            1802     15.7105E-03     94.3677E-03     617.868E-03     305.821E-03    -714.095E-03    -350.088E-03     253.862E-03     305.821E-03         1.18369     132.865E-03    -17.3914E-03    -115.474E-03    -20.2687E-03     37.6601E-03    -17.3914E-03     236.904E-03     56.3752E+06    -65.3621E+06    -115.828E+06    -1.45017E+06    -29.4767E+06    -93.8880E+06    -33.0702E+06         68.5309
            1803     16.7557E-03     94.7534E-03     395.710E-03     159.828E-03    -426.922E-03    -208.230E-03     40.7898E-03     296.057E-03     635.202E-03     393.385E-03    -17.7560E-03    -375.629E-03    -120.468E-03     138.224E-03    -17.7560E-03     718.267E-03     105.521E+06     28.7734E+06    -85.3166E+06    -7.78735E+06     23.7881E+06     32.9774E+06    -13.7166E+06         93.3120
            1804     983.340E-06     95.1477E-03         7.98446     130.313E-03        -7.30696         3.39338        -2.71589     130.313E-03         4.55630     33.3412E-03    -16.5072E-03    -16.8340E-03    -16.6257E-03     33.3200E-03    -16.6943E-03     1.92410E-03     101.943E+06     96.8147E+06     13.8148E+06     99.1589E+06     15.7547E+06     97.6587E+06    -11.1267E+06         22.3816
            1805     1.96785E-03     95.1482E-03         3.29082         1.73245        -4.21815         1.61484        -2.54216         1.73245        -3.56880     33.0856E-03    -16.4543E-03    -16.6313E-03    -16.4591E-03     33.0165E-03    -16.5574E-03     3.53854E-03     103.116E+06     89.8437E+06     33.0208E+06     97.1110E+06     38.4859E+06     90.3834E+06    -17.0827E+06         22.4061
            1806     2.95121E-03     95.1503E-03         2.27402         1.66231        -3.14936         1.41713        -2.29247         1.66231        -1.43863     33.2147E-03    -16.4825E-03    -16.7322E-03    -16.5481E-03     33.0558E-03    -16.5077E-03     5.48700E-03     100.568E+06     84.4006E+06     25.0555E+06     91.9629E+06     33.6604E+06     84.4006E+06    -23.5541E+06         22.4400
            1807     3.93566E-03     95.1533E-03         2.10954         1.38208        -2.71841         1.16960        -1.96780         1.57141        -3.13748     33.2723E-03    -16.4839E-03    -16.7884E-03    -16.5053E-03     32.9893E-03    -16.4839E-03     7.41974E-03     100.580E+06     78.6833E+06     16.4841E+06     89.2575E+06     27.8065E+06     78.6833E+06    -28.4150E+06         22.4837
            1808     4.91896E-03     95.1566E-03         1.64783         1.27372        -2.18667     879.475E-03        -1.60765         1.46305        -2.37156     33.3127E-03    -16.4384E-03    -16.8744E-03    -16.4332E-03     32.8716E-03    -16.4384E-03     9.27053E-03     99.0885E+06     69.8691E+06     6.53183E+06     85.0729E+06     20.5475E+06     69.8691E+06    -33.1497E+06         22.5421
            1809     5.90351E-03     95.1614E-03         1.52627         1.09630        -1.92609     579.961E-03        -1.22497         1.34150        -2.62176     33.3887E-03    -16.4038E-03    -16.9849E-03    -16.3580E-03     32.7618E-03    -16.4038E-03     11.0786E-03     94.4059E+06     61.3144E+06    -11.9085E+06     79.4216E+06     3.07584E+06     61.3144E+06    -36.9186E+06         22.6219
            1810     6.88697E-03     95.1665E-03         1.21255     828.258E-03        -1.38824     291.307E-03    -851.292E-03         1.21255        -1.84322     33.5366E-03    -16.3357E-03    -17.2009E-03    -16.3267E-03     32.6624E-03    -16.3357E-03     13.0756E-03     88.8125E+06     48.7818E+06    -22.9431E+06     74.5920E+06    -8.72263E+06     48.7818E+06    -37.1245E+06         22.7313
            1811     7.87196E-03     95.1737E-03         1.08115     484.299E-03    -961.963E-03     25.6103E-03    -503.274E-03         1.08115        -1.33369     33.9160E-03    -16.3163E-03    -17.5997E-03    -16.4753E-03     32.7916E-03    -16.3163E-03     14.9621E-03     80.6726E+06     42.6795E+06    -32.3327E+06     67.3566E+06    -19.0167E+06     42.6795E+06    -36.3467E+06         22.8820
            1812     8.85487E-03     95.1801E-03     952.254E-03     45.3155E-03    -433.697E-03    -188.847E-03    -199.534E-03     952.254E-03    -393.698E-03     34.4956E-03    -16.2869E-03    -18.2087E-03    -16.7782E-03     33.0651E-03    -16.2869E-03     16.9871E-03     73.5490E+06     29.1822E+06    -42.9911E+06     60.9874E+06    -30.4296E+06     29.1822E+06    -36.0654E+06         23.0923
            1813     9.83922E-03     95.1905E-03     829.879E-03     201.944E-03    -515.199E-03    -361.403E-03     48.1480E-03     829.879E-03     348.995E-03     35.1998E-03    -16.2838E-03    -18.9160E-03    -17.0915E-03     33.3753E-03    -16.2838E-03     19.4002E-03     67.3707E+06     21.2484E+06    -33.6759E+06     56.9770E+06    -23.2823E+06     21.2484E+06    -30.6622E+06         23.3999
            1814     10.8215E-03     95.2000E-03     718.491E-03     529.106E-03    -778.908E-03    -478.240E-03     230.231E-03     716.699E-03         1.09307     36.0291E-03    -16.4058E-03    -19.6233E-03    -17.5361E-03     33.9419E-03    -16.4058E-03     21.0469E-03     57.7931E+06     25.8947E+06    -39.9238E+06     50.1963E+06    -32.3269E+06     25.8947E+06    -25.7195E+06         23.9030
            1815     11.8053E-03     95.2134E-03     818.137E-03     606.254E-03        -1.00231    -541.223E-03     348.214E-03     615.091E-03         1.56954     37.8775E-03    -16.4228E-03    -21.4547E-03    -18.7135E-03     35.1364E-03    -16.4228E-03     24.6545E-03     46.3506E+06    -1.25650E+06    -49.6194E+06     39.5051E+06    -42.0165E+06    -2.01396E+06    -24.2680E+06         24.8934
            1816     12.7847E-03     95.2303E-03     970.253E-03     526.646E-03        -1.12544    -553.018E-03     397.827E-03     526.646E-03         1.86396     40.6184E-03    -16.4737E-03    -24.1447E-03    -18.9429E-03     35.4166E-03    -16.4737E-03     34.5172E-03     45.8209E+06    -16.2205E+06    -30.2530E+06     29.1533E+06    -9.53083E+06    -20.2750E+06    -25.7626E+06         27.2541
            1817     13.7673E-03     95.2625E-03     985.968E-03     452.438E-03        -1.11414    -513.895E-03     385.722E-03     452.438E-03         1.89301     44.8666E-03    -16.6391E-03    -28.2276E-03    -19.5670E-03     36.2061E-03    -16.6391E-03     47.0615E-03     39.3438E+06    -27.8036E+06    -38.9382E+06     19.8697E+06    -13.2110E+06    -34.0567E+06    -28.2536E+06         33.2006
            1818     14.7493E-03     95.3030E-03     883.238E-03     393.316E-03        -1.00566    -434.527E-03     312.106E-03     393.316E-03         1.73198     57.7769E-03    -16.7235E-03    -41.0534E-03    -18.5689E-03     35.2925E-03    -16.7235E-03     80.4537E-03     66.0069E+06    -25.6092E+06    -53.7668E+06     10.0925E+06     27.9085E+06    -51.3700E+06    -27.7615E+06         46.3379
            1819     15.7423E-03     95.4074E-03     638.813E-03     353.311E-03    -790.303E-03    -324.824E-03     173.334E-03     353.311E-03         1.33459     125.524E-03    -17.0242E-03    -108.500E-03    -26.0070E-03     43.0312E-03    -17.0242E-03     220.516E-03     42.7716E+06    -57.3916E+06    -121.616E+06    -7.02070E+06     -49.019E+06    -80.1964E+06    -12.2006E+06         68.3029
            1820     16.7093E-03     95.7331E-03     436.917E-03     197.116E-03    -473.348E-03    -204.980E-03     15.5048E-03     350.161E-03     722.149E-03     382.141E-03    -17.7275E-03    -364.414E-03    -118.654E-03     136.381E-03    -17.7275E-03     697.191E-03     101.221E+06     46.5162E+06    -95.2607E+06    -7.06349E+06     8.82005E+06     50.7202E+06     3.31363E+06         93.3263
            1821     985.023E-06     96.1802E-03         7.69567     414.742E-03        -7.31613         3.20733        -2.82778     414.742E-03         4.55248     31.0270E-03    -15.3963E-03    -15.6307E-03    -15.4157E-03     30.9954E-03    -15.5797E-03     2.10178E-03     109.040E+06     104.285E+06     32.0274E+06     105.252E+06     34.5363E+06     105.564E+06    -10.5926E+06         22.2108
            1822     1.96966E-03     96.1808E-03         3.26874         1.78482        -4.26934         1.67849        -2.67909         1.78482        -3.36839     30.9522E-03    -15.3543E-03    -15.5979E-03    -15.4159E-03     30.8443E-03    -15.4284E-03     4.29401E-03     109.884E+06     97.7237E+06     48.7411E+06     103.835E+06     54.2508E+06     98.2634E+06    -17.2340E+06         22.2334
            1823     2.95493E-03     96.1830E-03         2.25541         1.71774        -3.20443         1.47426        -2.42327         1.71774        -1.22172     31.0495E-03    -15.3864E-03    -15.6632E-03    -15.4292E-03     30.8155E-03    -15.3864E-03     6.46597E-03     108.586E+06     89.8307E+06     39.4986E+06     100.515E+06     47.5696E+06     89.8307E+06    -21.9276E+06         22.2638
            1824     3.93941E-03     96.1855E-03         2.08096         1.41044        -2.75359         1.22261        -2.11154         1.62675        -2.85035     31.0955E-03    -15.3513E-03    -15.7442E-03    -15.3455E-03     30.6968E-03    -15.3513E-03     8.49585E-03     106.450E+06     82.2800E+06     28.8176E+06     95.0563E+06     40.2117E+06     82.2800E+06    -27.3401E+06         22.3043
            1825     4.92515E-03     96.1892E-03         1.61352         1.30177        -2.21036     935.068E-03        -1.74822         1.51807        -2.07292     31.1805E-03    -15.2908E-03    -15.8897E-03    -15.2598E-03     30.5506E-03    -15.2908E-03     10.6855E-03     100.875E+06     70.4933E+06     16.3269E+06     88.3259E+06     28.8757E+06     70.4933E+06    -29.9770E+06         22.3603
            1826     5.90954E-03     96.1936E-03         1.49194         1.08347        -1.91092     634.993E-03        -1.36700         1.39650        -2.30359     31.3918E-03    -15.2425E-03    -16.1493E-03    -15.2371E-03     30.4795E-03    -15.2425E-03     12.9179E-03     92.4670E+06     59.1922E+06    -96.9892E+03     79.5933E+06     12.7766E+06     59.1922E+06    -32.0147E+06         22.4385
            1827     6.89537E-03     96.1985E-03         1.26774     725.238E-03        -1.36628     350.157E-03    -991.204E-03         1.26774        -1.53910     31.7497E-03    -15.1942E-03    -16.5555E-03    -15.2877E-03     30.4819E-03    -15.1942E-03     15.3043E-03     82.7120E+06     45.1883E+06    -18.2701E+06     69.8125E+06    -5.37059E+06     45.1883E+06    -33.6081E+06         22.5476
            1828     7.87978E-03     96.2055E-03         1.13720     383.349E-03    -932.742E-03     91.9152E-03    -641.309E-03         1.13720        -1.04170     32.2450E-03    -15.1601E-03    -17.0849E-03    -15.4485E-03     30.6086E-03    -15.1601E-03     17.5377E-03     72.6279E+06     33.3380E+06    -26.3415E+06     61.5428E+06    -15.2565E+06     33.3380E+06    -31.0926E+06         22.7009
            1829     8.86533E-03     96.2132E-03         1.00934    -51.4687E-03    -413.913E-03    -124.512E-03    -340.869E-03         1.00934    -131.460E-03     33.0672E-03    -15.1765E-03    -17.8907E-03    -15.8147E-03     30.9912E-03    -15.1765E-03     19.9938E-03     62.3799E+06     24.4872E+06    -37.0540E+06     51.3225E+06    -25.9966E+06     24.4872E+06    -31.1688E+06         22.9180
            1830     9.84897E-03     96.2225E-03     887.884E-03     153.506E-03    -544.527E-03    -293.891E-03    -97.1296E-03     887.884E-03     584.715E-03     34.1065E-03    -15.1763E-03    -18.9303E-03    -16.3159E-03     31.4922E-03    -15.1763E-03     22.8378E-03     49.0658E+06     6.28968E+06    -40.1904E+06     40.0283E+06    -31.1529E+06     6.28968E+06    -26.6639E+06         23.2370
            1831     10.8337E-03     96.2347E-03     775.679E-03     537.767E-03    -865.614E-03    -411.321E-03     83.4745E-03     775.679E-03         1.30273     35.6425E-03    -15.3459E-03    -20.2966E-03    -17.2459E-03     32.5918E-03    -15.3459E-03     25.2763E-03     38.3078E+06     9.58431E+06    -37.8001E+06     30.9057E+06    -32.3631E+06     11.5495E+06    -18.9367E+06         23.7544
            1832     11.8151E-03     96.2472E-03     847.163E-03     635.003E-03        -1.08175    -473.450E-03     198.897E-03     674.966E-03         1.75744     37.3762E-03    -15.4822E-03    -21.8940E-03    -17.9976E-03     33.4797E-03    -15.4822E-03     29.1898E-03     34.1155E+06    -1.37431E+06    -45.1971E+06     26.1600E+06    -38.4493E+06    -166.626E+03    -20.2509E+06         24.7535
            1833     12.7988E-03     96.2680E-03     967.281E-03     587.588E-03        -1.19625    -480.827E-03     251.860E-03     587.588E-03         2.02986     40.5895E-03    -15.5948E-03    -24.9947E-03    -18.8440E-03     34.4388E-03    -15.5948E-03     37.9804E-03      40.605E+06    -13.3407E+06    -27.6286E+06     21.2425E+06    -7.50864E+06    -14.0982E+06    -20.1874E+06         27.1007
            1834     13.7819E-03     96.2945E-03     986.181E-03     514.687E-03        -1.18123    -442.236E-03     247.191E-03     514.687E-03         2.04906     45.2877E-03    -15.8324E-03    -29.4554E-03    -19.8145E-03     35.6469E-03    -15.8324E-03     49.9343E-03     30.2525E+06    -23.9971E+06    -32.1172E+06     9.71337E+06    -8.11689E+06    -27.4583E+06    -18.7863E+06         32.9874
            1835     14.7599E-03     96.3478E-03     877.544E-03     456.833E-03        -1.06070    -369.164E-03     186.006E-03     456.833E-03         1.85301     54.8939E-03    -16.1076E-03    -38.7862E-03    -20.1667E-03     36.2744E-03    -16.1076E-03     73.1641E-03     54.5213E+06    -19.4642E+06    -54.4556E+06    -9.22957E+06     27.5710E+06    -37.7398E+06    -18.5264E+06         46.0794
            1836     15.7492E-03     96.4179E-03     636.797E-03     419.237E-03    -826.751E-03    -269.393E-03     79.4387E-03     419.237E-03         1.41729     137.983E-03    -16.6779E-03    -121.305E-03    -33.0471E-03     49.7251E-03    -16.6779E-03     241.295E-03     38.4077E+06    -45.9589E+06    -140.584E+06    -20.9043E+06    -66.4572E+06    -60.7734E+06    -9.84358E+06         68.1741
            1837     16.6755E-03     96.8625E-03     478.806E-03     231.848E-03    -494.343E-03    -197.162E-03    -4.48623E-03     417.959E-03     754.400E-03     383.413E-03    -17.5214E-03    -365.892E-03    -115.312E-03     132.833E-03    -17.5214E-03     703.856E-03     96.8268E+06     50.7152E+06    -108.261E+06    -4.81509E+06    -6.61870E+06     50.7152E+06    -1.15551E+06         93.3813
            1838     986.317E-06     97.2097E-03         7.11127     674.530E-03        -7.01289         2.99441        -2.89604     674.530E-03         4.27214     27.9787E-03    -13.8260E-03    -14.1527E-03    -14.1026E-03     27.9286E-03    -13.8260E-03     2.59499E-03     111.422E+06     105.601E+06     50.2615E+06     108.847E+06     52.4007E+06     106.036E+06    -8.25291E+06         21.9957
            1839     1.97288E-03     97.2113E-03         3.12695         1.81061        -4.18376         1.71628        -2.77309         1.81061        -3.09015     28.1900E-03    -13.9408E-03    -14.2492E-03    -14.1016E-03     28.0424E-03    -13.9408E-03     4.85156E-03     111.359E+06     99.3000E+06     62.3859E+06     104.235E+06     69.5092E+06     99.3000E+06    -16.7289E+06         22.0174
            1840     2.95883E-03     97.2127E-03         2.18004         1.74679        -3.19177         1.50519        -2.51692         1.74679        -1.06756     28.1990E-03    -13.9389E-03    -14.2600E-03    -13.9482E-03     27.8872E-03    -13.9389E-03     7.12530E-03     109.577E+06     89.9125E+06     50.3038E+06     100.529E+06     59.3514E+06     89.9125E+06    -20.9738E+06         22.0455
            1841     3.94576E-03     97.2157E-03         2.03314         1.42861        -2.75842         1.26698        -2.22136         1.65772        -2.55982     28.2540E-03    -13.8615E-03    -14.3925E-03    -13.8278E-03     27.6893E-03    -13.8615E-03     9.59646E-03     102.797E+06     75.3957E+06     39.8813E+06     92.7464E+06     49.9317E+06     75.3957E+06    -22.7975E+06         22.0840
            1842     4.93147E-03     97.2187E-03         1.58057         1.31361        -2.22993     979.026E-03        -1.86643         1.55166        -1.80662     28.3970E-03    -13.7889E-03    -14.6080E-03    -13.7301E-03     27.5191E-03    -13.7889E-03     12.0365E-03     93.4662E+06     61.7387E+06     25.3408E+06     82.0559E+06     36.7511E+06     61.7387E+06    -25.2890E+06         22.1398
            1843     5.91919E-03     97.2228E-03         1.46185         1.08036        -1.91054     694.319E-03        -1.49559         1.43294        -2.00517     28.8235E-03    -13.7442E-03    -15.0793E-03    -13.7943E-03     27.5385E-03    -13.7442E-03     14.6630E-03     81.8670E+06     49.9084E+06     7.78419E+06     72.0347E+06     17.6165E+06     49.9084E+06    -25.0862E+06         22.2201
            1844     6.90474E-03     97.2285E-03         1.30805     667.090E-03        -1.37638     418.983E-03        -1.12827         1.30805        -1.26786     29.4615E-03    -13.7290E-03    -15.7325E-03    -13.9851E-03     27.7140E-03    -13.7290E-03     17.3127E-03     69.8586E+06     38.8354E+06    -8.46415E+06     60.5209E+06     873.567E+03     38.8354E+06    -25.3267E+06         22.3343
            1845     7.89164E-03     97.2347E-03         1.18189     358.843E-03    -975.797E-03     174.917E-03    -791.870E-03         1.18189    -791.520E-03     30.2462E-03    -13.7199E-03    -16.5263E-03    -14.2191E-03     27.9390E-03    -13.7199E-03     20.1182E-03     56.8700E+06     23.1211E+06    -25.0566E+06     48.2684E+06    -16.4550E+06     23.1211E+06    -25.0149E+06         22.4965
            1846     8.87702E-03     97.2435E-03         1.05882    -8.65957E-03    -526.524E-03    -30.9691E-03    -504.214E-03         1.05882     69.3624E-03     31.2717E-03    -13.7635E-03    -17.5081E-03    -14.6216E-03     28.3852E-03    -13.7635E-03     22.9032E-03     42.9587E+06     14.7319E+06    -29.5001E+06     36.1415E+06    -22.6829E+06     14.7319E+06    -20.8619E+06         22.7279
            1847     9.86314E-03     97.2532E-03     942.257E-03     178.001E-03    -644.284E-03    -191.011E-03    -275.273E-03     942.257E-03     756.615E-03     32.9778E-03    -13.8727E-03    -19.1052E-03    -15.5611E-03     29.4338E-03    -13.8727E-03     26.1312E-03     29.0575E+06     5.69119E+06    -41.6932E+06     23.6253E+06    -36.2611E+06     5.69119E+06    -18.4262E+06         23.0677
            1848     10.8469E-03     97.2660E-03     834.868E-03     522.534E-03    -932.439E-03    -301.328E-03    -108.578E-03     834.868E-03         1.42852     34.8133E-03    -14.0658E-03    -20.7476E-03    -16.6045E-03     30.6702E-03    -14.0658E-03     29.1119E-03     23.1366E+06     3.09262E+06    -38.6892E+06     17.0892E+06    -34.6069E+06     5.05777E+06    -14.9527E+06         23.6113
            1849     11.8305E-03     97.2826E-03     862.688E-03     648.920E-03        -1.13120    -357.790E-03    -562.742E-06     738.766E-03         1.86122     36.9045E-03    -14.3168E-03    -22.5877E-03    -17.8793E-03     32.1961E-03    -14.3168E-03     32.0647E-03     18.6647E+06    -5.23003E+06    -37.8205E+06     8.36064E+06    -33.7996E+06     1.05321E+06    -12.9751E+06         24.6374
            1850     12.8137E-03     97.2975E-03     921.537E-03     655.759E-03        -1.23097    -362.487E-03     53.0533E-03     655.759E-03         2.10457     41.2301E-03    -14.5847E-03    -26.6454E-03    -19.5957E-03     34.1804E-03    -14.5847E-03     41.0784E-03     23.9925E+06    -14.8576E+06    -33.3743E+06    -5.08178E+06    -8.61812E+06    -10.5395E+06    -13.0292E+06         26.9858
            1851     13.7893E-03     97.3401E-03     936.184E-03     586.601E-03        -1.20776    -329.298E-03     57.7261E-03     586.601E-03         2.10152     45.3357E-03    -14.9150E-03    -30.4207E-03    -20.4534E-03     35.3683E-03    -14.9150E-03     51.0823E-03     17.9894E+06    -27.5873E+06    -32.7849E+06    -10.6924E+06    -3.59798E+06    -28.0924E+06    -14.2249E+06         32.8293
            1852     14.7758E-03     97.3719E-03     832.178E-03     531.495E-03        -1.07835    -273.632E-03     27.4627E-03     531.495E-03         1.88174     59.8128E-03    -15.3173E-03    -44.4954E-03    -23.2447E-03     38.5620E-03    -15.3173E-03     82.1974E-03     43.4700E+06    -13.9005E+06    -62.8968E+06    -10.4970E+06     21.7696E+06    -44.5998E+06    -9.23649E+06         45.8615
            1853     15.7320E-03     97.4855E-03     607.826E-03     485.765E-03    -835.115E-03    -215.590E-03    -20.4776E-03     494.544E-03         1.41845     139.522E-03    -15.6344E-03    -123.888E-03    -20.6690E-03     36.3034E-03    -15.6344E-03     251.675E-03     54.9593E+06    -24.8167E+06    -150.022E+06     3.93938E+06    -68.8076E+06    -55.0109E+06    -12.5383E+06         68.2360
            1854     16.8088E-03     97.8758E-03     511.370E-03     248.752E-03    -494.087E-03    -196.182E-03    -28.8258E-03     491.043E-03     718.263E-03     388.671E-03    -16.4987E-03    -372.172E-03    -129.723E-03     146.222E-03    -16.4987E-03     698.537E-03     104.900E+06     54.0617E+06    -119.086E+06     4.74623E+06    -18.9318E+06     54.0617E+06    -22.2180E+06         93.6424
            1855     988.766E-06     98.2377E-03         6.31476     899.052E-03        -6.48754         2.75558        -2.92836     899.052E-03         3.79764     24.5723E-03    -12.1050E-03    -12.4673E-03    -12.3758E-03     24.5072E-03    -12.1314E-03     3.01729E-03     112.006E+06     101.930E+06     65.1267E+06     105.630E+06     69.0871E+06     104.345E+06    -9.51601E+06         21.7407
            1856     1.97578E-03     98.2379E-03         2.90050         1.80710        -3.98747         1.72733        -2.81431         1.80710        -2.77427     24.6938E-03    -12.1771E-03    -12.5167E-03    -12.2988E-03     24.5023E-03    -12.2035E-03     5.09795E-03     109.819E+06     95.1569E+06     76.6686E+06     102.192E+06     84.2955E+06     95.1569E+06    -13.7037E+06         21.7626
            1857     2.96418E-03     98.2399E-03         2.05516         1.74749        -3.10881         1.50961        -2.56326         1.74749    -961.406E-03     24.7805E-03    -12.1764E-03    -12.6040E-03    -12.1877E-03     24.3641E-03    -12.1764E-03     7.69756E-03     101.491E+06     81.0615E+06     58.5445E+06     92.2444E+06     67.7908E+06     81.0615E+06    -17.3645E+06         21.7918
            1858     3.95197E-03     98.2416E-03         1.94762         1.44205        -2.72036         1.29187        -2.28415         1.66159        -2.28063     24.8364E-03    -12.0938E-03    -12.7426E-03    -12.0141E-03     24.1079E-03    -12.0938E-03     10.2281E-03     92.2491E+06     65.4643E+06     46.4914E+06     83.3788E+06     55.3617E+06     65.4643E+06    -17.7644E+06         21.8323
            1859     4.94133E-03     98.2452E-03         1.56055         1.29519        -2.22856         1.01258        -1.94594         1.56055        -1.59045     25.2014E-03    -12.0217E-03    -13.1797E-03    -12.0365E-03     24.0582E-03    -12.0217E-03     12.9393E-03     79.3204E+06     51.3247E+06     34.6852E+06     71.7679E+06     42.2376E+06     51.3247E+06    -16.6426E+06         21.8916
            1860     5.92828E-03     98.2489E-03         1.44729         1.05962        -1.91126     745.703E-03        -1.59735         1.44729        -1.73766     25.8241E-03    -11.9981E-03    -13.8260E-03    -12.1599E-03     24.1580E-03    -11.9981E-03     15.7863E-03     64.0328E+06     37.8757E+06     13.4042E+06     57.6531E+06     19.7838E+06     37.8757E+06    -16.6353E+06         21.9784
            1861     6.91737E-03     98.2550E-03         1.32895     654.758E-03        -1.41746     489.858E-03        -1.25256         1.32895        -1.06315     26.6700E-03    -11.9952E-03    -14.6749E-03    -12.3749E-03     24.3701E-03    -11.9952E-03     18.8308E-03     48.9887E+06     24.6464E+06    -1.61059E+06     44.2680E+06     3.11014E+06     24.6464E+06    -14.6428E+06         22.1037
            1862     7.90436E-03     98.2615E-03         1.20992     384.147E-03        -1.06452     261.587E-03    -941.956E-03         1.20992    -604.996E-03     27.8477E-03    -12.0608E-03    -15.7869E-03    -12.8231E-03     24.8839E-03    -12.0608E-03     21.8622E-03     36.1830E+06     15.8718E+06    -18.5033E+06     30.6970E+06    -14.0183E+06     16.8727E+06    -14.6651E+06         22.2825
            1863     8.89221E-03     98.2707E-03         1.09452     99.7369E-03    -699.581E-03     78.1032E-03    -677.947E-03         1.09452     187.523E-03     29.4653E-03    -12.1842E-03    -17.2810E-03    -13.6085E-03     25.7927E-03    -12.1842E-03     25.0945E-03     23.6832E+06     9.79124E+06    -31.3253E+06     19.6680E+06    -28.3111E+06     10.7922E+06    -11.6399E+06         22.5379
            1864     9.87817E-03     98.2813E-03     985.963E-03     234.104E-03    -774.767E-03    -67.6126E-03    -473.050E-03     985.963E-03     827.620E-03     31.6705E-03    -12.4009E-03    -19.2696E-03    -14.7724E-03     27.1733E-03    -12.4009E-03     28.8275E-03     17.7592E+06     9.94801E+06    -33.9389E+06     12.4282E+06    -31.1864E+06     12.5265E+06    -10.4925E+06         22.9108
            1865     10.8626E-03     98.2978E-03     886.480E-03     491.856E-03    -980.389E-03    -162.798E-03    -325.734E-03     886.480E-03         1.44768     33.8645E-03    -12.6803E-03    -21.1841E-03    -16.1706E-03     28.8509E-03    -12.6803E-03     31.6393E-03     13.6983E+06     5.34187E+06    -42.3706E+06     6.62525E+06    -39.2535E+06     9.29790E+06    -11.7733E+06         23.4994
            1866     11.8476E-03     98.3108E-03     854.516E-03     653.991E-03        -1.14843    -209.030E-03    -229.010E-03     798.113E-03         1.84713     37.2630E-03    -13.0503E-03    -24.2126E-03    -18.4790E-03     31.5293E-03    -13.0503E-03     35.6444E-03     11.2415E+06     1.39084E+06    -35.8317E+06     4.49161E+06    -34.7775E+06     7.08651E+06    -5.50314E+06         24.5785
            1867     12.8245E-03     98.3391E-03     833.955E-03     721.996E-03        -1.22724    -215.329E-03    -177.958E-03     721.996E-03         2.05119     41.5072E-03    -13.4872E-03    -28.0200E-03    -19.9808E-03     33.4681E-03    -13.4872E-03     44.1758E-03     23.0319E+06     3.94435E+06    -15.1023E+06     6.47208E+06    -2.86064E+06     8.26244E+06    -7.44020E+06         26.9652
            1868     13.8112E-03     98.3678E-03     847.369E-03     658.401E-03        -1.19402    -189.844E-03    -156.807E-03     658.401E-03         2.03290     47.0130E-03    -13.9592E-03    -33.0538E-03    -22.1908E-03     36.1500E-03    -13.9592E-03     54.8163E-03     21.0100E+06    -13.0054E+06    -25.4884E+06     2.41152E+06    -6.88994E+06    -13.0054E+06    -8.57623E+06         32.8001
            1869     14.7822E-03     98.4195E-03     768.426E-03     585.708E-03        -1.05688    -159.543E-03    -150.057E-03     606.849E-03         1.79763     58.0141E-03    -14.3475E-03    -43.6666E-03    -21.2718E-03     35.6193E-03    -14.3475E-03     82.2959E-03     49.7283E+06    -11.6298E+06    -53.9254E+06     1.67047E+06     24.3266E+06    -41.8240E+06    -9.93281E+06         45.8139
            1870     15.7898E-03     98.5150E-03     598.386E-03     505.794E-03    -821.545E-03    -152.810E-03    -134.777E-03     570.222E-03         1.35107     125.479E-03    -15.1001E-03    -110.379E-03    -31.5634E-03     46.6635E-03    -15.1001E-03     217.002E-03     44.2277E+06    -33.3924E+06    -140.869E+06    -1.31937E+06    -65.1281E+06    -63.5866E+06    -27.5629E+06         67.9528
            1871     16.7319E-03     98.8527E-03     560.718E-03     260.904E-03    -496.302E-03    -188.154E-03    -47.2445E-03     560.718E-03     691.003E-03     385.271E-03    -16.7329E-03    -368.538E-03    -140.011E-03     156.744E-03    -16.7329E-03     684.708E-03     87.8348E+06     49.8795E+06    -122.492E+06    -16.0640E+06    -19.4648E+06     50.7513E+06    -21.1773E+06         93.4906
            1872     988.870E-06     99.2599E-03         5.43695         1.03916        -5.80601         2.53817        -2.90722         1.03916         3.21077     20.7898E-03    -10.3046E-03    -10.4852E-03    -10.2715E-03     20.6966E-03    -10.4250E-03     3.17069E-03     108.305E+06     92.0587E+06     76.0218E+06     97.7257E+06     84.5229E+06     94.1371E+06    -8.61419E+06         21.4576
            1873     1.98028E-03     99.2614E-03         2.62809         1.75997        -3.72211         1.69713        -2.80164         1.77047        -2.43769     20.6574E-03    -10.2126E-03    -10.4447E-03    -10.1595E-03     20.4015E-03    -10.2420E-03     5.41760E-03     101.985E+06     82.7741E+06     76.6036E+06     89.2589E+06     91.3565E+06     80.7470E+06    -8.73975E+06         21.4818
            1874     2.96987E-03     99.2625E-03         1.92712         1.70486        -2.97397         1.49514        -2.55249         1.71536    -907.811E-03     20.9124E-03    -10.1883E-03    -10.7241E-03    -10.2092E-03     20.3975E-03    -10.1883E-03     7.89445E-03     89.7776E+06     71.9020E+06     63.8582E+06     78.9163E+06     76.5974E+06     70.0241E+06    -10.2890E+06         21.5157
            1875     3.96025E-03     99.2647E-03         1.84216         1.42849        -2.64232         1.28523        -2.29177         1.63486        -2.02969     21.2621E-03    -10.1545E-03    -11.1077E-03    -10.2127E-03     20.3672E-03    -10.1545E-03     10.4852E-03     72.3700E+06     55.5244E+06     47.3358E+06     65.5307E+06     55.2109E+06     54.4886E+06    -9.84775E+06         21.5628
            1876     4.94953E-03     99.2672E-03         1.54019         1.25579        -2.19941         1.03163        -1.97526         1.54019        -1.43229     21.7376E-03    -10.0931E-03    -11.6446E-03    -10.2268E-03     20.3199E-03    -10.0931E-03     13.3314E-03     58.2060E+06     39.8045E+06     30.8532E+06     51.7355E+06     42.4294E+06     34.6988E+06    -5.65231E+06         21.6306
            1877     5.94047E-03     99.2724E-03         1.43482         1.02732        -1.90502     782.042E-03        -1.65974         1.43482        -1.53665     22.5321E-03    -10.0931E-03    -12.4390E-03    -10.4148E-03     20.5079E-03    -10.0931E-03     16.2440E-03     41.6029E+06     24.1901E+06     11.2572E+06     36.0834E+06     21.0346E+06     19.9323E+06    -4.13852E+06         21.7293
            1878     6.92937E-03     99.2767E-03         1.32488     665.665E-03        -1.46790     548.232E-03        -1.35046         1.32488    -931.925E-03     23.7085E-03    -10.1540E-03    -13.5545E-03    -10.7676E-03     20.9215E-03    -10.1540E-03     19.5111E-03     23.6538E+06     10.7937E+06    -401.710E+03     21.2164E+06     2.03574E+06     10.7937E+06    -3.74036E+06         21.8712
            1879     7.91924E-03     99.2862E-03         1.21510     431.981E-03        -1.15947     346.117E-03        -1.07360         1.21510    -504.087E-03     25.2974E-03    -10.2907E-03    -15.0067E-03    -11.4673E-03     21.7580E-03    -10.2907E-03     22.7635E-03     14.0471E+06     5.69172E+06    -14.0457E+06     9.43759E+06    -11.9007E+06     8.15624E+06    -2.95915E+06         22.0739
            1880     8.90709E-03     99.2938E-03         1.10945     198.250E-03    -859.671E-03     182.117E-03    -843.538E-03         1.10945     208.396E-03     27.6090E-03    -10.5237E-03    -17.0853E-03    -12.6573E-03     23.1810E-03    -10.5237E-03     26.6230E-03     9.49729E+06     353.358E+03    -31.0812E+06     678.383E+03    -30.0122E+06     8.10329E+06    -4.18962E+06         22.3629
            1881     9.89361E-03     99.3097E-03         1.01094     281.439E-03    -884.595E-03     63.0878E-03    -666.244E-03         1.01094     794.927E-03     30.1796E-03    -10.8150E-03    -19.3646E-03    -14.0434E-03     24.8584E-03    -10.8150E-03     30.6409E-03     11.1372E+06    -2.26922E+06    -28.4819E+06    -2.88280E+06    -26.4743E+06     9.74319E+06    -6.27081E+06         22.7842
            1882     10.8806E-03     99.3227E-03     921.736E-03     454.461E-03        -1.00853    -13.5938E-03    -540.476E-03     921.736E-03         1.34691     33.4069E-03    -11.2499E-03    -22.1571E-03    -16.3500E-03     27.5999E-03    -11.2499E-03     33.9617E-03     13.6788E+06    -126.252E+03    -40.6199E+06    -2.62877E+06    -38.1174E+06     13.6788E+06    -9.06177E+06         23.4405
            1883     11.8608E-03     99.3464E-03     851.747E-03     621.393E-03        -1.13988    -49.8592E-03    -460.015E-03     843.130E-03         1.70537     37.2679E-03    -11.7726E-03    -25.4953E-03    -18.9041E-03     30.6766E-03    -11.7726E-03     38.4430E-03     15.5554E+06     6.79182E+06    -42.8939E+06     4.22591E+06    -38.6424E+06     13.8698E+06    -11.2862E+06         24.6059
            1884     12.8462E-03     99.3691E-03     789.536E-03     710.707E-03        -1.18766    -53.4105E-03    -409.727E-03     775.720E-03         1.86645     42.4788E-03    -12.4465E-03    -30.0323E-03    -22.4140E-03     34.8605E-03    -12.4465E-03     44.2914E-03     33.6651E+06     25.7920E+06    -10.9347E+06     15.0580E+06     6.07253E+06     27.3918E+06    -12.5216E+06         27.0783
            1885     13.8203E-03     99.4064E-03     770.728E-03     679.794E-03        -1.14727    -43.1380E-03    -372.733E-03     719.118E-03         1.83825     48.6664E-03    -13.2506E-03    -35.4158E-03    -26.5464E-03     39.7970E-03    -13.2506E-03     51.0189E-03     40.7782E+06     6.05561E+06    -32.5103E+06     23.9247E+06    -17.2566E+06     7.65541E+06    -7.37268E+06         32.9195
            1886     14.7992E-03     99.4628E-03     718.414E-03     585.017E-03        -1.00099    -36.3808E-03    -333.179E-03     672.003E-03         1.59483     55.4823E-03    -14.2793E-03    -41.2029E-03    -28.9393E-03     43.2187E-03    -14.2793E-03     60.6948E-03     92.0374E+06     17.8677E+06    -31.2473E+06     21.8914E+06     38.8987E+06     17.8677E+06    -11.0037E+06         45.7817
            1887     15.7674E-03     99.5277E-03     636.483E-03     447.617E-03    -765.001E-03    -55.3361E-03    -262.048E-03     636.483E-03         1.18529     138.019E-03    -15.7792E-03    -122.240E-03    -50.8214E-03     66.6006E-03    -15.7792E-03     223.957E-03     63.7546E+06    -17.8803E+06    -120.461E+06    -7.94851E+06    -48.7576E+06    -17.8803E+06    -3.44803E+06         67.6596
            1888     16.6739E-03     100.004E-03     616.199E-03     230.207E-03    -471.920E-03    -149.539E-03    -92.1744E-03     616.199E-03     611.190E-03     382.703E-03    -17.3735E-03    -365.329E-03    -123.984E-03     141.358E-03    -17.3735E-03     697.617E-03     88.2661E+06     47.5110E+06    -115.182E+06    -6.09747E+06    -25.5733E+06     52.2657E+06     13.5742E+06         93.3427
            1889     992.807E-06     100.279E-03         4.56637         1.12730        -5.07758         2.30515        -2.81635         1.12730         2.59996     16.4802E-03    -8.11598E-03    -8.36423E-03    -8.12947E-03     16.3694E-03    -8.23992E-03     3.03862E-03     95.0143E+06     77.4454E+06     69.4711E+06     76.0165E+06     88.8059E+06     77.1084E+06    -2.51087E+06         21.1650
            1890     1.98368E-03     100.280E-03         2.36311         1.65934        -3.41281         1.62935        -2.71858         1.69887        -2.09880     16.6063E-03    -8.14570E-03    -8.46058E-03    -8.15498E-03     16.3036E-03    -8.14863E-03     5.36132E-03     97.4902E+06     69.7447E+06     65.0091E+06     68.3896E+06     96.1368E+06     67.7176E+06    -2.35034E+06         21.1941
            1891     2.97619E-03     100.282E-03         1.80445         1.60768        -2.80242         1.44220        -2.47970         1.64720    -873.746E-03     16.8716E-03    -8.11883E-03    -8.75275E-03    -8.14922E-03     16.2680E-03    -8.11883E-03     7.63603E-03     80.0952E+06     54.7892E+06     51.1086E+06     56.6918E+06     77.3029E+06     51.9983E+06    -15.1847E+03         21.2353
            1892     3.96787E-03     100.283E-03         1.73027         1.38133        -2.52168         1.25428        -2.23739         1.57303        -1.82140     17.5382E-03    -8.13251E-03    -9.40565E-03    -8.33487E-03     16.4674E-03    -8.13251E-03     10.4002E-03     57.1631E+06     39.6837E+06     33.6086E+06     41.0386E+06     51.6820E+06     37.7348E+06     4.63380E+06         21.2926
            1893     4.95992E-03     100.287E-03         1.48627         1.20689        -2.13970         1.01917        -1.95199         1.48627        -1.32933     18.2799E-03    -8.14178E-03    -10.1381E-03    -8.49271E-03     16.6345E-03    -8.14178E-03     13.1946E-03     44.2875E+06     25.0252E+06     13.3300E+06     24.1437E+06     38.5795E+06     19.9195E+06     7.84130E+06         21.3738
            1894     5.95105E-03     100.290E-03         1.39018         1.00534        -1.87895     800.651E-03        -1.67427         1.39018        -1.40772     19.3284E-03    -8.18997E-03    -11.1384E-03    -8.76212E-03     16.9521E-03    -8.18997E-03     16.2424E-03     29.3122E+06     8.76852E+06    -3.82113E+06     8.81544E+06     20.9334E+06     4.51076E+06     9.20153E+06         21.4888
            1895     6.94248E-03     100.298E-03         1.29067     686.520E-03        -1.50293     588.880E-03        -1.40529         1.29067    -877.843E-03     20.8230E-03    -8.32397E-03    -12.4991E-03    -9.29851E-03     17.6225E-03    -8.32397E-03     19.5666E-03     10.3984E+06    -1.50158E+06    -12.9875E+06    -4.08597E+06     1.49687E+06    -1.50158E+06     8.46552E+06         21.6519
            1896     7.93275E-03     100.304E-03         1.19160     479.830E-03        -1.23749     412.264E-03        -1.16992         1.19160    -486.501E-03     22.9707E-03    -8.52825E-03    -14.4424E-03    -10.2581E-03     18.7864E-03    -8.52825E-03     23.5034E-03    -114.449E+03    -6.53156E+06    -23.8024E+06    -13.9175E+06    -12.4687E+06    -4.06224E+06     7.58243E+06         21.8837
            1897     8.92184E-03     100.318E-03         1.09710     283.348E-03    -981.794E-03     275.564E-03    -974.011E-03         1.09710     141.614E-03     25.6202E-03    -8.84417E-03    -16.7760E-03    -11.6109E-03     20.4551E-03    -8.84417E-03     27.6822E-03     48.5224E+03    -12.8063E+06    -29.9423E+06    -19.8070E+06    -22.9416E+06     48.5224E+03     1.93918E+06         22.2155
            1898     9.91059E-03     100.330E-03         1.01006     319.791E-03    -965.315E-03     181.549E-03    -827.072E-03         1.01006     669.212E-03     29.1728E-03    -9.27374E-03    -19.8991E-03    -13.7420E-03     23.0158E-03    -9.27374E-03     32.4725E-03     7.83671E+06    -15.0395E+06    -28.9004E+06    -20.5345E+06    -23.4055E+06     7.83671E+06    -4.77286E+06         22.7005
            1899     10.8939E-03     100.353E-03     932.308E-03     420.055E-03        -1.01980     127.129E-03    -726.874E-03     932.308E-03         1.14072     33.3080E-03    -9.86987E-03    -23.4381E-03    -16.7335E-03     26.6033E-03    -9.86987E-03     36.5729E-03     15.9297E+06    -10.3925E+06    -39.2762E+06    -17.6927E+06    -31.9760E+06     15.9297E+06    -9.73885E+06         23.4479
            1900     11.8787E-03     100.374E-03     864.671E-03     553.940E-03        -1.11136     104.401E-03    -661.821E-03     864.671E-03         1.45468     38.4295E-03    -10.6175E-03    -27.8120E-03    -21.0312E-03     31.6487E-03    -10.6175E-03     40.1084E-03     17.0263E+06    -2.11245E+06    -46.4491E+06    -14.2335E+06    -32.9345E+06     15.6327E+06    -17.9368E+06         24.7305
            1901     12.8541E-03     100.406E-03     807.008E-03     612.121E-03        -1.12922     100.904E-03    -618.000E-03     807.008E-03         1.56856     46.5293E-03    -11.6495E-03    -34.8799E-03    -27.4414E-03     39.0909E-03    -11.6495E-03     46.8704E-03     25.0477E+06     16.5739E+06    -32.6160E+06    -15.4254E+06     2.34357E+06     22.0874E+06    -15.2867E+06         27.3090
            1902     13.8228E-03     100.455E-03     758.174E-03     608.302E-03        -1.08216     99.9432E-03    -573.803E-03     758.174E-03         1.53242     54.2664E-03    -12.9416E-03    -41.3248E-03    -34.2382E-03     47.1798E-03    -12.9416E-03     49.7701E-03     24.5941E+06    -4.86702E+06    -54.8051E+06    -16.2807E+06    -15.5301E+06    -3.26722E+06    -15.3939E+06         33.1375
            1903     14.7873E-03     100.501E-03     716.338E-03     512.683E-03    -931.413E-03     83.8639E-03    -502.593E-03     716.338E-03         1.30152     67.4507E-03    -14.7053E-03    -52.7454E-03    -43.3251E-03     58.0304E-03    -14.7053E-03     63.6524E-03     67.9941E+06     3.22066E+06    -54.3790E+06    -16.2492E+06     29.8644E+06     3.22066E+06    -7.04880E+06         45.6811
            1904     15.7304E-03     100.613E-03     680.636E-03     344.064E-03    -691.881E-03     38.2731E-03    -386.090E-03     680.636E-03     929.175E-03     141.208E-03    -16.2780E-03    -124.930E-03    -40.0390E-03     56.3170E-03    -16.2780E-03     230.708E-03     72.6769E+06    -16.1871E+06    -127.918E+06    -1.08110E+06    -54.1600E+06    -16.1871E+06     13.0249E+06         67.4475
            1905     16.7673E-03     101.040E-03     646.518E-03     135.652E-03    -411.300E-03    -87.9910E-03    -187.657E-03     646.518E-03     469.492E-03     372.451E-03    -17.1812E-03    -355.270E-03    -110.309E-03     127.491E-03    -17.1812E-03     683.602E-03     100.542E+06     41.8847E+06    -118.532E+06     9.69414E+06    -35.9559E+06     50.1573E+06    -194.318E+03         93.0111
            1906     993.726E-06     101.294E-03         3.73779         1.18907        -4.36774         2.02534        -2.65529         1.18907         2.03850     12.2979E-03    -5.96375E-03    -6.33413E-03    -6.16325E-03     12.1887E-03    -6.02545E-03     2.65099E-03     86.7289E+06     49.9278E+06     43.1699E+06     46.2067E+06     86.0821E+06     47.5377E+06     1.20882E+06         20.8861
            1907     1.98824E-03     101.295E-03         2.09623         1.53242        -3.06387         1.52912        -2.55579         1.59146        -1.79401     12.5184E-03    -6.06157E-03    -6.45686E-03    -6.10260E-03     12.1959E-03    -6.09329E-03     4.75314E-03     94.1653E+06     43.9335E+06     38.5746E+06     40.6334E+06     92.3478E+06     43.6922E+06     7.84071E+06         20.9204
            1908     2.98185E-03     101.295E-03         1.65020         1.48404        -2.58483         1.34726        -2.34091         1.54307    -850.212E-03     13.1071E-03    -6.13260E-03    -6.97448E-03    -6.28322E-03     12.4158E-03    -6.13260E-03     7.21113E-03     74.4101E+06     33.7758E+06     22.5861E+06     29.1427E+06     68.7666E+06     32.8628E+06     14.5207E+06         20.9709
            1909     3.97580E-03     101.298E-03         1.58131         1.31333        -2.35766         1.18613        -2.12333         1.47418        -1.64849     13.9152E-03    -6.20928E-03    -7.70593E-03    -6.54695E-03     12.7562E-03    -6.20928E-03     9.67564E-03     54.4851E+06     21.3657E+06     1.79071E+06     14.2441E+06     42.9447E+06     20.4527E+06     21.2539E+06         21.0408
            1910     4.96902E-03     101.301E-03         1.39622         1.14762        -2.04068     980.080E-03        -1.87314         1.39622        -1.27343     14.9617E-03    -6.30506E-03    -8.65661E-03    -6.86026E-03     13.1653E-03    -6.30506E-03     12.4337E-03     46.1084E+06     10.1556E+06    -13.5483E+06    -897.737E+03     33.4579E+06     10.1556E+06     24.0491E+06         21.1375
            1911     5.96196E-03     101.307E-03         1.31074     972.422E-03        -1.81741     789.525E-03        -1.63451         1.31074        -1.32812     16.3029E-03    -6.42859E-03    -9.87430E-03    -7.26534E-03     13.6939E-03    -6.42859E-03     15.6196E-03     31.8779E+06    -795.236E+03    -25.6520E+06    -13.9913E+06     20.2173E+06    -795.236E+03     22.8783E+06         21.2713
            1912     6.95450E-03     101.312E-03         1.22291     704.991E-03        -1.50288     608.770E-03        -1.40666         1.22291    -885.200E-03     18.2440E-03    -6.60924E-03    -11.6348E-03    -8.01501E-03     14.6243E-03    -6.60924E-03     19.4370E-03     12.3096E+06    -9.49536E+06    -34.2832E+06    -23.5310E+06     1.55734E+06    -9.49536E+06     19.5938E+06         21.4581
            1913     7.94588E-03     101.324E-03         1.13593     518.622E-03        -1.27378     455.608E-03        -1.21076         1.13593    -527.218E-03     20.7610E-03    -6.88922E-03    -13.8718E-03    -9.14262E-03     16.0318E-03    -6.88922E-03     23.7393E-03    -84.0205E+03    -10.9316E+06    -35.8330E+06    -27.8914E+06    -10.0421E+06    -8.91509E+06     14.1440E+06         21.7226
            1914     8.93658E-03     101.335E-03         1.05350     348.790E-03        -1.05302     346.315E-03        -1.05055         1.05350     16.6388E-03     24.0169E-03    -7.29614E-03    -16.7207E-03    -10.8627E-03     18.1588E-03    -7.29614E-03     28.5515E-03     867.530E+03    -9.27391E+06    -31.6085E+06    -27.7333E+06    -13.1491E+06     867.530E+03     5.88065E+06         22.1037
            1915     9.92381E-03     101.354E-03     978.505E-03     350.733E-03        -1.01015     276.402E-03    -935.819E-03     978.505E-03     475.637E-03     28.5043E-03    -7.85140E-03    -20.6529E-03    -13.5745E-03     21.4259E-03    -7.85140E-03     34.4805E-03     10.0720E+06    -17.4734E+06    -30.2468E+06    -28.5341E+06    -19.1860E+06     10.0720E+06    -1.30841E+06         22.6627
            1916     10.9105E-03     101.378E-03     912.515E-03     400.200E-03        -1.01743     243.934E-03    -861.158E-03     912.515E-03     868.428E-03     33.9795E-03    -8.60615E-03    -25.3733E-03    -17.7886E-03     26.3948E-03    -8.60615E-03     39.5508E-03     16.2786E+06    -17.1309E+06    -36.2061E+06    -29.9558E+06    -23.3811E+06     16.2786E+06    -8.33177E+06         23.5154
            1917     11.8891E-03     101.407E-03     855.970E-03     491.577E-03        -1.07346     235.030E-03    -816.912E-03     855.970E-03         1.12611     41.8544E-03    -9.63216E-03    -32.2223E-03    -24.2997E-03     33.9318E-03    -9.63216E-03     45.7045E-03     15.2310E+06    -8.87963E+06    -44.0256E+06    -30.8973E+06    -22.0079E+06     15.2310E+06    -16.3598E+06         24.9253
            1918     12.8607E-03     101.450E-03     807.922E-03     516.857E-03        -1.07032     231.917E-03    -785.380E-03     807.922E-03         1.19232     51.8629E-03    -10.9910E-03    -40.8719E-03    -31.7432E-03     42.7343E-03    -10.9910E-03     55.1995E-03     11.1742E+06    -5.24963E+06    -39.0331E+06    -30.1101E+06    -12.6058E+06     9.60741E+06    -11.3248E+06         27.6006
            1919     13.8287E-03     101.503E-03     766.689E-03     503.839E-03        -1.01916     224.457E-03    -739.774E-03     766.689E-03         1.15111     64.0965E-03    -12.7244E-03    -51.3721E-03    -41.8061E-03     54.5305E-03    -12.7244E-03     63.1866E-03     3.50405E+06    -16.5340E+06    -47.5980E+06    -40.6826E+06    -8.14678E+06    -11.7986E+06    -3.85011E+06         33.3657
            1920     14.7770E-03     101.573E-03     729.936E-03     415.719E-03    -880.126E-03     188.549E-03    -652.957E-03     729.936E-03     947.814E-03     78.2973E-03    -14.8783E-03    -63.4190E-03    -49.7860E-03     64.6642E-03    -14.8783E-03     82.6048E-03     34.7305E+06    -20.2594E+06    -57.9054E+06    -45.0187E+06     21.8437E+06    -20.2594E+06    -10.5999E+06         45.5329
            1921     15.7352E-03     101.680E-03     694.039E-03     254.462E-03    -652.138E-03     107.387E-03    -505.063E-03     694.039E-03     636.046E-03     122.113E-03    -16.8751E-03    -105.238E-03    -43.1768E-03     60.0519E-03    -16.8751E-03     188.040E-03     39.1101E+06    -46.0251E+06    -128.276E+06    -20.6181E+06    -68.5474E+06    -46.0251E+06    -24.3480E+06         66.4695
            1922     16.7170E-03     101.975E-03     648.268E-03     69.7622E-03    -403.250E-03    -22.1419E-03    -311.346E-03     648.268E-03     342.219E-03     351.676E-03    -18.0114E-03    -333.664E-03    -103.082E-03     121.094E-03    -18.0114E-03     640.616E-03     92.5081E+06     32.0806E+06    -117.026E+06    -13.4094E+06    -27.6548E+06     48.6270E+06    -18.5202E+06         91.5039
            1923     995.723E-06     102.305E-03         3.02995         1.14477        -3.65074         1.78552        -2.40630         1.14477         1.51343     8.66437E-03    -4.12648E-03    -4.53788E-03    -4.30097E-03     8.54038E-03    -4.23941E-03     2.40784E-03     78.7367E+06     27.4346E+06     21.5612E+06     26.5797E+06     76.1083E+06     25.0446E+06     6.71846E+06         20.6423
            1924     1.99155E-03     102.305E-03         1.81084         1.38545        -2.69037         1.38116        -2.32349         1.44823        -1.53469     8.95599E-03    -4.24273E-03    -4.71326E-03    -4.34544E-03     8.61988E-03    -4.27445E-03     4.11965E-03     80.2706E+06     16.9875E+06     7.08093E+06     14.3195E+06     73.2732E+06     16.7463E+06     20.2363E+06         20.6810
            1925     2.98744E-03     102.307E-03         1.47830         1.33921        -2.32576         1.22668        -2.13693         1.40199    -850.038E-03     9.73827E-03    -4.39221E-03    -5.34606E-03    -4.64242E-03     9.03462E-03    -4.39221E-03     6.28587E-03     69.2030E+06     14.5096E+06    -12.3729E+06     2.39518E+06     54.4349E+06     14.5096E+06     30.2810E+06         20.7404
            1926     3.98214E-03     102.309E-03         1.41611         1.20514        -2.15655         1.07913        -1.95424         1.33981        -1.50727     10.8098E-03    -4.55488E-03    -6.25491E-03    -5.02317E-03     9.57806E-03    -4.55488E-03     8.75090E-03     52.3702E+06     10.8442E+06    -28.6727E+06    -7.06763E+06     30.7651E+06     10.8442E+06     35.6934E+06         20.8229
            1927     4.97704E-03     102.313E-03         1.27082         1.07233        -1.89896     911.989E-03        -1.73862         1.27082        -1.24035     12.0109E-03    -4.70699E-03    -7.30393E-03    -5.38232E-03     10.0893E-03    -4.70699E-03     11.4920E-03     49.6947E+06     6.34763E+06    -38.5168E+06    -14.9105E+06     26.0885E+06     6.34763E+06     38.7378E+06         20.9347
            1928     5.97149E-03     102.318E-03         1.19720     928.812E-03        -1.71501     752.585E-03        -1.53878         1.19720        -1.28452     13.6456E-03    -4.88625E-03    -8.75938E-03    -6.00231E-03     10.8886E-03    -4.88625E-03     14.6795E-03     40.6178E+06     889.385E+03    -42.7952E+06    -22.0735E+06     19.8961E+06     889.385E+03     35.7574E+06         21.0869
            1929     6.96499E-03     102.326E-03         1.12206     704.993E-03        -1.45301     600.899E-03        -1.34892         1.12206    -914.666E-03     15.9857E-03    -5.14019E-03    -10.8455E-03    -6.95650E-03     12.0967E-03    -5.14019E-03     18.8466E-03     20.7033E+06    -3.49670E+06    -43.9167E+06    -27.6091E+06     4.39573E+06    -3.49670E+06     27.8497E+06         21.2975
            1930     7.95759E-03     102.338E-03         1.04801     543.260E-03        -1.25630     475.885E-03        -1.18892         1.04801    -599.944E-03     18.7994E-03    -5.47964E-03    -13.3197E-03    -8.21488E-03     13.6945E-03    -5.47964E-03     23.4613E-03     8.10720E+06    -3.28483E+06    -39.7264E+06    -29.9619E+06    -2.66811E+06    -2.27405E+06      17.919E+06         21.5958
            1931     8.94841E-03     102.353E-03     978.092E-03     391.141E-03        -1.07050     385.916E-03        -1.06528     978.092E-03    -137.607E-03     22.7687E-03    -5.94315E-03    -16.8255E-03    -10.2363E-03     16.1795E-03    -5.94315E-03     29.4618E-03     6.86586E+06    -4.61141E+06    -32.4802E+06    -29.4695E+06    -5.33468E+06     4.57843E+06     8.24814E+06         22.0276
            1932     9.93759E-03     102.375E-03     914.958E-03     372.804E-03        -1.01507     339.936E-03    -982.199E-03     914.958E-03     253.229E-03     28.2509E-03    -6.59950E-03    -21.6514E-03    -13.6201E-03     20.2196E-03    -6.59950E-03     36.6418E-03     13.7094E+06    -12.9745E+06    -27.9271E+06    -26.5631E+06    -14.3385E+06     13.7094E+06     1.85062E+06         22.6612
            1933     10.9215E-03     102.403E-03     860.202E-03     390.049E-03        -1.00040     324.982E-03    -935.335E-03     860.202E-03     563.669E-03     35.5799E-03    -7.50165E-03    -28.0782E-03    -18.9663E-03     26.4680E-03    -7.50165E-03     44.4944E-03     20.6329E+06    -11.2551E+06    -25.4451E+06    -23.1223E+06    -13.5780E+06     20.6329E+06    -4.94639E+06         23.6142
            1934     11.8995E-03     102.444E-03     813.777E-03     446.326E-03        -1.03421     327.509E-03    -915.388E-03     813.777E-03     761.942E-03     45.0920E-03    -8.72269E-03    -36.3693E-03    -25.9379E-03     34.6606E-03    -8.72269E-03     54.3223E-03     20.4001E+06    -4.76517E+06    -31.0974E+06    -21.9563E+06    -13.9062E+06     20.4001E+06    -11.5515E+06         25.1393
            1935     12.8717E-03     102.491E-03     774.317E-03     455.455E-03        -1.02414     328.379E-03    -897.066E-03     774.317E-03     789.719E-03     57.3633E-03    -10.3325E-03    -47.0307E-03    -34.9451E-03     45.2776E-03    -10.3325E-03     66.6856E-03     13.2157E+06    -11.9802E+06    -35.9604E+06    -21.1500E+06    -26.7907E+06     13.2157E+06    -9.60311E+06         27.8874
            1936     13.8315E-03     102.561E-03     739.663E-03     431.995E-03    -978.815E-03     314.234E-03    -861.054E-03     739.663E-03     739.135E-03     72.3470E-03    -12.3667E-03    -59.9802E-03    -46.3116E-03     58.6783E-03    -12.3667E-03     80.3700E-03     16.0287E+06    -7.73035E+06    -27.0460E+06    -10.0396E+06    -14.3914E+06     5.68338E+06     2.46663E+06         33.5254
            1937     14.7856E-03     102.647E-03     707.366E-03     360.880E-03    -869.782E-03     269.752E-03    -778.655E-03     707.366E-03     578.458E-03     85.7813E-03    -14.9672E-03    -70.8142E-03    -56.5521E-03     71.5193E-03    -14.9672E-03     89.0430E-03     67.0137E+06     28.8715E+06    -20.5881E+06    -4.18445E+06     50.6100E+06     28.8715E+06    -11.7227E+06         45.1587
            1938     15.7346E-03     102.740E-03     672.783E-03     223.495E-03    -678.310E-03     177.139E-03    -631.953E-03     672.783E-03     342.118E-03     128.112E-03    -17.7563E-03    -110.356E-03    -65.0798E-03     82.8361E-03    -17.7563E-03     179.134E-03     39.5094E+06    -31.9276E+06    -131.407E+06    -24.7081E+06    -67.1897E+06    -31.9276E+06    -21.5308E+06         64.9397
            1939     16.6219E-03     103.065E-03     620.960E-03     79.3009E-03    -485.701E-03     47.0894E-03    -453.490E-03     620.960E-03     195.855E-03     327.221E-03    -19.1722E-03    -308.049E-03    -77.3084E-03     96.4806E-03    -19.1722E-03     602.902E-03     94.7904E+06     16.1935E+06    -110.367E+06    -9.67280E+06    -40.8607E+06     51.1503E+06    -597.175E+03         89.2978
            1940     997.665E-06     103.311E-03         2.44667         1.04510        -2.99881         1.52966        -2.08180         1.04510         1.10196     5.65054E-03    -2.66083E-03    -2.98971E-03    -2.77931E-03     5.52135E-03    -2.74204E-03     1.87118E-03     59.0396E+06     21.1918E+06     5.35545E+06     13.9418E+06     50.4532E+06     21.1918E+06     17.1396E+06         20.4476
            1941     1.99450E-03     103.313E-03         1.55049         1.20195        -2.30003         1.20703        -2.02577         1.27116        -1.31695     6.35995E-03    -2.88226E-03    -3.47769E-03    -3.09414E-03     5.97640E-03    -2.88226E-03     3.69966E-03     67.2263E+06     19.7234E+06    -16.6693E+06     5.76433E+06     44.7927E+06     19.7234E+06     34.9888E+06         20.4893
            1942     2.99088E-03     103.314E-03         1.29886         1.15941        -2.03518         1.07176        -1.87729         1.22862    -840.294E-03     7.15410E-03    -3.03599E-03    -4.11810E-03    -3.36256E-03     6.39855E-03    -3.03599E-03     5.56106E-03     66.3298E+06     13.0628E+06    -37.3832E+06    -4.74964E+06     33.6962E+06     13.0628E+06     46.3093E+06         20.5550
            1943     3.98799E-03     103.318E-03         1.24432         1.06724        -1.91421     951.305E-03        -1.72803         1.17408        -1.39190     8.26620E-03    -3.20852E-03    -5.05768E-03    -3.71538E-03     6.92389E-03    -3.20852E-03     7.94484E-03     54.1730E+06     8.51114E+06    -50.2021E+06    -13.8374E+06     17.8083E+06     8.51114E+06     49.3846E+06         20.6472
            1944     4.98368E-03     103.322E-03         1.11536     974.234E-03        -1.71489     814.018E-03        -1.55468         1.11536        -1.20322     9.67604E-03    -3.40055E-03    -6.27549E-03    -4.24662E-03     7.64717E-03    -3.40055E-03     10.5964E-03     51.9445E+06     8.48691E+06    -52.5849E+06     -18.221E+06     17.5806E+06     8.48691E+06     48.6934E+06         20.7713
            1945     5.97929E-03     103.328E-03         1.05411     869.607E-03        -1.56651     692.352E-03        -1.38926         1.05411        -1.24428     11.6170E-03    -3.62945E-03    -7.98759E-03    -5.03524E-03     8.66469E-03    -3.62945E-03     13.9814E-03     48.4708E+06     7.85530E+06    -48.0736E+06    -19.4760E+06     19.8732E+06     7.85530E+06     43.7620E+06         20.9390
            1946     6.97351E-03     103.338E-03     992.415E-03     685.566E-03        -1.35231     568.514E-03        -1.23526     992.415E-03    -941.458E-03     14.1030E-03    -3.94022E-03    -10.1628E-03    -6.05189E-03     9.99211E-03    -3.94022E-03     18.1785E-03     32.8119E+06     7.83716E+06    -43.7959E+06    -20.9064E+06     9.92235E+06     7.83716E+06     34.7129E+06         21.1709
            1947     7.96703E-03     103.350E-03     931.456E-03     544.649E-03        -1.19036     466.161E-03        -1.11187     931.456E-03    -671.108E-03     17.3487E-03    -4.32413E-03    -13.0245E-03    -7.43074E-03     11.7549E-03    -4.32413E-03     23.5137E-03     20.1189E+06     10.2590E+06    -34.9826E+06    -21.8432E+06     6.97952E+06     10.2590E+06     22.3262E+06         21.5008
            1948     8.95877E-03     103.369E-03     873.801E-03     411.666E-03        -1.03658     395.881E-03        -1.02079     873.801E-03    -286.689E-03     21.9223E-03    -4.83117E-03    -17.0911E-03    -9.70876E-03     14.5399E-03    -4.83117E-03     30.5404E-03     16.3183E+06     4.24004E+06    -27.6763E+06    -22.2524E+06     1.34935E+06     13.7851E+06     11.7672E+06         21.9790
            1949     9.94786E-03     103.393E-03     821.856E-03     380.337E-03    -984.581E-03     365.561E-03    -969.805E-03     821.856E-03     35.8621E-03     28.6479E-03    -5.54079E-03    -23.1071E-03    -13.5957E-03     19.1365E-03    -5.54079E-03     40.0291E-03     18.0658E+06    -4.66383E+06    -22.8705E+06    -21.0778E+06    -6.45660E+06     18.0658E+06     2.55736E+06         22.6763
            1950     10.9318E-03     103.431E-03     777.079E-03     381.379E-03    -967.125E-03     364.032E-03    -949.777E-03     777.079E-03     272.760E-03     36.8848E-03    -6.50316E-03    -30.3816E-03    -18.7366E-03     25.2398E-03    -6.50316E-03     50.7842E-03     22.0464E+06    -5.05616E+06    -19.7338E+06    -17.8815E+06    -6.90851E+06     22.0464E+06    -4.19969E+06         23.7115
            1951     11.9113E-03     103.475E-03     739.333E-03     417.512E-03    -989.579E-03     377.077E-03    -949.144E-03     739.333E-03     415.179E-03     48.1645E-03    -7.80950E-03    -40.3550E-03    -26.3371E-03     34.1466E-03    -7.80950E-03     64.4747E-03     26.0599E+06     389.711E+03    -21.7203E+06    -14.0147E+06    -7.31589E+06     26.0599E+06    -9.70629E+06         25.3291
            1952     12.8812E-03     103.539E-03     706.947E-03     421.305E-03    -989.004E-03     380.266E-03    -947.965E-03     706.947E-03     412.314E-03     62.8323E-03    -9.57674E-03    -53.2555E-03    -36.8883E-03     46.4651E-03    -9.57674E-03     80.5853E-03     24.1131E+06     2.21122E+06    -41.1495E+06    -7.28461E+06    -31.6537E+06     24.1131E+06    -11.9383E+06         28.1126
            1953     13.8415E-03     103.621E-03     677.511E-03     397.498E-03    -958.673E-03     365.362E-03    -926.536E-03     677.511E-03     353.475E-03     80.0225E-03    -11.7830E-03    -68.2395E-03    -49.5604E-03     61.3433E-03    -11.7830E-03     98.2110E-03     24.5906E+06     2.30866E+06    -36.9850E+06    -11.1483E+03    -22.5330E+06     12.4584E+06    -10.9142E+06         33.5433
            1954     14.7881E-03     103.722E-03     648.931E-03     349.053E-03    -889.880E-03     323.269E-03    -864.096E-03     648.931E-03     236.960E-03     98.2292E-03    -14.7058E-03    -83.5234E-03    -63.4890E-03     78.1948E-03    -14.7058E-03     111.993E-03     76.8614E+06     46.4050E+06    -11.5350E+06     777.312E+03     64.5491E+06     46.4050E+06    -2.75213E+06         44.4603
            1955     15.7031E-03     103.846E-03     616.583E-03     246.585E-03    -756.644E-03     239.652E-03    -749.711E-03     616.583E-03     67.9895E-03     138.028E-03    -17.4140E-03    -120.614E-03    -59.6224E-03     77.0364E-03    -17.4140E-03     205.532E-03     62.3730E+06    -12.4329E+06    -133.110E+06    -2.06826E+06    -68.6687E+06    -12.4329E+06     1.69979E+06         63.4030
            1956     16.6971E-03     104.144E-03     564.049E-03     126.025E-03    -610.148E-03     120.461E-03    -604.584E-03     564.049E-03     34.8927E-03     297.765E-03    -18.3761E-03    -279.389E-03    -55.8778E-03     74.2539E-03    -18.3761E-03     557.931E-03     102.873E+06     17.6638E+06    -115.647E+06     12.4296E+06    -53.9314E+06     46.3910E+06    -2.38774E+06         86.7757
            1957     998.379E-06     104.316E-03         1.91870     947.062E-03        -2.42716         1.21954        -1.72800     947.062E-03     791.950E-03     3.63284E-03    -1.74181E-03    -1.89103E-03    -1.79682E-03     3.54346E-03    -1.74663E-03     1.15428E-03     40.5069E+06     14.9078E+06    -31.1160E+06     4.66695E+06     4.72393E+06     14.9078E+06     32.7055E+06         20.3065
            1958     1.99683E-03     104.317E-03         1.29241         1.00754        -1.89227         1.01584        -1.67768         1.06952        -1.15059     4.19296E-03    -1.86518E-03    -2.32778E-03    -1.94972E-03     3.81490E-03    -1.86518E-03     2.94116E-03     55.0670E+06     13.9726E+06    -51.0718E+06    -3.02128E+06     7.01657E+06     13.9726E+06     51.5765E+06         20.3472
            1959     2.99492E-03     104.320E-03         1.09420     970.596E-03        -1.70951     894.472E-03        -1.57176         1.03258    -821.754E-03     5.11766E-03    -1.99174E-03    -3.12592E-03    -2.28965E-03     4.28139E-03    -1.99174E-03     4.91912E-03     61.9237E+06     13.8284E+06    -57.9181E+06    -7.18021E+06     11.1858E+06     13.8284E+06     59.1046E+06         20.4145
            1960     3.99166E-03     104.323E-03         1.04778     921.017E-03        -1.63857     804.547E-03        -1.46047     986.151E-03        -1.27947     6.40920E-03    -2.16671E-03    -4.24249E-03    -2.75974E-03     4.92644E-03    -2.16671E-03     7.32052E-03     58.7068E+06     13.5896E+06    -61.0269E+06    -7.85214E+06     5.53211E+06     13.5896E+06     58.8826E+06         20.5113
            1961     4.98923E-03     104.329E-03     941.583E-03     861.954E-03        -1.48891     701.777E-03        -1.32592     938.773E-03        -1.15057     8.08078E-03    -2.39206E-03    -5.68872E-03    -3.42811E-03     5.82016E-03    -2.39206E-03     10.1657E-03     58.2032E+06     17.4214E+06    -55.9495E+06    -7.70046E+06     9.95418E+06     17.4214E+06     55.1240E+06         20.6428
            1962     5.98487E-03     104.336E-03     893.086E-03     784.446E-03        -1.37695     608.099E-03        -1.19780     890.276E-03        -1.17967     10.1205E-03    -2.66316E-03    -7.45735E-03    -4.25508E-03     6.91823E-03    -2.66316E-03     13.5363E-03     56.9962E+06     19.8111E+06    -48.9596E+06    -9.57411E+06     17.6107E+06     19.8111E+06     50.7229E+06         20.8218
            1963     6.98061E-03     104.346E-03     841.679E-03     643.316E-03        -1.20963     513.655E-03        -1.07997     841.679E-03    -940.613E-03     12.7503E-03    -2.99019E-03    -9.76008E-03    -5.27652E-03     8.26671E-03    -2.99019E-03     17.9534E-03     46.3299E+06     19.6554E+06    -41.5422E+06    -12.0163E+06     16.8040E+06     19.6554E+06     41.0963E+06         21.0713
            1964     7.97449E-03     104.361E-03     793.384E-03     520.502E-03        -1.08120     429.509E-03    -990.203E-03     793.384E-03    -711.240E-03     16.2596E-03    -3.39703E-03    -12.8625E-03    -6.71485E-03     10.1119E-03    -3.39703E-03     23.7451E-03     33.4592E+06     21.6295E+06    -31.2886E+06    -14.5947E+06     16.7653E+06     21.6295E+06     28.2578E+06         21.4280
            1965     8.96730E-03     104.381E-03     747.170E-03     405.191E-03    -961.460E-03     374.914E-03    -931.183E-03     747.170E-03    -395.615E-03     21.6672E-03    -3.93588E-03    -17.7313E-03    -9.28311E-03     13.2190E-03    -3.93588E-03     32.3088E-03     24.5197E+06     16.9010E+06    -24.1258E+06    -15.9648E+06     10.0118E+06     23.2478E+06     16.2491E+06         21.9424
            1966     9.95618E-03     104.412E-03     705.307E-03     368.405E-03    -919.747E-03     355.471E-03    -906.813E-03     705.307E-03    -136.542E-03     28.8597E-03    -4.64675E-03    -24.2130E-03    -12.7460E-03     17.3927E-03    -4.64675E-03     43.6243E-03     24.1707E+06     6.45488E+06    -16.5228E+06    -14.7555E+06     4.68756E+06     24.1707E+06     4.22799E+06         22.6855
            1967     10.9423E-03     104.454E-03     669.183E-03     365.187E-03    -907.590E-03     363.060E-03    -905.463E-03     669.183E-03     46.0971E-03     37.8278E-03    -5.59381E-03    -32.2340E-03    -17.6610E-03     23.2548E-03    -5.59381E-03     56.7773E-03     26.8622E+06     1.67528E+06    -15.0163E+06    -11.2211E+06    -2.11993E+06     26.8622E+06    -4.93398E+06         23.7807
            1968     11.9230E-03     104.507E-03     638.518E-03     389.917E-03    -928.547E-03     381.531E-03    -920.161E-03     638.518E-03     137.738E-03     51.2477E-03    -6.89293E-03    -44.3547E-03    -25.8000E-03     32.6930E-03    -6.89293E-03     75.4667E-03     32.2831E+06     3.68283E+06    -14.6639E+06    -8.87395E+06    -2.10711E+06     32.2831E+06    -8.01439E+06         25.4546
            1969     12.8930E-03     104.588E-03     611.556E-03     395.498E-03    -939.172E-03     386.928E-03    -930.602E-03     611.556E-03     115.467E-03     67.2874E-03    -8.64211E-03    -58.6453E-03    -36.4338E-03     45.0759E-03    -8.64211E-03     95.6707E-03     26.3741E+06     5.00465E+06    -39.7141E+06    -9.80805E+06    -24.9014E+06     26.3741E+06    -14.6003E+06         28.2113
            1970     13.8540E-03     104.677E-03     586.053E-03     380.239E-03    -929.154E-03     375.686E-03    -924.600E-03     586.053E-03     46.8000E-03     87.1034E-03    -10.7848E-03    -76.3185E-03    -48.4164E-03     59.2012E-03    -10.7848E-03     122.111E-03     18.6251E+06     704.464E+03    -51.5224E+06    -9.52586E+06    -29.9585E+06     7.29155E+06    -14.4067E+06         33.3444
            1971     14.7980E-03     104.812E-03     560.331E-03     349.065E-03    -900.808E-03     340.927E-03    -892.670E-03     560.331E-03    -40.0166E-03     106.084E-03    -13.4684E-03    -92.6155E-03    -59.0696E-03     72.5380E-03    -13.4684E-03     147.778E-03     67.6930E+06     38.6650E+06    -18.1744E+06    -635.037E+03     50.1536E+06     38.6650E+06    -1.20430E+06         43.5056
            1972     15.7580E-03     104.935E-03     531.684E-03     279.839E-03    -823.258E-03     273.158E-03    -816.577E-03     531.684E-03    -145.747E-03     121.624E-03    -15.6928E-03    -105.931E-03    -46.0861E-03     61.7789E-03    -15.6928E-03     193.520E-03     66.4738E+06    -5.38578E+06    -119.912E+06     10.7552E+06    -64.1936E+06    -5.38578E+06    -5.14341E+06         61.4748
            1973     16.7373E-03     105.144E-03     483.066E-03     198.263E-03    -750.322E-03     195.439E-03    -747.497E-03     483.066E-03    -81.6443E-03     271.379E-03    -16.7461E-03    -254.633E-03    -63.5273E-03     80.2734E-03    -16.7461E-03     505.006E-03     93.1253E+06     21.8386E+06    -125.043E+06      3.3874E+06    -52.4262E+06     38.9602E+06    -13.6746E+06         83.5528
            1974     998.852E-06     105.319E-03         1.49945     755.249E-03        -1.86778     976.304E-03        -1.34463     755.249E-03     501.582E-03     2.47353E-03    -1.21102E-03    -1.26251E-03    -1.21150E-03     2.43203E-03    -1.22053E-03     690.198E-06    -6.63003E+06    -36.4639E+06    -82.4698E+06    -35.0092E+06    -54.0906E+06    -36.4639E+06     36.2863E+06         20.2185
            1975     1.99769E-03     105.320E-03         1.02839     808.913E-03        -1.49727     804.776E-03        -1.31799     853.251E-03        -1.01713     2.75009E-03    -1.24156E-03    -1.50852E-03    -1.22206E-03     2.46363E-03    -1.24156E-03     1.97536E-03     25.4471E+06    -20.9855E+06    -80.5826E+06    -21.1760E+06    -33.9595E+06    -20.9855E+06     52.0161E+06         20.2530
            1976     2.99654E-03     105.323E-03     894.401E-03     778.995E-03        -1.37214     720.338E-03        -1.24241     823.333E-03    -802.912E-03     3.43128E-03    -1.31748E-03    -2.11380E-03    -1.37504E-03     2.69252E-03    -1.31748E-03     3.74638E-03     50.4711E+06    -719.175E+03    -73.1377E+06    -9.49246E+06    -13.1742E+06    -719.175E+03     60.8793E+06         20.3142
            1977     3.99567E-03     105.327E-03     859.047E-03     755.340E-03        -1.34544     649.570E-03        -1.16860     787.979E-03        -1.16379     4.88970E-03    -1.46571E-03    -3.42399E-03    -1.98243E-03     3.44814E-03    -1.46571E-03     6.28095E-03     56.7553E+06     12.1258E+06    -67.7368E+06    -4.05249E+06    -6.92904E+06     12.1258E+06     61.8581E+06         20.4072
            1978     4.99259E-03     105.333E-03     779.161E-03     719.604E-03        -1.23791     579.873E-03        -1.07126     752.242E-03        -1.07281     6.68865E-03    -1.69068E-03    -4.99797E-03    -2.72166E-03     4.41235E-03    -1.69068E-03     9.24955E-03     59.0846E+06     18.7482E+06    -65.8176E+06    -5.31449E+06    -1.41851E+06     18.7482E+06     62.0639E+06         20.5385
            1979     5.99009E-03     105.342E-03     743.346E-03     666.558E-03        -1.16355     511.998E-03    -982.066E-03     716.426E-03        -1.09429     8.75777E-03    -1.96766E-03    -6.79011E-03    -3.48416E-03     5.45182E-03    -1.96766E-03     12.7074E-03     63.6322E+06     26.1580E+06    -54.9133E+06    -6.95316E+06     15.6721E+06     26.1580E+06     57.9311E+06         20.7226
            1980     6.98554E-03     105.354E-03     680.139E-03     575.022E-03        -1.03723     438.146E-03    -900.350E-03     680.139E-03    -895.921E-03     11.5760E-03    -2.29143E-03    -9.28460E-03    -4.50372E-03     6.79515E-03    -2.29143E-03     17.5163E-03     57.9522E+06     30.0341E+06    -41.2900E+06    -7.02450E+06     23.6867E+06     30.0341E+06     46.9478E+06         20.9845
            1981     7.98071E-03     105.371E-03     643.396E-03     472.090E-03    -940.561E-03     372.944E-03    -841.416E-03     643.396E-03    -703.591E-03     15.5498E-03    -2.70104E-03    -12.8487E-03    -6.13562E-03     8.83666E-03    -2.70104E-03     24.1178E-03     47.7497E+06     32.9478E+06    -29.1592E+06    -6.84281E+06     25.4333E+06     32.9478E+06     34.6535E+06         21.3601
            1982     8.97340E-03     105.393E-03     607.531E-03     369.917E-03    -850.316E-03     327.974E-03    -808.373E-03     607.531E-03    -441.005E-03     21.5004E-03    -3.23367E-03    -18.2667E-03    -8.56094E-03     11.7946E-03    -3.23367E-03     34.1260E-03     36.3135E+06     29.6241E+06    -20.0100E+06    -7.77651E+06     20.5881E+06     33.1160E+06     21.8179E+06         21.8965
            1983     9.96364E-03     105.430E-03     574.584E-03     334.444E-03    -818.128E-03     317.157E-03    -800.841E-03     574.584E-03    -227.492E-03     28.6212E-03    -3.90721E-03    -24.7139E-03    -11.4488E-03     15.3560E-03    -3.90721E-03     46.0713E-03     32.5132E+06     21.0392E+06    -14.3576E+06    -10.0022E+06     16.6837E+06     32.5132E+06     8.71002E+06         22.6667
            1984     10.9520E-03     105.472E-03     545.883E-03     330.440E-03    -812.810E-03     328.421E-03    -810.791E-03     545.883E-03    -83.8572E-03     38.9408E-03    -4.80076E-03    -34.1400E-03    -16.3331E-03     21.1339E-03    -4.80076E-03     62.6528E-03     34.2577E+06     10.3940E+06    -14.7890E+06    -11.3792E+06     6.98416E+06     34.2577E+06    -3.25021E+06         23.7930
            1985     11.9322E-03     105.541E-03     520.907E-03     349.108E-03    -833.905E-03     347.190E-03    -831.987E-03     520.907E-03    -30.6156E-03     53.3965E-03    -5.99525E-03    -47.4012E-03    -23.8041E-03     29.7993E-03    -5.99525E-03     85.2041E-03     34.3543E+06     2.41992E+06    -14.3290E+06    -9.35503E+06    -2.55407E+06     34.3543E+06    -6.79429E+06         25.4689
            1986     12.9084E-03     105.626E-03     498.170E-03     358.138E-03    -853.345E-03     354.878E-03    -850.084E-03     498.170E-03    -57.3809E-03     69.9817E-03    -7.55974E-03    -62.4220E-03    -32.9422E-03     40.5020E-03    -7.55974E-03     109.821E-03     31.0984E+06     3.80133E+06    -26.6370E+06    -8.24084E+06    -14.5948E+06     31.0984E+06    -8.75416E+06         28.1231
            1987     13.8718E-03     105.740E-03     475.866E-03     351.632E-03    -867.415E-03     346.669E-03    -862.453E-03     475.866E-03    -138.545E-03     88.6957E-03    -9.40268E-03    -79.2930E-03    -42.2695E-03     51.6722E-03    -9.40268E-03     138.976E-03     19.6205E+06     1.07602E+06    -48.3698E+06    -6.69780E+06    -33.2957E+06     12.3203E+06    -14.0998E+06         32.9000
            1988     14.8424E-03     105.871E-03     452.810E-03     332.575E-03    -870.285E-03     322.681E-03    -860.390E-03     452.810E-03    -194.715E-03     105.223E-03    -11.6475E-03    -93.5751E-03    -51.6915E-03     63.3389E-03    -11.6475E-03     161.974E-03     63.7721E+06     34.2224E+06    -35.1814E+06    -8.18028E+06     36.7710E+06     34.2224E+06    -7.50186E+06         42.2936
            1989     15.7814E-03     106.022E-03     428.825E-03     295.308E-03    -852.200E-03     281.562E-03    -838.454E-03     428.825E-03    -248.453E-03     109.751E-03    -13.9425E-03    -95.8084E-03    -53.6660E-03     67.6086E-03    -13.9425E-03     163.477E-03     55.6492E+06    -16.6800E+06    -122.981E+06    -10.0604E+06    -57.2716E+06    -16.6800E+06    -6.94081E+06         59.0161
            1990     16.7452E-03     106.154E-03     388.071E-03     262.796E-03    -874.592E-03     256.286E-03    -868.082E-03     388.071E-03    -144.172E-03     257.164E-03    -15.9213E-03    -241.242E-03    -78.7654E-03     94.6868E-03    -15.9213E-03     460.323E-03     83.2783E+06     10.3780E+06    -117.887E+06    -5.74108E+06    -51.6883E+06     33.1986E+06    -12.4804E+06         79.9484
            1991     998.862E-06     106.321E-03         1.18515     553.900E-03        -1.42188     733.712E-03    -970.434E-03     553.900E-03     357.330E-03     1.83831E-03    -895.943E-06    -942.368E-06    -906.891E-06     1.81810E-03    -911.214E-06     390.825E-06    -75.7511E+06    -153.770E+06    -171.032E+06    -147.590E+06    -94.2660E+06    -158.697E+06     12.3836E+06         20.1901
            1992     1.99765E-03     106.322E-03     801.239E-03     602.978E-03        -1.13216     602.948E-03    -966.210E-03     635.319E-03    -890.920E-03     1.95201E-03    -897.486E-06    -1.05453E-03    -897.906E-06     1.79993E-03    -902.019E-06     1.17994E-03    -36.1828E+06    -121.062E+06    -154.950E+06    -116.181E+06    -64.7522E+06    -131.261E+06     21.6702E+06         20.2146
            1993     2.99689E-03     106.325E-03     708.767E-03     582.673E-03        -1.04948     545.727E-03    -918.778E-03     615.014E-03    -746.961E-03     2.38562E-03    -974.106E-06    -1.41152E-03    -979.384E-06     1.95349E-03    -974.106E-06     2.34389E-03    -2.51225E+06    -81.1161E+06    -125.544E+06    -77.2573E+06    -39.9937E+06    -91.9215E+06     35.2186E+06         20.2620
            1994     3.99566E-03     106.330E-03     695.384E-03     580.567E-03        -1.05412     502.055E-03    -871.542E-03     591.314E-03        -1.04823     3.45375E-03    -1.12124E-03    -2.33251E-03    -1.35942E-03     2.48066E-03    -1.12124E-03     4.29368E-03     19.1088E+06    -49.4672E+06    -92.1415E+06    -44.8410E+06    -25.4933E+06    -52.1654E+06     47.8491E+06         20.3399
            1995     4.99449E-03     106.338E-03     635.711E-03     556.797E-03    -986.729E-03     454.796E-03    -816.561E-03     567.544E-03    -972.418E-03     5.08520E-03    -1.34127E-03    -3.74393E-03    -1.95291E-03     3.29418E-03    -1.34127E-03     7.09072E-03     37.2545E+06    -15.9822E+06    -70.5020E+06    -17.9222E+06    -15.3252E+06    -15.9822E+06     53.7587E+06         20.4586
            1996     5.99161E-03     106.346E-03     606.227E-03     528.225E-03    -942.852E-03     410.240E-03    -762.107E-03     543.467E-03    -982.653E-03     7.28450E-03    -1.60552E-03    -5.67898E-03    -2.66665E-03     4.27217E-03    -1.60552E-03     10.9386E-03     62.5639E+06     17.1097E+06    -51.2406E+06     1.22992E+06     10.0933E+06     17.1097E+06     55.7722E+06         20.6359
            1997     6.98896E-03     106.361E-03     523.374E-03     486.438E-03    -850.941E-03     354.106E-03    -713.699E-03     518.464E-03    -811.545E-03     10.2464E-03    -1.90387E-03    -8.34250E-03    -3.72479E-03     5.62866E-03    -1.90387E-03     16.0625E-03     70.8478E+06     34.8051E+06    -38.8692E+06     6.05510E+06     25.9236E+06     34.8051E+06     52.9003E+06         20.8982
            1998     7.98455E-03     106.377E-03     492.053E-03     401.176E-03    -780.185E-03     302.689E-03    -681.698E-03     492.053E-03    -639.628E-03     14.7495E-03    -2.28602E-03    -12.4635E-03    -5.45080E-03     7.73682E-03    -2.28602E-03     23.7919E-03     63.4395E+06     41.9294E+06    -28.8397E+06     1.44277E+06     33.1570E+06     41.9294E+06     43.1305E+06         21.2784
            1999     8.97788E-03     106.406E-03     465.446E-03     310.809E-03    -706.312E-03     267.775E-03    -663.277E-03     465.446E-03    -406.947E-03     20.6865E-03    -2.77367E-03    -17.9128E-03    -7.52242E-03     10.2961E-03    -2.77367E-03     34.2242E-03     50.6967E+06     41.4465E+06    -19.1779E+06    -2.40420E+06     32.3871E+06     42.9824E+06     28.8056E+06         21.8199
            2000     9.97031E-03     106.441E-03     440.490E-03     278.102E-03    -681.719E-03     260.533E-03    -664.150E-03     440.490E-03    -222.661E-03     28.1301E-03    -3.39015E-03    -24.7399E-03    -10.2150E-03     13.6051E-03    -3.39015E-03     47.1798E-03     45.3561E+06     35.5025E+06    -10.0462E+06    -2.67311E+06     28.6035E+06     44.8819E+06     14.7601E+06         22.5965
            2001     10.9580E-03     106.494E-03     418.159E-03     273.090E-03    -680.379E-03     270.425E-03    -677.714E-03     418.159E-03    -99.3934E-03     39.3904E-03    -4.18978E-03    -35.2006E-03    -14.6780E-03     18.8677E-03    -4.18978E-03     66.5863E-03     45.1749E+06     20.9496E+06    -7.80153E+06    -4.50289E+06     17.6509E+06     45.1749E+06     4.13059E+06         23.7154
            2002     11.9440E-03     106.565E-03     398.031E-03     289.213E-03    -702.413E-03     287.546E-03    -700.746E-03     398.031E-03    -69.3604E-03     53.9450E-03    -5.21774E-03    -48.7273E-03    -20.6834E-03     25.9012E-03    -5.21774E-03     91.3882E-03     40.3535E+06     5.85565E+06    -13.2405E+06    -7.10135E+06    -283.468E+03     40.3535E+06    -4.22554E+06         25.3359
            2003     12.9205E-03     106.665E-03     379.012E-03     298.057E-03    -732.987E-03     294.760E-03    -729.689E-03     379.012E-03    -96.8827E-03     70.1086E-03    -6.50560E-03    -63.6030E-03    -27.8196E-03     34.3252E-03    -6.50560E-03     118.238E-03     39.7092E+06     9.58622E+06    -21.7641E+06    -1.40317E+06    -10.7747E+06     39.7092E+06    -8.81867E+06         27.8360
            2004     13.8980E-03     106.782E-03     359.828E-03     300.433E-03    -769.955E-03     292.216E-03    -761.738E-03     359.828E-03    -184.983E-03     88.1009E-03    -8.03688E-03    -80.0641E-03    -36.9609E-03     44.9978E-03    -8.03688E-03     146.675E-03     27.6695E+06     9.89882E+06    -43.8153E+06    -2.81965E+06    -28.0763E+06     24.6490E+06    -10.2896E+06         32.2538
            2005     14.8532E-03     106.931E-03     340.021E-03     296.834E-03    -807.012E-03     286.720E-03    -796.897E-03     340.021E-03    -206.387E-03     106.256E-03    -9.94891E-03    -96.3067E-03    -48.2057E-03     58.1546E-03    -9.94891E-03     172.121E-03     57.0179E+06     24.3084E+06    -35.4485E+06    -7.90672E+06     26.7329E+06     27.0516E+06    -3.26701E+06         40.8891
            2006     15.8182E-03     107.098E-03     332.572E-03     281.176E-03    -858.199E-03     279.874E-03    -844.745E-03     320.419E-03    -242.515E-03     123.048E-03    -12.5092E-03    -110.539E-03    -67.8882E-03     80.3975E-03    -12.5092E-03     178.551E-03     50.6041E+06    -25.0285E+06    -110.646E+06    -4.02216E+06    -56.0198E+06    -25.0285E+06    -6.89397E+06         56.3655
            2007     16.7247E-03     107.252E-03     331.470E-03     264.316E-03    -953.200E-03     297.167E-03    -944.623E-03     290.043E-03    -148.873E-03     246.462E-03    -15.3668E-03    -231.095E-03    -83.8626E-03     99.2295E-03    -15.3668E-03     427.469E-03     87.0879E+06     8.89210E+06    -107.444E+06    -2.10001E+06    -47.7651E+06     38.4010E+06    -11.2769E+06         76.2688
            2008     998.024E-06     107.322E-03     878.366E-03     423.024E-03        -1.07571     454.942E-03    -652.291E-03     423.024E-03     267.354E-03     2.67948E-03    -1.29945E-03    -1.38003E-03    -1.35018E-03     2.67169E-03    -1.32151E-03     101.870E-06    -95.9390E+06    -201.272E+06    -212.159E+06    -204.811E+06    -97.4492E+06    -207.109E+06    -8.05882E+06         20.2338
            2009     1.99637E-03     107.324E-03     598.115E-03     418.022E-03    -799.444E-03     418.400E-03    -636.305E-03     434.598E-03    -774.443E-03     2.57246E-03    -1.24725E-03    -1.32521E-03    -1.27459E-03     2.53785E-03    -1.26326E-03     441.233E-06    -69.7561E+06    -194.815E+06    -206.116E+06    -192.858E+06    -71.9060E+06    -205.923E+06    -12.0382E+06         20.2500
            2010     2.99451E-03     107.326E-03     529.286E-03     406.025E-03    -750.453E-03     378.606E-03    -616.348E-03     422.601E-03    -670.448E-03     2.75767E-03    -1.27317E-03    -1.48450E-03    -1.31010E-03     2.60534E-03    -1.29524E-03     1.34507E-03    -53.0737E+06    -172.215E+06    -183.344E+06    -167.633E+06    -57.9796E+06    -183.021E+06    -6.84776E+06         20.2825
            2011     3.99288E-03     107.333E-03     550.889E-03     408.518E-03    -790.425E-03     362.063E-03    -601.599E-03     408.518E-03    -920.343E-03     3.12111E-03    -1.33922E-03    -1.78189E-03    -1.30953E-03     2.67082E-03    -1.36130E-03     2.65590E-03    -29.1903E+06    -137.040E+06    -147.682E+06    -124.275E+06    -43.0834E+06    -146.554E+06     4.06950E+06         20.3390
            2012     4.99151E-03     107.339E-03     509.048E-03     395.538E-03    -749.668E-03     336.750E-03    -577.370E-03     395.538E-03    -854.704E-03     3.93871E-03    -1.37917E-03    -2.55953E-03    -1.45418E-03     2.83335E-03    -1.37917E-03     4.78503E-03    -5.60297E+06    -87.5963E+06    -126.420E+06    -75.6572E+06    -27.5450E+06    -116.417E+06     13.0925E+06         20.4326
            2013     5.99070E-03     107.351E-03     483.202E-03     381.851E-03    -733.513E-03     308.382E-03    -558.693E-03     381.851E-03    -847.490E-03     5.65567E-03    -1.51832E-03    -4.13735E-03    -1.95807E-03     3.47639E-03    -1.51832E-03     8.12475E-03     23.0370E+06    -35.0652E+06    -95.5810E+06    -31.2530E+06    -6.17643E+06    -70.1798E+06     25.4694E+06         20.5852
            2014     6.98835E-03     107.364E-03     397.213E-03     365.955E-03    -664.677E-03     270.347E-03    -538.520E-03     366.664E-03    -686.392E-03     8.66617E-03    -1.86217E-03    -6.80401E-03    -3.02595E-03     4.88812E-03    -1.86217E-03     13.2815E-03     53.6833E+06     7.12903E+06    -47.7937E+06     4.24228E+06     14.7570E+06    -5.98060E+06     41.0190E+06         20.8252
            2015     7.98462E-03     107.386E-03     356.509E-03     307.424E-03    -605.255E-03     230.972E-03    -521.783E-03     349.489E-03    -515.530E-03     13.2809E-03    -2.26699E-03    -11.0139E-03    -4.61375E-03     6.88075E-03    -2.26699E-03     21.3939E-03     76.9413E+06     38.7949E+06    -20.8660E+06     21.4881E+06     34.5871E+06     38.7949E+06     47.1490E+06         21.1843
            2016     8.97963E-03     107.414E-03     331.262E-03     235.159E-03    -542.743E-03     204.793E-03    -512.377E-03     331.262E-03    -293.540E-03     19.1040E-03    -2.71243E-03    -16.3916E-03    -6.51820E-03     9.23063E-03    -2.71243E-03     31.8069E-03     75.7705E+06     55.3950E+06    -16.5839E+06     17.8060E+06     41.3806E+06     55.3950E+06     42.0037E+06         21.7066
            2017     9.97177E-03     107.455E-03     313.442E-03     206.334E-03    -523.838E-03     196.467E-03    -513.972E-03     313.442E-03    -123.466E-03     26.9334E-03    -3.25662E-03    -23.6767E-03    -9.14227E-03     12.3989E-03    -3.25662E-03     45.7947E-03     65.9113E+06     54.0757E+06    -13.2691E+06     3.70525E+06     43.4645E+06     59.5481E+06     27.0598E+06         22.4592
            2018     10.9632E-03     107.508E-03     296.773E-03     205.316E-03    -527.728E-03     203.583E-03    -525.995E-03     296.773E-03    -7.84601E-03     38.3015E-03    -3.93492E-03    -34.3666E-03    -12.7661E-03     16.7010E-03    -3.93492E-03     66.3946E-03     57.3189E+06     32.0510E+06    -5.67021E+06    -1.83471E+06     28.8667E+06     56.6676E+06     10.2734E+06         23.5276
            2019     11.9478E-03     107.590E-03     281.070E-03     216.162E-03    -555.194E-03     214.802E-03    -553.833E-03     281.070E-03     4.52301E-03     52.4542E-03    -4.76920E-03    -47.6850E-03    -17.1698E-03     21.9390E-03    -4.76920E-03     92.1381E-03     54.7582E+06     13.8515E+06    -2.29312E+06     3.25409E+06     8.30430E+06     54.7582E+06    -1.35237E+06         25.0469
            2020     12.9346E-03     107.690E-03     265.660E-03     224.552E-03    -596.923E-03     223.008E-03    -595.379E-03     265.660E-03    -22.2222E-03     68.5700E-03    -5.76728E-03    -62.8027E-03    -23.2576E-03     29.0249E-03    -5.76728E-03     120.445E-03     48.1658E+06     11.1270E+06    -18.7811E+06     715.622E+03    -8.36972E+06     48.1658E+06    -7.12685E+06         27.3676
            2021     13.9082E-03     107.824E-03     255.968E-03     230.994E-03    -655.252E-03     231.629E-03    -649.986E-03     250.069E-03    -108.901E-03     87.3337E-03    -6.97687E-03    -80.3569E-03    -31.4995E-03     38.4763E-03    -6.97687E-03     152.214E-03     32.0563E+06     7.69223E+06    -39.8731E+06    -3.60031E+06    -28.5805E+06     32.0563E+06    -3.97701E+06         31.4493
            2022     14.8867E-03     107.982E-03     257.819E-03     229.968E-03    -732.157E-03     248.149E-03    -726.906E-03     234.387E-03    -114.423E-03     109.693E-03    -8.61190E-03    -101.081E-03    -45.9382E-03     54.5501E-03    -8.61190E-03     184.827E-03     54.9422E+06     23.6888E+06    -18.6420E+06     3.85415E+06     23.3583E+06     32.7765E+06    -4.26012E+06         39.3596
            2023     15.8362E-03     108.168E-03     285.081E-03     218.889E-03    -836.479E-03     276.673E-03    -828.712E-03     219.530E-03    -152.427E-03     136.446E-03    -11.0793E-03    -125.367E-03    -69.9702E-03     81.0495E-03    -11.0793E-03     212.364E-03     39.5102E+06    -17.6847E+06    -88.2265E+06     1.25541E+06    -49.9717E+06    -17.6847E+06    -7.50209E+06         53.6360
            2024     16.7652E-03     108.404E-03     332.996E-03     200.012E-03    -970.856E-03     325.616E-03    -963.476E-03     200.012E-03    -82.6028E-03     230.360E-03    -14.2197E-03    -216.141E-03    -84.3787E-03     98.5984E-03    -14.2197E-03     398.888E-03     76.9742E+06     8.50287E+06    -95.5821E+06    -6.34524E+06    -45.7049E+06     41.9451E+06    -6.17365E+06         72.3831
            2025     997.103E-06     108.327E-03     690.152E-03     232.853E-03    -750.801E-03     293.159E-03    -353.807E-03     232.853E-03     154.291E-03     4.92352E-03    -2.32346E-03    -2.60007E-03    -2.49325E-03     4.92153E-03    -2.42828E-03     55.9181E-06    -77.2618E+06    -155.941E+06    -170.841E+06    -161.033E+06    -80.0355E+06    -162.975E+06    -11.7527E+06         20.3571
            2026     1.99415E-03     108.327E-03     431.970E-03     257.496E-03    -539.121E-03     251.715E-03    -361.885E-03     260.515E-03    -675.039E-03     5.07733E-03    -2.45211E-03    -2.62523E-03    -2.60682E-03     5.07041E-03    -2.46358E-03    -13.7257E-06    -53.2296E+06    -162.309E+06    -169.074E+06    -163.562E+06    -57.8318E+06    -163.219E+06    -21.3662E+06         20.3712
            2027     2.99109E-03     108.331E-03     388.948E-03     252.191E-03    -504.585E-03     239.655E-03    -358.310E-03     255.210E-03    -596.633E-03     4.95015E-03    -2.41320E-03    -2.53695E-03    -2.42633E-03     4.91491E-03    -2.48858E-03     478.641E-06    -47.1644E+06    -163.203E+06    -169.915E+06    -162.439E+06    -54.6410E+06    -163.203E+06    -28.7035E+06         20.3962
            2028     3.98849E-03     108.335E-03     436.084E-03     249.855E-03    -569.814E-03     233.928E-03    -367.657E-03     249.855E-03    -793.284E-03     4.72130E-03    -2.24682E-03    -2.47449E-03    -2.16076E-03     4.58518E-03    -2.42442E-03     1.35553E-03    -36.9564E+06    -155.055E+06    -170.252E+06    -154.292E+06    -46.1001E+06    -161.870E+06    -31.5684E+06         20.4372
            2029     4.98608E-03     108.344E-03     402.052E-03     245.032E-03    -550.707E-03     227.543E-03    -376.197E-03     245.032E-03    -730.514E-03     4.71824E-03    -2.12806E-03    -2.59018E-03    -2.00330E-03     4.28722E-03    -2.28392E-03     2.76160E-03    -24.3968E+06    -135.508E+06    -174.048E+06    -137.056E+06    -32.5675E+06    -164.329E+06    -28.3781E+06         20.5067
            2030     5.98384E-03     108.353E-03     379.929E-03     239.760E-03    -549.219E-03     215.273E-03    -384.563E-03     239.760E-03    -703.408E-03     5.44688E-03    -2.21484E-03    -3.23204E-03    -2.11747E-03     4.38594E-03    -2.26847E-03     5.23743E-03    -15.1682E+06    -107.665E+06    -152.074E+06    -109.891E+06    -22.2367E+06    -142.780E+06    -19.4556E+06         20.6257
            2031     6.98201E-03     108.370E-03     296.710E-03     232.846E-03    -487.972E-03     192.638E-03    -383.900E-03     232.846E-03    -531.551E-03     7.58147E-03    -2.44131E-03    -5.14016E-03    -2.76887E-03     5.21018E-03    -2.44131E-03     9.70276E-03     11.2002E+06    -73.3906E+06    -100.488E+06    -66.9837E+06    -5.51974E+06    -90.1748E+06    -3.82649E+06         20.8219
            2032     7.97936E-03     108.391E-03     247.293E-03     201.019E-03    -436.492E-03     167.348E-03    -379.300E-03     223.772E-03    -350.387E-03     11.3939E-03    -2.71859E-03    -8.67532E-03    -3.99578E-03     6.71437E-03    -2.71859E-03     16.8846E-03     45.4043E+06    -22.0200E+06    -53.9717E+06    -15.9413E+06     17.9559E+06    -32.6020E+06     18.1723E+06         21.1290
            2033     8.97478E-03     108.424E-03     212.998E-03     157.662E-03    -383.480E-03     145.344E-03    -371.162E-03     212.998E-03    -124.903E-03     16.8060E-03    -3.16274E-03    -13.6433E-03    -5.72716E-03     8.88990E-03    -3.16274E-03     26.6702E-03     69.5741E+06     34.8225E+06    -17.6935E+06     23.4930E+06     35.2951E+06     27.9150E+06     35.9110E+06         21.5940
            2034     9.96918E-03     108.464E-03     201.463E-03     146.235E-03    -378.527E-03     136.547E-03    -368.840E-03     201.463E-03     41.4639E-03     24.8341E-03    -3.72857E-03    -21.1055E-03    -8.26048E-03     11.9890E-03    -3.72857E-03     41.2068E-03     93.1524E+06     74.6382E+06    -6.78912E+06     36.5311E+06     49.8322E+06     74.6382E+06     42.6548E+06         22.2764
            2035     10.9582E-03     108.526E-03     190.339E-03     152.906E-03    -398.206E-03     136.938E-03    -381.754E-03     189.856E-03     149.004E-03     35.5557E-03    -4.31555E-03    -31.2401E-03    -11.1345E-03     15.4500E-03    -4.31555E-03     61.2477E-03     88.2293E+06     67.7345E+06    -13.0129E+06     16.9326E+06     44.7788E+06     81.2394E+06     33.6566E+06         23.2456
            2036     11.9504E-03     108.605E-03     182.618E-03     154.589E-03    -428.059E-03     143.912E-03    -413.007E-03     178.244E-03     148.650E-03     49.0102E-03    -4.95989E-03    -44.0503E-03    -14.6683E-03     19.6282E-03    -4.95989E-03     86.5012E-03     66.5562E+06     34.1382E+06    -21.4895E+06    -13.3455E+06     25.9942E+06     66.5562E+06     11.9332E+06         24.6215
            2037     12.9339E-03     108.716E-03     179.826E-03     154.624E-03    -475.847E-03     157.803E-03    -465.922E-03     166.722E-03     122.275E-03     64.2110E-03    -5.68766E-03    -58.5233E-03    -18.7059E-03     24.3936E-03    -5.68766E-03     114.859E-03     49.8862E+06     11.3697E+06    -36.3295E+06    -22.9933E+06    -1.96661E+06     49.8862E+06    -2.55092E+06         26.7375
            2038     13.9208E-03     108.852E-03     187.752E-03     152.761E-03    -549.089E-03     179.784E-03    -543.868E-03     155.508E-03     32.3273E-03     83.3813E-03    -6.57538E-03    -76.8059E-03    -25.9849E-03     32.5603E-03    -6.57538E-03     149.015E-03     38.0294E+06     4.52193E+06    -42.7145E+06    -9.53184E+06    -28.6607E+06     38.0294E+06    -11.9436E+06         30.4767
            2039     14.8950E-03     109.021E-03     221.882E-03     144.857E-03    -649.547E-03     218.160E-03    -645.825E-03     144.857E-03     28.9189E-03     111.693E-03    -7.97693E-03    -103.716E-03    -43.3999E-03     51.3768E-03    -7.97693E-03     192.930E-03     53.6726E+06     31.7001E+06    -20.1067E+06     1.54351E+06     17.7248E+06     45.9976E+06    -10.7802E+06         37.6368
            2040     15.8505E-03     109.254E-03     276.307E-03     135.850E-03    -776.120E-03     270.898E-03    -770.711E-03     135.850E-03    -25.4117E-03     137.152E-03    -10.1221E-03    -127.030E-03    -64.4453E-03     74.5675E-03    -10.1221E-03     224.121E-03     39.6760E+06    -5.96286E+06    -83.1586E+06     4.81463E+06    -48.6909E+06    -5.56926E+06     727.681E+03         50.7049
            2041     16.8036E-03     109.482E-03     338.917E-03     125.797E-03    -925.320E-03     333.655E-03    -920.058E-03     125.797E-03     713.838E-06     214.146E-03    -13.2004E-03    -200.945E-03    -86.1328E-03     99.3332E-03    -13.2004E-03     369.102E-03     84.3055E+06     12.9964E+06    -83.7746E+06     4.13728E+06    -37.3452E+06     46.7352E+06     4.21344E+06         68.0532
            2042     996.476E-06     109.332E-03     626.628E-03     98.1442E-03    -594.670E-03     153.299E-03    -121.341E-03     98.1442E-03     201.575E-03     7.88812E-03    -3.78392E-03    -4.10420E-03    -3.94403E-03     7.88291E-03    -3.93888E-03    -263.312E-06    -58.1194E+06    -110.363E+06    -128.296E+06    -118.807E+06    -60.8883E+06    -117.083E+06    -11.6809E+06         20.5564
            2043     1.99139E-03     109.336E-03     320.919E-03     124.587E-03    -338.137E-03     120.802E-03    -138.019E-03     124.587E-03    -563.563E-03     8.10901E-03    -3.90819E-03    -4.20082E-03    -4.13306E-03     8.10286E-03    -3.96980E-03    -471.911E-06    -34.7360E+06    -115.982E+06    -124.951E+06    -120.187E+06    -38.9051E+06    -116.576E+06    -17.7568E+06         20.5744
            2044     2.98692E-03     109.336E-03     281.822E-03     122.988E-03    -314.824E-03     121.206E-03    -154.209E-03     122.988E-03    -493.882E-03     8.15279E-03    -3.98025E-03    -4.17255E-03    -4.10756E-03     8.14110E-03    -4.03355E-03    -602.298E-06    -28.6459E+06    -118.817E+06    -132.428E+06    -123.944E+06    -37.1294E+06    -118.817E+06    -27.8386E+06         20.6029
            2045     3.98258E-03     109.343E-03     345.870E-03     122.336E-03    -404.026E-03     123.886E-03    -182.042E-03     122.336E-03    -674.391E-03     7.89055E-03    -3.84747E-03    -4.04308E-03    -3.85389E-03     7.87571E-03    -4.02183E-03    -207.880E-06    -21.6156E+06    -122.584E+06    -139.690E+06    -127.357E+06    -33.9487E+06    -122.584E+06    -36.0107E+06         20.6443
            2046     4.97863E-03     109.348E-03     306.409E-03     122.282E-03    -393.569E-03     127.982E-03    -215.142E-03     122.282E-03    -605.139E-03     7.84597E-03    -3.81832E-03    -4.02765E-03    -3.79140E-03     7.78441E-03    -3.99301E-03     800.495E-06    -15.0050E+06    -123.026E+06    -144.484E+06    -130.836E+06    -28.6539E+06    -123.026E+06    -39.6197E+06         20.7073
            2047     5.97455E-03     109.360E-03     283.291E-03     122.369E-03    -395.990E-03     130.711E-03    -243.409E-03     122.369E-03    -558.623E-03     8.21429E-03    -3.94552E-03    -4.26878E-03    -3.93337E-03     7.93252E-03    -3.99915E-03     2.64195E-03    -10.1073E+06    -119.409E+06    -143.478E+06    -129.798E+06    -23.7874E+06    -119.409E+06    -40.2721E+06         20.8070
            2048     6.97024E-03     109.374E-03     199.662E-03     121.531E-03    -335.706E-03     123.267E-03    -259.310E-03     121.531E-03    -372.324E-03     9.20154E-03    -4.04128E-03    -5.16025E-03    -4.22073E-03     8.26201E-03    -4.04128E-03     6.01421E-03    -1.79640E+06    -108.423E+06    -137.496E+06    -120.904E+06    -14.7141E+06    -112.098E+06    -38.8643E+06         20.9643
            2049     7.96574E-03     109.399E-03     151.530E-03     109.668E-03    -292.125E-03     110.690E-03    -260.496E-03     118.879E-03    -176.781E-03     11.2946E-03    -4.16791E-03    -7.12666E-03    -4.76687E-03     8.93478E-03    -4.16791E-03     11.4846E-03     5.12806E+06    -81.8648E+06    -118.910E+06    -97.7658E+06    -5.43427E+06    -92.4468E+06    -26.8314E+06         21.2095
            2050     8.96136E-03     109.430E-03     128.711E-03     95.5207E-03    -267.165E-03     95.3266E-03    -252.585E-03     114.325E-03     57.9940E-03     15.1940E-03    -4.47104E-03    -10.7230E-03    -5.86988E-03     10.3409E-03    -4.47104E-03     19.7491E-03     29.1163E+06    -35.8532E+06    -76.4416E+06    -55.9368E+06     15.5190E+06    -42.7607E+06    -7.00603E+06         21.5868
            2051     9.95479E-03     109.477E-03     141.510E-03     95.2837E-03    -293.082E-03     84.7572E-03    -249.245E-03     108.200E-03     220.738E-03     21.8981E-03    -4.92569E-03    -16.9724E-03    -7.85004E-03     12.7757E-03    -4.92569E-03     32.6897E-03     59.1345E+06     15.5402E+06    -37.4221E+06    -5.77968E+06     27.4920E+06     15.5402E+06     19.4090E+06         22.1485
            2052     10.9487E-03     109.538E-03     155.820E-03     97.7275E-03    -329.598E-03     80.7421E-03    -257.841E-03     101.049E-03     322.513E-03     31.2739E-03    -5.53007E-03    -25.7439E-03    -10.4069E-03     15.9370E-03    -5.53007E-03     50.3910E-03     90.8401E+06     73.0603E+06    -12.5887E+06     33.0841E+06     42.8814E+06     75.3463E+06     43.8329E+06         22.9586
            2053     11.9349E-03     109.622E-03     153.063E-03     93.4680E-03    -353.841E-03     88.8148E-03    -289.593E-03     93.4680E-03     314.397E-03     44.0474E-03    -6.16507E-03    -37.8823E-03    -13.1456E-03     19.3107E-03    -6.16507E-03     75.1060E-03     111.502E+06     96.4222E+06    -17.6334E+06     37.5003E+06     46.2643E+06     106.526E+06       45.76E+06         24.1325
            2054     12.9234E-03     109.735E-03     154.203E-03     86.2591E-03    -393.377E-03     110.126E-03    -349.299E-03     86.2591E-03     278.651E-03     57.6730E-03    -6.68772E-03    -50.9853E-03    -15.7432E-03     22.4309E-03    -6.68772E-03     101.671E-03     91.4328E+06     59.1339E+06    -27.0624E+06     12.8867E+06     22.9414E+06     87.6762E+06     21.5990E+06         25.9962
            2055     13.9110E-03     109.868E-03     170.931E-03     80.0870E-03    -457.529E-03     148.119E-03    -434.717E-03     80.0870E-03     184.764E-03     78.4318E-03    -7.31704E-03    -71.1147E-03    -23.3677E-03     30.6847E-03    -7.31704E-03     139.354E-03     55.3319E+06     21.5400E+06    -36.5417E+06    -6.90866E+06    -8.09299E+06     55.3319E+06    -12.1696E+06         29.3344
            2056     14.8888E-03     110.065E-03     214.713E-03     75.2682E-03    -556.360E-03     202.361E-03    -544.008E-03     75.2682E-03     169.545E-03     109.453E-03    -8.46305E-03    -100.990E-03    -39.3798E-03     47.8429E-03    -8.46305E-03     191.367E-03     42.7796E+06     19.3409E+06    -32.5917E+06    -9.58337E+06    -3.66745E+06     42.7796E+06    -13.0633E+06         35.6442
            2057     15.8572E-03     110.309E-03     270.595E-03     72.4787E-03    -680.999E-03     260.123E-03    -670.528E-03     72.4787E-03     96.6596E-03     136.096E-03    -10.4125E-03    -125.683E-03    -62.7919E-03     73.2044E-03    -10.4125E-03     222.598E-03     22.2541E+06    -15.0971E+06    -82.6595E+06    -20.6242E+06    -50.1522E+06     -4.7262E+06    -3.51549E+06         47.1947
            2058     16.7855E-03     110.575E-03     310.745E-03     69.7509E-03    -803.943E-03     306.968E-03    -800.166E-03     69.7509E-03     57.4284E-03     202.917E-03    -13.2955E-03    -189.621E-03    -82.2714E-03     95.5669E-03    -13.2955E-03     346.910E-03     61.2657E+06     3.21615E+06    -92.4995E+06    -29.5365E+06    -32.7666E+06     34.2855E+06    -10.0073E+06         63.1393
            2059     993.120E-06     110.343E-03     536.370E-03     59.0568E-03    -505.027E-03     3.61614E-03     27.7268E-03     59.0568E-03     160.965E-03     11.7245E-03    -5.61086E-03    -6.11362E-03    -6.03444E-03     11.7069E-03    -5.67248E-03    -351.079E-06    -38.0553E+06    -72.6984E+06    -84.8868E+06    -79.4842E+06    -42.8631E+06    -73.2932E+06     -5.7031E+06         20.8149
            2060     1.98861E-03     110.344E-03     277.774E-03     32.3900E-03    -225.760E-03     37.2982E-03     14.7151E-03     32.3900E-03    -485.560E-03     11.6519E-03    -5.66550E-03    -5.98644E-03    -5.81901E-03     11.6264E-03    -5.80741E-03    -1.26842E-03    -19.6744E+06    -79.3251E+06    -87.2760E+06    -80.6264E+06    -24.0675E+06    -81.5817E+06    -15.2255E+06         20.8415
            2061     2.98202E-03     110.349E-03     222.325E-03     32.2231E-03    -203.477E-03     25.2721E-03    -6.42418E-03     32.2231E-03    -405.249E-03     11.8435E-03    -5.75652E-03    -6.08693E-03    -5.96992E-03     11.8067E-03    -5.83681E-03    -1.58793E-03    -11.9227E+06    -80.2789E+06    -92.3885E+06    -83.5831E+06    -19.0664E+06    -81.9406E+06    -21.5877E+06         20.8834
            2062     3.97572E-03     110.351E-03     280.913E-03     30.8488E-03    -296.533E-03     31.9891E-03    -47.6083E-03     30.8488E-03    -562.456E-03     12.2653E-03    -5.90927E-03    -6.35603E-03    -6.29798E-03     12.2261E-03    -5.92810E-03    -1.65183E-03    -9.72588E+06    -83.0717E+06    -100.636E+06     -90.605E+06    -19.7571E+06    -83.0717E+06    -27.9827E+06         20.9435
            2063     4.96926E-03     110.360E-03     227.744E-03     31.0503E-03    -281.482E-03     37.3367E-03    -91.0752E-03     31.0503E-03    -486.148E-03     12.6687E-03    -6.01984E-03    -6.64889E-03    -6.59707E-03     12.6357E-03    -6.03867E-03    -1.30181E-03    -5.25989E+06    -87.3082E+06    -109.322E+06    -96.4398E+06    -18.1419E+06    -87.3082E+06    -34.0595E+06         21.0258
            2064     5.96226E-03     110.369E-03     193.755E-03     32.0267E-03    -279.339E-03     46.7390E-03    -132.323E-03     32.0267E-03    -427.387E-03     13.3493E-03    -6.21907E-03    -7.13022E-03    -7.09788E-03     13.3170E-03    -6.21907E-03    -182.052E-06    -869.524E+03    -83.9153E+06    -114.830E+06    -100.012E+06    -15.6882E+06    -83.9153E+06    -38.2215E+06         21.1380
            2065     6.95458E-03     110.387E-03     107.463E-03     33.4009E-03    -211.074E-03     53.6026E-03    -157.214E-03     33.4009E-03    -231.601E-03     14.2843E-03    -6.47046E-03    -7.81389E-03    -7.65421E-03     14.1247E-03    -6.47046E-03     2.06116E-03     1.84554E+06    -75.6535E+06    -119.970E+06    -106.032E+06    -12.0923E+06    -75.6535E+06    -38.2067E+06         21.2923
            2066     7.94652E-03     110.409E-03     77.7215E-03     34.2346E-03    -189.353E-03     53.6802E-03    -165.311E-03     34.2346E-03    -27.7712E-03     15.4799E-03    -6.74513E-03    -8.73476E-03    -8.11290E-03     14.8580E-03    -6.74513E-03     5.82008E-03     3.37011E+06    -69.0000E+06    -125.735E+06    -111.830E+06    -10.5356E+06    -69.0000E+06    -39.6315E+06         21.5076
            2067     8.93790E-03     110.443E-03     101.990E-03     33.8270E-03    -213.991E-03     49.3636E-03    -161.365E-03     33.8270E-03     205.602E-03     17.7492E-03    -7.03984E-03    -10.7093E-03    -8.86317E-03     15.9030E-03    -7.03984E-03     11.9762E-03     10.3545E+06    -59.5998E+06    -121.070E+06    -110.272E+06    -443.682E+03    -59.5998E+06    -34.5886E+06         21.8131
            2068     9.92933E-03     110.488E-03     155.540E-03     31.9539E-03    -268.111E-03     43.1617E-03    -155.732E-03     31.9539E-03     363.855E-03     21.7786E-03    -7.41162E-03    -14.3670E-03    -10.1101E-03     17.5217E-03    -7.41162E-03     21.5126E-03     11.0032E+06    -42.7459E+06    -98.8971E+06    -91.2903E+06     3.39635E+06    -42.7459E+06    -23.3804E+06         22.2471
            2069     10.9173E-03     110.553E-03     196.847E-03     28.9771E-03    -313.719E-03     44.3011E-03    -161.173E-03     28.9771E-03     461.836E-03     27.9510E-03    -7.95492E-03    -19.9961E-03    -11.4510E-03     19.4059E-03    -7.95492E-03     35.4895E-03     34.5437E+06     4.84415E+06    -70.4110E+06    -47.5231E+06     11.6558E+06     4.84415E+06    -2.07773E+06         22.8642
            2070     11.9089E-03     110.639E-03     194.317E-03     25.7606E-03    -322.975E-03     58.3304E-03    -186.988E-03     25.7606E-03     446.767E-03     36.9866E-03    -8.54535E-03    -28.4413E-03    -12.7523E-03     21.2976E-03    -8.54535E-03     54.9654E-03     82.3201E+06     62.6481E+06    -45.5435E+06     5.89960E+06     30.8771E+06     62.6481E+06     31.2437E+06         23.7788
            2071     12.8981E-03     110.751E-03     189.432E-03     23.4378E-03    -338.012E-03     90.7078E-03    -239.288E-03     23.4378E-03     402.846E-03     48.4262E-03    -9.13615E-03    -39.2900E-03    -15.1768E-03     24.3129E-03    -9.13615E-03     77.7559E-03     111.486E+06     86.7228E+06    -9.66610E+06     37.3037E+06     46.4321E+06     104.807E+06     41.7670E+06         25.3049
            2072     13.8806E-03     110.891E-03     196.810E-03     22.8637E-03    -374.670E-03     141.597E-03    -319.458E-03     22.8637E-03     304.472E-03     69.6439E-03    -9.80493E-03    -59.8390E-03    -22.1629E-03     31.9678E-03    -9.80493E-03     117.362E-03     103.796E+06     69.3330E+06    -15.2638E+06     25.5379E+06     28.5312E+06     103.796E+06     23.1463E+06         28.1042
            2073     14.8597E-03     111.091E-03     227.742E-03     24.1312E-03    -450.758E-03     201.911E-03    -424.927E-03     24.1312E-03     254.655E-03     101.620E-03    -10.8749E-03    -90.7448E-03    -37.4103E-03     48.2851E-03    -10.8749E-03     171.904E-03     70.9461E+06     17.4206E+06    -47.1119E+06      -16.85E+06    -12.8414E+06     70.9461E+06     11.7576E+06         33.3231
            2074     15.8208E-03     111.359E-03     269.030E-03     27.0427E-03    -554.428E-03     252.487E-03    -537.884E-03     27.0427E-03     174.133E-03     132.269E-03    -12.7241E-03    -119.545E-03    -59.1341E-03     71.8582E-03    -12.7241E-03     214.448E-03     44.9787E+06    -9.32038E+06    -59.2982E+06    -38.5974E+06    -29.7492E+06     44.7067E+06     1.80368E+06         42.6394
            2075     16.7619E-03     111.672E-03     269.994E-03     29.9051E-03    -626.020E-03     266.980E-03    -623.006E-03     29.9051E-03     88.9096E-03     181.827E-03    -14.6082E-03    -167.219E-03    -59.3021E-03     73.9103E-03    -14.6082E-03     316.688E-03     41.4050E+06     5.52336E+06    -68.6392E+06    -36.0514E+06    -20.9538E+06     35.2943E+06    -24.0578E+06         56.5600
            2076     993.249E-06     111.356E-03     491.693E-03    -12.2484E-03    -411.520E-03    -5.57716E-03     85.7504E-03    -12.2484E-03     177.016E-03     16.0157E-03    -7.33928E-03    -8.67644E-03    -7.69092E-03     15.9783E-03    -8.28735E-03    -1.01893E-03    -13.3850E+06    -40.0112E+06    -52.6654E+06    -33.4051E+06    -28.3531E+06    -44.3034E+06    -7.16731E+06         21.0979
            2077     1.98292E-03     111.359E-03     250.680E-03    -9.84763E-03    -181.654E-03    -13.5521E-03     82.5778E-03    -9.84763E-03    -366.341E-03     15.9861E-03    -7.83045E-03    -8.15561E-03    -8.01553E-03     15.9526E-03    -7.93710E-03    -1.70486E-03    -2.97515E+06    -37.9573E+06    -50.7796E+06    -38.5354E+06    -9.26542E+06    -43.9112E+06    -13.4310E+06         21.1353
            2078     2.97643E-03     111.361E-03     200.656E-03    -13.7634E-03    -163.186E-03    -31.2878E-03     68.7578E-03    -13.7634E-03    -296.755E-03     16.3883E-03    -7.93315E-03    -8.45511E-03    -8.32206E-03     16.3355E-03    -8.01344E-03    -2.26502E-03    -2.14222E+06    -42.5174E+06    -51.9217E+06    -42.5835E+06    -9.81873E+06    -44.1791E+06    -16.4290E+06         21.1981
            2079     3.96752E-03     111.368E-03     221.501E-03    -19.9629E-03    -227.636E-03    -45.0763E-03     38.9410E-03    -19.9629E-03    -430.031E-03     17.5271E-03    -8.22653E-03    -9.30054E-03    -9.23546E-03     17.4620E-03    -8.22653E-03    -2.63288E-03    -5.15125E+03    -41.4330E+06    -56.0240E+06    -47.6391E+06    -8.39009E+06    -41.4330E+06    -18.8083E+06         21.2913
            2080     4.95727E-03     111.374E-03     165.601E-03    -26.1630E-03    -216.799E-03    -53.8602E-03     2.66214E-03    -26.1630E-03    -361.395E-03     18.9452E-03    -8.56318E-03    -10.3820E-03    -10.3122E-03     18.8754E-03    -8.56318E-03    -2.84988E-03     4.16609E+06    -42.0733E+06    -65.6566E+06    -55.5028E+06    -5.98771E+06    -42.0733E+06    -24.5044E+06         21.4158
            2081     5.94672E-03     111.387E-03     123.418E-03    -31.1590E-03    -209.588E-03    -51.0520E-03    -35.1176E-03    -31.1590E-03    -310.684E-03     20.3768E-03    -8.99406E-03    -11.3828E-03    -11.3268E-03     20.3209E-03    -8.99406E-03    -2.55553E-03     1.61876E+06    -42.9906E+06    -76.7841E+06    -66.1765E+06    -8.98879E+06    -42.9906E+06    -26.5759E+06         21.5730
            2082     6.93474E-03     111.403E-03     32.7282E-03    -34.0816E-03    -133.628E-03    -37.9795E-03    -62.9198E-03    -34.0816E-03    -128.782E-03     22.0901E-03    -9.50502E-03    -12.5851E-03    -12.5485E-03     22.0535E-03    -9.50502E-03    -1.64847E-03     2.59445E+06    -37.9935E+06    -83.6499E+06    -73.5384E+06    -7.51700E+06    -37.9935E+06    -26.9664E+06         21.7682
            2083     7.92145E-03     111.429E-03     33.7787E-03    -35.1195E-03    -133.190E-03    -22.4699E-03    -76.9409E-03    -35.1195E-03     53.9994E-03     24.1645E-03    -10.1039E-03    -14.0607E-03    -13.9909E-03     24.0948E-03    -10.1039E-03     63.6011E-06     5.51645E+06    -28.2616E+06    -87.4032E+06    -77.8403E+06    -4.04646E+06    -28.2616E+06    -27.3449E+06         22.0088
            2084     8.90678E-03     111.461E-03     101.139E-03    -35.1697E-03    -188.782E-03    -9.50916E-03    -78.1335E-03    -35.1697E-03     267.293E-03     26.3936E-03    -10.7626E-03    -15.6310E-03    -15.3601E-03     26.1227E-03    -10.7626E-03     3.51772E-03     6.30648E+06    -21.2820E+06    -92.2818E+06    -82.2318E+06    -4.58756E+06    -20.4379E+06    -28.7176E+06         22.3047
            2085     9.88967E-03     111.510E-03     173.749E-03    -34.6857E-03    -244.979E-03     8.63484E-03    -79.8650E-03    -34.6857E-03     406.194E-03     28.8745E-03    -11.4225E-03    -17.4520E-03    -16.4867E-03     27.9091E-03    -11.4225E-03     9.51798E-03     12.4950E+06    -18.9991E+06    -98.5528E+06    -88.6137E+06     1.71187E+06    -18.1550E+06    -28.7057E+06         22.6752
            2086     10.8737E-03     111.573E-03     230.012E-03    -33.5445E-03    -284.926E-03     31.4990E-03    -86.4133E-03    -33.5445E-03     500.277E-03     32.2014E-03    -12.1087E-03    -20.0928E-03    -17.4833E-03     29.5920E-03    -12.1087E-03     17.7507E-03     8.53247E+06    -28.2454E+06    -105.618E+06    -97.2309E+06    -8.21810E+06    -19.8820E+06    -25.6722E+06         23.1577
            2087     11.8544E-03     111.658E-03     243.642E-03    -31.2757E-03    -283.487E-03     66.5382E-03    -106.383E-03    -31.2757E-03     494.950E-03     35.8882E-03    -12.8086E-03    -23.0795E-03    -17.7208E-03     30.5294E-03    -12.8086E-03     28.8950E-03     12.0158E+06    -14.9953E+06    -94.9895E+06    -87.5374E+06    -3.79969E+06    -6.63185E+06    -14.2382E+06         23.8481
            2088     12.8348E-03     111.770E-03     245.950E-03    -27.2380E-03    -277.540E-03     112.184E-03    -143.774E-03    -27.2380E-03     454.890E-03     42.4035E-03    -13.6099E-03    -28.7936E-03    -18.8049E-03     32.4148E-03    -13.6099E-03     45.4877E-03     53.7613E+06     38.0147E+06    -61.7364E+06    -48.4755E+06     32.9351E+06     45.5800E+06     4.38523E+06         24.9938
            2089     13.8188E-03     111.912E-03     243.949E-03    -21.2944E-03    -288.389E-03     165.855E-03    -210.296E-03    -21.2944E-03     352.833E-03     58.3756E-03    -14.6096E-03    -43.7660E-03    -24.0720E-03     38.6816E-03    -14.6096E-03     77.3253E-03     95.6908E+06     60.6712E+06    -46.0490E+06    -12.6061E+06     28.5357E+06     94.3834E+06     31.2856E+06         27.0695
            2090     14.7911E-03     112.118E-03     253.067E-03    -13.8932E-03    -331.088E-03     219.792E-03    -297.813E-03    -13.8932E-03     270.032E-03     87.7625E-03    -15.9149E-03    -71.8476E-03    -34.7795E-03     50.6945E-03    -15.9149E-03     133.459E-03     122.998E+06     50.6973E+06    -46.9723E+06     4.68944E+06    -964.404E+03     122.998E+06     41.8336E+06         30.7864
            2091     15.7472E-03     112.405E-03     270.527E-03    -5.90799E-03    -405.357E-03     251.919E-03    -386.750E-03    -5.90799E-03     184.852E-03     118.395E-03    -17.4245E-03    -100.971E-03    -46.1983E-03     63.6228E-03    -17.4245E-03     189.777E-03     138.519E+06     57.0652E+06    -18.6361E+06     28.1718E+06     10.2573E+06     138.519E+06     12.8569E+06         37.0938
            2092     16.7070E-03     112.722E-03     235.991E-03     870.068E-06    -435.506E-03     232.447E-03    -431.962E-03     870.068E-06     93.4525E-03     136.873E-03    -17.9612E-03    -118.912E-03    -28.8872E-03     46.8484E-03    -17.9612E-03     238.724E-03     96.8269E+06     35.2232E+06    -30.5230E+06     31.4588E+06    -454.623E+03     70.5230E+06    -2.44227E+06         46.4529
            2093     988.395E-06     112.375E-03     569.837E-03    -99.3022E-03    -416.039E-03     15.3685E-03     155.498E-03    -116.371E-03    -98.7957E-03     20.8944E-03    -9.40876E-03    -11.4857E-03    -10.1680E-03     20.8535E-03    -10.6855E-03    -2.09667E-03     18.9189E+06    -449.037E+03    -22.4492E+06     6.94053E+06    -10.1876E+06    -732.258E+03    -12.4437E+06         21.3374
            2094     1.98114E-03     112.377E-03     343.103E-03    -25.8743E-03    -279.734E-03     71.4135E-03    -8.04423E-03    -25.8743E-03    -369.006E-03     20.5927E-03    -9.95628E-03    -10.6365E-03    -10.2558E-03     20.5670E-03    -10.3113E-03    -1.69514E-03     11.2341E+06    -5.53801E+06    -18.3059E+06    -2.11559E+06    -664.015E+03    -9.83021E+06    -10.0908E+06         21.3819
            2095     2.96826E-03     112.381E-03     179.189E-03    -3.19843E-03    -161.052E-03    -14.2139E-03     32.3510E-03    -3.19843E-03    -52.3371E-03     21.9562E-03    -10.4747E-03    -11.4815E-03    -11.4470E-03     21.9217E-03    -10.4747E-03    -2.00924E-03     4.25709E+06    -11.3708E+06    -22.7011E+06    -12.7688E+06    -5.67521E+06    -11.3708E+06    -10.5080E+06         21.4666
            2096     3.95728E-03     112.386E-03     168.332E-03    -19.6961E-03    -201.314E-03    -139.341E-03     106.359E-03    -19.6961E-03    -212.318E-03     23.5938E-03    -10.8938E-03    -12.7000E-03    -12.6523E-03     23.5460E-03    -10.8938E-03    -2.50754E-03     6.13588E+06    -10.3698E+06    -24.5065E+06    -18.4568E+06    -1.10331E+06    -9.18026E+06    -11.4007E+06         21.5937
            2097     4.94413E-03     112.398E-03     154.388E-03    -47.4658E-03    -241.226E-03    -177.151E-03     90.3135E-03    -47.4658E-03    -245.171E-03     26.0878E-03    -11.5015E-03    -14.5863E-03    -14.5282E-03     26.0298E-03    -11.5015E-03    -2.97313E-03     8.66450E+06    -8.16166E+06    -30.5946E+06    -26.0222E+06    -664.464E+03    -3.40514E+06    -11.4852E+06         21.7644
            2098     5.92798E-03     112.410E-03     105.956E-03    -68.8727E-03    -227.018E-03    -168.008E-03     46.9460E-03    -68.8727E-03    -210.286E-03     29.1517E-03    -12.2820E-03    -16.8697E-03    -16.7991E-03     29.0812E-03    -12.2820E-03    -3.54282E-03     11.0761E+06    -10.0292E+06    -38.1634E+06    -33.3443E+06    -4.23235E+06     460.043E+03    -12.4143E+06         21.9783
            2099     6.91057E-03     112.431E-03     57.9187E-03    -84.4013E-03    -187.432E-03    -176.942E-03     47.4282E-03    -84.4013E-03    -30.8897E-03     32.4528E-03    -13.1999E-03    -19.2529E-03    -19.1743E-03     32.3742E-03    -13.1999E-03    -3.99969E-03     15.3570E+06    -6.42882E+06    -44.3001E+06    -38.5599E+06    -2.01733E+06     5.20534E+06    -14.9591E+06         22.2337
            2100     7.89010E-03     112.457E-03     82.4937E-03    -97.1317E-03    -195.745E-03    -172.341E-03     59.0896E-03    -97.1317E-03     59.7987E-03     36.2655E-03    -14.2496E-03    -22.0160E-03    -21.9375E-03     36.1871E-03    -14.2496E-03    -4.20757E-03     14.7399E+06    -2.70229E+06    -48.5364E+06    -43.1209E+06    -3.05242E+06     9.67452E+06    -14.7781E+06         22.5307
            2101     8.86597E-03     112.495E-03     105.037E-03    -101.798E-03    -189.544E-03    -118.740E-03     37.5621E-03    -105.127E-03     164.426E-03     40.2345E-03    -15.4165E-03    -24.8180E-03    -24.7307E-03     40.1472E-03    -15.4165E-03    -3.84570E-03     15.7780E+06     4.38911E+06    -54.1126E+06    -48.6700E+06     787.061E+03     13.9374E+06    -14.5776E+06         22.8702
            2102     9.84063E-03     112.542E-03     130.931E-03    -85.0071E-03    -184.920E-03    -32.5985E-03    -354.702E-06    -106.043E-03     257.748E-03     44.1908E-03    -16.6811E-03    -27.5097E-03    -27.3621E-03     44.0433E-03    -16.6811E-03    -2.84932E-03     23.9475E+06    -1.68448E+06    -60.8007E+06    -54.9814E+06     366.357E+03     16.0775E+06    -12.2393E+06         23.2565
            2103     10.8108E-03     112.609E-03     200.064E-03    -79.8125E-03    -196.855E-03     51.0468E-03    -27.1977E-03    -100.453E-03     364.645E-03     47.7749E-03    -18.0271E-03    -29.7478E-03    -29.4633E-03     47.4904E-03    -18.0271E-03    -1.15371E-03     28.7254E+06    -7.22182E+06    -61.7005E+06    -56.7218E+06    -4.33047E+06     20.8553E+06    -11.3733E+06         23.7138
            2104     11.7781E-03     112.694E-03     257.310E-03    -83.6607E-03    -187.880E-03     128.995E-03    -53.0420E-03    -90.1839E-03     386.762E-03     51.3728E-03    -19.3971E-03    -31.9756E-03    -31.1247E-03     50.5218E-03    -19.3971E-03     1.17403E-03     25.4653E+06     -5.4512E+06    -67.0714E+06    -57.5983E+06    -10.9729E+06     21.5138E+06    -16.6622E+06         24.3170
            2105     12.7485E-03     112.799E-03     296.866E-03    -73.1080E-03    -190.884E-03     198.948E-03    -89.3760E-03    -76.6976E-03     378.365E-03     56.9487E-03    -20.8700E-03    -36.0786E-03    -33.9046E-03     54.7747E-03    -20.8700E-03     4.96027E-03     32.9556E+06     10.6547E+06    -70.0151E+06    -62.1610E+06     10.3349E+06     25.4211E+06    -15.7553E+06         25.1973
            2106     13.7065E-03     112.947E-03     321.080E-03    -61.2323E-03    -203.109E-03     256.199E-03    -138.227E-03    -61.2323E-03     324.881E-03     63.8038E-03    -22.6554E-03    -41.1483E-03    -36.0983E-03     58.7538E-03    -22.6554E-03     16.4322E-03     49.9098E+06     16.0674E+06    -71.7330E+06    -51.3737E+06    -709.017E+03     46.3268E+06     2.50276E+06         26.5480
            2107     14.6640E-03     113.144E-03     311.495E-03    -45.5772E-03    -224.759E-03     277.694E-03    -190.958E-03    -45.5772E-03     259.707E-03     73.5237E-03    -24.6116E-03    -48.9121E-03    -34.9632E-03     59.5748E-03    -24.6116E-03     49.6031E-03     97.1857E+06     42.2056E+06    -55.1370E+06    -6.11880E+06    -6.81257E+06     97.1857E+06     11.7521E+06         28.6085
            2108     15.6368E-03     113.425E-03     274.120E-03    -32.2333E-03    -249.644E-03     253.263E-03    -228.787E-03    -32.2333E-03     183.820E-03     76.5951E-03    -16.3840E-03    -60.2111E-03    -24.5081E-03     50.4891E-03    -25.9810E-03     89.4260E-03     117.039E+06     70.4280E+06    -23.7653E+06     17.9771E+06     32.1568E+06     113.567E+06     2.54387E+06         31.7041
            2109     16.6066E-03     113.749E-03     186.632E-03    -23.5767E-03    -232.022E-03     182.137E-03    -227.527E-03    -23.5767E-03     82.9840E-03     64.7882E-03    -5.14397E-03    -59.6442E-03    -2.13134E-03     27.9776E-03    -25.8462E-03     96.1264E-03     69.9632E+06     25.5372E+06    -58.1859E+06     19.0513E+06     7.44215E+06     10.8209E+06     14.5499E+06         35.5516


