********************************************************************************
Field Output Report, written Tue May  6 08:38:37 2025

Source 1
---------

   ODB: D:/AISI_1020/Vel_40/aisi_1020_2a_24_red_150_cal_75_vel_40_fric_0100.odb
   Step: Step-1
   Frame: Increment   1633340: Step Time =   0.2215

Loc 1 : Nodal values from source 1

Output sorted by column "Node Label".

Field Output reported at nodes for region: DIE_2A_24_D0_36-1.Region_1
   Computation algorithm: EXTRAPOLATE_COMPUTE_AVERAGE
   Averaged at nodes
   Averaging regions: ODB_REGIONS

      Node Label     COORD.COOR1     COORD.COOR2
                          @Loc 1          @Loc 1
-------------------------------------------------
               1     21.4163E-03     109.287E-03


Field Output reported at nodes for region: DIE_2A_24_D0_36-1.Region_2
   Computation algorithm: EXTRAPOLATE_COMPUTE_AVERAGE
   Averaged at nodes
   Averaging regions: ODB_REGIONS

      Node Label     COORD.COOR1     COORD.COOR2
                          @Loc 1          @Loc 1
-------------------------------------------------
               1     21.4163E-03     109.287E-03


Field Output reported at nodes for part: WIRE_1-1
   Computation algorithm: EXTRAPOLATE_COMPUTE_AVERAGE
   Averaged at nodes
   Averaging regions: ODB_REGIONS

      Node Label     COORD.COOR1     COORD.COOR2    ER.Max. Prin    ER.Mid. Prin    ER.Min. Prin         ER.ER11         ER.ER22         ER.ER33         ER.ER12    PE.Max. Prin    PE.Mid. Prin    PE.Min. Prin         PE.PE11         PE.PE22         PE.PE33         PE.PE12     S.Max. Prin     S.Mid. Prin     S.Min. Prin           S.S11           S.S22           S.S33           S.S12            TEMP
                          @Loc 1          @Loc 1          @Loc 1          @Loc 1          @Loc 1          @Loc 1          @Loc 1          @Loc 1          @Loc 1          @Loc 1          @Loc 1          @Loc 1          @Loc 1          @Loc 1          @Loc 1          @Loc 1          @Loc 1          @Loc 1          @Loc 1          @Loc 1          @Loc 1          @Loc 1          @Loc 1          @Loc 1
-----------------------------------------------------------------------------------------------------------------------------------------------------------------------------------------------------------------------------------------------------------------------------------------------------------------------------------------------------------------------------------------------------------------
               1     17.7079E-03     57.7239E-03         3.78633     907.703E-03        -5.62914     878.406E-03        -5.59985         3.78633    -870.072E-03     211.560E-03    -17.5415E-03    -194.018E-03    -41.8971E-03     59.4386E-03    -17.5415E-03     392.709E-03     211.127E+06     168.834E+06    -3.68420E+06    -3.68256E+06     211.126E+06     168.834E+06    -84.6857E+03         67.8593
               2     231.801E-09     56.6986E-03         8.33855         6.44550        -15.9572         4.90869        -14.4204         8.33855         11.2413     34.3360E-03    -17.1145E-03    -17.2214E-03    -17.2162E-03     34.3308E-03    -17.1145E-03     1.01914E-03    -10.8899E+06    -11.6304E+06    -189.277E+06    -10.9146E+06    -189.252E+06    -11.6304E+06     450.286E+03         22.5767
               3     915.890E-09    -152.656E-18         6.83740         6.61157        -19.0475         6.61088        -19.0468         6.83740    -266.417E-03     54.1441E-03    -26.8815E-03    -27.2627E-03    -27.2625E-03     54.1439E-03    -26.8815E-03     238.452E-06    -26.9818E+06    -28.1448E+06    -198.419E+06    -28.1455E+06    -198.419E+06    -26.9818E+06    -353.106E+03         25.3073
               4     17.6185E-03    -152.656E-18         6.40271         4.09459        -16.7426         4.09278        -16.7408         6.40271    -387.789E-03     145.290E-03    -19.4627E-03    -125.828E-03    -105.203E-03     124.666E-03    -19.4627E-03     143.755E-03     194.576E+06     131.127E+06     30.7505E+06     31.4455E+06     193.881E+06     131.127E+06    -10.6483E+06         42.8863
               5     17.4041E-03     114.566E-03         1.87531     681.126E-03        -4.42950     717.009E-03         1.83943        -4.42950    -407.741E-03     13.8787E-03     11.4907E-03    -25.3694E-03     12.7222E-03     12.6471E-03    -25.3694E-03     2.38680E-03     19.7710E+06    -15.2838E+06    -97.9519E+06     19.0684E+06    -14.5812E+06    -97.9519E+06     4.91281E+06         40.5599
               6     2.80973E-06     113.204E-03         5.90279        -5.75669        -7.27765        -7.16154         5.78668        -5.75669        -2.46327     22.2874E-03    -10.5663E-03    -11.7211E-03    -11.7102E-03     22.2765E-03    -10.5663E-03    -1.21936E-03     56.3658E+06     48.7814E+06    -2.33855E+06     47.5788E+06    -1.13596E+06     56.3658E+06    -7.74790E+06         21.2928
               7     16.7230E-03     57.2936E-03         3.83308         1.29976        -6.05479         1.03325        -5.78829         3.83308        -2.39629     200.368E-03    -17.2643E-03    -183.104E-03    -40.5605E-03     57.8248E-03    -17.2643E-03     370.621E-03     189.320E+06     110.191E+06    -7.76444E+06    -7.76180E+06     189.317E+06     110.191E+06    -98.5561E+03         63.7967
               8     15.7371E-03     56.9253E-03         3.94315         1.82145        -6.67597         1.23848        -6.09300         3.94315        -4.28159     124.085E-03    -16.8286E-03    -107.257E-03    -28.1489E-03     44.9775E-03    -16.8286E-03     218.091E-03     146.587E+06     21.0702E+06    -12.7621E+06    -12.7601E+06     146.585E+06     21.0702E+06    -131.749E+03         54.1618
               9     14.7527E-03     56.8331E-03         4.09356         1.68347        -6.70461         1.33465        -6.35580         4.09356        -2.84984     47.4101E-03    -16.4997E-03    -30.9104E-03    -16.6496E-03     33.1492E-03    -16.4997E-03     56.8739E-03     109.696E+06    -10.7183E+06    -43.3098E+06    -12.8513E+06     109.693E+06    -41.1738E+06    -193.695E+03         43.5467
              10     13.7691E-03     56.8078E-03         4.27907         1.55461        -6.78287         1.48546        -6.71372         4.27907        -1.47116     35.2398E-03    -16.4045E-03    -18.8353E-03    -16.2771E-03     32.6816E-03    -16.4045E-03     22.7474E-03     69.1062E+06    -10.3230E+06    -61.3530E+06    -10.3138E+06     69.0970E+06    -61.3530E+06     215.415E+03         34.9763
              11     12.7850E-03     56.7865E-03         4.47831         1.98959        -7.42999         1.84359        -7.28399         4.47831        -2.30920     34.3500E-03    -16.5562E-03    -17.7938E-03    -16.4141E-03     32.9703E-03    -16.5562E-03     16.4973E-03     20.1474E+06    -7.28651E+06    -40.4017E+06    -6.92375E+06     19.7847E+06    -40.4017E+06     168.320E+03         29.3920
              12     11.8010E-03     56.7741E-03         4.67320         2.56910        -8.21690         2.41616        -8.06397         4.67320        -2.51632     33.9646E-03    -16.7065E-03    -17.2581E-03    -16.5359E-03     33.2424E-03    -16.7065E-03     11.9666E-03    -4.13243E+06    -10.5728E+06    -38.9125E+06    -4.66868E+06    -25.8355E+06    -23.1135E+06     89.9569E+03         26.2728
              13     10.8177E-03     56.7624E-03         4.86063         2.87907        -8.72875         2.81986        -8.66954         4.86063        -1.27108     33.9970E-03    -16.8289E-03    -17.1681E-03    -16.6173E-03     33.4462E-03    -16.8289E-03     10.5532E-03    -3.51690E+06    -10.8450E+06    -59.9184E+06    -3.53652E+06    -59.8988E+06    -10.8450E+06     625.051E+03         24.6877
              14     9.83360E-03     56.7519E-03         5.06158         2.93390        -9.00604         2.92989        -9.00203         5.06158    -398.660E-03     34.1459E-03    -16.9155E-03    -17.2304E-03    -16.7363E-03     33.6518E-03    -16.9155E-03     9.99090E-03    -2.10577E+06    -4.30437E+06    -85.2417E+06    -2.36525E+06    -85.2294E+06    -4.05719E+06     453.601E+03         23.8966
              15     8.85049E-03     56.7423E-03         5.28869         3.22697        -9.54980         3.16014        -9.48298         5.28869         1.02442     34.1627E-03    -16.9814E-03    -17.1813E-03    -16.8071E-03     33.7886E-03    -16.9814E-03     8.71803E-03    -672.322E+03    -1.84974E+06    -107.798E+06    -1.67269E+06    -107.797E+06    -850.891E+03     319.724E+03         23.4714
              16     7.86656E-03     56.7338E-03         5.53137         3.82560        -10.4079         3.58133        -10.1636         5.53137         3.60282     34.1764E-03    -17.0420E-03    -17.1343E-03    -16.8371E-03     33.8791E-03    -17.0420E-03     7.77199E-03     1.63103E+06    -1.56916E+06    -126.403E+06    -1.58447E+06    -126.388E+06     1.63103E+06     1.04725E+06         23.2095
              17     6.88334E-03     56.7263E-03         5.76930         4.45520        -11.2829         4.18244        -11.0102         5.76930         4.03085     34.2527E-03    -17.1023E-03    -17.1504E-03    -16.9109E-03     34.0153E-03    -17.1045E-03     6.95754E-03     4.31075E+06    -1.62637E+06    -143.860E+06    -1.65830E+06    -143.828E+06     4.31075E+06     1.86605E+06         23.0266
              18     5.89972E-03     56.7193E-03         5.99199         5.10210        -12.1475         4.97376        -11.9958         5.96859         3.19283     34.3522E-03    -17.1528E-03    -17.1995E-03    -17.0172E-03     34.1721E-03    -17.1550E-03     6.05571E-03     4.83880E+06    -2.83622E+06    -162.327E+06    -2.85549E+06    -162.308E+06     4.83880E+06     1.24931E+06         22.8895
              19     4.91639E-03     56.7137E-03         6.21152         5.66885        -12.9239         5.51415        -12.6728         6.11520         4.15290     34.3637E-03    -17.1429E-03    -17.2208E-03    -17.0515E-03     34.2329E-03    -17.1814E-03     5.17459E-03     2.69529E+06    -4.70112E+06    -175.444E+06    -4.70787E+06    -175.437E+06     2.69529E+06     772.191E+03         22.7841
              20     3.93311E-03     56.7085E-03         6.30993         5.96538        -13.3231         5.80491        -13.0856         6.23287         4.01026     34.3544E-03    -17.1341E-03    -17.2203E-03    -17.0681E-03     34.2592E-03    -17.1911E-03     4.39927E-03    -1.55499E+06    -6.40650E+06    -182.229E+06    -6.41659E+06    -182.219E+06    -1.55499E+06     1.09817E+06         22.7041
              21     2.94969E-03     56.7042E-03         6.69512         6.21063        -13.9755         6.08376        -13.4853         6.33180         5.60402     34.4067E-03    -17.1653E-03    -17.2414E-03    -17.1522E-03     34.3477E-03    -17.1955E-03     3.44253E-03    -5.54730E+06    -8.41025E+06    -187.037E+06    -8.42147E+06    -187.026E+06    -5.54730E+06     1.17708E+06         22.6457
              22     1.96633E-03     56.7014E-03         6.96166         6.43134        -14.4974         6.21279        -13.7485         6.43134         7.80219     34.4020E-03    -17.1727E-03    -17.2293E-03    -17.1844E-03     34.3744E-03    -17.1900E-03     2.29393E-03    -7.05522E+06    -9.60034E+06    -188.227E+06    -9.26525E+06    -188.220E+06    -7.39731E+06     856.547E+03         22.6065
              23     983.438E-06     56.6997E-03         7.58419         6.46653        -15.2006         5.56448        -14.1274         7.41306         9.14017     34.3572E-03    -17.1436E-03    -17.2136E-03    -17.1986E-03     34.3479E-03    -17.1493E-03     1.34201E-03    -9.00008E+06    -10.6941E+06    -188.403E+06    -9.99450E+06    -188.390E+06    -9.71245E+06     425.130E+03         22.5841
              24    -125.435E-09     55.6648E-03         9.85188         7.58029        -18.5994         6.22234        -17.2414         9.85188         11.6086     34.4157E-03    -17.1442E-03    -17.2714E-03    -17.2672E-03     34.4114E-03    -17.1442E-03     881.282E-06    -9.49207E+06    -10.5698E+06    -187.531E+06    -10.1610E+06    -187.513E+06    -9.91854E+06     1.35670E+06         22.5775
              25     267.776E-09     54.6305E-03         10.4060         8.66043        -20.0777         6.90242        -18.3197         10.4060         13.7088     34.4528E-03    -17.0900E-03    -17.3628E-03    -17.3604E-03     34.4504E-03    -17.0900E-03     687.509E-06    -11.6335E+06    -13.3017E+06    -189.869E+06    -13.3077E+06    -189.863E+06    -11.6335E+06    -611.632E+03         22.5775
              26     147.914E-09     53.5968E-03         10.5090         8.79751        -20.2451         6.20160        -17.6492         10.5090         16.4739     34.3254E-03    -17.0513E-03    -17.2741E-03    -17.2520E-03     34.3210E-03    -17.0690E-03     943.964E-06    -11.0453E+06    -12.1759E+06    -189.412E+06    -12.0691E+06    -189.406E+06    -11.1589E+06    -1.01532E+06         22.5772
              27    -187.723E-09     52.5619E-03         10.5764         9.13688        -20.5472         5.80821        -17.2186         10.5764         18.7273     33.9761E-03    -16.9683E-03    -17.0078E-03    -16.9616E-03     33.9695E-03    -17.0078E-03     1.15761E-03    -7.50004E+06    -10.3277E+06    -186.582E+06    -7.55373E+06    -186.529E+06    -10.3277E+06     1.87896E+06         22.5767
              28     103.476E-09     51.5290E-03         10.7721         9.93074        -21.5109         5.78385        -17.3640         10.7721         21.2334     33.9976E-03    -16.8548E-03    -17.1428E-03    -17.1165E-03     33.9931E-03    -16.8766E-03     867.522E-06    -7.22281E+06    -13.9185E+06    -187.794E+06    -11.2610E+06    -187.738E+06    -9.93689E+06     1.58995E+06         22.5762
              29     474.273E-09     50.4966E-03         10.5216         9.81066        -21.1440         4.45598        -15.4137         10.1460         24.0309     34.5035E-03    -17.0999E-03    -17.4036E-03    -17.3648E-03     34.5023E-03    -17.1374E-03     497.845E-06    -5.24973E+06    -12.0779E+06    -186.212E+06    -9.26784E+06    -186.175E+06    -8.09635E+06    -2.29916E+06         22.5757
              30    -584.648E-09     49.4602E-03         10.2337         8.48197        -19.4619         2.32400        -11.5522         8.48197         26.0713     34.3974E-03    -17.1517E-03    -17.2457E-03    -17.1481E-03     34.3937E-03    -17.2457E-03     813.331E-06    -7.78898E+06    -10.8341E+06    -187.867E+06    -8.07685E+06    -187.778E+06    -10.6356E+06     540.749E+03         22.5744
              31     473.384E-09     48.4267E-03         10.5176         7.22237        -18.5190     574.935E-03        -8.57627         7.22237         27.5009     34.0057E-03    -16.9459E-03    -17.0598E-03    -16.9958E-03     33.9980E-03    -17.0022E-03     1.24445E-03    -9.15080E+06    -9.97509E+06    -188.540E+06    -9.41286E+06    -188.477E+06    -9.77655E+06     3.03407E+06         22.5724
              32    -375.521E-09     47.3937E-03         10.5215         6.96946        -18.3968    -302.188E-03        -7.57313         6.96946         27.9887     34.0466E-03    -16.9941E-03    -17.0525E-03    -17.0451E-03     34.0401E-03    -16.9949E-03     1.12358E-03    -8.13827E+06    -9.02088E+06    -185.713E+06    -8.14827E+06    -185.703E+06    -9.02088E+06     1.31070E+06         22.5714
              33     369.022E-09     46.3593E-03         10.2166         6.82650        -18.1391    -892.722E-03        -7.02973         6.82650         27.6711     34.1543E-03    -16.9458E-03    -17.2085E-03    -17.2044E-03     34.1510E-03    -16.9467E-03     814.717E-06    -11.2937E+06    -13.3898E+06    -187.714E+06    -13.1399E+06    -187.707E+06    -11.5505E+06    -36.0386E+03         22.5713
              34     169.911E-09     45.3264E-03         9.74220         5.84513        -16.8041        -2.44366        -4.61828         5.84513         26.2896     34.0817E-03    -16.8962E-03    -17.1856E-03    -17.1561E-03     34.0798E-03    -16.9237E-03     613.725E-06    -13.3747E+06    -16.0885E+06    -189.951E+06    -15.2215E+06    -189.944E+06    -14.2493E+06    -1.15009E+06         22.5703
              35    -234.506E-09     44.2926E-03         9.50636         3.68394        -14.5190        -5.30797     295.346E-03         3.68394         22.7989     34.0208E-03    -16.9664E-03    -17.0544E-03    -16.9644E-03     34.0188E-03    -17.0544E-03     624.886E-06    -11.1138E+06    -12.2515E+06    -186.269E+06    -11.1178E+06    -186.265E+06    -12.2515E+06    -686.359E+03         22.5691
              36     111.954E-09     43.2581E-03         10.5453     927.825E-03        -12.9001        -7.87413         5.51934     927.825E-03         18.9289     34.1439E-03    -16.9477E-03    -17.1962E-03    -17.1298E-03     34.1378E-03    -17.0081E-03     1.07379E-03    -11.8862E+06    -13.0955E+06    -185.665E+06    -12.8536E+06    -185.644E+06    -12.1492E+06     1.23785E+06         22.5696
              37     263.852E-09     42.2245E-03         11.4998    -647.805E-03        -12.3892        -9.26974         8.38031    -647.805E-03         16.0037     34.1769E-03    -16.9300E-03    -17.2470E-03    -17.2398E-03     34.1697E-03    -16.9300E-03     1.20926E-03    -13.9222E+06    -14.9117E+06    -188.505E+06    -14.9334E+06    -188.483E+06    -13.9222E+06     1.60668E+06         22.5714
              38    -12.6798E-09     41.1903E-03         10.6149    -641.482E-03        -11.7473        -9.88280         8.75036    -641.482E-03         12.2016     33.9004E-03    -16.8781E-03    -17.0223E-03    -17.0018E-03     33.8952E-03    -16.8934E-03     1.02715E-03    -10.8843E+06    -11.3869E+06    -185.661E+06    -10.9288E+06    -185.660E+06    -11.3437E+06     482.853E+03         22.5735
              39    -26.4380E-09     40.1580E-03         8.35865    -200.475E-03        -10.1260        -9.33580         7.56841    -200.475E-03         7.30646     34.0371E-03    -16.9524E-03    -17.0848E-03    -17.0660E-03     34.0337E-03    -16.9677E-03     802.347E-06    -11.7319E+06    -12.3377E+06    -185.106E+06    -11.8789E+06    -185.105E+06    -12.1914E+06     109.530E+03         22.5759
              40     259.346E-09     39.1237E-03         6.94565    -177.510E-03        -8.85151        -8.60247         6.69661    -177.510E-03         3.78370     34.3089E-03    -17.0889E-03    -17.2201E-03    -17.2041E-03     34.3071E-03    -17.1030E-03     606.296E-06    -13.5569E+06    -13.7833E+06    -186.131E+06    -13.7047E+06    -186.129E+06    -13.6370E+06     237.542E+03         22.5780
              41    -287.511E-09     38.0892E-03         7.40221    -645.031E-03        -8.93897        -8.88147         7.34471    -645.031E-03         1.39430     34.2174E-03    -16.9725E-03    -17.2449E-03    -17.2266E-03     34.2133E-03    -16.9867E-03     880.116E-06    -11.6258E+06    -13.5017E+06    -183.772E+06    -13.4231E+06    -183.770E+06    -11.7059E+06     245.132E+03         22.5802
              42     815.192E-09     37.0555E-03         7.47981    -776.433E-03        -9.01295        -8.94980         7.41666    -776.433E-03        -1.33758     34.2047E-03    -16.9452E-03    -17.2595E-03    -17.2554E-03     34.2006E-03    -16.9452E-03     878.518E-06    -10.8481E+06    -13.3731E+06    -183.007E+06    -12.6526E+06    -182.998E+06    -11.5773E+06    -962.355E+03         22.5834
              43    -713.624E-09     36.0224E-03         6.03336    -540.330E-03        -7.91475        -7.76998         5.88858    -540.330E-03        -2.80266     34.3442E-03    -17.0792E-03    -17.2651E-03    -17.1317E-03     34.3406E-03    -17.2089E-03     835.785E-06    -10.7426E+06    -11.8257E+06    -182.785E+06    -10.7512E+06    -182.776E+06    -11.8257E+06    -873.849E+03         22.5871
              44     450.543E-09     34.9867E-03         3.80860     43.6707E-03        -6.41993        -6.32878         3.71745     43.6707E-03        -1.79359     34.4611E-03    -17.0597E-03    -17.4014E-03    -17.2672E-03     34.4567E-03    -17.1895E-03     955.149E-06    -12.0907E+06    -12.5880E+06    -183.501E+06    -12.2345E+06    -183.501E+06    -12.4446E+06    -207.744E+03         22.5900
              45    -32.6955E-09     33.9538E-03         1.98765     658.092E-03        -5.44521        -5.43454         1.65545     979.621E-03    -273.116E-03     34.2116E-03    -16.9859E-03    -17.2257E-03    -17.1944E-03     34.2081E-03    -17.0138E-03     840.935E-06    -13.6231E+06    -14.3451E+06    -186.587E+06    -13.7690E+06    -186.584E+06    -14.2017E+06     232.242E+03         22.5920
              46    -30.8456E-09     32.9195E-03         1.22977     588.660E-03        -4.72843        -4.68668     546.916E-03         1.22977     736.874E-03     34.3007E-03    -17.0601E-03    -17.2407E-03    -17.2104E-03     34.2984E-03    -17.0879E-03     683.035E-06    -10.4038E+06    -12.1456E+06    -185.083E+06    -11.5743E+06    -185.076E+06    -10.9824E+06    -249.296E+03         22.5933
              47     348.162E-09     31.8863E-03         1.09402     449.164E-03        -4.52559        -3.98515    -91.2753E-03         1.09402         2.66436     34.5259E-03    -17.1643E-03    -17.3616E-03    -17.3593E-03     34.5235E-03    -17.1643E-03     680.182E-06    -9.92346E+06    -11.7402E+06    -184.254E+06    -11.0926E+06    -184.248E+06    -10.5771E+06    -438.743E+03         22.5939
              48    -269.523E-09     30.8501E-03         1.51547     632.784E-03        -5.25765        -3.30282        -1.32204         1.51547         5.31736     34.2523E-03    -17.0999E-03    -17.1524E-03    -17.1491E-03     34.2490E-03    -17.0999E-03     818.423E-06    -14.4847E+06    -15.2292E+06    -188.312E+06    -14.5762E+06    -188.311E+06    -15.1383E+06     192.294E+03         22.5941
              49     285.619E-09     29.8188E-03         1.92601         1.20349        -6.30962        -2.79541        -2.14560         1.76090         7.64790     34.3637E-03    -17.0812E-03    -17.2825E-03    -17.2779E-03     34.3591E-03    -17.0812E-03     965.934E-06    -13.5608E+06    -13.9560E+06    -186.229E+06    -13.9594E+06    -186.226E+06    -13.5608E+06    -584.655E+03         22.5933
              50     96.0054E-09     28.7818E-03         3.09991         1.11992        -7.34661        -2.71468        -1.53203         1.11992         10.3691     34.4624E-03    -17.1164E-03    -17.3460E-03    -17.3063E-03     34.4587E-03    -17.1524E-03     807.098E-06    -12.2913E+06    -12.9605E+06    -185.672E+06    -12.6200E+06    -185.647E+06    -12.6561E+06     814.503E+03         22.5901
              51    -169.987E-09     27.7508E-03         4.71431     992.844E-03        -8.80884        -2.47025        -1.62427     992.844E-03         13.4537     34.3345E-03    -17.1252E-03    -17.2094E-03    -17.1722E-03     34.3334E-03    -17.1612E-03     480.949E-06    -12.3274E+06    -13.2947E+06    -186.312E+06    -13.0063E+06    -186.236E+06    -12.6921E+06    -826.342E+03         22.5845
              52     275.029E-09     26.7146E-03         5.07479         1.99077        -10.2637        -1.77762        -3.41134         1.99077         15.1807     34.3554E-03    -17.0450E-03    -17.3103E-03    -17.3066E-03     34.3516E-03    -17.0450E-03     809.719E-06    -9.87885E+06    -11.4104E+06    -184.529E+06    -10.5806E+06    -184.430E+06    -10.8078E+06    -214.397E+03         22.5775
              53     136.501E-09     25.6807E-03         5.18184         2.31766        -10.7097        -1.10901        -4.41888         2.31766         15.5424     33.9128E-03    -16.7910E-03    -17.1219E-03    -17.0011E-03     33.9058E-03    -16.9047E-03     1.19921E-03    -11.5357E+06    -13.8093E+06    -187.774E+06    -12.9264E+06    -187.728E+06    -12.4646E+06     2.39998E+06         22.5693
              54    -347.197E-09     24.6479E-03         5.56674         1.84430        -10.6024        -1.09446        -3.94118         1.84430         15.9023     33.7525E-03    -16.7140E-03    -17.0385E-03    -16.9191E-03     33.7468E-03    -16.8277E-03     1.05737E-03    -13.0632E+06    -15.6005E+06    -189.033E+06    -14.4207E+06    -189.020E+06    -14.2558E+06    -531.580E+03         22.5589
              55     745.046E-09     23.6145E-03         5.17573         1.79382        -10.2131        -1.38826        -3.64906         1.79382         15.2206     33.8764E-03    -16.8059E-03    -17.0705E-03    -17.0117E-03     33.8713E-03    -16.8596E-03     1.00990E-03    -11.5319E+06    -13.6361E+06    -186.643E+06    -12.4591E+06    -186.628E+06    -12.7244E+06    -317.334E+03         22.5450
              56    -842.436E-09     22.5801E-03         3.89783         2.12665        -9.36494        -1.04182        -4.42529         2.12665         12.7432     33.5861E-03    -16.7230E-03    -16.8631E-03    -16.8049E-03     33.5816E-03    -16.7767E-03     930.388E-06    -11.2340E+06    -13.7160E+06    -186.304E+06    -12.1564E+06    -186.293E+06    -12.8043E+06     1.36443E+06         22.5266
              57     991.711E-09     21.5486E-03         2.94369         2.46930        -8.90107    -128.569E-03        -5.87827         2.51876         10.1684     33.4051E-03    -16.5910E-03    -16.8140E-03    -16.8120E-03     33.4030E-03    -16.5910E-03     637.958E-06    -11.9332E+06    -15.9085E+06    -188.011E+06    -14.3442E+06    -188.005E+06    -13.5035E+06     854.847E+03         22.5011
              58    -690.411E-09     20.5146E-03         2.75026         2.40731        -8.75820     463.858E-03        -6.81475         2.75026         8.44349     33.1544E-03    -16.4590E-03    -16.6954E-03    -16.5944E-03     33.1532E-03    -16.5588E-03     471.852E-06    -10.0380E+06    -15.3100E+06    -185.174E+06    -12.4472E+06    -185.169E+06    -12.9051E+06    -450.712E+03         22.4635
              59     458.034E-09     19.4828E-03         2.80629         1.56548        -8.04393     425.218E-03        -6.90367         2.80629         6.10749     32.9114E-03    -16.2855E-03    -16.6259E-03    -16.5255E-03     32.9108E-03    -16.3854E-03     332.514E-06    -8.44964E+06    -14.1234E+06    -181.986E+06    -11.2624E+06    -181.980E+06    -11.3167E+06    -1.00654E+06         22.4090
              60     54.4721E-09     18.4498E-03         3.10500         1.17137        -8.06911     844.305E-03        -7.74205         3.10500         2.59923     32.2132E-03    -15.9734E-03    -16.2398E-03    -16.2132E-03     32.2125E-03    -15.9993E-03     362.192E-06    -10.6250E+06    -15.2938E+06    -182.924E+06    -13.4393E+06    -182.916E+06    -12.4871E+06    -1.10189E+06         22.3335
              61    -128.763E-09     17.4181E-03         3.79500         2.38057        -10.0823         2.37313        -10.0749         3.79500     211.227E-03     30.6582E-03    -15.3144E-03    -15.3438E-03    -15.3125E-03     30.6563E-03    -15.3438E-03     573.447E-06    -11.9795E+06    -14.1392E+06    -183.062E+06    -12.3383E+06    -183.001E+06    -13.8415E+06     1.48927E+06         22.2344
              62     125.722E-09     16.3890E-03         4.71326         3.53708        -12.3280         3.52671        -12.3176         4.71326    -721.880E-03     28.8354E-03    -14.3459E-03    -14.4895E-03    -14.4844E-03     28.8338E-03    -14.3494E-03     238.411E-06    -8.21859E+06    -9.32960E+06    -178.734E+06    -9.38592E+06    -178.678E+06    -8.21859E+06     1.93235E+06         22.1117
              63     163.528E-09     15.3624E-03         5.18277         3.85873        -13.3205         3.74591        -13.2077         5.18277        -2.45762     26.5618E-03    -13.1957E-03    -13.3661E-03    -13.3350E-03     26.5610E-03    -13.2260E-03    -335.930E-06    -6.43121E+06    -9.23603E+06    -176.041E+06    -7.24623E+06    -176.039E+06    -8.42271E+06    -534.294E+03         21.9685
              64    -249.346E-09     14.3372E-03         4.83284         4.23840        -13.4797         4.00776        -13.2306         4.81439        -4.16067     23.9022E-03    -11.9352E-03    -11.9670E-03    -11.9338E-03     23.9008E-03    -11.9670E-03    -443.515E-06    -4.44398E+06    -6.49578E+06    -172.585E+06    -4.46335E+06    -172.566E+06    -6.49578E+06     947.540E+03         21.8113
              65     246.270E-09     13.3154E-03         4.35476         4.27462        -13.1483         4.15962        -12.9531         4.27462        -3.56302     21.1656E-03    -10.4942E-03    -10.6714E-03    -10.6669E-03     21.1626E-03    -10.4957E-03    -595.171E-06     2.06263E+06    -280.206E+03    -166.573E+06    -239.660E+03    -166.553E+06     2.00233E+06     1.57795E+06         21.6508
              66     129.578E-09     12.2966E-03         4.69286         4.31063        -13.6371         4.26289        -13.5277         4.63117        -2.79847     18.3303E-03    -9.04205E-03    -9.28822E-03    -9.21228E-03     18.3247E-03    -9.11246E-03    -774.012E-06     12.2911E+06     7.76275E+06    -158.160E+06     9.99618E+06    -158.148E+06     10.0453E+06     1.30660E+06         21.5015
              67    -304.330E-09     11.2804E-03         6.36976         5.84921        -17.0648         5.70507        -16.9207         6.36976        -3.62320     15.6772E-03    -7.78748E-03    -7.88970E-03    -7.81288E-03     15.6708E-03    -7.85789E-03    -775.623E-06     17.8958E+06     14.0089E+06    -150.359E+06     16.2368E+06    -150.341E+06     15.6500E+06     214.548E+03         21.3804
              68     384.864E-09     10.2664E-03         8.47299         7.96468        -21.3951         8.15217        -21.2743         8.16470        -3.66191     13.4146E-03    -6.67839E-03    -6.73617E-03    -6.73300E-03     13.4114E-03    -6.67839E-03    -369.517E-06     16.4143E+06     13.9330E+06    -150.008E+06     14.7560E+06    -149.991E+06     15.5741E+06     167.756E+03         21.3043
              69    -343.131E-09     9.25444E-03         8.99619         8.51410        -22.5364         8.77325        -22.4872         8.68790        -2.40779     11.7317E-03    -5.82039E-03    -5.91130E-03    -5.84612E-03     11.7315E-03    -5.88534E-03    -86.6213E-06     15.1199E+06     13.9439E+06    -151.874E+06     14.7630E+06    -151.853E+06     14.2796E+06    -30.4844E+03         21.2903
              70     218.959E-09     8.24499E-03         7.99549         7.58242        -20.6330         7.53645        -20.5870         7.99549        -2.18899     11.3601E-03    -5.58029E-03    -5.77984E-03    -5.71465E-03     11.3599E-03    -5.64524E-03    -62.9503E-06     10.8277E+06     10.3066E+06    -156.612E+06     10.2791E+06    -156.585E+06     10.8277E+06    -2.12966E+06         21.3533
              71     53.2243E-09     7.23407E-03         7.11199         6.79902        -18.9456         6.78919        -18.8621         7.03828        -2.91620     12.7200E-03    -6.26491E-03    -6.45506E-03    -6.39922E-03     12.7197E-03    -6.32046E-03     130.390E-06     5.39490E+06     4.62299E+06    -162.461E+06     4.60623E+06    -162.445E+06     5.39490E+06    -1.31321E+06         21.5033
              72    -154.433E-09     6.22147E-03         7.37208         7.09780        -19.6267         7.31566        -19.5703         7.09780        -2.20042     16.0063E-03    -7.97407E-03    -8.03226E-03    -7.97280E-03     16.0024E-03    -8.02962E-03     551.606E-06     2.04879E+06     394.899E+03    -167.509E+06     1.45327E+06    -167.500E+06     981.403E+03    -1.00389E+06         21.7453
              73     141.019E-09     5.20367E-03         8.48832         8.15041        -21.9480         8.34442        -21.9414         8.28774    -563.989E-03     21.3770E-03    -10.6246E-03    -10.7525E-03    -10.7429E-03     21.3675E-03    -10.6246E-03     1.10646E-03    -4.06282E+06    -7.05823E+06    -174.910E+06    -6.00568E+06    -174.896E+06    -5.13020E+06    -1.57751E+06         22.0815
              74     123.002E-09     4.18008E-03         9.50859         8.90993        -23.9322         8.90542        -23.9277         9.50859    -502.134E-03     28.4399E-03    -14.1138E-03    -14.3262E-03    -14.2273E-03     28.4282E-03    -14.2009E-03     1.41233E-03    -11.2796E+06    -16.0115E+06    -182.776E+06    -13.2243E+06    -182.760E+06    -14.0835E+06    -1.66437E+06         22.5159
              75    -340.648E-09     3.14844E-03         9.52910         9.02203        -24.1211         9.00908        -24.1081         9.52910        -1.29230     37.2191E-03    -18.5141E-03    -18.7050E-03    -18.6047E-03     37.2060E-03    -18.6013E-03     1.70865E-03    -13.5211E+06    -16.6900E+06     -187.02E+06    -13.8986E+06    -187.008E+06    -16.3250E+06    -1.36162E+06         23.0688
              76     530.238E-09     2.10593E-03         8.48763         8.19254        -22.2732         8.17442        -22.2551         8.48763        -1.48248     46.0945E-03    -22.9901E-03    -23.1044E-03    -23.0841E-03     46.0848E-03    -23.0007E-03     1.55935E-03    -18.0638E+06    -18.8608E+06    -192.468E+06    -18.8652E+06    -192.464E+06    -18.0638E+06     53.0685E+03         23.7892
              77    -567.511E-09     1.05510E-03         7.35351         6.99125        -19.9873         6.98125        -19.9773         7.35351    -872.044E-03     52.1129E-03    -25.9559E-03    -26.1571E-03    -26.1440E-03     52.1104E-03    -25.9665E-03     721.920E-06    -24.1868E+06    -25.2004E+06    -197.264E+06    -25.2032E+06    -197.261E+06    -24.1868E+06     282.632E+03         24.7534
              78     972.810E-06    -152.656E-18         7.39053         6.87053        -19.8658         7.27562        -19.8638         6.98344    -440.545E-03     53.6989E-03    -26.6408E-03    -27.0580E-03    -26.8297E-03     53.6971E-03    -26.8674E-03     633.139E-06    -24.6028E+06    -26.3982E+06    -196.835E+06    -26.3986E+06    -196.834E+06    -24.6028E+06    -100.303E+03         25.2912
              79     1.94688E-03    -152.656E-18         8.37173         7.37777        -21.3281         8.36999        -21.3263         7.37777    -383.094E-03     52.2917E-03    -25.6739E-03    -26.6178E-03    -25.6691E-03     52.2869E-03    -26.6178E-03     1.20957E-03    -21.8761E+06    -23.5791E+06    -194.797E+06    -23.6077E+06    -194.768E+06    -21.8761E+06    -1.48907E+06         25.2462
              80     2.92180E-03    -152.656E-18         8.57661         7.76199        -21.8958         8.57611        -21.8953         7.76199     80.1313E-03     49.9209E-03    -23.9066E-03    -26.0143E-03    -23.8956E-03     49.9099E-03    -26.0143E-03     1.75371E-03    -20.6173E+06    -23.8949E+06    -194.591E+06    -21.1382E+06    -194.559E+06    -23.4058E+06    -2.10065E+06         25.1776
              81     3.89911E-03    -152.656E-18         8.14393         7.83462        -21.5469         8.06192        -21.5465         7.91619     201.830E-03     47.0677E-03    -21.8688E-03    -25.1989E-03    -21.8496E-03     47.0484E-03    -25.1989E-03     2.29015E-03    -19.7197E+06    -29.4087E+06    -196.078E+06    -19.7473E+06    -196.050E+06    -29.4087E+06    -2.00740E+06         25.0905
              82     4.87905E-03    -152.656E-18         7.91900         7.76601        -21.2730         7.76484        -21.2718         7.91900    -211.448E-03     44.1414E-03    -19.8768E-03    -24.2646E-03    -19.8506E-03     44.1152E-03    -24.2646E-03     2.57907E-03    -17.6269E+06    -38.8417E+06    -198.158E+06    -17.7064E+06    -198.079E+06    -38.8417E+06    -3.71899E+06         24.9920
              83     5.85996E-03    -152.656E-18         7.88980         7.72666        -21.2300         7.72510        -21.2285         7.88980    -412.175E-03     41.2591E-03    -17.9934E-03    -23.2657E-03    -17.9587E-03     41.2244E-03    -23.2657E-03     2.85502E-03    -13.7319E+06    -53.0816E+06    -201.259E+06    -13.9271E+06    -201.064E+06    -53.0816E+06    -5.90772E+06         24.8919
              84     6.84427E-03    -152.656E-18         7.85293         7.53181        -20.9973         7.53109        -20.9966         7.85293    -24.1546E-03     38.5147E-03    -16.2906E-03    -22.2240E-03    -16.2419E-03     38.4659E-03    -22.2240E-03     3.24762E-03    -8.83511E+06    -71.5391E+06    -193.267E+06    -9.22908E+06    -192.873E+06    -71.5391E+06    -8.39771E+06         24.8050
              85     7.82797E-03    -152.656E-18         7.79602         7.26122        -20.6545         7.25973        -20.6530         7.79602     387.512E-03     35.8346E-03    -14.6480E-03    -21.1865E-03    -14.5983E-03     35.7848E-03    -21.1865E-03     3.16165E-03    -3.86155E+06    -87.5826E+06    -168.365E+06    -4.34488E+06    -167.882E+06    -87.5826E+06    -8.90276E+06         24.7530
              86     8.81690E-03    -152.656E-18         7.72602         7.08045        -20.4044         7.07926        -20.4032         7.72602     267.641E-03     33.4452E-03    -13.2669E-03    -20.1783E-03    -13.1966E-03     33.3749E-03    -20.1783E-03     3.52864E-03     1.16345E+06    -101.171E+06    -133.413E+06     634.881E+03    -132.884E+06    -101.171E+06    -8.34588E+06         24.7728
              87     9.80159E-03    -152.656E-18         7.64586         6.77436        -20.0522         6.77382        -20.0516         7.64586    -158.344E-03     31.5873E-03    -12.3542E-03    -19.2331E-03    -12.2792E-03     31.5123E-03    -19.2331E-03     3.58733E-03     5.28091E+06    -88.7533E+06    -115.027E+06     4.57285E+06    -90.4805E+06    -112.592E+06    -8.08803E+06         24.9367
              88     10.7947E-03    -152.656E-18         7.53321         6.03397        -19.2533         6.03299        -19.2524         7.53321    -23.7942E-03     29.9678E-03    -11.5508E-03    -18.4170E-03    -11.4271E-03     29.8440E-03    -18.4170E-03     4.28469E-03     7.54827E+06    -43.4692E+06    -112.719E+06     6.82158E+06    -42.7425E+06    -112.719E+06    -5.93618E+06         25.3794
              89     11.7765E-03    -152.656E-18         7.37179         5.16787        -18.2703         5.16615        -18.2686         7.37179     386.514E-03     27.7038E-03    -10.0514E-03    -17.6524E-03    -9.94126E-03     27.5936E-03    -17.6524E-03     3.72574E-03     29.5205E+06    -6.31084E+06    -107.925E+06     6.77855E+06     16.4311E+06    -107.925E+06    -3.81538E+06         26.3163
              90     12.7785E-03    -152.656E-18         7.18313         4.71037        -17.6569         4.70897        -17.6555         7.18313     310.773E-03     26.4201E-03    -9.39182E-03    -17.0282E-03    -9.20637E-03     26.2346E-03    -17.0282E-03     4.45643E-03     69.5552E+06     4.63846E+06    -86.1531E+06     4.81193E+06     69.3817E+06    -86.1531E+06    -2.93309E+06         28.0158
              91     13.7564E-03    -152.656E-18         6.99562         4.45161        -17.2506         4.45146        -17.2505         6.99562     27.8886E-03     26.3246E-03    -9.67448E-03    -16.6502E-03    -9.41293E-03     26.0631E-03    -16.6502E-03     6.03472E-03     104.481E+06     3.57349E+06    -40.8959E+06     3.65110E+06     104.403E+06    -40.8959E+06     505.007E+03         30.6824
              92     14.7583E-03    -152.656E-18         6.81322         4.09465        -16.7821         4.09458        -16.7821         6.81322    -77.2765E-03     31.1681E-03    -13.0946E-03    -18.0735E-03    -13.8160E-03     30.3814E-03    -16.5654E-03     11.2280E-03     126.466E+06     16.4782E+06    -17.3979E+06    -6.81489E+06     125.764E+06     6.59777E+06     8.65428E+06         34.2353
              93     15.7289E-03    -152.656E-18         6.63459         3.82492        -16.4386         3.82482        -16.4385         6.63459     17.1964E-03     36.9074E-03    -16.7159E-03    -20.1915E-03    -17.1053E-03     33.8212E-03    -16.7159E-03     24.7123E-03     133.981E+06     35.7003E+06    -19.7207E+06    -18.5184E+06     132.779E+06     35.7003E+06     13.5203E+06         38.1498
              94     16.6869E-03    -152.656E-18         6.47477         3.92233        -16.5376         3.92136        -16.5366         6.47477    -141.103E-03     91.4164E-03    -18.1332E-03    -73.2832E-03    -60.5832E-03     78.7164E-03    -18.1332E-03     87.8619E-03     164.820E+06     86.2455E+06     4.63204E+06     5.52596E+06     163.926E+06     86.2455E+06     1.19279E+06         41.4944
              95     17.6320E-03     1.24442E-03         6.40792         4.10984        -16.6286         4.10593        -16.6246         6.40792    -546.138E-03     159.994E-03    -18.9202E-03    -141.074E-03    -107.229E-03     126.149E-03    -18.9202E-03     187.483E-03     182.332E+06     128.816E+06     1.71282E+06     2.06322E+06     181.982E+06     128.816E+06    -4.79168E+06         43.0423
              96     17.6622E-03     2.40708E-03         6.41107         4.14500        -16.4468         4.13800        -16.4398         6.41107    -757.214E-03     184.463E-03    -18.1398E-03    -166.323E-03    -97.9611E-03     116.101E-03    -18.1398E-03     274.302E-03     177.226E+06     133.770E+06    -17.4767E+06    -17.1794E+06     176.928E+06     133.770E+06     5.84063E+06         43.9790
              97     17.6793E-03     3.53262E-03         6.39194         4.16977        -16.3199         4.16390        -16.3141         6.39194    -681.950E-03     198.384E-03    -17.6050E-03    -180.779E-03    -83.5742E-03     101.179E-03    -17.6050E-03     330.880E-03     194.464E+06     149.112E+06    -1.76884E+06    -1.22410E+06     193.919E+06     149.112E+06     10.3111E+06         45.8184
              98     17.6933E-03     4.62573E-03         6.34253         4.16580        -16.1592         4.16334        -16.1567         6.34253    -431.304E-03     203.082E-03    -17.1299E-03    -185.952E-03    -76.8609E-03     93.9908E-03    -17.1299E-03     349.398E-03     200.501E+06     158.347E+06    -26.1361E+03     232.408E+03     200.242E+06     158.347E+06     4.09516E+06         47.9656
              99     17.7011E-03     5.68905E-03         6.25698         4.10023        -15.9712         4.09931        -15.9703         6.25698    -268.959E-03     204.348E-03    -16.7368E-03    -187.611E-03    -75.0605E-03     91.7973E-03    -16.7368E-03     354.656E-03     196.584E+06     163.757E+06    -4.59116E+06    -4.58209E+06     196.575E+06     163.757E+06    -1.19990E+06         50.0523
             100     17.7069E-03     6.78006E-03         6.13536         4.04772        -15.8245         4.04719        -15.8240         6.13536    -203.240E-03     209.164E-03    -16.4110E-03    -192.753E-03    -78.2181E-03     94.6291E-03    -16.4110E-03     362.851E-03     196.203E+06     170.507E+06    -5.23542E+06    -5.22295E+06     196.191E+06     170.507E+06     788.703E+03         51.9154
             101     17.7100E-03     7.86333E-03         5.98848         4.07599        -15.6655         4.07564        -15.6651         5.98848    -166.255E-03     213.678E-03    -16.2542E-03    -197.424E-03    -78.8307E-03     95.0849E-03    -16.2542E-03     372.497E-03     193.756E+06     170.047E+06    -7.71671E+06    -7.65257E+06     193.692E+06     170.047E+06    -1.22097E+06         53.5252
             102     17.7114E-03     8.93123E-03         5.81657         4.08581        -15.3919         4.08563        -15.3918         5.81657    -46.7925E-03     214.960E-03    -16.2277E-03    -198.732E-03    -78.1126E-03     94.3403E-03    -16.2277E-03     376.033E-03     195.536E+06     171.963E+06    -5.74018E+06    -5.67542E+06     195.471E+06     171.963E+06    -1.19385E+06         54.9192
             103     17.7106E-03     10.0127E-03         5.61669         3.94007        -14.9323         3.93887        -14.9311         5.61669     239.137E-03     214.898E-03    -16.3252E-03    -198.573E-03    -76.5333E-03     92.8584E-03    -16.3252E-03     377.172E-03     196.665E+06     174.652E+06    -3.84507E+06    -3.82966E+06     196.649E+06     174.652E+06     543.897E+03         56.1429
             104     17.7089E-03     11.0697E-03         5.40352         3.66320        -14.3121         3.66022        -14.3092         5.40352     459.379E-03     207.530E-03    -16.5079E-03    -191.022E-03    -70.9162E-03     87.4241E-03    -16.5079E-03     365.736E-03     194.561E+06     171.982E+06    -5.61530E+06    -5.61090E+06     194.557E+06     171.982E+06    -214.223E+03         57.2418
             105     17.7079E-03     12.1142E-03         5.19457         3.42079        -13.6268         3.41777        -13.6238         5.19457     452.549E-03     196.876E-03    -16.6464E-03    -180.230E-03    -65.0855E-03     81.7319E-03    -16.6464E-03     347.352E-03     194.711E+06     169.544E+06    -5.12851E+06    -5.12704E+06     194.709E+06     169.544E+06     503.680E+03         58.2536
             106     17.7076E-03     13.1738E-03         4.98362         3.32371        -12.9831         3.32152        -12.9810         4.98362     377.457E-03     189.971E-03    -16.7545E-03    -173.217E-03    -59.8149E-03     76.5694E-03    -16.7545E-03     336.568E-03     195.849E+06     167.847E+06    -4.21717E+06    -4.21204E+06     195.844E+06     167.847E+06    -546.537E+03         59.1927
             107     17.7086E-03     14.2276E-03         4.74451         3.27964        -12.3615         3.27769        -12.3595         4.74451     349.347E-03     192.612E-03    -16.8498E-03    -175.762E-03    -57.3467E-03     74.1965E-03    -16.8498E-03     344.082E-03     195.014E+06     168.135E+06    -5.41135E+06    -5.37958E+06     194.982E+06     168.135E+06    -2.34129E+06         60.0637
             108     17.7077E-03     15.2994E-03         4.45343         3.11837        -11.6511         3.11627        -11.6490         4.45343     351.623E-03     204.156E-03    -16.9333E-03    -187.223E-03    -58.4384E-03     75.3717E-03    -16.9333E-03     367.770E-03     194.041E+06     169.844E+06    -6.55392E+06    -6.52614E+06     194.013E+06     169.844E+06    -1.34011E+06         60.8498
             109     17.7084E-03     16.3745E-03         4.10725         2.89849        -10.8855         2.89309        -10.8800         4.10725     515.994E-03     216.487E-03    -17.1812E-03    -199.306E-03    -54.4223E-03     71.6035E-03    -17.1812E-03     396.044E-03     197.505E+06     173.269E+06    -3.60486E+06    -3.59836E+06     197.498E+06     173.269E+06     1.05192E+06         61.5174
             110     17.7076E-03     17.4117E-03         3.72397         2.65719        -10.1393         2.64997        -10.1320         3.72397     606.014E-03     220.719E-03    -17.4411E-03    -203.278E-03    -47.3986E-03     64.8397E-03    -17.4411E-03     408.843E-03     198.904E+06     173.127E+06    -3.12656E+06    -3.11771E+06     198.895E+06     173.127E+06     1.32536E+06         62.0615
             111     17.7077E-03     18.4356E-03         3.32438         2.47092        -9.46851         2.46622        -9.46381         3.32438     470.977E-03     214.438E-03    -17.5402E-03    -196.898E-03    -42.3461E-03     59.8864E-03    -17.5402E-03     398.423E-03     197.433E+06     170.599E+06    -5.87913E+06    -5.87504E+06     197.429E+06     170.599E+06     281.496E+03         62.4817
             112     17.7077E-03     19.4588E-03         2.92148         2.45049        -8.84866         2.44648        -8.84466         2.92148     424.393E-03     207.367E-03    -17.5409E-03    -189.826E-03    -40.1811E-03     57.7219E-03    -17.5409E-03     384.936E-03     198.674E+06     170.215E+06    -5.63354E+06    -5.63196E+06     198.672E+06     170.215E+06    -16.9128E+03         62.7870
             113     17.7077E-03     20.4886E-03         2.55907         2.38771        -8.13430         2.43372        -8.13027         2.50904     412.098E-03     204.098E-03    -17.4663E-03    -186.632E-03    -41.4239E-03     58.8902E-03    -17.4663E-03     377.622E-03     199.736E+06     169.737E+06    -5.45655E+06    -5.45395E+06     199.733E+06     169.737E+06    -160.868E+03         63.0167
             114     17.7083E-03     21.5283E-03         2.34729         2.05803        -7.32166         2.34188        -7.31625         2.05803     448.582E-03     205.501E-03    -17.3915E-03    -188.109E-03    -44.1560E-03     61.5476E-03    -17.3915E-03     379.147E-03     200.540E+06     171.016E+06    -5.47899E+06    -5.47428E+06     200.536E+06     171.016E+06    -979.123E+03         63.2099
             115     17.7080E-03     22.5749E-03         2.16154         1.54761        -6.52521         2.15464        -6.51831         1.54761     489.471E-03     210.279E-03    -17.3919E-03    -192.887E-03    -45.4200E-03     62.8119E-03    -17.3919E-03     388.362E-03     202.871E+06     172.575E+06    -4.00973E+06    -4.00655E+06     202.868E+06     172.575E+06    -360.064E+03         63.3876
             116     17.7085E-03     23.6190E-03         1.92675     992.332E-03        -5.84281         1.92169        -5.83775     992.332E-03     393.127E-03     214.704E-03    -17.4862E-03    -197.218E-03    -43.3567E-03     60.8429E-03    -17.4862E-03     398.498E-03     202.737E+06     171.618E+06    -5.20651E+06    -5.20463E+06     202.735E+06     171.618E+06     585.427E+03         63.5565
             117     17.7081E-03     24.6497E-03         1.84051     432.204E-03        -5.32294         1.83750        -5.31993     432.204E-03     292.694E-03     215.176E-03    -17.5532E-03    -197.623E-03    -41.3876E-03     58.9408E-03    -17.5532E-03     400.421E-03     203.174E+06     171.746E+06    -5.58607E+06    -5.58374E+06     203.172E+06     171.746E+06     120.416E+03         63.7204
             118     17.7083E-03     25.6737E-03         1.87842    -101.114E-03        -4.92319         1.87574        -4.92051    -101.114E-03     269.799E-03     213.321E-03    -17.5122E-03    -195.808E-03    -42.8038E-03     60.3160E-03    -17.5122E-03     395.905E-03     205.411E+06     173.438E+06    -4.00251E+06    -3.98931E+06     205.398E+06     173.438E+06     858.872E+03         63.8703
             119     17.7075E-03     26.7179E-03         1.92155    -592.109E-03        -4.59894         1.91682        -4.59421    -592.109E-03     343.430E-03     213.033E-03    -17.5219E-03    -195.511E-03    -42.4664E-03     59.9884E-03    -17.5219E-03     395.469E-03     206.221E+06     172.993E+06    -4.10189E+06    -4.06488E+06     206.184E+06     172.993E+06     2.75120E+06         63.9931
             120     17.7085E-03     27.7473E-03         1.93488        -1.02419        -4.30676         1.92942        -4.30131        -1.02419     367.384E-03     213.164E-03    -17.5807E-03    -195.583E-03    -39.6661E-03     57.2468E-03    -17.5807E-03     397.087E-03     204.272E+06     169.389E+06    -6.90651E+06    -6.87427E+06     204.239E+06     169.389E+06     709.797E+03         64.1025
             121     17.7082E-03     28.7719E-03         1.91318        -1.38361        -3.99879         1.90615        -3.99176        -1.38361     398.451E-03     213.029E-03    -17.5303E-03    -195.499E-03    -41.0308E-03     58.5610E-03    -17.5303E-03     396.176E-03     206.304E+06     169.952E+06    -5.55221E+06    -5.54306E+06     206.295E+06     169.952E+06    -502.955E+03         64.2132
             122     17.7085E-03     29.8152E-03         1.85806        -1.66293        -3.67868         1.84553        -3.66615        -1.66293     521.646E-03     213.282E-03    -17.4838E-03    -195.798E-03    -42.6860E-03     60.1697E-03    -17.4838E-03     395.936E-03     207.959E+06     171.346E+06    -4.40858E+06    -4.40198E+06     207.952E+06     171.346E+06    -339.896E+03         64.3176
             123     17.7086E-03     30.8445E-03         1.80416        -1.85818        -3.51464         1.79604        -3.50653        -1.85818     353.608E-03     214.797E-03    -17.4979E-03    -197.299E-03    -42.9502E-03     60.4481E-03    -17.4979E-03     398.911E-03     208.028E+06     172.981E+06    -4.43646E+06    -4.42794E+06     208.020E+06     172.981E+06    -134.649E+03         64.4219
             124     17.7082E-03     31.8836E-03         1.93245        -1.96876        -3.65770         1.93199        -3.65724        -1.96876     48.2377E-03     215.888E-03    -17.4908E-03    -198.397E-03    -43.7940E-03     61.2848E-03    -17.4908E-03     400.737E-03     208.573E+06     173.033E+06    -4.27172E+06    -4.26723E+06     208.568E+06     173.033E+06     942.145E+03         64.5328
             125     17.7083E-03     32.9189E-03         2.20509        -1.99327        -3.94326         2.20495        -3.94311        -1.99327     19.1351E-03     214.916E-03    -17.5379E-03    -197.378E-03    -41.4858E-03     59.0237E-03    -17.5379E-03     399.833E-03     207.150E+06     170.558E+06    -5.81302E+06    -5.81044E+06     207.148E+06     170.558E+06    -58.2724E+03         64.6412
             126     17.7087E-03     33.9421E-03         2.33989        -1.93847        -4.11413         2.33956        -4.11381        -1.93847     91.1088E-03     215.012E-03    -17.5516E-03    -197.460E-03    -41.3339E-03     58.8855E-03    -17.5516E-03     400.093E-03     207.303E+06     172.198E+06    -4.99445E+06    -4.99218E+06     207.301E+06     172.198E+06    -686.617E+03         64.7490
             127     17.7078E-03     34.9835E-03         2.34814        -1.82064        -4.17757         2.34758        -4.17701        -1.82064     120.097E-03     215.657E-03    -17.5073E-03    -198.150E-03    -43.7540E-03     61.2613E-03    -17.5073E-03     400.259E-03     207.986E+06     172.640E+06    -4.18805E+06    -4.18648E+06     207.984E+06     172.640E+06     1.10953E+03         64.8506
             128     17.7079E-03     36.0173E-03         2.32355        -1.65150        -4.18250         2.32277        -4.18172        -1.65150     142.366E-03     214.653E-03    -17.5469E-03    -197.106E-03    -42.1738E-03     59.7207E-03    -17.5469E-03     398.938E-03     207.646E+06     171.035E+06    -4.75334E+06    -4.75247E+06     207.646E+06     171.035E+06     383.352E+03         64.9444
             129     17.7081E-03     37.0418E-03         2.26266        -1.44394        -4.13578         2.26159        -4.13471        -1.44394     164.915E-03     211.501E-03    -17.5553E-03    -193.946E-03    -40.6410E-03     58.1963E-03    -17.5553E-03     393.211E-03     207.566E+06     170.142E+06    -5.33672E+06    -5.33663E+06     207.566E+06     170.142E+06     125.534E+03         65.0491
             130     17.7080E-03     38.0722E-03         2.16225        -1.21511        -4.11480         2.16095        -4.11349        -1.21511     181.077E-03     208.560E-03    -17.4799E-03    -191.080E-03    -42.2163E-03     59.6962E-03    -17.4799E-03     386.418E-03     208.340E+06     170.370E+06    -5.32591E+06     -5.3259E+06     208.340E+06     170.370E+06     60.3512E+03         65.1680
             131     17.7083E-03     39.1104E-03         2.04312    -971.271E-03        -4.15653         2.04244        -4.15586    -971.271E-03     80.0292E-03     209.776E-03    -17.4409E-03    -192.336E-03    -44.2843E-03     61.7252E-03    -17.4409E-03     387.886E-03     208.576E+06     171.471E+06    -5.67625E+06    -5.67589E+06     208.576E+06     171.471E+06    -165.851E+03         65.2971
             132     17.7076E-03     40.1562E-03         1.99675    -709.375E-03        -4.27948         1.99573        -4.27846    -709.375E-03    -124.741E-03     214.390E-03    -17.4694E-03    -196.920E-03    -45.2374E-03     62.7068E-03    -17.4694E-03     396.891E-03     210.241E+06     173.447E+06    -4.30986E+06    -4.30329E+06     210.235E+06     173.447E+06     622.391E+03         65.4416
             133     17.7081E-03     41.1950E-03         2.02172    -428.913E-03        -4.40098         2.02037        -4.39962    -428.913E-03    -180.178E-03     215.895E-03    -17.5432E-03    -198.352E-03    -42.7517E-03     60.2949E-03    -17.5432E-03     401.200E-03     209.904E+06     171.803E+06    -5.22025E+06    -5.21375E+06     209.898E+06     171.803E+06     644.715E+03         65.5953
             134     17.7083E-03     42.2197E-03         1.97546    -136.952E-03        -4.34335         1.97493        -4.34281    -136.952E-03    -17.5485E-03     213.920E-03    -17.5924E-03    -196.328E-03    -40.2765E-03     57.8688E-03    -17.5924E-03     398.335E-03     208.883E+06     170.270E+06    -5.96921E+06    -5.95951E+06     208.873E+06     170.270E+06    -1.17598E+06         65.7434
             135     17.7075E-03     43.2490E-03         1.74541     151.125E-03        -4.08018         1.74512        -4.07989     151.125E-03     80.7523E-03     211.762E-03    -17.5581E-03    -194.204E-03    -41.3562E-03     58.9143E-03    -17.5581E-03     393.378E-03     210.125E+06     171.648E+06    -4.16318E+06    -4.15376E+06     210.116E+06     171.648E+06    -985.053E+03         65.8763
             136     17.7081E-03     44.2842E-03         1.45450     422.256E-03        -3.79686         1.45436        -3.79671     422.256E-03     54.8896E-03     208.851E-03    -17.5377E-03    -191.313E-03    -41.0314E-03     58.5692E-03    -17.5377E-03     387.566E-03     209.877E+06     171.133E+06    -4.16180E+06    -4.15487E+06     209.870E+06     171.133E+06    -841.217E+03         65.9971
             137     17.7081E-03     45.3103E-03         1.19942     682.648E-03        -3.56431         1.19913        -3.56403     682.648E-03     68.6829E-03     206.374E-03    -17.5158E-03    -188.858E-03    -40.4378E-03     57.9536E-03    -17.5158E-03     382.783E-03     209.784E+06     170.307E+06    -4.20425E+06    -4.19193E+06     209.771E+06     170.307E+06    -99.4964E+03         66.1302
             138     17.7085E-03     46.3448E-03         1.07711     810.826E-03        -3.28969     939.377E-03        -3.28943     948.303E-03     31.6364E-03     207.491E-03    -17.4327E-03    -190.058E-03    -43.1676E-03     60.6003E-03    -17.4327E-03     383.755E-03     210.739E+06     169.665E+06    -5.93468E+06    -5.92418E+06     210.728E+06     169.665E+06     13.1691E+03         66.2881
             139     17.7084E-03     47.3962E-03         1.21763     717.352E-03        -3.03980     716.674E-03        -3.03912         1.21763    -82.2381E-03     214.378E-03    -17.4351E-03    -196.943E-03    -45.2216E-03     62.6566E-03    -17.4351E-03     396.914E-03     211.331E+06     171.536E+06    -4.75816E+06    -4.74514E+06     211.318E+06     171.536E+06     171.308E+03         66.4586
             140     17.7087E-03     48.4408E-03         1.48137     536.812E-03        -2.90121     532.549E-03        -2.89695         1.48137    -222.589E-03     220.508E-03    -17.5427E-03    -202.966E-03    -43.5808E-03     61.1235E-03    -17.5427E-03     410.305E-03     210.224E+06     171.026E+06    -4.69909E+06    -4.68984E+06     210.215E+06     171.026E+06     536.260E+03         66.6294
             141     17.7080E-03     49.4659E-03         1.74231     380.633E-03        -2.80115     371.695E-03        -2.79221         1.74231    -334.520E-03     220.740E-03    -17.6183E-03    -203.122E-03    -41.6030E-03     59.2213E-03    -17.6183E-03     411.696E-03     209.814E+06     170.236E+06    -5.25412E+06    -5.25254E+06     209.812E+06     170.236E+06    -541.258E+03         66.7846
             142     17.7080E-03     50.4941E-03         2.00197     224.379E-03        -2.69530     216.540E-03        -2.68747         2.00197    -298.286E-03     215.895E-03    -17.6186E-03    -198.277E-03    -40.3284E-03     57.9470E-03    -17.6186E-03     402.343E-03     209.898E+06     170.110E+06    -4.79710E+06    -4.79568E+06     209.897E+06     170.110E+06    -516.446E+03         66.9098
             143     17.7083E-03     51.5142E-03         2.25670     42.0604E-03        -2.68761     31.3069E-03        -2.67686         2.25670    -327.561E-03     210.552E-03    -17.5544E-03    -192.998E-03    -40.7189E-03     58.2733E-03    -17.5544E-03     391.203E-03     209.762E+06     168.833E+06    -5.83285E+06    -5.83157E+06     209.761E+06     168.833E+06    -455.367E+03         67.0149
             144     17.7079E-03     52.5489E-03         2.51460    -66.4675E-03        -2.89023    -95.1719E-03        -2.86152         2.51460    -555.628E-03     209.406E-03    -17.4797E-03    -191.926E-03    -42.9039E-03     60.3836E-03    -17.4797E-03     387.810E-03     211.808E+06     170.180E+06    -2.68661E+06    -2.67392E+06     211.795E+06     170.180E+06     1.06161E+06         67.1230
             145     17.7085E-03     53.5949E-03         2.79167     8.18188E-03        -3.25739    -32.1683E-03        -3.21704         2.79167    -720.465E-03     212.395E-03    -17.4883E-03    -194.906E-03    -43.1075E-03     60.5958E-03    -17.4883E-03     393.870E-03     210.513E+06     167.987E+06    -4.97559E+06    -4.96179E+06     210.500E+06     167.987E+06     796.868E+03         67.2509
             146     17.7081E-03     54.6264E-03         3.08186     239.386E-03        -3.75324     201.787E-03        -3.71564         3.08186    -768.556E-03     215.192E-03    -17.5198E-03    -197.673E-03    -43.1317E-03     60.6516E-03    -17.5198E-03     399.606E-03     209.720E+06     167.962E+06    -6.17418E+06    -6.17297E+06     209.719E+06     167.962E+06    -395.252E+03         67.4057
             147     17.7081E-03     55.6642E-03         3.35382     490.724E-03        -4.38593     453.117E-03        -4.34832         3.35382    -853.051E-03     214.728E-03    -17.5364E-03    -197.192E-03    -42.7621E-03     60.2985E-03    -17.5364E-03     398.815E-03     209.652E+06     168.766E+06    -4.30621E+06    -4.30253E+06     209.649E+06     168.766E+06    -658.729E+03         67.5667
             148     17.7081E-03     56.6931E-03         3.58863     701.134E-03        -5.04400     664.940E-03        -5.00781         3.58863    -905.742E-03     213.342E-03    -17.5633E-03    -195.779E-03    -41.4545E-03     59.0178E-03    -17.5633E-03     396.591E-03     209.371E+06     167.888E+06    -5.01475E+06    -5.01004E+06     209.366E+06     167.888E+06    -962.161E+03         67.7158
             149     17.7079E-03     58.7578E-03         3.94150         1.08565        -6.13825         1.05880        -6.11139         3.94150    -879.198E-03     208.503E-03    -17.5144E-03    -190.988E-03    -41.6879E-03     59.2023E-03    -17.5144E-03     386.540E-03     210.184E+06     166.641E+06    -5.37143E+06    -5.36982E+06     210.183E+06     166.641E+06    -81.9092E+03         68.0026
             150     17.7082E-03     59.7863E-03         4.04415         1.26814        -6.59525         1.23885        -6.56595         4.04415    -958.123E-03     207.286E-03    -17.4987E-03    -189.787E-03    -41.6194E-03     59.1180E-03    -17.4987E-03     384.079E-03     210.102E+06     165.917E+06    -5.43938E+06    -5.43830E+06     210.101E+06     165.917E+06    -409.061E+03         68.1596
             151     17.7081E-03     60.8278E-03         4.08482         1.49945        -6.99157         1.46401        -6.95613         4.08482        -1.09365     210.203E-03    -17.4721E-03    -192.731E-03    -43.6374E-03     61.1095E-03    -17.4721E-03     389.078E-03     211.282E+06     167.630E+06    -3.70778E+06    -3.70730E+06     211.281E+06     167.630E+06    -292.630E+03         68.3432
             152     17.7080E-03     61.8725E-03         4.05099         1.68470        -7.27057         1.64579        -7.23166         4.05099        -1.17772     211.555E-03    -17.5223E-03    -194.032E-03    -42.0149E-03     59.5372E-03    -17.5223E-03     392.634E-03     209.331E+06     165.591E+06    -4.85656E+06    -4.85457E+06     209.329E+06     165.591E+06    -624.391E+03         68.5422
             153     17.7086E-03     62.8929E-03         3.94414         1.71546        -7.26832         1.69103        -7.24388         3.94414    -898.643E-03     211.460E-03    -17.5612E-03    -193.899E-03    -40.4772E-03     58.0384E-03    -17.5612E-03     393.200E-03     208.578E+06     164.624E+06    -5.06932E+06    -5.06464E+06     208.574E+06     164.624E+06    -986.174E+03         68.7442
             154     17.7077E-03     63.9340E-03         3.78054         1.57599        -6.92913         1.56000        -6.91314         3.78054    -725.247E-03     214.009E-03    -17.5177E-03    -196.491E-03    -43.0850E-03     60.6026E-03    -17.5177E-03     397.185E-03     208.265E+06      165.12E+06    -4.72321E+06    -4.71956E+06     208.262E+06      165.12E+06    -815.658E+03         68.9377
             155     17.7085E-03     64.9772E-03         3.55554         1.48672        -6.57459         1.44808        -6.53595         3.55554        -1.08009     214.917E-03    -17.5430E-03    -197.374E-03    -42.2213E-03     59.7643E-03    -17.5430E-03     399.456E-03     208.016E+06     164.426E+06    -3.89141E+06    -3.88914E+06     208.014E+06     164.426E+06     193.257E+03         69.1142
             156     17.7082E-03     65.9938E-03         3.25529         1.55704        -6.32368         1.51225        -6.27889         3.25529        -1.17535     212.383E-03    -17.5478E-03    -194.835E-03    -41.3118E-03     58.8595E-03    -17.5478E-03     394.690E-03     209.692E+06     164.269E+06    -4.64214E+06    -4.63959E+06     209.689E+06     164.269E+06     724.628E+03         69.2861
             157     17.7079E-03     67.0328E-03         2.89448         1.47040        -5.85537         1.44367        -5.82864         2.89448    -879.773E-03     212.515E-03    -17.4791E-03    -195.036E-03    -43.9667E-03     61.4458E-03    -17.4791E-03     393.679E-03     211.215E+06     164.729E+06    -4.26864E+06    -4.26358E+06     211.210E+06     164.729E+06     970.508E+03         69.4572
             158     17.7084E-03     68.0793E-03         2.49371         1.22460        -5.23028         1.19665        -5.20233         2.49371    -835.242E-03     214.856E-03    -17.5229E-03    -197.333E-03    -42.6650E-03     60.1879E-03    -17.5229E-03     399.111E-03     212.260E+06     163.809E+06    -4.00317E+06    -3.99859E+06     212.255E+06     163.809E+06     488.548E+03         69.6260
             159     17.7085E-03     69.1029E-03         2.06510         1.12178        -4.82170         1.07099        -4.77092         2.06510        -1.07967     214.258E-03    -17.5843E-03    -196.674E-03    -40.3497E-03     57.9340E-03    -17.5843E-03     399.004E-03     213.226E+06     163.570E+06    -4.32024E+06    -4.31874E+06     213.224E+06     163.570E+06     168.713E+03         69.8023
             160     17.7079E-03     70.1309E-03         1.64132         1.10198        -4.45889         1.04079        -4.39770         1.64132        -1.16007     212.144E-03    -17.5286E-03    -194.615E-03    -42.2644E-03     59.7930E-03    -17.5286E-03     393.730E-03     214.543E+06     164.168E+06    -4.70942E+06    -4.70819E+06     214.542E+06     164.168E+06     438.919E+03         69.9765
             161     17.7079E-03     71.1721E-03         1.25846     994.447E-03        -3.84632     946.092E-03        -3.79796         1.25846    -962.103E-03     212.878E-03    -17.5122E-03    -195.366E-03    -43.1574E-03     60.6696E-03    -17.5122E-03     394.813E-03     216.451E+06     163.576E+06    -5.03330E+06    -5.01122E+06     216.429E+06     163.576E+06     1.64462E+06         70.1399
             162     17.7080E-03     72.2094E-03     920.700E-03     779.480E-03        -3.15397     735.833E-03        -3.11032     920.700E-03    -820.161E-03     213.898E-03    -17.5710E-03    -196.327E-03    -41.0267E-03     58.5977E-03    -17.5710E-03     397.936E-03     218.507E+06     162.819E+06    -4.99154E+06    -4.96826E+06     218.483E+06     162.819E+06     1.18463E+06         70.3107
             163     17.7083E-03     73.2320E-03     694.823E-03     569.025E-03        -2.64736     572.129E-03        -2.58049     624.850E-03    -912.310E-03     211.653E-03    -17.5522E-03    -194.101E-03    -40.8049E-03     58.3571E-03    -17.5522E-03     393.437E-03     220.828E+06     163.103E+06    -4.89085E+06    -4.88352E+06     220.821E+06     163.103E+06     450.589E+03         70.4939
             164     17.7079E-03     74.2658E-03     708.548E-03     374.320E-03        -2.38275     592.230E-03        -2.26643     374.320E-03        -1.16602     210.969E-03    -17.4779E-03    -193.491E-03    -43.3789E-03     60.8568E-03    -17.4779E-03     390.791E-03     225.194E+06     164.755E+06    -4.60811E+06    -4.59829E+06     225.184E+06     164.755E+06     1.48933E+06         70.6796
             165     17.7082E-03     75.3122E-03     796.467E-03     164.259E-03        -2.18506     669.522E-03        -2.05812     164.259E-03        -1.20185     213.387E-03    -17.4891E-03    -195.898E-03    -43.7125E-03     61.2016E-03    -17.4891E-03     395.598E-03     226.985E+06     164.158E+06    -5.21472E+06    -5.21094E+06     226.981E+06     164.158E+06     716.558E+03         70.8767
             166     17.7079E-03     76.3434E-03     682.781E-03     210.479E-06        -1.78931     602.477E-03        -1.70901     210.479E-06    -872.330E-03     214.115E-03    -17.5518E-03    -196.564E-03    -41.6421E-03     59.1939E-03    -17.5518E-03     398.104E-03     225.581E+06     162.487E+06    -5.43469E+06    -5.43186E+06     225.578E+06     162.487E+06    -513.207E+03         71.0949
             167     17.7082E-03     77.3727E-03     451.730E-03    -105.648E-03        -1.24795     360.041E-03        -1.15626    -105.648E-03    -721.512E-03     213.695E-03    -17.5432E-03    -196.152E-03    -41.3941E-03     58.9373E-03    -17.5432E-03     397.375E-03     225.599E+06     161.663E+06    -4.41324E+06    -4.40518E+06     225.591E+06     161.663E+06     207.736E+03         71.3186
             168     17.7085E-03     78.4104E-03     360.824E-03    -165.704E-03    -928.833E-03     157.431E-03    -725.441E-03    -165.704E-03    -914.655E-03     214.608E-03    -17.5166E-03    -197.091E-03    -42.2694E-03     59.7860E-03    -17.5166E-03     398.850E-03     227.903E+06     161.755E+06    -4.40218E+06    -4.39686E+06     227.898E+06     161.755E+06     856.929E+03         71.5303
             169     17.7082E-03     79.4452E-03     397.994E-03    -189.887E-03    -863.259E-03     100.307E-03    -565.572E-03    -189.887E-03        -1.07015     214.358E-03    -17.5385E-03    -196.820E-03    -41.9123E-03     59.4509E-03    -17.5385E-03     398.488E-03     229.308E+06     161.836E+06    -5.13280E+06    -5.13075E+06     229.306E+06     161.836E+06     562.306E+03         71.7288
             170     17.7076E-03     80.4713E-03     513.649E-03    -169.318E-03    -856.980E-03     155.923E-03    -499.254E-03    -169.318E-03        -1.20358     213.458E-03    -17.5436E-03    -195.914E-03    -41.6732E-03     59.2169E-03    -17.5436E-03     396.744E-03     231.477E+06     161.432E+06    -4.09421E+06    -4.08480E+06     231.467E+06     161.432E+06     1.42137E+06         71.9210
             171     17.7083E-03     81.5115E-03     681.639E-03    -121.960E-03    -826.378E-03     287.437E-03    -432.176E-03    -121.960E-03        -1.32499     213.191E-03    -17.5399E-03    -195.651E-03    -41.0806E-03     58.6205E-03    -17.5399E-03     396.495E-03     232.173E+06     158.619E+06    -4.92403E+06    -4.91521E+06     232.164E+06     158.619E+06     533.485E+03         72.1090
             172     17.7080E-03     82.5378E-03     724.218E-03    -87.5860E-03    -736.600E-03     318.636E-03    -331.018E-03    -87.5860E-03        -1.30587     211.370E-03    -17.5364E-03    -193.834E-03    -40.7628E-03     58.2992E-03    -17.5364E-03     392.903E-03     229.605E+06     156.626E+06    -6.14929E+06    -6.11773E+06     229.574E+06     156.626E+06    -2.28972E+06         72.2936
             173     17.7075E-03     83.5662E-03     679.695E-03    -75.6940E-03    -565.737E-03     205.994E-03    -92.0369E-03    -75.6940E-03        -1.18968     210.442E-03    -17.4730E-03    -192.969E-03    -42.7361E-03     60.2091E-03    -17.4730E-03     390.047E-03     229.297E+06     157.405E+06    -3.40334E+06    -3.35733E+06     229.251E+06     157.405E+06    -533.064E+03         72.4908
             174     17.7089E-03     84.6148E-03     768.143E-03    -82.5205E-03    -366.239E-03     111.663E-03     290.242E-03    -82.5205E-03        -1.09536     211.586E-03    -17.4525E-03    -194.134E-03    -42.3446E-03     59.7971E-03    -17.4525E-03     392.632E-03     230.772E+06     154.733E+06    -3.37740E+06    -3.36154E+06     230.756E+06     154.733E+06     1.38339E+06         72.7137
             175     17.7087E-03     85.6405E-03     954.754E-03    -136.325E-03    -299.590E-03     63.2746E-03     591.889E-03    -136.325E-03        -1.13465     211.546E-03    -17.4739E-03    -194.072E-03    -40.4678E-03     57.9418E-03    -17.4739E-03     393.500E-03     230.788E+06     151.271E+06    -5.51999E+06    -5.51792E+06     230.786E+06     151.271E+06    -458.267E+03         72.9618
             176     17.7091E-03     86.6713E-03         1.02620    -256.520E-03    -360.066E-03    -5.13283E-03     671.267E-03    -256.520E-03        -1.20990     212.885E-03    -17.3957E-03    -195.489E-03    -42.1580E-03     59.5537E-03    -17.3957E-03     395.497E-03     228.582E+06     147.646E+06    -3.58862E+06    -3.58610E+06     228.580E+06     147.646E+06    -262.405E+03         73.2288
             177     17.7102E-03     87.7209E-03         1.09001    -307.409E-03    -437.344E-03    -103.426E-03     850.459E-03    -401.778E-03        -1.01985     215.564E-03    -17.3656E-03    -198.199E-03    -42.1003E-03     59.4659E-03    -17.3656E-03     401.083E-03     227.671E+06     142.026E+06    -3.70425E+06    -3.70286E+06     227.669E+06     142.026E+06     558.731E+03         73.4896
             178     17.7097E-03     88.7440E-03         1.52705    -374.156E-03    -526.045E-03    -288.320E-03         1.44121    -526.045E-03    -736.348E-03     214.061E-03    -17.4016E-03    -196.660E-03    -38.9473E-03     56.3488E-03    -17.4016E-03     399.509E-03     229.691E+06     137.752E+06    -4.79185E+06    -4.79084E+06     229.690E+06     137.752E+06     421.817E+03         73.7258
             179     17.7111E-03     89.7644E-03         2.33546    -585.935E-03    -705.103E-03    -597.558E-03         2.28544    -643.455E-03    -763.519E-03     211.491E-03    -17.3041E-03    -194.187E-03    -39.2038E-03     56.5079E-03    -17.3041E-03     394.211E-03     228.762E+06     132.350E+06    -5.07620E+06    -5.06935E+06     228.755E+06     132.350E+06    -793.873E+03         73.9424
             180     17.7119E-03     90.8076E-03         3.15424    -786.950E-03    -958.627E-03    -915.709E-03         3.11132    -786.950E-03    -822.908E-03     213.370E-03    -17.1618E-03    -196.208E-03    -41.3709E-03     58.5327E-03    -17.1618E-03     397.207E-03     224.518E+06     126.157E+06    -4.19185E+06    -4.16738E+06     224.493E+06     126.157E+06    -2.29926E+06         74.1501
             181     17.7139E-03     91.8421E-03         3.96870    -951.411E-03        -1.28731        -1.26305         3.94444    -951.411E-03    -689.819E-03     213.376E-03    -17.0577E-03    -196.318E-03    -40.0718E-03     57.1295E-03    -17.0577E-03     397.987E-03     217.932E+06     114.990E+06    -3.68425E+06    -3.61916E+06     217.867E+06     114.990E+06    -3.68243E+06         74.3591
             182     17.7159E-03     92.8607E-03         4.79287        -1.11887        -1.62325        -1.60678         4.77639        -1.11887    -649.381E-03     210.340E-03    -16.8908E-03    -193.449E-03    -39.1847E-03     56.0756E-03    -16.8908E-03     392.385E-03     209.126E+06     102.311E+06    -3.49451E+06    -3.41051E+06     209.042E+06     102.311E+06    -4.21899E+06         74.5813
             183     17.7181E-03     93.8980E-03         5.40330        -1.29342        -1.82682        -1.80206         5.37853        -1.29342    -838.265E-03     209.701E-03    -16.6455E-03    -193.055E-03    -40.2497E-03     56.8953E-03    -16.6455E-03     390.865E-03     197.583E+06     87.1619E+06    -3.84724E+06    -3.69900E+06     197.434E+06     87.1619E+06    -5.24716E+06         74.8532
             184     17.7222E-03     94.9328E-03         5.77904        -1.47796        -1.91106        -1.88188         5.74986        -1.47796    -944.086E-03     209.539E-03    -16.4729E-03    -193.066E-03    -38.1493E-03     54.6222E-03    -16.4729E-03     391.746E-03     181.614E+06     78.2976E+06    -3.44963E+06    -3.20706E+06     181.371E+06     78.2976E+06    -6.68070E+06         75.3351
             185     17.7268E-03     95.9551E-03         6.08881        -1.65728        -1.99885        -1.97726         6.06722        -1.65728    -827.717E-03     208.148E-03    -16.2966E-03    -191.851E-03    -37.2618E-03     53.5584E-03    -16.2966E-03     389.540E-03     172.560E+06     87.6596E+06     1.23525E+06     1.37566E+06      172.42E+06     87.6596E+06    -2.49242E+06         76.5226
             186     17.7316E-03     96.9853E-03         6.44527        -1.81008        -2.17692        -2.16556         6.43391        -1.81008    -604.422E-03     206.081E-03    -16.0950E-03    -189.986E-03    -39.6636E-03     55.7586E-03    -16.0950E-03     384.391E-03     165.346E+06     100.863E+06    -5.23464E+06    -5.05689E+06     165.168E+06     100.863E+06    -2.92742E+06         80.2750
             187     17.7345E-03     98.0247E-03         6.72600        -1.92134        -2.33492        -2.32549         6.71657        -1.92134    -575.392E-03     206.200E-03    -16.0576E-03    -190.142E-03    -40.4084E-03     56.4660E-03    -16.0576E-03     384.319E-03     152.831E+06     109.749E+06    -6.84141E+06    -6.57774E+06     152.567E+06     109.749E+06    -6.45312E+06         87.5938
             188     17.7355E-03     99.0579E-03         6.70253        -1.99089        -2.34589        -2.32342         6.68006        -1.99089    -876.729E-03     206.066E-03    -16.1229E-03    -189.943E-03    -38.8672E-03     54.9901E-03    -16.1229E-03     384.722E-03     141.011E+06     111.578E+06    -1.22733E+06    -908.239E+03     140.692E+06     111.578E+06    -6.56799E+06         94.6795
             189     17.7361E-03     100.083E-03         6.35214        -1.95754        -2.16342        -2.07368         6.32340        -2.01854    -983.715E-03     203.864E-03    -16.2243E-03    -187.640E-03    -36.0285E-03     52.2527E-03    -16.2243E-03     381.409E-03     135.076E+06     115.325E+06    -1.96108E+06    -1.72907E+06     134.844E+06     115.325E+06    -3.18283E+06         97.7720
             190     17.7362E-03     101.111E-03         5.98233        -1.80364        -1.99925        -1.78476         5.96344        -1.99925    -756.090E-03     198.412E-03    -16.3783E-03    -182.034E-03    -29.6820E-03     46.0604E-03    -16.3783E-03     372.752E-03     127.712E+06     118.201E+06    -2.34485E+06    -2.30626E+06     127.673E+06     118.201E+06    -623.756E+03         97.8323
             191     17.7366E-03     102.112E-03         5.78286        -1.63052        -1.94627        -1.62401         5.77635        -1.94627    -371.463E-03     189.212E-03    -16.4911E-03    -172.721E-03    -23.0210E-03     39.5121E-03    -16.4911E-03     356.483E-03     120.371E+06     115.510E+06    -4.42134E+06    -4.36855E+06     117.546E+06     118.282E+06    -2.53258E+06         96.6810
             192     17.7365E-03     103.122E-03         5.60296        -1.52299        -1.89121        -1.52269         5.60265        -1.89121    -52.2099E-03     189.841E-03    -16.3676E-03    -173.474E-03    -27.2653E-03     43.6329E-03    -16.3676E-03     356.180E-03     122.291E+06     110.864E+06    -5.00035E+06    -4.95913E+06     110.823E+06     122.291E+06    -2.18387E+06         94.5927
             193     17.7370E-03     104.181E-03         5.31586        -1.48972        -1.85533        -1.48935         5.31550        -1.85533    -55.1094E-03     198.257E-03    -16.2552E-03    -182.001E-03    -33.3819E-03     49.6371E-03    -16.2552E-03     371.082E-03     129.511E+06     106.439E+06    -3.02320E+06    -3.00181E+06     106.418E+06     129.511E+06    -1.40406E+06         91.9701
             194     17.7370E-03     105.202E-03         4.98172        -1.35650        -1.83115        -1.35565         4.98087        -1.83115     9.73023E-03     195.176E-03    -16.3495E-03    -178.826E-03    -28.2242E-03     44.5737E-03    -16.3495E-03     366.766E-03     130.490E+06     105.643E+06     383.500E+03     500.433E+03     105.526E+06     130.490E+06     2.05720E+06         90.6575
             195     17.7385E-03     106.186E-03         4.73964        -1.12159        -1.81663        -1.12024         4.73829        -1.81663     175.792E-03     173.725E-03    -16.1377E-03    -157.587E-03    -26.9282E-03     43.0660E-03    -16.1377E-03     323.529E-03     115.128E+06     95.3414E+06    -2.48062E+06    -1.64661E+06     94.5074E+06     115.128E+06    -3.25888E+06         91.2908
             196     17.7388E-03     107.178E-03         4.51874    -935.227E-03        -1.85558    -934.325E-03         4.51784        -1.85558     122.013E-03     149.919E-03    -15.3828E-03    -134.536E-03    -43.8190E-03     59.2018E-03    -15.3828E-03     262.911E-03     100.330E+06     79.5191E+06    -2.01817E+06    -671.997E+03     78.1729E+06     100.330E+06    -10.3861E+06         92.4003
             197     17.7406E-03     108.235E-03         4.18312    -760.508E-03        -1.99404    -760.306E-03         4.18292        -1.99404     60.9278E-03     149.641E-03    -14.4979E-03    -135.143E-03    -70.8539E-03     85.3518E-03    -14.4979E-03     237.143E-03     85.1632E+06     65.1069E+06    -10.3671E+06    -8.24612E+06     62.9860E+06     85.1632E+06    -12.2490E+06         94.8815
             198     17.7414E-03     109.361E-03         3.89747    -621.122E-03        -2.23175    -620.390E-03         3.89674        -2.23175     108.552E-03     162.988E-03    -14.0532E-03    -148.935E-03    -86.4924E-03     100.546E-03    -14.0532E-03     249.605E-03     74.1757E+06     60.5888E+06    -7.27895E+06    -2.94309E+06     56.2529E+06     74.1757E+06     923.634E+03         99.3073
             199     17.7431E-03     110.465E-03         3.62328    -393.179E-03        -2.56054    -392.334E-03         3.62243        -2.56054     115.152E-03     163.946E-03    -14.0713E-03    -149.874E-03    -81.5802E-03     95.6515E-03    -14.0713E-03     258.771E-03     49.0559E+06     20.1977E+06    -31.2839E+06    -17.2878E+06     30.0753E+06     25.1822E+06    -11.5702E+06         107.394
             200     17.7430E-03     111.521E-03         3.19060    -62.7200E-03        -2.98949    -62.2774E-03         3.19015        -2.98949     11.0652E-03     145.906E-03    -14.4465E-03    -131.459E-03    -61.9859E-03     76.4324E-03    -14.4465E-03     239.992E-03     16.5919E+06    -27.7899E+06    -53.6770E+06    -19.9929E+06    -17.0922E+06    -27.7899E+06    -23.5437E+06         115.386
             201     17.7436E-03     112.564E-03         2.67957     251.138E-03        -3.51158     252.031E-03         2.67868        -3.51158    -85.5907E-03     112.564E-03    -15.8351E-03    -96.7287E-03    -28.3352E-03     44.1703E-03    -15.8351E-03     194.243E-03     14.8195E+06    -22.0605E+06    -38.8919E+06     5.74190E+06    -29.8143E+06    -22.0605E+06     10.2442E+06         98.7115
             202     17.6903E-03     113.559E-03         2.14359     548.981E-03        -4.11113     567.632E-03         2.12494        -4.11113    -257.065E-03     53.5858E-03    -2.70835E-03    -50.8774E-03     2.52383E-03     18.6146E-03    -21.1384E-03     84.4855E-03     19.8067E+06    -14.0928E+06    -69.6956E+06     10.9191E+06    -19.4740E+06    -55.4268E+06     16.1929E+06         60.1355
             203     16.4550E-03     114.281E-03         1.95629     324.534E-03        -4.49540     396.145E-03         1.88468        -4.49540    -662.780E-03     17.4550E-03     8.36465E-03    -25.8196E-03     10.7659E-03     15.0537E-03    -25.8196E-03     7.79976E-03     30.9845E+06    -10.0370E+06    -66.2132E+06    -853.747E+03     6.95913E+06    -51.3710E+06     17.1419E+06         38.9061
             204     15.4682E-03     114.076E-03         2.10812    -326.168E-03        -4.62286    -214.788E-03         1.99674        -4.62286        -1.01548     39.2927E-03    -10.4520E-03    -28.8407E-03    -11.2964E-03     37.5027E-03    -26.2063E-03     7.50047E-03     61.7018E+06     4.79297E+06    -45.4623E+06    -37.1094E+06     19.9342E+06     38.2077E+06     7.54508E+06         33.5479
             205     14.5514E-03     113.867E-03         2.29067    -966.677E-03        -4.74963    -874.697E-03         2.19869        -4.74963        -1.05653     58.0821E-03    -25.1716E-03    -32.9105E-03    -32.8363E-03     58.0079E-03    -25.1716E-03    -2.70515E-03     56.0060E+06     12.2323E+06    -59.6684E+06    -51.8155E+06     4.37943E+06     56.0060E+06    -20.9736E+06         28.0784
             206     13.6171E-03     113.716E-03         2.46296        -1.61594        -4.89045        -1.54834         2.39536        -4.89045        -1.04005     58.2366E-03    -23.5413E-03    -34.6953E-03    -34.4695E-03     58.0108E-03    -23.5413E-03    -8.97222E-03     47.4538E+06    -4.14730E+06    -50.2462E+06    -41.4927E+06    -12.9008E+06     47.4538E+06    -17.9958E+06         25.5276
             207     12.6704E-03     113.603E-03         2.61601        -2.11474        -5.05289        -2.04274         2.54401        -5.05289        -1.15831     56.8060E-03    -22.1645E-03    -34.6414E-03    -34.3499E-03     56.5144E-03    -22.1645E-03    -10.3060E-03     70.4008E+06    -207.297E+03    -33.8354E+06    -30.3874E+06    -3.65530E+06     70.4008E+06    -9.05947E+06         24.3567
             208     11.7179E-03     113.511E-03         2.84704        -2.41929        -5.24138        -2.36682         2.79457        -5.24138        -1.00733     54.9602E-03    -20.6994E-03    -34.2608E-03    -34.0022E-03     54.7016E-03    -20.6994E-03    -9.59084E-03     70.9536E+06     5.93277E+06    -30.1357E+06    -23.3314E+06    -871.567E+03     70.9536E+06    -10.9169E+06         23.7452
             209     10.7627E-03     113.440E-03         3.20352        -2.73218        -5.45633        -2.71424         3.18558        -5.45633    -618.437E-03     52.5560E-03    -19.1333E-03    -33.4226E-03    -33.2143E-03     52.3476E-03    -19.1333E-03    -8.42938E-03     61.1426E+06     2.97963E+06    -22.5854E+06    -16.0009E+06    -3.60487E+06     61.1426E+06    -9.25351E+06         23.3397
             210     9.80299E-03     113.379E-03         3.73053        -3.29305        -5.68157        -3.28888         3.72636        -5.68157    -246.663E-03     47.9916E-03    -17.5788E-03    -30.4128E-03    -30.2654E-03     47.8442E-03    -17.5788E-03    -6.78667E-03     53.7640E+06     4.76250E+06    -15.1196E+06    -10.3285E+06     -28.639E+03     53.7640E+06    -6.32021E+06         22.9907
             211     8.83887E-03     113.333E-03         4.23876        -4.01024        -5.89286        -4.01021         4.23873        -5.89286    -2.85979E-03     42.4031E-03    -16.1979E-03    -26.2052E-03    -26.1074E-03     42.3053E-03    -16.1979E-03    -5.14865E-03     49.1863E+06     4.85981E+06    -10.8852E+06    -5.52281E+06    -502.555E+03     49.1863E+06    -6.42362E+06         22.6628
             212     7.86770E-03     113.297E-03         4.70403        -4.81542        -6.06662        -4.81531         4.70392        -6.06662    -30.4148E-03     37.8779E-03    -15.0218E-03    -22.8561E-03    -22.7922E-03     37.8140E-03    -15.0218E-03    -3.93491E-03     47.8446E+06     10.3123E+06    -9.67338E+06     853.305E+03    -214.415E+03     47.8446E+06    -7.01063E+06         22.3678
             213     6.89257E-03     113.269E-03         5.05823        -5.39294        -6.19680        -5.38482         5.05011        -6.19680    -458.281E-03     34.2349E-03    -13.9882E-03    -20.2467E-03    -20.1942E-03     34.1824E-03    -13.9882E-03    -3.38022E-03     47.3078E+06     10.1950E+06    -5.38394E+06     7.59648E+06    -2.78538E+06     47.3078E+06    -5.75050E+06         22.1145
             214     5.91462E-03     113.247E-03         5.03352        -5.38643        -6.33101        -5.37810         5.02519        -6.33101    -333.356E-03     30.7789E-03    -13.0541E-03    -17.7248E-03    -17.6858E-03     30.7399E-03    -13.0541E-03    -2.73871E-03     44.5723E+06     14.6446E+06    -710.541E+03     12.5011E+06     1.43292E+06     44.5723E+06    -5.17145E+06         21.8992
             215     4.93390E-03     113.232E-03         5.05040        -5.35078        -6.52693        -5.34972         5.04934        -6.52693     206.009E-03     27.6264E-03    -12.2999E-03    -15.3265E-03    -15.3017E-03     27.6016E-03    -12.2999E-03    -2.05669E-03     45.0473E+06     20.0404E+06    -1.17814E+06     18.5077E+06     354.476E+03     45.0473E+06    -5.38860E+06         21.7178
             216     3.94862E-03     113.219E-03         5.51968        -5.95808        -6.74414        -5.94868         5.51028        -6.74414     587.363E-03     25.2765E-03    -11.7070E-03    -13.5694E-03    -13.5483E-03     25.2554E-03    -11.7070E-03    -1.80959E-03     45.4031E+06     24.7163E+06    -436.733E+03     23.3248E+06     954.743E+03     45.4031E+06    -5.73619E+06         21.5691
             217     2.96365E-03     113.211E-03         6.18315        -6.66655        -6.99077        -6.78147         6.16499        -6.85769    -47.7580E-03     23.6776E-03    -11.1874E-03    -12.4902E-03    -12.4737E-03     23.6611E-03    -11.1874E-03    -1.52043E-03     41.6087E+06     27.3486E+06    -439.378E+03     26.0136E+06     895.545E+03     41.6087E+06    -5.87085E+06         21.4517
             218     1.97644E-03     113.204E-03         6.62890        -6.78291        -7.17284        -7.14407         6.60013        -6.78291     222.968E-03     21.9162E-03    -10.5454E-03    -11.3707E-03    -11.0869E-03     21.9085E-03    -10.8216E-03    -990.795E-06     36.9112E+06     25.9603E+06    -2.04887E+06     30.0819E+06    -1.28554E+06     32.0262E+06    -4.86349E+06         21.3648
             219     988.018E-06     113.200E-03         6.32680        -6.22551        -7.24284        -7.16553         6.24949        -6.22551    -499.521E-03     21.5726E-03    -10.3595E-03    -11.2131E-03    -10.9291E-03     21.5648E-03    -10.6357E-03    -992.777E-06     44.9889E+06     36.3118E+06    -3.78965E+06     40.2853E+06    -2.87821E+06     40.1040E+06    -6.30886E+06         21.3109
             220    -1.64978E-06     112.178E-03         7.44536        -6.45583        -7.62006        -7.03872         7.26777        -6.85957        -3.18159     19.2311E-03    -9.00837E-03    -10.2227E-03    -9.57837E-03     19.2237E-03    -9.64533E-03    -913.260E-06     32.0859E+06     22.1718E+06    -11.5248E+06     27.4375E+06    -10.6686E+06     25.9640E+06    -5.76329E+06         21.2115
             221     282.736E-09     111.161E-03         9.80075        -7.65796        -8.08306        -7.43161         9.57440        -8.08306        -3.94115     13.8479E-03    -6.44615E-03    -7.40175E-03    -6.76280E-03     13.8459E-03    -7.08310E-03    -265.505E-06    -9.69101E+06    -17.2592E+06    -29.3507E+06    -15.3417E+06    -23.7000E+06    -17.2592E+06    -1.71760E+06         21.0074
             222     391.926E-09     110.152E-03         11.2180        -8.16081        -8.54257        -8.35450         11.0513        -8.18217        -3.56148     9.90330E-03    -4.75642E-03    -5.14689E-03    -5.06735E-03     9.89559E-03    -4.82823E-03    -397.139E-06    -31.9536E+06    -47.2570E+06    -52.6659E+06    -49.8646E+06    -34.7549E+06    -47.2570E+06    -5.74354E+06         20.7607
             223    -572.937E-09     109.142E-03         12.0545        -8.10991        -8.84034        -8.35914         11.9433        -8.47994        -3.01104     6.82350E-03    -3.31343E-03    -3.51006E-03    -3.30500E-03     6.81506E-03    -3.51006E-03    -325.639E-06    -47.6233E+06    -82.5758E+06    -85.2679E+06    -81.2154E+06    -50.4377E+06    -83.8139E+06    -5.28999E+06         20.5334
             224     304.145E-09     108.137E-03         12.4220        -8.11342        -8.55525        -8.01570         12.3243        -8.55525        -2.82510     4.54639E-03    -2.14826E-03    -2.39813E-03    -2.27050E-03     4.54358E-03    -2.27308E-03    -43.6547E-06    -60.3892E+06    -110.460E+06    -116.014E+06    -113.861E+06    -61.3038E+06    -111.698E+06    -4.76246E+06         20.3540
             225    -11.7105E-09     107.134E-03         12.3871        -7.85258        -8.37839        -8.21347         12.2940        -7.92438        -2.77003     2.71754E-03    -1.29008E-03    -1.42747E-03    -1.41307E-03     2.71549E-03    -1.30242E-03    -158.076E-06    -76.8067E+06    -147.194E+06    -155.262E+06    -150.477E+06    -77.8404E+06    -150.946E+06    -7.77156E+06         20.2333
             226    -63.0298E-09     106.131E-03         12.0677        -7.48098        -7.94264        -7.77210         11.9048        -7.48863        -3.49320     1.37787E-03    -679.365E-06    -698.501E-06    -678.721E-06     1.37722E-03    -698.501E-06     39.9476E-06    -87.7313E+06    -159.907E+06    -164.288E+06    -159.072E+06    -88.5663E+06    -164.288E+06     2.19497E+06         20.1784
             227     32.2352E-09     105.131E-03         10.8706        -6.70679        -6.88956        -6.54157         10.5303        -6.71444        -4.76150     1.44074E-03    -712.512E-06    -728.228E-06    -706.810E-06     1.43504E-03    -728.228E-06     210.900E-06    -41.1722E+06    -95.9846E+06    -103.646E+06    -88.5033E+06    -55.6856E+06    -96.6144E+06     20.0234E+06         20.1936
             228    -149.423E-09     104.128E-03         7.99175        -4.73845        -5.69047        -5.04267         7.34395        -4.73845        -5.61619     2.41000E-03    -1.19675E-03    -1.21326E-03    -1.18613E-03     2.39179E-03    -1.20567E-03     508.849E-06     40.3689E+06    -28.4082E+06    -46.2732E+06    -28.6559E+06     22.7515E+06    -28.4082E+06     29.4715E+06         20.2789
             229     237.647E-09     103.125E-03         5.69640        -2.94206        -4.75645        -3.39606         4.33601        -2.94206        -6.79209     4.33640E-03    -2.12878E-03    -2.20762E-03    -2.17720E-03     4.30598E-03    -2.12878E-03     886.449E-06     97.4416E+06     7.92055E+06    -4.44515E+06    -494.637E+03     93.4911E+06     7.92055E+06     16.6518E+06         20.4316
             230    -105.982E-09     102.119E-03         5.90508        -1.97322        -5.33047        -2.39201         2.96661        -1.97322        -9.75351     7.69439E-03    -3.79914E-03    -3.89524E-03    -3.86331E-03     7.66246E-03    -3.79914E-03     1.19702E-03     120.287E+06     40.2565E+06     37.7601E+06     37.9094E+06     120.138E+06     40.2565E+06     2.57195E+06         20.6459
             231     144.583E-09     101.109E-03         6.98916    -922.081E-03        -7.12858        -1.67000         1.53058    -922.081E-03        -13.6137     12.1278E-03    -6.04325E-03    -6.08456E-03    -6.05333E-03     12.0966E-03    -6.04325E-03     1.50342E-03     123.912E+06     72.5042E+06     71.3791E+06     71.6355E+06     123.817E+06     72.3428E+06    -1.28840E+06         20.9084
             232    -143.231E-09     100.094E-03         8.07511     54.4043E-03        -8.83780    -294.081E-03    -468.604E-03     54.4043E-03        -16.8153     16.7973E-03    -8.36135E-03    -8.43592E-03    -8.40422E-03     16.7656E-03    -8.36135E-03     1.78037E-03     118.787E+06     96.5289E+06     94.6619E+06     95.8972E+06     117.713E+06     96.3675E+06    -3.81818E+06         21.1974
             233     242.659E-09     99.0740E-03         9.40547         1.01799        -10.8430         1.12071        -2.55821         1.01799        -19.8640     21.0469E-03    -10.4409E-03    -10.6060E-03    -10.5788E-03     21.0196E-03    -10.4409E-03     1.84604E-03     114.687E+06     108.053E+06     95.6158E+06     107.267E+06     103.036E+06     108.053E+06    -5.12625E+06         21.4873
             234    -50.0134E-09     98.0506E-03         10.5443         2.15790        -13.0684         2.20257        -4.72669         2.15790        -22.5421     24.7651E-03    -12.3056E-03    -12.4595E-03    -12.4444E-03     24.7501E-03    -12.3056E-03     1.40060E-03     113.477E+06     112.552E+06     82.2840E+06     111.934E+06     83.8266E+06     112.552E+06    -6.75910E+06         21.7561
             235     147.916E-09     97.0246E-03         11.6900         2.39345        -14.3411         2.84167        -5.49280         2.39345        -24.6560     28.1187E-03    -13.9948E-03    -14.1239E-03    -14.1151E-03     28.1099E-03    -13.9948E-03     1.20495E-03     110.253E+06     109.110E+06     63.2213E+06     108.872E+06     64.6023E+06     109.110E+06    -7.65902E+06         21.9881
             236     2.11867E-09     95.9928E-03         12.7378         1.32860        -14.1178         2.46487        -3.84493         1.32860        -26.0350     30.6861E-03    -15.2688E-03    -15.4173E-03    -15.4065E-03     30.6752E-03    -15.2688E-03     1.41073E-03     107.068E+06     105.034E+06     42.1215E+06     105.049E+06     42.8712E+06     106.302E+06    -6.76991E+06         22.1743
             237     142.995E-09     94.9612E-03         12.9904     124.613E-03        -13.0499         1.81759        -1.87713     124.613E-03        -25.7686     32.1739E-03    -15.9798E-03    -16.1941E-03    -16.1870E-03     32.1668E-03    -15.9798E-03     1.14286E-03     95.5779E+06     92.5857E+06     20.2320E+06     93.6338E+06     20.9074E+06     93.8544E+06    -7.03463E+06         22.3128
             238     129.934E-09     93.9290E-03         12.1935    -281.814E-03        -11.8231         1.75263        -1.38226    -281.814E-03        -23.8084     33.2387E-03    -16.5091E-03    -16.7296E-03    -16.6545E-03     33.2361E-03    -16.5816E-03     682.106E-06     84.5412E+06     80.7793E+06     3.71159E+06     84.1208E+06     4.13192E+06     80.7793E+06    -5.18133E+06         22.4094
             239    -296.884E-09     92.8938E-03         10.7923    -576.069E-03        -10.0298         1.97367        -1.21118    -576.069E-03        -20.5765     33.9797E-03    -16.9434E-03    -17.0363E-03    -16.9582E-03     33.9741E-03    -17.0159E-03     951.977E-06     71.6609E+06     67.9603E+06    -11.2113E+06     69.7200E+06    -10.9327E+06     69.6226E+06    -4.40657E+06         22.4731
             240     354.960E-09     91.8590E-03         9.16144        -1.36720        -7.67006         1.26917     222.212E-03        -1.36720        -16.6926     34.5085E-03    -17.1657E-03    -17.3429E-03    -17.3347E-03     34.5004E-03    -17.1657E-03     1.28822E-03     54.0646E+06     52.1422E+06    -28.3224E+06     51.9555E+06    -27.8755E+06     53.8044E+06    -5.98402E+06         22.5126
             241    -50.3564E-09     90.8246E-03         7.89814        -2.77007        -5.09995    -331.475E-03         3.12967        -2.77007        -12.1296     34.7074E-03    -17.1589E-03    -17.5485E-03    -17.5449E-03     34.7037E-03    -17.1589E-03     806.437E-06     33.6798E+06     32.9581E+06    -47.8582E+06     33.3598E+06    -47.5383E+06     32.9581E+06    -5.03041E+06         22.5345
             242     505.137E-09     89.7892E-03         7.76909        -3.38139        -4.34691        -1.68773         6.04411        -4.31557        -7.64041     34.5706E-03    -17.1463E-03    -17.4243E-03    -17.3769E-03     34.5684E-03    -17.1914E-03     661.244E-06     17.8187E+06     16.5189E+06    -63.6988E+06     16.7324E+06    -63.4508E+06     17.3571E+06    -4.45536E+06         22.5450
             243    -581.505E-09     88.7554E-03         8.80847        -3.58204        -5.31497        -3.18414         8.41057        -5.31497        -3.15116     34.5350E-03    -17.2271E-03    -17.3079E-03    -17.2246E-03     34.5324E-03    -17.3079E-03     720.444E-06     8.68952E+06     6.13114E+06    -80.4447E+06     7.12230E+06    -79.7157E+06     6.96933E+06    -7.63756E+06         22.5496
             244     497.218E-09     87.7191E-03         10.9535        -4.79379        -6.28354        -4.73948         10.8992        -6.28354         1.04059     34.5489E-03    -17.1615E-03    -17.3875E-03    -17.3480E-03     34.5451E-03    -17.1971E-03     857.185E-06    -3.39817E+06    -6.83323E+06    -98.8776E+06    -3.98304E+06    -98.2927E+06    -6.83323E+06    -5.50291E+06         22.5512
             245    -149.108E-09     86.6858E-03         12.4534        -5.87261        -6.64575        -5.71308         12.2939        -6.64575         3.35489     34.6440E-03    -17.2116E-03    -17.4324E-03    -17.3982E-03     34.6401E-03    -17.2420E-03     850.678E-06    -10.8736E+06    -15.2390E+06    -112.133E+06    -13.5982E+06    -112.059E+06    -12.5885E+06    -2.22266E+06         22.5510
             246     126.658E-09     85.6502E-03         11.6413        -5.71006        -6.03965        -5.67059         11.3544        -5.79220         4.39948     34.5210E-03    -17.1927E-03    -17.3283E-03    -17.2942E-03     34.5173E-03    -17.2231E-03     835.969E-06    -16.8707E+06    -21.8866E+06    -123.782E+06    -19.6373E+06    -123.666E+06    -19.2361E+06    -3.43996E+06         22.5496
             247     46.0206E-09     84.6154E-03         9.08662        -4.18396        -5.06077        -4.65144         8.67729        -4.18396         4.69211     34.4012E-03    -17.0354E-03    -17.3658E-03    -17.3618E-03     34.3972E-03    -17.0354E-03     885.627E-06    -20.0737E+06    -24.9817E+06    -132.791E+06    -22.7187E+06    -132.689E+06    -22.4391E+06    -3.35012E+06         22.5478
             248     431.822E-09     83.5831E-03         6.22913        -2.42295        -3.97078        -3.55058         5.80893        -2.42295         4.05130     34.5583E-03    -17.0915E-03    -17.4668E-03    -17.3141E-03     34.5557E-03    -17.2416E-03     733.709E-06    -23.6084E+06    -28.4630E+06    -144.863E+06    -26.2786E+06    -144.735E+06    -25.9204E+06    -3.88934E+06         22.5461
             249    -757.017E-09     82.5456E-03         4.59048        -1.41092        -3.33155        -3.11027         4.36919        -1.41092         2.43257     34.4297E-03    -17.0480E-03    -17.3817E-03    -17.2273E-03     34.4254E-03    -17.1981E-03     931.921E-06    -26.6275E+06    -29.1213E+06    -159.213E+06    -26.7139E+06    -159.126E+06    -29.1213E+06    -1.01466E+06         22.5448
             250     1.11287E-06     81.5133E-03         3.23831    -542.661E-03        -2.91092        -2.81149         3.13888    -542.661E-03    -114.743E-03     34.1992E-03    -16.9631E-03    -17.2361E-03    -17.2306E-03     34.1937E-03    -16.9631E-03     1.06229E-03    -29.8524E+06    -32.1976E+06    -164.837E+06    -32.0980E+06    -164.755E+06    -30.0343E+06    -954.188E+03         22.5444
             251    -910.031E-09     80.4790E-03         1.85926     561.332E-03        -2.68929        -1.57086     523.402E-03     778.769E-03        -2.67266     34.2920E-03    -17.0805E-03    -17.2115E-03    -17.1667E-03     34.2888E-03    -17.1221E-03     746.010E-06    -24.8115E+06    -30.5473E+06    -168.806E+06    -27.0491E+06    -168.731E+06    -28.3839E+06    -2.87451E+06         22.5455
             252     782.150E-09     79.4446E-03         1.89451         1.25280        -3.46896    -279.900E-03        -1.93625         1.89451        -4.31729     34.5118E-03    -17.1850E-03    -17.3268E-03    -17.2832E-03     34.5099E-03    -17.2267E-03     607.866E-06    -17.0429E+06    -24.2133E+06    -176.580E+06    -20.6882E+06    -176.533E+06    -20.6154E+06    -2.56273E+06         22.5478
             253    -537.323E-09     78.4110E-03         2.80157         1.79285        -5.02622     244.965E-03        -3.47833         2.80157        -5.70666     34.5438E-03    -17.2070E-03    -17.3368E-03    -17.3323E-03     34.5393E-03    -17.2070E-03     943.429E-06    -21.8590E+06    -28.7178E+06    -184.135E+06    -25.5356E+06    -184.056E+06    -25.1198E+06    -3.53146E+06         22.5503
             254     549.065E-09     77.3747E-03         3.60839         2.93274        -6.98664         1.27465        -5.32855         3.60839        -7.33601     34.2867E-03    -17.0504E-03    -17.2363E-03    -17.2322E-03     34.2827E-03    -17.0504E-03     881.111E-06    -23.7457E+06    -27.9164E+06    -192.205E+06    -24.7111E+06    -192.150E+06    -27.0065E+06    -655.945E+03         22.5522
             255    -229.390E-09     76.3439E-03         3.90646         3.65269        -8.05112         2.29013        -6.68855         3.90646        -7.47093     34.3225E-03    -17.0762E-03    -17.2463E-03    -17.2448E-03     34.3210E-03    -17.0762E-03     535.573E-06    -23.3846E+06    -25.2003E+06    -196.334E+06    -25.2318E+06    -196.302E+06    -23.3846E+06    -19.5955E+03         22.5535
             256     270.530E-09     75.3080E-03         3.52157         3.09077        -7.14418         2.31606        -6.36947         3.52157        -5.33637     34.7695E-03    -17.3471E-03    -17.4224E-03    -17.4182E-03     34.7654E-03    -17.3471E-03     837.185E-06    -22.7094E+06    -24.9339E+06    -195.294E+06    -23.6340E+06    -195.275E+06    -24.0280E+06    -1.64216E+06         22.5542
             257    -173.003E-09     74.2727E-03         3.43364         2.83770        -6.80849         2.58419        -6.55498         3.43364        -2.75088     34.6209E-03    -17.2314E-03    -17.3895E-03    -17.3816E-03     34.6130E-03    -17.2314E-03     1.27949E-03    -19.8122E+06    -21.3657E+06    -195.894E+06    -19.8924E+06    -195.814E+06    -21.3657E+06     2.15462E+06         22.5543
             258     354.569E-09     73.2393E-03         4.08978         3.60502        -8.32336         3.55451        -8.27286         4.08978    -103.479E-03     34.2281E-03    -17.0173E-03    -17.2108E-03    -17.2044E-03     34.2217E-03    -17.0173E-03     1.14038E-03    -17.6807E+06    -19.7251E+06    -194.824E+06    -19.5679E+06    -194.746E+06    -17.9156E+06     2.71585E+06         22.5538
             259    -142.663E-09     72.2061E-03         5.06423         4.45642        -10.2758         4.65319        -10.0218         4.61348         3.48538     34.2226E-03    -17.0362E-03    -17.1863E-03    -17.1818E-03     34.2181E-03    -17.0362E-03     959.663E-06    -14.4462E+06    -18.2499E+06    -192.264E+06    -16.2559E+06    -192.264E+06    -16.4404E+06    -12.4596E+03         22.5535
             260     218.331E-09     71.1711E-03         5.99392         4.66884        -11.5356         5.01921        -10.5609         4.66884         7.74974     34.1670E-03    -17.0411E-03    -17.1260E-03    -17.1227E-03     34.1637E-03    -17.0411E-03     810.140E-06    -13.8304E+06    -16.5108E+06    -192.063E+06    -14.5255E+06    -192.054E+06    -15.8247E+06     778.956E+03         22.5534
             261    -147.375E-09     70.1391E-03         6.30583         3.49527        -10.7172         3.87239        -8.28376         3.49527         11.4699     34.0811E-03    -17.0211E-03    -17.0599E-03    -17.0576E-03     34.0787E-03    -17.0211E-03     692.819E-06    -14.3033E+06    -15.0766E+06    -192.032E+06    -15.0894E+06    -192.019E+06    -14.3033E+06     291.873E+03         22.5529
             262     162.291E-09     69.1036E-03         7.50004     916.868E-03        -9.30291         1.73964        -3.54251     916.868E-03         15.3443     34.0984E-03    -16.9678E-03    -17.1306E-03    -17.1278E-03     34.0956E-03    -16.9678E-03     754.784E-06    -13.4625E+06    -14.4078E+06    -192.469E+06    -13.5537E+06    -192.465E+06    -14.3206E+06    -633.195E+03         22.5526
             263     130.791E-09     68.0714E-03         9.53822    -630.851E-03        -9.75784     246.775E-03    -466.402E-03    -630.851E-03         19.2647     34.0211E-03    -16.9055E-03    -17.1156E-03    -17.0581E-03     34.0181E-03    -16.9600E-03     771.515E-06    -10.2693E+06    -11.8991E+06    -189.142E+06    -11.0430E+06    -189.140E+06    -11.1274E+06     379.013E+03         22.5530
             264    -228.776E-09     67.0363E-03         9.98444     376.724E-03        -11.3686     587.408E-03        -1.97161     376.724E-03         21.0417     33.8942E-03    -16.9020E-03    -16.9922E-03    -16.9346E-03     33.8912E-03    -16.9566E-03     780.014E-06    -7.72561E+06    -10.5486E+06    -186.967E+06    -8.50117E+06    -186.964E+06    -9.77689E+06     830.140E+03         22.5539
             265     269.951E-09     66.0041E-03         9.97029         1.83634        -12.9952         1.93738        -4.96226         1.83634         21.8560     34.0195E-03    -16.9143E-03    -17.1052E-03    -17.1018E-03     34.0161E-03    -16.9143E-03     830.865E-06    -10.0637E+06    -14.7579E+06    -190.953E+06    -12.7148E+06    -190.945E+06    -12.1150E+06    -345.049E+03         22.5554
             266     69.1653E-09     64.9694E-03         10.4265         2.14409        -13.7568         2.28441        -5.61464         2.14409         22.8428     34.1331E-03    -16.9412E-03    -17.1919E-03    -17.1889E-03     34.1300E-03    -16.9412E-03     782.141E-06    -11.5090E+06    -15.6986E+06    -191.763E+06    -14.1705E+06    -191.744E+06    -13.0557E+06    -1.79598E+06         22.5568
             267     97.7965E-09     63.9361E-03         10.0977         2.10703        -13.3910         1.51231        -4.80558         2.10703         22.6132     34.1201E-03    -16.9752E-03    -17.1449E-03    -17.1412E-03     34.1163E-03    -16.9752E-03     866.953E-06    -11.3290E+06    -13.6907E+06    -192.536E+06    -12.1678E+06    -192.512E+06    -12.8758E+06    -14.2244E+03         22.5576
             268     56.2534E-09     62.9020E-03         8.93170         2.23640        -12.3610     989.419E-03        -4.41868         2.23640         20.5920     34.1652E-03    -17.0363E-03    -17.1289E-03    -17.1069E-03     34.1615E-03    -17.0546E-03     856.392E-06    -10.5165E+06    -12.5150E+06    -191.186E+06    -11.3434E+06    -191.174E+06    -11.7001E+06     1.19074E+06         22.5585
             269    -107.956E-09     61.8685E-03         7.83362         3.01433        -12.0582         1.66747        -5.89204         3.01433         18.2437     34.3011E-03    -17.1020E-03    -17.1992E-03    -17.1762E-03     34.2964E-03    -17.1203E-03     950.969E-06    -10.1051E+06    -12.3496E+06    -188.970E+06    -11.1679E+06    -188.969E+06    -11.2887E+06     539.725E+03         22.5606
             270     272.186E-09     60.8339E-03         7.29113         4.74415        -13.3201         3.04221        -9.07117         4.74415         16.5059     34.4195E-03    -17.1081E-03    -17.3114E-03    -17.3017E-03     34.4097E-03    -17.1081E-03     1.40962E-03    -9.29507E+06    -11.2075E+06    -190.201E+06    -10.3822E+06    -190.175E+06    -10.1466E+06     1.87691E+06         22.5640
             271    -48.8497E-09     59.7991E-03         6.58979         5.85596        -13.7678         3.47446        -10.7199         5.92337         14.4838     34.1360E-03    -16.9624E-03    -17.1736E-03    -17.1663E-03     34.1287E-03    -16.9624E-03     1.13062E-03    -8.98829E+06    -10.1822E+06    -189.769E+06    -9.35576E+06    -189.744E+06    -9.83980E+06     1.69552E+06         22.5677
             272     224.137E-09     58.7679E-03         5.86423         5.70716        -12.7868         3.25877        -10.3385         5.86423         12.5316     34.0668E-03    -16.9711E-03    -17.0957E-03    -17.0936E-03     34.0647E-03    -16.9711E-03     650.011E-06    -9.89343E+06    -10.6560E+06    -187.911E+06    -10.6568E+06    -187.910E+06    -9.89343E+06     374.459E+03         22.5712
             273    -143.833E-09     57.7324E-03         6.46316         5.78437        -13.3487         3.78549        -11.3498         6.46316         11.6359     34.3166E-03    -17.1157E-03    -17.2009E-03    -17.1982E-03     34.3139E-03    -17.1157E-03     736.586E-06    -9.74750E+06    -10.4817E+06    -187.557E+06    -10.1751E+06    -187.549E+06    -10.0616E+06    -622.044E+03         22.5746
             274     16.7197E-03     56.2572E-03         3.63084         1.05817        -5.43708     748.007E-03        -5.12691         3.63084        -2.41909     200.381E-03    -17.3010E-03    -183.080E-03    -40.3278E-03     57.6288E-03    -17.3010E-03     370.713E-03     188.713E+06     111.138E+06    -8.26450E+06    -8.25810E+06     188.707E+06     111.138E+06    -698.961E+03         63.6922
             275     15.7383E-03     55.8900E-03         3.74030         1.41171        -5.91761     788.311E-03        -5.29421         3.74030        -4.08000     123.190E-03    -16.8625E-03    -106.327E-03    -28.2448E-03     45.1073E-03    -16.8625E-03     216.065E-03     147.271E+06     22.6980E+06    -12.2309E+06    -12.2234E+06     147.264E+06     22.6980E+06     81.2533E+03         54.1439
             276     14.7534E-03     55.8010E-03         3.90921         1.01987        -5.73960     677.502E-03        -5.39723         3.90921        -2.47772     47.4151E-03    -16.5094E-03    -30.9057E-03    -16.7092E-03     33.2186E-03    -16.5094E-03     56.9556E-03     109.158E+06    -10.3861E+06    -44.2285E+06    -12.3485E+06     109.142E+06    -42.2504E+06     552.294E+03         43.5989
             277     13.7685E-03     55.7724E-03         4.13035     789.863E-03        -5.76677     728.887E-03        -5.70579         4.13035        -1.19132     35.2920E-03    -16.4087E-03    -18.8833E-03    -16.2868E-03     32.6955E-03    -16.4087E-03     22.8645E-03     68.7711E+06    -9.67774E+06    -63.2382E+06    -9.65009E+06     68.7434E+06    -63.2382E+06     179.754E+03         35.0499
             278     12.7848E-03     55.7544E-03         4.37714         1.18780        -6.43658         1.03757        -6.28635         4.37714        -2.09405     34.4045E-03    -16.5626E-03    -17.8420E-03    -16.4840E-03     33.0465E-03    -16.5626E-03     16.4179E-03     21.1548E+06    -7.11250E+06    -41.2954E+06    -6.38372E+06     20.4260E+06    -41.2954E+06     264.116E+03         29.4533
             279     11.8010E-03     55.7388E-03         4.64116         1.50885        -7.04478         1.34894        -6.88487         4.64116        -2.28387     34.0249E-03    -16.7096E-03    -17.3153E-03    -16.6000E-03     33.3096E-03    -16.7096E-03     11.8955E-03    -3.84247E+06    -11.7210E+06    -39.5359E+06    -4.76067E+06    -26.1310E+06    -24.2077E+06     518.502E+03         26.3122
             280     10.8174E-03     55.7297E-03         4.92715         1.70691        -7.55662         1.64710        -7.49681         4.92715        -1.00465     34.0166E-03    -16.8270E-03    -17.1896E-03    -16.6394E-03     33.4663E-03    -16.8270E-03     10.5477E-03    -3.32644E+06    -12.0896E+06    -59.7603E+06    -3.33515E+06    -59.7516E+06    -12.0896E+06     101.610E+03         24.7095
             281     9.83374E-03     55.7175E-03         5.22966         2.18351        -8.36524         2.17772        -8.35945         5.22966    -338.863E-03     34.1327E-03    -16.9166E-03    -17.2160E-03    -16.7104E-03     33.6271E-03    -16.9166E-03     10.0933E-03    -2.50181E+06    -5.29550E+06    -85.1287E+06    -2.74974E+06    -85.1279E+06    -5.04833E+06     57.0216E+03         23.9079
             282     8.85007E-03     55.7087E-03         5.52838         2.98720        -9.49213         2.92502        -9.42995         5.52838     879.868E-03     34.1791E-03    -16.9820E-03    -17.1971E-03    -16.8292E-03     33.8112E-03    -16.9820E-03     8.64467E-03    -2.37257E+06    -3.26343E+06    -107.908E+06    -3.22956E+06    -107.903E+06    -2.41133E+06     535.969E+03         23.4775
             283     7.86682E-03     55.7000E-03         5.81401         3.82066        -10.6247         3.58644        -10.3905         5.81401         3.54065     34.1962E-03    -17.0350E-03    -17.1612E-03    -16.8597E-03     33.8947E-03    -17.0350E-03     7.83448E-03    -1.06946E+06    -3.89956E+06    -126.614E+06    -3.90573E+06    -126.607E+06    -1.06946E+06     727.457E+03         23.2133
             284     6.88311E-03     55.6924E-03         6.10959         4.22303        -11.3250         3.94742        -11.0494         6.10959         4.04531     34.2838E-03    -17.0900E-03    -17.1938E-03    -16.9489E-03     34.0389E-03    -17.0900E-03     7.06117E-03     1.13231E+06    -4.07764E+06    -144.018E+06    -4.09580E+06    -144.000E+06     1.13231E+06     952.816E+03         23.0294
             285     5.89987E-03     55.6854E-03         6.44412         4.45937        -11.8909         4.30944        -11.7410         6.44412         3.05876     34.3398E-03    -17.1369E-03    -17.2029E-03    -17.0192E-03     34.1571E-03    -17.1379E-03     6.10401E-03     2.64936E+06    -3.69866E+06    -161.733E+06    -3.72211E+06    -161.709E+06     2.64936E+06     1.12252E+06         22.8917
             286     4.91649E-03     55.6797E-03         6.78949         5.36931        -13.1479         5.14194        -12.9205         6.78949         3.95002     34.3861E-03    -17.1631E-03    -17.2230E-03    -17.0889E-03     34.2530E-03    -17.1641E-03     5.21583E-03     1.35411E+06    -5.00677E+06    -175.983E+06    -5.02064E+06    -175.970E+06     1.35411E+06     1.24781E+06         22.7859
             287     3.93314E-03     55.6747E-03         7.08659         6.27226        -14.3465         6.05373        -14.1280         7.08659         3.97159     34.3598E-03    -17.1411E-03    -17.2187E-03    -17.0977E-03     34.2652E-03    -17.1675E-03     4.39242E-03    -1.96655E+06    -6.85620E+06    -182.797E+06    -6.87781E+06    -182.776E+06    -1.96655E+06     1.86947E+06         22.7055
             288     2.94975E-03     55.6703E-03         7.42026         6.90818        -15.3390         6.49849        -14.8722         7.36316         5.71890     34.2850E-03    -17.1040E-03    -17.1809E-03    -17.0455E-03     34.2264E-03    -17.1809E-03     3.41740E-03    -5.26753E+06    -8.27089E+06    -186.160E+06    -8.28806E+06    -186.143E+06    -5.26753E+06     1.55463E+06         22.6468
             289     1.96652E-03     55.6673E-03         7.75340         7.56991        -16.3826         7.01974        -15.7528         7.67378         7.49841     34.3634E-03    -17.1458E-03    -17.2176E-03    -17.1292E-03     34.3359E-03    -17.2068E-03     2.30998E-03    -7.89111E+06    -10.0832E+06    -188.184E+06    -10.0858E+06    -188.181E+06    -7.89111E+06     505.244E+03         22.6073
             290     983.076E-06     55.6656E-03         8.86778         7.69636        -17.6870         6.83378        -16.8020         8.84526         8.92818     34.4268E-03    -17.1709E-03    -17.2559E-03    -17.2357E-03     34.4171E-03    -17.1814E-03     1.32227E-03    -9.18592E+06    -10.8055E+06    -188.116E+06    -10.6013E+06    -188.107E+06    -9.39916E+06     748.204E+03         22.5848
             291     16.7235E-03     55.2214E-03         3.39127     730.968E-03        -4.70350     406.188E-03        -4.37872         3.39127        -2.23847     200.592E-03    -17.2780E-03    -183.314E-03    -40.3054E-03     57.5834E-03    -17.2780E-03     371.207E-03     187.901E+06     111.606E+06    -8.30481E+06    -8.29788E+06     187.894E+06     111.606E+06    -993.952E+03         63.5861
             292     15.7366E-03     54.8567E-03         3.50136     918.849E-03        -5.07988     239.700E-03        -4.40073         3.50136        -3.77118     122.667E-03    -16.8646E-03    -105.803E-03    -27.6020E-03     44.4666E-03    -16.8646E-03     215.291E-03     146.222E+06     23.6940E+06    -13.6334E+06    -13.6228E+06     146.212E+06     23.6940E+06    -43.9278E+03         54.1255
             293     14.7523E-03     54.7663E-03         3.68646     487.572E-03        -4.89195     104.256E-03        -4.50864         3.68646        -2.26217     47.3453E-03    -16.5294E-03    -30.8158E-03    -16.7645E-03     33.2940E-03    -16.5294E-03     56.5581E-03     109.945E+06    -9.15307E+06    -43.8671E+06    -13.0858E+06     109.925E+06    -39.9144E+06     765.956E+03         43.6493
             294     13.7686E-03     54.7397E-03         3.93035     263.104E-03        -4.95013     181.482E-03        -4.86851         3.93035        -1.17691     35.2297E-03    -16.4221E-03    -18.8076E-03    -16.2635E-03     32.6856E-03    -16.4221E-03     22.6428E-03     69.0944E+06    -9.75474E+06    -61.9064E+06    -9.72139E+06      69.061E+06    -61.9064E+06     138.916E+03         35.1238
             295     12.7847E-03     54.7191E-03         4.21053     479.000E-03        -5.48179     302.215E-03        -5.30500         4.21053        -1.99600     34.4280E-03    -16.5683E-03    -17.8598E-03    -16.5098E-03     33.0780E-03    -16.5683E-03     16.3444E-03     20.5434E+06      -7.648E+06    -41.8217E+06    -6.78985E+06     19.6853E+06    -41.8217E+06     283.251E+03         29.5155
             296     11.8011E-03     54.7062E-03         4.53450     483.979E-03        -5.84476     309.683E-03        -5.67046         4.53450        -2.04261     34.0275E-03    -16.7131E-03    -17.3144E-03    -16.6134E-03     33.3265E-03    -16.7131E-03     11.7952E-03    -3.02220E+06    -11.4777E+06    -39.5654E+06    -3.95579E+06    -25.8485E+06    -24.2611E+06     479.921E+03         26.3526
             297     10.8172E-03     54.6949E-03         4.90424     686.728E-03        -6.45581     617.417E-03        -6.38650         4.90424    -921.209E-03     34.0318E-03    -16.8311E-03    -17.2008E-03    -16.6593E-03     33.4903E-03    -16.8311E-03     10.4720E-03    -2.82651E+06    -11.8672E+06    -59.2606E+06    -2.83799E+06    -59.2491E+06    -11.8672E+06     416.219E+03         24.7320
             298     9.83380E-03     54.6846E-03         5.28851         1.50076        -7.68800         1.49306        -7.68029         5.28851    -394.131E-03     34.1605E-03    -16.9179E-03    -17.2426E-03    -16.7418E-03     33.6597E-03    -16.9179E-03     10.0649E-03    -3.03267E+06    -5.59855E+06    -85.3710E+06    -3.21904E+06    -85.3623E+06    -5.42089E+06     656.144E+03         23.9197
             299     8.85020E-03     54.6741E-03         5.65185         2.59445        -9.17022         2.53160        -9.10736         5.65185     802.700E-03     34.1218E-03    -16.9826E-03    -17.1392E-03    -16.7726E-03     33.7552E-03    -16.9826E-03     8.61391E-03    -3.21634E+06    -3.72703E+06    -108.279E+06    -3.68990E+06    -108.268E+06    -3.26447E+06     935.225E+03         23.4840
             300     7.86657E-03     54.6667E-03         5.98963         3.60086        -10.5245         3.37005        -10.2937         5.98963         3.47978     34.2322E-03    -17.0349E-03    -17.1972E-03    -16.8928E-03     33.9278E-03    -17.0349E-03     7.88757E-03    -1.98166E+06    -3.97038E+06    -126.131E+06    -3.96935E+06    -126.122E+06    -1.99104E+06     950.788E+03         23.2172
             301     6.88326E-03     54.6581E-03         6.33797         4.06702        -11.3339         3.76886        -11.0358         6.33797         4.22367     34.3117E-03    -17.0841E-03    -17.2276E-03    -16.9781E-03     34.0622E-03    -17.0841E-03     7.12229E-03    -348.465E+03    -4.39049E+06    -143.800E+06    -4.39426E+06    -143.797E+06    -348.465E+03     327.434E+03         23.0321
             302     5.89985E-03     54.6519E-03         6.75141         4.17488        -11.8534         4.00781        -11.6864         6.75141         3.14415     34.3353E-03    -17.1284E-03    -17.2069E-03    -17.0226E-03     34.1520E-03    -17.1295E-03     6.12663E-03     516.314E+03    -5.31404E+06    -162.467E+06    -5.32419E+06    -162.457E+06     516.314E+03     744.838E+03         22.8936
             303     4.91637E-03     54.6456E-03         7.22193         5.02992        -13.1741         4.81691        -12.9611         7.22193         3.77462     34.4018E-03    -17.1583E-03    -17.2435E-03    -17.1036E-03     34.2630E-03    -17.1594E-03     5.32713E-03     692.996E+03    -6.37006E+06    -176.324E+06    -6.38540E+06    -176.309E+06     692.996E+03     1.55931E+06         22.7873
             304     3.93329E-03     54.6407E-03         7.66682         6.26010        -14.8605         6.04410        -14.6445         7.66682         4.01758     34.3913E-03    -17.1509E-03    -17.2404E-03    -17.1395E-03     34.2984E-03    -17.1589E-03     4.34686E-03    -1.12048E+06    -7.64711E+06    -182.626E+06    -7.66441E+06    -182.608E+06    -1.12048E+06     1.60577E+06         22.7066
             305     2.94995E-03     54.6367E-03         8.15283         7.39390        -16.4907         6.98955        -15.9812         8.04767         6.22982     34.2712E-03    -17.0869E-03    -17.1843E-03    -17.0606E-03     34.2142E-03    -17.1536E-03     3.39082E-03    -4.57266E+06    -8.20989E+06    -185.271E+06    -8.23032E+06    -185.251E+06    -4.57266E+06     1.76824E+06         22.6476
             306     1.96632E-03     54.6334E-03         8.49776         8.26750        -17.7646         7.78717        -17.1579         8.37137         7.53767     34.2664E-03    -17.0884E-03    -17.1780E-03    -17.0590E-03     34.2370E-03    -17.1780E-03     2.39464E-03    -8.01527E+06    -8.96663E+06    -187.191E+06    -8.97658E+06    -187.182E+06    -8.01527E+06     1.05186E+06         22.6078
             307     983.269E-06     54.6315E-03         9.48320         8.57605        -19.0956         7.57382        -18.0721         9.46197         9.60930     34.3971E-03    -17.1149E-03    -17.2822E-03    -17.2419E-03     34.3877E-03    -17.1458E-03     1.26599E-03    -10.4487E+06    -11.5433E+06    -189.050E+06    -11.5473E+06    -189.046E+06    -10.4487E+06    -112.554E+03         22.5850
             308     16.7229E-03     54.1895E-03         3.11714     348.669E-03        -3.96329     2.85633E-03        -3.61748         3.11714        -1.98318     201.011E-03    -17.2630E-03    -183.748E-03    -40.5270E-03     57.7900E-03    -17.2630E-03     371.978E-03     187.752E+06     111.847E+06    -9.15389E+06    -9.15125E+06     187.749E+06     111.847E+06    -592.392E+03         63.4716
             309     15.7381E-03     53.8227E-03         3.23336     464.987E-03        -4.28778    -376.151E-03        -3.44664         3.23336        -3.56126     122.749E-03    -16.8530E-03    -105.896E-03    -27.6367E-03     44.4897E-03    -16.8530E-03     215.435E-03     146.148E+06     25.2514E+06    -13.6483E+06    -13.6395E+06     146.140E+06     25.2514E+06    -522.549E+03         54.1068
             310     14.7534E-03     53.7324E-03         3.43656     85.7461E-03        -4.16549    -457.352E-03        -3.62239         3.43656        -2.38506     47.0524E-03    -16.5193E-03    -30.5331E-03    -16.6794E-03     33.1987E-03    -16.5193E-03     55.8648E-03     110.028E+06    -8.79624E+06    -43.6380E+06    -13.7504E+06     110.015E+06    -38.6707E+06    -270.317E+03         43.7035
             311     13.7689E-03     53.7058E-03         3.69946    -165.050E-03        -4.22408    -312.798E-03        -4.07633         3.69946        -1.40724     35.0377E-03    -16.4145E-03    -18.6232E-03    -16.1223E-03     32.5368E-03    -16.4145E-03     22.4696E-03     68.9491E+06    -10.1434E+06    -61.3476E+06    -10.1252E+06     68.9308E+06    -61.3476E+06     27.0452E+03         35.2001
             312     12.7845E-03     53.6858E-03         4.00624    -104.544E-03        -4.63260    -358.952E-03        -4.37820         4.00624        -2.04643     34.3615E-03    -16.5676E-03    -17.7939E-03    -16.4198E-03     32.9874E-03    -16.5676E-03     16.3702E-03     19.8696E+06    -7.03052E+06    -41.2775E+06    -6.41761E+06     19.2567E+06    -41.2775E+06    -139.939E+03         29.5790
             313     11.8009E-03     53.6716E-03         4.36754    -127.655E-03        -5.01451    -342.092E-03        -4.80007         4.36754        -1.95363     33.9848E-03    -16.7160E-03    -17.2688E-03    -16.6030E-03     33.3189E-03    -16.7160E-03     11.5121E-03    -3.81619E+06    -10.8975E+06    -39.3026E+06    -3.98338E+06    -26.2180E+06    -23.8148E+06     6.22570E+03         26.3937
             314     10.8174E-03     53.6620E-03         4.77368     190.099E-03        -5.77914     111.113E-03        -5.70015         4.77368    -921.523E-03     34.0457E-03    -16.8374E-03    -17.2083E-03    -16.6626E-03     33.5000E-03    -16.8374E-03     10.5096E-03    -2.72996E+06    -10.6923E+06    -59.5684E+06    -2.75675E+06    -59.5416E+06    -10.6923E+06     1.07431E+06         24.7551
             315     9.83371E-03     53.6498E-03         5.19774     926.861E-03        -6.97810     919.770E-03        -6.97100         5.19774    -383.602E-03     34.1568E-03    -16.9264E-03    -17.2304E-03    -16.7353E-03     33.6617E-03    -16.9264E-03     9.98572E-03    -1.76470E+06    -4.00172E+06    -84.9955E+06    -2.38674E+06     -84.969E+06    -3.40616E+06     1.33301E+06         23.9319
             316     8.85015E-03     53.6414E-03         5.61941         1.92475        -8.41925         1.85590        -8.35040         5.61941     835.537E-03     34.1345E-03    -16.9872E-03    -17.1472E-03    -16.7828E-03     33.7700E-03    -16.9872E-03     8.60617E-03    -1.82933E+06    -2.45086E+06    -107.878E+06    -2.43363E+06    -107.869E+06    -1.85530E+06     845.846E+03         23.4906
             317     7.86654E-03     53.6320E-03         6.03630         2.94471        -9.86445         2.70231        -9.62205         6.03630         3.40627     34.2303E-03    -17.0372E-03    -17.1931E-03    -16.8867E-03     33.9239E-03    -17.0372E-03     7.90667E-03    -991.806E+03    -2.29389E+06    -125.844E+06    -2.27248E+06    -125.839E+06    -1.01777E+06     730.466E+03         23.2211
             318     6.88324E-03     53.6247E-03         6.45582         3.79743        -11.1345         3.50143        -10.8385         6.45582         4.11244     34.3110E-03    -17.0932E-03    -17.2177E-03    -16.9731E-03     34.0663E-03    -17.0932E-03     7.06566E-03     1.52318E+06    -2.75183E+06    -143.738E+06    -2.76646E+06    -143.723E+06     1.52318E+06     1.14414E+06         23.0346
             319     5.89969E-03     53.6176E-03         6.88316         4.44373        -12.1936         4.29222        -12.0421         6.88316         3.00472     34.3774E-03    -17.1396E-03    -17.2379E-03    -17.0536E-03     34.1932E-03    -17.1396E-03     6.14140E-03     2.25317E+06    -4.94509E+06    -163.329E+06    -4.96210E+06    -163.312E+06     2.25317E+06     1.36962E+06         22.8953
             320     4.91662E-03     53.6119E-03         7.34473         5.10483        -13.3122         4.88958        -13.0969         7.34473         3.72287     34.3907E-03    -17.1587E-03    -17.2320E-03    -17.0913E-03     34.2529E-03    -17.1616E-03     5.31319E-03     1.45305E+06    -6.75558E+06    -175.873E+06    -6.76647E+06    -175.862E+06     1.45305E+06     1.32686E+06         22.7884
             321     3.93307E-03     53.6066E-03         7.83462         6.08874        -14.7935         5.87816        -14.5829         7.83462         3.77382     34.3751E-03    -17.1561E-03    -17.2191E-03    -17.1197E-03     34.2787E-03    -17.1590E-03     4.43095E-03    -1.31103E+06    -7.94845E+06    -182.071E+06    -7.95504E+06    -182.064E+06    -1.31103E+06     918.537E+03         22.7072
             322     2.94998E-03     53.6028E-03         8.57057         7.53587        -16.9948         7.34154        -16.4563         8.22636         6.33263     34.3638E-03    -17.1173E-03    -17.2465E-03    -17.1692E-03     34.3065E-03    -17.1373E-03     3.38998E-03    -4.57677E+06    -8.79013E+06    -185.547E+06    -8.79861E+06    -185.538E+06    -4.57677E+06     937.732E+03         22.6480
             323     1.96678E-03     53.5997E-03         8.90817         8.39777        -18.2159         8.30056        -17.6083         8.39777         7.46051     34.2315E-03    -17.0531E-03    -17.1784E-03    -17.0846E-03     34.2027E-03    -17.1180E-03     2.39581E-03    -7.53040E+06    -9.43027E+06    -186.796E+06    -9.30519E+06    -186.768E+06    -7.68373E+06     1.81492E+06         22.6082
             324     983.146E-06     53.5972E-03         9.63159         8.60968        -19.1698         7.37756        -17.7715         9.46540         10.5250     34.2317E-03    -17.0377E-03    -17.1940E-03    -17.1286E-03     34.2201E-03    -17.0915E-03     1.45544E-03    -10.2151E+06    -11.0951E+06    -188.453E+06    -10.9095E+06    -188.429E+06    -10.4252E+06     645.753E+03         22.5850
             325     16.7218E-03     53.1535E-03         2.82876     100.147E-03        -3.41205    -333.542E-03        -2.97836         2.82876        -1.90408     199.917E-03    -17.2323E-03    -182.685E-03    -40.1870E-03     57.4193E-03    -17.2323E-03     369.930E-03     188.823E+06     111.785E+06    -8.41934E+06    -8.41183E+06     188.816E+06     111.785E+06     164.759E+03         63.3655
             326     15.7380E-03     52.7888E-03         2.95006     280.593E-03        -3.76841    -772.041E-03        -2.71578         2.95006        -3.51808     123.108E-03    -16.8255E-03    -106.282E-03    -27.4252E-03     44.2507E-03    -16.8255E-03     216.262E-03     145.681E+06     23.1041E+06    -13.1201E+06    -13.1149E+06     145.676E+06     23.1041E+06    -622.042E+03         54.0954
             327     14.7535E-03     52.6987E-03         3.16229    -219.225E-03        -3.53818    -921.489E-03        -2.83592         3.16229        -2.47096     47.1340E-03    -16.5037E-03    -30.6303E-03    -16.7359E-03     33.2396E-03    -16.5037E-03     56.2293E-03     108.880E+06    -10.8846E+06    -42.9860E+06    -13.3591E+06     108.854E+06    -40.4851E+06    -917.150E+03         43.7606
             328     13.7688E-03     52.6729E-03         3.44365    -708.293E-03        -3.38527    -934.600E-03        -3.15897         3.44365        -1.42043     35.1393E-03    -16.4036E-03    -18.7357E-03    -16.1315E-03     32.5350E-03    -16.4036E-03     22.9187E-03     69.2993E+06    -9.96267E+06    -61.5283E+06    -9.93600E+06     69.2726E+06    -61.5283E+06    -529.164E+03         35.2781
             329     12.7851E-03     52.6513E-03         3.77114    -481.729E-03        -3.98589    -810.087E-03        -3.65753         3.77114        -2.01769     34.3026E-03    -16.5577E-03    -17.7449E-03    -16.3548E-03     32.9126E-03    -16.5577E-03     16.4539E-03     19.9393E+06    -7.29327E+06    -41.7776E+06    -6.52570E+06     19.1717E+06    -41.7776E+06     232.727E+03         29.6437
             330     11.8012E-03     52.6385E-03         4.13410    -195.338E-03        -4.67791    -432.976E-03        -4.44027         4.13410        -1.93243     33.8901E-03    -16.7133E-03    -17.1768E-03    -16.4922E-03     33.2055E-03    -16.7133E-03     11.6568E-03    -5.18916E+06    -12.2092E+06    -39.6560E+06    -5.36041E+06    -26.9655E+06    -24.7285E+06     362.941E+03         26.4353
             331     10.8173E-03     52.6275E-03         4.52616     93.6003E-03        -5.40107     19.8290E-03        -5.32730         4.52616    -746.181E-03     34.0812E-03    -16.8378E-03    -17.2434E-03    -16.6861E-03     33.5239E-03    -16.8378E-03     10.6288E-03    -3.83537E+06    -11.3990E+06    -59.9280E+06    -3.85330E+06    -59.9101E+06    -11.3990E+06     552.827E+03         24.7783
             332     9.83378E-03     52.6166E-03         4.95292     461.008E-03        -6.22748     452.061E-03        -6.21853         4.95292    -240.386E-03     34.1688E-03    -16.9268E-03    -17.2421E-03    -16.7484E-03     33.6751E-03    -16.9268E-03     9.97781E-03    -1.66988E+06    -3.59083E+06    -84.6686E+06    -2.10756E+06    -84.6488E+06    -3.17292E+06     796.342E+03         23.9441
             333     8.85016E-03     52.6069E-03         5.42061         1.09307        -7.34964         1.00367        -7.26023         5.42061     886.701E-03     34.1875E-03    -16.9869E-03    -17.2006E-03    -16.8356E-03     33.8225E-03    -16.9869E-03     8.61818E-03    -646.379E+03    -1.61205E+06    -106.956E+06    -1.57409E+06    -106.950E+06    -689.665E+03     723.614E+03         23.4971
             334     7.86686E-03     52.5987E-03         5.91700         2.14182        -8.90275         1.86845        -8.62939         5.91700         3.38165     34.2212E-03    -17.0350E-03    -17.1862E-03    -16.8802E-03     33.9151E-03    -17.0350E-03     7.90183E-03     48.3218E+03    -1.69460E+06    -125.801E+06    -1.68213E+06    -125.797E+06     31.7280E+03     687.727E+03         23.2248
             335     6.88307E-03     52.5905E-03         6.40060         3.44556        -10.6850         3.15269        -10.3921         6.40060         3.93164     34.2998E-03    -17.0946E-03    -17.2052E-03    -16.9619E-03     34.0565E-03    -17.0946E-03     7.03855E-03     2.76160E+06    -2.40113E+06    -144.832E+06    -2.42765E+06    -144.805E+06     2.76160E+06     1.70939E+06         23.0368
             336     5.89995E-03     52.5839E-03         6.82620         4.62177        -12.2742         4.49000        -12.1425         6.82620         2.81842     34.3822E-03    -17.1411E-03    -17.2411E-03    -17.0611E-03     34.2022E-03    -17.1411E-03     6.07156E-03     4.40907E+06    -3.37925E+06    -162.845E+06    -3.41263E+06    -162.811E+06     4.40907E+06     2.21159E+06         22.8966
             337     4.91642E-03     52.5777E-03         7.20269         5.59611        -13.6085         5.37326        -13.3857         7.20269         3.81553     34.3599E-03    -17.1546E-03    -17.2054E-03    -17.0679E-03     34.2253E-03    -17.1575E-03     5.24560E-03     2.31569E+06    -5.04576E+06    -175.180E+06    -5.05615E+06    -175.170E+06     2.31569E+06     1.22339E+06         22.7891
             338     3.93322E-03     52.5730E-03         7.57249         6.27020        -14.6533         6.06484        -14.4480         7.57249         3.49076     34.3478E-03    -17.1504E-03    -17.1974E-03    -17.0882E-03     34.2518E-03    -17.1636E-03     4.42392E-03    -555.240E+03    -6.77898E+06    -182.157E+06    -6.78307E+06    -182.153E+06    -555.240E+03     740.054E+03         22.7074
             339     2.94977E-03     52.5684E-03         8.19896         7.28611        -16.3043         6.96494        -15.7020         7.91780         6.13464     34.3829E-03    -17.1404E-03    -17.2424E-03    -17.1724E-03     34.3231E-03    -17.1507E-03     3.46642E-03    -3.55983E+06    -8.61796E+06    -185.779E+06    -8.62176E+06    -185.775E+06    -3.55983E+06     694.588E+03         22.6479
             340     1.96679E-03     52.5660E-03         8.57220         8.07093        -17.4821         7.86221        -16.8473         8.14607         6.87838     34.3288E-03    -17.0726E-03    -17.2562E-03    -17.2020E-03     34.2993E-03    -17.0973E-03     2.41032E-03    -6.22973E+06    -10.0894E+06    -187.108E+06    -9.96044E+06    -187.084E+06    -6.38306E+06     930.104E+03         22.6077
             341     983.463E-06     52.5638E-03         9.54140         8.60156        -18.9892         7.03671        -17.2794         9.39645         10.8317     34.1067E-03    -16.9885E-03    -17.1182E-03    -17.0617E-03     34.0946E-03    -17.0329E-03     1.52628E-03    -7.37763E+06    -10.3027E+06    -186.806E+06    -8.78531E+06    -186.757E+06    -8.94481E+06     1.53133E+06         22.5845
             342     16.7281E-03     52.1295E-03         2.54802     75.5303E-03        -3.08412    -376.629E-03        -2.63197         2.54802        -1.79079     199.571E-03    -17.2096E-03    -182.362E-03    -40.1673E-03     57.3770E-03    -17.2096E-03     369.260E-03     189.309E+06     110.991E+06    -7.44104E+06    -7.43072E+06     189.299E+06     110.991E+06     822.963E+03         63.2812
             343     15.7366E-03     51.7522E-03         2.65746     276.776E-03        -3.45478    -816.708E-03        -2.36129         2.65746        -3.37885     123.819E-03    -16.8164E-03    -107.003E-03    -27.1843E-03     44.0007E-03    -16.8164E-03     217.970E-03     145.769E+06     21.3569E+06    -12.7836E+06    -12.7741E+06     145.759E+06     21.3569E+06    -132.240E+03         54.0948
             344     14.7530E-03     51.6663E-03         2.85887    -466.836E-03        -2.98418        -1.16775        -2.28327         2.85887        -2.15559     47.0666E-03    -16.5252E-03    -30.5414E-03    -16.6490E-03     33.1742E-03    -16.5252E-03     56.2096E-03     108.429E+06    -11.5656E+06    -43.0771E+06    -13.6810E+06     108.403E+06    -40.9359E+06    -1.25738E+06         43.8196
             345     13.7689E-03     51.6380E-03         3.14043        -1.13979        -2.64528        -1.33800        -2.44707         3.14043    -997.562E-03     35.4686E-03    -16.4253E-03    -19.0434E-03    -16.3319E-03     32.7572E-03    -16.4253E-03     23.4613E-03     68.1614E+06    -11.5628E+06    -61.8949E+06    -11.5389E+06     68.1375E+06    -61.8949E+06    -532.871E+03         35.3553
             346     12.7850E-03     51.6184E-03         3.46642    -728.548E-03        -3.42671        -1.02119        -3.13407         3.46642        -1.64887     34.3246E-03    -16.5733E-03    -17.7513E-03    -16.3159E-03     32.8893E-03    -16.5733E-03     16.8168E-03     19.4364E+06    -8.45865E+06    -42.1113E+06    -7.64010E+06     18.6178E+06    -42.1113E+06     826.589E+03         29.7079
             347     11.8007E-03     51.6045E-03         3.81292    -265.775E-03        -4.27509    -479.522E-03        -4.06134         3.81292        -1.74451     34.0056E-03    -16.7281E-03    -17.2775E-03    -16.5227E-03     33.2508E-03    -16.7281E-03     12.2216E-03    -4.76691E+06    -12.1129E+06    -39.6643E+06    -5.21048E+06    -26.5300E+06    -24.8036E+06     708.817E+03         26.4768
             348     10.8173E-03     51.5938E-03         4.18176    -12.6193E-03        -4.93155    -88.6624E-03        -4.85550         4.18176    -772.871E-03     34.1578E-03    -16.8459E-03    -17.3120E-03    -16.7402E-03     33.5861E-03    -16.8459E-03     10.7836E-03    -4.07138E+06    -12.3926E+06    -59.4936E+06    -4.07374E+06    -59.4913E+06    -12.3926E+06     50.5921E+03         24.8014
             349     9.83371E-03     51.5827E-03         4.59331     176.848E-03        -5.56085     165.554E-03        -5.54955         4.59331    -308.526E-03     34.2459E-03    -16.9256E-03    -17.3202E-03    -16.8096E-03     33.7352E-03    -16.9256E-03     10.1731E-03    -3.35475E+06    -5.83052E+06    -85.0374E+06    -3.57364E+06    -85.0354E+06    -5.61364E+06     90.8992E+03         23.9561
             350     8.85027E-03     51.5731E-03         5.06435     634.628E-03        -6.50837     501.972E-03        -6.37572         5.06435         1.03969     34.2452E-03    -16.9866E-03    -17.2586E-03    -16.8795E-03     33.8660E-03    -16.9866E-03     8.78821E-03    -1.79201E+06    -3.19312E+06    -106.750E+06    -3.17425E+06    -106.743E+06    -1.81871E+06     814.861E+03         23.5033
             351     7.86663E-03     51.5648E-03         5.57819         1.67213        -8.06753         1.35357        -7.74897         5.57819         3.45133     34.2878E-03    -17.0304E-03    -17.2574E-03    -16.9490E-03     33.9793E-03    -17.0304E-03     7.94296E-03    -599.825E+03    -3.77366E+06    -125.715E+06    -3.78576E+06    -125.703E+06    -599.825E+03     1.12969E+06         23.2282
             352     6.88345E-03     51.5568E-03         6.07516         3.07903        -9.96674         2.76460        -9.65232         6.07516         3.92028     34.2942E-03    -17.0736E-03    -17.2206E-03    -16.9737E-03     34.0479E-03    -17.0742E-03     7.08553E-03     337.082E+03    -4.25424E+06    -145.527E+06    -4.27351E+06    -145.508E+06     337.082E+03     1.14965E+06         23.0386
             353     5.89988E-03     51.5497E-03         6.49119         4.45314        -11.7430         4.29729        -11.5872         6.49119         2.98121     34.3037E-03    -17.1223E-03    -17.1814E-03    -16.9973E-03     34.1203E-03    -17.1229E-03     6.11854E-03     2.62246E+06    -3.86172E+06    -162.530E+06    -3.88709E+06    -162.505E+06     2.62246E+06     1.59424E+06         22.8974
             354     4.91662E-03     51.5442E-03         6.79095         5.85111        -13.4231         5.59114        -13.1631         6.79095         4.14659     34.3695E-03    -17.1512E-03    -17.2182E-03    -17.0826E-03     34.2338E-03    -17.1512E-03     5.26447E-03     2.78785E+06    -4.55894E+06    -174.269E+06    -4.57657E+06    -174.251E+06     2.78785E+06     1.62411E+06         22.7893
             355     3.93319E-03     51.5387E-03         7.00968         6.42519        -14.1993         6.19619        -13.9703         7.00968         3.49413     34.3436E-03    -17.1459E-03    -17.1977E-03    -17.0942E-03     34.2504E-03    -17.1562E-03     4.35245E-03     269.619E+03    -6.04331E+06    -182.028E+06    -6.05160E+06    -182.019E+06     269.619E+03     939.610E+03         22.7071
             356     2.94992E-03     51.5350E-03         7.33398         6.80836        -14.8999         6.19242        -14.2418         7.29186         5.80937     34.2894E-03    -17.1158E-03    -17.1737E-03    -17.0707E-03     34.2304E-03    -17.1597E-03     3.45754E-03    -2.79316E+06    -7.41039E+06    -185.845E+06    -7.41515E+06    -185.840E+06    -2.79316E+06     763.865E+03         22.6471
             357     1.96638E-03     51.5314E-03         7.76154         7.35381        -15.9117         6.73358        -15.2494         7.71943         5.86238     34.3581E-03    -17.1078E-03    -17.2503E-03    -17.1855E-03     34.3269E-03    -17.1414E-03     2.46361E-03    -5.37202E+06    -8.98718E+06    -186.814E+06    -8.99274E+06    -186.809E+06    -5.37202E+06     230.828E+03         22.6067
             358     983.666E-06     51.5302E-03         9.36856         8.64381        -18.8335         6.56038        -16.7500         9.36856         11.1507     34.2154E-03    -16.9878E-03    -17.2275E-03    -17.2058E-03     34.2045E-03    -16.9987E-03     1.37650E-03    -6.62136E+06    -11.8424E+06    -187.194E+06    -10.5168E+06    -187.163E+06    -7.97840E+06     559.506E+03         22.5837
             359     16.7189E-03     51.0904E-03         2.27609     206.882E-03        -2.93855    -139.637E-03        -2.59203         2.27609        -1.55331     199.928E-03    -17.2892E-03    -182.639E-03    -40.2280E-03     57.5172E-03    -17.2892E-03     369.832E-03     189.071E+06     111.492E+06    -8.11145E+06    -8.10669E+06     189.066E+06     111.492E+06     38.9124E+03         63.2040
             360     15.7395E-03     50.7218E-03         2.35360     295.335E-03        -3.21543    -572.870E-03        -2.34722         2.35360        -2.97521     123.893E-03    -16.8655E-03    -107.028E-03    -28.0537E-03     44.9192E-03    -16.8655E-03     217.836E-03     146.493E+06     22.0776E+06    -12.3328E+06    -12.1108E+06     146.483E+06     21.8658E+06    -22.1865E+03         54.0936
             361     14.7516E-03     50.6314E-03         2.52099    -506.663E-03        -2.65063        -1.04857        -2.10872         2.52099        -1.52793     47.3993E-03    -16.5493E-03    -30.8500E-03    -16.4091E-03     32.9584E-03    -16.5493E-03     57.1490E-03     108.430E+06    -10.9231E+06    -43.8919E+06    -12.8413E+06     108.421E+06    -41.9639E+06    -87.4837E+03         43.8799
             362     13.7683E-03     50.6041E-03         2.76877        -1.12359        -2.32429        -1.23572        -2.21216         2.76877    -454.475E-03     35.5082E-03    -16.4673E-03    -19.0408E-03    -16.3793E-03     32.8466E-03    -16.4673E-03     23.2459E-03     67.3913E+06    -11.0319E+06    -61.8583E+06    -11.0262E+06     67.3855E+06    -61.8583E+06     204.808E+03         35.4303
             363     12.7839E-03     50.5851E-03         3.06503    -886.048E-03        -2.89160        -1.12989        -2.64776         3.06503        -1.27810     34.4985E-03    -16.6140E-03    -17.8845E-03    -16.4518E-03     33.0658E-03    -16.6140E-03     16.9050E-03     18.7591E+06    -8.45547E+06    -41.6563E+06    -8.18906E+06     18.4926E+06    -41.6563E+06     75.8914E+03         29.7705
             364     11.8006E-03     50.5702E-03         3.39877    -625.468E-03        -3.51627    -890.819E-03        -3.25092         3.39877        -1.59074     34.2161E-03    -16.7553E-03    -17.4608E-03    -16.6893E-03     33.4446E-03    -16.7553E-03     12.3648E-03    -4.05313E+06    -11.3327E+06    -39.8375E+06    -4.63263E+06    -26.0545E+06    -24.5363E+06     104.838E+03         26.5177
             365     10.8169E-03     50.5601E-03         3.76295    -309.348E-03        -4.22202    -428.973E-03        -4.10240         3.76295    -908.698E-03     34.2398E-03    -16.8719E-03    -17.3679E-03    -16.8057E-03     33.6777E-03    -16.8719E-03     10.7055E-03    -3.02467E+06    -10.8749E+06    -59.5686E+06    -3.03144E+06    -59.5619E+06    -10.8749E+06     335.795E+03         24.8241
             366     9.83340E-03     50.5485E-03         4.14974     137.891E-03        -5.07911     129.642E-03        -5.07087         4.14974    -375.710E-03     34.3131E-03    -16.9474E-03    -17.3657E-03    -16.8593E-03     33.8068E-03    -16.9474E-03     10.1330E-03    -3.09396E+06    -4.85802E+06    -85.3152E+06    -3.45211E+06    -85.3075E+06    -4.50762E+06     557.745E+03         23.9675
             367     8.84998E-03     50.5395E-03         4.56357     791.339E-03        -6.15920     645.824E-03        -6.01368         4.56357         1.16177     34.3208E-03    -16.9950E-03    -17.3259E-03    -16.9485E-03     33.9434E-03    -16.9950E-03     8.78689E-03    -2.60370E+06    -4.03459E+06    -107.176E+06    -4.04527E+06    -107.165E+06    -2.60370E+06     961.227E+03         23.5089
             368     7.86676E-03     50.5306E-03         5.00406         1.69321        -7.50902         1.35638        -7.17219         5.00406         3.45233     34.3630E-03    -17.0309E-03    -17.3321E-03    -17.0216E-03     34.0526E-03    -17.0309E-03     7.97689E-03    -1.06090E+06    -4.27744E+06    -125.468E+06    -4.29597E+06    -125.449E+06    -1.06090E+06     1.49795E+06         23.2309
             369     6.88342E-03     50.5229E-03         5.44208         2.77768        -9.02661         2.42527        -8.67421         5.44208         3.97703     34.3102E-03    -17.0675E-03    -17.2427E-03    -16.9991E-03     34.0671E-03    -17.0681E-03     7.04353E-03    -60.4036E+03    -4.88222E+06    -145.095E+06    -4.90240E+06    -145.075E+06    -60.4036E+03     1.30652E+06         23.0399
             370     5.89990E-03     50.5162E-03         5.82476         3.93717        -10.5544         3.75480        -10.3721         5.82476         2.91362     34.2773E-03    -17.1053E-03    -17.1720E-03    -16.9849E-03     34.0908E-03    -17.1059E-03     6.17237E-03    -9.57969E+03    -6.15377E+06    -162.651E+06    -6.17044E+06    -162.634E+06    -9.57969E+03     1.04477E+06         22.8978
             371     4.91648E-03     50.5099E-03         6.10682         5.25229        -12.1337         4.96353        -11.8449         6.10682         4.02303     34.3317E-03    -17.1360E-03    -17.1957E-03    -17.0568E-03     34.1928E-03    -17.1360E-03     5.31918E-03     657.871E+03    -6.50489E+06    -173.560E+06    -6.51700E+06    -173.547E+06     657.871E+03     846.240E+03         22.7891
             372     3.93334E-03     50.5052E-03         6.30337         5.87872        -12.9341         5.61465        -12.6700         6.30337         3.47297     34.3479E-03    -17.1437E-03    -17.2042E-03    -17.1106E-03     34.2543E-03    -17.1437E-03     4.36574E-03    -581.122E+03    -6.59460E+06    -181.497E+06    -6.60120E+06    -181.490E+06    -581.122E+03     456.123E+03         22.7064
             373     2.94992E-03     50.5009E-03         6.83149         6.15167        -13.7275         5.72355        -12.9869         6.51893         5.83633     34.2811E-03    -17.1097E-03    -17.1714E-03    -17.0798E-03     34.2232E-03    -17.1434E-03     3.41272E-03    -3.06772E+06    -7.02527E+06    -186.208E+06    -7.02728E+06    -186.206E+06    -3.06772E+06     289.137E+03         22.6462
             374     1.96659E-03     50.4980E-03         7.15156         6.51272        -14.4318         6.07775        -13.6843         6.83901         5.03088     34.2314E-03    -17.0537E-03    -17.1777E-03    -17.0351E-03     34.2011E-03    -17.1660E-03     2.44463E-03    -5.64824E+06    -7.98352E+06    -187.195E+06    -7.81489E+06    -187.192E+06    -5.81978E+06     499.063E+03         22.6060
             375     982.879E-06     50.4955E-03         8.77475         8.15455        -17.7305         5.46635        -14.8545         8.58696         11.5952     34.3683E-03    -17.0637E-03    -17.3046E-03    -17.1971E-03     34.3582E-03    -17.1611E-03     1.23610E-03    -6.46757E+06    -10.5686E+06    -186.910E+06    -8.99346E+06    -186.890E+06    -8.06244E+06    -800.399E+03         22.5832
             376     16.7208E-03     50.0487E-03         2.00416     372.328E-03        -2.92916     132.579E-03        -2.68941         2.00416        -1.37281     200.896E-03    -17.3791E-03    -183.517E-03    -39.8250E-03     57.2042E-03    -17.3791E-03     371.907E-03     188.151E+06     112.677E+06    -8.40978E+06    -8.40672E+06     188.148E+06     112.677E+06    -689.048E+03         63.1243
             377     15.7352E-03     49.6893E-03         2.04219     414.431E-03        -3.12999    -167.815E-03        -2.54774         2.04219        -2.57489     122.908E-03    -16.9525E-03    -105.956E-03    -28.4254E-03     45.3779E-03    -16.9525E-03     215.275E-03     145.824E+06     23.0371E+06    -12.8867E+06    -12.6701E+06     145.819E+06     22.8254E+06    -23.5726E+03         54.0808
             378     14.7524E-03     49.5973E-03         2.15770    -176.854E-03        -2.70573    -535.556E-03        -2.34703         2.15770        -1.18174     47.9554E-03    -16.5914E-03    -31.3640E-03    -16.8790E-03     33.4705E-03    -16.5914E-03     57.7550E-03     108.869E+06    -9.83584E+06    -43.7944E+06    -11.9024E+06     108.856E+06    -41.7149E+06     1.12413E+06         43.9308
             379     13.7673E-03     49.5705E-03         2.34718    -785.476E-03        -2.31529    -861.543E-03        -2.23922         2.34718    -234.572E-03     35.4419E-03    -16.4901E-03    -18.9518E-03    -16.3871E-03     32.8772E-03    -16.4901E-03     22.7971E-03     67.5820E+06    -9.35531E+06    -62.9297E+06    -9.34108E+06     67.5678E+06    -62.9297E+06     412.471E+03         35.5027
             380     12.7840E-03     49.5507E-03         2.59751    -907.158E-03        -2.46421        -1.15923        -2.21214         2.59751        -1.10854     34.6679E-03    -16.6323E-03    -18.0356E-03    -16.6604E-03     33.2928E-03    -16.6323E-03     16.6124E-03     18.9265E+06    -7.23418E+06    -42.5915E+06    -6.87583E+06     18.5682E+06    -42.5915E+06    -304.484E+03         29.8319
             381     11.8001E-03     49.5365E-03         2.90286    -809.339E-03        -2.88249        -1.12918        -2.56265         2.90286        -1.45996     34.3208E-03    -16.7666E-03    -17.5543E-03    -16.8210E-03     33.5876E-03    -16.7666E-03     12.0883E-03    -4.81640E+06    -11.6819E+06    -40.1159E+06    -5.18493E+06    -26.2971E+06    -25.1322E+06     18.0394E+03         26.5582
             382     10.8169E-03     49.5257E-03         3.24151    -509.594E-03        -3.53873    -649.974E-03        -3.39835         3.24151    -618.947E-03     34.2714E-03    -16.8785E-03    -17.3929E-03    -16.8677E-03     33.7462E-03    -16.8785E-03     10.3609E-03    -3.86293E+06    -10.9505E+06    -59.9633E+06    -3.86951E+06    -59.9568E+06    -10.9505E+06     357.520E+03         24.8463
             383     9.83350E-03     49.5149E-03         3.58720     98.4722E-03        -4.50601     86.9556E-03        -4.49449         3.58720    -21.5785E-03     34.3242E-03    -16.9526E-03    -17.3717E-03    -16.8962E-03     33.8487E-03    -16.9526E-03     9.83921E-03    -2.42090E+06    -3.95662E+06    -85.0242E+06    -3.03227E+06    -85.0041E+06    -3.36539E+06     1.07533E+06         23.9783
             384     8.85001E-03     49.5051E-03         3.92274         1.05245        -5.80845     920.475E-03        -5.67647         3.92274         1.26867     34.3271E-03    -16.9951E-03    -17.3320E-03    -16.9711E-03     33.9662E-03    -16.9951E-03     8.58969E-03    -1.75801E+06    -3.16231E+06    -107.222E+06    -3.18079E+06    -107.203E+06    -1.75801E+06     1.03451E+06         23.5137
             385     7.86670E-03     49.4967E-03         4.24834         1.93393        -7.01712         1.60636        -6.68955         4.24834         3.35478     34.3194E-03    -17.0356E-03    -17.2838E-03    -16.9878E-03     34.0234E-03    -17.0356E-03     7.78600E-03     474.102E+03    -2.99774E+06    -125.878E+06    -3.01646E+06    -125.859E+06     474.102E+03     1.25609E+06         23.2329
             386     6.88324E-03     49.4889E-03         4.58300         2.45812        -7.86952         2.11873        -7.53013         4.58300         3.65606     34.3369E-03    -17.0806E-03    -17.2563E-03    -17.0204E-03     34.1010E-03    -17.0806E-03     6.94013E-03     2.99588E+06    -3.55501E+06    -144.992E+06    -3.58643E+06    -144.960E+06     2.99588E+06     2.08528E+06         23.0405
             387     5.90012E-03     49.4823E-03         4.92804         2.97428        -8.71754         2.82466        -8.56792         4.92804         2.13943     34.3321E-03    -17.1037E-03    -17.2284E-03    -17.0469E-03     34.1506E-03    -17.1037E-03     6.09918E-03     1.97373E+06    -4.74574E+06    -161.420E+06    -4.76365E+06    -161.402E+06     1.97373E+06     1.34566E+06         22.8978
             388     4.91666E-03     49.4762E-03         5.24802         4.03090        -10.0733         3.74593        -9.78832         5.24802         3.30117     34.2695E-03    -17.1079E-03    -17.1616E-03    -17.0107E-03     34.1305E-03    -17.1197E-03     5.32054E-03    -22.8036E+03    -5.56318E+06    -172.855E+06    -5.56531E+06    -172.852E+06    -22.8036E+03    -108.667E+03         22.7886
             389     3.93312E-03     49.4711E-03         5.48765         5.01454        -11.2864         4.73650        -11.0084         5.48765         3.05300     34.3129E-03    -17.1277E-03    -17.1851E-03    -17.0780E-03     34.2175E-03    -17.1395E-03     4.40153E-03    -1.02060E+06    -6.26782E+06    -181.842E+06    -6.27288E+06    -181.837E+06    -1.02060E+06    -545.955E+03         22.7057
             390     2.95002E-03     49.4671E-03         6.55721         5.43427        -12.7630         5.51098        -11.8737         5.59123         6.06201     34.3281E-03    -17.1331E-03    -17.1950E-03    -17.1367E-03     34.2698E-03    -17.1331E-03     3.42280E-03    -3.61481E+06    -7.31262E+06    -186.733E+06    -7.31945E+06    -186.727E+06    -3.61481E+06     51.6350E+03         22.6453
             391     1.96669E-03     49.4641E-03         6.70062         5.52004        -12.9963         5.73732        -12.0688         5.55584         4.75560     34.2178E-03    -17.0479E-03    -17.1698E-03    -17.0620E-03     34.1886E-03    -17.1266E-03     2.39324E-03    -6.49615E+06    -7.88941E+06    -187.153E+06    -7.66490E+06    -187.148E+06    -6.72580E+06     299.074E+03         22.6051
             392     983.267E-06     49.4621E-03         8.05005         6.95958        -15.7777         4.01959        -11.7831         6.99539         11.8924     34.2713E-03    -17.0636E-03    -17.2077E-03    -17.0715E-03     34.2608E-03    -17.1893E-03     1.34889E-03    -7.53000E+06    -9.28223E+06    -187.021E+06    -7.67607E+06    -186.974E+06    -9.18297E+06     298.416E+03         22.5821
             393     16.7180E-03     49.0137E-03         1.73031     511.575E-03        -2.97933     314.530E-03        -2.78228         1.73031        -1.31395     202.474E-03    -17.3914E-03    -185.083E-03    -39.8377E-03     57.2290E-03    -17.3914E-03     375.164E-03     186.989E+06     111.978E+06    -8.70611E+06    -8.70097E+06     186.984E+06     111.978E+06    -888.354E+03         63.0297
             394     15.7354E-03     48.6530E-03         1.73321     675.683E-03        -3.23027     215.470E-03        -2.77006         1.73321        -2.50722     121.802E-03    -16.9965E-03    -104.805E-03    -28.0808E-03     45.0773E-03    -16.9965E-03     212.866E-03     145.438E+06     24.6078E+06    -13.3225E+06    -13.3161E+06     145.431E+06     24.6078E+06    -425.787E+03         54.0567
             395     14.7509E-03     48.5635E-03         1.79678     317.794E-03        -2.97332     48.2928E-03        -2.70382         1.79678        -1.30028     47.7016E-03    -16.6282E-03    -31.0734E-03    -17.2394E-03     33.8676E-03    -16.6282E-03     56.4744E-03     108.870E+06    -8.30133E+06    -44.6955E+06    -13.2829E+06     108.861E+06    -39.7046E+06     521.039E+03         43.9722
             396     13.7678E-03     48.5363E-03         1.92091    -285.574E-03        -2.50504    -322.397E-03        -2.46821         1.92091    -237.272E-03     35.5004E-03    -16.5007E-03    -18.9998E-03    -16.5007E-03     33.0014E-03    -16.5007E-03     22.5817E-03     67.3718E+06    -9.68904E+06    -62.4749E+06    -9.65908E+06     67.3419E+06    -62.4749E+06     645.289E+03         35.5713
             397     12.7836E-03     48.5166E-03         2.09908    -520.777E-03        -2.45007    -677.904E-03        -2.29294         2.09908    -868.576E-03     34.7556E-03    -16.6338E-03    -18.1218E-03    -16.7771E-03     33.4109E-03    -16.6338E-03     16.3906E-03     19.5280E+06    -7.21485E+06    -41.8510E+06    -6.92552E+06     19.2387E+06    -41.8510E+06     525.547E+03         29.8921
             398     11.8006E-03     48.5022E-03         2.32515    -540.258E-03        -2.66045    -724.079E-03        -2.47663         2.32515        -1.03235     34.3233E-03    -16.7565E-03    -17.5668E-03    -16.8847E-03     33.6412E-03    -16.7565E-03     11.6911E-03    -4.59909E+06    -11.9927E+06    -40.2456E+06    -5.58580E+06    -26.0054E+06    -25.2462E+06     570.189E+03         26.5979
             399     10.8171E-03     48.4918E-03         2.58656    -436.114E-03        -3.02887    -531.724E-03        -2.93326         2.58656    -40.2151E-03     34.2390E-03    -16.8645E-03    -17.3745E-03    -16.8678E-03     33.7323E-03    -16.8645E-03     10.1753E-03    -4.54226E+06    -11.6863E+06    -60.4050E+06    -4.87371E+06    -60.3915E+06    -11.3683E+06     667.571E+03         24.8679
             400     9.83362E-03     48.4808E-03         2.86517     7.66002E-03        -3.76115    -26.7389E-03        -3.72675         2.86517     357.367E-03     34.3279E-03    -16.9333E-03    -17.3946E-03    -16.9310E-03     33.8643E-03    -16.9333E-03     9.72277E-03    -3.25643E+06    -5.42664E+06    -84.4929E+06    -4.76681E+06    -84.4753E+06    -3.93385E+06     814.266E+03         23.9883
             401     8.85037E-03     48.4712E-03         3.13337     927.721E-03        -4.95603     769.181E-03        -4.79749         3.13337         1.38910     34.2636E-03    -16.9736E-03    -17.2900E-03    -16.9403E-03     33.9138E-03    -16.9736E-03     8.44461E-03    -1.95862E+06    -4.38379E+06    -106.487E+06    -4.39987E+06    -106.471E+06    -1.95862E+06     768.723E+03         23.5178
             402     7.86686E-03     48.4628E-03         3.38129         1.75326        -6.03013         1.39936        -5.67623         3.38129         3.21951     34.2239E-03    -17.0160E-03    -17.2079E-03    -16.9274E-03     33.9434E-03    -17.0160E-03     7.56906E-03    -324.424E+03    -4.27867E+06    -126.881E+06    -4.29358E+06    -126.866E+06    -324.424E+03     1.06133E+06         23.2343
             403     6.88346E-03     48.4551E-03         3.63524         2.02457        -6.54568         1.71755        -6.23866         3.63524         3.14160     34.2503E-03    -17.0625E-03    -17.1878E-03    -16.9553E-03     34.0197E-03    -17.0644E-03     6.86021E-03     2.29980E+06    -3.85424E+06    -144.898E+06    -3.87335E+06    -144.878E+06     2.29980E+06     1.49037E+06         23.0406
             404     5.89998E-03     48.4482E-03         3.92600         2.11418        -6.90609         2.00212        -6.79403         3.92600         1.49957     34.3017E-03    -17.0935E-03    -17.2082E-03    -17.0258E-03     34.1211E-03    -17.0953E-03     6.07561E-03     2.68708E+06    -3.66146E+06    -159.766E+06    -3.67020E+06    -159.757E+06     2.68708E+06     790.014E+03         22.8973
             405     4.91673E-03     48.4426E-03         4.24065         2.94920        -8.04104         2.63626        -7.72810         4.24065         2.85019     34.2908E-03    -17.0966E-03    -17.1943E-03    -17.0447E-03     34.1531E-03    -17.1084E-03     5.30409E-03     439.688E+03    -4.27364E+06    -172.103E+06    -4.27558E+06    -172.101E+06     439.688E+03     45.6004E+03         22.7879
             406     3.93333E-03     48.4372E-03         4.48491         4.08574        -9.40945         3.77041        -9.09413         4.48491         2.52119     34.2531E-03    -17.0936E-03    -17.1595E-03    -17.0326E-03     34.1568E-03    -17.1242E-03     4.41606E-03    -2.15010E+06    -5.71104E+06    -182.469E+06    -5.71647E+06    -182.463E+06    -2.15010E+06    -192.362E+03         22.7049
             407     2.94983E-03     48.4332E-03         5.88589         4.47061        -11.1874         4.77116        -10.1314         4.52941         5.86207     34.2947E-03    -17.1125E-03    -17.1822E-03    -17.1050E-03     34.2363E-03    -17.1313E-03     3.42775E-03    -4.40317E+06    -7.44182E+06    -187.188E+06    -7.45123E+06    -187.178E+06    -4.40317E+06    -82.1352E+03         22.6442
             408     1.96665E-03     48.4302E-03         6.05331         4.33789        -11.2145         4.92954        -10.0908         4.33789         4.63700     34.3003E-03    -17.0982E-03    -17.2021E-03    -17.1727E-03     34.2709E-03    -17.0982E-03     2.39569E-03    -6.84561E+06    -9.06030E+06    -187.232E+06    -9.01480E+06    -187.219E+06    -6.90372E+06     399.683E+03         22.6036
             409     983.491E-06     48.4283E-03         7.71207         5.70550        -14.2155         2.66966        -9.17304         5.70550         12.3210     34.1355E-03    -17.0072E-03    -17.1283E-03    -17.0879E-03     34.1233E-03    -17.0354E-03     1.54756E-03    -8.56977E+06    -9.90395E+06    -187.448E+06    -9.57248E+06    -187.409E+06    -8.94075E+06     1.86066E+06         22.5802
             410     16.7213E-03     47.9790E-03         1.45549     661.187E-03        -3.05045     490.991E-03        -2.88026         1.45549        -1.21441     202.478E-03    -17.3089E-03    -185.169E-03    -40.0508E-03     57.3597E-03    -17.3089E-03     375.185E-03     187.013E+06     112.609E+06    -8.51314E+06    -8.50584E+06     187.006E+06     112.609E+06     45.2447E+03         62.9180
             411     15.7358E-03     47.6189E-03         1.42685     863.672E-03        -3.30183     454.749E-03        -2.89291         1.42685        -2.46651     121.366E-03    -16.9252E-03    -104.441E-03    -27.2685E-03     44.1937E-03    -16.9252E-03     212.369E-03     144.372E+06     23.4731E+06    -13.4853E+06    -13.4795E+06     144.366E+06     23.4731E+06    -604.315E+03         54.0303
             412     14.7521E-03     47.5286E-03         1.44841     677.494E-03        -3.15811     435.498E-03        -2.91612         1.44841        -1.30212     46.8539E-03    -16.5908E-03    -30.2631E-03    -17.0513E-03     33.6421E-03    -16.5908E-03     54.6206E-03     108.538E+06    -10.1871E+06    -43.4610E+06    -13.8823E+06     108.535E+06    -39.7621E+06    -561.376E+03         44.0128
             413     13.7675E-03     47.5028E-03         1.50612     451.957E-03        -2.98115     441.988E-03        -2.97118         1.50612    -182.880E-03     35.1990E-03    -16.4775E-03    -18.7215E-03    -16.3457E-03     32.8232E-03    -16.4775E-03     21.9781E-03     67.6915E+06    -11.2725E+06    -61.2432E+06    -11.2520E+06     67.6710E+06    -61.2432E+06     360.097E+03         35.6383
             414     12.7843E-03     47.4818E-03         1.58066     436.059E-03        -3.02874     399.509E-03        -2.99219         1.58066    -610.721E-03     34.6487E-03    -16.6105E-03    -18.0382E-03    -16.7211E-03     33.3316E-03    -16.6105E-03     16.1399E-03     20.1497E+06    -7.71429E+06    -41.1102E+06    -7.41822E+06     19.8536E+06    -41.1102E+06     910.509E+03         29.9509
             415     11.8008E-03     47.4682E-03         1.68434     130.984E-03        -2.81458     92.1599E-03        -2.77576         1.68434    -594.994E-03     34.1935E-03    -16.7350E-03    -17.4585E-03    -16.8155E-03     33.5505E-03    -16.7350E-03     11.3546E-03    -4.07805E+06    -11.5496E+06    -40.2059E+06    -5.34735E+06    -25.9363E+06    -24.5499E+06     906.462E+03         26.6363
             416     10.8172E-03     47.4578E-03         1.83447    -129.174E-03        -2.69912    -181.848E-03        -2.64644         1.83447     230.058E-03     34.1917E-03    -16.8428E-03    -17.3489E-03    -16.8468E-03     33.6897E-03    -16.8428E-03     10.1203E-03    -4.45287E+06    -11.4009E+06    -60.5072E+06    -4.79294E+06    -60.4851E+06    -11.0829E+06     1.07764E+06         24.8883
             417     9.83400E-03     47.4466E-03         2.02239    -17.1809E-03        -2.99833    -70.7414E-03        -2.94477         2.02239     258.028E-03     34.2682E-03    -16.9109E-03    -17.3573E-03    -16.8991E-03     33.8100E-03    -16.9109E-03     9.65472E-03    -2.96573E+06    -5.33480E+06    -84.0546E+06    -4.65972E+06    -84.0393E+06    -3.65619E+06     903.072E+03         23.9975
             418     8.85049E-03     47.4374E-03         2.22798     486.736E-03        -3.70925     259.768E-03        -3.48228         2.22798         1.18330     34.2018E-03    -16.9495E-03    -17.2523E-03    -16.9029E-03     33.8524E-03    -16.9495E-03     8.43906E-03    -2.49452E+06    -5.07001E+06    -106.290E+06    -5.08102E+06    -106.279E+06    -2.49452E+06     824.609E+03         23.5212
             419     7.86713E-03     47.4289E-03         2.43624         1.16688        -4.59612     727.898E-03        -4.15714         2.43624         3.00887     34.1855E-03    -16.9879E-03    -17.1977E-03    -16.9130E-03     33.9009E-03    -16.9879E-03     7.61788E-03    -1.73237E+06    -5.28830E+06    -126.744E+06    -5.29421E+06    -126.738E+06    -1.73237E+06     707.658E+03         23.2352
             420     6.88364E-03     47.4213E-03         2.63414         1.63715        -5.24901         1.25434        -4.86620         2.63414         3.08477     34.1641E-03    -17.0299E-03    -17.1342E-03    -16.9014E-03     33.9332E-03    -17.0318E-03     6.85738E-03    -98.0312E+03    -5.04254E+06    -144.161E+06    -5.04611E+06    -144.158E+06    -98.0312E+03     238.448E+03         23.0405
             421     5.90008E-03     47.4145E-03         2.82702         1.76954        -5.55139         1.60888        -5.39073         2.82702         1.61245     34.1923E-03    -17.0676E-03    -17.1247E-03    -16.9420E-03     34.0114E-03    -17.0695E-03     6.06877E-03    -5.05198E+03    -5.09397E+06    -159.178E+06    -5.09615E+06    -159.176E+06    -5.05198E+03    -42.6324E+03         22.8968
             422     4.91667E-03     47.4084E-03         3.09052         2.29720        -6.31749         1.93920        -5.89959         3.03062         2.88135     34.2684E-03    -17.0955E-03    -17.1729E-03    -17.0381E-03     34.1335E-03    -17.0955E-03     5.24217E-03    -971.836E+03    -5.86985E+06    -172.281E+06    -5.87236E+06    -172.279E+06    -971.836E+03     362.441E+03         22.7872
             423     3.93339E-03     47.4037E-03         3.29460         2.78890        -6.99944         2.42234        -6.57298         3.23470         2.30679     34.2521E-03    -17.0881E-03    -17.1640E-03    -17.0502E-03     34.1571E-03    -17.1069E-03     4.39688E-03    -3.25985E+06    -7.12636E+06    -182.430E+06    -7.12995E+06    -182.426E+06    -3.25985E+06     610.017E+03         22.7041
             424     2.94996E-03     47.3993E-03         4.66690         3.07772        -8.65756         3.04620        -7.34693         3.38778         5.49586     34.2392E-03    -17.0946E-03    -17.1446E-03    -17.0661E-03     34.1795E-03    -17.1134E-03     3.46195E-03    -5.37048E+06    -8.31225E+06    -187.469E+06    -8.31905E+06    -187.462E+06    -5.37048E+06     302.236E+03         22.6433
             425     1.96663E-03     47.3962E-03         4.88643         3.40445        -9.20203         3.48352        -7.82185         3.42717         4.55562     34.2594E-03    -17.0983E-03    -17.1611E-03    -17.1324E-03     34.2307E-03    -17.0983E-03     2.35401E-03    -6.86103E+06    -9.53753E+06    -187.830E+06    -9.55200E+06    -187.815E+06    -6.86103E+06     324.688E+03         22.6024
             426     983.434E-06     47.3944E-03         7.14686         5.16796        -13.2242         1.63232        -7.73235         5.19069         12.6323     34.1484E-03    -17.0364E-03    -17.1120E-03    -17.1008E-03     34.1376E-03    -17.0368E-03     1.44194E-03    -8.10948E+06    -9.73948E+06    -186.584E+06    -9.31219E+06    -186.570E+06    -8.55079E+06     888.775E+03         22.5791
             427     16.7269E-03     46.9560E-03         1.18824     819.132E-03        -3.16779     714.957E-03        -3.05103         1.17565    -996.333E-03     201.681E-03    -17.1887E-03    -184.492E-03    -40.3738E-03     57.5625E-03    -17.1887E-03     373.525E-03     187.891E+06     114.142E+06    -8.77100E+06    -8.76217E+06     187.882E+06     114.142E+06     492.888E+03         62.7984
             428     15.7373E-03     46.5817E-03         1.17577     926.240E-03        -3.32927     681.289E-03        -3.02065         1.11210        -2.19104     123.147E-03    -16.8175E-03    -106.330E-03    -26.7017E-03     43.5192E-03    -16.8175E-03     216.418E-03     143.544E+06     23.2553E+06    -13.7610E+06    -13.7540E+06     143.537E+06     23.2553E+06    -148.333E+03         54.0034
             429     14.7538E-03     46.4960E-03         1.22998     851.008E-03        -3.31132     795.276E-03        -3.11607         1.09047        -1.07606     46.2982E-03    -16.5165E-03    -29.7818E-03    -16.8652E-03     33.3816E-03    -16.5165E-03     53.9180E-03     107.541E+06    -11.0329E+06    -43.4779E+06    -13.2780E+06     107.537E+06    -41.2280E+06    -652.217E+03         44.0529
             430     13.7691E-03     46.4687E-03         1.38494     875.853E-03        -3.47241         1.16665        -3.46068         1.08240    -137.221E-03     35.0092E-03    -16.4154E-03    -18.5938E-03    -16.1019E-03     32.5173E-03    -16.4154E-03     22.3937E-03     67.8049E+06    -10.2415E+06    -61.9035E+06    -10.2400E+06     67.8034E+06    -61.9035E+06     57.7841E+03         35.7050
             431     12.7849E-03     46.4478E-03         1.48373     922.398E-03        -3.59487         1.32900        -3.57752         1.05978    -584.431E-03     34.4149E-03    -16.5647E-03    -17.8502E-03    -16.5035E-03     33.0682E-03    -16.5647E-03     16.2044E-03     19.3111E+06    -7.67598E+06    -41.8585E+06    -7.35895E+06     18.9940E+06    -41.8585E+06     602.003E+03         30.0087
             432     11.8011E-03     46.4343E-03         1.38143     647.892E-03        -3.19502     965.662E-03        -3.17628         1.04492    -554.855E-03     34.0303E-03    -16.7046E-03    -17.3257E-03    -16.6999E-03     33.4045E-03    -16.7046E-03     11.1541E-03    -4.17401E+06    -11.3066E+06    -39.6549E+06    -4.95011E+06    -26.1631E+06    -24.0222E+06     1.00850E+06         26.6735
             433     10.8178E-03     46.4238E-03         1.19719     321.010E-03        -2.66547     416.938E-03        -2.63474         1.07053     43.9960E-03     34.0667E-03    -16.8166E-03    -17.2501E-03    -16.7468E-03     33.5634E-03    -16.8166E-03     10.0979E-03    -3.76076E+06    -10.6073E+06    -59.8781E+06    -3.78164E+06    -59.8572E+06    -10.6073E+06     1.01631E+06         24.9077
             434     9.83407E-03     46.4128E-03         1.14913     63.7730E-03        -2.34972     8.88722E-03        -2.29484         1.14913    -54.1203E-03     34.1752E-03    -16.8949E-03    -17.2803E-03    -16.8120E-03     33.7069E-03    -16.8949E-03     9.72600E-03    -1.91076E+06    -4.14514E+06    -84.0864E+06    -3.36748E+06     -84.073E+06    -2.70185E+06     969.668E+03         24.0060
             435     8.85063E-03     46.4035E-03         1.27436     202.903E-03        -2.60820    -103.633E-03        -2.30166         1.27436     879.727E-03     34.1625E-03    -16.9431E-03    -17.2194E-03    -16.8718E-03     33.8149E-03    -16.9431E-03     8.41439E-03    -331.724E+03    -2.94202E+06    -106.042E+06    -2.95622E+06    -106.028E+06    -331.724E+03     1.08522E+06         23.5243
             436     7.86712E-03     46.3951E-03         1.41800     774.291E-03        -3.31425     214.504E-03        -2.75446         1.41800         2.76731     34.1556E-03    -16.9797E-03    -17.1759E-03    -16.8880E-03     33.8677E-03    -16.9797E-03     7.65712E-03    -225.358E+03    -3.31199E+06    -125.759E+06    -3.31893E+06    -125.752E+06    -225.358E+03     537.070E+03         23.2359
             437     6.88371E-03     46.3876E-03         1.64404         1.21238        -3.95888     788.578E-03        -3.42981         1.53876         3.10819     34.1831E-03    -17.0177E-03    -17.1654E-03    -16.9306E-03     33.9483E-03    -17.0177E-03     6.91791E-03     57.4508E+03    -4.29088E+06    -143.708E+06    -4.29249E+06    -143.706E+06     57.4508E+03    -83.7826E+03         23.0404
             438     5.90031E-03     46.3808E-03         1.76997         1.34308        -4.18377         1.25184        -3.93726         1.61470         1.80884     34.1796E-03    -17.0517E-03    -17.1279E-03    -16.9448E-03     33.9965E-03    -17.0517E-03     6.10358E-03    -274.384E+03    -5.53092E+06    -159.630E+06    -5.53629E+06    -159.625E+06    -274.384E+03     389.958E+03         22.8964
             439     4.91676E-03     46.3748E-03         2.11228         1.51321        -4.66599         1.31829        -4.03154         1.67275         3.00254     34.1914E-03    -17.0794E-03    -17.1121E-03    -16.9747E-03     34.0568E-03    -17.0821E-03     5.23025E-03    -1.01944E+06    -7.19178E+06    -172.444E+06    -7.19797E+06    -172.438E+06    -1.01944E+06     603.907E+03         22.7866
             440     3.93334E-03     46.3696E-03         2.18540         1.29032        -4.49200         1.03781        -3.84995         1.79586         2.44479     34.2552E-03    -17.0936E-03    -17.1615E-03    -17.0659E-03     34.1623E-03    -17.0964E-03     4.34237E-03    -2.46654E+06    -8.51647E+06    -182.165E+06    -8.51962E+06    -182.162E+06    -2.46654E+06     315.328E+03         22.7034
             441     2.95011E-03     46.3657E-03         3.38339         1.56188        -5.96505     970.264E-03        -4.05747         2.06742         5.42155     34.2144E-03    -17.0818E-03    -17.1326E-03    -17.0703E-03     34.1556E-03    -17.0854E-03     3.44485E-03    -5.65784E+06    -9.66555E+06    -187.209E+06    -9.67001E+06    -187.205E+06    -5.65784E+06     646.528E+03         22.6427
             442     1.96671E-03     46.3622E-03         3.77918         2.28642        -7.09796         1.59400        -5.08957         2.46321         4.45521     34.1379E-03    -17.0610E-03    -17.0769E-03    -17.0330E-03     34.1089E-03    -17.0760E-03     2.34560E-03    -8.62498E+06    -10.5765E+06    -187.530E+06    -10.5824E+06    -187.524E+06    -8.62498E+06     178.732E+03         22.6021
             443     983.240E-06     46.3608E-03         6.44772         4.57588        -12.0863     602.954E-03        -6.41828         4.75267         12.5342     34.1443E-03    -17.0004E-03    -17.1439E-03    -17.1234E-03     34.1357E-03    -17.0122E-03     1.25243E-03    -10.3395E+06    -12.0367E+06    -187.338E+06    -11.9140E+06    -187.332E+06    -10.4679E+06    -334.518E+03         22.5789
             444     16.7269E-03     45.9317E-03         1.13303     822.010E-03        -3.38476     972.245E-03        -3.29272     890.748E-03    -892.177E-03     200.707E-03    -17.1627E-03    -183.544E-03    -40.6761E-03     57.8388E-03    -17.1627E-03     371.385E-03     188.165E+06     111.953E+06    -8.30392E+06    -8.29619E+06     188.158E+06     111.953E+06     178.566E+03         62.6707
             445     15.7383E-03     45.5471E-03         1.33034     787.941E-03        -3.57655         1.09687        -3.34308     787.941E-03        -2.06903     125.327E-03    -16.7777E-03    -108.550E-03    -27.5141E-03     44.2918E-03    -16.7777E-03     220.839E-03     144.082E+06     22.8460E+06    -13.0384E+06    -13.0342E+06     144.078E+06     22.8460E+06    -39.2644E+03         53.9679
             446     14.7534E-03     45.4622E-03         1.49793     710.993E-03        -3.65934         1.35440        -3.51581     710.993E-03        -1.08456     46.3122E-03    -16.4906E-03    -29.8215E-03    -16.5568E-03     33.0474E-03    -16.4906E-03     54.4581E-03     106.861E+06    -10.9229E+06    -44.2862E+06    -14.3466E+06     106.857E+06    -40.8593E+06    -421.365E+03         44.0903
             447     13.7694E-03     45.4354E-03         1.60647     639.856E-03        -3.67474         1.59843        -3.66669     639.856E-03    -169.565E-03     35.3239E-03    -16.3832E-03    -18.9407E-03    -16.2964E-03     32.6796E-03    -16.3832E-03     23.1958E-03     66.8381E+06    -11.0929E+06    -63.1501E+06    -11.0861E+06     66.8313E+06    -63.1501E+06     142.815E+03         35.7687
             448     12.7852E-03     45.4141E-03         1.68552     553.381E-03        -3.63783         1.66672        -3.61903     553.381E-03    -607.922E-03     34.3510E-03    -16.5262E-03    -17.8248E-03    -16.4053E-03     32.9315E-03    -16.5262E-03     16.6296E-03     18.6620E+06    -7.82800E+06    -43.0412E+06    -7.55695E+06     18.3910E+06    -43.0412E+06     649.297E+03         30.0653
             449     11.8018E-03     45.4001E-03         1.61451     455.984E-03        -3.43721         1.58725        -3.40994     455.984E-03    -736.208E-03     33.8903E-03    -16.6771E-03    -17.2132E-03    -16.5536E-03     33.2307E-03    -16.6771E-03     11.4018E-03    -4.37926E+06    -11.2059E+06    -39.7393E+06      -4.904E+06    -26.1222E+06    -24.2982E+06     648.954E+03         26.7098
             450     10.8178E-03     45.3904E-03         1.26402     296.985E-03        -2.89742         1.17342        -2.87529     365.455E-03    -153.009E-03     33.9855E-03    -16.7981E-03    -17.1873E-03    -16.6654E-03     33.4636E-03    -16.7981E-03     10.2662E-03    -3.05775E+06    -10.3539E+06    -59.3594E+06    -3.07091E+06    -59.3462E+06    -10.3539E+06     704.510E+03         24.9266
             451     9.83418E-03     45.3787E-03     804.370E-03     27.6538E-03        -2.14527     478.116E-03        -2.10444     313.079E-03    -124.774E-03     34.1167E-03    -16.8815E-03    -17.2353E-03    -16.7557E-03     33.6372E-03    -16.8815E-03     9.82412E-03    -1.24406E+06    -3.48781E+06    -83.9324E+06    -2.24166E+06    -83.9280E+06    -2.49461E+06     422.681E+03         24.0142
             452     8.85075E-03     45.3697E-03     685.460E-03     2.52884E-03        -1.98656     12.0006E-03        -1.62416     313.588E-03     813.617E-03     34.1063E-03    -16.9371E-03    -17.1692E-03    -16.8199E-03     33.7570E-03    -16.9371E-03     8.42645E-03     216.575E+03    -1.84687E+06    -106.180E+06    -1.85793E+06    -106.168E+06     216.575E+03     838.211E+03         23.5273
             453     7.86722E-03     45.3614E-03     827.198E-03     241.393E-03        -2.34785    -27.2332E-03        -1.59743     345.407E-03         2.58383     34.1418E-03    -16.9775E-03    -17.1642E-03    -16.8723E-03     33.8499E-03    -16.9775E-03     7.70906E-03     826.136E+03    -2.17760E+06    -124.294E+06    -2.18961E+06    -124.282E+06     826.136E+03     948.234E+03         23.2369
             454     6.88366E-03     45.3537E-03         1.01201     358.440E-03        -2.62150     256.614E-03        -1.87601     368.350E-03         2.80943     34.2025E-03    -17.0240E-03    -17.1785E-03    -16.9426E-03     33.9666E-03    -17.0240E-03     6.93292E-03     2.13601E+06    -3.53816E+06    -144.014E+06    -3.54499E+06    -144.007E+06     2.13601E+06     742.276E+03         23.0406
             455     5.90029E-03     45.3470E-03     900.329E-03     350.272E-03        -2.46547     566.471E-03        -2.13162     350.272E-03         1.59881     34.2266E-03    -17.0526E-03    -17.1741E-03    -16.9901E-03     34.0426E-03    -17.0526E-03     6.12782E-03     1.71117E+06    -5.29589E+06    -159.896E+06    -5.30695E+06    -159.885E+06     1.71117E+06     1.23790E+06         22.8963
             456     4.91694E-03     45.3411E-03         1.52662     305.278E-03        -3.01057     500.053E-03        -1.98400     305.278E-03         3.03454     34.2050E-03    -17.0640E-03    -17.1410E-03    -17.0016E-03     34.0683E-03    -17.0667E-03     5.26766E-03     115.926E+03    -6.80957E+06    -171.291E+06    -6.81631E+06    -171.285E+06     115.926E+03     409.561E+03         22.7864
             457     3.93348E-03     45.3359E-03         1.44968     75.5993E-03        -2.68049     6.48950E-03        -1.47956     317.858E-03         2.66719     34.2057E-03    -17.0745E-03    -17.1313E-03    -17.0325E-03     34.1112E-03    -17.0786E-03     4.38148E-03    -1.65851E+06    -8.18198E+06    -182.662E+06    -8.18468E+06    -182.659E+06    -1.65851E+06     138.523E+03         22.7030
             458     2.95018E-03     45.3317E-03         2.64556     266.031E-03        -4.06313    -437.680E-03        -1.22215     508.289E-03         5.44163     34.1768E-03    -17.0634E-03    -17.1134E-03    -17.0502E-03     34.1186E-03    -17.0684E-03     3.39894E-03    -4.72177E+06    -9.56486E+06    -186.778E+06    -9.56746E+06    -186.775E+06    -4.72177E+06     657.256E+03         22.6423
             459     1.96675E-03     45.3289E-03         3.11166     782.672E-03        -5.06345    -167.566E-03        -1.93829     936.736E-03         4.18527     34.1021E-03    -17.0357E-03    -17.0664E-03    -17.0225E-03     34.0731E-03    -17.0506E-03     2.38790E-03    -8.42563E+06    -10.9768E+06    -187.026E+06    -10.9822E+06    -187.021E+06    -8.42563E+06     701.558E+03         22.6016
             460     983.424E-06     45.3266E-03         5.60406         3.37370        -10.1768        -1.11110        -3.61575         3.52777         11.7346     34.0748E-03    -16.9578E-03    -17.1169E-03    -17.0813E-03     34.0643E-03    -16.9830E-03     1.28630E-03    -11.9444E+06    -13.8738E+06    -188.428E+06    -13.4449E+06    -188.420E+06    -12.3817E+06    -125.367E+03         22.5782
             461     16.7208E-03     44.8933E-03         1.40572     608.422E-03        -3.70637         1.31446        -3.61510     608.422E-03    -943.520E-03     199.768E-03    -17.2374E-03    -182.530E-03    -40.5774E-03     57.8148E-03    -17.2374E-03     369.399E-03     187.941E+06     111.889E+06    -7.24841E+06    -7.23570E+06     187.929E+06     111.889E+06     340.708E+03         62.5479
             462     15.7393E-03     44.5158E-03         1.86874     461.593E-03        -4.03729         1.65577        -3.82431     461.593E-03        -2.19681     125.228E-03    -16.8054E-03    -108.423E-03    -28.4858E-03     45.2911E-03    -16.8054E-03     220.358E-03     144.692E+06     22.2349E+06    -12.2203E+06    -11.6040E+06     144.685E+06     21.6260E+06     579.437E+03         53.9315
             463     14.7529E-03     44.4280E-03         2.05256     325.068E-03        -4.07794         1.93060        -3.95598     325.068E-03        -1.21956     46.7539E-03    -16.4919E-03    -30.2619E-03    -16.3931E-03     32.8851E-03    -16.4919E-03     55.6426E-03     106.055E+06    -11.9980E+06    -44.6996E+06    -13.9590E+06     106.051E+06    -42.7350E+06     167.583E+03         44.1272
             464     13.7692E-03     44.4013E-03         1.88210     195.977E-03        -3.74817         1.87960        -3.74566     195.977E-03    -159.747E-03     35.6291E-03    -16.3881E-03    -19.2409E-03    -16.5862E-03     32.9743E-03    -16.3881E-03     23.3557E-03     66.6590E+06    -12.4162E+06    -64.1902E+06    -12.4092E+06     66.6521E+06    -64.1902E+06     226.333E+03         35.8300
             465     12.7858E-03     44.3804E-03         1.79225     60.8782E-03        -3.48607         1.77346        -3.46728     60.8782E-03    -570.899E-03     34.4130E-03    -16.5185E-03    -17.8944E-03    -16.4565E-03     32.9750E-03    -16.5185E-03     16.8353E-03     19.5863E+06    -8.23831E+06    -43.5493E+06    -7.74719E+06     19.0952E+06    -43.5493E+06     303.957E+03         30.1202
             466     11.8013E-03     44.3667E-03         1.82950    -90.9607E-03        -3.32895         1.79900        -3.29845    -90.9607E-03    -789.960E-03     33.8580E-03    -16.6677E-03    -17.1903E-03    -16.4756E-03     33.1432E-03    -16.6677E-03     11.8684E-03    -4.70751E+06    -11.9650E+06    -40.5172E+06    -4.88021E+06    -26.6796E+06    -25.6300E+06     75.4977E+03         26.7456
             467     10.8179E-03     44.3563E-03         1.71779    -265.202E-03        -3.00278         1.69786        -2.98284    -265.202E-03    -154.895E-03     34.0470E-03    -16.7880E-03    -17.2590E-03    -16.7220E-03     33.5100E-03    -16.7880E-03     10.4398E-03    -2.97262E+06    -11.5883E+06    -58.7871E+06    -2.97648E+06    -58.7832E+06    -11.5883E+06    -41.5630E+03         24.9455
             468     9.83442E-03     44.3452E-03         1.29725    -446.383E-03        -2.36930         1.26080        -2.33285    -446.383E-03    -201.088E-03     34.0793E-03    -16.8740E-03    -17.2053E-03    -16.7205E-03     33.5946E-03    -16.8740E-03     9.89323E-03    -1.08504E+06    -3.88006E+06    -83.8981E+06    -1.87698E+06    -83.8834E+06    -3.10281E+06     399.216E+03         24.0228
             469     8.85060E-03     44.3359E-03     963.459E-03    -606.589E-03        -1.84554     610.865E-03        -1.49294    -606.589E-03     695.555E-03     34.0765E-03    -16.9355E-03    -17.1410E-03    -16.7791E-03     33.7146E-03    -16.9355E-03     8.55875E-03    -433.818E+03    -2.50661E+06    -106.506E+06    -2.52201E+06    -106.490E+06    -433.818E+03     748.449E+03         23.5307
             470     7.86711E-03     44.3276E-03         1.02431    -727.672E-03        -1.75651     3.07797E-03    -735.278E-03    -727.672E-03         2.55156     34.1621E-03    -16.9805E-03    -17.1816E-03    -16.8887E-03     33.8692E-03    -16.9805E-03     7.72760E-03     964.250E+03    -3.43435E+06    -123.840E+06    -3.45538E+06    -123.819E+06     964.250E+03     1.21208E+06         23.2382
             471     6.88378E-03     44.3199E-03         1.15405    -815.031E-03        -1.76050    -345.383E-03    -261.063E-03    -815.031E-03         2.64173     34.2028E-03    -17.0312E-03    -17.1716E-03    -16.9351E-03     33.9662E-03    -17.0312E-03     6.93761E-03     3.21790E+06    -4.61152E+06    -144.177E+06    -4.63843E+06    -144.150E+06     3.21790E+06     1.80513E+06         23.0412
             472     5.90027E-03     44.3133E-03     916.478E-03    -764.680E-03        -1.53202    -427.882E-03    -56.9216E-03    -895.419E-03         1.38080     34.2228E-03    -17.0500E-03    -17.1728E-03    -16.9874E-03     34.0374E-03    -17.0500E-03     6.15660E-03     1.47765E+06    -5.73804E+06    -158.961E+06    -5.75183E+06    -158.948E+06     1.47765E+06     944.253E+03         22.8966
             473     4.91694E-03     44.3071E-03         1.73474    -863.202E-03        -2.21545    -470.060E-03     120.085E-03    -993.940E-03         3.00283     34.2405E-03    -17.0557E-03    -17.1849E-03    -17.0433E-03     34.0989E-03    -17.0557E-03     5.36294E-03    -663.527E+03    -6.28298E+06    -170.579E+06    -6.28878E+06    -170.573E+06    -663.527E+03     209.189E+03         22.7866
             474     3.93365E-03     44.3024E-03         1.84115    -962.611E-03        -2.19845    -776.059E-03     548.402E-03        -1.09226         2.95398     34.2060E-03    -17.0651E-03    -17.1409E-03    -17.0428E-03     34.1095E-03    -17.0666E-03     4.42710E-03    -1.67224E+06    -7.77668E+06    -182.960E+06    -7.78297E+06    -182.953E+06    -1.67224E+06     721.603E+03         22.7031
             475     2.95006E-03     44.2979E-03         3.07442        -1.01517        -3.37507        -1.10153     930.523E-03        -1.14481         5.32359     34.1242E-03    -17.0462E-03    -17.0780E-03    -17.0084E-03     34.0655E-03    -17.0571E-03     3.41179E-03    -5.20470E+06    -9.90098E+06    -186.562E+06    -9.90542E+06    -186.557E+06    -5.20470E+06     744.878E+03         22.6422
             476     1.96683E-03     44.2952E-03         3.64366        -1.09772        -3.84864        -1.33655         1.13157        -1.09772         3.99129     34.1010E-03    -17.0308E-03    -17.0702E-03    -17.0312E-03     34.0714E-03    -17.0401E-03     2.42467E-03    -9.18309E+06    -11.3463E+06    -187.591E+06    -11.3537E+06    -187.583E+06    -9.18309E+06     939.832E+03         22.6011
             477     983.368E-06     44.2930E-03         5.76109         1.32167        -8.39126        -3.40694     776.763E-03         1.32167         10.1890     34.0579E-03    -16.9984E-03    -17.0596E-03    -17.0045E-03     34.0468E-03    -17.0423E-03     1.32817E-03    -11.0460E+06    -12.0561E+06    -187.306E+06    -11.4962E+06    -187.297E+06    -11.6149E+06     426.998E+03         22.5771
             478     16.7223E-03     43.8540E-03         1.78830     327.130E-03        -4.05941         1.70887        -3.97998     327.130E-03    -968.129E-03     199.280E-03    -17.2730E-03    -182.007E-03    -40.1352E-03     57.4082E-03    -17.2730E-03     368.580E-03     186.593E+06     112.672E+06    -8.45408E+06    -8.42835E+06     186.567E+06     112.672E+06    -736.976E+03         62.4491
             479     15.7375E-03     43.4831E-03         2.33406     133.621E-03        -4.44696         2.13393        -4.24683     133.621E-03        -2.28395     124.224E-03    -16.8458E-03    -107.378E-03    -28.0505E-03     44.8964E-03    -16.8458E-03     218.439E-03     142.884E+06     21.6715E+06    -13.6033E+06    -12.9599E+06     142.849E+06     21.0626E+06     471.412E+03         53.9055
             480     14.7528E-03     43.3947E-03         2.38312    -52.2960E-03        -4.30279         2.26118        -4.18086    -52.2960E-03        -1.18632     47.5974E-03    -16.5196E-03    -31.0778E-03    -16.8379E-03     33.3575E-03    -16.5196E-03     56.8693E-03     106.786E+06    -11.7704E+06    -43.4595E+06    -12.9372E+06     106.766E+06    -42.2728E+06     1.37911E+06         44.1625
             481     13.7688E-03     43.3663E-03         2.12489    -228.357E-03        -3.82621         2.11975        -3.82107    -228.357E-03    -103.185E-03     35.5661E-03    -16.4069E-03    -19.1591E-03    -16.5991E-03     33.0060E-03    -16.4069E-03     22.9010E-03     68.1418E+06    -10.4685E+06    -62.7120E+06    -10.4530E+06     68.1263E+06    -62.7120E+06     289.264E+03         35.8901
             482     12.7850E-03     43.3471E-03         1.97784    -411.717E-03        -3.44154         1.95604        -3.41974    -411.717E-03    -633.922E-03     34.3974E-03    -16.5319E-03    -17.8654E-03    -16.4645E-03     32.9964E-03    -16.5319E-03     16.6777E-03     19.5803E+06    -7.93459E+06    -44.1068E+06    -7.17624E+06     18.8220E+06    -44.1068E+06    -417.589E+03         30.1737
             483     11.8015E-03     43.3331E-03         1.86084    -611.039E-03        -3.07319         1.82399        -3.03633    -611.039E-03    -839.306E-03     34.0341E-03    -16.6724E-03    -17.3617E-03    -16.6196E-03     33.2921E-03    -16.6724E-03     12.1137E-03    -4.76990E+06    -13.0561E+06    -40.4328E+06    -4.81768E+06    -26.5629E+06    -26.8782E+06    -220.256E+03         26.7813
             484     10.8178E-03     43.3220E-03         1.82419    -838.423E-03        -2.76292         1.80252        -2.74124    -838.423E-03    -290.431E-03     34.0208E-03    -16.7943E-03    -17.2265E-03    -16.6851E-03     33.4794E-03    -16.7943E-03     10.4746E-03    -3.45976E+06    -12.1552E+06    -59.1186E+06    -3.46970E+06    -59.1086E+06    -12.1552E+06     29.0347E+03         24.9651
             485     9.83416E-03     43.3118E-03         1.83643        -1.10946        -2.46396         1.79289        -2.42042        -1.10946    -453.066E-03     34.1255E-03    -16.8845E-03    -17.2411E-03    -16.7495E-03     33.6339E-03    -16.8845E-03     9.96919E-03    -2.21444E+06    -4.97558E+06    -84.3725E+06    -3.78917E+06    -84.3523E+06    -3.42113E+06     731.876E+03         24.0320
             486     8.85061E-03     43.3020E-03         1.64101        -1.31235        -2.02899         1.36704        -1.65208        -1.41530     500.299E-03     34.1321E-03    -16.9394E-03    -17.1927E-03    -16.8274E-03     33.7668E-03    -16.9394E-03     8.60716E-03    -667.245E+03    -4.19125E+06    -105.606E+06    -4.20662E+06    -105.591E+06    -667.245E+03     869.643E+03         23.5348
             487     7.86724E-03     43.2938E-03         1.53057        -1.31462        -1.87250     391.916E-03    -340.769E-03        -1.70770         2.53380     34.1433E-03    -16.9847E-03    -17.1586E-03    -16.8664E-03     33.8511E-03    -16.9847E-03     7.71488E-03     742.516E+03    -4.18635E+06    -125.029E+06    -4.20571E+06    -125.009E+06     742.516E+03     1.05598E+06         23.2400
             488     6.88360E-03     43.2861E-03         1.83662        -1.42816        -2.01747    -688.295E-03         1.01444        -1.93516         2.64519     34.2048E-03    -17.0317E-03    -17.1731E-03    -16.9324E-03     33.9640E-03    -17.0317E-03     7.00370E-03     2.83400E+06    -4.07135E+06    -143.428E+06    -4.09457E+06    -143.404E+06     2.83400E+06     1.53783E+06         23.0421
             489     5.90035E-03     43.2794E-03         2.13451        -1.58542        -2.10997        -1.36538         1.89656        -2.09206         1.37531     34.2277E-03    -17.0522E-03    -17.1755E-03    -16.9873E-03     34.0396E-03    -17.0522E-03     6.19559E-03     1.48440E+06    -4.79417E+06    -157.441E+06    -4.80452E+06    -157.430E+06     1.48440E+06     728.161E+03         22.8972
             490     4.91678E-03     43.2735E-03         2.98723        -1.94224        -2.57109        -1.50663         2.21255        -2.23202         2.94529     34.2362E-03    -17.0616E-03    -17.1746E-03    -17.0327E-03     34.0943E-03    -17.0616E-03     5.37718E-03    -1.55331E+06    -6.84292E+06    -171.396E+06    -6.85493E+06    -171.384E+06    -1.55331E+06     838.282E+03         22.7872
             491     3.93349E-03     43.2682E-03         3.23336        -1.96649        -2.76479        -1.50535         2.43315        -2.42573         3.26395     34.2232E-03    -17.0695E-03    -17.1537E-03    -17.0575E-03     34.1270E-03    -17.0695E-03     4.40912E-03    -3.13060E+06    -8.95956E+06    -182.670E+06    -8.97224E+06    -182.657E+06    -3.13060E+06     1.29974E+06         22.7038
             492     2.95030E-03     43.2647E-03         4.44785        -2.24780        -3.69094        -1.74174         2.95789        -2.70704         5.29932     34.1405E-03    -17.0472E-03    -17.0932E-03    -17.0246E-03     34.0812E-03    -17.0566E-03     3.46048E-03    -6.45651E+06    -10.2984E+06    -186.150E+06    -10.3057E+06    -186.143E+06    -6.45651E+06     893.631E+03         22.6428
             493     1.96663E-03     43.2611E-03         5.43663        -2.84661        -4.04532        -2.33765         3.93334        -3.05098         4.19518     34.0831E-03    -17.0117E-03    -17.0714E-03    -16.9973E-03     34.0517E-03    -17.0544E-03     2.46116E-03    -9.67456E+06    -11.3013E+06    -187.365E+06    -11.3092E+06    -187.357E+06    -9.67456E+06     540.995E+03         22.6015
             494     983.438E-06     43.2597E-03         7.60505    -947.464E-03        -8.07625        -5.31477         5.04794        -1.15184         8.86934     34.1151E-03    -16.9716E-03    -17.1435E-03    -17.0683E-03     34.1035E-03    -17.0352E-03     1.47303E-03    -11.1983E+06    -12.4598E+06    -186.819E+06    -12.3424E+06    -186.805E+06    -11.3298E+06     702.525E+03         22.5775
             495     16.7238E-03     42.8200E-03         2.07279     35.8884E-03        -4.33330         1.99482        -4.25533     35.8884E-03    -990.332E-03     200.406E-03    -17.3012E-03    -183.105E-03    -40.1742E-03     57.4754E-03    -17.3012E-03     370.847E-03     185.848E+06     112.499E+06    -8.65383E+06    -8.62371E+06     185.818E+06     112.499E+06    -693.956E+03         62.3573
             496     15.7366E-03     42.4515E-03         2.50719    -193.703E-03        -4.58365         2.30684        -4.38330    -193.703E-03        -2.33534     124.168E-03    -16.8799E-03    -107.288E-03    -28.4238E-03     45.3037E-03    -16.8799E-03     217.816E-03     141.915E+06      22.278E+06    -14.3384E+06    -14.3015E+06     141.878E+06      22.278E+06     389.250E+03         53.8797
             497     14.7521E-03     42.3584E-03         2.46497    -409.557E-03        -4.30076         2.34116        -4.17695    -409.557E-03        -1.25183     47.5062E-03    -16.5370E-03    -30.9692E-03    -17.1036E-03     33.6406E-03    -16.5370E-03     56.1908E-03     108.446E+06    -9.52230E+06    -42.1972E+06    -12.8698E+06     108.424E+06    -38.8280E+06     685.904E+03         44.1969
             498     13.7695E-03     42.3330E-03         2.29311    -618.922E-03        -3.85615         2.28474        -3.84778    -618.922E-03    -236.995E-03     35.1461E-03    -16.4124E-03    -18.7337E-03    -16.3154E-03     32.7278E-03    -16.4124E-03     22.1519E-03     68.0799E+06    -9.28526E+06    -61.9385E+06    -9.26194E+06     68.0566E+06    -61.9385E+06     32.4988E+03         35.9491
             499     12.7847E-03     42.3135E-03         2.16116    -844.696E-03        -3.43256         2.13259        -3.40400    -844.696E-03    -760.574E-03     34.4090E-03    -16.5437E-03    -17.8653E-03    -16.4757E-03     33.0194E-03    -16.5437E-03     16.6048E-03     18.3681E+06    -7.60762E+06    -44.6478E+06    -7.10602E+06     17.8665E+06    -44.6478E+06    -34.8720E+03         30.2265
             500     11.8013E-03     42.2985E-03         1.95408        -1.09004        -2.91682         1.90387        -2.86661        -1.09004    -976.628E-03     34.0610E-03    -16.6851E-03    -17.3759E-03    -16.6494E-03     33.3345E-03    -16.6851E-03     11.9823E-03    -4.64498E+06    -13.1988E+06    -40.6401E+06    -5.21016E+06    -26.3822E+06    -26.8915E+06    -29.8830E+03         26.8174
             501     10.8177E-03     42.2892E-03         1.86762        -1.36578        -2.50486         1.83881        -2.47605        -1.36578    -511.571E-03     34.0348E-03    -16.8077E-03    -17.2271E-03    -16.6866E-03     33.4943E-03    -16.8077E-03     10.4634E-03    -4.34391E+06    -12.3897E+06    -60.1165E+06    -4.35973E+06    -60.1007E+06    -12.3897E+06     657.078E+03         24.9854
             502     9.83386E-03     42.2772E-03         1.92002        -1.57403        -2.30589         1.88570        -2.14967        -1.69593    -522.537E-03     34.1890E-03    -16.8894E-03    -17.2996E-03    -16.8112E-03     33.7006E-03    -16.8894E-03     9.93046E-03    -3.76006E+06    -5.34866E+06    -83.9779E+06    -4.74755E+06    -83.9611E+06    -4.37802E+06     994.502E+03         24.0421
             503     8.85080E-03     42.2685E-03         1.83144        -1.47330        -2.27623         1.58151        -1.41561        -2.08399     526.314E-03     34.1394E-03    -16.9360E-03    -17.2034E-03    -16.8452E-03     33.7812E-03    -16.9360E-03     8.53809E-03    -2.37511E+06    -5.08218E+06    -105.193E+06    -5.01657E+06    -105.186E+06    -2.44831E+06     824.084E+03         23.5394
             504     7.86697E-03     42.2599E-03         1.75646        -1.13212        -2.49153     688.710E-03    -64.3678E-03        -2.49153         2.38613     34.1302E-03    -16.9821E-03    -17.1482E-03    -16.8498E-03     33.8319E-03    -16.9821E-03     7.79170E-03    -1.15211E+06    -4.95953E+06    -125.217E+06    -4.96637E+06    -125.210E+06    -1.15211E+06     809.466E+03         23.2422
             505     6.88373E-03     42.2525E-03         2.24133        -1.18639        -2.86173    -536.011E-03         1.59096        -2.86173         2.29408     34.1929E-03    -17.0246E-03    -17.1684E-03    -16.9247E-03     33.9493E-03    -17.0246E-03     7.04726E-03    -144.280E+03    -5.03990E+06    -142.662E+06    -5.04791E+06    -142.654E+06    -144.280E+03     156.274E+03         23.0434
             506     5.90005E-03     42.2455E-03         3.19963        -1.79262        -3.15765        -1.66818         3.07519        -3.15765         1.14625     34.2502E-03    -17.0597E-03    -17.1905E-03    -17.0023E-03     34.0620E-03    -17.0597E-03     6.19390E-03     915.034E+03    -5.65409E+06    -157.883E+06    -5.68198E+06    -157.855E+06     915.034E+03     984.641E+03         22.8982
             507     4.91697E-03     42.2397E-03         4.42931        -2.70026        -3.43706        -2.29328         3.98341        -3.39815         2.71701     34.2287E-03    -17.0786E-03    -17.1501E-03    -17.0123E-03     34.0909E-03    -17.0786E-03     5.29714E-03    -432.101E+03    -7.26526E+06    -171.469E+06    -7.29677E+06    -171.438E+06    -432.101E+03     2.00210E+06         22.7880
             508     3.93340E-03     42.2347E-03         4.96910        -2.95562        -3.69597        -2.51392         4.48848        -3.65705         3.25407     34.1878E-03    -17.0682E-03    -17.1196E-03    -17.0057E-03     34.0908E-03    -17.0851E-03     4.43560E-03    -4.02911E+06    -8.69394E+06    -181.572E+06    -8.70556E+06    -181.561E+06    -4.02911E+06     1.20812E+06         22.7047
             509     2.94997E-03     42.2306E-03         6.10955        -3.44481        -4.32676        -2.78372         5.13037        -4.00866         5.09444     34.2115E-03    -17.0699E-03    -17.1415E-03    -17.0630E-03     34.1498E-03    -17.0868E-03     3.52001E-03    -6.41485E+06    -9.73991E+06    -185.991E+06    -9.74599E+06    -185.985E+06    -6.41485E+06     892.801E+03         22.6438
             510     1.96685E-03     42.2278E-03         7.30949        -4.17315        -4.76125        -3.53531         6.35356        -4.44315         4.67451     34.1635E-03    -17.0484E-03    -17.1151E-03    -17.0506E-03     34.1324E-03    -17.0818E-03     2.45895E-03    -8.24061E+06    -11.1921E+06    -186.296E+06    -11.2035E+06    -186.284E+06    -8.24061E+06     837.081E+03         22.6026
             511     983.105E-06     42.2255E-03         9.35351        -2.38965        -8.53037        -6.68576         7.77890        -2.65965         8.31416     34.1370E-03    -16.9704E-03    -17.1666E-03    -17.1210E-03     34.1247E-03    -17.0038E-03     1.54636E-03    -11.7678E+06    -13.5383E+06    -187.266E+06    -13.5558E+06    -187.248E+06    -11.7678E+06     1.04708E+06         22.5790
             512     16.7170E-03     41.7827E-03         2.15430    -264.615E-03        -4.41981         2.07036        -4.33587    -264.615E-03        -1.06439     201.046E-03    -17.3472E-03    -183.699E-03    -40.3548E-03     57.7020E-03    -17.3472E-03     371.979E-03     186.454E+06     114.099E+06    -9.65949E+06    -9.63943E+06     186.434E+06     114.099E+06    -465.928E+03         62.2513
             513     15.7375E-03     41.4149E-03         2.37300    -510.000E-03        -4.40284         2.14467        -4.17451    -510.000E-03        -2.41395     123.529E-03    -16.8937E-03    -106.635E-03    -29.2225E-03     46.1162E-03    -16.8937E-03     215.939E-03     142.798E+06     24.0023E+06    -14.1626E+06    -14.1456E+06     142.781E+06     24.0023E+06    -152.667E+03         53.8444
             514     14.7549E-03     41.3254E-03         2.38045    -735.415E-03        -4.13446         2.23092        -3.98493    -735.415E-03        -1.56110     47.0582E-03    -16.5087E-03    -30.5495E-03    -16.8841E-03     33.3928E-03    -16.5087E-03     55.7767E-03     106.564E+06    -10.5437E+06    -43.9213E+06    -13.0626E+06     106.556E+06    -41.3948E+06    -818.887E+03         44.2280
             515     13.7680E-03     41.2996E-03         2.37891    -965.758E-03        -3.82659         2.36500        -3.81267    -965.758E-03    -534.236E-03     35.0155E-03    -16.4036E-03    -18.6119E-03    -16.1197E-03     32.5233E-03    -16.4036E-03     22.3671E-03     67.6903E+06    -9.81918E+06    -63.0131E+06    -9.79612E+06     67.6672E+06    -63.0131E+06     117.061E+03         36.0059
             516     12.7853E-03     41.2790E-03         2.33173        -1.22704        -3.44278         2.29977        -3.41082        -1.22704    -828.354E-03     34.4071E-03    -16.5506E-03    -17.8565E-03    -16.4765E-03     33.0271E-03    -16.5506E-03     16.5253E-03     19.3905E+06    -7.98382E+06    -43.5762E+06    -7.30653E+06     18.7132E+06    -43.5762E+06     731.615E+03         30.2793
             517     11.8011E-03     41.2654E-03         2.20763        -1.52167        -2.95882         2.16354        -2.91473        -1.52167    -931.109E-03     33.9666E-03    -16.6926E-03    -17.2740E-03    -16.5662E-03     33.2588E-03    -16.6926E-03     11.8240E-03    -4.92051E+06    -13.5546E+06    -40.9300E+06    -5.48915E+06    -27.1118E+06    -26.8041E+06     252.336E+03         26.8540
             518     10.8173E-03     41.2547E-03         2.01269        -1.73264        -2.49719         1.99011        -2.35233        -1.85491    -378.933E-03     34.1053E-03    -16.8113E-03    -17.2940E-03    -16.7597E-03     33.5710E-03    -16.8113E-03     10.4204E-03    -4.52140E+06    -12.9963E+06    -60.5411E+06    -4.53297E+06    -60.5295E+06    -12.9963E+06     420.107E+03         25.0063
             519     9.83438E-03     41.2438E-03         1.62067        -1.45368        -2.34307         1.57883        -1.53007        -2.22484    -352.578E-03     34.1827E-03    -16.8920E-03    -17.2907E-03    -16.8093E-03     33.7013E-03    -16.8920E-03     9.86660E-03    -2.85717E+06    -4.44693E+06    -83.6241E+06    -3.32198E+06    -83.6085E+06    -3.99769E+06     755.516E+03         24.0526
             520     8.85029E-03     41.2344E-03         1.43065    -940.122E-03        -2.62200         1.02188    -531.353E-03        -2.62200     560.763E-03     34.1050E-03    -16.9455E-03    -17.1595E-03    -16.8052E-03     33.7508E-03    -16.9455E-03     8.48027E-03    -1.31391E+06    -3.01272E+06    -105.308E+06    -2.95314E+06    -105.295E+06    -1.38711E+06     1.13687E+06         23.5445
             521     7.86719E-03     41.2264E-03         1.71190    -742.973E-03        -3.04637     443.801E-03     525.126E-03        -3.04637         2.20395     34.1625E-03    -16.9918E-03    -17.1706E-03    -16.8721E-03     33.8639E-03    -16.9918E-03     7.80236E-03    -349.783E+03    -3.85583E+06    -123.854E+06    -3.86424E+06    -123.846E+06    -349.783E+03     776.255E+03         23.2449
             522     6.88340E-03     41.2185E-03         2.27803    -789.764E-03        -3.49691    -291.538E-03         1.77981        -3.49691         1.89527     34.2285E-03    -17.0350E-03    -17.1935E-03    -16.9486E-03     33.9836E-03    -17.0350E-03     7.06157E-03     237.390E+03    -5.65747E+06    -142.824E+06    -5.67952E+06    -142.802E+06     237.390E+03     545.261E+03         23.0451
             523     5.90033E-03     41.2118E-03         3.43585        -1.43025        -3.94445        -1.36385         3.36945        -3.94445     733.024E-03     34.2241E-03    -17.0626E-03    -17.1615E-03    -16.9739E-03     34.0377E-03    -17.0639E-03     6.16669E-03    -877.092E+03    -7.75208E+06    -159.234E+06    -7.79336E+06    -159.192E+06    -877.092E+03     1.35430E+06         22.8995
             524     4.91664E-03     41.2057E-03         5.30362        -2.85679        -4.33428        -2.62480         5.07163        -4.33428         2.12002     34.1959E-03    -17.0846E-03    -17.1113E-03    -16.9702E-03     34.0569E-03    -17.0867E-03     5.31298E-03    -2.06549E+06    -8.63204E+06    -170.500E+06    -8.65529E+06    -170.477E+06    -2.06549E+06     1.42784E+06         22.7892
             525     3.93339E-03     41.2011E-03         6.68567        -3.90845        -4.63063        -3.65744         6.43465        -4.63063         2.67016     34.2159E-03    -17.0935E-03    -17.1224E-03    -17.0073E-03     34.1185E-03    -17.1112E-03     4.44965E-03    -3.43143E+06    -8.89899E+06    -180.924E+06    -8.90479E+06    -180.918E+06    -3.43143E+06     951.960E+03         22.7058
             526     2.94988E-03     41.1968E-03         7.76467        -4.55467        -5.04874        -4.14731         7.18540        -4.87682         4.31481     34.2508E-03    -17.1001E-03    -17.1508E-03    -17.0724E-03     34.1894E-03    -17.1169E-03     3.50972E-03     -6.1054E+06    -9.88617E+06    -185.543E+06    -9.89012E+06    -185.540E+06     -6.1054E+06     812.095E+03         22.6450
             527     1.96654E-03     41.1938E-03         8.61587        -5.04250        -5.36179        -4.67600         7.99570        -5.10812         4.94385     34.2791E-03    -17.0817E-03    -17.1974E-03    -17.1686E-03     34.2503E-03    -17.0817E-03     2.35742E-03    -8.84450E+06    -11.6065E+06    -186.122E+06    -11.6130E+06    -186.116E+06    -8.84450E+06     762.093E+03         22.6042
             528     983.627E-06     41.1920E-03         9.66854        -2.86344        -8.56374        -7.50478         8.67520        -2.92906         7.35307     34.0885E-03    -16.9637E-03    -17.1249E-03    -17.1071E-03     34.0785E-03    -16.9714E-03     1.38737E-03    -10.4332E+06    -11.8765E+06    -185.805E+06    -11.6528E+06    -185.799E+06    -10.6629E+06     681.314E+03         22.5810
             529     16.7231E-03     40.7473E-03         2.05840    -560.935E-03        -4.28968         1.97839        -4.20967    -560.935E-03        -1.07510     201.416E-03    -17.2887E-03    -184.127E-03    -40.7794E-03     58.0680E-03    -17.2887E-03     372.619E-03     187.483E+06     115.722E+06    -8.73930E+06    -8.72795E+06     187.471E+06     115.722E+06     117.649E+03         62.1402
             530     15.7378E-03     40.3790E-03         2.14891    -811.065E-03        -4.09106         1.91262        -3.85477    -811.065E-03        -2.34503     122.302E-03    -16.8445E-03    -105.458E-03    -27.9822E-03     44.8267E-03    -16.8445E-03     214.269E-03     142.770E+06     23.1519E+06    -13.5615E+06    -13.1019E+06     142.731E+06     22.7321E+06    -1.44695E+06         53.8077
             531     14.7518E-03     40.2926E-03         2.16981        -1.03917        -3.82050         2.00595        -3.65665        -1.03917        -1.63893     46.7481E-03    -16.4938E-03    -30.2543E-03    -16.6602E-03     33.1540E-03    -16.4938E-03     55.4102E-03     104.589E+06    -13.6134E+06    -45.1480E+06    -13.9142E+06     104.546E+06    -44.8040E+06    -974.009E+03         44.2531
             532     13.7698E-03     40.2654E-03         2.27742        -1.27911        -3.61407         2.26044        -3.59708        -1.27911    -626.429E-03     35.2514E-03    -16.4057E-03    -18.8457E-03    -16.2878E-03     32.6935E-03    -16.4057E-03     22.7067E-03     67.0028E+06    -11.0754E+06    -63.0840E+06    -11.0520E+06     66.9794E+06    -63.0840E+06     683.890E+03         36.0608
             533     12.7847E-03     40.2455E-03         2.53111        -1.56830        -3.50251         2.50165        -3.47306        -1.56830    -828.322E-03     34.3444E-03    -16.5480E-03    -17.7965E-03    -16.4549E-03     33.0029E-03    -16.5480E-03     16.2850E-03     20.1842E+06    -7.88357E+06    -42.6560E+06    -6.97752E+06     19.2781E+06    -42.6560E+06     756.413E+03         30.3326
             534     11.8012E-03     40.2315E-03         2.49820        -1.91239        -3.05665         2.47005        -3.02850        -1.91239    -776.479E-03     33.9570E-03    -16.6873E-03    -17.2698E-03    -16.5757E-03     33.2630E-03    -16.6873E-03     11.7100E-03    -4.77632E+06    -12.9349E+06    -40.9190E+06    -5.16867E+06    -26.9920E+06    -26.4695E+06     513.533E+03         26.8912
             535     10.8178E-03     40.2208E-03         1.89639        -1.72645        -2.58978         1.88012        -2.01113        -2.28882    -115.747E-03     34.0246E-03    -16.8063E-03    -17.2183E-03    -16.6853E-03     33.4915E-03    -16.8063E-03     10.3885E-03    -3.97945E+06    -12.9602E+06    -60.2432E+06    -3.98284E+06    -60.2398E+06    -12.9602E+06    -17.9742E+03         25.0277
             536     9.83376E-03     40.2098E-03         1.17058    -882.243E-03        -2.66303     951.034E-03    -662.694E-03        -2.66303    -277.832E-03     34.1348E-03    -16.8926E-03    -17.2422E-03    -16.7647E-03     33.6573E-03    -16.8926E-03     9.80134E-03    -2.20813E+06    -5.13758E+06    -84.3120E+06    -3.03690E+06    -84.3062E+06    -4.31468E+06     101.181E+03         24.0635
             537     8.85073E-03     40.2008E-03         1.15426    -456.898E-03        -3.03089     277.095E-03     420.263E-03        -3.03089     374.413E-03     34.1090E-03    -16.9521E-03    -17.1569E-03    -16.8086E-03     33.7607E-03    -16.9521E-03     8.41191E-03    -719.749E+03    -2.35194E+06    -105.178E+06    -2.36328E+06    -105.167E+06    -719.749E+03     857.372E+03         23.5499
             538     7.86674E-03     40.1924E-03         1.88219    -727.292E-03        -3.42756    -65.0694E-03         1.21997        -3.42756         2.20468     34.1715E-03    -17.0003E-03    -17.1712E-03    -16.8746E-03     33.8749E-03    -17.0003E-03     7.77512E-03     819.898E+03    -2.76220E+06    -123.401E+06    -2.79044E+06    -123.373E+06     819.898E+03     1.38205E+06         23.2478
             539     6.88370E-03     40.1847E-03         2.60901    -925.791E-03        -3.88128    -503.610E-03         2.18683        -3.88128         1.98030     34.2314E-03    -17.0485E-03    -17.1830E-03    -16.9371E-03     33.9901E-03    -17.0530E-03     7.01114E-03     2.57604E+06    -4.58052E+06    -143.411E+06    -4.62545E+06    -143.366E+06     2.57604E+06     2.10807E+06         23.0470
             540     5.90000E-03     40.1779E-03         3.69875        -1.44893        -4.37227        -1.39757         3.64739        -4.37227     601.077E-03     34.1930E-03    -17.0760E-03    -17.1170E-03    -16.9250E-03     34.0067E-03    -17.0817E-03     6.16027E-03     610.803E+03    -6.32714E+06    -158.462E+06    -6.35100E+06    -158.438E+06     610.803E+03     1.47890E+06         22.9011
             541     4.91670E-03     40.1723E-03         5.65694        -2.88996        -4.82701        -2.77265         5.53964        -4.82701         1.54011     34.2306E-03    -17.1065E-03    -17.1240E-03    -16.9800E-03     34.0887E-03    -17.1086E-03     5.37381E-03    -1.18683E+06    -7.32866E+06    -169.729E+06    -7.32985E+06    -169.728E+06    -1.18683E+06     432.886E+03         22.7907
             542     3.93316E-03     40.1670E-03         7.52355        -4.39974        -5.14209        -4.27414         7.39796        -5.14209         2.01600     34.3160E-03    -17.1290E-03    -17.1870E-03    -17.0895E-03     34.2194E-03    -17.1299E-03     4.42258E-03    -2.36995E+06    -8.89449E+06    -180.893E+06    -8.89704E+06    -180.890E+06    -2.36995E+06     588.294E+03         22.7073
             543     2.95002E-03     40.1632E-03         8.82194        -5.12841        -5.69054        -5.27726         8.52649        -5.24624         3.33541     34.2873E-03    -17.1115E-03    -17.1758E-03    -17.1174E-03     34.2289E-03    -17.1115E-03     3.43516E-03    -6.37495E+06    -10.6032E+06    -185.219E+06    -10.6084E+06    -185.214E+06    -6.37495E+06     854.128E+03         22.6468
             544     1.96668E-03     40.1597E-03         9.13300        -5.13627        -5.95655        -5.55619         8.73264        -5.13627         4.66920     34.2152E-03    -17.0331E-03    -17.1821E-03    -17.1091E-03     34.1860E-03    -17.0768E-03     2.37205E-03    -9.82900E+06    -11.7191E+06    -185.652E+06    -11.5035E+06    -185.648E+06    -10.0480E+06     448.870E+03         22.6063
             545     983.486E-06     40.1581E-03         8.62494        -2.61582        -7.95459        -7.44624         8.11659        -2.61582         5.45618     34.1165E-03    -16.9610E-03    -17.1555E-03    -17.0948E-03     34.1071E-03    -17.0123E-03     1.28375E-03    -11.4649E+06    -12.3666E+06    -185.123E+06    -11.9182E+06    -185.122E+06    -11.9136E+06    -7.63574E+03         22.5833
             546     16.7252E-03     39.7151E-03         1.96864    -844.438E-03        -4.08910         1.90462        -4.02508    -844.438E-03    -911.599E-03     201.300E-03    -17.1885E-03    -184.111E-03    -41.1426E-03     58.3312E-03    -17.1885E-03     372.347E-03     187.099E+06     114.390E+06    -8.08301E+06    -8.07696E+06     187.093E+06     114.390E+06     465.531E+03         62.0292
             547     15.7384E-03     39.3464E-03         2.04605        -1.10360        -3.85456         1.83314        -3.64164        -1.10360        -2.15007     122.519E-03    -16.7771E-03    -105.741E-03    -26.9851E-03     43.7622E-03    -16.7771E-03     215.317E-03     143.147E+06     23.3690E+06    -13.4777E+06     -13.025E+06     143.114E+06     22.9492E+06    -806.770E+03         53.7764
             548     14.7541E-03     39.2589E-03         2.01593        -1.34328        -3.53025         1.86331        -3.37763        -1.34328        -1.33660     46.2185E-03    -16.4778E-03    -29.7407E-03    -16.4433E-03     32.9211E-03    -16.4778E-03     54.5312E-03     105.464E+06    -10.4678E+06    -45.4155E+06    -13.2606E+06     105.425E+06     -42.583E+06    -410.962E+03         44.2829
             549     13.7683E-03     39.2311E-03         2.04139        -1.59199        -3.23701         2.02979        -3.22541        -1.59199    -336.109E-03     35.1048E-03    -16.3874E-03    -18.7174E-03    -16.2043E-03     32.5916E-03    -16.3874E-03     22.3974E-03     65.4453E+06    -11.3827E+06    -63.7735E+06    -11.3595E+06     65.4222E+06    -63.7735E+06     127.784E+03         36.1188
             550     12.7855E-03     39.2121E-03         2.37349        -1.89080        -3.19880         2.34688        -3.17219        -1.89080    -753.236E-03     34.2887E-03    -16.5317E-03    -17.7570E-03    -16.4603E-03     32.9920E-03    -16.5317E-03     16.0339E-03     18.9629E+06    -8.30073E+06    -43.1150E+06    -8.03646E+06     18.6986E+06    -43.1150E+06    -182.378E+03         30.3874
             551     11.8016E-03     39.1973E-03         2.23045        -2.01207        -2.87064         2.20226        -2.61097        -2.24355    -724.410E-03     33.8757E-03    -16.6700E-03    -17.2056E-03    -16.5147E-03     33.1847E-03    -16.6700E-03     11.6568E-03    -3.91306E+06    -12.2241E+06    -40.9247E+06    -4.56435E+06    -26.1546E+06    -26.3429E+06     338.973E+03         26.9294
             552     10.8175E-03     39.1876E-03         1.39747        -1.31615        -2.68204         1.38043        -1.36760        -2.61355    -129.526E-03     33.9100E-03    -16.7988E-03    -17.1111E-03    -16.5797E-03     33.3785E-03    -16.7988E-03     10.3472E-03    -3.25719E+06    -12.3094E+06    -60.0370E+06    -3.26039E+06    -60.0338E+06    -12.3094E+06     252.140E+03         25.0497
             553     9.83423E-03     39.1757E-03     838.034E-03    -427.543E-03        -2.97078     490.939E-03    -80.4485E-03        -2.97078    -314.708E-03     34.0519E-03    -16.8914E-03    -17.1605E-03    -16.6782E-03     33.5696E-03    -16.8914E-03     9.83184E-03    -2.81141E+06    -4.82884E+06    -84.3897E+06    -3.18819E+06    -84.3866E+06    -4.45518E+06     21.1262E+03         24.0747
             554     8.85032E-03     39.1672E-03         1.28994    -478.555E-03        -3.32203    -155.740E-03     967.130E-03        -3.32203     397.498E-03     34.1236E-03    -16.9524E-03    -17.1712E-03    -16.8200E-03     33.7724E-03    -16.9524E-03     8.44909E-03    -1.59072E+06    -3.61669E+06    -105.361E+06    -3.61720E+06    -105.359E+06    -1.59184E+06     111.450E+03         23.5555
             555     7.86719E-03     39.1585E-03         2.36940        -1.12877        -3.68801    -676.587E-03         1.91721        -3.68801         2.28520     34.1749E-03    -17.0048E-03    -17.1702E-03    -16.8711E-03     33.8759E-03    -17.0048E-03     7.80663E-03     680.104E+03    -3.71827E+06    -124.593E+06    -3.75008E+06    -124.562E+06     680.104E+03     1.62938E+06         23.2509
             556     6.88339E-03     39.1509E-03         3.30161        -1.59288        -4.07780        -1.27366         2.98239        -4.07780         2.02687     34.1755E-03    -17.0601E-03    -17.1154E-03    -16.8705E-03     33.9352E-03    -17.0647E-03     6.98505E-03     3.66753E+06    -3.72722E+06    -143.194E+06    -3.77042E+06    -143.150E+06     3.66753E+06     2.34755E+06         23.0492
             557     5.90003E-03     39.1443E-03         4.30937        -2.12349        -4.47778        -2.08638         4.27226        -4.47778     700.684E-03     34.2033E-03    -17.0927E-03    -17.1106E-03    -16.9128E-03     34.0183E-03    -17.1055E-03     6.13978E-03     3.25829E+06    -4.63164E+06    -156.436E+06    -4.64467E+06    -156.423E+06     3.25829E+06     1.15521E+06         22.9030
             558     4.91645E-03     39.1382E-03         5.77931        -3.15185        -4.85663        -3.05645         5.68391        -4.85663         1.48704     34.2938E-03    -17.1212E-03    -17.1726E-03    -17.0195E-03     34.1490E-03    -17.1295E-03     5.43808E-03     112.472E+03    -5.91434E+06    -169.714E+06    -5.91671E+06    -169.712E+06     112.472E+03     568.297E+03         22.7927
             559     3.93332E-03     39.1332E-03         7.41078        -4.45189        -5.13505        -4.34005         7.29894        -5.13505         2.03541     34.3794E-03    -17.1372E-03    -17.2422E-03    -17.1421E-03     34.2793E-03    -17.1372E-03     4.50476E-03    -2.60981E+06    -7.81168E+06    -181.109E+06    -7.81725E+06    -181.103E+06    -2.60981E+06     840.521E+03         22.7095
             560     2.95002E-03     39.1290E-03         8.70394        -5.13726        -5.71143        -5.50993         8.54330        -5.17810         2.71053     34.3130E-03    -17.1145E-03    -17.1985E-03    -17.1392E-03     34.2537E-03    -17.1145E-03     3.46194E-03    -6.06655E+06    -10.0458E+06    -185.042E+06    -10.0524E+06    -185.035E+06    -6.06655E+06     891.452E+03         22.6490
             561     1.96678E-03     39.1263E-03         8.80110        -4.93504        -5.98270        -5.68314         8.50153        -4.93504         4.13259     34.1714E-03    -17.0479E-03    -17.1234E-03    -17.0381E-03     34.1414E-03    -17.1033E-03     2.40986E-03    -8.97766E+06    -11.4366E+06    -185.231E+06    -11.2248E+06    -185.224E+06    -9.19667E+06     832.541E+03         22.6085
             562     982.957E-06     39.1242E-03         7.68742        -2.46263        -7.31396        -7.03285         7.40632        -2.46263         3.96710     34.2062E-03    -17.0426E-03    -17.1636E-03    -17.0920E-03     34.1971E-03    -17.1051E-03     1.21869E-03    -11.8305E+06    -12.8408E+06    -185.194E+06    -12.5867E+06    -185.189E+06    -12.0895E+06     525.655E+03         22.5855
             563     16.7262E-03     38.6872E-03         2.04861        -1.11319        -4.00636         1.99763        -3.95537        -1.11319    -726.550E-03     199.810E-03    -17.1524E-03    -182.657E-03    -40.9195E-03     58.0719E-03    -17.1524E-03     369.428E-03     186.040E+06     112.308E+06    -9.36813E+06    -9.36739E+06     186.040E+06     112.308E+06    -216.886E+03         61.9220
             564     15.7391E-03     38.3114E-03         2.10164        -1.38985        -3.75778         1.91975        -3.57589        -1.38985        -1.97099     123.598E-03    -16.7519E-03    -106.846E-03    -27.1756E-03     43.9275E-03    -16.7519E-03     217.592E-03     143.708E+06     24.2054E+06    -13.7992E+06    -13.7969E+06     143.706E+06     24.2054E+06    -332.172E+03         53.7475
             565     14.7542E-03     38.2263E-03         2.01971        -1.65112        -3.37072         1.88678        -3.23778        -1.65112        -1.07559     46.5778E-03    -16.4597E-03    -30.1181E-03    -16.4535E-03     32.9132E-03    -16.4597E-03     55.4154E-03     106.393E+06    -8.07233E+06    -44.8916E+06    -12.9713E+06     106.390E+06    -39.9898E+06    -306.338E+03         44.3183
             566     13.7702E-03     38.1977E-03         1.82693        -1.91488        -2.84890         1.82083        -2.84280        -1.91488    -64.5923E-03     35.0475E-03    -16.3587E-03    -18.6888E-03    -16.0893E-03     32.4480E-03    -16.3587E-03     22.7747E-03     65.4475E+06    -9.47090E+06    -63.6703E+06    -9.45543E+06     65.4320E+06    -63.6703E+06    -629.726E+03         36.1801
             567     12.7854E-03     38.1777E-03         1.59660        -1.84530        -2.62134         1.56437        -2.23495        -2.19947    -584.757E-03     34.1204E-03    -16.5158E-03    -17.6046E-03    -16.2518E-03     32.7676E-03    -16.5158E-03     16.2699E-03     18.3922E+06    -6.90856E+06    -43.0817E+06    -6.65388E+06     18.1375E+06    -43.0817E+06    -653.706E+03         30.4437
             568     11.8016E-03     38.1644E-03         1.20365        -1.37517        -2.64125         1.16907        -1.48064        -2.50119    -547.673E-03     33.8721E-03    -16.6623E-03    -17.2099E-03    -16.4899E-03     33.1522E-03    -16.6623E-03     11.9221E-03    -4.44946E+06    -12.7792E+06    -40.3612E+06    -4.73631E+06    -26.1833E+06    -26.6704E+06     89.6291E+03         26.9684
             569     10.8180E-03     38.1532E-03     812.955E-03    -758.506E-03        -2.82037     786.003E-03    -731.554E-03        -2.82037     10.4661E-03     33.9050E-03    -16.7946E-03    -17.1104E-03    -16.5683E-03     33.3629E-03    -16.7946E-03     10.4560E-03    -3.11666E+06    -11.9860E+06    -59.8682E+06    -3.12222E+06    -59.8626E+06    -11.9860E+06     523.572E+03         25.0724
             570     9.83391E-03     38.1427E-03     712.076E-03    -273.379E-03        -3.15920     306.352E-03     132.345E-03        -3.15920    -134.783E-03     33.9877E-03    -16.8922E-03    -17.0956E-03    -16.6099E-03     33.5021E-03    -16.8922E-03     9.88221E-03    -2.70283E+06    -4.12037E+06    -83.9894E+06    -3.06246E+06    -83.9819E+06    -3.76818E+06     505.281E+03         24.0866
             571     8.85045E-03     38.1328E-03         1.54329    -709.547E-03        -3.50004    -507.161E-03         1.34090        -3.50004     606.933E-03     34.0737E-03    -16.9593E-03    -17.1144E-03    -16.7488E-03     33.7081E-03    -16.9593E-03     8.60505E-03    -1.57757E+06    -4.24216E+06    -105.746E+06    -4.24640E+06    -105.741E+06    -1.57869E+06     423.169E+03         23.5615
             572     7.86687E-03     38.1250E-03         3.01033        -1.79821        -3.81102        -1.50766         2.71979        -3.81102         2.24121     34.1780E-03    -17.0166E-03    -17.1613E-03    -16.8597E-03     33.8763E-03    -17.0166E-03     7.84131E-03     192.182E+03    -4.95471E+06    -125.869E+06    -4.96474E+06    -125.859E+06     192.182E+03     777.884E+03         23.2544
             573     6.88346E-03     38.1171E-03         4.02555        -2.46500        -4.08324        -2.28672         3.84727        -4.08324         1.79613     34.1799E-03    -17.0654E-03    -17.1145E-03    -16.8678E-03     33.9332E-03    -17.0654E-03     7.07799E-03     1.51873E+06    -4.45930E+06    -142.055E+06    -4.47448E+06    -142.040E+06     1.51873E+06     911.759E+03         23.0518
             574     5.89989E-03     38.1105E-03         4.74935        -2.86360        -4.33475        -2.84467         4.73042        -4.33475     646.074E-03     34.2553E-03    -17.1035E-03    -17.1518E-03    -16.9555E-03     34.0672E-03    -17.1117E-03     6.19126E-03     2.63114E+06    -4.11531E+06    -155.811E+06    -4.12409E+06    -155.802E+06     2.63114E+06     755.496E+03         22.9054
             575     4.91654E-03     38.1045E-03         5.73767        -3.55350        -4.56935        -3.44725         5.63142        -4.56935         1.63289     34.3171E-03    -17.1155E-03    -17.2016E-03    -17.0353E-03     34.1734E-03    -17.1382E-03     5.41927E-03     152.455E+03    -5.75686E+06    -170.009E+06    -5.77192E+06    -169.994E+06     152.455E+03     1.33460E+06         22.7951
             576     3.93308E-03     38.0991E-03         6.75440        -4.33633        -4.75048        -4.18135         6.59942        -4.75048         2.49920     34.3307E-03    -17.1228E-03    -17.2078E-03    -17.0757E-03     34.2284E-03    -17.1528E-03     4.55764E-03    -3.19844E+06    -7.85303E+06    -181.248E+06    -7.86948E+06    -181.232E+06    -3.19844E+06     1.48269E+06         22.7120
             577     2.94988E-03     38.0953E-03         7.43510        -4.67092        -5.05703        -4.73540         7.27903        -4.83648         2.66693     34.3435E-03    -17.1389E-03    -17.2046E-03    -17.1283E-03     34.2828E-03    -17.1545E-03     3.48876E-03    -5.20018E+06    -9.12855E+06    -184.478E+06    -9.13550E+06    -184.471E+06    -5.20018E+06     970.035E+03         22.6516
             578     1.96645E-03     38.0923E-03         7.81847        -4.73795        -5.32331        -4.90670         7.49809        -4.83417         3.96122     34.3012E-03    -17.1273E-03    -17.1740E-03    -17.1338E-03     34.2728E-03    -17.1390E-03     2.35326E-03    -7.82718E+06    -10.5767E+06    -184.930E+06    -10.5840E+06    -184.923E+06    -7.82718E+06     925.158E+03         22.6111
             579     983.601E-06     38.0905E-03         7.68004        -2.73043        -7.14599        -6.90215         7.43620        -2.73043         3.04037     34.2405E-03    -17.0402E-03    -17.2003E-03    -17.1716E-03     34.2306E-03    -17.0590E-03     1.33710E-03    -10.3262E+06    -12.4347E+06    -184.904E+06    -12.3998E+06    -184.898E+06    -10.3663E+06     627.677E+03         22.5878
             580     16.7243E-03     37.6512E-03         2.20031        -1.36516        -4.01494         2.15324        -3.96787        -1.36516    -659.270E-03     199.162E-03    -17.2012E-03    -181.961E-03    -40.6421E-03     57.8433E-03    -17.2012E-03     368.168E-03     186.588E+06     112.726E+06    -8.76243E+06    -8.76149E+06     186.587E+06     112.726E+06    -151.220E+03         61.8219
             581     15.7393E-03     37.2812E-03         2.21550        -1.66009        -3.73501         2.05458        -3.57410        -1.66009        -1.87396     124.029E-03    -16.7797E-03    -107.250E-03    -27.8895E-03     44.6692E-03    -16.7797E-03     218.215E-03     144.039E+06     24.0549E+06    -13.0711E+06    -13.0664E+06     144.034E+06     24.0549E+06    -156.451E+03         53.7184
             582     14.7532E-03     37.1904E-03         1.97956        -1.93948        -3.17582         1.86259        -3.05885        -1.93948        -1.15371     47.0745E-03    -16.4668E-03    -30.6077E-03    -16.5176E-03     32.9844E-03    -16.4668E-03     56.2439E-03     106.133E+06    -10.3717E+06    -44.1307E+06    -13.8327E+06     106.108E+06    -40.6448E+06    -855.787E+03         44.3535
             583     13.7698E-03     37.1650E-03         1.47392        -1.95826        -2.58546         1.46983        -2.33118        -2.20845    -127.987E-03     35.1376E-03    -16.3715E-03    -18.7661E-03    -16.1419E-03     32.5134E-03    -16.3715E-03     23.0623E-03     65.1023E+06    -10.8408E+06    -63.0116E+06    -10.8166E+06     65.0781E+06    -63.0116E+06    -1.15080E+06         36.2412
             584     12.7853E-03     37.1444E-03     744.282E-03        -1.26695        -2.48310     715.273E-03        -1.25360        -2.46745    -318.873E-03     34.1763E-03    -16.5259E-03    -17.6505E-03    -16.1725E-03     32.6984E-03    -16.5259E-03     16.9551E-03     17.9690E+06    -7.13286E+06    -42.9624E+06    -6.73954E+06     17.5757E+06    -42.9624E+06    -184.570E+03         30.5005
             585     11.8015E-03     37.1302E-03     351.239E-03    -591.495E-03        -2.71221     143.638E-03    -383.894E-03        -2.71221    -193.859E-03     33.9065E-03    -16.6752E-03    -17.2313E-03    -16.4874E-03     33.1626E-03    -16.6752E-03     12.1328E-03    -4.50335E+06    -12.7432E+06    -40.5650E+06    -4.67302E+06    -26.4636E+06    -26.6749E+06     210.364E+03         27.0083
             586     10.8176E-03     37.1200E-03     561.104E-03    -499.252E-03        -2.96955     29.5679E-03     32.2842E-03        -2.96955     357.219E-03     33.9821E-03    -16.8055E-03    -17.1767E-03    -16.6105E-03     33.4160E-03    -16.8055E-03     10.7003E-03    -3.56091E+06    -12.2911E+06    -59.9131E+06    -3.57180E+06    -59.9022E+06    -12.2911E+06     593.364E+03         25.0960
             587     9.83428E-03     37.1087E-03     986.542E-03    -590.304E-03        -3.25427    -308.473E-03     704.711E-03        -3.25427     120.268E-03     34.0507E-03    -16.9003E-03    -17.1504E-03    -16.6473E-03     33.5476E-03    -16.9003E-03     10.0644E-03    -2.80723E+06    -4.49340E+06    -83.5039E+06    -3.45935E+06    -83.4897E+06    -3.85538E+06     942.678E+03         24.0993
             588     8.85031E-03     37.0996E-03         1.99288        -1.26136        -3.53373        -1.15804         1.88956        -3.53373     658.784E-03     34.0478E-03    -16.9679E-03    -17.0799E-03    -16.6991E-03     33.6670E-03    -16.9679E-03     8.77948E-03    -1.75122E+06    -3.48792E+06    -105.972E+06    -3.42475E+06    -105.965E+06    -1.82108E+06     751.070E+03         23.5684
             589     7.86671E-03     37.0907E-03         3.48239        -2.45548        -3.76077        -2.22917         3.25608        -3.76077         2.26597     34.1633E-03    -17.0297E-03    -17.1335E-03    -16.8271E-03     33.8569E-03    -17.0297E-03     7.89152E-03    -453.659E+03    -4.15971E+06    -126.021E+06    -4.09244E+06    -126.018E+06    -523.521E+03     487.917E+03         23.2586
             590     6.88328E-03     37.0836E-03         4.48611        -3.23348        -3.91415        -3.08856         4.34120        -3.91415         1.68149     34.2429E-03    -17.0717E-03    -17.1713E-03    -16.9236E-03     33.9953E-03    -17.0717E-03     7.11071E-03    -729.283E+03    -5.08922E+06    -140.976E+06     -5.0928E+06    -140.972E+06    -729.283E+03    -163.042E+03         23.0550
             591     5.89978E-03     37.0764E-03         4.90493        -3.48194        -4.01639        -3.47347         4.89645        -4.01639     499.541E-03     34.3044E-03    -17.1145E-03    -17.1899E-03    -16.9925E-03     34.1070E-03    -17.1145E-03     6.34614E-03    -376.599E+03    -5.71061E+06    -157.234E+06    -5.71835E+06    -157.226E+06    -376.599E+03     284.480E+03         22.9084
             592     4.91658E-03     37.0705E-03         5.35981        -3.78758        -4.10408        -3.66422         5.23530        -4.10294         1.72488     34.3631E-03    -17.1380E-03    -17.2251E-03    -17.0648E-03     34.2172E-03    -17.1524E-03     5.45594E-03     710.209E+03    -6.38253E+06    -170.476E+06    -6.40208E+06    -170.457E+06     710.209E+03     1.70680E+06         22.7980
             593     3.93315E-03     37.0655E-03         5.67862        -3.95707        -4.20254        -3.74291         5.46331        -4.20139         2.81813     34.3234E-03    -17.1249E-03    -17.1984E-03    -17.0568E-03     34.2245E-03    -17.1677E-03     4.47976E-03    -1.84000E+06    -7.66458E+06    -179.630E+06    -7.68387E+06    -179.611E+06    -1.84000E+06     1.65070E+06         22.7148
             594     2.94960E-03     37.0611E-03         5.82625        -3.88390        -4.37212        -3.67806         5.62040        -4.37212         2.77322     34.3187E-03    -17.1159E-03    -17.2027E-03    -17.0803E-03     34.2603E-03    -17.1800E-03     3.41728E-03    -5.34979E+06    -9.36596E+06    -184.555E+06    -9.37386E+06    -184.547E+06    -5.34979E+06     886.651E+03         22.6544
             595     1.96666E-03     37.0583E-03         6.76272        -4.31082        -4.80816        -4.08749         6.35051        -4.61928         4.14628     34.3812E-03    -17.1401E-03    -17.2410E-03    -17.1768E-03     34.3527E-03    -17.1759E-03     2.37432E-03    -7.67955E+06    -10.5846E+06    -184.864E+06    -10.5886E+06    -184.860E+06    -7.67955E+06     579.233E+03         22.6140
             596     983.030E-06     37.0566E-03         7.52658        -2.76407        -7.07120        -6.73967         7.19506        -2.76407         2.01239     34.3111E-03    -17.0558E-03    -17.2554E-03    -17.2447E-03     34.3004E-03    -17.0558E-03     1.38423E-03    -9.78313E+06    -12.2478E+06    -184.319E+06    -11.8888E+06    -184.314E+06    -10.1477E+06    -186.137E+03         22.5910
             597     16.7205E-03     36.6124E-03         2.22600        -1.59834        -3.95693         2.18495        -3.91588        -1.59834    -607.990E-03     199.505E-03    -17.2907E-03    -182.214E-03    -40.4957E-03     57.7864E-03    -17.2907E-03     368.799E-03     187.880E+06     114.373E+06    -8.47369E+06    -8.47219E+06     187.878E+06     114.373E+06    -295.691E+03         61.7294
             598     15.7380E-03     36.2475E-03         2.17085        -1.89886        -3.58935         1.98045        -3.39894        -1.89886        -1.93186     123.044E-03    -16.8293E-03    -106.215E-03    -28.7389E-03     45.5682E-03    -16.8293E-03     215.541E-03     144.150E+06     23.2294E+06    -13.5141E+06    -13.5101E+06     144.146E+06     23.2294E+06    -216.519E+03         53.6945
             599     14.7543E-03     36.1572E-03         1.75222        -2.06955        -2.94253         1.59992        -2.68276        -2.17702        -1.37117     46.9606E-03    -16.4740E-03    -30.4866E-03    -16.4185E-03     32.8924E-03    -16.4740E-03     56.3474E-03     104.455E+06    -12.1259E+06    -45.2216E+06    -13.7362E+06     104.429E+06    -43.5855E+06    -859.343E+03         44.3924
             600     13.7687E-03     36.1312E-03     952.228E-03        -1.62244        -2.51970     948.910E-03        -1.70682        -2.43201    -138.523E-03     35.0900E-03    -16.3949E-03    -18.6952E-03    -16.0563E-03     32.4511E-03    -16.3949E-03     23.0239E-03     65.1498E+06    -10.5763E+06    -64.0313E+06    -10.5502E+06     65.1237E+06    -64.0313E+06    -1.10374E+06         36.3032
             601     12.7852E-03     36.1109E-03     270.614E-03    -728.487E-03        -2.66718     213.474E-03    -671.347E-03        -2.66718    -130.131E-03     34.3994E-03    -16.5482E-03    -17.8512E-03    -16.3799E-03     32.9281E-03    -16.5482E-03     17.0493E-03     18.1417E+06    -7.94102E+06    -43.8938E+06    -7.52615E+06     17.7268E+06    -43.8938E+06    -197.403E+03         30.5580
             602     11.8010E-03     36.0966E-03     354.816E-03    -544.740E-03        -2.88163    -449.879E-03     259.955E-03        -2.88163    -137.679E-03     33.9050E-03    -16.6955E-03    -17.2095E-03    -16.4483E-03     33.1438E-03    -16.6955E-03     12.2486E-03    -4.77606E+06    -13.2819E+06    -41.4713E+06    -5.18122E+06    -27.1086E+06    -27.2394E+06     143.016E+03         27.0494
             603     10.8175E-03     36.0861E-03         1.13171        -1.07764        -3.07670        -1.04346         1.09753        -3.07670     268.416E-03     34.0010E-03    -16.8259E-03    -17.1751E-03    -16.6014E-03     33.4273E-03    -16.8259E-03     10.7724E-03    -3.79240E+06    -13.3403E+06    -59.9959E+06    -3.80941E+06    -59.9789E+06    -13.3403E+06     408.648E+03         25.1207
             604     9.83353E-03     36.0751E-03         1.84152        -1.56219        -3.25596        -1.52455         1.80388        -3.25596     54.4497E-03     34.1402E-03    -16.9200E-03    -17.2202E-03    -16.7041E-03     33.6241E-03    -16.9200E-03     10.2047E-03    -2.53047E+06    -4.97598E+06    -83.1710E+06    -2.82886E+06    -83.1584E+06    -4.69016E+06     462.050E+03         24.1130
             605     8.85027E-03     36.0657E-03         2.60337        -2.10503        -3.41923        -2.02259         2.52093        -3.41923     669.556E-03     34.1549E-03    -16.9868E-03    -17.1681E-03    -16.7780E-03     33.7647E-03    -16.9868E-03     8.90573E-03    -1.64497E+06    -2.78167E+06    -106.044E+06    -2.42097E+06    -106.028E+06    -2.02166E+06     1.05176E+06         23.5761
             606     7.86658E-03     36.0572E-03         3.60183        -2.90897        -3.54967        -2.67520         3.36807        -3.54967         2.40682     34.1987E-03    -17.0459E-03    -17.1528E-03    -16.8383E-03     33.8842E-03    -17.0459E-03     7.99626E-03    -339.598E+03    -3.01106E+06    -124.714E+06    -2.95662E+06    -124.698E+06    -409.460E+03     904.653E+03         23.2635
             607     6.88307E-03     36.0493E-03         4.36394        -3.48488        -3.66891        -3.37052         4.20052        -3.61987         1.78208     34.2895E-03    -17.0992E-03    -17.1903E-03    -16.9417E-03     34.0409E-03    -17.0992E-03     7.12691E-03     737.150E+03    -4.40377E+06    -141.330E+06    -4.41673E+06    -141.317E+06     737.150E+03     473.172E+03         23.0588
             608     5.89982E-03     36.0429E-03         4.68420        -3.60321        -3.80742        -3.77474         4.67086        -3.62254     637.762E-03     34.3630E-03    -17.1357E-03    -17.2273E-03    -17.0288E-03     34.1645E-03    -17.1357E-03     6.37616E-03    -512.685E+03    -6.70977E+06    -158.226E+06    -6.72650E+06    -158.209E+06    -512.685E+03     963.142E+03         22.9118
             609     4.91621E-03     36.0364E-03         4.74144        -3.59786        -3.81531        -3.63979         4.57179        -3.60373         1.97015     34.4022E-03    -17.1617E-03    -17.2405E-03    -17.0927E-03     34.2544E-03    -17.1617E-03     5.49424E-03    -964.231E+03    -8.33121E+06    -170.526E+06    -8.33984E+06    -170.517E+06    -964.231E+03     932.402E+03         22.8013
             610     3.93318E-03     36.0315E-03         4.59818        -3.49423        -3.71846        -3.28241         4.31061        -3.64271         2.98955     34.3845E-03    -17.1616E-03    -17.2229E-03    -17.1125E-03     34.2869E-03    -17.1744E-03     4.45153E-03    -1.86573E+06    -8.93184E+06    -178.986E+06    -8.94080E+06    -178.977E+06    -1.86573E+06     935.661E+03         22.7179
             611     2.94998E-03     36.0274E-03         4.69075        -3.41517        -3.83095        -3.23298         4.45351        -3.77590         2.73310     34.3119E-03    -17.1276E-03    -17.1843E-03    -17.0760E-03     34.2522E-03    -17.1762E-03     3.47528E-03    -5.93950E+06    -9.97197E+06    -184.261E+06    -9.98039E+06    -184.253E+06    -5.93950E+06     937.792E+03         22.6574
             612     1.96613E-03     36.0243E-03         5.62045        -3.74555        -4.36870        -3.58305         5.04704        -3.95779         4.35951     34.3434E-03    -17.1236E-03    -17.2199E-03    -17.1290E-03     34.3136E-03    -17.1846E-03     2.37462E-03    -8.99132E+06    -11.1107E+06    -185.202E+06    -11.1178E+06    -185.195E+06    -8.99132E+06     165.823E+03         22.6171
             613     983.555E-06     36.0222E-03         6.19205        -2.29534        -6.33842        -5.80367         5.65730        -2.29534         1.60715     34.3674E-03    -17.1094E-03    -17.2579E-03    -17.1588E-03     34.3584E-03    -17.1996E-03     1.26943E-03    -10.1761E+06    -11.6873E+06    -183.630E+06    -11.1541E+06    -183.621E+06    -10.7177E+06    -571.414E+03         22.5945
             614     16.7198E-03     35.5732E-03         2.16913        -1.80427        -3.85219         2.13107        -3.81413        -1.80427    -569.986E-03     199.549E-03    -17.2898E-03    -182.259E-03    -40.2753E-03     57.5651E-03    -17.2898E-03     369.020E-03     187.982E+06     115.009E+06    -8.13148E+06    -8.12969E+06     187.980E+06     115.009E+06    -155.005E+03         61.6551
             615     15.7386E-03     35.2119E-03         1.90809        -2.09518        -3.25097         1.68218        -3.02505        -2.09518        -1.92569     121.553E-03    -16.8498E-03    -104.703E-03    -27.6827E-03     44.5325E-03    -16.8498E-03     213.041E-03     144.201E+06     22.6261E+06    -13.1740E+06    -12.8372E+06     144.198E+06     22.2922E+06    -667.800E+03         53.6816
             616     14.7530E-03     35.1253E-03         1.27993        -1.92302        -2.72598         1.08924        -2.10570        -2.35262        -1.27268     47.3894E-03    -16.5103E-03    -30.8792E-03    -16.6113E-03     33.1215E-03    -16.5103E-03     57.0833E-03     104.308E+06    -13.0588E+06    -45.1611E+06    -13.2724E+06     104.301E+06    -44.9414E+06    -425.574E+03         44.4310
             617     13.7687E-03     35.0969E-03     408.750E-03        -1.12222        -2.57981     402.317E-03        -1.11579        -2.57981     2.74338E-03     35.4325E-03    -16.4249E-03    -19.0076E-03    -16.3065E-03     32.7314E-03    -16.4249E-03     23.3741E-03     65.4847E+06    -10.6849E+06    -64.3706E+06    -10.6734E+06     65.4732E+06    -64.3706E+06    -330.430E+03         36.3660
             618     12.7846E-03     35.0772E-03     196.403E-03    -636.917E-03        -2.78585    -252.656E-03    -187.859E-03        -2.78585    -233.822E-03     34.3991E-03    -16.5691E-03    -17.8300E-03    -16.4073E-03     32.9764E-03    -16.5691E-03     16.7940E-03     18.2661E+06    -8.71083E+06    -44.7267E+06    -7.73613E+06     17.2914E+06    -44.7267E+06    -294.786E+03         30.6171
             619     11.8010E-03     35.0630E-03     888.206E-03        -1.09021        -2.96419        -1.04490     842.900E-03        -2.96419    -344.158E-03     33.9454E-03    -16.7174E-03    -17.2280E-03    -16.4635E-03     33.1809E-03    -16.7174E-03     12.2968E-03    -5.12048E+06    -14.0173E+06    -41.7572E+06    -5.43014E+06    -27.5686E+06    -27.8962E+06    -39.2885E+03         27.0917
             620     10.8170E-03     35.0524E-03         1.99142        -2.01720        -3.09330        -2.01281         1.98702        -3.09330    -5.45095E-03     34.0060E-03    -16.8461E-03    -17.1599E-03    -16.5760E-03     33.4221E-03    -16.8461E-03     10.8661E-03    -3.34497E+06    -14.3583E+06    -59.4664E+06    -3.36053E+06    -59.4508E+06    -14.3583E+06    -353.984E+03         25.1466
             621     9.83361E-03     35.0412E-03         2.76432        -2.60302        -3.23405        -2.66064         2.75481        -3.16692    -183.062E-03     34.2025E-03    -16.9457E-03    -17.2568E-03    -16.7401E-03     33.6858E-03    -16.9457E-03     10.2141E-03    -1.98560E+06    -6.38310E+06    -84.2704E+06    -2.70890E+06    -84.2552E+06    -5.67493E+06     227.396E+03         24.1277
             622     8.84973E-03     35.0319E-03         3.15531        -2.81952        -3.35992        -2.89125         3.07535        -3.20823     653.879E-03     34.2368E-03    -17.0153E-03    -17.2215E-03    -16.8359E-03     33.8512E-03    -17.0153E-03     8.86627E-03    -1.75942E+06    -3.65846E+06    -106.151E+06    -3.37757E+06    -106.125E+06    -2.06626E+06     1.44388E+06         23.5847
             623     7.86652E-03     35.0232E-03         3.53803        -3.08489        -3.42319        -3.01976         3.28678        -3.23706         2.51336     34.2682E-03    -17.0682E-03    -17.2000E-03    -16.8799E-03     33.9481E-03    -17.0682E-03     8.08161E-03    -537.985E+03    -3.70351E+06    -123.552E+06    -3.72499E+06    -123.530E+06    -537.985E+03     1.22684E+06         23.2691
             624     6.88297E-03     35.0157E-03         3.76163        -3.24528        -3.42600        -3.22595         3.56590        -3.24960         2.02586     34.3559E-03    -17.1281E-03    -17.2278E-03    -16.9721E-03     34.1002E-03    -17.1281E-03     7.22896E-03     1.87247E+06    -4.70859E+06    -142.020E+06    -4.73261E+06    -141.995E+06     1.87247E+06     1.52976E+06         23.0631
             625     5.89951E-03     35.0085E-03         3.87081        -3.22897        -3.49483        -3.46518         3.84116        -3.22897     901.524E-03     34.4470E-03    -17.1623E-03    -17.2846E-03    -17.0877E-03     34.2501E-03    -17.1623E-03     6.35687E-03     1.54457E+06    -6.38637E+06    -157.806E+06    -6.40761E+06    -157.785E+06     1.54457E+06     1.66242E+06         22.9155
             626     4.91652E-03     35.0028E-03         4.01925        -3.18140        -3.63414        -3.43777         3.82288        -3.18140         2.08387     34.4206E-03    -17.1596E-03    -17.2610E-03    -17.1002E-03     34.2743E-03    -17.1741E-03     5.47134E-03    -959.695E+03    -7.76388E+06    -169.938E+06    -7.76808E+06    -169.934E+06    -959.695E+03     586.537E+03         22.8046
             627     3.93298E-03     34.9972E-03         4.01103        -3.11117        -3.63897        -3.26171         3.66093        -3.13832         3.18657     34.3990E-03    -17.1733E-03    -17.2257E-03    -17.1121E-03     34.2999E-03    -17.1878E-03     4.49027E-03    -2.95077E+06    -9.18201E+06    -179.850E+06    -9.18373E+06    -179.849E+06    -2.95077E+06     132.745E+03         22.7210
             628     2.94961E-03     34.9938E-03         3.98958        -3.06706        -3.60536        -3.25343         3.66481        -3.09421         3.03113     34.4169E-03    -17.1815E-03    -17.2354E-03    -17.1739E-03     34.3555E-03    -17.1815E-03     3.52936E-03    -5.49492E+06    -10.1902E+06    -183.551E+06    -10.1951E+06    -183.546E+06    -5.49492E+06     623.419E+03         22.6603
             629     1.96690E-03     34.9900E-03         4.31481        -3.05975        -3.90115        -3.08251         3.49617        -3.05975         4.60152     34.3149E-03    -17.1133E-03    -17.2016E-03    -17.1136E-03     34.2846E-03    -17.1710E-03     2.39989E-03    -8.97311E+06    -11.2525E+06    -184.939E+06    -10.8767E+06    -184.932E+06    -9.35574E+06     257.601E+03         22.6200
             630     982.811E-06     34.9888E-03         4.20748        -1.50465        -5.30563        -4.59966         3.50151        -1.50465         2.21441     34.3454E-03    -17.0584E-03    -17.2870E-03    -17.1547E-03     34.3357E-03    -17.1810E-03     1.34121E-03    -11.4292E+06    -12.3204E+06    -184.700E+06    -11.7641E+06    -184.697E+06    -11.9888E+06    -396.954E+03         22.5973
             631     16.7268E-03     34.5401E-03         2.12511        -1.96688        -3.76569         2.08485        -3.72544        -1.96688    -583.014E-03     200.385E-03    -17.2564E-03    -183.129E-03    -39.9299E-03     57.1863E-03    -17.2564E-03     371.013E-03     187.229E+06     113.594E+06    -8.29787E+06    -8.29586E+06     187.227E+06     113.594E+06    -57.9682E+03         61.5888
             632     15.7361E-03     34.1808E-03         1.60172        -2.17654        -2.95231         1.36916        -2.65645        -2.23984        -1.77378     121.985E-03    -16.8708E-03    -105.115E-03    -26.8569E-03     43.7277E-03    -16.8708E-03     214.163E-03     143.879E+06     21.6615E+06    -13.9009E+06    -13.5645E+06     143.876E+06     21.3276E+06    -327.158E+03         53.6695
             633     14.7512E-03     34.0895E-03     674.639E-03        -1.56712        -2.55970     480.013E-03        -1.46460        -2.46759        -1.06880     47.4977E-03    -16.5654E-03    -30.9323E-03    -17.0534E-03     33.6188E-03    -16.5654E-03     56.3427E-03     105.404E+06    -12.9619E+06    -44.4746E+06    -14.7047E+06     105.396E+06    -42.7239E+06    -463.715E+03         44.4685
             634     13.7686E-03     34.0634E-03     59.6957E-03    -775.643E-03        -2.65573    -231.617E-03    -484.330E-03        -2.65573    -31.8134E-03     35.4276E-03    -16.4577E-03    -18.9699E-03    -16.4084E-03     32.8661E-03    -16.4577E-03     22.8554E-03     65.2973E+06    -12.0980E+06    -63.4809E+06    -12.0826E+06     65.2819E+06    -63.4809E+06    -333.674E+03         36.4296
             635     12.7846E-03     34.0433E-03     511.755E-03    -994.803E-03        -2.81655    -899.819E-03     416.771E-03        -2.81655    -372.213E-03     34.4010E-03    -16.5946E-03    -17.8063E-03    -16.3763E-03     32.9709E-03    -16.5946E-03     16.8326E-03     17.8574E+06    -8.59425E+06    -44.6289E+06    -7.54052E+06     16.8036E+06    -44.6289E+06    -115.305E+03         30.6767
             636     11.8005E-03     34.0293E-03         1.45275        -1.75585        -2.94010        -1.73438         1.43128        -2.94010    -300.556E-03     34.0124E-03    -16.7412E-03    -17.2712E-03    -16.5056E-03     33.2468E-03    -16.7412E-03     12.3112E-03    -4.35305E+06    -13.7793E+06    -41.0918E+06    -4.48370E+06    -26.8812E+06    -27.8593E+06    -393.565E+03         27.1347
             637     10.8169E-03     34.0187E-03         2.41739        -2.54260        -3.06625        -2.59610         2.41264        -3.00801     141.927E-03     34.0891E-03    -16.8722E-03    -17.2169E-03    -16.6327E-03     33.5049E-03    -16.8722E-03     10.8824E-03    -3.86141E+06    -14.2470E+06    -60.0510E+06    -3.88446E+06    -60.0279E+06    -14.2470E+06    -121.677E+03         25.1733
             638     9.83296E-03     34.0072E-03         3.17699        -2.95044        -3.37635        -3.30503         3.16566        -3.01043    -172.852E-03     34.2363E-03    -16.9723E-03    -17.2639E-03    -16.7472E-03     33.7195E-03    -16.9723E-03     10.2142E-03    -3.54905E+06    -6.50862E+06    -85.3082E+06    -4.40768E+06    -85.2825E+06    -5.67571E+06     904.674E+03         24.1431
             639     8.84991E-03     33.9979E-03         3.47514        -2.96079        -3.62460        -3.55352         3.40406        -2.96079     600.319E-03     34.2564E-03    -17.0379E-03    -17.2185E-03    -16.8364E-03     33.8743E-03    -17.0379E-03     8.82855E-03    -2.46576E+06    -4.40259E+06    -105.670E+06    -4.41563E+06    -105.657E+06    -2.46576E+06     939.092E+03         23.5936
             640     7.86604E-03     33.9895E-03         3.41631        -2.89847        -3.58588        -3.33057         3.16100        -2.89847         2.51846     34.3292E-03    -17.0949E-03    -17.2343E-03    -16.9162E-03     34.0111E-03    -17.0949E-03     8.06379E-03    -372.508E+03    -4.47781E+06    -124.099E+06    -4.49593E+06    -124.081E+06    -372.508E+03     1.33848E+06         23.2749
             641     6.88281E-03     33.9814E-03         3.10072        -2.85491        -3.26738        -3.04874         2.88209        -2.85491         2.13303     34.4247E-03    -17.1519E-03    -17.2728E-03    -17.0157E-03     34.1676E-03    -17.1519E-03     7.25967E-03     2.27381E+06    -5.30968E+06    -141.960E+06    -5.34192E+06    -141.928E+06     2.27381E+06     2.09246E+06         23.0674
             642     5.89961E-03     33.9748E-03         2.84488        -2.82823        -2.98458        -2.94936         2.80966        -2.82823     867.386E-03     34.4863E-03    -17.1822E-03    -17.3041E-03    -17.1015E-03     34.2837E-03    -17.1822E-03     6.45286E-03     2.24527E+06    -6.06694E+06    -156.083E+06    -6.08467E+06    -156.065E+06     2.24527E+06     1.25149E+06         22.9190
             643     4.91618E-03     33.9683E-03         3.15811        -2.78497        -3.28577        -3.09210         2.96444        -2.78497         1.88758     34.4855E-03    -17.1793E-03    -17.3062E-03    -17.1471E-03     34.3409E-03    -17.1938E-03     5.42534E-03    -21.3053E+03    -6.86740E+06    -169.482E+06    -6.86930E+06    -169.480E+06    -21.3053E+03     335.573E+03         22.8077
             644     3.93292E-03     33.9640E-03         3.44370        -2.68188        -3.62102        -3.24407         3.06676        -2.68188         3.17127     34.4356E-03    -17.1653E-03    -17.2702E-03    -17.1384E-03     34.3393E-03    -17.2008E-03     4.44189E-03    -2.82142E+06    -8.52033E+06    -180.183E+06    -8.52324E+06    -180.180E+06    -2.82142E+06     356.189E+03         22.7239
             645     2.94987E-03     33.9588E-03         3.20385        -2.52226        -3.49930        -3.04734         2.75190        -2.52226         3.31574     34.4036E-03    -17.1569E-03    -17.2467E-03    -17.1397E-03     34.3406E-03    -17.2009E-03     3.56266E-03    -5.83801E+06    -10.0293E+06    -183.785E+06    -10.0353E+06    -183.779E+06    -5.83801E+06     40.7656E+03         22.6630
             646     1.96625E-03     33.9569E-03         3.26510        -2.36525        -3.68249        -2.63740         2.22001        -2.36525         4.77368     34.4208E-03    -17.1313E-03    -17.2895E-03    -17.2028E-03     34.3896E-03    -17.1868E-03     2.47628E-03    -7.89705E+06    -11.7265E+06    -184.764E+06    -11.3515E+06    -184.757E+06    -8.27968E+06     328.086E+03         22.6223
             647     983.534E-06     33.9540E-03         2.76233    -819.249E-03        -4.72461        -3.93400         1.81096    -658.485E-03         2.92072     34.3248E-03    -17.0477E-03    -17.2771E-03    -17.2201E-03     34.3141E-03    -17.0940E-03     1.38146E-03    -10.9684E+06    -13.5505E+06    -185.950E+06    -12.8839E+06    -185.944E+06    -11.6404E+06     591.971E+03         22.5994
             648     16.7191E-03     33.5103E-03         1.99199        -2.07118        -3.59024         1.94196        -3.54022        -2.07118    -626.299E-03     200.854E-03    -17.3127E-03    -183.541E-03    -39.8008E-03     57.1135E-03    -17.3127E-03     371.932E-03     186.845E+06     113.891E+06    -9.17756E+06    -9.17510E+06     186.843E+06     113.891E+06    -5.48523E+03         61.5095
             649     15.7358E-03     33.1437E-03         1.29953        -2.13914        -2.74386         1.00441        -2.27525        -2.31264        -1.77278     122.348E-03    -16.9106E-03    -105.438E-03    -28.0553E-03     44.9659E-03    -16.9106E-03     214.021E-03     144.844E+06     23.5557E+06    -13.9389E+06    -13.9276E+06     144.833E+06     23.5557E+06    -314.364E+03         53.6514
             650     14.7539E-03     33.0564E-03     356.782E-03        -1.34338        -2.50528     9.39012E-03    -995.988E-03        -2.50528        -1.19417     46.8494E-03    -16.5683E-03    -30.2811E-03    -16.8749E-03     33.4432E-03    -16.5683E-03     55.3641E-03     105.982E+06    -9.80155E+06    -44.8218E+06    -12.8074E+06     105.965E+06    -41.7996E+06    -866.074E+03         44.5094
             651     13.7678E-03     33.0291E-03     156.596E-03    -916.503E-03        -2.65399    -827.962E-03     68.0539E-03        -2.65399    -221.319E-03     35.2426E-03    -16.4660E-03    -18.7766E-03    -16.1637E-03     32.6297E-03    -16.4660E-03     22.8898E-03     63.9728E+06    -9.76239E+06    -64.7915E+06    -9.74886E+06     63.9592E+06    -64.7915E+06    -296.024E+03         36.4933
             652     12.7840E-03     33.0098E-03     997.980E-03        -1.58465        -2.76399        -1.57185     985.179E-03        -2.76399    -344.018E-03     34.4707E-03    -16.6186E-03    -17.8522E-03    -16.4545E-03     33.0731E-03    -16.6186E-03     16.6754E-03     17.1405E+06    -7.57479E+06    -44.6784E+06    -7.23517E+06     16.8009E+06    -44.6784E+06    -300.901E+03         30.7359
             653     11.8003E-03     32.9953E-03         1.81031        -2.27012        -2.83209        -2.26211         1.80231        -2.83209    -164.054E-03     34.0986E-03    -16.7647E-03    -17.3339E-03    -16.5836E-03     33.3483E-03    -16.7647E-03     12.1939E-03    -5.23592E+06    -13.3968E+06    -41.3788E+06    -5.80566E+06    -26.7366E+06    -27.4694E+06     78.3258E+03         27.1780
             654     10.8166E-03     32.9849E-03         2.53921        -2.71895        -3.06564        -2.92424         2.52954        -2.85068     385.754E-03     34.1427E-03    -16.8953E-03    -17.2474E-03    -16.6816E-03     33.5769E-03    -16.8953E-03     10.7193E-03    -5.31760E+06    -13.3646E+06    -61.0652E+06    -5.36044E+06    -61.0223E+06    -13.3646E+06     1.04107E+06         25.2002
             655     9.83333E-03     32.9733E-03         3.13122        -2.81022        -3.52649        -3.51087         3.11560        -2.81022     34.1416E-03     34.2314E-03    -16.9890E-03    -17.2424E-03    -16.7306E-03     33.7195E-03    -16.9890E-03     10.1737E-03    -4.50728E+06    -5.90218E+06    -84.9403E+06    -5.15733E+06    -84.9225E+06    -5.26998E+06     880.978E+03         24.1584
             656     8.84923E-03     32.9641E-03         3.39084        -2.71300        -3.85374        -3.79338         3.33048        -2.71300     584.109E-03     34.2858E-03    -17.0531E-03    -17.2326E-03    -16.8549E-03     33.9080E-03    -17.0531E-03     8.77296E-03    -2.41879E+06    -4.90487E+06    -105.372E+06    -4.90646E+06    -105.370E+06    -2.41879E+06     367.561E+03         23.6024
             657     7.86628E-03     32.9553E-03         3.27281        -2.58668        -3.83412        -3.61200         3.05070        -2.58668         2.35955     34.3682E-03    -17.1114E-03    -17.2569E-03    -16.9470E-03     34.0583E-03    -17.1114E-03     7.96685E-03    -138.690E+03    -5.16464E+06    -124.932E+06    -5.18065E+06    -124.916E+06    -138.690E+03     1.20593E+06         23.2804
             658     6.88268E-03     32.9477E-03         2.66872        -2.47388        -3.30875        -3.12131         2.48128        -2.47388         1.91054     34.4263E-03    -17.1588E-03    -17.2675E-03    -17.0107E-03     34.1695E-03    -17.1588E-03     7.25653E-03     1.52344E+06    -4.83557E+06    -141.003E+06    -4.86306E+06    -140.975E+06     1.52344E+06     1.13367E+06         23.0712
             659     5.89930E-03     32.9404E-03         2.07098        -2.39814        -2.74291        -2.71948         2.04755        -2.39814     626.719E-03     34.4977E-03    -17.1984E-03    -17.2993E-03    -17.0991E-03     34.2975E-03    -17.1984E-03     6.40931E-03     2.87846E+06    -4.48713E+06    -155.262E+06    -4.50137E+06    -155.248E+06     2.87846E+06     360.749E+03         22.9219
             660     4.91612E-03     32.9347E-03         2.27277        -2.33194        -2.95760        -2.69912         2.01429        -2.33194         1.81972     34.5352E-03    -17.2196E-03    -17.3156E-03    -17.1739E-03     34.3935E-03    -17.2196E-03     5.37883E-03     1.54959E+06    -6.29005E+06    -169.831E+06    -6.29749E+06    -169.823E+06     1.54959E+06     719.080E+03         22.8102
             661     3.93318E-03     32.9292E-03         2.41274        -2.22849        -3.15789        -2.74359         1.99843        -2.22849         2.87902     34.4926E-03    -17.1958E-03    -17.2968E-03    -17.1801E-03     34.3969E-03    -17.2168E-03     4.43132E-03    -2.03656E+06    -7.97279E+06    -179.584E+06    -7.98065E+06    -179.577E+06    -2.03656E+06     758.299E+03         22.7261
             662     2.94947E-03     32.9260E-03         2.19032        -2.08510        -3.04025        -2.54829         1.69836        -2.08510         2.98916     34.4202E-03    -17.1693E-03    -17.2509E-03    -17.1451E-03     34.3585E-03    -17.2133E-03     3.52603E-03    -5.63074E+06    -9.35093E+06    -184.116E+06    -9.35634E+06    -184.110E+06    -5.63074E+06     45.6261E+03         22.6650
             663     1.96643E-03     32.9218E-03         2.37340        -1.92684        -3.36686        -2.24606         1.25260        -1.92684         4.44099     34.4360E-03    -17.1426E-03    -17.2934E-03    -17.1968E-03     34.4052E-03    -17.2084E-03     2.46290E-03    -8.02085E+06    -11.5855E+06    -185.592E+06    -11.3115E+06    -185.585E+06    -8.30208E+06     186.269E+03         22.6240
             664     983.315E-06     32.9207E-03         1.90379    -628.936E-03        -4.19400        -3.38440     773.635E-03    -308.383E-03         3.07147     34.3874E-03    -17.0887E-03    -17.2988E-03    -17.2318E-03     34.3771E-03    -17.1453E-03     1.31133E-03    -9.46760E+06    -12.4582E+06    -185.395E+06    -11.8954E+06    -185.388E+06    -10.0382E+06     257.654E+03         22.6008
             665     16.7199E-03     32.4727E-03         1.69927        -2.10226        -3.27878         1.63206        -3.21157        -2.10226    -686.754E-03     200.273E-03    -17.3066E-03    -182.966E-03    -39.7279E-03     57.0345E-03    -17.3066E-03     370.776E-03     187.176E+06     114.914E+06    -8.41700E+06    -8.41146E+06     187.171E+06     114.914E+06    -207.540E+03         61.4294
             666     15.7385E-03     32.1090E-03         1.01179        -2.09173        -2.49734     575.881E-03        -1.85734        -2.29582        -1.91812     121.790E-03    -16.9074E-03    -104.883E-03    -27.5448E-03     44.4522E-03    -16.9074E-03     213.385E-03     145.291E+06     24.6278E+06    -12.5178E+06    -11.7752E+06     145.276E+06     23.8993E+06    -808.865E+03         53.6331
             667     14.7512E-03     32.0233E-03     347.837E-03        -1.39181        -2.44877    -318.738E-03    -725.233E-03        -2.44877        -1.43405     47.0609E-03    -16.5713E-03    -30.4896E-03    -16.7243E-03     33.2956E-03    -16.5713E-03     55.9372E-03     105.673E+06    -10.3457E+06    -45.6396E+06    -11.6058E+06     105.661E+06    -44.3681E+06    -369.058E+03         44.5459
             668     13.7679E-03     31.9954E-03     386.619E-03        -1.25079        -2.56425        -1.20381     339.645E-03        -2.56425    -389.906E-03     35.4373E-03    -16.4830E-03    -18.9543E-03    -16.3288E-03     32.8118E-03    -16.4830E-03     23.0271E-03     63.8742E+06    -9.72938E+06    -65.3321E+06    -9.71808E+06     63.8629E+06    -65.3321E+06     259.670E+03         36.5549
             669     12.7840E-03     31.9757E-03         1.32284        -2.04016        -2.65289        -2.04329         1.30573        -2.63264    -463.948E-03     34.4907E-03    -16.6350E-03    -17.8557E-03    -16.4792E-03     33.1142E-03    -16.6350E-03     16.5350E-03     16.8362E+06    -8.57492E+06    -44.5892E+06    -8.13821E+06     16.3995E+06    -44.5892E+06     251.188E+03         30.7953
             670     11.8002E-03     31.9616E-03         1.99070        -2.51195        -2.79828        -2.64602         1.97943        -2.65295    -323.490E-03     34.1579E-03    -16.7794E-03    -17.3785E-03    -16.6402E-03     33.4196E-03    -16.7794E-03     12.1312E-03    -5.99502E+06    -13.6436E+06    -42.1611E+06    -6.72302E+06    -27.7275E+06    -27.3492E+06     926.962E+03         27.2211
             671     10.8168E-03     31.9507E-03         2.42700        -2.62191        -3.07928        -3.06238         2.41921        -2.63102     239.588E-03     34.1563E-03    -16.9053E-03    -17.2509E-03    -16.6868E-03     33.5921E-03    -16.9053E-03     10.7076E-03    -5.30011E+06    -13.1558E+06    -61.0113E+06    -5.33158E+06    -60.9799E+06    -13.1558E+06     1.10188E+06         25.2267
             672     9.83273E-03     31.9398E-03         2.73154        -2.56770        -3.40559        -3.38758         2.71354        -2.56770    -74.8464E-03     34.2749E-03    -16.9942E-03    -17.2807E-03    -16.7685E-03     33.7627E-03    -16.9942E-03     10.1938E-03    -4.02377E+06    -6.14816E+06    -84.0911E+06    -4.81996E+06    -84.0832E+06    -5.35990E+06     670.197E+03         24.1733
             673     8.84980E-03     31.9297E-03         2.94603        -2.45772        -3.70672        -3.65345         2.89277        -2.45772     409.085E-03     34.3120E-03    -17.0567E-03    -17.2553E-03    -16.8748E-03     33.9315E-03    -17.0567E-03     8.80453E-03    -2.85873E+06    -4.97957E+06    -105.712E+06    -4.98370E+06    -105.708E+06    -2.85873E+06     557.508E+03         23.6105
             674     7.86594E-03     31.9216E-03         2.92148        -2.30440        -3.82024        -3.65805         2.75928        -2.30440         1.98984     34.3784E-03    -17.1092E-03    -17.2692E-03    -16.9617E-03     34.0709E-03    -17.1092E-03     7.94029E-03    -1.25747E+06    -4.97290E+06    -125.017E+06    -4.98054E+06    -125.009E+06    -1.25747E+06     623.987E+03         23.2850
             675     6.88276E-03     31.9134E-03         2.37344        -2.13556        -3.41981        -3.28388         2.23751        -2.13556         1.62848     34.4333E-03    -17.1499E-03    -17.2835E-03    -17.0262E-03     34.1761E-03    -17.1499E-03     7.26418E-03    -358.117E+03    -5.47559E+06    -139.506E+06    -5.48555E+06    -139.496E+06    -358.117E+03    -44.3282E+03         23.0741
             676     5.89942E-03     31.9066E-03         1.62591        -1.98595        -2.78843        -2.76917         1.60665        -1.98595     548.830E-03     34.4631E-03    -17.1777E-03    -17.2854E-03    -17.0737E-03     34.2671E-03    -17.1935E-03     6.33312E-03     512.897E+03    -6.54388E+06    -156.193E+06    -6.54991E+06    -156.187E+06     512.897E+03    -156.921E+03         22.9240
             677     4.91617E-03     31.9001E-03         1.55405        -1.87115        -2.78864        -2.34276         1.10817        -1.87115         1.97730     34.4615E-03    -17.2008E-03    -17.2608E-03    -17.0887E-03     34.3206E-03    -17.2319E-03     5.37438E-03     640.999E+03    -7.12223E+06    -170.609E+06    -7.12967E+06    -170.601E+06     640.999E+03     691.121E+03         22.8118
             678     3.93252E-03     31.8958E-03         1.44448        -1.77765        -2.72907        -2.13123     846.633E-03        -1.77765         2.80566     34.5412E-03    -17.2282E-03    -17.3130E-03    -17.1996E-03     34.4431E-03    -17.2435E-03     4.47997E-03    -1.52894E+06    -8.04336E+06    -178.961E+06    -8.04935E+06    -178.955E+06    -1.52894E+06     542.954E+03         22.7275
             679     2.94993E-03     31.8910E-03         1.28145        -1.65866        -2.65644        -2.09691     721.915E-03        -1.65866         2.66317     34.5510E-03    -17.2221E-03    -17.3289E-03    -17.2682E-03     34.4904E-03    -17.2221E-03     3.50804E-03    -5.03677E+06    -9.54760E+06    -184.125E+06    -9.54961E+06    -184.123E+06    -5.03677E+06     417.865E+03         22.6663
             680     1.96654E-03     31.8887E-03         1.30417        -1.51810        -2.82738        -1.78264     259.424E-03        -1.51810         3.49117     34.3848E-03    -17.1457E-03    -17.2391E-03    -17.1536E-03     34.3544E-03    -17.2008E-03     2.43754E-03    -8.44251E+06    -10.3063E+06    -185.534E+06    -9.88351E+06    -185.530E+06    -8.86878E+06     53.1361E+03         22.6252
             681     982.884E-06     31.8858E-03         1.11433    -501.103E-03        -3.63370        -2.72337    -118.432E-03    -178.674E-03         3.13800     34.4103E-03    -17.1283E-03    -17.2821E-03    -17.2172E-03     34.4005E-03    -17.1834E-03     1.27705E-03    -9.72908E+06    -11.0637E+06    -185.231E+06    -10.3155E+06    -185.226E+06    -10.4822E+06    -536.027E+03         22.6017
             682     16.7268E-03     31.4418E-03         1.38829        -2.05037        -2.96504         1.31822        -2.89497        -2.05037    -620.688E-03     200.888E-03    -17.2447E-03    -183.644E-03    -39.9441E-03     57.1888E-03    -17.2447E-03     372.061E-03     188.087E+06     114.522E+06    -7.31493E+06    -7.30565E+06     188.077E+06     114.522E+06    -319.835E+03         61.3520
             683     15.7343E-03     31.0770E-03     783.191E-03        -2.04879        -2.26389     231.252E-03        -1.56706        -2.19369        -1.92864     121.878E-03    -16.8733E-03    -105.005E-03    -26.4569E-03     43.3302E-03    -16.8733E-03     214.294E-03     144.268E+06     21.6093E+06    -13.5723E+06    -12.8367E+06     144.261E+06     20.8808E+06    -875.758E+03         53.6166
             684     14.7517E-03     30.9876E-03     371.087E-03        -1.53533        -2.30578    -651.503E-03    -512.740E-03        -2.30578        -1.48674     46.9574E-03    -16.5881E-03    -30.3692E-03    -16.6588E-03     33.2469E-03    -16.5881E-03     55.4062E-03     104.190E+06    -13.4431E+06    -47.0989E+06    -14.7089E+06     104.187E+06    -45.8306E+06     240.125E+03         44.5812
             685     13.7679E-03     30.9619E-03     478.749E-03        -1.50909        -2.38614        -1.47869     448.345E-03        -2.38614    -421.029E-03     35.4572E-03    -16.4997E-03    -18.9575E-03    -16.4570E-03     32.9566E-03    -16.4997E-03     22.6240E-03     63.7848E+06    -11.9623E+06    -65.7634E+06    -11.9456E+06     63.7681E+06    -65.7634E+06     917.555E+03         36.6162
             686     12.7836E-03     30.9416E-03         1.33365        -2.16906        -2.53075        -2.25139         1.30579        -2.42056    -628.032E-03     34.5612E-03    -16.6424E-03    -17.9188E-03    -16.5153E-03     33.1577E-03    -16.6424E-03     16.6861E-03     16.9688E+06    -8.99325E+06    -45.1134E+06    -8.47601E+06     16.4515E+06    -45.1134E+06     1.04990E+06         30.8539
             687     11.8002E-03     30.9275E-03         1.92394        -2.40621        -2.83879        -2.81726         1.90242        -2.40621    -548.314E-03     34.1717E-03    -16.7836E-03    -17.3881E-03    -16.6612E-03     33.4448E-03    -16.7836E-03     12.0384E-03    -5.52662E+06    -14.0054E+06    -42.4664E+06    -6.01256E+06    -28.0023E+06    -27.9836E+06     800.842E+03         27.2635
             688     10.8162E-03     30.9171E-03         2.16182        -2.35232        -3.09233        -3.08902         2.15851        -2.35232    -63.8584E-03     34.2057E-03    -16.9039E-03    -17.3018E-03    -16.7464E-03     33.6502E-03    -16.9039E-03     10.6349E-03    -4.62596E+06    -14.1215E+06    -60.5049E+06    -4.63439E+06    -60.4965E+06    -14.1215E+06     661.190E+03         25.2524
             689     9.83328E-03     30.9055E-03         2.23010        -2.27019        -3.21537        -3.17716         2.19188        -2.27019    -524.403E-03     34.3196E-03    -16.9906E-03    -17.3290E-03    -16.8265E-03     33.8171E-03    -16.9906E-03     10.1052E-03    -3.76298E+06    -6.19915E+06    -83.5395E+06    -4.20623E+06    -83.5323E+06    -5.76313E+06     757.542E+03         24.1871
             690     8.84919E-03     30.8961E-03         2.22574        -2.16195        -3.30400        -3.23788         2.15962        -2.16195    -34.5099E-03     34.3135E-03    -17.0517E-03    -17.2618E-03    -16.8893E-03     33.9411E-03    -17.0517E-03     8.71267E-03    -2.93863E+06    -4.27667E+06    -105.683E+06    -4.28262E+06    -105.677E+06    -2.93863E+06     730.655E+03         23.6175
             691     7.86623E-03     30.8872E-03         2.16909        -2.02217        -3.37835        -3.26006         2.05080        -2.02217         1.54465     34.3784E-03    -17.1024E-03    -17.2759E-03    -16.9736E-03     34.0760E-03    -17.1024E-03     7.87274E-03    -1.45388E+06    -4.83331E+06    -124.840E+06    -4.83711E+06    -124.837E+06    -1.45388E+06     419.003E+03         23.2885
             692     6.88268E-03     30.8797E-03         1.89023        -1.84943        -3.26095        -3.15455         1.78382        -1.84943         1.38212     34.4267E-03    -17.1396E-03    -17.2871E-03    -17.0349E-03     34.1745E-03    -17.1396E-03     7.19287E-03    -714.677E+03    -5.61922E+06    -138.867E+06    -5.62142E+06    -138.865E+06    -714.677E+03     112.102E+03         23.0758
             693     5.89949E-03     30.8721E-03         1.24884        -1.66238        -2.78484        -2.76633         1.23034        -1.66238     459.816E-03     34.3977E-03    -17.1579E-03    -17.2398E-03    -17.0192E-03     34.2060E-03    -17.1868E-03     6.25549E-03     18.4673E+03    -6.76831E+06    -156.408E+06    -6.76866E+06    -156.408E+06     18.4673E+03    -8.47755E+03         22.9249
             694     4.91592E-03     30.8669E-03         1.12752        -1.50080        -2.78971        -2.17987     517.685E-03        -1.50080         2.05572     34.4291E-03    -17.1865E-03    -17.2426E-03    -17.0592E-03     34.2899E-03    -17.2307E-03     5.33944E-03    -418.211E+03    -7.99149E+06    -171.102E+06    -7.99180E+06    -171.102E+06    -418.211E+03    -31.3323E+03         22.8122
             695     3.93291E-03     30.8609E-03     872.054E-03        -1.37891        -2.61924        -1.79772     50.5403E-03        -1.37891         2.91200     34.5155E-03    -17.2163E-03    -17.2992E-03    -17.1689E-03     34.4175E-03    -17.2485E-03     4.47536E-03    -2.78464E+06    -9.22038E+06    -178.990E+06    -9.22080E+06    -178.990E+06    -2.78464E+06     13.7477E+03         22.7278
             696     2.94937E-03     30.8574E-03     692.625E-03        -1.24446        -2.54983        -1.72815    -129.051E-03        -1.24446         2.72753     34.5463E-03    -17.2238E-03    -17.3225E-03    -17.2462E-03     34.4869E-03    -17.2407E-03     3.46373E-03    -5.81742E+06    -10.1072E+06    -184.482E+06    -10.1093E+06    -184.480E+06    -5.81742E+06     113.599E+03         22.6666
             697     1.96646E-03     30.8540E-03     418.905E-03        -1.11829        -2.41136        -1.44278    -598.689E-03        -1.06928         2.57917     34.4872E-03    -17.1907E-03    -17.2965E-03    -17.2544E-03     34.4575E-03    -17.2031E-03     2.41876E-03    -8.73701E+06    -11.2163E+06    -184.775E+06    -11.0819E+06    -184.765E+06    -8.88205E+06     319.528E+03         22.6257
             698     983.524E-06     30.8528E-03     657.865E-03    -220.319E-03        -3.55726        -2.22002        -1.16973     270.038E-03         3.42451     34.3471E-03    -17.1290E-03    -17.2181E-03    -17.1952E-03     34.3366E-03    -17.1414E-03     1.36431E-03    -11.8800E+06    -13.6639E+06    -186.481E+06    -13.2012E+06    -186.471E+06    -12.3519E+06     354.794E+03         22.6020
             699     16.7200E-03     30.4092E-03         1.26225        -1.91657        -2.88114         1.19411        -2.81299        -1.91657    -426.486E-03     200.386E-03    -17.2449E-03    -183.141E-03    -40.0178E-03     57.2627E-03    -17.2449E-03     370.981E-03     188.339E+06     114.398E+06    -8.49203E+06    -8.48291E+06     188.330E+06     114.398E+06    -704.840E+03         61.2706
             700     15.7397E-03     30.0442E-03     619.226E-03        -1.94505        -2.15395     61.4455E-03        -1.52361        -2.01760        -1.79807     122.158E-03    -16.8567E-03    -105.301E-03    -26.7567E-03     43.6134E-03    -16.8567E-03     214.915E-03     144.640E+06     21.5960E+06    -14.7171E+06    -13.8352E+06     144.622E+06     20.7320E+06    -15.9603E+03         53.6013
             701     14.7519E-03     29.9542E-03     305.471E-03        -1.64180        -2.09299    -909.558E-03    -426.773E-03        -2.09299        -1.35635     47.0595E-03    -16.5735E-03    -30.4860E-03    -16.2983E-03     32.8718E-03    -16.5735E-03     56.2512E-03     103.238E+06    -13.5262E+06    -47.6879E+06    -14.7702E+06     103.214E+06    -46.4197E+06     1.32836E+06         44.6210
             702     13.7671E-03     29.9276E-03     427.615E-03        -1.67031        -2.13993        -1.65705     414.351E-03        -2.13993    -274.176E-03     35.3572E-03    -16.5019E-03    -18.8554E-03    -16.3733E-03     32.8752E-03    -16.5019E-03     22.4334E-03     62.7918E+06    -12.7767E+06    -66.4424E+06    -12.7542E+06     62.7692E+06    -66.4424E+06     902.489E+03         36.6778
             703     12.7840E-03     29.9077E-03         1.08038        -2.05646        -2.36597        -2.25820         1.06359        -2.14745    -413.853E-03     34.6031E-03    -16.6456E-03    -17.9575E-03    -16.6079E-03     33.2535E-03    -16.6456E-03     16.4127E-03     16.7497E+06    -9.13586E+06    -45.0403E+06    -8.91482E+06     16.5287E+06    -45.0403E+06     347.557E+03         30.9116
             704     11.7999E-03     29.8936E-03         1.58081        -2.11214        -2.77120        -2.75450         1.56411        -2.11214    -491.207E-03     34.1797E-03    -16.7801E-03    -17.3997E-03    -16.7005E-03     33.4806E-03    -16.7801E-03     11.7756E-03    -5.78106E+06    -13.6130E+06    -42.1497E+06    -6.03282E+06    -27.6298E+06    -27.8811E+06     498.903E+03         27.3048
             705     10.8169E-03     29.8829E-03         1.79039        -2.03701        -3.02580        -3.02186         1.78645        -2.03701    -214.658E-03     34.2191E-03    -16.8945E-03    -17.3246E-03    -16.7899E-03     33.6844E-03    -16.8945E-03     10.4305E-03    -4.69645E+06    -14.2634E+06    -60.0764E+06    -4.70554E+06    -60.0673E+06    -14.2634E+06     685.540E+03         25.2769
             706     9.83279E-03     29.8717E-03         1.72075        -1.93746        -3.03476        -2.96388         1.64988        -1.93746    -810.572E-03     34.3243E-03    -16.9797E-03    -17.3446E-03    -16.8528E-03     33.8324E-03    -16.9797E-03     9.98222E-03    -3.16598E+06    -6.28088E+06    -83.3534E+06    -4.09659E+06    -83.3468E+06    -5.35687E+06     716.583E+03         24.1997
             707     8.85004E-03     29.8618E-03         1.43037        -1.83276        -2.83945        -2.73572         1.32665        -1.83276    -295.933E-03     34.2933E-03    -17.0383E-03    -17.2550E-03    -16.8962E-03     33.9345E-03    -17.0383E-03     8.55863E-03    -2.33424E+06    -4.29267E+06    -105.330E+06    -4.29939E+06    -105.323E+06    -2.33424E+06     770.401E+03         23.6233
             708     7.86607E-03     29.8537E-03         1.27203        -1.71991        -2.78884        -2.67863         1.16182        -1.71991         1.27793     34.3449E-03    -17.0863E-03    -17.2585E-03    -16.9566E-03     34.0429E-03    -17.0863E-03     7.86368E-03    -968.253E+03    -4.67711E+06    -124.298E+06    -4.68250E+06    -124.293E+06    -968.253E+03     567.108E+03         23.2907
             709     6.88305E-03     29.8451E-03         1.13053        -1.57750        -2.78400        -2.69990         1.04643        -1.57750     960.548E-03     34.3586E-03    -17.1257E-03    -17.2329E-03    -16.9867E-03     34.1124E-03    -17.1257E-03     7.09442E-03    -240.338E+03    -4.94908E+06    -138.724E+06    -4.95104E+06    -138.722E+06    -240.338E+03     158.676E+03         23.0763
             710     5.89940E-03     29.8388E-03     721.569E-03        -1.40481        -2.53191        -2.49294     682.593E-03        -1.40481    -119.279E-03     34.3733E-03    -17.1638E-03    -17.2095E-03    -17.0104E-03     34.1872E-03    -17.1768E-03     6.16775E-03     866.484E+03    -5.36487E+06    -156.549E+06    -5.36515E+06    -156.548E+06     866.484E+03     17.0521E+03         22.9245
             711     4.91623E-03     29.8321E-03     833.707E-03        -1.21911        -2.80313        -2.15423     184.808E-03        -1.21911         1.68652     34.4441E-03    -17.2028E-03    -17.2413E-03    -17.0895E-03     34.3054E-03    -17.2159E-03     5.33041E-03     85.6202E+03    -6.94050E+06    -171.500E+06    -6.94181E+06    -171.499E+06     85.6202E+03     198.547E+03         22.8114
             712     3.93274E-03     29.8276E-03     389.964E-03        -1.05581        -2.49874        -1.70693    -416.739E-03        -1.04093         2.56611     34.4430E-03    -17.2063E-03    -17.2367E-03    -17.1217E-03     34.3465E-03    -17.2248E-03     4.43520E-03    -4.01348E+06    -8.75220E+06    -178.761E+06    -8.75343E+06    -178.760E+06    -4.01348E+06     78.9489E+03         22.7268
             713     2.94967E-03     29.8227E-03     287.417E-03    -903.223E-03        -2.52435        -1.29646    -955.357E-03    -888.337E-03         2.66097     34.4668E-03    -17.2132E-03    -17.2536E-03    -17.1687E-03     34.4097E-03    -17.2410E-03     3.38691E-03    -6.28945E+06    -10.5959E+06    -185.076E+06    -10.5967E+06    -185.075E+06    -6.28945E+06    -168.398E+03         22.6654
             714     1.96630E-03     29.8204E-03     156.854E-03    -820.436E-03        -2.47946        -1.05908        -1.34449    -739.472E-03         2.14678     34.4840E-03    -17.1908E-03    -17.2932E-03    -17.2261E-03     34.4562E-03    -17.2301E-03     2.33691E-03    -9.34330E+06    -13.1561E+06    -185.893E+06    -13.0174E+06    -185.882E+06    -9.49272E+06     816.751E+03         22.6245
             715     983.180E-06     29.8178E-03     633.388E-03     191.164E-03        -3.99408        -1.86941        -1.85095     550.831E-03         3.89750     34.4141E-03    -17.1165E-03    -17.2976E-03    -17.2570E-03     34.4035E-03    -17.1464E-03     1.40294E-03    -12.5926E+06    -14.2062E+06    -185.570E+06    -14.0684E+06    -185.559E+06    -12.7420E+06     606.375E+03         22.6010
             716     16.7251E-03     29.3738E-03         1.32909        -1.70100        -3.09877         1.27034        -3.04002        -1.70100    -312.541E-03     199.719E-03    -17.2422E-03    -182.477E-03    -39.6078E-03     56.8501E-03    -17.2422E-03     369.817E-03     187.697E+06     113.240E+06    -8.90766E+06    -8.90276E+06     187.692E+06     113.240E+06    -257.600E+03         61.1935
             717     15.7356E-03     29.0119E-03     578.138E-03        -1.74534        -2.25546     133.454E-03        -1.78922        -1.76689        -1.65267     122.723E-03    -16.8704E-03    -105.853E-03    -26.8625E-03     43.7329E-03    -16.8704E-03     215.868E-03     143.742E+06     21.9098E+06    -15.7751E+06    -14.8875E+06     143.719E+06     21.0458E+06     1.12786E+06         53.5836
             718     14.7517E-03     28.9209E-03     83.1949E-03        -1.54101        -1.91619    -870.335E-03    -686.155E-03        -1.81751        -1.21470     47.5542E-03    -16.5796E-03    -30.9746E-03    -16.6751E-03     33.2546E-03    -16.5796E-03     57.0043E-03     104.036E+06    -12.8085E+06    -47.2354E+06    -15.3230E+06     104.000E+06    -44.6849E+06     1.34788E+06         44.6574
             719     13.7681E-03     28.8932E-03     123.166E-03        -1.57250        -1.88755        -1.60553     113.920E-03        -1.84527    -163.765E-03     35.3325E-03    -16.4905E-03    -18.8420E-03    -16.3612E-03     32.8517E-03    -16.4905E-03     22.3805E-03     63.9048E+06    -11.4180E+06    -65.1555E+06    -11.4021E+06     63.8888E+06    -65.1555E+06    -25.0726E+03         36.7389
             720     12.7837E-03     28.8739E-03     683.022E-03        -1.81806        -2.16670        -2.13849     672.638E-03        -1.83589    -270.353E-03     34.5458E-03    -16.6299E-03    -17.9159E-03    -16.6107E-03     33.2406E-03    -16.6299E-03     16.1382E-03     16.7088E+06    -8.18727E+06    -44.9420E+06    -7.66026E+06     16.1817E+06    -44.9420E+06     140.335E+03         30.9684
             721     11.8007E-03     28.8591E-03         1.06663        -1.78837        -2.55190        -2.53570         1.05042        -1.78837    -454.922E-03     34.1565E-03    -16.7667E-03    -17.3898E-03    -16.7006E-03     33.4672E-03    -16.7667E-03     11.7057E-03    -5.72172E+06    -13.3185E+06    -42.0022E+06    -5.93637E+06    -27.7578E+06    -27.3482E+06     576.734E+03         27.3447
             722     10.8165E-03     28.8494E-03         1.14190        -1.70962        -2.68073        -2.67393         1.13511        -1.70962    -273.599E-03     34.2108E-03    -16.8772E-03    -17.3336E-03    -16.8014E-03     33.6787E-03    -16.8772E-03     10.4090E-03    -4.58256E+06    -13.9584E+06    -59.9350E+06    -4.59256E+06    -59.9250E+06    -13.9584E+06     713.618E+03         25.3000
             723     9.83372E-03     28.8371E-03         1.02865        -1.61522        -2.64977        -2.56003     938.908E-03        -1.61522    -839.551E-03     34.2758E-03    -16.9576E-03    -17.3182E-03    -16.8317E-03     33.7892E-03    -16.9576E-03     9.92642E-03    -3.08786E+06    -6.53511E+06    -83.5351E+06    -3.86448E+06    -83.5272E+06    -5.76634E+06     742.577E+03         24.2110
             724     8.84956E-03     28.8284E-03     835.115E-03        -1.51501        -2.54917        -2.41614     702.091E-03        -1.51501    -260.219E-03     34.2606E-03    -17.0154E-03    -17.2452E-03    -16.8812E-03     33.8966E-03    -17.0154E-03     8.62040E-03    -2.52866E+06    -4.15919E+06    -104.974E+06    -4.00516E+06    -104.964E+06    -2.69255E+06     960.163E+03         23.6277
             725     7.86667E-03     28.8191E-03     614.780E-03        -1.40525        -2.43651        -2.31872     496.989E-03        -1.40525         1.15941     34.2975E-03    -17.0602E-03    -17.2373E-03    -16.9326E-03     33.9928E-03    -17.0602E-03     7.89174E-03    -1.84464E+06    -4.49710E+06    -123.386E+06    -4.50500E+06    -123.379E+06    -1.84464E+06     599.539E+03         23.2916
             726     6.88286E-03     28.8118E-03     396.495E-03        -1.27550        -2.34178        -2.25828     312.996E-03        -1.27550     499.338E-03     34.2989E-03    -17.1015E-03    -17.1974E-03    -16.9518E-03     34.0533E-03    -17.1015E-03     7.08215E-03    -1.39095E+06    -5.10594E+06    -138.691E+06    -5.10609E+06    -138.690E+06    -1.39095E+06    -21.2336E+03         23.0755
             727     5.89969E-03     28.8042E-03     275.177E-03        -1.11505        -2.36819        -2.17129     78.2795E-03        -1.11505        -1.01894     34.3758E-03    -17.1451E-03    -17.2307E-03    -17.0446E-03     34.1897E-03    -17.1451E-03     6.16637E-03    -1.40474E+06    -6.24549E+06    -157.005E+06    -6.24623E+06    -157.004E+06    -1.40474E+06     153.498E+03         22.9228
             728     4.91622E-03     28.7987E-03     456.410E-03    -922.359E-03        -2.72542        -1.94914    -319.875E-03    -922.359E-03     793.505E-03     34.3975E-03    -17.1781E-03    -17.2194E-03    -17.0812E-03     34.2610E-03    -17.1799E-03     5.28634E-03    -1.54379E+06    -7.40181E+06    -171.716E+06    -7.40422E+06    -171.714E+06    -1.54379E+06     496.091E+03         22.8092
             729     3.93306E-03     28.7929E-03    -4.88419E-03    -838.289E-03        -2.33294        -1.47650    -975.700E-03    -723.920E-03         1.68187     34.3787E-03    -17.1838E-03    -17.1949E-03    -17.0889E-03     34.2838E-03    -17.1949E-03     4.39104E-03    -3.91737E+06    -9.01349E+06    -178.569E+06    -9.01793E+06    -178.564E+06    -3.91737E+06      686.99E+03         22.7242
             730     2.94958E-03     28.7894E-03     244.333E-03    -696.508E-03        -2.71102    -860.680E-03        -1.72038    -582.138E-03         2.30959     34.3838E-03    -17.1712E-03    -17.2126E-03    -17.1134E-03     34.3261E-03    -17.2126E-03     3.41867E-03    -6.94883E+06    -10.9451E+06    -185.422E+06    -10.8717E+06    -185.415E+06    -7.02912E+06     816.996E+03         22.6625
             731     1.96648E-03     28.7855E-03     507.903E-03    -607.689E-03        -3.06322    -412.499E-03        -2.17477    -575.738E-03         1.87035     34.4087E-03    -17.1611E-03    -17.2476E-03    -17.1576E-03     34.3806E-03    -17.2231E-03     2.31953E-03    -10.1120E+06    -12.3354E+06    -186.470E+06    -12.1203E+06    -186.456E+06    -10.3417E+06     292.751E+03         22.6212
             732     983.014E-06     28.7848E-03         1.49898     219.864E-03        -4.86842        -1.48473        -1.91666     251.815E-03         4.75610     34.4498E-03    -17.1403E-03    -17.3096E-03    -17.2529E-03     34.4412E-03    -17.1882E-03     1.24465E-03    -12.0542E+06    -12.9344E+06    -185.116E+06    -12.6251E+06    -185.093E+06    -12.3860E+06     195.926E+03         22.5977
             733     16.7224E-03     28.3461E-03         1.45550        -1.40052        -3.47891         1.41779        -3.44120        -1.40052    -311.256E-03     200.759E-03    -17.3011E-03    -183.458E-03    -39.6311E-03     56.9322E-03    -17.3011E-03     371.838E-03     186.652E+06     112.637E+06    -10.0129E+06    -9.99122E+06     186.631E+06     112.637E+06     767.533E+03         61.1111
             734     15.7364E-03     27.9766E-03     726.870E-03        -1.43362        -2.65056     411.525E-03        -2.33521        -1.43362        -1.61173     123.580E-03    -16.9131E-03    -106.667E-03    -28.1403E-03     45.0533E-03    -16.9131E-03     216.542E-03     144.238E+06     21.9772E+06    -15.8339E+06    -15.8066E+06     144.211E+06     21.9772E+06     1.37769E+06         53.5590
             735     14.7527E-03     27.8867E-03    -23.7944E-03        -1.34708        -1.94285    -546.617E-03        -1.29767        -1.46944        -1.35132     47.2443E-03    -16.5751E-03    -30.6692E-03    -17.0344E-03     33.6096E-03    -16.5751E-03     56.0683E-03     105.584E+06    -11.8638E+06    -46.3956E+06    -14.7580E+06     105.565E+06    -43.4826E+06    -307.034E+03         44.6909
             736     13.7678E-03     27.8598E-03    -267.265E-03        -1.36752        -1.64986        -1.33994    -454.827E-03        -1.48987    -468.115E-03     35.3380E-03    -16.4674E-03    -18.8706E-03    -16.2767E-03     32.7441E-03    -16.4674E-03     22.8582E-03     64.5138E+06    -10.8121E+06    -65.6853E+06    -10.8013E+06     64.5030E+06    -65.6853E+06    -506.498E+03         36.7975
             737     12.7847E-03     27.8392E-03     151.294E-03        -1.47336        -1.93801        -1.83865     51.9318E-03        -1.47336    -689.482E-03     34.5339E-03    -16.6091E-03    -17.9248E-03    -16.5948E-03     33.2039E-03    -16.6091E-03     16.2464E-03     16.9656E+06    -8.91665E+06    -46.0470E+06    -7.56206E+06     15.6110E+06    -46.0470E+06     583.908E+03         31.0226
             738     11.8002E-03     27.8261E-03     286.498E-03        -1.43082        -2.09236        -1.98130     175.430E-03        -1.43082    -791.762E-03     34.1503E-03    -16.7456E-03    -17.4047E-03    -16.7149E-03     33.4605E-03    -16.7456E-03     11.7405E-03    -4.71651E+06    -13.9844E+06    -41.7531E+06    -4.95612E+06    -27.6376E+06    -27.8604E+06     833.497E+03         27.3828
             739     10.8174E-03     27.8144E-03     184.294E-03        -1.37621        -2.03263        -1.98320     134.869E-03        -1.37621    -450.537E-03     34.1879E-03    -16.8540E-03    -17.3339E-03    -16.8002E-03     33.6542E-03    -16.8540E-03     10.4296E-03    -3.70839E+06    -14.5692E+06    -59.7945E+06    -3.72286E+06    -59.7801E+06    -14.5692E+06     636.440E+03         25.3215
             740     9.83325E-03     27.8041E-03     308.084E-03        -1.30673        -2.21721        -2.07697     167.845E-03        -1.30673    -955.435E-03     34.2436E-03    -16.9324E-03    -17.3111E-03    -16.8317E-03     33.7642E-03    -16.9324E-03     9.86046E-03    -3.26880E+06    -6.67283E+06    -83.8469E+06    -3.28267E+06    -83.8331E+06    -6.67283E+06     826.061E+03         24.2209
             741     8.85025E-03     27.7938E-03     363.599E-03        -1.21001        -2.36848        -2.20476     199.886E-03        -1.21001    -447.880E-03     34.2112E-03    -16.9912E-03    -17.2199E-03    -16.8573E-03     33.8485E-03    -16.9912E-03     8.59577E-03    -2.84535E+06    -3.60209E+06    -104.967E+06    -3.25324E+06    -104.952E+06    -3.20943E+06     1.09371E+06         23.6308
             742     7.86641E-03     27.7857E-03     94.2976E-03        -1.08626        -2.21977        -2.13924     13.7636E-03        -1.08626     820.971E-03     34.2489E-03    -17.0353E-03    -17.2136E-03    -16.9140E-03     33.9493E-03    -17.0353E-03     7.82162E-03    -2.11468E+06    -3.62023E+06    -122.436E+06    -3.49308E+06    -122.429E+06    -2.24913E+06     756.170E+03         23.2913
             743     6.88324E-03     27.7774E-03    -200.321E-03    -943.304E-03        -2.05917        -1.98779    -271.707E-03    -943.304E-03     192.342E-03     34.3095E-03    -17.0745E-03    -17.2350E-03    -16.9920E-03     34.0665E-03    -17.0745E-03     7.04827E-03    -1.82262E+06    -4.39747E+06    -138.825E+06    -4.40472E+06    -138.818E+06    -1.82262E+06     692.420E+03         23.0734
             744     5.89970E-03     27.7707E-03    -121.852E-03    -774.837E-03        -2.29604        -1.87285    -545.037E-03    -774.837E-03        -1.46392     34.3492E-03    -17.1143E-03    -17.2349E-03    -17.0534E-03     34.1678E-03    -17.1143E-03     6.08260E-03    -1.36802E+06    -6.14561E+06    -157.361E+06    -6.15382E+06    -157.353E+06    -1.36802E+06     898.661E+03         22.9197
             745     4.91659E-03     27.7643E-03     88.6447E-03    -585.077E-03        -2.68518        -1.54716        -1.04938    -585.077E-03     162.444E-03     34.3340E-03    -17.1417E-03    -17.1923E-03    -17.0585E-03     34.2019E-03    -17.1434E-03     5.20148E-03    -1.73937E+06    -7.95188E+06    -171.715E+06    -7.95618E+06    -171.711E+06    -1.73937E+06     799.554E+03         22.8055
             746     3.93302E-03     27.7596E-03    -120.672E-03    -518.180E-03        -2.53720    -966.959E-03        -1.79040    -418.696E-03     909.707E-03     34.3055E-03    -17.1436E-03    -17.1619E-03    -17.0550E-03     34.2108E-03    -17.1558E-03     4.38446E-03    -4.33953E+06    -9.21485E+06    -179.319E+06    -9.22052E+06    -179.313E+06    -4.33953E+06     939.894E+03         22.7200
             747     2.94987E-03     27.7548E-03     471.903E-03    -428.889E-03        -3.21130    -447.140E-03        -2.39174    -329.405E-03         1.94241     34.3104E-03    -17.1379E-03    -17.1725E-03    -17.0813E-03     34.2537E-03    -17.1725E-03     3.36805E-03    -6.59188E+06    -9.93603E+06    -184.772E+06    -9.86465E+06    -184.763E+06    -6.67216E+06     874.753E+03         22.6578
             748     1.96627E-03     27.7524E-03     827.346E-03    -385.743E-03        -3.61234    -78.9285E-03        -2.70607    -385.743E-03         1.44816     34.3501E-03    -17.1415E-03    -17.2085E-03    -17.1375E-03     34.3215E-03    -17.1840E-03     2.37959E-03    -8.53932E+06    -10.7148E+06    -186.073E+06    -10.6643E+06    -186.043E+06    -8.61961E+06     584.809E+03         22.6160
             749     983.507E-06     27.7493E-03         2.55593     265.355E-03        -5.96264        -1.18919        -2.21751     265.355E-03         5.76723     34.3576E-03    -17.1363E-03    -17.2213E-03    -17.1753E-03     34.3480E-03    -17.1726E-03     1.20245E-03    -11.1002E+06    -12.2592E+06    -185.711E+06    -12.1402E+06    -185.647E+06    -11.2826E+06    -95.6514E+03         22.5922
             750     16.7161E-03     27.3076E-03         1.56260        -1.01666        -3.90172         1.52086        -3.85998        -1.01666    -412.501E-03     200.770E-03    -17.3591E-03    -183.411E-03    -39.5979E-03     56.9570E-03    -17.3591E-03     371.796E-03     186.378E+06     114.140E+06    -10.2342E+06    -10.2013E+06     186.345E+06     114.140E+06     1.21798E+06         61.0233
             751     15.7366E-03     26.9398E-03     978.209E-03        -1.01181        -3.25486     714.372E-03        -2.99103        -1.01181        -1.81039     123.309E-03    -16.9402E-03    -106.369E-03    -28.8149E-03     45.7551E-03    -16.9402E-03     215.515E-03     145.870E+06     23.0199E+06    -13.7083E+06    -13.6886E+06     145.850E+06     23.0199E+06     410.385E+03         53.5300
             752     14.7524E-03     26.8542E-03     204.495E-03        -1.03098        -2.43082    -126.361E-03        -2.09996        -1.03098        -1.70903     47.1987E-03    -16.5589E-03    -30.6398E-03    -17.2013E-03     33.7602E-03    -16.5589E-03     55.7716E-03     105.384E+06    -12.2651E+06    -46.3564E+06    -12.7599E+06     105.377E+06    -45.8543E+06    -680.848E+03         44.7187
             753     13.7684E-03     26.8251E-03    -336.325E-03        -1.05001        -1.85154    -819.816E-03        -1.36805        -1.05001        -1.01173     35.4747E-03    -16.4517E-03    -19.0230E-03    -16.3913E-03     32.8430E-03    -16.4517E-03     23.0733E-03     63.7299E+06    -9.90249E+06    -66.6340E+06    -9.89534E+06     63.7227E+06    -66.6340E+06     29.5265E+03         36.8505
             754     12.7838E-03     26.8059E-03    -190.435E-03        -1.04678        -1.98184        -1.09805        -1.07422        -1.04678        -1.26658     34.5012E-03    -16.5950E-03    -17.9062E-03    -16.5937E-03     33.1887E-03    -16.5950E-03     16.1052E-03     17.4413E+06    -8.05200E+06    -45.4583E+06    -6.86787E+06     16.2571E+06    -45.4583E+06     634.639E+03         31.0736
             755     11.8012E-03     26.7912E-03    -245.464E-03        -1.03544        -1.92831        -1.10904        -1.06473        -1.03544        -1.22449     34.1294E-03    -16.7263E-03    -17.4031E-03    -16.7267E-03     33.4530E-03    -16.7263E-03     11.6417E-03    -4.42899E+06    -13.9401E+06    -42.1293E+06    -4.71566E+06    -27.5786E+06    -28.2042E+06     823.303E+03         27.4185
             756     10.8169E-03     26.7814E-03    -495.879E-03        -1.02618        -1.68069        -1.27586    -910.845E-03        -1.01604    -727.734E-03     34.1496E-03    -16.8367E-03    -17.3129E-03    -16.7833E-03     33.6200E-03    -16.8367E-03     10.3856E-03    -3.48382E+06    -14.3557E+06    -60.0348E+06    -3.50428E+06    -60.0144E+06    -14.3557E+06     812.845E+03         25.3414
             757     9.83398E-03     26.7693E-03    -197.287E-03    -976.269E-03        -2.03230        -1.65018    -589.537E-03    -966.135E-03        -1.30885     34.2339E-03    -16.9123E-03    -17.3216E-03    -16.8479E-03     33.7602E-03    -16.9123E-03     9.80780E-03    -3.25583E+06    -6.63036E+06    -83.8805E+06    -3.27525E+06    -83.8611E+06    -6.63036E+06     981.453E+03         24.2293
             758     8.85017E-03     26.7606E-03    -87.7841E-03    -926.244E-03        -2.19348        -1.87921    -455.781E-03    -872.516E-03    -978.489E-03     34.2057E-03    -16.9630E-03    -17.2427E-03    -16.8845E-03     33.8475E-03    -16.9630E-03     8.53899E-03    -2.73717E+06    -3.58025E+06    -104.689E+06    -2.74976E+06    -104.677E+06    -3.58025E+06     973.653E+03         23.6325
             759     7.86684E-03     26.7514E-03    -375.787E-03    -984.629E-03        -1.84363        -1.81528    -642.026E-03    -746.739E-03     198.323E-03     34.2349E-03    -17.0058E-03    -17.2291E-03    -16.9375E-03     33.9433E-03    -17.0058E-03     7.71795E-03    -1.36729E+06    -2.97019E+06    -122.223E+06    -2.69565E+06    -122.212E+06    -1.65323E+06     1.08339E+06         23.2895
             760     6.88331E-03     26.7438E-03    -468.623E-03    -949.035E-03        -1.77830        -1.56493        -1.02201    -609.018E-03    -75.9244E-03     34.2753E-03    -17.0465E-03    -17.2288E-03    -16.9948E-03     34.0413E-03    -17.0465E-03     6.90863E-03     4.19428E+03    -3.98683E+06    -139.000E+06    -4.01109E+06    -138.976E+06     4.19428E+03     1.75530E+06         23.0699
             761     5.90018E-03     26.7364E-03    -334.678E-03    -624.560E-03        -2.22284        -1.30827        -1.40510    -468.703E-03        -1.33916     34.2668E-03    -17.0822E-03    -17.1845E-03    -17.0076E-03     34.0898E-03    -17.0822E-03     6.00986E-03     396.321E+03    -5.20372E+06    -157.126E+06    -5.22374E+06    -157.106E+06     396.321E+03     1.64800E+06         22.9152
             762     4.91657E-03     26.7309E-03    -29.5043E-03    -325.433E-03        -2.82330        -1.04473        -1.80808    -325.433E-03     282.106E-03     34.2801E-03    -17.1050E-03    -17.1751E-03    -17.0438E-03     34.1488E-03    -17.1050E-03     5.17416E-03    -786.810E+03    -6.34297E+06    -171.682E+06    -6.35121E+06    -171.674E+06    -786.810E+03     1.13583E+06         22.8002
             763     3.93342E-03     26.7253E-03    -17.0546E-03    -227.635E-03        -2.93037    -618.607E-03        -2.35608    -200.371E-03     750.755E-03     34.2661E-03    -17.1072E-03    -17.1589E-03    -17.0651E-03     34.1749E-03    -17.1098E-03     4.30566E-03    -3.32571E+06    -7.84620E+06    -179.552E+06    -7.85202E+06    -179.546E+06    -3.32571E+06     956.110E+03         22.7141
             764     2.94981E-03     26.7215E-03     569.044E-03    -148.893E-03        -3.59078    -276.433E-03        -2.77257    -121.629E-03         1.77527     34.2385E-03    -17.1063E-03    -17.1321E-03    -17.0726E-03     34.1830E-03    -17.1104E-03     3.32805E-03    -5.67074E+06    -9.33976E+06    -184.240E+06    -9.34379E+06    -184.236E+06    -5.67074E+06     509.109E+03         22.6514
             765     1.96685E-03     26.7178E-03     797.063E-03    -52.5398E-03        -3.91340    -222.635E-03        -2.89370    -52.5398E-03         1.07680     34.1899E-03    -17.0569E-03    -17.1330E-03    -17.0414E-03     34.1621E-03    -17.1207E-03     2.33989E-03    -7.64621E+06    -10.5236E+06    -186.239E+06    -10.5492E+06    -186.213E+06    -7.64621E+06     439.584E+03         22.6093
             766     982.935E-06     26.7163E-03         2.70960     990.595E-03        -6.88157        -1.00884        -3.16313     990.595E-03         6.21821     34.2448E-03    -17.0249E-03    -17.2199E-03    -17.1468E-03     34.2341E-03    -17.0873E-03     1.35204E-03    -9.36017E+06    -11.2246E+06    -185.515E+06    -10.8336E+06    -185.442E+06    -9.82463E+06     260.948E+03         22.5853
             767     16.7252E-03     26.2764E-03         1.61415    -559.022E-03        -4.30516         1.56611        -4.25712    -559.022E-03    -517.314E-03     200.656E-03    -17.2825E-03    -183.374E-03    -39.7664E-03     57.0489E-03    -17.2825E-03     371.609E-03     187.089E+06     115.126E+06    -7.29593E+06    -7.27487E+06     187.068E+06     115.126E+06     1.69738E+06         60.9417
             768     15.7349E-03     25.9053E-03         1.13458    -511.065E-03        -3.84626     901.571E-03        -3.61326    -511.065E-03        -1.94763     122.930E-03    -16.8991E-03    -106.031E-03    -27.3475E-03     44.2466E-03    -16.8991E-03     215.642E-03     145.103E+06     22.1634E+06    -11.8845E+06    -11.8799E+06     145.098E+06     22.1634E+06     3.98943E+03         53.5010
             769     14.7520E-03     25.8184E-03     625.266E-03    -509.859E-03        -3.32218     366.359E-03        -3.06328    -509.859E-03        -1.87859     47.1191E-03    -16.5684E-03    -30.5507E-03    -17.2988E-03     33.8672E-03    -16.5684E-03     55.0805E-03     104.716E+06    -13.0617E+06    -46.1529E+06    -13.2320E+06     104.713E+06    -45.9797E+06    -116.148E+03         44.7365
             770     13.7684E-03     25.7922E-03     262.261E-03    -539.900E-03        -2.92066     92.1151E-03        -2.75052    -539.900E-03        -1.28595     35.7335E-03    -16.4450E-03    -19.2885E-03    -16.7645E-03     33.2095E-03    -16.4450E-03     22.7694E-03     62.9396E+06    -10.5012E+06    -66.6213E+06    -10.4833E+06     62.9216E+06    -66.6213E+06     734.134E+03         36.8967
             771     12.7853E-03     25.7709E-03     244.019E-03    -573.892E-03        -2.86560    -10.3168E-03        -2.61127    -573.892E-03        -1.52748     34.4377E-03    -16.5718E-03    -17.8660E-03    -16.5683E-03     33.1401E-03    -16.5718E-03     16.0313E-03     17.1230E+06    -7.62440E+06    -45.5553E+06    -6.44024E+06     15.9388E+06    -45.5553E+06     1.03161E+06         31.1207
             772     11.8006E-03     25.7583E-03    -40.0517E-03    -601.431E-03        -2.55146    -298.044E-03        -2.29347    -601.431E-03        -1.43064     34.0560E-03    -16.7025E-03    -17.3535E-03    -16.6797E-03     33.3822E-03    -16.7025E-03     11.5789E-03    -4.19728E+06    -13.8932E+06    -42.7011E+06    -4.54434E+06    -27.6251E+06    -28.6221E+06     1.07586E+06         27.4515
             773     10.8177E-03     25.7465E-03    -461.483E-03    -669.358E-03        -2.06858    -770.920E-03        -1.82722    -601.283E-03    -987.238E-03     34.1199E-03    -16.8125E-03    -17.3074E-03    -16.7856E-03     33.5982E-03    -16.8125E-03     10.3003E-03    -3.54382E+06    -14.9993E+06    -60.4196E+06    -3.57704E+06    -60.3864E+06    -14.9993E+06     1.22929E+06         25.3590
             774     9.83375E-03     25.7363E-03    -281.371E-03    -627.564E-03        -2.30068        -1.14916        -1.50096    -559.489E-03        -1.71302     34.2146E-03    -16.8868E-03    -17.3278E-03    -16.8568E-03     33.7436E-03    -16.8868E-03     9.76964E-03    -2.85038E+06    -6.69538E+06    -83.2787E+06    -2.97365E+06    -83.2557E+06    -6.59510E+06     1.26048E+06         24.2356
             775     8.85055E-03     25.7259E-03    -202.610E-03    -677.471E-03        -2.33707        -1.29424        -1.44218    -480.727E-03        -1.49473     34.2292E-03    -16.9297E-03    -17.2995E-03    -16.9526E-03     33.8823E-03    -16.9297E-03     8.40722E-03    -3.23725E+06    -4.01876E+06    -104.115E+06    -3.39647E+06    -104.095E+06    -3.88013E+06     1.31775E+06         23.6322
             776     7.86719E-03     25.7181E-03    -383.830E-03    -871.251E-03        -1.96134        -1.15765        -1.67495    -383.830E-03    -275.120E-03     34.2008E-03    -16.9628E-03    -17.2380E-03    -16.9523E-03     33.9151E-03    -16.9628E-03     7.64278E-03    -2.51836E+06    -4.62935E+06    -123.031E+06    -4.51016E+06    -122.999E+06    -2.66985E+06     1.86393E+06         23.2857
             777     6.88387E-03     25.7094E-03    -293.357E-03    -768.679E-03        -2.14466    -846.165E-03        -2.06717    -293.357E-03    -359.010E-03     34.1591E-03    -16.9952E-03    -17.1639E-03    -16.9298E-03     33.9250E-03    -16.9952E-03     6.89664E-03    -1.56639E+06    -4.93448E+06    -138.925E+06    -4.96787E+06    -138.892E+06    -1.56639E+06     1.98886E+06         23.0643
             778     5.90019E-03     25.7032E-03    -54.0185E-03    -412.111E-03        -2.73264    -522.145E-03        -2.44916    -227.466E-03        -1.44913     34.1833E-03    -17.0319E-03    -17.1515E-03    -16.9771E-03     34.0089E-03    -17.0319E-03     5.95665E-03    -693.709E+03    -5.43963E+06    -156.665E+06    -5.46625E+06    -156.638E+06    -693.709E+03     1.85748E+06         22.9086
             779     4.91693E-03     25.6965E-03     273.139E-03    -180.335E-03        -3.28090    -395.522E-03        -2.61224    -180.335E-03     383.354E-03     34.2212E-03    -17.0542E-03    -17.1671E-03    -17.0388E-03     34.0929E-03    -17.0542E-03     5.10903E-03    -824.764E+03    -6.99727E+06    -170.945E+06    -7.01781E+06    -170.924E+06    -824.764E+03     1.70494E+06         22.7931
             780     3.93347E-03     25.6919E-03     165.796E-03    -227.747E-03        -3.12714    -467.630E-03        -2.60723    -114.231E-03     839.977E-03     34.1861E-03    -17.0516E-03    -17.1345E-03    -17.0472E-03     34.0988E-03    -17.0516E-03     4.20315E-03    -2.52879E+06    -8.50472E+06    -178.551E+06    -8.51099E+06    -178.544E+06    -2.52879E+06     853.806E+03         22.7065
             781     2.95037E-03     25.6873E-03     591.173E-03    -97.2322E-03        -3.67995    -500.668E-03        -2.70163     16.2839E-03         1.93139     34.1141E-03    -17.0340E-03    -17.0800E-03    -17.0159E-03     34.0580E-03    -17.0421E-03     3.36519E-03    -5.28655E+06    -9.47705E+06    -184.344E+06    -9.47891E+06    -184.342E+06    -5.28655E+06     419.831E+03         22.6435
             782     1.96664E-03     25.6846E-03     921.873E-03     235.348E-03        -4.34655    -294.937E-03        -3.12974     235.348E-03     969.682E-03     34.0855E-03    -16.9695E-03    -17.1160E-03    -17.0353E-03     34.0570E-03    -17.0216E-03     2.31145E-03    -8.30060E+06    -10.5104E+06    -186.079E+06    -10.5183E+06    -186.071E+06    -8.30060E+06    -425.746E+03         22.6012
             783     983.571E-06     25.6822E-03         2.88663         1.34290        -7.43697    -606.611E-03        -3.94372         1.34290         6.10068     34.0063E-03    -16.8573E-03    -17.1489E-03    -17.0380E-03     33.9963E-03    -16.9583E-03     1.40829E-03    -10.1735E+06    -12.4321E+06    -186.995E+06    -11.9973E+06    -186.966E+06    -10.6380E+06     526.020E+03         22.5771
             784     16.7238E-03     25.2485E-03         1.62803    -44.9038E-03        -4.73093         1.59215        -4.69506    -44.9038E-03    -495.465E-03     201.659E-03    -17.2514E-03    -184.407E-03    -40.5523E-03     57.8037E-03    -17.2514E-03     373.303E-03     186.468E+06     114.452E+06    -7.47047E+06    -7.45940E+06     186.457E+06     114.452E+06     1.05948E+06         60.8425
             785     15.7382E-03     24.8720E-03         1.33366     40.2331E-03        -4.52275         1.15632        -4.34540     40.2331E-03        -1.86803     123.871E-03    -16.8533E-03    -107.017E-03    -27.5789E-03     44.4322E-03    -16.8533E-03     217.810E-03     144.931E+06     21.7077E+06    -12.2816E+06    -12.2722E+06     144.922E+06     21.7077E+06     973.379E+03         53.4583
             786     14.7516E-03     24.7844E-03         1.25423     51.2425E-03        -4.46381         1.07780        -4.28737     51.2425E-03        -1.82320     47.0364E-03    -16.5419E-03    -30.4944E-03    -16.9437E-03     33.4856E-03    -16.5419E-03     54.9553E-03     105.396E+06    -12.1718E+06    -45.2981E+06    -12.9533E+06     105.391E+06    -44.5109E+06     402.695E+03         44.7477
             787     13.7689E-03     24.7563E-03         1.21797    -1.46836E-03        -4.39559         1.14302        -4.32064    -1.46836E-03        -1.23755     35.4863E-03    -16.4264E-03    -19.0599E-03    -16.7676E-03     33.1940E-03    -16.4264E-03     21.6938E-03     62.6633E+06    -10.4433E+06    -65.9464E+06    -10.4232E+06     62.6432E+06    -65.9464E+06     312.515E+03         36.9358
             788     12.7846E-03     24.7387E-03         1.00161    -68.1690E-03        -4.12463     872.703E-03        -3.99572    -68.1690E-03        -1.53276     34.4184E-03    -16.5450E-03    -17.8733E-03    -16.6006E-03     33.1456E-03    -16.5450E-03     15.9302E-03     16.2799E+06    -8.57466E+06    -46.2112E+06    -6.81358E+06     14.5188E+06    -46.2112E+06     1.00940E+06         31.1620
             789     11.8016E-03     24.7230E-03     452.679E-03    -113.847E-03        -3.54029     291.000E-03        -3.37861    -113.847E-03        -1.55528     34.0405E-03    -16.6761E-03    -17.3645E-03    -16.7045E-03     33.3806E-03    -16.6761E-03     11.3887E-03    -3.74861E+06    -13.3567E+06    -42.9440E+06    -4.16977E+06    -28.0502E+06    -27.8294E+06     1.71240E+06         27.4805
             790     10.8176E-03     24.7138E-03     2.44392E-03    -179.801E-03        -3.03873    -206.940E-03        -2.88814    -121.017E-03        -1.26917     34.0476E-03    -16.7834E-03    -17.2642E-03    -16.7655E-03     33.5490E-03    -16.7834E-03     10.0406E-03    -3.06319E+06    -13.7863E+06    -59.8406E+06    -3.13610E+06    -59.7677E+06    -13.7863E+06     1.90007E+06         25.3733
             791     9.83436E-03     24.7014E-03     84.9588E-03    -154.622E-03        -3.16371    -417.685E-03        -2.71985    -95.8375E-03        -1.99560     34.1964E-03    -16.8511E-03    -17.3454E-03    -16.8865E-03     33.7375E-03    -16.8511E-03     9.61132E-03    -2.85329E+06    -6.58120E+06    -82.8320E+06    -3.39334E+06    -82.7826E+06    -6.09053E+06     1.82159E+06         24.2388
             792     8.85094E-03     24.6928E-03     142.649E-03    -199.570E-03        -3.19042    -395.306E-03        -2.79548    -56.5548E-03        -1.74561     34.1391E-03    -16.8897E-03    -17.2494E-03    -16.9202E-03     33.8099E-03    -16.8897E-03     8.19453E-03    -3.34377E+06    -4.11510E+06    -104.415E+06    -3.92350E+06    -104.364E+06    -3.58608E+06     2.20188E+06         23.6287
             793     7.86750E-03     24.6835E-03     8.26940E-03    -268.038E-03        -2.99069    -272.645E-03        -2.95931    -18.5071E-03    -491.462E-03     34.1088E-03    -16.9156E-03    -17.1932E-03    -16.9115E-03     33.8271E-03    -16.9156E-03     7.57076E-03    -2.93607E+06    -4.31288E+06    -122.883E+06    -4.12045E+06    -122.833E+06    -3.17837E+06     2.22043E+06         23.2787
             794     6.88393E-03     24.6764E-03     67.0068E-03    -126.938E-03        -3.18702    -109.758E-03        -3.14556     8.36700E-03    -645.902E-03     34.0942E-03    -16.9479E-03    -17.1463E-03    -16.9191E-03     33.8670E-03    -16.9479E-03     6.79435E-03    -1.63299E+06    -4.61625E+06    -138.745E+06    -4.66553E+06    -138.695E+06    -1.63299E+06     2.19171E+06         23.0557
             795     5.90064E-03     24.6687E-03     413.664E-03    -17.5759E-03        -3.63469     101.363E-03        -3.35118     11.2130E-03        -1.92974     34.1168E-03    -16.9837E-03    -17.1330E-03    -16.9601E-03     33.9438E-03    -16.9837E-03     5.92445E-03    -173.045E+03    -6.12581E+06    -156.670E+06    -6.17638E+06    -156.619E+06    -173.045E+03     2.44964E+06         22.8993
             796     4.91723E-03     24.6634E-03     695.597E-03    -16.4099E-03        -3.91276     199.027E-03        -3.41619    -16.4099E-03    -52.3809E-03     34.1153E-03    -17.0019E-03    -17.1134E-03    -16.9864E-03     33.9883E-03    -17.0019E-03     5.08047E-03     204.678E+03    -7.60782E+06    -169.446E+06    -7.63002E+06    -169.423E+06     204.678E+03     1.77179E+06         22.7835
             797     3.93392E-03     24.6576E-03     347.855E-03    -115.812E-03        -3.45875    -89.0594E-03        -3.10809    -29.5594E-03     661.088E-03     34.0547E-03    -16.9962E-03    -17.0584E-03    -16.9688E-03     33.9651E-03    -16.9962E-03     4.25076E-03    -2.40137E+06    -8.78831E+06    -177.543E+06    -8.79302E+06    -177.538E+06    -2.40137E+06     636.534E+03         22.6966
             798     2.95024E-03     24.6543E-03     612.217E-03    -26.1133E-03        -3.81445    -430.939E-03        -2.85754     60.1392E-03         1.91522     34.0378E-03    -16.9729E-03    -17.0649E-03    -17.0001E-03     33.9811E-03    -16.9810E-03     3.36856E-03    -5.58344E+06    -9.98888E+06    -184.252E+06    -9.98891E+06    -184.252E+06    -5.58344E+06     54.8860E+03         22.6334
             799     1.96700E-03     24.6503E-03         1.10836     234.618E-03        -4.57440    -136.347E-03        -3.32970     234.618E-03     709.661E-03     33.9631E-03    -16.8840E-03    -17.0790E-03    -16.9905E-03     33.9339E-03    -16.9434E-03     2.35682E-03    -8.94219E+06    -11.5547E+06    -186.437E+06    -11.5596E+06    -186.432E+06    -8.94219E+06     310.692E+03         22.5910
             800     983.738E-06     24.6489E-03         3.28621         1.08575        -7.58092    -432.132E-03        -3.86257         1.08575         6.02840     33.8263E-03    -16.7653E-03    -17.0610E-03    -16.9420E-03     33.8154E-03    -16.8735E-03     1.42018E-03    -12.0118E+06    -14.1276E+06    -188.378E+06    -13.5426E+06    -188.367E+06    -12.6081E+06     8.90477E+03         22.5668
             801     16.7188E-03     24.2049E-03         1.75215     507.060E-03        -5.31307         1.72314        -5.28407     507.060E-03    -469.198E-03     201.723E-03    -17.2935E-03    -184.429E-03    -40.6890E-03     57.9826E-03    -17.2935E-03     373.295E-03     185.412E+06     114.048E+06    -9.20049E+06    -9.19703E+06     185.409E+06     114.048E+06     225.557E+03         60.7143
             802     15.7377E-03     23.8422E-03         1.85672     612.480E-03        -5.54452         1.72950        -5.41729     612.480E-03        -1.83028     123.630E-03    -16.8461E-03    -106.784E-03    -28.8687E-03     45.7148E-03    -16.8461E-03     216.509E-03     145.285E+06     22.5960E+06    -13.8859E+06    -13.8779E+06     145.277E+06     22.5960E+06     745.363E+03         53.3937
             803     14.7538E-03     23.7478E-03         2.05065     615.530E-03        -5.79777         1.92785        -5.67497     615.530E-03        -1.81481     47.0800E-03    -16.4801E-03    -30.5999E-03    -16.9398E-03     33.4199E-03    -16.4801E-03     55.2685E-03     105.474E+06    -10.9621E+06    -45.9107E+06    -12.8543E+06     105.467E+06    -44.0109E+06     316.303E+03         44.7494
             804     13.7693E-03     23.7241E-03         1.88310     548.052E-03        -5.61572         1.83797        -5.57058     548.052E-03        -1.15030     34.9072E-03    -16.3652E-03    -18.5421E-03    -16.3509E-03     32.7161E-03    -16.3652E-03     21.0259E-03     62.6913E+06    -9.54718E+06    -67.4968E+06    -9.51245E+06     62.6566E+06    -67.4968E+06     143.952E+03         36.9680
             805     12.7856E-03     23.7033E-03         1.44970     478.950E-03        -5.14215         1.35758        -5.05002     478.950E-03        -1.45183     34.3425E-03    -16.4975E-03    -17.8450E-03    -16.6187E-03     33.1162E-03    -16.4975E-03     15.5700E-03     15.8312E+06    -9.23880E+06    -47.7789E+06    -7.36186E+06     13.9542E+06    -47.7789E+06     1.18637E+06         31.1967
             806     11.8019E-03     23.6900E-03     996.224E-03     435.229E-03        -4.66668     867.322E-03        -4.53778     435.229E-03        -1.66701     33.9656E-03    -16.6344E-03    -17.3312E-03    -16.7058E-03     33.3402E-03    -16.6344E-03     11.1282E-03    -4.74779E+06    -13.9215E+06    -42.8162E+06    -5.18834E+06    -28.7364E+06    -27.5608E+06     1.87506E+06         27.5038
             807     10.8185E-03     23.6794E-03     766.923E-03     411.873E-03        -4.43429     651.702E-03        -4.31991     412.717E-03        -1.48700     34.0371E-03    -16.7353E-03    -17.3018E-03    -16.8200E-03     33.5553E-03    -16.7353E-03     9.88165E-03    -3.30296E+06    -12.6313E+06    -58.9744E+06    -3.40298E+06    -58.8744E+06    -12.6313E+06     2.30549E+06         25.3823
             808     9.83487E-03     23.6679E-03     883.818E-03     394.770E-03        -4.55654     629.817E-03        -4.30338     395.613E-03        -2.12874     34.0512E-03    -16.7972E-03    -17.2540E-03    -16.8210E-03     33.6182E-03    -16.7972E-03     9.33542E-03    -2.33478E+06    -5.48890E+06    -82.8433E+06    -2.80278E+06    -82.7657E+06    -5.09850E+06     2.40573E+06         24.2369
             809     8.85141E-03     23.6585E-03     829.271E-03     374.936E-03        -4.50162     615.958E-03        -4.28830     374.936E-03        -1.79059     33.9869E-03    -16.8397E-03    -17.1471E-03    -16.8281E-03     33.6678E-03    -16.8397E-03     8.03930E-03    -1.62644E+06    -3.45165E+06    -104.567E+06    -2.89343E+06    -104.504E+06    -2.24855E+06     2.43897E+06         23.6203
             810     7.86780E-03     23.6504E-03     589.554E-03     351.555E-03        -4.25027     565.678E-03        -4.22639     351.555E-03    -662.046E-03     34.0074E-03    -16.8697E-03    -17.1377E-03    -16.8729E-03     33.7426E-03    -16.8697E-03     7.32957E-03    -804.493E+03    -3.57453E+06    -121.944E+06    -3.40276E+06    -121.873E+06    -1.04680E+06     2.55042E+06         23.2671
             811     6.88455E-03     23.6421E-03     601.410E-03     325.135E-03        -4.23744     545.644E-03        -4.18167     325.135E-03    -953.855E-03     33.9818E-03    -16.9040E-03    -17.0778E-03    -16.8601E-03     33.7641E-03    -16.9040E-03     6.64583E-03     474.728E+03    -4.39608E+06    -139.353E+06    -4.47678E+06    -139.272E+06     474.728E+03     2.95621E+06         23.0428
             812     5.90091E-03     23.6358E-03     817.299E-03     292.162E-03        -4.41529     524.885E-03        -4.12288     292.162E-03        -2.24616     33.9870E-03    -16.9346E-03    -17.0523E-03    -16.8775E-03     33.8121E-03    -16.9346E-03     5.95372E-03     1.08565E+06    -5.36436E+06    -155.642E+06    -5.42146E+06    -155.584E+06     1.08565E+06     2.74635E+06         22.8860
             813     4.91748E-03     23.6290E-03     867.825E-03     252.025E-03        -4.42119     477.567E-03        -4.03093     252.025E-03    -399.934E-03     33.9686E-03    -16.9522E-03    -17.0164E-03    -16.8859E-03     33.8382E-03    -16.9522E-03     5.13189E-03    -32.0357E+03    -6.34606E+06    -168.044E+06    -6.36392E+06    -168.026E+06    -32.0357E+03     1.40252E+06         22.7702
             814     3.93380E-03     23.6249E-03     605.053E-03     210.049E-03        -4.11126     378.300E-03        -3.88450     210.049E-03     345.078E-03     33.9936E-03    -16.9549E-03    -17.0387E-03    -16.9469E-03     33.9018E-03    -16.9549E-03     4.30751E-03    -2.26210E+06    -7.87933E+06    -177.090E+06    -7.88457E+06    -177.085E+06    -2.26210E+06     698.871E+03         22.6834
             815     2.95057E-03     23.6198E-03     841.081E-03     174.574E-03        -4.30924     268.665E-03        -3.73683     174.574E-03         1.26769     33.9653E-03    -16.9197E-03    -17.0456E-03    -16.9738E-03     33.9082E-03    -16.9344E-03     3.36049E-03    -5.98205E+06    -10.3862E+06    -184.243E+06    -10.3907E+06    -184.238E+06    -5.98205E+06     643.983E+03         22.6202
             816     1.96721E-03     23.6176E-03         1.14748     160.618E-03        -4.58292     155.861E-03        -3.59130     160.618E-03    -39.4356E-03     33.8237E-03    -16.8438E-03    -16.9798E-03    -16.8860E-03     33.7958E-03    -16.9099E-03     2.32742E-03    -9.77251E+06    -12.4200E+06    -187.320E+06    -12.1298E+06    -187.314E+06    -10.0683E+06     742.992E+03         22.5776
             817     983.064E-06     23.6151E-03         3.12836     977.848E-03        -7.35442    -654.167E-03        -3.57189     977.848E-03         5.47731     33.8067E-03    -16.8034E-03    -17.0033E-03    -16.9139E-03     33.7954E-03    -16.8815E-03     1.43969E-03    -11.2875E+06    -13.1805E+06    -187.081E+06    -12.3005E+06    -187.068E+06    -12.1796E+06     334.881E+03         22.5531
             818     16.7230E-03     23.1737E-03         2.09905         1.07491        -6.12869         2.07302        -6.10265         1.07491    -434.770E-03     201.023E-03    -17.2218E-03    -183.802E-03    -40.8392E-03     58.0610E-03    -17.2218E-03     371.875E-03     185.259E+06     115.315E+06    -8.63571E+06    -8.63236E+06     185.256E+06     115.315E+06     465.466E+03         60.5813
             819     15.7377E-03     22.8031E-03         2.52436         1.18292        -6.75594         2.42238        -6.65397         1.18292        -1.86416     122.713E-03    -16.7720E-03    -105.941E-03    -28.2198E-03     44.9918E-03    -16.7720E-03     214.833E-03     144.848E+06     24.1614E+06    -13.8049E+06    -12.5192E+06     144.844E+06     22.8793E+06     226.223E+03         53.3245
             820     14.7552E-03     22.7164E-03         2.62236         1.17934        -6.95309         2.52538        -6.85612         1.17934        -1.80799     46.5503E-03    -16.4095E-03    -30.1407E-03    -16.9720E-03     33.3815E-03    -16.4095E-03     54.4710E-03     104.562E+06    -11.2039E+06    -46.6777E+06    -12.3233E+06     104.535E+06    -45.5317E+06     610.232E+03         44.7390
             821     13.7699E-03     22.6895E-03         2.21881         1.11864        -6.55719         2.18738        -6.52576         1.11864        -1.03204     34.7262E-03    -16.2995E-03    -18.4267E-03    -16.1077E-03     32.4072E-03    -16.2995E-03     21.5001E-03     62.7219E+06    -10.6952E+06    -68.7643E+06    -10.6227E+06     62.6494E+06    -68.7643E+06     1.60777E+06         36.9907
             822     12.7865E-03     22.6697E-03         1.86720         1.06315        -6.19370         1.80940        -6.13590         1.06315        -1.26559     34.2048E-03    -16.4419E-03    -17.7629E-03    -16.5196E-03     32.9615E-03    -16.4419E-03     15.6278E-03     16.0367E+06    -10.2117E+06    -48.6176E+06    -8.10884E+06     13.9337E+06    -48.6176E+06     1.73903E+06         31.2229
             823     11.8025E-03     22.6564E-03         1.72918         1.01645        -6.03632         1.64947        -5.95661         1.01645        -1.50436     33.9712E-03    -16.5714E-03    -17.3997E-03    -16.7748E-03     33.3463E-03    -16.5714E-03     11.1227E-03    -5.48409E+06    -15.6542E+06    -42.3624E+06    -5.77182E+06    -28.6922E+06    -29.0367E+06     1.67732E+06         27.5190
             824     10.8190E-03     22.6450E-03         1.76721     963.012E-03        -6.04585         1.69813        -5.97677     963.012E-03        -1.41030     33.9347E-03    -16.6624E-03    -17.2723E-03    -16.8044E-03     33.4668E-03    -16.6624E-03     9.72991E-03    -4.07580E+06    -14.7223E+06    -59.2985E+06    -4.15604E+06    -59.2183E+06    -14.7223E+06     2.03152E+06         25.3837
             825     9.83583E-03     22.6346E-03         1.87792     893.240E-03        -6.11197         1.72752        -5.96157     893.240E-03        -2.03475     33.9116E-03    -16.7287E-03    -17.1829E-03    -16.7573E-03     33.4859E-03    -16.7287E-03     9.25479E-03    -2.55303E+06    -6.32134E+06    -82.9436E+06    -3.26117E+06    -82.8524E+06    -5.70446E+06     2.68028E+06         24.2276
             826     8.85181E-03     22.6249E-03         1.64743     816.933E-03        -5.83066         1.51993        -5.70316     816.933E-03        -1.71190     33.8712E-03    -16.7685E-03    -17.1027E-03    -16.7914E-03     33.5600E-03    -16.7685E-03     7.91989E-03    -2.45361E+06    -4.31086E+06    -103.980E+06    -3.98780E+06    -103.875E+06    -2.88127E+06     3.07849E+06         23.6048
             827     7.86873E-03     22.6164E-03         1.28250     749.630E-03        -5.41880         1.25914        -5.39544     749.630E-03    -785.820E-03     33.7999E-03    -16.8001E-03    -16.9998E-03    -16.7468E-03     33.5469E-03    -16.8001E-03     7.14999E-03    -1.98344E+06    -5.18170E+06    -122.249E+06    -5.23619E+06    -122.147E+06    -2.03130E+06     3.30464E+06         23.2487
             828     6.88469E-03     22.6091E-03         1.21335     688.417E-03        -5.29663         1.14209        -5.22537     688.417E-03        -1.26584     33.8040E-03    -16.8322E-03    -16.9718E-03    -16.7519E-03     33.5841E-03    -16.8322E-03     6.66115E-03    -1.62466E+06    -5.50534E+06    -138.678E+06    -5.58195E+06    -138.602E+06    -1.62466E+06     3.03752E+06         23.0235
             829     5.90131E-03     22.6016E-03         1.22413     630.135E-03        -5.24615     971.631E-03        -4.99365     630.135E-03        -2.38488     33.8223E-03    -16.8637E-03    -16.9586E-03    -16.7888E-03     33.6525E-03    -16.8637E-03     5.83686E-03    -1.50610E+06    -5.44240E+06    -154.363E+06    -5.47463E+06    -154.331E+06    -1.50610E+06     2.08701E+06         22.8668
             830     4.91747E-03     22.5963E-03     982.222E-03     595.614E-03        -4.96009     677.860E-03        -4.65573     595.614E-03    -444.314E-03     33.8311E-03    -16.8916E-03    -16.9396E-03    -16.8157E-03     33.7072E-03    -16.8916E-03     4.99461E-03    -1.59407E+06    -6.08366E+06    -166.958E+06    -6.11455E+06    -166.927E+06    -1.59407E+06     1.79752E+06         22.7513
             831     3.93415E-03     22.5905E-03     816.762E-03     584.643E-03        -4.78164     621.919E-03        -4.58680     584.643E-03     104.665E-03     33.8751E-03    -16.9030E-03    -16.9721E-03    -16.8825E-03     33.7855E-03    -16.9030E-03     4.24193E-03    -3.35096E+06    -8.00069E+06    -176.747E+06    -8.02435E+06    -176.723E+06    -3.35096E+06     1.56410E+06         22.6649
             832     2.95063E-03     22.5870E-03         1.06332     543.666E-03        -4.97790     772.291E-03        -4.68687     543.666E-03     581.675E-03     33.8447E-03    -16.8826E-03    -16.9620E-03    -16.8935E-03     33.7909E-03    -16.8974E-03     3.25387E-03    -6.11437E+06    -9.91645E+06    -184.293E+06    -9.92403E+06    -184.286E+06    -6.11437E+06     1.11384E+06         22.6019
             833     1.96679E-03     22.5836E-03         1.24883     485.312E-03        -5.08329     572.742E-03        -4.40720     485.312E-03    -655.321E-03     33.7959E-03    -16.8555E-03    -16.9404E-03    -16.9006E-03     33.7708E-03    -16.8702E-03     2.19490E-03    -9.06957E+06    -11.7107E+06    -186.763E+06    -11.4173E+06    -186.761E+06    -9.36539E+06     575.556E+03         22.5594
             834     984.010E-06     22.5822E-03         2.57265         1.29542        -7.20857    -365.972E-03        -4.26994         1.29542         4.17053     33.6956E-03    -16.7880E-03    -16.9076E-03    -16.8713E-03     33.6862E-03    -16.8149E-03     1.31500E-03    -10.6208E+06    -13.2543E+06    -186.613E+06    -12.1789E+06    -186.608E+06    -11.7018E+06     824.194E+03         22.5348
             835     16.7283E-03     22.1463E-03         2.48574         1.62756        -7.03815         2.46626        -7.01867         1.62756    -324.076E-03     200.344E-03    -17.0929E-03    -183.251E-03    -41.5163E-03     58.6091E-03    -17.0929E-03     370.281E-03     185.683E+06     114.963E+06    -7.55045E+06    -7.54056E+06     185.673E+06     114.963E+06     653.238E+03         60.4459
             836     15.7409E-03     21.7690E-03         2.90029         1.73423        -7.73886         2.82724        -7.66580         1.73423        -1.66058     123.534E-03    -16.6533E-03    -106.880E-03    -27.2421E-03     43.8954E-03    -16.6533E-03     217.464E-03     144.272E+06     22.2973E+06    -13.3635E+06    -11.9152E+06     144.263E+06     20.8579E+06     780.777E+03         53.2517
             837     14.7547E-03     21.6827E-03         2.79155         1.74362        -7.75402         2.72644        -7.68891         1.74362        -1.47427     46.1012E-03    -16.3534E-03    -29.7479E-03    -16.4840E-03     32.8374E-03    -16.3534E-03     54.3222E-03     103.109E+06    -12.7629E+06    -47.2786E+06    -12.6960E+06     103.042E+06    -47.2786E+06     1.73803E+06         44.7177
             838     13.7715E-03     21.6559E-03         2.53334         1.70380        -7.52771         2.51872        -7.51309         1.70380    -720.692E-03     34.9862E-03    -16.2622E-03    -18.7240E-03    -16.2798E-03     32.5420E-03    -16.2622E-03     22.0817E-03     61.9905E+06    -10.8614E+06    -67.9366E+06    -10.7531E+06     61.8822E+06    -67.9366E+06     2.77538E+06         37.0002
             839     12.7864E-03     21.6367E-03         2.54218         1.65299        -7.52954         2.51498        -7.50234         1.65299    -961.515E-03     34.2856E-03    -16.3879E-03    -17.8977E-03    -16.6660E-03     33.0538E-03    -16.3879E-03     15.6184E-03     16.3591E+06    -9.28958E+06    -47.4579E+06    -7.38050E+06     14.4501E+06    -47.4579E+06     1.83926E+06         31.2379
             840     11.8035E-03     21.6214E-03         2.67206         1.58403        -7.62169         2.63828        -7.58791         1.58403        -1.10965     33.8691E-03    -16.4999E-03    -17.3692E-03    -16.7757E-03     33.2756E-03    -16.4999E-03     10.7427E-03    -4.90102E+06    -15.1368E+06    -43.0680E+06    -5.33380E+06    -28.4657E+06    -29.3063E+06     1.72374E+06         27.5237
             841     10.8201E-03     21.6123E-03         2.71109         1.49189        -7.59388         2.68249        -7.56527         1.49189        -1.01306     33.7246E-03    -16.5935E-03    -17.1311E-03    -16.6838E-03     33.2773E-03    -16.5935E-03     9.44821E-03    -4.24386E+06    -14.7786E+06    -59.9963E+06    -4.35409E+06    -59.8861E+06    -14.7786E+06     2.39129E+06         25.3748
             842     9.83575E-03     21.6005E-03         2.60062         1.38638        -7.40637         2.51595        -7.32170         1.38638        -1.66652     33.8555E-03    -16.6543E-03    -17.2012E-03    -16.7788E-03     33.4331E-03    -16.6543E-03     9.15601E-03    -3.50890E+06    -6.98021E+06    -83.1351E+06    -4.25813E+06    -83.0028E+06    -6.36334E+06     3.11405E+06         24.2086
             843     8.85315E-03     21.5914E-03         2.28311         1.28316        -7.01770         2.20534        -6.93994         1.28316        -1.52503     33.6905E-03    -16.6855E-03    -17.0050E-03    -16.7175E-03     33.4030E-03    -16.6855E-03     7.60106E-03    -3.46761E+06    -4.56032E+06    -104.092E+06    -4.22855E+06    -103.948E+06    -3.94345E+06     3.77511E+06         23.5800
             844     7.86869E-03     21.5833E-03         1.91855         1.19169        -6.58753         1.89692        -6.56590         1.19169    -846.394E-03     33.6149E-03    -16.7156E-03    -16.8993E-03    -16.6514E-03     33.3670E-03    -16.7156E-03     7.05549E-03    -2.99221E+06    -4.43171E+06    -121.987E+06    -4.38372E+06    -121.850E+06    -3.17738E+06     3.94415E+06         23.2214
             845     6.88547E-03     21.5754E-03         1.73004         1.11254        -6.33370         1.65162        -6.25528         1.11254        -1.46848     33.6714E-03    -16.7444E-03    -16.9270E-03    -16.7236E-03     33.4680E-03    -16.7444E-03     6.38291E-03    -2.80775E+06    -5.36555E+06    -137.057E+06    -5.43242E+06    -136.990E+06    -2.80775E+06     2.82695E+06         22.9955
             846     5.90153E-03     21.5687E-03         1.59586         1.05004        -6.13247         1.37489        -5.91150         1.05004        -2.50347     33.6366E-03    -16.7700E-03    -16.8667E-03    -16.7137E-03     33.4837E-03    -16.7700E-03     5.52723E-03    -3.49964E+06    -6.57364E+06    -153.513E+06    -6.61590E+06    -153.471E+06    -3.49964E+06     2.28517E+06         22.8390
             847     4.91821E-03     21.5625E-03         1.33331         1.01509        -5.82496         1.12120        -5.61285         1.01509    -682.422E-03     33.6453E-03    -16.7951E-03    -16.8502E-03    -16.7353E-03     33.5303E-03    -16.7951E-03     4.80091E-03    -3.98489E+06    -7.47585E+06    -166.828E+06    -7.52343E+06    -166.781E+06    -3.98489E+06     2.47005E+06         22.7240
             848     3.93430E-03     21.5576E-03         1.11431     966.020E-03        -5.54164     945.820E-03        -5.42263         1.01550    -50.2030E-03     33.6523E-03    -16.8125E-03    -16.8398E-03    -16.7574E-03     33.5699E-03    -16.8125E-03     4.05011E-03    -4.94497E+06    -8.34025E+06    -175.996E+06    -8.37670E+06    -175.959E+06    -4.94497E+06     2.28286E+06         22.6381
             849     2.95064E-03     21.5532E-03         1.18422     961.259E-03        -5.60412     889.508E-03        -5.40156         1.05342     501.964E-03     33.6887E-03    -16.8186E-03    -16.8701E-03    -16.8230E-03     33.6416E-03    -16.8186E-03     3.02488E-03    -5.93729E+06    -9.68094E+06    -183.118E+06    -9.69636E+06    -183.102E+06    -5.93729E+06     1.24409E+06         22.5755
             850     1.96749E-03     21.5507E-03         1.41088         1.07119        -5.93378     987.720E-03        -5.55329         1.11386    -375.339E-03     33.6550E-03    -16.7870E-03    -16.8680E-03    -16.8465E-03     33.6336E-03    -16.7872E-03     2.03910E-03    -8.11801E+06    -11.6212E+06    -185.937E+06    -11.6255E+06    -185.933E+06    -8.11801E+06     674.589E+03         22.5332
             851     983.359E-06     21.5484E-03         2.23728         1.80772        -7.50712     460.723E-03        -5.75529         1.83245         3.34295     33.4947E-03    -16.6750E-03    -16.8197E-03    -16.8119E-03     33.4871E-03    -16.6752E-03     1.13719E-03    -10.9422E+06    -14.3642E+06    -187.568E+06    -13.5855E+06    -187.562E+06    -11.7274E+06     890.106E+03         22.5090
             852     16.7269E-03     21.1145E-03         2.62474         2.13622        -7.80460         2.61518        -7.79504         2.13622    -126.456E-03     199.002E-03    -17.0813E-03    -181.920E-03    -41.4454E-03     58.5266E-03    -17.0813E-03     367.557E-03     185.159E+06     113.689E+06    -8.44483E+06    -8.43487E+06     185.149E+06     113.689E+06    -204.980E+03         60.2930
             853     15.7407E-03     20.7366E-03         2.84986         2.25265        -8.33683         2.81825        -8.30523         2.25265        -1.06273     124.898E-03    -16.6386E-03    -108.260E-03    -27.6990E-03     44.3376E-03    -16.6386E-03     220.224E-03     145.058E+06     22.0361E+06    -13.4969E+06    -13.3157E+06     145.034E+06     21.8787E+06     1.09280E+06         53.1574
             854     14.7559E-03     20.6497E-03         2.77573         2.29033        -8.39754         2.74897        -8.37078         2.29033    -908.656E-03     46.6004E-03    -16.3304E-03    -30.2700E-03    -16.6163E-03     32.9467E-03    -16.3304E-03     55.1538E-03     101.879E+06    -13.4700E+06    -48.3993E+06    -14.8865E+06     101.806E+06    -46.9098E+06     2.41710E+06         44.6802
             855     13.7703E-03     20.6220E-03         2.95173         2.27193        -8.61045         2.94805        -8.60677         2.27193    -378.434E-03     35.4076E-03    -16.2076E-03    -19.2000E-03    -16.8731E-03     33.0807E-03    -16.2076E-03     21.6531E-03     61.3364E+06    -11.7292E+06    -67.7562E+06    -11.6381E+06     61.2453E+06    -67.7562E+06     2.48887E+06         36.9955
             856     12.7886E-03     20.6023E-03         3.35311         2.21519        -8.99606         3.34212        -8.98506         2.21519    -658.368E-03     34.2669E-03    -16.2966E-03    -17.9703E-03    -16.8941E-03     33.1907E-03    -16.2966E-03     14.5775E-03     17.5075E+06    -9.70834E+06    -46.7243E+06    -6.94770E+06     14.7469E+06    -46.7243E+06     1.97634E+06         31.2399
             857     11.8046E-03     20.5880E-03         3.58237         2.11885        -9.15643         3.56960        -9.14366         2.11885    -750.450E-03     33.4642E-03    -16.3958E-03    -17.0684E-03    -16.5581E-03     32.9539E-03    -16.3958E-03     9.94916E-03    -3.48505E+06    -15.2790E+06    -43.9030E+06    -4.01271E+06    -29.1040E+06    -29.5503E+06     2.32607E+06         27.5156
             858     10.8203E-03     20.5789E-03         3.41776         1.99995        -8.89795         3.40970        -8.88989         1.99995    -594.987E-03     33.5980E-03    -16.4915E-03    -17.1066E-03    -16.7052E-03     33.1967E-03    -16.4915E-03     8.94115E-03    -2.85916E+06    -14.3127E+06    -60.0326E+06    -3.02072E+06    -59.8710E+06    -14.3127E+06     2.99298E+06         25.3536
             859     9.83768E-03     20.5666E-03         3.06059         1.88496        -8.45719         3.00548        -8.40207         1.88496        -1.37644     33.6078E-03    -16.5412E-03    -17.0666E-03    -16.7098E-03     33.2510E-03    -16.5412E-03     8.36002E-03    -2.79682E+06    -6.68581E+06    -83.4514E+06    -2.97335E+06    -83.2748E+06    -6.68581E+06     3.67877E+06         24.1779
             860     8.85311E-03     20.5584E-03         2.77378         1.78178        -8.10399         2.71397        -8.04419         1.78178        -1.49835     33.4015E-03    -16.5729E-03    -16.8285E-03    -16.5879E-03     33.1609E-03    -16.5729E-03     6.92245E-03    -2.92091E+06    -4.12012E+06    -104.484E+06    -3.08649E+06    -104.318E+06    -4.12012E+06     4.03437E+06         23.5438
             861     7.87001E-03     20.5499E-03         2.53048         1.68225        -7.79108         2.51245        -7.77305         1.68225    -843.393E-03     33.4794E-03    -16.5941E-03    -16.8853E-03    -16.6703E-03     33.2644E-03    -16.5941E-03     6.54821E-03    -3.06377E+06    -3.57922E+06    -120.510E+06    -3.57401E+06    -120.360E+06    -3.21888E+06     4.16579E+06         23.1827
             862     6.88602E-03     20.5421E-03         2.18181         1.59688        -7.36900         2.11919        -7.30638         1.59688        -1.37714     33.4392E-03    -16.6154E-03    -16.8238E-03    -16.6548E-03     33.2702E-03    -16.6154E-03     5.78922E-03    -1.80023E+06    -3.92665E+06    -136.035E+06    -4.05927E+06    -135.902E+06    -1.80023E+06     3.96855E+06         22.9561
             863     5.90264E-03     20.5355E-03         1.91203         1.54829        -7.04887         1.72468        -6.86152         1.54829        -2.48314     33.3718E-03    -16.6361E-03    -16.7357E-03    -16.6071E-03     33.2432E-03    -16.6361E-03     5.05686E-03    -2.38829E+06    -5.59928E+06    -152.907E+06    -5.70377E+06    -152.803E+06    -2.38829E+06     3.66200E+06         22.7996
             864     4.91845E-03     20.5294E-03         1.81941         1.52209        -6.91554         1.66812        -6.76426         1.52209    -979.284E-03     33.3707E-03    -16.6456E-03    -16.7251E-03    -16.6251E-03     33.2707E-03    -16.6456E-03     4.44636E-03    -5.18085E+06    -7.90289E+06    -166.534E+06    -7.96444E+06    -166.472E+06    -5.18085E+06     2.98965E+06         22.6850
             865     3.93501E-03     20.5244E-03         1.71447         1.44436        -6.71391         1.62428        -6.67320         1.49384    -18.7032E-03     33.3670E-03    -16.6522E-03    -16.7148E-03    -16.6473E-03     33.2994E-03    -16.6522E-03     3.64877E-03    -6.20323E+06    -9.06871E+06    -174.730E+06    -9.11021E+06    -174.688E+06    -6.20323E+06     2.52592E+06         22.5995
             866     2.95128E-03     20.5201E-03         1.66466         1.39458        -6.61338         1.44282        -6.48369         1.48674     741.436E-03     33.3224E-03    -16.6239E-03    -16.6985E-03    -16.6231E-03     33.2814E-03    -16.6584E-03     2.82337E-03    -7.00313E+06    -10.4195E+06    -181.285E+06    -10.2081E+06    -181.259E+06    -7.24041E+06     1.81129E+06         22.5371
             867     1.96733E-03     20.5173E-03         1.64061         1.46143        -6.65716         1.40871        -6.48765         1.52381     357.052E-03     33.3358E-03    -16.6173E-03    -16.7184E-03    -16.6643E-03     33.3163E-03    -16.6520E-03     1.91033E-03    -8.80666E+06    -11.9861E+06    -186.129E+06    -11.7599E+06    -186.118E+06    -9.04393E+06     1.17557E+06         22.4950
             868     984.054E-06     20.5158E-03         2.17991         1.96037        -7.71379     954.303E-03        -6.67936         2.15156         3.29160     33.2589E-03    -16.5506E-03    -16.7083E-03    -16.6525E-03     33.2532E-03    -16.6007E-03     948.629E-06    -9.87946E+06    -13.8668E+06    -186.271E+06    -12.4403E+06    -186.264E+06    -11.3130E+06     415.555E+03         22.4711
             869     16.7243E-03     20.0789E-03         2.70713         2.41778        -8.39952         2.52906        -8.39677         2.59311     125.136E-03     197.940E-03    -17.1712E-03    -180.769E-03    -40.9352E-03     58.1064E-03    -17.1712E-03     365.514E-03     183.174E+06     113.319E+06    -9.04426E+06    -9.04134E+06     183.171E+06     113.319E+06    -218.570E+03         60.1151
             870     15.7399E-03     19.7041E-03         2.84666         2.52424        -8.77517         2.63108        -8.76680         2.73145    -484.671E-03     125.146E-03    -16.6988E-03    -108.447E-03    -29.2737E-03     45.9726E-03    -16.6988E-03     219.471E-03     144.082E+06     24.5520E+06    -14.7633E+06    -14.7428E+06     144.062E+06     24.5520E+06     914.383E+03         53.0310
             871     14.7550E-03     19.6152E-03         2.94759         2.70520        -9.11959         2.84705        -9.11159         2.79775    -479.708E-03     47.5294E-03    -16.2916E-03    -31.2378E-03    -17.9658E-03     34.2574E-03    -16.2916E-03     54.7555E-03     104.003E+06    -10.0981E+06    -47.2618E+06    -14.6135E+06     103.970E+06    -42.7133E+06     1.71191E+06         44.6188
             872     13.7741E-03     19.5876E-03         3.39730         2.79385        -9.69941         3.39659        -9.69870         2.79385    -169.588E-03     35.4607E-03    -16.0780E-03    -19.3827E-03    -17.4200E-03     33.4979E-03    -16.0780E-03     20.0619E-03     61.3715E+06    -10.0226E+06    -67.5637E+06    -9.96033E+06     61.3092E+06    -67.5637E+06     1.60476E+06         36.9731
             873     12.7900E-03     19.5675E-03         3.94871         2.73532        -10.2233         3.94364        -10.2182         2.73532    -456.653E-03     33.7595E-03    -16.1405E-03    -17.6189E-03    -16.7351E-03     32.8756E-03    -16.1405E-03     13.0288E-03     16.6368E+06    -8.90731E+06    -47.4968E+06    -5.85674E+06     13.5862E+06    -47.4968E+06     2.22205E+06         31.2250
             874     11.8061E-03     19.5563E-03         4.07918         2.63575        -10.2770         4.07352        -10.2713         2.63575    -523.126E-03     33.2243E-03    -16.2330E-03    -16.9914E-03    -16.5758E-03     32.8088E-03    -16.2330E-03     9.02983E-03    -2.60957E+06    -16.3775E+06    -43.6476E+06    -3.29243E+06    -29.3012E+06    -30.0411E+06     2.88481E+06         27.4921
             875     10.8229E-03     19.5440E-03         3.80787         2.52347        -9.91720         3.80327        -9.91260         2.52347    -470.467E-03     33.3482E-03    -16.3106E-03    -17.0376E-03    -16.7127E-03     33.0233E-03    -16.3106E-03     8.04869E-03    -1.81812E+06    -15.4469E+06    -61.2196E+06    -2.04822E+06    -60.9895E+06    -15.4469E+06     3.62963E+06         25.3190
             876     9.83878E-03     19.5343E-03         3.52221         2.41813        -9.55848         3.47122        -9.50750         2.41813        -1.40723     33.1953E-03    -16.3546E-03    -16.8407E-03    -16.5891E-03     32.9436E-03    -16.3546E-03     6.98251E-03    -1.75380E+06    -6.33459E+06    -83.4487E+06    -2.00631E+06    -83.1962E+06    -6.33459E+06     4.48115E+06         24.1342
             877     8.85529E-03     19.5250E-03         3.32973         2.31741        -9.30325         3.27173        -9.24525         2.31741        -1.61015     33.0661E-03    -16.3721E-03    -16.6940E-03    -16.5140E-03     32.8861E-03    -16.3721E-03     5.94596E-03    -2.44034E+06    -4.36922E+06    -103.606E+06    -2.67435E+06    -103.372E+06    -4.36922E+06     4.79647E+06         23.4946
             878     7.87124E-03     19.5168E-03         3.05690         2.21721        -8.95958         3.04347        -8.94615         2.21721    -746.460E-03     33.0867E-03    -16.3788E-03    -16.7079E-03    -16.5527E-03     32.9315E-03    -16.3788E-03     5.50703E-03    -2.93478E+06    -4.02040E+06    -119.916E+06    -3.29068E+06    -119.720E+06    -3.86134E+06      4.7397E+06         23.1305
             879     6.88773E-03     19.5092E-03         2.69926         2.13183        -8.52962         2.66127        -8.49163         2.13183        -1.08541     32.9818E-03    -16.3906E-03    -16.5912E-03    -16.4687E-03     32.8593E-03    -16.3906E-03     4.87996E-03    -2.46179E+06    -3.84781E+06    -135.263E+06    -3.89495E+06    -135.074E+06    -2.60366E+06     4.95157E+06         22.9025
             880     5.90348E-03     19.5026E-03         2.42239         2.07958        -8.19345         2.29557        -8.06663         2.07958        -2.19525     32.9681E-03    -16.4098E-03    -16.5583E-03    -16.4641E-03     32.8738E-03    -16.4098E-03     4.27968E-03    -1.48510E+06    -4.77886E+06    -152.285E+06    -4.94622E+06    -152.118E+06    -1.48510E+06     4.82494E+06         22.7455
             881     4.91999E-03     19.4968E-03         2.28949         2.05080        -8.01538         2.18896        -7.91484         2.05080    -916.183E-03     32.9395E-03    -16.4072E-03    -16.5322E-03    -16.4603E-03     32.8675E-03    -16.4072E-03     3.74177E-03    -3.26495E+06    -6.69424E+06    -164.960E+06    -6.83460E+06    -164.820E+06    -3.26495E+06     4.53147E+06         22.6307
             882     3.93587E-03     19.4914E-03         2.33490         1.99924        -7.99663         2.32137        -7.98310         1.99924     137.909E-03     32.8377E-03    -16.3932E-03    -16.4445E-03    -16.3939E-03     32.7871E-03    -16.3932E-03     3.12020E-03    -6.56384E+06    -9.11791E+06    -172.986E+06    -8.90337E+06    -172.902E+06    -6.86265E+06     3.44691E+06         22.5452
             883     2.95191E-03     19.4878E-03         2.44769         1.87576        -7.98125         2.38651        -7.92007         1.87576     744.760E-03     32.7769E-03    -16.3649E-03    -16.4120E-03    -16.3469E-03     32.7462E-03    -16.3993E-03     2.42518E-03    -8.54502E+06    -10.4492E+06    -180.333E+06    -9.95025E+06    -180.296E+06    -9.08111E+06     2.48391E+06         22.4827
             884     1.96785E-03     19.4844E-03         2.10856         1.69498        -7.45746         2.02296        -7.39156         1.71469     747.793E-03     32.7953E-03    -16.3274E-03    -16.4679E-03    -16.3508E-03     32.7793E-03    -16.4285E-03     1.70291E-03    -9.13098E+06    -11.0163E+06    -185.186E+06    -10.4997E+06    -185.164E+06    -9.66913E+06     1.53416E+06         22.4405
             885     983.806E-06     19.4828E-03         2.27330         1.58202        -7.51718         1.05376        -6.93775         2.22213         2.76784     32.8776E-03    -16.3007E-03    -16.5769E-03    -16.4560E-03     32.8733E-03    -16.4173E-03     793.431E-06    -8.66446E+06    -12.8159E+06    -184.333E+06    -11.0861E+06    -184.329E+06    -10.3988E+06    -261.324E+03         22.4166
             886     16.7204E-03     19.0388E-03         3.01626         2.47889        -9.00651         2.47687        -9.00450         3.01626     229.198E-03     198.048E-03    -17.2377E-03    -180.810E-03    -41.3431E-03     58.5808E-03    -17.2377E-03     365.364E-03     182.381E+06     114.399E+06    -9.72968E+06    -9.72788E+06     182.379E+06     114.399E+06     284.413E+03         59.8970
             887     15.7394E-03     18.6700E-03         3.17419         2.69295        -9.43669         2.68998        -9.43373         3.17419    -251.066E-03     123.887E-03    -16.6738E-03    -107.213E-03    -31.0850E-03     47.7587E-03    -16.6738E-03     215.410E-03     144.044E+06     24.9283E+06    -14.8779E+06    -14.8701E+06     144.036E+06     24.9283E+06     233.882E+03         52.8631
             888     14.7589E-03     18.5783E-03         3.33530         3.07356        -10.0248         3.15268        -10.0216         3.25292    -213.907E-03     47.6580E-03    -16.1499E-03    -31.5082E-03    -18.9347E-03     35.0845E-03    -16.1499E-03     53.4107E-03     104.154E+06    -10.0025E+06    -46.5771E+06    -13.5967E+06     104.146E+06    -42.9749E+06     171.493E+03         44.5209
             889     13.7761E-03     18.5528E-03         3.69183         3.25762        -10.6004         3.69143        -10.6000         3.25762     10.8103E-03     35.0753E-03    -15.8839E-03    -19.1913E-03    -17.5625E-03     33.4464E-03    -15.8839E-03     18.2723E-03     60.8901E+06    -9.38927E+06    -68.7247E+06    -9.31749E+06     60.8183E+06    -68.7247E+06     1.45152E+06         36.9198
             890     12.7927E-03     18.5354E-03         4.04353         3.21857        -10.9348         4.04103        -10.9323         3.21857    -310.998E-03     33.4636E-03    -15.9208E-03    -17.5429E-03    -16.8138E-03     32.7346E-03    -15.9208E-03     11.7271E-03     16.2014E+06    -9.37861E+06    -49.4239E+06    -5.83512E+06     12.6579E+06    -49.4239E+06     2.64765E+06         31.1861
             891     11.8091E-03     18.5218E-03         4.08617         3.15469        -10.9306         4.08322        -10.9276         3.15469    -394.483E-03     33.0716E-03    -15.9898E-03    -17.0818E-03    -16.7619E-03     32.7518E-03    -15.9898E-03     7.92076E-03    -2.86271E+06    -17.0408E+06    -44.0088E+06    -3.68252E+06    -29.5067E+06    -30.7231E+06     3.52776E+06         27.4508
             892     10.8254E-03     18.5118E-03         4.05724         3.07757        -10.8463         4.05312        -10.8422         3.07757    -448.189E-03     32.9805E-03    -16.0373E-03    -16.9431E-03    -16.7115E-03     32.7488E-03    -16.0373E-03     6.72532E-03    -2.27279E+06    -16.1935E+06    -62.0744E+06    -2.61020E+06    -61.7370E+06    -16.1935E+06     4.32468E+06         25.2694
             893     9.84188E-03     18.5006E-03         4.10874         2.98456        -10.8346         4.06974        -10.7956         2.98456        -1.33307     32.7860E-03    -16.0548E-03    -16.7312E-03    -16.5752E-03     32.6300E-03    -16.0548E-03     5.42476E-03    -1.69149E+06    -6.57104E+06    -83.5885E+06    -1.99031E+06    -83.2897E+06    -6.57104E+06     4.91600E+06         24.0767
             894     8.85794E-03     18.4928E-03         3.91660         2.88002        -10.5716         3.87506        -10.5301         2.88002        -1.39767     32.5866E-03    -16.0428E-03    -16.5438E-03    -16.4372E-03     32.4800E-03    -16.0428E-03     4.48815E-03    -1.41913E+06    -4.16731E+06    -102.722E+06    -1.72574E+06    -102.415E+06    -4.16731E+06     5.54391E+06         23.4313
             895     7.87413E-03     18.4838E-03         3.52889         2.78308        -10.1156         3.52227        -10.1090         2.78308    -483.049E-03     32.3876E-03    -16.0329E-03    -16.3547E-03    -16.2642E-03     32.2971E-03    -16.0329E-03     4.11024E-03    -1.69491E+06    -3.59553E+06    -119.973E+06    -1.98382E+06    -119.684E+06    -3.59553E+06     5.82097E+06         23.0635
             896     6.88983E-03     18.4771E-03         3.32899         2.69746        -9.84044         3.30744        -9.81890         2.69746    -831.416E-03     32.3180E-03    -16.0341E-03    -16.2839E-03    -16.2144E-03     32.2485E-03    -16.0341E-03     3.60759E-03    -1.94666E+06    -3.21852E+06    -134.363E+06    -3.30929E+06    -134.077E+06    -2.14237E+06     6.01198E+06         22.8329
             897     5.90593E-03     18.4701E-03         3.17561         2.61694        -9.59604         3.10385        -9.52428         2.61694        -1.83390     32.2974E-03    -16.0341E-03    -16.2634E-03    -16.2090E-03     32.2430E-03    -16.0341E-03     3.17594E-03    -1.43773E+06    -4.75704E+06    -151.396E+06    -5.02646E+06    -151.126E+06    -1.43773E+06     6.16257E+06         22.6741
             898     4.92163E-03     18.4644E-03         2.90162         2.54998        -9.23612         2.84327        -9.17778         2.54998    -678.111E-03     32.1672E-03    -16.0177E-03    -16.1494E-03    -16.1092E-03     32.1269E-03    -16.0177E-03     2.71720E-03    -2.61807E+06    -5.91869E+06    -163.308E+06    -6.13457E+06    -163.092E+06    -2.61807E+06     5.79583E+06         22.5581
             899     3.93740E-03     18.4596E-03         2.75975         2.49045        -9.02085         2.75069        -9.01179         2.49045     241.492E-03     32.0250E-03    -15.9916E-03    -16.0334E-03    -15.9971E-03     31.9948E-03    -15.9977E-03     2.34110E-03    -6.00783E+06    -7.48717E+06    -170.778E+06    -7.34854E+06    -170.618E+06    -6.30665E+06     4.90253E+06         22.4717
             900     2.95300E-03     18.4554E-03         2.89657         2.37658        -9.04739         2.87659        -9.02740         2.37658     435.091E-03     31.9987E-03    -15.9931E-03    -16.0056E-03    -15.9810E-03     31.9802E-03    -15.9992E-03     1.83623E-03    -8.50118E+06    -9.33677E+06    -178.296E+06    -9.12617E+06    -178.207E+06    -8.80000E+06     3.42904E+06         22.4085
             901     1.96874E-03     18.4527E-03         2.65488         2.18389        -8.59923         2.62868        -8.57303         2.18389     903.157E-03     31.9738E-03    -15.9455E-03    -16.0282E-03    -15.9397E-03     31.9645E-03    -16.0247E-03     1.29425E-03    -9.19486E+06    -10.4102E+06    -182.810E+06    -10.1368E+06    -182.783E+06    -9.49573E+06     1.81642E+06         22.3657
             902     984.083E-06     18.4505E-03         2.69719         1.62247        -8.08484         1.55921        -7.91368         2.58929         1.58770     32.0727E-03    -15.9302E-03    -16.1426E-03    -16.0470E-03     32.0693E-03    -16.0223E-03     721.917E-06    -9.90884E+06    -13.0448E+06    -183.942E+06    -11.8259E+06    -183.929E+06    -11.1407E+06     63.2508E+03         22.3413
             903     16.7214E-03     17.9971E-03         3.42740         2.62039        -9.73210         2.61730        -9.72900         3.42740     142.781E-03     199.876E-03    -17.1992E-03    -182.677E-03    -43.1639E-03     60.3631E-03    -17.1992E-03     368.152E-03     183.362E+06     116.212E+06    -9.54184E+06    -9.53793E+06     183.358E+06     116.212E+06     98.2860E+03         59.6055
             904     15.7442E-03     17.6337E-03         3.59132         3.11289        -10.4331         3.10585        -10.4260         3.59132    -493.752E-03     122.037E-03    -16.5238E-03    -105.514E-03    -32.0682E-03     48.5920E-03    -16.5238E-03     211.000E-03     144.928E+06     25.0601E+06    -14.2218E+06    -12.9906E+06     144.921E+06     23.8367E+06    -161.010E+03         52.6269
             905     14.7612E-03     17.5422E-03         3.74720         3.56609        -11.0966         3.64233        -11.0899         3.66423    -289.895E-03     47.2271E-03    -15.9185E-03    -31.3086E-03    -19.1770E-03     35.0955E-03    -15.9185E-03     52.0203E-03     101.088E+06    -12.1202E+06    -48.7283E+06    -12.6534E+06     101.078E+06    -48.1851E+06     305.953E+03         44.3640
             906     13.7790E-03     17.5190E-03         3.87242         3.60803        -11.2943         3.80357        -11.2931         3.67567     211.472E-03     34.7899E-03    -15.6385E-03    -19.1514E-03    -17.8749E-03     33.5134E-03    -15.6385E-03     15.9102E-03     59.2002E+06    -9.91465E+06    -69.9653E+06    -9.85681E+06     59.1424E+06    -69.9653E+06     1.51020E+06         36.8223
             907     12.7963E-03     17.5012E-03         3.91995         3.51483        -11.2645         3.75770        -11.2625         3.67504    -90.9002E-03     33.3656E-03    -15.6313E-03    -17.7343E-03    -17.2359E-03     32.8671E-03    -15.6313E-03     9.73403E-03     16.9107E+06    -10.6792E+06    -49.4078E+06    -6.35255E+06     12.5840E+06    -49.4078E+06     3.27566E+06         31.1178
             908     11.8130E-03     17.4895E-03         4.06257         3.57259        -11.4773         3.96852        -11.4758         3.66515    -255.390E-03     32.8109E-03    -15.6448E-03    -17.1661E-03    -16.9465E-03     32.5913E-03    -15.6448E-03     6.45639E-03    -2.94425E+06    -18.3765E+06    -45.0487E+06    -4.45308E+06    -30.0205E+06    -31.8959E+06     4.49182E+06         27.3891
             909     10.8297E-03     17.4780E-03         4.41354         3.62203        -11.8939         4.41206        -11.8925         3.62203    -199.681E-03     32.6134E-03    -15.6430E-03    -16.9703E-03    -16.8432E-03     32.4862E-03    -15.6430E-03     4.90110E-03    -2.64090E+06    -17.4228E+06    -61.4061E+06    -3.01754E+06    -61.0295E+06    -17.4228E+06     4.52856E+06         25.2038
             910     9.84605E-03     17.4689E-03         4.59858         3.53900        -12.0201         4.58216        -12.0037         3.53900    -786.160E-03     32.2616E-03    -15.6117E-03    -16.6499E-03    -16.5724E-03     32.1841E-03    -15.6117E-03     3.71535E-03    -2.11528E+06    -8.69240E+06    -84.1421E+06    -2.43632E+06    -83.8211E+06    -8.69240E+06     5.09767E+06         24.0047
             911     8.86237E-03     17.4597E-03         4.33939         3.44251        -11.6935         4.32310        -11.6772         3.44251    -760.669E-03     31.8887E-03    -15.5671E-03    -16.3217E-03    -16.2786E-03     31.8457E-03    -15.5671E-03     2.75550E-03    -2.10675E+06    -4.85035E+06    -102.959E+06    -2.49466E+06    -102.571E+06    -4.85035E+06     6.20908E+06         23.3535
             912     7.87803E-03     17.4529E-03         4.03910         3.35520        -11.3295         4.03786        -11.3282         3.35520    -98.1148E-03     31.5691E-03    -15.5221E-03    -16.0470E-03    -16.0116E-03     31.5337E-03    -15.5221E-03     2.45584E-03    -2.46985E+06    -3.95104E+06    -118.923E+06    -2.85940E+06    -118.533E+06    -3.95104E+06     6.67208E+06         22.9809
             913     6.89357E-03     17.4447E-03         3.98234         3.26632        -11.1903         3.96929        -11.1772         3.26632    -600.259E-03     31.3841E-03    -15.4934E-03    -15.8907E-03    -15.8637E-03     31.3572E-03    -15.4934E-03     2.09063E-03    -1.79374E+06    -2.97317E+06    -134.167E+06    -2.91904E+06    -133.803E+06    -2.21130E+06     6.88812E+06         22.7464
             914     5.90914E-03     17.4389E-03         3.89662         3.16158        -10.9864         3.85834        -10.9481         3.16158        -1.44252     31.2319E-03    -15.4718E-03    -15.7600E-03    -15.7408E-03     31.2126E-03    -15.4718E-03     1.74445E-03    -807.746E+03    -2.71730E+06    -150.328E+06    -3.06611E+06    -149.979E+06    -807.746E+03     7.13024E+06         22.5844
             915     4.92450E-03     17.4329E-03         3.56108         3.05934        -10.5275         3.53097        -10.4974         3.05934    -478.532E-03     31.0512E-03    -15.4399E-03    -15.6113E-03    -15.5972E-03     31.0371E-03    -15.4399E-03     1.49388E-03    -2.17873E+06    -4.03931E+06    -161.474E+06    -4.32756E+06    -161.186E+06    -2.17873E+06     6.65033E+06         22.4656
             916     3.93969E-03     17.4285E-03         3.17418         2.97436        -10.0403         3.14759        -10.0350         2.99568     263.261E-03     30.9097E-03    -15.4053E-03    -15.5044E-03    -15.4877E-03     30.8991E-03    -15.4114E-03     1.28687E-03    -4.29650E+06    -6.00819E+06    -168.318E+06    -6.25006E+06    -168.076E+06    -4.29650E+06     6.21489E+06         22.3771
             917     2.95476E-03     17.4243E-03         3.11482         2.80826        -9.81452         2.92895        -9.80923         2.98883     258.836E-03     30.8085E-03    -15.3851E-03    -15.4234E-03    -15.4065E-03     30.8009E-03    -15.3944E-03     1.06050E-03    -6.43115E+06    -7.75512E+06    -174.772E+06    -7.67897E+06    -174.604E+06    -6.67610E+06     4.94998E+06         22.3122
             918     1.96978E-03     17.4216E-03         3.18898         2.79623        -9.88323         2.93331        -9.85475         3.02343         1.12389     30.7897E-03    -15.3673E-03    -15.4225E-03    -15.4034E-03     30.7863E-03    -15.3829E-03     733.197E-06    -8.24153E+06    -9.46508E+06    -179.894E+06    -9.28255E+06    -179.832E+06    -8.48648E+06     2.84042E+06         22.2680
             919     985.130E-06     17.4196E-03         3.47774         2.64585        -10.0266         2.67518        -9.99915         3.42100     882.104E-03     30.7333E-03    -15.3351E-03    -15.3983E-03    -15.3689E-03     30.7311E-03    -15.3622E-03     592.056E-06    -10.2293E+06    -12.2075E+06    -182.855E+06    -11.3200E+06    -182.812E+06    -11.1603E+06     1.77573E+06         22.2426
             920     16.7237E-03     16.9531E-03         3.82897         2.90229        -10.5416         2.89483        -10.5342         3.82897    -10.7291E-03     201.468E-03    -17.0276E-03    -184.440E-03    -45.4814E-03     62.5090E-03    -17.0276E-03     370.414E-03     184.170E+06     115.501E+06    -7.65769E+06    -7.64928E+06     184.161E+06     115.501E+06     796.345E+03         59.2075
             921     15.7458E-03     16.5960E-03         3.99237         3.52395        -11.4232         3.50394        -11.4032         3.99237        -1.01800     119.725E-03    -16.2663E-03    -103.459E-03    -32.2273E-03     48.4937E-03    -16.2663E-03     205.906E-03     143.825E+06     23.0199E+06    -14.4448E+06    -13.2055E+06     143.809E+06     21.7965E+06    -194.793E+03         52.3010
             922     14.7653E-03     16.5080E-03         4.11053         3.96928        -12.0510         3.99904        -12.0341         4.06394    -754.475E-03     46.1822E-03    -15.6124E-03    -30.5698E-03    -19.6534E-03     35.2658E-03    -15.6124E-03     48.5656E-03     99.5189E+06    -11.4270E+06    -50.1054E+06    -12.6148E+06     99.4975E+06    -48.8962E+06     320.238E+03         44.1381
             923     13.7838E-03     16.4826E-03         4.13139         3.93607        -12.0668         3.97989        -12.0640         4.08480     205.343E-03     34.3181E-03    -15.2793E-03    -19.0387E-03    -18.1571E-03     33.4364E-03    -15.2793E-03     12.8572E-03     57.4638E+06    -9.79273E+06    -70.9066E+06    -9.64393E+06     57.3150E+06    -70.9066E+06     2.26816E+06         36.6777
             924     12.8016E-03     16.4691E-03         4.10728         3.79714        -11.9128         3.79452        -11.9102         4.10728     228.734E-03     33.0824E-03    -15.2245E-03    -17.8579E-03    -17.5984E-03     32.8229E-03    -15.2245E-03     6.99136E-03     15.7922E+06    -10.5634E+06    -49.0175E+06    -6.83671E+06     12.0655E+06    -49.0175E+06     3.85494E+06         31.0179
             925     11.8184E-03     16.4555E-03         4.25976         3.94545        -12.2201         4.07823        -12.2195         4.12639    -387.024E-06     32.4800E-03    -15.1761E-03    -17.3039E-03    -17.1946E-03     32.3707E-03    -15.1761E-03     4.30866E-03    -2.52387E+06    -17.6615E+06    -45.0195E+06    -4.19749E+06    -29.7598E+06    -31.2476E+06     4.61427E+06         27.3060
             926     10.8353E-03     16.4462E-03         4.63602         4.10894        -12.7703         4.63534        -12.7696         4.10894     137.820E-03     32.0623E-03    -15.1207E-03    -16.9416E-03    -16.8969E-03     32.0176E-03    -15.1207E-03     2.67659E-03    -2.04634E+06    -16.0031E+06    -61.3847E+06    -2.52085E+06    -60.9101E+06    -16.0031E+06     5.22823E+06         25.1223
             927     9.85183E-03     16.4361E-03         4.80543         4.05170        -12.9003         4.80221        -12.8971         4.05170    -159.614E-03     31.5351E-03    -15.0387E-03    -16.4964E-03    -16.4733E-03     31.5120E-03    -15.0387E-03     1.61022E-03    -1.88806E+06    -7.21426E+06    -84.2686E+06    -2.31353E+06    -83.8431E+06    -7.21426E+06     5.84359E+06         23.9190
             928     8.86766E-03     16.4291E-03         4.65347         3.98102        -12.7021         4.65009        -12.6987         3.98102    -136.376E-03     31.0435E-03    -14.9384E-03    -16.1050E-03    -16.0950E-03     31.0335E-03    -14.9384E-03     792.679E-06    -2.14778E+06    -4.53221E+06    -103.222E+06    -2.57106E+06    -102.799E+06    -4.53221E+06     6.51495E+06         23.2621
             929     7.88341E-03     16.4211E-03         4.58026         3.90564        -12.5690         4.57817        -12.5669         3.90564     318.777E-03     30.6194E-03    -14.8375E-03    -15.7818E-03    -15.7746E-03     30.6121E-03    -14.8375E-03     585.071E-06    -2.12796E+06    -3.52289E+06    -117.947E+06    -2.59328E+06    -117.482E+06    -3.52289E+06     7.29819E+06         22.8838
             930     6.89891E-03     16.4148E-03         4.57462         3.81333        -12.4712         4.56745        -12.4640         3.81333    -247.362E-03     30.1600E-03    -14.7505E-03    -15.4095E-03    -15.4046E-03     30.1551E-03    -14.7505E-03     421.886E-06    -2.38084E+06    -3.79835E+06    -133.351E+06    -2.82513E+06    -132.956E+06    -3.74939E+06     7.11348E+06         22.6439
             931     5.91362E-03     16.4081E-03         4.41663         3.70459        -12.1889         4.40197        -12.1742         3.70459    -931.383E-03     29.8226E-03    -14.6964E-03    -15.1262E-03    -15.1227E-03     29.8191E-03    -14.6964E-03     204.077E-06    -1.52401E+06    -3.82517E+06    -149.634E+06    -3.31529E+06    -149.273E+06    -2.39497E+06     7.26344E+06         22.4769
             932     4.92834E-03     16.4033E-03         4.10023         3.60100        -11.7486         4.08433        -11.7327         3.60100    -48.7046E-03     29.5892E-03    -14.6454E-03    -14.9438E-03    -14.9403E-03     29.5857E-03    -14.6454E-03     103.484E-06    -1.78154E+06    -3.96383E+06    -159.769E+06    -4.38165E+06    -159.352E+06    -1.78154E+06     8.01894E+06         22.3538
             933     3.94289E-03     16.3983E-03         3.72894         3.46744        -11.2285         3.64282        -11.2175         3.54263     678.854E-03     29.3668E-03    -14.5864E-03    -14.7804E-03    -14.7782E-03     29.3646E-03    -14.5864E-03     123.641E-06    -3.60750E+06    -5.39761E+06    -165.623E+06    -5.74470E+06    -165.276E+06    -3.60750E+06     7.33607E+06         22.2616
             934     2.95740E-03     16.3950E-03         3.59424         3.22816        -10.8538         3.22201        -10.8476         3.59424     459.013E-03     29.1824E-03    -14.5363E-03    -14.6461E-03    -14.6417E-03     29.1812E-03    -14.5395E-03     173.589E-06    -5.27757E+06    -6.95218E+06    -171.326E+06    -6.93649E+06    -171.097E+06    -5.52251E+06     6.11739E+06         22.1938
             935     1.97164E-03     16.3917E-03         3.78354         3.31996        -11.1527         3.28115        -11.1139         3.78354         1.27780     29.0655E-03    -14.4920E-03    -14.5734E-03    -14.5697E-03     29.0649E-03    -14.4952E-03     179.687E-06    -7.65451E+06    -8.81389E+06    -176.198E+06    -8.69829E+06    -176.069E+06    -7.89945E+06     4.30302E+06         22.1474
             936     985.819E-06     16.3902E-03         4.31155         3.55077        -11.9317         3.50910        -11.8900         4.31155     685.539E-03     28.9405E-03    -14.4106E-03    -14.5299E-03    -14.5272E-03     28.9395E-03    -14.4123E-03     175.624E-06    -8.54122E+06    -9.57056E+06    -179.138E+06    -9.62787E+06    -179.081E+06    -8.54122E+06     2.39632E+06         22.1205
             937     16.7315E-03     15.9161E-03         4.20747         3.21409        -11.3836         3.20718        -11.3767         4.20747    -89.1161E-03     198.689E-03    -16.6685E-03    -182.020E-03    -47.5807E-03     64.2493E-03    -16.6685E-03     363.778E-03     183.409E+06     114.909E+06    -7.54133E+06    -7.53445E+06     183.402E+06     114.909E+06     699.521E+03         58.7045
             938     15.7526E-03     15.5576E-03         4.36948         3.66845        -12.1388         3.64799        -12.1183         4.36948        -1.06131     118.041E-03    -15.8210E-03    -102.220E-03    -31.3172E-03     47.1382E-03    -15.8210E-03     202.803E-03     143.753E+06     23.1173E+06    -14.6426E+06    -12.0802E+06     143.728E+06     20.5800E+06     197.719E+03         51.8933
             939     14.7733E-03     15.4720E-03         4.45993         3.91334        -12.5533         3.89633        -12.5363         4.45993    -870.328E-03     44.6845E-03    -15.1519E-03    -29.5327E-03    -20.1616E-03     35.3135E-03    -15.1519E-03     43.9929E-03     98.5681E+06    -12.1081E+06    -50.6571E+06    -13.2455E+06     98.4962E+06    -49.4478E+06     1.42805E+06         43.8470
             940     13.7906E-03     15.4494E-03         4.52236         4.20619        -12.9318         4.22368        -12.9293         4.50230     86.8753E-03     33.4547E-03    -14.7672E-03    -18.6876E-03    -18.1452E-03     32.9124E-03    -14.7672E-03     9.65219E-03     56.7989E+06    -11.8814E+06    -71.1903E+06    -11.6867E+06     56.6041E+06    -71.1903E+06     3.09647E+06         36.4883
             941     12.8083E-03     15.4345E-03         4.64894         4.36950        -13.2219         4.49676        -13.2197         4.51943     367.960E-03     32.5022E-03    -14.6650E-03    -17.8373E-03    -17.7354E-03     32.4004E-03    -14.6650E-03     4.05700E-03     15.4003E+06    -10.7414E+06    -48.8211E+06    -7.60866E+06     12.2676E+06    -48.8211E+06     3.32474E+06         30.8878
             942     11.8262E-03     15.4238E-03         4.65881         4.37274        -13.2313         4.50430        -13.2296         4.52565     297.854E-03     31.9023E-03    -14.5628E-03    -17.3396E-03    -17.3107E-03     31.8734E-03    -14.5628E-03     1.80739E-03    -3.05649E+06    -16.3980E+06    -44.6424E+06    -4.23480E+06    -29.8909E+06    -29.9713E+06     4.22537E+06         27.2028
             943     10.8427E-03     15.4135E-03         4.68385         4.35930        -13.2477         4.50902        -13.2448         4.53117     423.184E-03     31.2700E-03    -14.4512E-03    -16.8188E-03    -16.8106E-03     31.2618E-03    -14.4512E-03     401.878E-06    -1.58668E+06    -14.2742E+06    -62.1436E+06    -2.11414E+06    -61.6161E+06    -14.2742E+06     5.55994E+06         25.0266
             944     9.85907E-03     15.4057E-03         4.86307         4.41679        -13.5013         4.75344        -13.4990         4.52413     116.161E-03     30.6661E-03    -14.3123E-03    -16.3538E-03    -16.3416E-03     30.6539E-03    -14.3123E-03    -727.169E-06    -497.217E+03    -4.57692E+06    -83.6702E+06    -934.022E+03    -83.2333E+06    -4.57692E+06     5.94989E+06         23.8218
             945     8.87492E-03     15.3980E-03         5.01660         4.48683        -13.7405         5.01308        -13.7370         4.48683     194.477E-03     30.0202E-03    -14.1458E-03    -15.8744E-03    -15.8591E-03     30.0048E-03    -14.1458E-03    -1.33008E-03     237.846E+03    -2.54410E+06    -103.054E+06    -142.370E+03    -102.674E+06    -2.54410E+06     6.24264E+06         23.1598
             946     7.89036E-03     15.3916E-03         5.09022         4.41938        -13.7553         5.08350        -13.7486         4.41938     697.276E-03     29.3795E-03    -13.9838E-03    -15.3958E-03    -15.3789E-03     29.3626E-03    -13.9838E-03    -1.40641E-03     1.16580E+06    -1.53892E+06    -117.930E+06     727.390E+03    -117.492E+06    -1.53892E+06     7.19589E+06         22.7750
             947     6.90498E-03     15.3852E-03         5.01423         4.33269        -13.5852         5.00867        -13.5796         4.33269     133.850E-03     28.7407E-03    -13.8490E-03    -14.8917E-03    -14.8734E-03     28.7224E-03    -13.8490E-03    -1.43786E-03     1.80887E+06    -726.910E+03    -132.123E+06     353.197E+03    -131.560E+06     166.208E+03     8.50671E+06         22.5283
             948     5.91950E-03     15.3799E-03         4.87652         4.23407        -13.3332         4.87268        -13.3293         4.23407    -482.273E-03     28.2032E-03    -13.7352E-03    -14.4680E-03    -14.4522E-03     28.1874E-03    -13.7352E-03    -1.37305E-03     350.164E+03    -2.49052E+06    -148.806E+06    -2.16320E+06    -148.237E+06    -546.682E+03     8.97687E+06         22.3546
             949     4.93346E-03     15.3746E-03         4.66893         4.13201        -13.0051         4.64611        -12.9823         4.13201     581.787E-03     27.7692E-03    -13.6310E-03    -14.1382E-03    -14.1260E-03     27.7570E-03    -13.6310E-03    -1.27454E-03    -1.33453E+06    -3.47825E+06    -158.053E+06    -3.94172E+06    -157.563E+06    -1.36042E+06     8.64167E+06         22.2255
             950     3.94716E-03     15.3707E-03         4.29185         4.00925        -12.4920         4.19365        -12.4514         4.06689         1.59039     27.4060E-03    -13.5323E-03    -13.8736E-03    -13.8650E-03     27.3973E-03    -13.5323E-03    -1.03076E-03    -3.03144E+06    -4.29172E+06    -162.963E+06    -4.73396E+06    -162.521E+06    -3.03144E+06     8.28026E+06         22.1282
             951     2.96050E-03     15.3668E-03         4.09282         3.89729        -12.1894         3.88321        -12.1691         4.08656     898.866E-03     27.1202E-03    -13.4475E-03    -13.6727E-03    -13.6676E-03     27.1151E-03    -13.4475E-03    -731.441E-06    -4.82485E+06    -5.99474E+06    -167.741E+06    -6.30717E+06    -167.429E+06    -4.82485E+06     6.92965E+06         22.0563
             952     1.97387E-03     15.3645E-03         4.20580         3.93041        -12.3433         3.88731        -12.2940         4.19954         1.39942     26.8769E-03    -13.3733E-03    -13.5036E-03    -13.5011E-03     26.8744E-03    -13.3733E-03    -451.365E-06    -5.48414E+06    -7.29700E+06    -171.051E+06    -7.44689E+06    -170.901E+06    -5.48414E+06     4.85230E+06         22.0069
             953     987.019E-06     15.3624E-03         4.73036         3.93084        -12.9031         3.82568        -12.7979         4.73036     32.8922E-03     26.6587E-03    -13.2665E-03    -13.3922E-03    -13.3761E-03     26.6578E-03    -13.2816E-03    -328.115E-06    -6.14332E+06    -8.38187E+06    -174.585E+06    -7.43384E+06    -174.538E+06    -7.13907E+06     1.70067E+06         21.9780
             954     16.7482E-03     14.8953E-03         4.54529         3.41642        -12.1334         3.41425        -12.1312         4.54529     25.7497E-03     195.474E-03    -16.2968E-03    -179.177E-03    -50.9081E-03     67.2048E-03    -16.2968E-03     355.335E-03     182.780E+06     115.235E+06    -7.55335E+06    -7.53116E+06     182.758E+06     115.235E+06    -274.865E+03         58.0892
             955     15.7606E-03     14.5182E-03         4.70352         3.67376        -12.7001         3.66727        -12.6936         4.70352    -463.372E-03     119.700E-03    -15.2857E-03    -104.415E-03    -32.7071E-03     47.9928E-03    -15.2857E-03     205.627E-03     143.584E+06     24.0126E+06    -14.2099E+06    -11.5572E+06     143.469E+06     21.4753E+06     2.77958E+06         51.4002
             956     14.7813E-03     14.4370E-03         4.81507         3.70037        -12.9125         3.69393        -12.9061         4.81507    -254.020E-03     42.9887E-03    -14.5613E-03    -28.4275E-03    -20.3088E-03     34.8701E-03    -14.5613E-03     39.6143E-03     98.5713E+06    -13.4095E+06    -49.4610E+06    -14.3543E+06     98.4201E+06    -48.3649E+06     3.46208E+06         43.4956
             957     13.8005E-03     14.4158E-03         4.90594         4.23044        -13.5517         4.24836        -13.5496         4.88588     259.246E-03     32.6311E-03    -14.1267E-03    -18.5045E-03    -18.1878E-03     32.3145E-03    -14.1267E-03     7.09807E-03     57.4353E+06    -11.0547E+06    -68.7639E+06    -10.9787E+06     57.3593E+06    -68.7639E+06     1.83846E+06         36.2570
             958     12.8179E-03     14.4019E-03         5.12310         4.80065        -14.3283         5.01169        -14.3261         4.90980     410.743E-03     31.5889E-03    -13.9742E-03    -17.6147E-03    -17.5844E-03     31.5586E-03    -13.9742E-03     1.91985E-03     15.9004E+06    -9.82443E+06    -47.2600E+06    -5.58255E+06     11.6585E+06    -47.2600E+06     2.64182E+06         30.7305
             959     11.8347E-03     14.3914E-03         5.10800         4.83975        -14.3372         5.03947        -14.3332         4.90428     535.580E-03     31.0545E-03    -13.8244E-03    -17.2301E-03    -17.2225E-03     31.0469E-03    -13.8244E-03    -253.547E-06    -1.54653E+06    -16.2903E+06    -43.7399E+06    -2.62514E+06    -30.5168E+06    -28.4348E+06     4.03430E+06         27.0825
             960     10.8517E-03     14.3830E-03         4.92571         4.61833        -13.9332         4.62257        -13.9270         4.91522     675.139E-03     30.4293E-03    -13.6438E-03    -16.7855E-03    -16.7652E-03     30.4090E-03    -13.6438E-03    -1.59035E-03    -413.146E+03    -14.0198E+06     -62.054E+06    -789.213E+03    -61.6779E+06    -14.0198E+06     4.70021E+06         24.9205
             961     9.86783E-03     14.3749E-03         5.01101         4.63924        -14.0514         4.70341        -14.0477         4.94321     299.884E-03     29.6515E-03    -13.4376E-03    -16.2138E-03    -16.1643E-03     29.6019E-03    -13.4376E-03    -2.77820E-03     936.222E+03    -3.71972E+06    -83.2661E+06     574.031E+03    -82.9040E+06    -3.71972E+06     5.49557E+06         23.7174
             962     8.88351E-03     14.3691E-03         5.27045         4.87230        -14.5577         5.19254        -14.5514         4.94390     442.851E-03     28.7974E-03    -13.2090E-03    -15.5885E-03    -15.5210E-03     28.7299E-03    -13.2090E-03    -3.30120E-03     1.32668E+06    -551.201E+03    -102.835E+06     954.934E+03    -102.463E+06    -551.201E+03     6.20440E+06         23.0511
             963     7.89827E-03     14.3629E-03         5.43851         4.89985        -14.7521         5.42531        -14.7389         4.89985         1.02246     27.9170E-03    -12.9798E-03    -14.9372E-03    -14.8687E-03     27.8486E-03    -12.9798E-03    -3.28145E-03     1.45474E+06    -557.267E+03    -118.513E+06     838.611E+03    -118.095E+06    -359.116E+03     7.05804E+06         22.6594
             964     6.91276E-03     14.3579E-03         5.38421         4.83057        -14.6188         5.37688        -14.6115         4.83057     482.141E-03     27.1127E-03    -12.7853E-03    -14.3275E-03    -14.2588E-03     27.0441E-03    -12.7853E-03    -3.25148E-03     3.17560E+06     865.348E+03    -132.561E+06     850.229E+03    -131.908E+06     2.53776E+06     9.26186E+06         22.4049
             965     5.92626E-03     14.3527E-03         5.30679         4.74743        -14.4400         5.30619        -14.4395         4.74743    -149.817E-03     26.3443E-03    -12.6116E-03    -13.7327E-03    -13.6729E-03     26.2845E-03    -12.6116E-03    -2.96679E-03     4.05215E+06     1.74799E+06    -146.612E+06     1.03047E+06    -145.869E+06     4.02626E+06     10.4298E+06         22.2234
             966     4.93939E-03     14.3486E-03         5.20189         4.65075        -14.2224         5.17455        -14.1951         4.65075     910.048E-03     25.6741E-03    -12.4451E-03    -13.2290E-03    -13.1828E-03     25.6279E-03    -12.4451E-03    -2.55005E-03     1.99377E+06     473.183E+03    -155.746E+06     23.9175E+03    -155.172E+06     1.86882E+06     9.40729E+06         22.0869
             967     3.95206E-03     14.3446E-03         5.03859         4.54288        -13.9498         4.97603        -13.8910         4.54664         2.10217     25.1482E-03    -12.3036E-03    -12.8446E-03    -12.8134E-03     25.1170E-03    -12.3036E-03    -2.08175E-03     1.10263E+06    -978.496E+03    -160.046E+06    -1.36017E+06    -159.565E+06     1.00357E+06     8.66887E+06         21.9831
             968     2.96451E-03     14.3417E-03         4.76675         4.44362        -13.5797         4.72908        -13.5458         4.44738         1.33974     24.7080E-03    -12.1762E-03    -12.5318E-03    -12.5132E-03     24.6894E-03    -12.1762E-03    -1.57740E-03     499.070E+03    -1.72217E+06    -163.096E+06    -1.80102E+06    -162.722E+06     204.377E+03     7.63228E+06         21.9061
             969     1.97655E-03     14.3391E-03         4.53895         4.35486        -13.2756         4.44168        -13.2111         4.38761         1.72779     24.3121E-03    -12.0633E-03    -12.2488E-03    -12.2399E-03     24.3031E-03    -12.0633E-03    -1.08061E-03    -1.33669E+06    -3.12720E+06    -165.771E+06    -3.01679E+06    -165.587E+06    -1.63138E+06     5.14724E+06         21.8530
             970     988.406E-06     14.3379E-03         4.66198         4.27359        -13.3373         4.15425        -13.1503         4.59433    -602.971E-03     24.0154E-03    -11.9753E-03    -12.0401E-03    -12.0206E-03     24.0118E-03    -11.9912E-03    -653.182E-06    -3.35347E+06    -5.33909E+06    -169.925E+06    -4.36048E+06    -169.878E+06    -4.37937E+06     2.22047E+06         21.8217
             971     16.7385E-03     13.8534E-03         4.83105         3.44675        -12.7127         3.44498        -12.7109         4.83105     272.273E-03     190.338E-03    -16.0703E-03    -174.267E-03    -54.3089E-03     70.3792E-03    -16.0703E-03     342.502E-03     180.598E+06     113.529E+06    -9.20809E+06    -9.18085E+06     180.570E+06     113.529E+06    -175.918E+03         57.3585
             972     15.7716E-03     13.4794E-03         4.98649         3.67174        -13.2299         3.67041        -13.2286         4.98649     172.604E-03     119.060E-03    -14.7965E-03    -104.263E-03    -36.5364E-03     51.3330E-03    -14.7965E-03     202.125E-03     142.305E+06     24.7447E+06    -14.1388E+06    -14.0305E+06     142.197E+06     24.7447E+06     2.98516E+06         50.8202
             973     14.7925E-03     13.4030E-03         5.10345         3.84294        -13.5668         3.83936        -13.5632         5.10345     396.060E-03     41.2609E-03    -13.9144E-03    -27.3466E-03    -20.1347E-03     34.0491E-03    -13.9144E-03     36.5584E-03     101.039E+06    -9.31724E+06    -46.1573E+06    -12.1384E+06     100.940E+06    -43.2377E+06     2.22168E+06         43.0893
             974     13.8100E-03     13.3824E-03         5.18947         4.18580        -13.9944         4.17978        -13.9883         5.18947     635.819E-03     31.7838E-03    -13.4274E-03    -18.3563E-03    -18.1106E-03     31.5381E-03    -13.4274E-03     5.84010E-03     57.8553E+06    -7.18654E+06    -66.2432E+06    -7.16468E+06     57.8335E+06    -66.2432E+06     821.738E+03         35.9855
             975     12.8277E-03     13.3706E-03         5.33374         4.62737        -14.5615         4.70380        -14.5541         5.24996     708.530E-03     30.7595E-03    -13.2317E-03    -17.5278E-03    -17.5174E-03     30.7491E-03    -13.2317E-03     973.954E-06     15.6940E+06    -9.09266E+06    -45.1737E+06    -3.47177E+06     10.0731E+06    -45.1737E+06     2.33057E+06         30.5484
             976     11.8446E-03     13.3603E-03         5.38698         5.06245        -15.0277         5.16052        -15.0178         5.27899     862.757E-03     30.2465E-03    -13.0259E-03    -17.2206E-03    -17.2019E-03     30.2278E-03    -13.0259E-03    -1.27916E-03     337.144E+03    -14.6403E+06    -42.5060E+06    -379.354E+03    -30.8446E+06    -25.5852E+06     3.67088E+06         26.9494
             977     10.8614E-03     13.3526E-03         5.37995         5.16377        -15.1109         5.24435        -15.1004         5.28879     920.131E-03     29.5803E-03    -12.7768E-03    -16.8035E-03    -16.7470E-03     29.5238E-03    -12.7768E-03    -3.12215E-03     1.67649E+06    -10.4772E+06    -61.6670E+06     1.38019E+06    -61.3707E+06    -10.4772E+06     4.29199E+06         24.8089
             978     9.87758E-03     13.3461E-03         5.37084         5.02507        -14.9706         5.08680        -14.9654         5.30388     523.282E-03     28.5794E-03    -12.4951E-03    -16.0842E-03    -15.9740E-03     28.4691E-03    -12.4951E-03    -4.30950E-03     3.18360E+06    -1.58487E+06    -84.0492E+06     1.73808E+06    -83.7137E+06    -474.851E+03     5.36363E+06         23.6114
             979     8.89279E-03     13.3410E-03         5.40848         5.07922        -15.0714         5.14955        -15.0595         5.32625     754.575E-03     27.5258E-03    -12.1947E-03    -15.3311E-03    -15.1835E-03     27.3782E-03    -12.1947E-03    -4.95759E-03     4.23253E+06     1.65499E+06    -102.591E+06     1.59190E+06    -102.201E+06     3.90523E+06     6.37668E+06         22.9424
             980     7.90740E-03     13.3363E-03         5.61140         5.23426        -15.4294         5.49096        -15.4022         5.32750         1.47959     26.4073E-03    -11.8882E-03    -14.5191E-03    -14.3653E-03     26.2536E-03    -11.8882E-03    -4.92777E-03     3.81232E+06     1.57491E+06    -119.061E+06     1.15006E+06    -118.621E+06     3.79760E+06     7.26883E+06         22.5441
             981     6.92089E-03     13.3319E-03         5.69736         5.29130        -15.5560         5.68030        -15.5389         5.29130     998.136E-03     25.3161E-03    -11.6074E-03    -13.7088E-03    -13.5590E-03     25.1664E-03    -11.6074E-03    -4.74703E-03     4.33083E+06     1.75902E+06    -132.696E+06     1.24465E+06    -132.182E+06     4.33083E+06     8.20017E+06         22.2814
             982     5.93396E-03     13.3282E-03         5.55939         5.23877        -15.3454         5.55742        -15.3434         5.23877     266.349E-03     24.3162E-03    -11.3670E-03    -12.9491E-03    -12.8179E-03     24.1849E-03    -11.3670E-03    -4.34272E-03     6.97655E+06     2.94512E+06    -144.800E+06     2.35970E+06    -144.214E+06     6.97655E+06     9.17967E+06         22.0913
             983     4.94603E-03     13.3246E-03         5.54816         5.17912        -15.2679         5.52787        -15.2476         5.17912     973.130E-03     23.3982E-03    -11.1459E-03    -12.2523E-03    -12.1499E-03     23.2958E-03    -11.1459E-03    -3.73931E-03     7.10590E+06     3.69810E+06    -152.942E+06     3.19634E+06    -152.341E+06     7.00684E+06     9.67811E+06         21.9467
             984     3.95759E-03     13.3214E-03         5.79515         5.05974        -15.3963         5.74972        -15.3509         5.05974         1.94023     22.6349E-03    -10.9473E-03    -11.6876E-03    -11.6188E-03     22.5661E-03    -10.9473E-03    -2.99611E-03     5.61159E+06     2.93446E+06    -156.493E+06     3.04628E+06    -156.005E+06     5.01170E+06     8.76355E+06         21.8357
             985     2.96868E-03     13.3188E-03         5.68655         4.83874        -15.0706         5.65602        -15.0401         4.83874         1.47839     22.0184E-03    -10.7882E-03    -11.2302E-03    -11.1898E-03     21.9779E-03    -10.7882E-03    -2.24318E-03     4.86732E+06     2.25283E+06    -159.031E+06     2.69411E+06    -158.677E+06     4.07180E+06     7.53445E+06         21.7530
             986     1.97939E-03     13.3169E-03         5.19992         4.56228        -14.3154         5.12686        -14.2423         4.56228         2.04426     21.5289E-03    -10.6668E-03    -10.8621E-03    -10.8423E-03     21.5091E-03    -10.6668E-03    -1.53466E-03     3.88096E+06     2.09552E+06    -160.537E+06     2.93702E+06    -160.301E+06     2.80364E+06     5.96816E+06         21.6958
             987     989.693E-06     13.3159E-03         4.66052         4.34802        -13.5461         4.49488        -13.3805         4.34802    -183.168E-03     21.2491E-03    -10.5571E-03    -10.6919E-03    -10.6838E-03     21.2417E-03    -10.5579E-03    -906.660E-06     2.95734E+06     803.560E+03    -164.354E+06     1.53085E+06    -164.268E+06     2.14456E+06     3.18221E+06         21.6621
             988     16.7496E-03     12.7990E-03         5.06923         3.41642        -13.2201         3.41260        -13.2163         5.06923     486.009E-03     185.678E-03    -15.8380E-03    -169.840E-03    -57.6935E-03     73.5315E-03    -15.8380E-03     330.372E-03     179.703E+06     114.450E+06    -9.75770E+06    -9.74959E+06     179.695E+06     114.450E+06     417.349E+03         56.5486
             989     15.7810E-03     12.4412E-03         5.22476         3.69900        -13.7405         3.69575        -13.7373         5.22476     382.965E-03     114.718E-03    -14.3033E-03    -100.414E-03    -38.6295E-03     52.9327E-03    -14.3033E-03     191.812E-03     141.606E+06     26.4630E+06    -13.5664E+06    -13.5492E+06     141.589E+06     26.4630E+06     322.454E+03         50.1716
             990     14.8013E-03     12.3698E-03         5.34033         4.11531        -14.2889         4.11048        -14.2841         5.34033     489.280E-03     39.8321E-03    -13.2868E-03    -26.5453E-03    -19.9182E-03     33.2050E-03    -13.2868E-03     35.0593E-03     102.063E+06    -7.81478E+06    -43.4708E+06    -9.65314E+06     102.048E+06    -41.6174E+06     23.4300E+03         42.6274
             991     13.8198E-03     12.3503E-03         5.42901         4.27623        -14.5192         4.26441        -14.5073         5.42901     924.800E-03     31.1489E-03    -12.7767E-03    -18.3722E-03    -18.0782E-03     30.8549E-03    -12.7767E-03     6.09090E-03     57.4852E+06    -6.16362E+06    -63.2712E+06    -6.11796E+06     57.4395E+06    -63.2712E+06     1.24675E+06         35.6748
             992     12.8369E-03     12.3397E-03         5.52077         4.29333        -14.5952         4.27789        -14.5797         5.52077         1.07024     30.3004E-03    -12.5293E-03    -17.7711E-03    -17.7650E-03     30.2942E-03    -12.5293E-03     810.420E-06     14.5032E+06    -8.35842E+06    -41.3738E+06    -3.37747E+06     9.52220E+06    -41.3738E+06     1.98778E+06         30.3439
             993     11.8544E-03     12.3299E-03         5.61653         4.82821        -15.1967         4.82545        -15.1802         5.60282         1.14635     29.6036E-03    -12.2481E-03    -17.3555E-03    -17.3333E-03     29.5814E-03    -12.2481E-03    -1.37740E-03    -45.0838E+03    -12.0735E+06    -40.9790E+06    -416.971E+03    -30.8967E+06    -21.7839E+06     2.74901E+06         26.8073
             994     10.8712E-03     12.3233E-03         5.77907         5.46171        -15.9769         5.58455        -15.9602         5.63955         1.19140     28.7760E-03    -11.9242E-03    -16.8518E-03    -16.7683E-03     28.6926E-03    -11.9242E-03    -3.76519E-03     2.17915E+06    -6.11788E+06    -62.7170E+06     1.88192E+06    -62.4368E+06    -6.10088E+06     4.16301E+06         24.6967
             995     9.88727E-03     12.3183E-03         5.81491         5.55733        -16.1057         5.72354        -16.0965         5.63951     794.918E-03     27.6251E-03    -11.5570E-03    -16.0680E-03    -15.9087E-03     27.4657E-03    -11.5570E-03    -5.21361E-03     5.63712E+06     1.70966E+06    -84.1552E+06     2.84277E+06    -83.8379E+06     4.18673E+06     5.20882E+06         23.5096
             996     8.90245E-03     12.3145E-03         5.69786         5.40302        -15.8416         5.43739        -15.8263         5.64826     971.541E-03     26.3412E-03    -11.1680E-03    -15.1732E-03    -14.9543E-03     26.1223E-03    -11.1680E-03    -5.98344E-03     9.00028E+06     3.50620E+06    -102.247E+06     3.19673E+06    -101.937E+06     9.00028E+06     5.65492E+06         22.8405
             997     7.91657E-03     12.3112E-03         5.74880         5.44503        -15.9325         5.48510        -15.8963         5.67259         1.74906     24.9512E-03    -10.7800E-03    -14.1713E-03    -13.9256E-03     24.7056E-03    -10.7800E-03    -6.14886E-03     10.4134E+06     4.21402E+06    -118.936E+06     3.85499E+06    -118.577E+06     10.4134E+06     6.58664E+06         22.4370
             998     6.92973E-03     12.3082E-03         5.83530         5.61658        -16.1734         5.73871        -16.1413         5.68108         1.60013     23.5167E-03    -10.4125E-03    -13.1042E-03    -12.8635E-03     23.2760E-03    -10.4125E-03    -5.88515E-03     9.84598E+06     4.62950E+06    -131.987E+06     4.27964E+06    -131.637E+06     9.84598E+06     6.86006E+06         22.1669
             999     5.94164E-03     12.3055E-03         5.75464         5.65195        -16.1098         5.71799        -16.0955         5.67431     999.991E-03     22.2407E-03    -10.0928E-03    -12.1478E-03    -11.9366E-03     22.0294E-03    -10.0928E-03    -5.33541E-03     10.4824E+06     4.78013E+06    -143.776E+06     4.42913E+06    -143.425E+06     10.4824E+06     7.11320E+06         21.9688
            1000     4.95298E-03     12.3031E-03         5.78388         5.61996        -16.0992         5.71612        -16.0782         5.66676         1.23782     21.0807E-03    -9.80959E-03    -11.2711E-03    -11.1059E-03     20.9154E-03    -9.80959E-03    -4.57036E-03     11.1419E+06     5.81248E+06    -150.889E+06     5.39003E+06    -150.466E+06     11.1419E+06     8.00599E+06         21.8163
            1001     3.96329E-03     12.3008E-03         6.05386         5.59115        -16.3500         5.99430        -16.3149         5.61559         1.77095     20.0313E-03    -9.55817E-03    -10.4731E-03    -10.3594E-03     19.9175E-03    -9.55817E-03    -3.66652E-03     9.13901E+06     6.45308E+06    -153.423E+06     6.54299E+06    -153.012E+06     8.63819E+06     8.05934E+06         21.6984
            1002     2.97297E-03     12.2989E-03         6.29302         5.42930        -16.4334         6.27027        -16.4107         5.42930         1.34643     19.2403E-03    -9.38052E-03    -9.85976E-03    -9.79201E-03     19.1725E-03    -9.38052E-03    -2.75039E-03     8.94802E+06     6.93216E+06    -155.218E+06     7.66458E+06    -154.950E+06     7.94734E+06     6.35192E+06         21.6102
            1003     1.98215E-03     12.2976E-03         6.05813         5.06023        -15.8238         5.98039        -15.7461         5.06023         2.18483     18.7556E-03    -9.27306E-03    -9.48251E-03    -9.44984E-03     18.7229E-03    -9.27306E-03    -1.85056E-03     11.8509E+06     8.31871E+06    -155.726E+06     9.43580E+06    -155.560E+06     10.5685E+06     5.06581E+06         21.5492
            1004     991.199E-06     12.2966E-03         5.21943         4.57066        -14.4597         4.93114        -14.3317         4.73093     350.511E-03     18.4592E-03    -9.13857E-03    -9.32059E-03    -9.27384E-03     18.4476E-03    -9.17378E-03    -1.07984E-03     13.2549E+06     8.46673E+06    -157.361E+06     10.2810E+06    -157.270E+06     11.3494E+06     3.26759E+06         21.5135
            1005     16.7490E-03     11.7343E-03         5.28004         3.50646        -13.8050         3.50262        -13.8012         5.28004     492.380E-03     183.683E-03    -15.6034E-03    -168.079E-03    -61.1698E-03     76.7732E-03    -15.6034E-03     323.527E-03     181.384E+06     117.336E+06    -7.79429E+06    -7.79002E+06     181.380E+06     117.336E+06     244.973E+03         55.6697
            1006     15.7887E-03     11.4018E-03         5.43439         3.82277        -14.2873         3.81990        -14.2845         5.43439     156.674E-03     108.116E-03    -13.8573E-03    -94.2586E-03    -38.9875E-03     52.8448E-03    -13.8573E-03     177.931E-03     142.111E+06     26.3996E+06    -12.4789E+06    -11.4108E+06     142.097E+06     25.3455E+06    -638.300E+03         49.4557
            1007     14.8098E-03     11.3384E-03         5.55223         4.20600        -14.7824         4.20220        -14.7786         5.55223     241.957E-03     38.7950E-03    -12.7659E-03    -26.0292E-03    -19.6709E-03     32.4368E-03    -12.7659E-03     34.5927E-03     99.8725E+06    -11.7184E+06    -44.5007E+06    -11.7343E+06     99.8585E+06    -44.4709E+06    -223.697E+03         42.1077
            1008     13.8266E-03     11.3182E-03         5.64795         4.38599        -15.0236         4.37313        -15.0108         5.64795     961.778E-03     31.1978E-03    -12.2348E-03    -18.9631E-03    -18.5326E-03     30.7674E-03    -12.2348E-03     7.27631E-03     57.0599E+06    -8.86391E+06    -61.5686E+06    -8.83287E+06     57.0288E+06    -61.5686E+06     939.469E+03         35.3241
            1009     12.8456E-03     11.3089E-03         5.74682         4.42676        -15.1179         4.40907        -15.1002         5.74682         1.17253     30.0348E-03    -11.9220E-03    -18.1128E-03    -18.1010E-03     30.0229E-03    -11.9220E-03     1.30929E-03     14.2726E+06    -8.83117E+06    -37.9105E+06    -4.40160E+06     9.84305E+06    -37.9105E+06     1.19936E+06         30.1180
            1010     11.8629E-03     11.3005E-03         5.84833         4.68902        -15.4436         4.67265        -15.4273         5.84833         1.14485     29.1791E-03    -11.5681E-03    -17.6110E-03    -17.5895E-03     29.1576E-03    -11.5681E-03    -659.609E-06    -1.17826E+06    -9.96114E+06    -39.6495E+06    -1.34279E+06    -31.4119E+06    -18.0342E+06     1.71601E+06         26.6579
            1011     10.8799E-03     11.2946E-03         5.98370         5.29920        -16.1679         5.33647        -16.1463         5.92486         1.34994     28.2275E-03    -11.1606E-03    -17.0669E-03    -16.9802E-03     28.1408E-03    -11.1606E-03    -3.70677E-03     1.86871E+06    -3.20083E+06    -63.5222E+06     916.781E+03    -63.3808E+06    -2.39024E+06     2.65855E+06         24.5869
            1012     9.89617E-03     11.2915E-03         6.07624         5.80869        -16.7656         5.91285        -16.7479         5.95441         1.19286     26.8570E-03    -10.7011E-03    -16.1559E-03    -15.9744E-03     26.6755E-03    -10.7011E-03    -5.53254E-03     8.42483E+06     3.29087E+06    -83.7638E+06     3.10318E+06    -83.5761E+06     8.42483E+06     3.66186E+06         23.4164
            1013     8.91127E-03     11.2890E-03         6.02209         5.88857        -16.7910         5.93649        -16.7753         5.95838         1.14013     25.2942E-03    -10.2247E-03    -15.0694E-03    -14.8128E-03     25.0376E-03    -10.2247E-03    -6.39031E-03     14.5055E+06     4.94840E+06    -101.678E+06     4.79582E+06    -101.525E+06     14.5055E+06     3.78434E+06         22.7516
            1014     7.92528E-03     11.2876E-03         5.97595         5.75934        -16.6096         5.73176        -16.5813         5.97522         1.56795     23.6227E-03    -9.75515E-03    -13.8676E-03    -13.5644E-03     23.3195E-03    -9.75515E-03    -6.70610E-03     17.1750E+06     6.68437E+06    -118.996E+06     6.52636E+06    -118.838E+06     17.1750E+06     4.04177E+06         22.3463
            1015     6.93780E-03     11.2864E-03         6.01123         5.80758        -16.6804         5.78018        -16.6486         6.00686         1.67265     21.8920E-03    -9.30728E-03    -12.5847E-03    -12.2846E-03     21.5919E-03    -9.30728E-03    -6.39930E-03     17.3714E+06     8.42434E+06    -131.107E+06     8.22629E+06    -130.909E+06     17.3714E+06     5.00122E+06         22.0715
            1016     5.94920E-03     11.2852E-03         6.03642         5.94785        -16.8272         5.92738        -16.8023         6.03205         1.48944     20.3055E-03    -8.91270E-03    -11.3928E-03    -11.1253E-03     20.0380E-03    -8.91270E-03    -5.79024E-03     17.2735E+06     9.24483E+06    -142.781E+06     9.04725E+06    -142.583E+06     17.2735E+06     5.40303E+06         21.8677
            1017     4.95930E-03     11.2840E-03         6.06439         5.86421        -16.7656         5.83134        -16.7327         6.06439         1.67533     18.8935E-03    -8.57382E-03    -10.3197E-03    -10.1038E-03     18.6776E-03    -8.57382E-03    -4.98347E-03     17.6825E+06     9.55338E+06    -150.180E+06     9.35551E+06    -149.982E+06     17.6825E+06      5.3992E+06         21.7094
            1018     3.96869E-03     11.2830E-03         6.19634         5.77154        -16.8094         5.80141        -16.7720         6.12901         1.81665     17.6495E-03    -8.28364E-03    -9.36588E-03    -9.21701E-03     17.5007E-03    -8.28364E-03    -3.97110E-03     16.8452E+06     11.1148E+06    -150.715E+06     10.9208E+06    -150.521E+06     16.8452E+06     5.10614E+06         21.5861
            1019     2.97706E-03     11.2820E-03         6.50547         5.82754        -17.1822         6.14070        -17.1663         6.17644         1.01606     16.7045E-03    -8.07130E-03    -8.63316E-03    -8.54465E-03     16.6159E-03    -8.07130E-03    -2.95254E-03     16.8989E+06     13.0801E+06    -151.578E+06     13.4557E+06    -151.454E+06     16.3991E+06     4.09942E+06         21.4936
            1020     1.98495E-03     11.2809E-03         6.64737         5.87433        -17.3565         6.30678        -17.2836         6.14203         2.03388     16.0939E-03    -7.94182E-03    -8.15205E-03    -8.11035E-03     16.0522E-03    -7.94182E-03    -1.94544E-03     17.5567E+06     13.7721E+06    -152.439E+06     14.2094E+06    -152.377E+06     17.0569E+06     3.04954E+06         21.4299
            1021     992.600E-06     11.2804E-03         6.47919         5.86822        -17.1763         5.96822        -17.0326         6.23555     17.7776E-03     15.7743E-03    -7.84244E-03    -7.93186E-03    -7.88260E-03     15.7602E-03    -7.87765E-03    -1.10588E-03     17.7148E+06     13.8657E+06    -151.866E+06     14.9512E+06    -151.828E+06     16.5919E+06     1.47527E+06         21.3927
            1022     16.7535E-03     10.6539E-03         5.48662         3.80065        -14.5159         3.79845        -14.5137         5.48662     234.219E-03     180.063E-03    -15.3956E-03    -164.668E-03    -62.6256E-03     78.0212E-03    -15.3956E-03     314.692E-03     181.386E+06     119.310E+06    -8.01673E+06    -8.00966E+06     181.379E+06     119.310E+06    -761.254E+03         54.7155
            1023     15.7961E-03     10.3680E-03         5.63535         4.06498        -14.9076         4.06257        -14.9052         5.63535    -247.165E-03     99.2608E-03    -13.5499E-03    -85.7108E-03    -37.5090E-03     51.0589E-03    -13.5499E-03     160.592E-03     141.770E+06     26.6119E+06    -13.5559E+06    -12.4870E+06     141.755E+06     25.5578E+06    -137.571E+03         48.6644
            1024     14.8126E-03     10.3059E-03         5.75566         4.22875        -15.1693         4.22509        -15.1656         5.75566     23.2611E-03     39.2045E-03    -12.4137E-03    -26.7908E-03    -20.1458E-03     32.5595E-03    -12.4137E-03     35.4453E-03     99.9275E+06    -13.3237E+06    -43.7646E+06    -13.8874E+06     99.9052E+06    -43.1786E+06     193.244E+03         41.5252
            1025     13.8337E-03     10.2855E-03         5.86155         4.46458        -15.4663         4.45575        -15.4574         5.86155     797.049E-03     31.3145E-03    -11.8402E-03    -19.4743E-03    -19.0217E-03     30.8619E-03    -11.8402E-03     7.91795E-03     57.4001E+06    -10.3209E+06    -57.2281E+06    -10.3084E+06     57.3876E+06    -57.2281E+06    -309.235E+03         34.9311
            1026     12.8513E-03     10.2790E-03         5.95739         4.82347        -15.8680         4.80979        -15.8543         5.95739         1.05580     29.8718E-03    -11.4710E-03    -18.4007E-03    -18.3658E-03     29.8369E-03    -11.4710E-03     2.42334E-03     12.4762E+06    -9.88542E+06    -33.5649E+06    -6.43001E+06     9.02080E+06    -33.5649E+06     447.945E+03         29.8685
            1027     11.8692E-03     10.2706E-03         6.04596         5.01102        -16.0983         4.99767        -16.0849         6.04596         1.05967     29.0981E-03    -11.0485E-03    -18.0496E-03    -18.0268E-03     29.0752E-03    -11.0485E-03     356.221E-06    -3.16665E+06    -8.85602E+06    -36.7679E+06    -4.09830E+06    -31.0796E+06    -13.6127E+06     317.531E+03         26.4997
            1028     10.8870E-03     10.2667E-03         6.13380         5.19009        -16.3402         5.16688        -16.3169         6.13380         1.37861     27.8856E-03    -10.5575E-03    -17.3281E-03    -17.2558E-03     27.8133E-03    -10.5575E-03    -3.19880E-03     2.99243E+06    -2.78561E+06    -63.5025E+06    -1.49705E+06    -63.4386E+06     1.63999E+06    -300.815E+03         24.4798
            1029     9.90343E-03     10.2651E-03         6.22277         5.58627        -16.8180         5.57360        -16.7920         6.20938         1.50336     26.2520E-03    -10.0146E-03    -16.2373E-03    -16.0727E-03     26.0874E-03    -10.0146E-03    -5.22453E-03     12.3446E+06     2.10614E+06    -83.7858E+06     2.00487E+06    -83.6846E+06     12.3446E+06    -453.854E+03         23.3344
            1030     8.91862E-03     10.2648E-03         6.27197         5.96286        -17.2398         5.95369        -17.2165         6.25785         1.45076     24.4123E-03    -9.46802E-03    -14.9443E-03    -14.7004E-03     24.1684E-03    -9.46802E-03    -6.13323E-03     20.4060E+06     6.42770E+06    -101.536E+06     6.32529E+06    -101.434E+06     20.4060E+06    -315.009E+03         22.6805
            1031     7.93223E-03     10.2653E-03         6.29163         6.05105        -17.3377         6.02774        -17.3137         6.29090         1.48524     22.5059E-03    -8.93371E-03    -13.5722E-03    -13.2715E-03     22.2052E-03    -8.93371E-03    -6.55166E-03     24.2474E+06     9.23180E+06    -119.576E+06     9.20217E+06    -119.547E+06     24.2474E+06     425.561E+03         22.2793
            1032     6.94451E-03     10.2662E-03         6.32846         6.04529        -17.3539         6.02731        -17.3360         6.32846         1.25706     20.5565E-03    -8.42598E-03    -12.1305E-03    -11.8318E-03     20.2578E-03    -8.42598E-03    -6.21982E-03     25.7857E+06     10.9258E+06    -131.264E+06     10.8762E+06    -131.215E+06     25.7857E+06     1.64874E+06         22.0052
            1033     5.95523E-03     10.2667E-03         6.37150         6.12517        -17.4660         6.10851        -17.4493         6.37150         1.20433     18.7214E-03    -7.97634E-03    -10.7450E-03    -10.4799E-03     18.4563E-03    -7.97634E-03    -5.56337E-03     26.8038E+06     12.3116E+06    -142.500E+06     12.2383E+06    -142.426E+06     26.8038E+06     2.73485E+06         21.8004
            1034     4.96483E-03     10.2672E-03         6.43618         6.03769        -17.4348         6.00507        -17.4021         6.43618         1.67599     17.0798E-03    -7.58801E-03    -9.49183E-03    -9.27929E-03     16.8673E-03    -7.58801E-03    -4.72369E-03     27.1823E+06     13.2205E+06    -148.457E+06     13.1648E+06    -148.401E+06     27.1823E+06     2.31600E+06         21.6405
            1035     3.97298E-03     10.2674E-03         6.58606         5.76358        -17.3100         5.72951        -17.2760         6.58606         1.72733     15.7167E-03    -7.25505E-03    -8.46163E-03    -8.31593E-03     15.5710E-03    -7.25505E-03    -3.72531E-03     25.5576E+06     14.1895E+06    -148.760E+06     14.1609E+06    -148.731E+06     25.5576E+06     1.04900E+06         21.5153
            1036     2.98059E-03     10.2673E-03         6.90285         5.65407        -17.5064         5.64316        -17.4955         6.90285     830.643E-03     14.6453E-03    -6.98992E-03    -7.65540E-03    -7.56945E-03     14.5594E-03    -6.98992E-03    -2.73349E-03     22.4680E+06     14.8231E+06    -150.172E+06     14.7958E+06    -150.145E+06     22.4680E+06     884.986E+03         21.4209
            1037     1.98739E-03     10.2671E-03         7.40570         6.28233        -18.6441         6.23414        -18.5959         7.40570         1.69466     13.8593E-03    -6.81344E-03    -7.04589E-03    -7.00620E-03     13.8196E-03    -6.81344E-03    -1.76945E-03     20.2006E+06     16.1314E+06    -150.841E+06     16.1087E+06    -150.818E+06     20.2006E+06     528.844E+03         21.3556
            1038     993.592E-06     10.2667E-03         8.08583         7.42005        -20.4733         7.46623        -20.3654         7.93169    -283.131E-03     13.4816E-03    -6.71514E-03    -6.76648E-03    -6.75445E-03     13.4696E-03    -6.71514E-03    -836.415E-06     18.0209E+06     15.6509E+06    -150.547E+06     16.0559E+06    -150.532E+06     17.6008E+06      18.061E+03         21.3172
            1039     16.7605E-03     9.57830E-03         5.69554         4.11096        -15.1749         4.10994        -15.1738         5.69554    -4.50632E-03     175.343E-03    -15.2010E-03    -160.142E-03    -62.4150E-03     77.6160E-03    -15.2010E-03     304.836E-03     180.638E+06     121.346E+06    -8.32269E+06    -8.31179E+06     180.628E+06     121.346E+06    -179.189E+03         53.6754
            1040     15.7938E-03     9.33442E-03         5.83728         4.29421        -15.4823         4.29172        -15.4798         5.83728    -409.369E-03     91.1397E-03    -13.3678E-03    -77.7720E-03    -35.3931E-03     48.7608E-03    -13.3678E-03     144.155E-03     141.257E+06     30.8798E+06    -14.0067E+06    -13.9845E+06     141.235E+06     30.8798E+06    -434.413E+03         47.7888
            1041     14.8184E-03     9.26955E-03         5.95600         4.38479        -15.6568         4.38181        -15.6538         5.95600    -111.401E-03     39.1997E-03    -12.2152E-03    -26.9845E-03    -20.8847E-03     33.0999E-03    -12.2152E-03     34.4881E-03     101.694E+06    -9.41941E+06    -40.1427E+06    -13.8479E+06     101.657E+06    -35.6765E+06    -65.6455E+03         40.8721
            1042     13.8366E-03     9.25581E-03         6.06168         4.69177        -16.0188         4.68729        -16.0143         6.06168     555.679E-03     31.1049E-03    -11.6019E-03    -19.5030E-03    -19.0381E-03     30.6400E-03    -11.6019E-03     8.48011E-03     56.8111E+06    -12.0780E+06    -50.6273E+06    -12.0579E+06     56.7910E+06    -50.6273E+06    -221.589E+03         34.4898
            1043     12.8551E-03     9.24754E-03         6.15073         5.15072        -16.5099         5.13959        -16.4988         6.15073     958.363E-03     29.9697E-03    -11.2038E-03    -18.7659E-03    -18.6913E-03     29.8951E-03    -11.2038E-03     3.73875E-03     11.3205E+06    -11.9157E+06    -26.2886E+06    -9.69416E+06     9.09894E+06    -26.2886E+06    -907.248E+03         29.5893
            1044     11.8740E-03     9.24155E-03         6.22521         5.39666        -16.7825         5.38194        -16.7678         6.22521         1.13892     29.0771E-03    -10.7233E-03    -18.3538E-03    -18.3138E-03     29.0371E-03    -10.7233E-03     1.46430E-03    -1.48425E+06    -8.35163E+06    -33.0869E+06    -6.21305E+06    -29.7751E+06    -6.93462E+06    -2.11708E+06         26.3288
            1045     10.8914E-03     9.23841E-03         6.30528         5.33516        -16.7728         5.31431        -16.7519         6.30528         1.32982     27.6086E-03    -10.1772E-03    -17.4314E-03    -17.3838E-03     27.5610E-03    -10.1772E-03    -2.35472E-03     7.97730E+06    -2.13719E+06    -62.3103E+06    -2.66190E+06    -61.7856E+06     7.97730E+06    -4.59772E+06         24.3731
            1046     9.90821E-03     9.23961E-03         6.40334         5.35184        -16.8764         5.32872        -16.8532         6.40334         1.41288     25.7209E-03    -9.58499E-03    -16.1359E-03    -16.0218E-03     25.6068E-03    -9.58499E-03    -4.29939E-03     17.7762E+06     2.93465E+06    -83.9650E+06     2.13611E+06    -83.1665E+06     17.7762E+06    -7.15950E+06         23.2637
            1047     8.92319E-03     9.24110E-03         6.50413         5.67285        -17.2910         5.63959        -17.2577         6.50413         1.69172     23.7260E-03    -9.00569E-03    -14.7203E-03    -14.5434E-03     23.5491E-03    -9.00569E-03    -5.11512E-03     26.2477E+06     7.40484E+06    -103.984E+06     6.91518E+06    -103.495E+06     26.2477E+06    -6.38030E+06         22.6305
            1048     7.93683E-03     9.24418E-03         6.59031         5.99974        -17.6903         5.96298        -17.6536         6.59031         1.82203     21.6725E-03    -8.44753E-03    -13.2250E-03    -13.0040E-03     21.4515E-03    -8.44753E-03    -5.48279E-03     32.4101E+06     10.3216E+06    -120.912E+06     10.1158E+06    -120.706E+06     32.4101E+06    -4.25106E+06         22.2421
            1049     6.94867E-03     9.24699E-03         6.66944         6.10979        -17.8651         6.09435        -17.8497         6.66944         1.12098     19.6192E-03    -7.91887E-03    -11.7003E-03    -11.4856E-03     19.4045E-03    -7.91887E-03    -5.11136E-03     35.6621E+06     11.9670E+06    -133.329E+06     11.8829E+06    -133.245E+06     35.6621E+06    -2.42427E+06         21.9769
            1050     5.95913E-03     9.24974E-03         6.76100         6.14572        -17.9832         6.14015        -17.9776         6.76100     696.208E-03     17.6686E-03    -7.43455E-03    -10.2341E-03    -10.0492E-03     17.4838E-03    -7.43455E-03    -4.46951E-03     35.8724E+06     12.6559E+06    -142.690E+06     12.6118E+06    -142.646E+06     35.8724E+06    -1.33967E+06         21.7788
            1051     4.96791E-03     9.25188E-03         6.87501         6.25741        -18.2082         6.23984        -18.1906         6.87501         1.18474     15.9481E-03    -6.99735E-03    -8.95074E-03    -8.81099E-03     15.8083E-03    -6.99735E-03    -3.65598E-03     33.0805E+06     13.4529E+06    -146.495E+06     13.3707E+06    -146.413E+06     33.0805E+06    -2.19043E+06         21.6236
            1052     3.97592E-03     9.25343E-03         7.04973         6.17949        -18.2949         6.15171        -18.2671         7.04973         1.62708     14.5117E-03    -6.62429E-03    -7.88745E-03    -7.79400E-03     14.4183E-03    -6.62429E-03    -2.82489E-03     29.1762E+06     13.9934E+06    -148.870E+06     13.9057E+06    -148.783E+06     29.1762E+06    -3.00257E+06         21.5013
            1053     2.98270E-03     9.25444E-03         7.40554         5.95530        -18.4073         5.93962        -18.3916         7.40554         1.12645     13.3493E-03    -6.31978E-03    -7.02949E-03    -6.97538E-03     13.2952E-03    -6.31978E-03    -2.02977E-03     24.3436E+06     14.3097E+06    -150.759E+06     14.2387E+06    -150.688E+06     24.3436E+06    -2.87743E+06         21.4081
            1054     1.98890E-03     9.25502E-03         7.97625         6.69524        -19.7133         6.66907        -19.6871         7.97625         1.47880     12.5086E-03    -6.08981E-03    -6.41880E-03    -6.39509E-03     12.4849E-03    -6.08981E-03    -1.26003E-03     20.0017E+06     14.3167E+06    -152.134E+06     14.2722E+06    -152.090E+06     20.0017E+06    -2.29541E+06         21.3428
            1055     994.677E-06     9.25522E-03         8.64957         8.00476        -21.6901         8.11058        -21.6418         8.49543    -58.2497E-03     11.9553E-03    -5.90806E-03    -6.04720E-03    -6.00854E-03     11.9491E-03    -5.94053E-03    -490.920E-06     16.7482E+06     13.9620E+06    -152.520E+06     14.3611E+06    -152.499E+06     16.3281E+06    -942.360E+03         21.3037
            1056     16.7614E-03     8.51893E-03         5.89218         4.23318        -15.6116         4.23264        -15.6111         5.89218     15.1537E-03     169.251E-03    -15.1067E-03    -154.144E-03    -61.8931E-03     76.9998E-03    -15.1067E-03     291.959E-03     180.947E+06     123.470E+06    -8.96072E+06    -8.91942E+06     180.905E+06     123.470E+06    -47.7226E+03         52.5129
            1057     15.7992E-03     8.29027E-03         6.02972         4.41794        -15.9123         4.41610        -15.9104         6.02972    -197.627E-03     84.2396E-03    -13.2769E-03    -70.9626E-03    -33.9165E-03     47.1934E-03    -13.2769E-03     130.100E-03     141.978E+06     35.7743E+06    -13.4590E+06    -13.4408E+06     141.959E+06     35.7743E+06     75.8798E+03         46.8046
            1058     14.8196E-03     8.24033E-03         6.14458         4.63976        -16.2071         4.63817        -16.2055         6.14458    -146.149E-03     38.5908E-03    -12.1191E-03    -26.4718E-03    -20.8166E-03     32.9356E-03    -12.1191E-03     33.6994E-03     100.754E+06    -9.52876E+06    -40.0089E+06    -15.1596E+06     100.731E+06    -34.3550E+06     351.028E+03         40.1324
            1059     13.8380E-03     8.22203E-03         6.24070         5.04906        -16.6586         5.04707        -16.6566         6.24070     368.844E-03     31.2890E-03    -11.5002E-03    -19.7888E-03    -19.1889E-03     30.6891E-03    -11.5002E-03     9.73203E-03     58.1777E+06    -13.7602E+06    -47.9805E+06    -13.6862E+06     58.1037E+06    -47.9805E+06    -117.130E+03         33.9857
            1060     12.8576E-03     8.21840E-03         6.32012         5.39189        -17.0253         5.38246        -17.0158         6.32012     864.762E-03     30.0070E-03    -11.1042E-03    -18.9028E-03    -18.7509E-03     29.8551E-03    -11.1042E-03     5.25511E-03     14.1526E+06    -10.3160E+06    -22.2048E+06    -10.2600E+06     11.6223E+06    -19.7306E+06    -3.31695E+06         29.2715
            1061     11.8752E-03     8.21100E-03         6.39450         5.49400        -17.1544         5.47816        -17.1386         6.39450         1.19507     28.9594E-03    -10.6128E-03    -18.3466E-03    -18.2439E-03     28.8567E-03    -10.6128E-03     3.07389E-03     1.58762E+06    -5.08174E+06    -31.3758E+06    -6.07836E+06    -28.0581E+06    -733.447E+03    -6.41392E+06         26.1385
            1062     10.8936E-03     8.21144E-03         6.47907         5.46420        -17.1792         5.44771        -17.1627         6.47907         1.21824     27.1738E-03    -10.0675E-03    -17.1063E-03    -17.0878E-03     27.1553E-03    -10.0675E-03    -1.04124E-03     14.3999E+06     1.05083E+06    -60.1515E+06    -1.08359E+06    -58.0170E+06     14.3999E+06    -10.4243E+06         24.2631
            1063     9.90949E-03     8.21398E-03         6.58105         5.47019        -17.2723         5.45665        -17.2588         6.58105         1.08982     25.1627E-03    -9.50593E-03    -15.6568E-03    -15.6107E-03     25.1166E-03    -9.50593E-03    -2.37151E-03     24.4050E+06     4.30202E+06    -85.0303E+06     2.20705E+06    -82.9354E+06     24.4050E+06    -13.2286E+06         23.2036
            1064     8.92447E-03     8.21839E-03         6.69905         5.59036        -17.4983         5.56151        -17.4694         6.69905         1.51919     23.2149E-03    -8.95556E-03    -14.2594E-03    -14.1860E-03     23.1416E-03    -8.95556E-03    -2.94401E-03     31.2763E+06     6.32373E+06    -108.209E+06     4.71809E+06    -106.603E+06     31.2763E+06    -12.8654E+06         22.6034
            1065     7.93749E-03     8.22338E-03         6.82992         5.76646        -17.7895         5.72202        -17.7451         6.82992         2.02813     21.2308E-03    -8.43163E-03    -12.7991E-03    -12.7112E-03     21.1428E-03    -8.43163E-03    -3.08456E-03     38.6753E+06     8.96602E+06    -124.803E+06     7.99559E+06    -123.832E+06     38.6753E+06    -10.5644E+06         22.2391
            1066     6.94928E-03     8.22862E-03         6.98003         5.84888        -18.0077         5.82365        -17.9825         6.98003         1.42943     19.3231E-03    -7.92689E-03    -11.3962E-03    -11.3157E-03     19.2426E-03    -7.92689E-03    -2.74832E-03     42.2977E+06     10.7371E+06    -137.339E+06     10.2357E+06    -136.838E+06     42.2977E+06    -7.78867E+06         21.9935
            1067     5.95936E-03     8.23329E-03         7.15235         6.05849        -18.3847         6.05299        -18.3792         7.15235     669.868E-03     17.5203E-03    -7.43210E-03    -10.0882E-03    -10.0219E-03     17.4540E-03    -7.43210E-03    -2.31276E-03     40.2435E+06     11.8697E+06    -143.399E+06     11.5056E+06    -143.035E+06     40.2435E+06    -6.73443E+06         21.8115
            1068     4.96849E-03     8.23720E-03         7.32455         6.51488        -19.0147         6.50041        -19.0002         7.32455         1.06079     15.8566E-03    -6.97039E-03    -8.88619E-03    -8.83914E-03     15.8095E-03    -6.97039E-03    -1.80436E-03     34.6170E+06     12.6757E+06    -146.631E+06     12.3211E+06    -146.276E+06     34.6170E+06    -7.15569E+06         21.6688
            1069     3.97615E-03     8.24017E-03         7.48654         6.93325        -19.5875         6.90947        -19.5536         7.47640         1.88071     14.4022E-03    -6.56936E-03    -7.83282E-03    -7.80328E-03     14.3726E-03    -6.56936E-03    -1.32158E-03     27.6088E+06     12.7247E+06    -151.097E+06     12.3852E+06    -150.758E+06     27.6088E+06    -7.19058E+06         21.5551
            1070     2.98310E-03     8.24243E-03         7.85214         7.04971        -20.0464         7.27868        -20.0233         7.60008         1.41691     13.2311E-03    -6.23957E-03    -6.99156E-03    -6.97554E-03     13.2151E-03    -6.23957E-03    -879.522E-06     21.5076E+06     12.4089E+06    -153.756E+06     12.1577E+06    -153.505E+06     21.5076E+06    -6.17857E+06         21.4672
            1071     1.98914E-03     8.24384E-03         7.99896         7.26138        -20.3524         7.55449        -20.3333         7.68673         1.33055     12.3521E-03    -5.97393E-03    -6.37817E-03    -6.37182E-03     12.3457E-03    -5.97393E-03    -492.108E-06     16.7775E+06     11.0255E+06    -155.330E+06     10.9105E+06    -155.215E+06     16.7775E+06    -4.14607E+06         21.4046
            1072     994.856E-06     8.24443E-03         7.92804         7.55202        -20.5340         7.58279        -20.4945         7.85774    -130.860E-03     11.6680E-03    -5.71715E-03    -5.95082E-03    -5.91707E-03     11.6667E-03    -5.74962E-03    -188.184E-06     12.6828E+06     10.1333E+06    -156.390E+06     10.0905E+06    -156.347E+06     12.6828E+06    -2.55472E+06         21.3665
            1073     16.7609E-03     7.44321E-03         6.06295         4.23906        -15.8859         4.23832        -15.8851         6.06295     68.9161E-03     162.120E-03    -15.1408E-03    -146.979E-03    -60.7836E-03     75.9243E-03    -15.1408E-03     277.055E-03     181.335E+06     124.107E+06    -9.24293E+06    -9.18933E+06     181.282E+06     124.107E+06    -732.581E+03         51.1838
            1074     15.7970E-03     7.25763E-03         6.19649         4.57147        -16.3138         4.57035        -16.3127         6.19649     18.9537E-03     77.9336E-03    -13.3197E-03    -64.6139E-03    -32.4776E-03     45.7972E-03    -13.3197E-03     117.392E-03     141.784E+06     34.9022E+06    -13.6564E+06    -13.6080E+06     141.735E+06     34.9022E+06     897.168E+03         45.6732
            1075     14.8168E-03     7.20400E-03         6.30376         4.91511        -16.7243         4.91422        -16.7235         6.30376    -15.4171E-03     39.0037E-03    -12.1641E-03    -26.8395E-03    -21.1685E-03     33.3326E-03    -12.1641E-03     33.2463E-03     100.731E+06    -11.4667E+06    -40.4058E+06    -15.5190E+06     100.693E+06    -36.3154E+06     1.04160E+06         39.2785
            1076     13.8385E-03     7.19186E-03         6.39416         5.22216        -17.0768         5.22060        -17.0752         6.39416     352.585E-03     31.2954E-03    -11.5479E-03    -19.7474E-03    -19.1838E-03     30.7318E-03    -11.5479E-03     10.0623E-03     61.4562E+06    -13.5361E+06    -47.4425E+06    -13.4635E+06     61.3835E+06    -47.4425E+06    -979.866E+03         33.4025
            1077     12.8554E-03     7.18723E-03         6.47808         5.40109        -17.2859         5.39493        -17.2798         6.47808     703.682E-03     29.7712E-03    -11.1831E-03    -18.5881E-03    -18.2983E-03     29.4814E-03    -11.1831E-03     7.31591E-03     19.6069E+06    -8.64251E+06    -23.3721E+06    -11.0435E+06     16.3360E+06    -17.7002E+06    -5.32062E+06         28.9049
            1078     11.8748E-03     7.18196E-03         6.56469         5.49459        -17.4197         5.48292        -17.4080         6.56469         1.02234     28.4269E-03    -10.7477E-03    -17.6792E-03    -17.5069E-03     28.2546E-03    -10.7477E-03     4.73027E-03     5.07235E+06    -1.52619E+06    -32.7762E+06    -7.16781E+06    -23.1874E+06     1.12517E+06    -12.5526E+06         25.9231
            1079     10.8909E-03     7.18430E-03         6.65810         5.59118        -17.5785         5.57722        -17.5646         6.65810         1.13315     26.2986E-03    -10.3019E-03    -15.9968E-03    -15.9684E-03     26.2703E-03    -10.3019E-03     1.39796E-03     15.8687E+06     2.82463E+06    -61.7698E+06    -2.28282E+06    -56.6624E+06     15.8687E+06    -16.6286E+06         24.1473
            1080     9.90658E-03     7.18958E-03         6.76334         5.62443        -17.6960         5.61376        -17.6854         6.76334     980.939E-03     24.6172E-03    -9.87621E-03    -14.7410E-03    -14.7065E-03     24.5827E-03    -9.87621E-03     1.03717E-03     28.1852E+06     4.57930E+06    -86.8294E+06     925.146E+03    -83.1753E+06     28.1852E+06    -17.6736E+06         23.1538
            1081     8.92032E-03     7.19556E-03         6.89064         5.61826        -17.8020         5.60294        -17.7866         6.89064         1.12830     23.0641E-03    -9.44067E-03    -13.6234E-03    -13.5828E-03     23.0235E-03    -9.44067E-03     819.640E-06     33.7551E+06     6.05015E+06    -111.749E+06     2.77943E+06    -108.478E+06     33.7551E+06    -19.0991E+06         22.6006
            1082     7.93332E-03     7.20302E-03         7.04573         5.70522        -18.0280         5.67622        -17.9990         7.04573         1.60799     21.5665E-03    -9.02205E-03    -12.5444E-03    -12.5006E-03     21.5226E-03    -9.02205E-03     808.838E-06     40.1042E+06     7.46676E+06    -131.824E+06     5.06581E+06    -129.423E+06     40.1042E+06    -17.5623E+06         22.2733
            1083     6.94474E-03     7.20985E-03         7.22672         5.88643        -18.3766         5.86186        -18.3520         7.22672         1.48565     20.1181E-03    -8.58510E-03    -11.5330E-03    -11.4897E-03     20.0748E-03    -8.58510E-03     939.140E-06     42.2776E+06     8.62719E+06    -142.291E+06     7.11957E+06    -140.784E+06     42.2776E+06    -14.5844E+06         22.0587
            1084     5.95556E-03     7.21634E-03         7.42901         6.16086        -18.8503         6.14936        -18.8388         7.42901         1.02982     18.6682E-03    -8.11580E-03    -10.5524E-03    -10.5142E-03     18.6300E-03    -8.11580E-03     967.328E-06     36.9894E+06     9.88113E+06    -146.386E+06     8.69278E+06    -145.198E+06     36.9894E+06    -13.1874E+06         21.9029
            1085     4.96499E-03     7.22181E-03         7.63158         6.67704        -19.5693         6.65749        -19.5498         7.63158         1.33880     17.2001E-03    -7.66902E-03    -9.53107E-03    -9.50225E-03     17.1713E-03    -7.66902E-03     891.138E-06     30.6733E+06     10.6029E+06    -150.323E+06     9.68763E+06    -149.407E+06     30.6733E+06    -11.8036E+06         21.7810
            1086     3.97361E-03     7.22641E-03         7.91385         7.40332        -20.5769         7.53074        -20.5466         7.75606         1.80009     15.8215E-03    -7.26643E-03    -8.55509E-03    -8.53444E-03     15.8009E-03    -7.26643E-03     794.700E-06     23.4627E+06     10.2417E+06    -155.013E+06     9.59046E+06    -154.362E+06     23.4627E+06    -10.2244E+06         21.6829
            1087     2.98102E-03     7.22976E-03         8.33787         7.67595        -21.2349         8.32218        -21.2192         7.67595         1.06900     14.6573E-03    -6.91667E-03    -7.74060E-03    -7.72765E-03     14.6443E-03    -6.91667E-03     672.702E-06     15.9911E+06     8.65818E+06    -158.505E+06     8.26066E+06    -158.108E+06     15.9911E+06    -7.98284E+06         21.6060
            1088     1.98803E-03     7.23202E-03         8.16129         7.37516        -20.6942         8.14703        -20.6799         7.37516         1.04210     13.6984E-03    -6.63331E-03    -7.06514E-03    -7.05894E-03     13.6923E-03    -6.63331E-03     476.599E-06     10.9628E+06     7.23943E+06    -160.071E+06     7.13032E+06    -159.873E+06     10.8740E+06    -5.64450E+06         21.5502
            1089     994.125E-06     7.23357E-03         7.42910         6.99061        -19.5038         7.25423        -19.4485         7.11024    -598.490E-03     12.9938E-03    -6.38736E-03    -6.60649E-03    -6.57681E-03     12.9919E-03    -6.41513E-03     245.934E-06     7.35280E+06     5.82226E+06    -161.430E+06     5.82944E+06    -161.348E+06     7.26408E+06    -3.08446E+06         21.5154
            1090     16.7597E-03     6.37871E-03         6.20807         4.28791        -16.1179         4.28735        -16.1174         6.20807    -73.5694E-03     154.212E-03    -15.3132E-03    -138.898E-03    -59.1473E-03     74.4605E-03    -15.3132E-03     260.546E-03     180.560E+06     123.673E+06    -8.16644E+06    -8.14709E+06     180.541E+06     123.673E+06    -233.922E+03         49.6477
            1091     15.7914E-03     6.21949E-03         6.33417         4.81018        -16.7420         4.80929        -16.7411         6.33417    -113.555E-03     72.4505E-03    -13.5159E-03    -58.9346E-03    -31.9570E-03     45.4728E-03    -13.5159E-03     104.049E-03     140.802E+06     36.6706E+06    -14.2185E+06    -14.1584E+06     140.742E+06     36.6706E+06     1.14127E+06         44.3627
            1092     14.8167E-03     6.16770E-03         6.43190         5.14065        -17.1507         5.13922        -17.1493         6.43190     49.1628E-03     38.4355E-03    -12.3642E-03    -26.0713E-03    -21.2697E-03     33.6339E-03    -12.3642E-03     30.4536E-03     100.961E+06    -11.1669E+06    -40.7034E+06    -17.9375E+06     100.810E+06    -33.7826E+06      3.0315E+06         38.2907
            1093     13.8342E-03     6.16231E-03         6.52570         5.14520        -17.2108         5.14294        -17.2085         6.52570     441.037E-03     30.5737E-03    -11.7472E-03    -18.8266E-03    -18.2197E-03     29.9669E-03    -11.7472E-03     10.7856E-03     65.3293E+06    -18.6314E+06    -53.4168E+06    -18.5026E+06     65.2005E+06    -53.4168E+06     419.258E+03         32.7302
            1094     12.8529E-03     6.15620E-03         6.62933         5.22437        -17.3475         5.21953        -17.3426         6.62933     645.989E-03     29.1653E-03    -11.4513E-03    -17.7140E-03    -17.1658E-03     28.6172E-03    -11.4513E-03     9.91352E-03     30.0125E+06    -15.4830E+06    -32.2822E+06    -15.6879E+06     25.5879E+06    -27.6528E+06    -8.63402E+06         28.4848
            1095     11.8690E-03     6.15381E-03         6.73306         5.54439        -17.7265         5.53641        -17.7185         6.73306     857.996E-03     27.1220E-03    -11.1874E-03    -15.9347E-03    -15.5929E-03     26.7803E-03    -11.1874E-03     7.13891E-03     8.74387E+06    -7.32428E+06    -36.2510E+06    -11.1295E+06    -17.3415E+06    -6.36037E+06    -18.0385E+06         25.6832
            1096     10.8841E-03     6.15923E-03         6.83132         5.75922        -18.0016         5.74620        -17.9885         6.83132         1.09692     25.2998E-03    -10.9600E-03    -14.3398E-03    -14.0959E-03     25.0559E-03    -10.9600E-03     5.50402E-03     8.98752E+06     317.058E+03    -65.8161E+06    -7.24739E+06    -56.7170E+06     7.45291E+06    -22.2856E+06         24.0286
            1097     9.89719E-03     6.16502E-03         6.94497         5.64330        -17.9736         5.63123        -17.9616         6.94497         1.04509     24.4291E-03    -10.7696E-03    -13.6594E-03    -13.3642E-03     24.1339E-03    -10.7696E-03     5.97092E-03     21.9021E+06     4.50459E+06    -91.3299E+06    -2.41307E+06    -84.4123E+06     21.9021E+06    -24.1641E+06         23.1180
            1098     8.91045E-03     6.17328E-03         7.09566         5.54277        -18.0045         5.53358        -17.9953         7.09566     922.204E-03     23.7357E-03    -10.5600E-03    -13.1757E-03    -12.8888E-03     23.4488E-03    -10.5600E-03     5.87767E-03     31.2505E+06     6.78056E+06    -115.503E+06     1.52382E+06    -110.246E+06     31.2505E+06    -24.4980E+06         22.6255
            1099     7.92261E-03     6.18138E-03         7.26930         5.85853        -18.4812         5.84613        -18.4688         7.26930         1.07994     23.1172E-03    -10.3139E-03    -12.8032E-03    -12.5085E-03     22.8225E-03    -10.3139E-03     5.92987E-03     35.6995E+06     7.58299E+06    -139.231E+06     3.39244E+06    -135.041E+06     35.6995E+06    -24.1565E+06         22.3469
            1100     6.93496E-03     6.18989E-03         7.43178         6.38626        -19.1621         6.37383        -19.1496         7.43178         1.09397     22.4085E-03    -10.0012E-03    -12.4073E-03    -12.1398E-03     22.1410E-03    -10.0012E-03     5.64546E-03     36.6001E+06     8.52919E+06    -149.426E+06     5.44537E+06    -146.342E+06     36.6001E+06    -21.5133E+06         22.1740
            1101     5.94622E-03     6.19729E-03         7.58974         6.59273        -19.5176         6.58174        -19.5066         7.58974         1.05021     21.3822E-03    -9.61946E-03    -11.7627E-03    -11.5523E-03     21.1717E-03    -9.61946E-03     4.97119E-03     30.7079E+06     8.44263E+06    -152.186E+06     6.31387E+06    -150.058E+06     30.7079E+06    -18.2405E+06         22.0539
            1102     4.95727E-03     6.20439E-03         7.77241         6.78785        -19.8971         6.77460        -19.8838         7.77241         1.10713     20.2435E-03    -9.22498E-03    -11.0185E-03    -10.8557E-03     20.0807E-03    -9.22498E-03     4.25433E-03     22.6504E+06     7.01526E+06    -156.729E+06     5.51564E+06    -155.230E+06     22.6504E+06    -15.4669E+06         21.9612
            1103     3.96714E-03     6.21024E-03         8.06422         7.41834        -20.8060         7.55491        -20.7949         7.91656     907.999E-03     19.0675E-03    -8.85031E-03    -10.2171E-03    -10.1074E-03     18.9577E-03    -8.85031E-03     3.40667E-03     16.7664E+06     5.18192E+06    -160.852E+06     4.28452E+06    -159.954E+06     16.7664E+06    -11.9860E+06         21.8864
            1104     2.97653E-03     6.21479E-03         8.33531         7.82801        -21.4551         8.25885        -21.4518         7.90120     333.953E-03     17.8737E-03    -8.50463E-03    -9.36906E-03    -9.30271E-03     17.8073E-03    -8.50463E-03     2.56450E-03     9.89739E+06     3.18915E+06    -164.225E+06     2.69782E+06    -163.734E+06     9.89739E+06    -8.95869E+06         21.8271
            1105     1.98474E-03     6.21817E-03         8.31040         7.68732        -21.2406         8.29888        -21.2291         7.68732     826.227E-03     16.8772E-03    -8.22842E-03    -8.64877E-03    -8.61578E-03     16.8442E-03    -8.22842E-03     1.71736E-03     3.98197E+06     1.98177E+06    -166.286E+06     1.81427E+06    -166.030E+06     3.89326E+06    -6.28047E+06         21.7833
            1106     992.664E-06     6.22027E-03         7.78948         7.31570        -20.2875         7.74979        -20.2479         7.31570    -282.650E-03     16.2311E-03    -8.04508E-03    -8.18600E-03    -8.14757E-03     16.2204E-03    -8.07286E-03     910.694E-06     2.14020E+06     1.00543E+06    -167.293E+06     1.55384E+06    -167.219E+06     1.51779E+06    -2.85415E+06         21.7553
            1107     16.7511E-03     5.31874E-03         6.32571         4.36507        -16.3196         4.36440        -16.3190         6.32571    -227.486E-03     148.542E-03    -15.6450E-03    -132.897E-03    -59.0223E-03     74.6673E-03    -15.6450E-03     246.194E-03     179.040E+06     120.219E+06    -9.17496E+06    -9.13503E+06     179.000E+06     120.219E+06     766.070E+03         47.8721
            1108     15.7895E-03     5.17323E-03         6.44761         4.85608        -16.9537         4.85350        -16.9511         6.44761    -404.593E-03     67.6897E-03    -13.8248E-03    -53.8649E-03    -32.9050E-03     46.7298E-03    -13.8248E-03     89.8215E-03     137.874E+06     37.9981E+06    -18.6526E+06    -18.3941E+06     137.615E+06     37.9981E+06     4.85319E+06         42.8622
            1109     14.8112E-03     5.13730E-03         6.54818         5.15502        -17.3458         5.15183        -17.3426         6.54818    -124.175E-03     36.2717E-03    -12.7215E-03    -23.5502E-03    -19.8578E-03     32.5793E-03    -12.7215E-03     26.5326E-03     101.490E+06    -14.2169E+06    -37.5936E+06    -25.1873E+06     101.030E+06    -26.1629E+06     7.19163E+06         37.1743
            1110     13.8283E-03     5.13111E-03         6.64821         5.17886        -17.4399         5.17590        -17.4370         6.64821     496.384E-03     29.1444E-03    -12.1813E-03    -16.9632E-03    -16.0752E-03     28.2565E-03    -12.1813E-03     12.4230E-03     76.4896E+06    -24.7404E+06    -55.5946E+06    -24.0047E+06     75.7540E+06    -55.5946E+06    -288.789E+03         31.9784
            1111     12.8443E-03     5.12703E-03         6.76066         5.21055        -17.5444         5.20500        -17.5389         6.76066     704.692E-03     27.6742E-03    -12.0174E-03    -15.6568E-03    -14.5497E-03     26.5672E-03    -12.0174E-03     13.3706E-03     41.5086E+06    -21.7886E+06    -46.8007E+06    -17.9371E+06     36.2253E+06    -45.3689E+06    -12.9837E+06         28.0260
            1112     11.8584E-03     5.12832E-03         6.88043         5.44090        -17.8497         5.43411        -17.8429         6.88043     794.838E-03     25.8740E-03    -11.8005E-03    -14.0734E-03    -12.9829E-03     25.0203E-03    -12.0373E-03     11.0840E-03     10.3461E+06    -19.5456E+06    -42.5536E+06    -14.2023E+06    -13.3330E+06    -24.2178E+06    -20.8531E+06         25.4348
            1113     10.8700E-03     5.13470E-03         7.00061         5.67536        -18.1631         5.66546        -18.1532         7.00061     947.267E-03     25.0003E-03    -11.8612E-03    -13.1392E-03    -11.9927E-03     24.1021E-03    -12.1094E-03     10.9301E-03     3.10969E+06    -11.6150E+06    -67.9769E+06    -11.5478E+06    -54.2778E+06    -10.6566E+06    -26.9806E+06         23.9231
            1114     9.88202E-03     5.14163E-03         7.13096         5.72586        -18.3078         5.71523        -18.2972         7.13096     992.138E-03     25.3064E-03    -12.1980E-03    -13.1084E-03    -12.0988E-03     24.3083E-03    -12.2094E-03     11.7960E-03     8.24566E+06    -2.82572E+06    -97.6423E+06    -8.07304E+06    -86.8482E+06     2.69886E+06    -30.6611E+06         23.1100
            1115     8.89371E-03     5.14936E-03         7.28564         5.75957        -18.4749         5.75046        -18.4658         7.28564     938.038E-03     25.5192E-03    -12.2773E-03    -13.2419E-03    -12.3970E-03     24.6743E-03    -12.2773E-03     11.1089E-03     16.5442E+06     3.29825E+06    -121.975E+06    -3.54504E+06    -113.765E+06     15.1777E+06    -30.6982E+06         22.6885
            1116     7.90630E-03     5.15868E-03         7.45344         6.11940        -18.9929         6.11094        -18.9844         7.45344     914.767E-03     25.8932E-03    -12.2768E-03    -13.6164E-03    -12.7844E-03     25.0612E-03    -12.2768E-03     11.1676E-03     22.8344E+06     6.40552E+06    -146.309E+06     210.784E+03    -140.114E+06     22.8344E+06    -29.7943E+06         22.4668
            1117     6.91887E-03     5.16635E-03         7.60487         6.64666        -19.6674         6.64091        -19.6616         7.60487     765.471E-03     25.9789E-03    -12.1608E-03    -13.8181E-03    -13.1293E-03     25.2901E-03    -12.1608E-03     10.2619E-03     23.9157E+06     6.21810E+06    -159.334E+06     1.71463E+06    -154.831E+06     23.9157E+06    -26.7536E+06         22.3431
            1118     5.93227E-03     5.17543E-03         7.73496         6.98794        -20.1344         6.98336        -20.1298         7.73496     665.205E-03     25.5517E-03    -11.9410E-03    -13.6107E-03    -13.0722E-03     25.0131E-03    -11.9410E-03     9.02664E-03     20.4279E+06     5.18906E+06    -160.803E+06     2.26016E+06    -157.874E+06     20.4279E+06    -21.6235E+06         22.2659
            1119     4.94452E-03     5.18292E-03         7.87131         7.12449        -20.3906         7.12147        -20.3875         7.87131     451.032E-03     24.8823E-03    -11.6684E-03    -13.2139E-03    -12.8113E-03     24.4797E-03    -11.6684E-03     7.71152E-03     14.0399E+06     2.96364E+06    -164.256E+06     1.20830E+06    -162.501E+06     14.0399E+06    -16.8903E+06         22.2101
            1120     3.95715E-03     5.18989E-03         8.04072         7.27822        -20.6979         7.27747        -20.6972         8.04072     152.978E-03     24.0055E-03    -11.3741E-03    -12.6314E-03    -12.3608E-03     23.7349E-03    -11.3741E-03     6.20460E-03     7.93748E+06     28.6747E+03    -167.961E+06    -973.268E+03    -166.959E+06     7.93748E+06    -12.7740E+06         22.1660
            1121     2.96861E-03     5.19579E-03         8.24619         7.67660        -21.2775         7.70071        -21.2774         8.22193     57.3665E-03     23.0189E-03    -11.0906E-03    -11.9284E-03    -11.7675E-03     22.8581E-03    -11.0906E-03     4.64597E-03     3.43860E+06    -2.01615E+06    -170.378E+06    -2.55831E+06    -169.836E+06     3.43860E+06    -9.41915E+06         22.1309
            1122     1.97964E-03     5.20002E-03         8.48406         8.09003        -21.9136         8.22409        -21.8985         8.33487     990.402E-03     22.0931E-03    -10.8612E-03    -11.2319E-03    -11.1567E-03     22.0179E-03    -10.8612E-03     3.08144E-03    -893.561E+03    -3.94693E+06    -172.642E+06    -4.21286E+06    -172.376E+06    -893.561E+03    -6.40738E+06         22.1046
            1123     989.783E-06     5.20290E-03         8.54988         8.18929        -22.0662         8.39622        -22.0479         8.32467     673.441E-03     21.5325E-03    -10.6962E-03    -10.8363E-03    -10.8100E-03     21.5062E-03    -10.6962E-03     1.73047E-03    -3.56459E+06    -6.15038E+06    -174.419E+06    -5.69573E+06    -174.340E+06    -4.09829E+06    -3.16977E+06         22.0876
            1124     16.7389E-03     4.23581E-03         6.40844         4.35532        -16.4442         4.35390        -16.4428         6.40844    -302.050E-03     141.919E-03    -16.0101E-03    -125.909E-03    -59.5845E-03     75.5946E-03    -16.0101E-03     228.411E-03     175.683E+06     110.544E+06    -10.9931E+06    -10.6027E+06     175.293E+06     110.544E+06     6.37691E+06         45.9034
            1125     15.7840E-03     4.13410E-03         6.53493         4.63753        -16.8820         4.63484        -16.8793         6.53493    -408.085E-03     60.6891E-03    -14.2250E-03    -46.4641E-03    -32.1495E-03     46.3745E-03    -14.2250E-03     71.4833E-03     134.019E+06     35.9790E+06    -25.6077E+06    -24.9917E+06     133.403E+06     35.9790E+06     9.39131E+06         41.2316
            1126     14.8044E-03     4.10433E-03         6.65361         4.92332        -17.2803         4.92032        -17.2773         6.65361    -173.851E-03     33.5954E-03    -12.4886E-03    -21.1068E-03    -17.5391E-03     30.8210E-03    -13.2818E-03     22.0908E-03     109.208E+06    -6.17810E+06    -31.4533E+06    -24.7835E+06     108.576E+06    -12.2164E+06     5.10237E+06         35.9882
            1127     13.8197E-03     4.10384E-03         6.76569         5.26266        -17.7068         5.26015        -17.7043         6.76569     451.278E-03     27.1458E-03    -12.1285E-03    -15.0173E-03    -12.2250E-03     25.1467E-03    -12.9217E-03     15.4230E-03     87.7629E+06    -18.6708E+06    -53.8489E+06    -17.8308E+06     86.9228E+06    -53.8489E+06    -4.65278E+06         31.2050
            1128     12.8296E-03     4.10157E-03         6.87933         5.33681        -17.8568         5.33269        -17.8527         6.87933     596.179E-03     26.6976E-03    -12.2998E-03    -14.3979E-03    -11.3077E-03     24.2996E-03    -12.9919E-03     17.9384E-03     48.4652E+06    -19.3647E+06    -64.6491E+06    -15.5342E+06     44.6347E+06    -64.6491E+06    -12.5086E+06         27.5805
            1129     11.8404E-03     4.10271E-03         7.01240         5.25096        -17.8617         5.24687        -17.8576         7.01240     585.246E-03     25.4047E-03    -11.6906E-03    -13.7141E-03    -10.5143E-03     23.8449E-03    -13.3306E-03     14.5532E-03     14.4595E+06    -31.2165E+06    -53.3896E+06    -15.1969E+06    -7.58851E+06    -47.3612E+06    -21.5983E+06         25.2243
            1130     10.8506E-03     4.11286E-03         7.16414         5.44346        -18.1601         5.43800        -18.1546         7.16414     700.171E-03     26.1419E-03    -12.4274E-03    -13.7145E-03    -10.6138E-03     24.3283E-03    -13.7145E-03     16.0049E-03     4.61146E+06    -32.9417E+06    -68.4737E+06    -12.1665E+06    -51.6957E+06    -32.9417E+06    -29.5911E+06         23.8703
            1131     9.86062E-03     4.11529E-03         7.31136         5.93289        -18.7559         5.92573        -18.7488         7.31136     835.919E-03     27.1296E-03    -13.0356E-03    -14.0940E-03    -11.4865E-03     25.5746E-03    -14.0881E-03     15.4239E-03     2.92856E+06    -20.7467E+06    -100.998E+06    -9.55262E+06    -88.5171E+06    -20.7467E+06    -33.5256E+06         23.1625
            1132     8.87308E-03     4.12553E-03         7.44187         6.33329        -19.2581         6.32564        -19.2505         7.44187     871.616E-03     28.0330E-03    -13.5330E-03    -14.5001E-03    -12.2381E-03     26.6572E-03    -14.4191E-03     14.8579E-03     4.35954E+06    -11.6133E+06    -128.972E+06    -7.51179E+06    -118.440E+06    -10.2734E+06    -35.5487E+06         22.8161
            1133     7.88511E-03     4.13157E-03         7.57408         6.44665        -19.4967         6.44002        -19.4901         7.57408     814.521E-03     29.3372E-03    -14.2810E-03    -15.0562E-03    -13.3941E-03     28.0878E-03    -14.6938E-03     14.5649E-03     7.81389E+06    -4.08279E+06    -155.067E+06    -4.67761E+06    -147.204E+06     546.401E+03    -33.9777E+06         22.6541
            1134     6.89941E-03     4.14029E-03         7.72279         6.62947        -19.8333         6.62555        -19.8294         7.72279     631.483E-03     29.9887E-03    -14.5578E-03    -15.4308E-03    -14.1596E-03     29.0053E-03    -14.8458E-03     13.1584E-03     8.14574E+06    -109.813E+03    -169.760E+06    -3.21658E+06    -164.473E+06     5.96497E+06    -29.5114E+06         22.5820
            1135     5.91316E-03     4.14822E-03         7.86054         7.14315        -20.4809         7.14056        -20.4783         7.86054     522.353E-03     30.3941E-03    -14.8239E-03    -15.5702E-03    -14.7404E-03     29.6123E-03    -14.8719E-03     11.8465E-03     5.48309E+06    -885.335E+03    -171.436E+06    -3.64468E+06    -168.123E+06     4.92990E+06    -23.3162E+06         22.5513
            1136     4.92869E-03     4.15648E-03         7.96442         7.52272        -20.9441         7.51924        -20.9406         7.96442     500.938E-03     30.4304E-03    -14.8216E-03    -15.6088E-03    -15.0294E-03     29.8510E-03    -14.8216E-03     10.2309E-03     2.93693E+06     -2.5842E+06    -172.839E+06    -4.38103E+06    -171.043E+06     2.93693E+06    -17.1784E+06         22.5371
            1137     3.94300E-03     4.16400E-03         8.09277         7.42266        -20.9403         7.41933        -20.9370         8.09277     429.534E-03     30.1436E-03    -14.7144E-03    -15.4292E-03    -15.0312E-03     29.7456E-03    -14.7144E-03     8.42830E-03    -793.117E+03    -4.75337E+06    -175.108E+06    -5.71750E+06    -174.144E+06    -793.117E+03    -12.6378E+06         22.5291
            1138     2.95798E-03     4.17028E-03         8.33799         7.37377        -21.1286         7.37224        -21.1270         8.33799     330.657E-03     29.7120E-03    -14.5816E-03    -15.1304E-03    -14.8956E-03     29.4772E-03    -14.5816E-03     6.39031E-03    -4.05665E+06    -7.04049E+06    -177.417E+06    -7.54252E+06    -176.915E+06    -4.05665E+06    -9.06257E+06         22.5238
            1139     1.97226E-03     4.17582E-03         8.70238         7.90488        -22.0320         7.88896        -22.0160         8.70238         1.11965     29.2170E-03    -14.4363E-03    -14.7808E-03    -14.6702E-03     29.1065E-03    -14.4363E-03     4.28968E-03     -6.1134E+06    -9.66798E+06    -178.890E+06    -9.90195E+06    -178.656E+06     -6.1134E+06    -6.14593E+06         22.5199
            1140     986.334E-06     4.17874E-03         9.20714         8.62108        -23.2966         8.60326        -23.2788         9.20714     728.554E-03     28.7046E-03    -14.2372E-03    -14.4674E-03    -14.3873E-03     28.6681E-03    -14.2808E-03     2.33508E-03    -9.18218E+06    -13.5878E+06    -181.189E+06    -12.2709E+06    -181.104E+06    -10.5841E+06    -3.32600E+06         22.5170
            1141     16.7441E-03     3.16983E-03         6.45650         4.30682        -16.5345         4.30375        -16.5314         6.45650    -331.459E-03     134.725E-03    -16.4307E-03    -118.294E-03    -61.6974E-03     78.1282E-03    -16.4307E-03     207.463E-03     174.122E+06     108.585E+06    -10.6137E+06    -9.69961E+06     173.208E+06     108.585E+06     12.5109E+06         43.9286
            1142     15.7722E-03     3.09043E-03         6.58766         4.45448        -16.8253         4.45357        -16.8244         6.58766    -67.8297E-03     52.0562E-03    -13.8036E-03    -38.2526E-03    -28.2367E-03     42.9574E-03    -14.7207E-03     51.0429E-03     139.881E+06     45.2367E+06    -17.4125E+06    -16.4249E+06     138.893E+06     45.2367E+06     7.26014E+06         39.6637
            1143     14.7963E-03     3.07214E-03         6.72643         4.57084        -17.0611         4.56970        -17.0600         6.72643     47.1044E-03     29.2333E-03    -11.9051E-03    -17.3282E-03    -12.2637E-03     26.3364E-03    -14.0727E-03     18.1492E-03     115.133E+06     6.60205E+06    -26.1512E+06    -11.8026E+06     114.647E+06    -7.26054E+06    -1.85159E+06         34.8890
            1144     13.8009E-03     3.08756E-03         6.86845         4.92752        -17.5274         4.92642        -17.5263         6.86845     276.052E-03     27.3198E-03    -12.7810E-03    -14.5388E-03    -9.44125E-03     23.4727E-03    -14.0314E-03     21.6984E-03     91.4997E+06    -10.9159E+06    -56.3488E+06    -10.6753E+06     91.2591E+06    -56.3488E+06    -2.57094E+06         30.5370
            1145     12.8102E-03     3.06937E-03         7.00545         5.26798        -17.9699         5.26641        -17.9684         7.00545     348.990E-03     26.5024E-03    -11.6729E-03    -14.8295E-03    -9.51685E-03     23.8390E-03    -14.3222E-03     18.7306E-03     56.0548E+06    -14.3034E+06    -75.8665E+06    -11.7384E+06     53.4898E+06    -75.8665E+06    -8.21449E+06         27.2555
            1146     11.8196E-03     3.08618E-03         7.14794         5.34408        -18.1468         5.34238        -18.1451         7.14794     398.219E-03     25.7137E-03    -10.8641E-03    -14.8496E-03    -9.02263E-03     23.8722E-03    -14.8496E-03     15.7389E-03     21.4342E+06    -30.6788E+06    -72.3024E+06    -9.79664E+06     321.647E+03    -72.0720E+06    -20.3143E+06         25.1409
            1147     10.8269E-03     3.08237E-03         7.30432         5.52902        -18.4407         5.52596        -18.4376         7.30432     521.944E-03     27.8121E-03    -12.3502E-03    -15.4619E-03    -10.4055E-03     25.8675E-03    -15.4619E-03     16.9802E-03     7.29958E+06    -49.8683E+06    -76.5480E+06    -8.16304E+06    -49.6850E+06    -61.2687E+06    -28.6450E+06         23.9440
            1148     9.84044E-03     3.09219E-03         7.45418         6.08174        -19.0967         6.07792        -19.0929         7.45418     583.725E-03     28.8404E-03    -12.7778E-03    -16.0626E-03    -11.2891E-03     27.3516E-03    -16.0626E-03     15.4255E-03     5.26170E+06    -49.1951E+06    -101.055E+06    -6.40697E+06    -89.3866E+06    -49.1951E+06    -32.8026E+06         23.3379
            1149     8.84971E-03     3.09616E-03         7.57364         6.66347        -19.7680         6.65998        -19.7646         7.57364     574.672E-03     30.6742E-03    -14.0367E-03    -16.6375E-03    -12.6217E-03     29.2592E-03    -16.6375E-03     15.5499E-03     4.29330E+06    -38.6597E+06    -132.384E+06    -5.33044E+06    -122.760E+06    -38.6597E+06    -34.6852E+06         23.0626
            1150     7.86444E-03     3.10269E-03         7.67369         6.88398        -20.0819         6.88033        -20.0782         7.67369     618.426E-03     32.3156E-03    -15.1363E-03    -17.1793E-03    -13.9845E-03     31.1637E-03    -17.1793E-03     14.4942E-03     1.13138E+06    -26.2938E+06    -163.063E+06    -6.34632E+06    -155.585E+06    -26.2938E+06    -33.7958E+06         22.9562
            1151     6.87792E-03     3.10942E-03         7.78122         6.97018        -20.2852         6.96780        -20.2828         7.78122     459.670E-03     33.6509E-03    -16.0097E-03    -17.6413E-03    -15.0777E-03     32.7189E-03    -17.6413E-03     13.3992E-03    -2.30129E+06    -15.7687E+06    -180.249E+06    -7.28552E+06    -175.265E+06    -15.7687E+06    -29.0861E+06         22.9324
            1152     5.89420E-03     3.11656E-03         7.88715         7.31840        -20.7401         7.31547        -20.7372         7.88715     518.738E-03     34.8655E-03    -16.8579E-03    -18.0076E-03    -16.1330E-03     34.1232E-03    -17.9902E-03     12.2221E-03    -4.75141E+06    -12.3446E+06    -181.772E+06    -8.14412E+06    -178.789E+06    -11.9344E+06    -22.4722E+06         22.9464
            1153     4.90994E-03     3.12409E-03         7.96050         7.71687        -21.1877         7.70793        -21.1787         7.96050     976.382E-03     35.8759E-03    -17.5062E-03    -18.3697E-03    -17.0620E-03     35.3186E-03    -18.2565E-03     10.7669E-03    -6.47089E+06    -11.2324E+06    -182.072E+06    -9.08449E+06    -180.439E+06    -10.2516E+06    -16.5813E+06         22.9740
            1154     3.92788E-03     3.13114E-03         8.02353         7.73696        -21.2382         7.72659        -21.2278         8.02353         1.06830     36.5777E-03    -17.9679E-03    -18.6098E-03    -17.7475E-03     36.1943E-03    -18.4468E-03     9.01585E-03    -8.06348E+06    -10.7946E+06    -182.784E+06    -10.0653E+06    -181.954E+06    -9.62234E+06    -11.7087E+06         23.0038
            1155     2.94527E-03     3.13783E-03         8.18967         7.42560        -21.0791         7.42155        -21.0750         8.18967     509.730E-03     37.0103E-03    -18.3003E-03    -18.7101E-03    -18.2145E-03     36.7785E-03    -18.5640E-03     7.03614E-03    -10.7171E+06    -12.3327E+06    -184.010E+06    -11.9007E+06    -183.628E+06    -11.5307E+06    -7.90439E+06         23.0307
            1156     1.96355E-03     3.14270E-03         8.56712         7.58190        -21.6515         7.57493        -21.6445         8.56712     533.025E-03     37.2636E-03    -18.4765E-03    -18.7871E-03    -18.5349E-03     37.1506E-03    -18.6157E-03     4.86086E-03    -12.2470E+06    -14.8012E+06    -185.096E+06    -13.7671E+06    -184.946E+06    -13.4304E+06    -4.56591E+06         23.0515
            1157     982.112E-06     3.14662E-03         9.17252         8.47419        -23.2021         8.46101        -23.1889         9.17252    -165.502E-03     37.2699E-03    -18.5129E-03    -18.7570E-03    -18.6196E-03     37.2322E-03    -18.6126E-03     2.71830E-03    -12.7970E+06    -16.5986E+06    -186.333E+06    -14.1832E+06    -186.300E+06    -15.2454E+06    -2.03841E+06         23.0645
            1158     16.7249E-03     2.10655E-03         6.47539         4.21900        -16.5962         4.21539        -16.5926         6.47539    -313.472E-03     119.294E-03    -16.8693E-03    -102.424E-03    -64.3424E-03     81.2118E-03    -16.8693E-03     161.703E-03     176.242E+06     114.538E+06    -6.06888E+06    -5.39123E+06     175.565E+06     114.538E+06     5.04190E+06         42.3157
            1159     15.7744E-03     2.03746E-03         6.61200         4.29467        -16.7858         4.29445        -16.7855         6.61200     86.5996E-03     38.5033E-03    -11.7562E-03    -26.7471E-03    -18.5875E-03     33.8712E-03    -15.2837E-03     29.2868E-03     148.382E+06     55.6741E+06    -310.987E+03     5.52994E+06     147.063E+06     51.1528E+06     3.57017E+06         38.4908
            1160     14.7720E-03     2.07282E-03         6.76810         4.27259        -16.8573         4.27218        -16.8569         6.76810     132.679E-03     26.4916E-03    -11.0980E-03    -15.3936E-03    -8.18073E-03     23.2635E-03    -15.0828E-03     18.3233E-03     113.311E+06     3.44748E+06    -21.1883E+06    -2.12514E+06     112.403E+06    -14.7079E+06     3.59891E+06         34.1400
            1161     13.7791E-03     2.04319E-03         6.94281         4.41679        -17.1299         4.41631        -17.1294         6.94281     192.732E-03     28.1633E-03    -12.5073E-03    -15.6561E-03    -9.52914E-03     24.8573E-03    -15.3282E-03     20.9586E-03     94.8275E+06    -8.82883E+06    -51.7630E+06    -8.63523E+06     94.6339E+06    -51.7630E+06     1.51272E+06         30.1830
            1162     12.7945E-03     2.05747E-03         7.11710         4.96288        -17.8167         4.96178        -17.8156         7.11710     288.698E-03     26.1067E-03    -10.4053E-03    -15.7014E-03    -8.87006E-03     24.5544E-03    -15.6843E-03     14.5217E-03     63.7642E+06    -6.55946E+06    -80.2795E+06    -4.96094E+06     62.1657E+06    -80.2795E+06    -6.06264E+06         27.2161
            1163     11.7971E-03     2.05397E-03         7.27200         5.56644        -18.5358         5.56455        -18.5339         7.27200     425.832E-03     27.1246E-03    -10.8639E-03    -16.2607E-03    -9.43836E-03     25.6991E-03    -16.2607E-03     14.1459E-03     26.9385E+06    -19.2488E+06    -92.4609E+06    -1.13434E+06     8.82407E+06    -92.4609E+06    -15.1988E+06         25.3156
            1164     10.8121E-03     2.05909E-03         7.41332         5.88677        -18.9479         5.88502        -18.9462         7.41332     392.322E-03     28.5524E-03    -11.5623E-03    -16.9901E-03    -10.3853E-03     27.3754E-03    -16.9901E-03     13.2049E-03     9.20550E+06    -53.9104E+06    -91.1134E+06    -1.04105E+06    -47.0526E+06    -87.7248E+06    -22.7457E+06         24.2538
            1165     9.81780E-03     2.06226E-03         7.55182         6.18549        -19.3357         6.18454        -19.3347         7.55182     246.117E-03     30.3111E-03    -12.5635E-03    -17.7476E-03    -11.5599E-03     29.3075E-03    -17.7476E-03     12.6804E-03     6.28548E+06    -75.1715E+06    -103.536E+06    -1.77691E+06    -90.4514E+06    -80.1936E+06    -27.2336E+06         23.7329
            1166     8.83335E-03     2.06593E-03         7.67483         6.70109        -19.9438         6.69986        -19.9426         7.67483     308.677E-03     32.5375E-03    -14.0285E-03    -18.5090E-03    -13.1420E-03     31.6510E-03    -18.5090E-03     12.3487E-03     3.56524E+06    -69.7198E+06    -133.149E+06    -2.77184E+06    -126.812E+06    -69.7198E+06    -28.0781E+06         23.5161
            1167     7.84487E-03     2.07023E-03         7.75987         7.27082        -20.5960         7.26841        -20.5936         7.75987     515.554E-03     34.3303E-03    -15.0401E-03    -19.2903E-03    -14.3367E-03     33.6270E-03    -19.2903E-03     11.4629E-03    -336.103E+03    -54.7563E+06    -167.361E+06    -5.01433E+06    -162.683E+06    -54.7563E+06    -26.7592E+06         23.4551
            1168     6.86070E-03     2.07501E-03         7.80990         7.54098        -20.9258         7.53956        -20.9244         7.80990     294.409E-03     36.3562E-03    -16.3025E-03    -20.0538E-03    -15.7163E-03     35.7701E-03    -20.0538E-03     10.7768E-03    -4.69628E+06    -39.5854E+06    -188.226E+06    -8.02136E+06    -184.901E+06    -39.5854E+06    -24.0006E+06         23.4707
            1169     5.87596E-03     2.08077E-03         7.85411         7.55902        -20.9890         7.55750        -20.9875         7.85411     138.732E-03     38.3604E-03    -17.6190E-03    -20.7414E-03    -17.1486E-03     37.8899E-03    -20.7414E-03     9.97267E-03    -7.94857E+06    -29.1162E+06    -191.140E+06    -10.0456E+06    -189.043E+06    -29.1162E+06    -19.0401E+06         23.5222
            1170     4.89430E-03     2.08594E-03         7.89882         7.70907        -21.1619         7.70302        -21.1558         7.89882     544.600E-03     40.3142E-03    -18.9577E-03    -21.3565E-03    -18.6033E-03     39.9597E-03    -21.3565E-03     8.88017E-03    -10.9144E+06    -22.8377E+06    -190.113E+06    -12.0088E+06    -189.018E+06    -22.8377E+06    -13.5347E+06         23.5863
            1171     3.91287E-03     2.09204E-03         7.97050         7.82970        -21.3217         7.86450        -21.3126         7.92661     932.941E-03     42.1223E-03    -20.2353E-03    -21.8870E-03    -19.9938E-03     41.8808E-03    -21.8870E-03     7.51053E-03    -13.7109E+06    -19.3678E+06    -189.660E+06    -14.2380E+06    -189.133E+06    -19.3678E+06    -9.22664E+06         23.6504
            1172     2.93369E-03     2.09711E-03         8.03235         7.69881        -21.2412         7.75579        -21.2366         7.97080     505.721E-03     43.6168E-03    -21.3003E-03    -22.3165E-03    -21.1506E-03     43.4670E-03    -22.3165E-03     5.98858E-03    -15.7268E+06    -18.9180E+06    -189.990E+06    -15.9406E+06    -189.777E+06    -18.9180E+06    -5.77137E+06         23.7070
            1173     1.95505E-03     2.10165E-03         8.18797         7.66030        -21.4008         7.75289        -21.3983         8.09285    -247.840E-03     44.7621E-03    -22.0941E-03    -22.6680E-03    -22.0201E-03     44.6880E-03    -22.6680E-03     4.21460E-03    -16.2549E+06    -19.2230E+06    -189.928E+06    -16.9379E+06    -189.852E+06    -18.6161E+06    -3.30265E+06         23.7511
            1174     976.771E-06     2.10475E-03         8.41063         7.96082        -21.9640         8.02675        -21.9524         8.33315    -982.812E-03     45.6869E-03    -22.7202E-03    -22.9667E-03    -22.7460E-03     45.6608E-03    -22.9149E-03     2.41551E-03    -16.9862E+06    -19.0381E+06    -191.004E+06    -18.0137E+06    -190.982E+06    -18.0327E+06    -1.17899E+06         23.7793
            1175     16.7556E-03     1.02186E-03         6.47646         4.03222        -16.5719         4.03020        -16.5699         6.47646    -224.688E-03     98.8617E-03    -17.5894E-03    -81.2723E-03    -62.7600E-03     80.3494E-03    -17.5894E-03     106.547E-03     171.082E+06     101.172E+06     910.862E+03     1.47266E+06     170.520E+06     101.172E+06    -1.28334E+06         41.5773
            1176     15.7470E-03     1.04724E-03         6.62714         4.00209        -16.5841         4.00199        -16.5840         6.62714     8.60697E-03     33.0380E-03    -13.5338E-03    -19.5042E-03    -14.2379E-03     30.3821E-03    -16.1442E-03     21.1897E-03     141.918E+06     46.3232E+06    -6.90525E+06    -1.07242E+06     140.607E+06     41.8019E+06     8.56356E+06         38.1013
            1177     14.7539E-03     1.02533E-03         6.79874         4.12958        -16.7853         4.12933        -16.7851         6.79874     1.72899E-03     28.9236E-03    -11.7565E-03    -17.1671E-03    -10.9310E-03     27.0333E-03    -16.1022E-03     15.6827E-03     119.263E+06     6.81286E+06    -18.0412E+06    -4.12251E+06     118.201E+06    -6.04339E+06     10.1470E+06         34.0635
            1178     13.7745E-03     1.02881E-03         6.98336         4.33784        -17.1160         4.33741        -17.1156         6.98336     136.189E-03     27.0680E-03    -10.4529E-03    -16.6152E-03    -9.69247E-03     25.9968E-03    -16.3044E-03     11.2106E-03     100.902E+06    -2.37430E+06    -43.8592E+06    -2.15723E+06     100.685E+06    -43.8592E+06     935.712E+03         30.3993
            1179     12.7711E-03     1.02572E-03         7.17281         4.74323        -17.6734         4.74190        -17.6721         7.17281     319.444E-03     26.1950E-03    -9.52747E-03    -16.6675E-03    -8.89156E-03     25.5590E-03    -16.6675E-03     8.30659E-03     68.0288E+06     1.99427E+06    -85.1566E+06     2.39543E+06     67.6277E+06    -85.1566E+06    -4.33096E+06         27.6537
            1180     11.7905E-03     1.02850E-03         7.34903         5.39927        -18.4716         5.39735        -18.4697         7.34903     420.075E-03     27.9405E-03    -10.6627E-03    -17.2778E-03    -10.0744E-03     27.3522E-03    -17.2778E-03     8.13514E-03     29.2397E+06    -9.94419E+06    -104.042E+06     4.44991E+06     14.8456E+06    -104.042E+06    -7.66163E+06         25.9011
            1181     10.7935E-03     1.03057E-03         7.49703         6.05490        -19.2268         6.05374        -19.2256         7.49703     153.717E-03     29.2980E-03    -11.2550E-03    -18.0430E-03    -10.8288E-03     28.8718E-03    -18.0430E-03     7.45531E-03     8.74831E+06    -48.0299E+06    -105.069E+06     4.87878E+06    -44.1604E+06    -105.069E+06    -12.2021E+06         24.9314
            1182     9.80957E-03     1.03160E-03         7.61860         6.51608        -19.7580         6.51574        -19.7576         7.61860    -33.5970E-03     31.3332E-03    -12.4767E-03    -18.8565E-03    -12.1032E-03     30.9597E-03    -18.8565E-03     7.10399E-03     5.76167E+06    -86.3840E+06    -110.743E+06     2.70086E+06    -90.7410E+06    -103.325E+06    -15.4855E+06         24.4681
            1183     8.81854E-03     1.03330E-03         7.72013         6.89836        -20.2091         6.89735        -20.2081         7.72013     242.007E-03     33.2674E-03    -13.5229E-03    -19.7445E-03    -13.2316E-03     32.9761E-03    -19.7445E-03     6.63773E-03     1.52085E+06    -93.2447E+06    -133.435E+06    -944.117E+03    -130.970E+06    -93.2447E+06    -15.9423E+06         24.2903
            1184     7.83401E-03     1.03561E-03         7.79529         7.33373        -20.7189         7.33182        -20.7170         7.79529     447.571E-03     35.4924E-03    -14.8015E-03    -20.6908E-03    -14.5485E-03     35.2394E-03    -20.6908E-03     6.31542E-03    -2.80377E+06    -78.9268E+06    -168.476E+06    -4.47708E+06    -166.803E+06    -78.9268E+06    -15.2118E+06         24.2596
            1185     6.84749E-03     1.03847E-03         7.83735         7.65868        -21.0992         7.65756        -21.0980         7.83735     120.000E-03     37.9492E-03    -16.2874E-03    -21.6618E-03    -16.0840E-03     37.7457E-03    -21.6618E-03     5.98878E-03    -6.89416E+06    -61.8487E+06    -192.071E+06    -8.21100E+06    -190.754E+06    -61.8487E+06    -14.3203E+06         24.3019
            1186     5.86487E-03     1.04096E-03         7.86453         7.69429        -21.1607         7.69334        -21.1598         7.86453    -291.596E-03     40.5440E-03    -17.9349E-03    -22.6091E-03    -17.7699E-03     40.3790E-03    -22.6091E-03     5.52713E-03    -11.3184E+06    -45.5311E+06    -198.455E+06    -12.1779E+06    -197.596E+06    -45.5311E+06    -11.2534E+06         24.3792
            1187     4.88247E-03     1.04437E-03         7.89739         7.71268        -21.1924         7.71179        -21.1915         7.89739    -115.221E-03     43.1602E-03    -19.6590E-03    -23.5013E-03    -19.5358E-03     43.0371E-03    -23.5013E-03     4.95207E-03    -15.0547E+06    -33.8047E+06    -195.805E+06    -15.4576E+06    -195.403E+06    -33.8047E+06    -7.44513E+06         24.4695
            1188     3.90308E-03     1.04717E-03         8.06257         7.83823        -21.4518         7.99374        -21.4496         7.90480     398.407E-03     45.7983E-03    -21.4802E-03    -24.3180E-03    -21.3949E-03     45.7130E-03    -24.3180E-03     4.26134E-03    -18.0027E+06    -26.9452E+06    -194.263E+06    -18.1767E+06    -194.089E+06    -26.9452E+06    -4.72146E+06         24.5585
            1189     2.92500E-03     1.05049E-03         8.28469         7.81584        -21.6499         8.28251        -21.6477         7.81584     300.812E-03     48.2369E-03    -23.2153E-03    -25.0216E-03    -23.1641E-03     48.1857E-03    -25.0216E-03     3.36454E-03    -19.6304E+06    -23.6468E+06    -194.013E+06    -19.9601E+06    -193.927E+06    -23.4023E+06    -3.34826E+06         24.6371
            1190     1.94866E-03     1.05313E-03         8.18319         7.59109        -21.3432         8.17984        -21.3399         7.59109    -437.347E-03     50.2492E-03    -24.6713E-03    -25.5779E-03    -24.6456E-03     50.2235E-03    -25.5779E-03     2.37018E-03    -19.6445E+06    -22.2807E+06    -193.191E+06    -21.1458E+06    -193.148E+06    -20.8223E+06    -2.30737E+06         24.6988
            1191     974.313E-06     1.05453E-03         7.67984         7.21769        -20.5044         7.49043        -20.4962         7.39882    -858.582E-03     51.6254E-03    -25.6391E-03    -25.9863E-03    -25.7263E-03     51.6173E-03    -25.8910E-03     1.28152E-03    -21.9387E+06    -23.6594E+06    -195.032E+06    -23.6778E+06    -195.014E+06    -21.9387E+06    -671.002E+03         24.7390
            1192     983.057E-06     57.7338E-03         6.35587         5.49766        -12.9974         4.58666        -11.5675         5.83706         9.73437     34.2724E-03    -17.1035E-03    -17.1689E-03    -17.1372E-03     34.2635E-03    -17.1263E-03     1.24481E-03    -9.19600E+06    -10.4549E+06    -188.169E+06    -9.95999E+06    -188.165E+06    -9.69514E+06    -284.320E+03         22.5821
            1193     1.96678E-03     57.7352E-03         6.47255         5.25860        -12.8821         5.45388        -11.8634         5.25860         8.56713     34.3712E-03    -17.1336E-03    -17.2376E-03    -17.1842E-03     34.3407E-03    -17.1565E-03     2.41849E-03     -7.0902E+06    -9.34357E+06    -188.927E+06    -9.00853E+06    -188.920E+06    -7.43230E+06     689.362E+03         22.6046
            1194     2.94976E-03     57.7385E-03         6.12721         5.32303        -12.5641         5.43312        -11.8701         5.32303         6.49889     34.4988E-03    -17.1933E-03    -17.3055E-03    -17.2465E-03     34.4398E-03    -17.1933E-03     3.47230E-03    -3.86580E+06    -7.54129E+06    -186.770E+06    -7.54965E+06    -186.761E+06    -3.86580E+06     1.00531E+06         22.6439
            1195     3.93276E-03     57.7423E-03         5.70739         5.34310        -12.1475         5.38413        -11.8242         5.34310         4.61615     34.4102E-03    -17.1678E-03    -17.2424E-03    -17.1097E-03     34.3160E-03    -17.2063E-03     4.37458E-03    -630.844E+03    -5.98770E+06    -181.935E+06    -5.99087E+06    -181.932E+06    -630.844E+03     669.293E+03         22.7022
            1196     4.91645E-03     57.7475E-03         5.78273         5.35937        -12.2355         5.50930        -11.9621         5.35937         4.17825     34.3597E-03    -17.1434E-03    -17.2163E-03    -17.0329E-03     34.2241E-03    -17.1912E-03     5.26644E-03     2.14719E+06    -4.91835E+06    -175.632E+06    -4.92365E+06    -175.627E+06     2.14719E+06     890.332E+03         22.7820
            1197     5.89973E-03     57.7534E-03         5.64879         5.22263        -11.9834         5.33453        -11.8141         5.36764         3.36306     34.3194E-03    -17.1432E-03    -17.1762E-03    -16.9879E-03     34.1426E-03    -17.1547E-03     6.01209E-03     3.03442E+06    -4.09226E+06    -162.993E+06    -4.09976E+06    -162.986E+06     3.03442E+06     1.08179E+06         22.8870
            1198     6.88304E-03     57.7599E-03         5.41922         4.73453        -11.2738         4.53698        -10.9632         5.30619         4.36553     34.2137E-03    -17.0960E-03    -17.1177E-03    -16.8782E-03     33.9764E-03    -17.0982E-03     6.94014E-03     2.61249E+06    -2.37584E+06    -144.107E+06    -2.39340E+06    -144.090E+06     2.61249E+06     1.32558E+06         23.0239
            1199     7.86691E-03     57.7678E-03         5.15784         3.98267        -10.2535         3.71821        -9.98908         5.15784         3.74314     34.1811E-03    -17.0394E-03    -17.1417E-03    -16.8450E-03     33.8845E-03    -17.0394E-03     7.77657E-03     1.67507E+06    -1.02336E+06    -125.604E+06    -1.04313E+06    -125.584E+06     1.67507E+06     1.35958E+06         23.2059
            1200     8.85003E-03     57.7760E-03         4.98457         3.60930        -9.68648         3.53940        -9.61658         4.98457         1.06122     34.1222E-03    -16.9845E-03    -17.1377E-03    -16.7748E-03     33.7593E-03    -16.9845E-03     8.57584E-03      289.53E+03    -1.53335E+06    -108.103E+06    -1.37902E+06    -108.078E+06     110.961E+03     1.23490E+06         23.4658
            1201     9.83424E-03     57.7856E-03         4.84503         3.71297        -9.63208         3.70945        -9.62856         4.84503    -379.281E-03     34.1280E-03    -16.9147E-03    -17.2133E-03    -16.7227E-03     33.6373E-03    -16.9147E-03     9.94974E-03    -1.69487E+06    -4.47924E+06    -85.8482E+06    -2.55675E+06    -85.8165E+06    -3.64912E+06     1.29871E+06         23.8861
            1202     10.8170E-03     57.7967E-03         4.73635         3.68797        -9.48568         3.63524        -9.43295         4.73635        -1.26212     33.9627E-03    -16.8227E-03    -17.1400E-03    -16.5967E-03     33.4194E-03    -16.8227E-03     10.4722E-03    -3.26026E+06    -10.8193E+06    -59.5966E+06    -3.27751E+06    -59.5793E+06    -10.8193E+06     795.655E+03         24.6670
            1203     11.8016E-03     57.8068E-03         4.62755         3.38248        -9.06718         3.24661        -8.93131         4.62755        -2.55368     33.8497E-03    -16.6966E-03    -17.1531E-03    -16.4173E-03     33.1139E-03    -16.6966E-03     12.0146E-03    -3.80602E+06    -10.8165E+06    -38.7299E+06    -4.67576E+06    -25.7629E+06    -22.9137E+06     613.746E+03         26.2346
            1204     12.7850E-03     57.8215E-03         4.50351         2.93188        -8.49186         2.78840        -8.34838         4.50351        -2.53375     34.2789E-03    -16.5422E-03    -17.7367E-03    -16.3456E-03     32.8878E-03    -16.5422E-03     16.5766E-03     20.1038E+06    -7.93633E+06    -39.9545E+06    -7.57462E+06     19.7421E+06    -39.9545E+06     437.983E+03         29.3318
            1205     13.7689E-03     57.8403E-03         4.36898         2.50952        -7.93512         2.43021        -7.85581         4.36898        -1.75812     35.3216E-03    -16.3912E-03    -18.9304E-03    -16.2974E-03     32.6886E-03    -16.3912E-03     23.0551E-03     69.6095E+06    -10.2106E+06    -60.2495E+06    -10.2093E+06     69.6082E+06    -60.2495E+06     223.320E+03         34.9028
            1206     14.7535E-03     57.8685E-03         4.23271         2.40891        -7.69719         2.09192        -7.38021         4.23271        -3.00978     47.0986E-03    -16.4741E-03    -30.6245E-03    -16.3457E-03     32.8198E-03    -16.4741E-03     56.6846E-03     110.218E+06    -10.8695E+06    -42.6772E+06    -12.5527E+06     110.211E+06    -40.9874E+06    -252.739E+03         43.4945
            1207     15.7392E-03     57.9568E-03         4.10632         2.23804        -7.40177         1.70675        -6.87048         4.10632        -4.38954     124.568E-03    -16.7851E-03    -107.783E-03    -28.1269E-03     44.9119E-03    -16.7851E-03     219.276E-03     147.156E+06     20.6271E+06    -12.5205E+06    -12.5116E+06     147.147E+06     20.6271E+06    -1.00056E+06         54.1789
            1208     16.7239E-03     58.3305E-03         3.99461         1.53237        -6.61411         1.28488        -6.36662         3.99461        -2.44540     199.752E-03    -17.2268E-03    -182.525E-03    -40.7767E-03     58.0035E-03    -17.2268E-03     369.282E-03     189.423E+06     109.202E+06    -8.26162E+06    -8.25765E+06     189.419E+06     109.202E+06    -569.431E+03         63.8999
            1209     983.496E-06     58.7670E-03         5.84145         5.15083        -12.1872         3.95960        -10.3839         5.22937         10.5846     34.2333E-03    -17.0312E-03    -17.2022E-03    -17.1751E-03     34.2234E-03    -17.0484E-03     1.28063E-03    -8.73242E+06    -10.4625E+06    -188.245E+06    -10.4693E+06    -188.238E+06    -8.73242E+06     628.147E+03         22.5789
            1210     1.96653E-03     58.7694E-03         6.02471         4.59719        -11.7988         4.61027        -10.3844         4.59719         9.54505     34.4009E-03    -17.1039E-03    -17.2971E-03    -17.2182E-03     34.3711E-03    -17.1529E-03     2.42772E-03    -6.52301E+06    -9.62024E+06    -188.770E+06    -9.62713E+06    -188.763E+06    -6.52301E+06     528.461E+03         22.6017
            1211     2.94974E-03     58.7725E-03         5.58805         4.59742        -11.3325         4.58876        -10.3332         4.59742         7.45951     34.3969E-03    -17.1492E-03    -17.2477E-03    -17.1575E-03     34.3389E-03    -17.1814E-03     3.42369E-03    -4.37981E+06    -7.94002E+06    -186.918E+06    -7.94229E+06    -186.915E+06    -4.37981E+06     280.717E+03         22.6410
            1212     3.93322E-03     58.7764E-03         5.16116         4.60789        -10.8954         4.72269        -10.4570         4.60789         5.18033     34.4382E-03    -17.1847E-03    -17.2536E-03    -17.1570E-03     34.3421E-03    -17.1851E-03     4.42446E-03    -2.04946E+06    -6.53146E+06    -182.304E+06    -6.53947E+06    -182.296E+06    -2.04946E+06     883.570E+03         22.6995
            1213     4.91616E-03     58.7813E-03         5.24161         4.64534        -11.0256         4.90829        -10.6923         4.64534         4.30698     34.3884E-03    -17.1518E-03    -17.2366E-03    -17.0700E-03     34.2516E-03    -17.1816E-03     5.29354E-03     706.742E+03    -5.49976E+06    -175.864E+06    -5.51173E+06    -175.852E+06     706.742E+03     1.38353E+06         22.7794
            1214     5.89974E-03     58.7873E-03         5.19071         4.69490        -11.0413         5.02064        -10.8712         4.69490         3.25901     34.2580E-03    -17.1091E-03    -17.1488E-03    -16.9307E-03     34.0779E-03    -17.1472E-03     6.05623E-03     2.41675E+06    -4.18484E+06    -162.557E+06    -4.19216E+06    -162.550E+06     2.41675E+06     968.006E+03         22.8845
            1215     6.88334E-03     58.7937E-03         5.22849         4.62033        -11.0203         4.80152        -10.6964         4.72333         4.46036     34.2263E-03    -17.0797E-03    -17.1466E-03    -16.8967E-03     33.9847E-03    -17.0880E-03     7.00757E-03     1.89687E+06    -2.59708E+06    -143.793E+06    -2.60097E+06    -143.789E+06     1.89687E+06     168.443E+03         23.0212
            1216     7.86660E-03     58.8015E-03         5.03362         4.30185        -10.5017         4.36172        -10.2315         4.70347         3.83491     34.2002E-03    -17.0346E-03    -17.1656E-03    -16.8634E-03     33.8980E-03    -17.0346E-03     7.84989E-03     776.207E+03    -1.75098E+06    -126.873E+06    -1.78128E+06    -126.842E+06     776.207E+03     1.09294E+06         23.2028
            1217     8.85042E-03     58.8099E-03         4.81399         4.19068        -10.1555         4.28476        -10.0937         4.65810     926.771E-03     34.1422E-03    -16.9869E-03    -17.1554E-03    -16.7953E-03     33.7822E-03    -16.9869E-03     8.55512E-03     340.918E+03    -1.89096E+06    -108.659E+06    -1.94869E+06    -108.602E+06     340.918E+03     2.38701E+06         23.4609
            1218     9.83348E-03     58.8191E-03         4.67443         4.29728        -10.1082         4.34620        -10.1038         4.62114    -316.020E-03     34.0392E-03    -16.9104E-03    -17.1288E-03    -16.6344E-03     33.5447E-03    -16.9104E-03     9.95653E-03    -1.05462E+06    -4.73347E+06    -85.5161E+06    -2.22373E+06    -85.4804E+06    -3.60012E+06     1.63434E+06         23.8768
            1219     10.8181E-03     58.8306E-03         4.58291         4.12975        -9.84634         4.08699        -9.80358         4.58291        -1.04189     33.9031E-03    -16.8098E-03    -17.0933E-03    -16.5498E-03     33.3596E-03    -16.8098E-03     10.4606E-03    -3.15797E+06    -11.4720E+06    -59.8346E+06    -3.19252E+06    -59.8001E+06    -11.4720E+06     1.16437E+06         24.6481
            1220     11.8010E-03     58.8403E-03         4.52966         3.95183        -9.61715         3.82889        -9.49422         4.52966        -2.53728     33.8185E-03    -16.6850E-03    -17.1335E-03    -16.4072E-03     33.0922E-03    -16.6850E-03     11.9099E-03    -3.72861E+06    -11.1116E+06    -38.5666E+06    -4.94833E+06    -25.5164E+06    -22.9421E+06     1.33771E+06         26.1983
            1221     12.7856E-03     58.8549E-03         4.46992         3.84021        -9.45793         3.70390        -9.32162         4.46992        -2.66374     34.1733E-03    -16.5250E-03    -17.6482E-03    -16.2562E-03     32.7813E-03    -16.5250E-03     16.5569E-03     21.2351E+06    -7.42983E+06    -39.9731E+06    -7.00538E+06     20.8107E+06    -39.9731E+06     688.063E+03         29.2732
            1222     13.7698E-03     58.8743E-03         4.40395         3.46681        -9.03109         3.38895        -8.95323         4.40395        -1.91925     35.2081E-03    -16.3689E-03    -18.8391E-03    -16.1938E-03     32.5627E-03    -16.3689E-03     23.0499E-03     69.9437E+06    -10.8344E+06    -60.6769E+06    -10.8279E+06     69.9372E+06    -60.6769E+06    -208.067E+03         34.8311
            1223     14.7533E-03     58.9022E-03         4.31998         3.11701        -8.61065         2.82743        -8.32107         4.31998        -3.14534     46.5268E-03    -16.4565E-03    -30.0703E-03    -16.3428E-03     32.7993E-03    -16.4565E-03     55.4831E-03     110.769E+06    -11.2461E+06    -42.1257E+06    -12.9844E+06     110.758E+06    -40.3758E+06    -862.897E+03         43.4426
            1224     15.7395E-03     58.9880E-03         4.21799         2.67256        -8.08637         2.17811        -7.59192         4.21799        -4.50195     125.159E-03    -16.7729E-03    -108.386E-03    -28.4200E-03     45.1929E-03    -16.7729E-03     220.180E-03     147.799E+06     21.7778E+06    -11.9752E+06    -11.9668E+06     147.790E+06     21.7778E+06    -815.383E+03         54.1974
            1225     16.7216E-03     59.3697E-03         4.10401         1.78640        -7.13506         1.54504        -6.89369         4.10401        -2.55576     200.208E-03    -17.2142E-03    -182.994E-03    -40.9378E-03     58.1520E-03    -17.2142E-03     370.158E-03     189.005E+06     109.179E+06    -8.50177E+06    -8.49912E+06     189.002E+06     109.179E+06    -433.105E+03         64.0121
            1226     983.489E-06     59.8016E-03         5.80937         5.12447        -12.2011         3.62809        -10.0535         5.15818         11.4821     34.2859E-03    -17.0345E-03    -17.2513E-03    -17.2194E-03     34.2736E-03    -17.0542E-03     1.50807E-03    -8.36095E+06    -9.94135E+06    -189.309E+06    -9.53495E+06    -189.289E+06    -8.78670E+06     1.53501E+06         22.5753
            1227     1.96634E-03     59.8034E-03         5.42478         4.25812        -10.8737         3.72054        -9.16949         4.25812         9.87460     34.3754E-03    -17.1109E-03    -17.2644E-03    -17.1835E-03     34.3459E-03    -17.1625E-03     2.40703E-03    -6.10829E+06    -8.79502E+06    -187.894E+06    -8.80335E+06    -187.886E+06    -6.10829E+06     895.479E+03         22.5982
            1228     2.94989E-03     59.8063E-03         4.98951         4.06893        -10.2177         3.74839        -8.97654         4.06893         7.68964     34.3339E-03    -17.1416E-03    -17.1923E-03    -17.1024E-03     34.2762E-03    -17.1738E-03     3.41085E-03    -4.08609E+06    -7.99733E+06    -186.926E+06    -8.00272E+06    -186.921E+06    -4.08609E+06     538.178E+03         22.6377
            1229     3.93310E-03     59.8104E-03         4.49138         4.01043        -9.64984         3.98704        -9.14550         4.01043         5.16076     34.3803E-03    -17.1548E-03    -17.2255E-03    -17.1165E-03     34.2841E-03    -17.1676E-03     4.42168E-03    -2.27410E+06    -7.53099E+06    -183.086E+06    -7.54044E+06    -183.077E+06    -2.27410E+06     947.505E+03         22.6965
            1230     4.91649E-03     59.8155E-03         4.53156         4.01390        -9.71200         4.10570        -9.28614         4.01390         4.58121     34.3541E-03    -17.1292E-03    -17.2249E-03    -17.0592E-03     34.2213E-03    -17.1621E-03     5.21682E-03     932.095E+03    -5.58703E+06    -175.371E+06    -5.59586E+06    -175.362E+06     932.095E+03     920.019E+03         22.7767
            1231     5.89986E-03     59.8207E-03         4.44950         4.03646        -9.67717         4.23779        -9.46546         4.03646         3.37895     34.2697E-03    -17.1007E-03    -17.1690E-03    -16.9581E-03     34.0876E-03    -17.1295E-03     6.07680E-03     2.77396E+06    -2.85874E+06    -161.416E+06    -2.86400E+06    -161.411E+06     2.77396E+06     64.1120E+03         22.8821
            1232     6.88330E-03     59.8278E-03         5.05330         4.09379        -10.3520         4.71794        -10.0167         4.09379         4.45477     34.2408E-03    -17.0693E-03    -17.1715E-03    -16.9211E-03     33.9987E-03    -17.0776E-03     7.02952E-03     1.90139E+06    -2.14944E+06    -144.181E+06    -2.16882E+06    -144.162E+06     1.90139E+06     241.692E+03         23.0189
            1233     7.86688E-03     59.8352E-03         5.41481         4.19533        -10.8179         5.17283        -10.5760         4.19533         3.61607     34.2085E-03    -17.0306E-03    -17.1778E-03    -16.8782E-03     33.9088E-03    -17.0306E-03     7.81241E-03     350.529E+03    -2.76096E+06    -129.060E+06    -2.80780E+06    -129.013E+06     350.529E+03     1.73864E+06         23.2001
            1234     8.85021E-03     59.8438E-03         5.20493         4.30042        -10.7052         5.15726        -10.6575         4.30042     487.284E-03     34.1186E-03    -16.9789E-03    -17.1397E-03    -16.7784E-03     33.7573E-03    -16.9789E-03     8.56887E-03    -242.186E+03    -2.33630E+06    -108.804E+06    -2.38068E+06    -108.759E+06    -242.186E+03     2.06634E+06         23.4569
            1235     9.83418E-03     59.8529E-03         4.85343         4.36173        -10.4089         4.83464        -10.3967         4.36839    -635.499E-03     34.0320E-03    -16.9106E-03    -17.1214E-03    -16.6451E-03     33.5557E-03    -16.9106E-03     9.78292E-03    -1.05545E+06    -3.15655E+06    -84.9597E+06    -1.97509E+06    -84.9111E+06    -2.28560E+06     1.81369E+06         23.8689
            1236     10.8174E-03     59.8637E-03         4.67998         4.29630        -10.1714         4.53911        -10.1300         4.39579        -1.14390     33.8963E-03    -16.8116E-03    -17.0846E-03    -16.5511E-03     33.3627E-03    -16.8116E-03     10.3714E-03    -2.59801E+06    -10.2585E+06    -60.2854E+06    -2.67286E+06    -60.2105E+06    -10.2585E+06     1.94797E+06         24.6308
            1237     11.8018E-03     59.8747E-03         4.68798         4.26942        -10.1666         4.41946        -10.0298         4.40119        -2.76357     33.8235E-03    -16.6822E-03    -17.1414E-03    -16.4676E-03     33.1498E-03    -16.6822E-03     11.5424E-03    -2.90358E+06    -10.6919E+06    -38.2267E+06    -4.14817E+06    -24.9460E+06    -22.7280E+06     1.36454E+06         26.1638
            1238     12.7852E-03     59.8875E-03         4.63311         4.30498        -10.1658         4.39052        -10.0183         4.40013        -2.89546     34.2073E-03    -16.5280E-03    -17.6794E-03    -16.3115E-03     32.8395E-03    -16.5280E-03     16.3058E-03     21.6609E+06    -6.41901E+06    -39.4729E+06    -6.25785E+06     21.4997E+06    -39.4729E+06     810.327E+03         29.2158
            1239     13.7692E-03     59.9090E-03         4.47289         4.06332        -9.78897         4.07400        -9.71421         4.38746        -2.00609     35.0550E-03    -16.3767E-03    -18.6784E-03    -16.1612E-03     32.5379E-03    -16.3767E-03     22.5342E-03     71.1787E+06    -10.1218E+06    -59.2761E+06    -10.1098E+06     71.1667E+06    -59.2761E+06    -69.1698E+03         34.7597
            1240     14.7545E-03     59.9345E-03         4.34479         3.69080        -9.31409         3.41514        -9.03844         4.34479        -3.26524     46.5955E-03    -16.4863E-03    -30.1092E-03    -16.8208E-03     33.3071E-03    -16.4863E-03     54.7059E-03     111.730E+06    -10.0666E+06    -41.9638E+06    -13.8205E+06     111.723E+06    -38.2031E+06    -780.047E+03         43.3894
            1241     15.7373E-03     60.0234E-03         4.26469         3.10770        -8.69209         2.64062        -8.22502         4.26469        -4.59804     124.863E-03    -16.7919E-03    -108.071E-03    -27.7020E-03     44.4938E-03    -16.7919E-03     219.658E-03     146.592E+06     21.5727E+06    -13.6487E+06    -13.6442E+06     146.588E+06     21.5727E+06    -608.130E+03         54.2212
            1242     16.7268E-03     60.4017E-03         4.15021         2.08662        -7.61566         1.85402        -7.38306         4.15021        -2.66817     201.144E-03    -17.1962E-03    -183.948E-03    -40.7501E-03     57.9463E-03    -17.1962E-03     372.223E-03     188.764E+06     109.136E+06    -7.99340E+06    -7.99019E+06     188.761E+06     109.136E+06    -431.368E+03         64.1443
            1243     982.959E-06     60.8353E-03         5.83051         4.22238        -11.3103         3.18136        -8.66116         4.22238         11.8906     34.3200E-03    -17.0830E-03    -17.2370E-03    -17.1709E-03     34.3062E-03    -17.1353E-03     1.65928E-03    -8.33092E+06    -9.89994E+06    -189.775E+06    -9.48870E+06    -189.761E+06    -8.75667E+06     1.29172E+06         22.5716
            1244     1.96681E-03     60.8373E-03         4.96401         3.61678        -9.78440         3.28579        -8.10618         3.61678         9.22248     34.2761E-03    -17.1036E-03    -17.1726E-03    -17.0912E-03     34.2471E-03    -17.1559E-03     2.39358E-03    -6.03657E+06    -8.22995E+06    -188.400E+06    -8.23684E+06    -188.393E+06    -6.03657E+06     1.03475E+06         22.5947
            1245     2.94980E-03     60.8402E-03         4.57912         3.49796        -9.24348         3.29454        -7.95890         3.49796         7.32385     34.3656E-03    -17.1623E-03    -17.2033E-03    -17.1447E-03     34.3070E-03    -17.1623E-03     3.43186E-03    -2.42258E+06    -7.32475E+06    -186.813E+06    -7.34128E+06    -186.797E+06    -2.42258E+06     1.66305E+06         22.6347
            1246     3.93315E-03     60.8443E-03         3.97957         3.45807        -8.59987         3.42842        -8.04872         3.45807         4.96932     34.3147E-03    -17.1287E-03    -17.1861E-03    -17.0586E-03     34.2203E-03    -17.1617E-03     4.38309E-03    -316.941E+03    -6.62488E+06    -182.909E+06    -6.64119E+06    -182.893E+06    -316.941E+03     1.58699E+06         22.6937
            1247     4.91660E-03     60.8492E-03         4.10288         3.46223        -8.74737         3.56576        -8.21024         3.46223         4.90705     34.2431E-03    -17.0947E-03    -17.1484E-03    -16.9830E-03     34.1108E-03    -17.1277E-03     5.18766E-03    -559.549E+03    -5.79399E+06    -174.299E+06    -5.80382E+06    -174.289E+06    -559.549E+03     123.626E+03         22.7743
            1248     5.89995E-03     60.8548E-03         4.06791         3.49172        -8.77106         3.75348        -8.45663         3.49172         3.92271     34.2828E-03    -17.0917E-03    -17.1912E-03    -17.0050E-03     34.0967E-03    -17.0917E-03     6.15177E-03    -488.167E+03    -5.09047E+06    -161.171E+06    -5.09897E+06    -161.162E+06    -488.167E+03    -489.053E+03         22.8800
            1249     6.88339E-03     60.8614E-03         4.72855         3.56459        -9.52171         4.32036        -9.11352         3.56459         4.73535     34.2745E-03    -17.0654E-03    -17.2091E-03    -16.9662E-03     34.0315E-03    -17.0654E-03     7.04753E-03     594.704E+03    -4.85863E+06    -146.166E+06    -4.89031E+06    -146.134E+06     594.704E+03     1.35457E+06         23.0170
            1250     7.86680E-03     60.8692E-03         5.41055         3.70719        -10.3503         5.17757        -10.1173         3.70719         3.33924     34.1958E-03    -17.0259E-03    -17.1699E-03    -16.8740E-03     33.8998E-03    -17.0259E-03     7.76515E-03     332.190E+03    -4.18481E+06    -129.227E+06    -4.22047E+06    -129.191E+06     332.190E+03     2.01284E+06         23.1982
            1251     8.85040E-03     60.8775E-03         5.62450         3.88962        -10.7480         5.58340        -10.7069         3.88962     63.9039E-03     34.0972E-03    -16.9699E-03    -17.1273E-03    -16.7711E-03     33.7410E-03    -16.9699E-03     8.50445E-03    -1.01813E+06    -3.36623E+06    -108.663E+06    -3.38459E+06    -108.645E+06    -1.01813E+06     1.34530E+06         23.4538
            1252     9.83384E-03     60.8865E-03         5.39963         4.04669        -10.6815         5.37710        -10.6589         4.04669        -1.10584     34.0944E-03    -16.9079E-03    -17.1865E-03    -16.7187E-03     33.6265E-03    -16.9079E-03     9.71456E-03    -1.93892E+06    -3.78453E+06    -85.6251E+06    -2.91466E+06    -85.5795E+06    -2.85429E+06     1.73474E+06         23.8620
            1253     10.8177E-03     60.8977E-03         5.25830         4.15741        -10.6612         5.19769        -10.6006         4.15741        -1.66148     34.0040E-03    -16.8197E-03    -17.1843E-03    -16.6637E-03     33.4834E-03    -16.8197E-03     10.2684E-03    -2.59166E+06    -9.88546E+06    -60.0156E+06    -2.65295E+06    -59.9543E+06    -9.88546E+06     1.79526E+06         24.6149
            1254     11.8010E-03     60.9078E-03         5.29775         4.23950        -10.8049         5.13190        -10.6391         4.23950        -3.20234     33.9487E-03    -16.6982E-03    -17.2505E-03    -16.5965E-03     33.2948E-03    -16.6982E-03     11.4086E-03    -2.52594E+06    -9.98503E+06    -38.1137E+06    -3.24452E+06    -24.9546E+06    -22.4256E+06     1.22127E+06         26.1308
            1255     12.7850E-03     60.9220E-03         5.06727         4.29797        -10.6606         4.90222        -10.4956         4.29797        -3.16840     34.2759E-03    -16.5579E-03    -17.7181E-03    -16.4162E-03     32.9741E-03    -16.5579E-03     15.9403E-03     22.1295E+06    -6.17261E+06    -38.0231E+06    -5.75872E+06     21.7156E+06    -38.0231E+06     1.26949E+06         29.1594
            1256     13.7694E-03     60.9416E-03         4.59725         4.25448        -10.1790         4.45354        -10.1048         4.32395        -2.01424     35.1608E-03    -16.4128E-03    -18.7480E-03    -16.2304E-03     32.6431E-03    -16.4128E-03     22.5018E-03     72.2583E+06    -9.77491E+06    -57.3141E+06    -9.74013E+06     72.2235E+06    -57.3141E+06     1.20673E+06         34.6886
            1257     14.7521E-03     60.9696E-03         4.31471         4.01075        -9.69030         3.75454        -9.42679         4.30741        -3.21773     46.8463E-03    -16.5040E-03    -30.3424E-03    -16.6596E-03     33.1635E-03    -16.5040E-03     55.5028E-03     112.150E+06    -10.7073E+06    -41.2934E+06    -13.1488E+06     112.135E+06    -38.8365E+06    -202.643E+03         43.3425
            1258     15.7373E-03     61.0571E-03         4.24103         3.44719        -9.10291         2.98093        -8.63665         4.24103        -4.74711     124.160E-03    -16.8332E-03    -107.327E-03    -28.1309E-03     44.9641E-03    -16.8332E-03     218.075E-03     147.789E+06     22.8075E+06    -12.4978E+06    -12.4881E+06     147.779E+06     22.8075E+06    -1.13494E+06         54.2508
            1259     16.7234E-03     61.4289E-03         4.12293         2.37314        -7.98629         2.13286        -7.74602         4.12293        -2.82490     200.994E-03    -17.2602E-03    -183.734E-03    -40.5883E-03     57.8485E-03    -17.2602E-03     371.873E-03     189.139E+06     110.333E+06    -7.73868E+06    -7.73417E+06     189.135E+06     110.333E+06    -840.775E+03         64.2836
            1260     983.466E-06     61.8691E-03         5.81264         2.74193        -9.75867         2.19947        -6.14550         2.74193         12.3745     34.2676E-03    -17.0884E-03    -17.1792E-03    -17.1261E-03     34.2563E-03    -17.1301E-03     1.43461E-03    -9.50353E+06    -11.5117E+06    -189.955E+06    -10.9250E+06    -189.950E+06    -10.0953E+06     848.632E+03         22.5684
            1261     1.96643E-03     61.8711E-03         4.66314         2.57722        -8.43071         3.01338        -6.78095         2.57722         8.58450     34.2581E-03    -17.1039E-03    -17.1542E-03    -17.0899E-03     34.2283E-03    -17.1385E-03     2.42050E-03    -7.25486E+06    -10.0273E+06    -189.232E+06    -10.0382E+06    -189.221E+06    -7.25486E+06     1.35457E+06         22.5918
            1262     2.95003E-03     61.8742E-03         4.54473         2.77453        -8.49243         3.31997        -7.26767         2.77453         6.84602     34.2676E-03    -17.1085E-03    -17.1590E-03    -17.0728E-03     34.2093E-03    -17.1365E-03     3.42071E-03    -4.13161E+06    -8.28917E+06    -187.002E+06    -8.30350E+06    -186.988E+06    -4.13161E+06     1.44559E+06         22.6321
            1263     3.93322E-03     61.8782E-03         3.88903         2.91060        -7.96960         3.29110        -7.37168         2.91060         4.89232     34.2374E-03    -17.0804E-03    -17.1570E-03    -17.0163E-03     34.1433E-03    -17.1270E-03     4.36588E-03    -968.631E+03    -5.66490E+06    -182.650E+06    -5.67857E+06    -182.637E+06    -968.631E+03     1.37235E+06         22.6915
            1264     4.91671E-03     61.8827E-03         3.96528         2.99134        -8.14440         3.34530        -7.52442         2.99134         5.07939     34.2375E-03    -17.0851E-03    -17.1524E-03    -16.9971E-03     34.1029E-03    -17.1058E-03     5.23291E-03     1.31800E+06    -4.66523E+06    -172.645E+06    -4.68877E+06    -172.621E+06     1.31800E+06     1.00588E+06         22.7724
            1265     5.90029E-03     61.8887E-03         4.00573         3.07404        -8.29579         3.66792        -7.95799         3.07404         3.99663     34.2786E-03    -17.0865E-03    -17.1921E-03    -17.0092E-03     34.0957E-03    -17.0865E-03     6.10711E-03     1.91080E+06    -6.12107E+06    -162.101E+06    -6.15238E+06    -162.070E+06     1.91080E+06     1.25260E+06         22.8784
            1266     6.88349E-03     61.8954E-03         4.51343         3.18479        -8.93560         4.07331        -8.49548         3.18479         4.78156     34.2846E-03    -17.0574E-03    -17.2272E-03    -16.9857E-03     34.0431E-03    -17.0574E-03     7.02150E-03     1.13941E+06    -6.18336E+06    -147.645E+06    -6.20977E+06    -147.619E+06     1.13941E+06     1.69045E+06         23.0157
            1267     7.86689E-03     61.9030E-03         4.84736         3.32478        -9.41761         4.58604        -9.15628         3.32478         3.42135     34.2016E-03    -17.0125E-03    -17.1891E-03    -16.8933E-03     33.9058E-03    -17.0125E-03     7.76852E-03    -113.161E+03    -4.45812E+06    -128.495E+06    -4.47335E+06    -128.480E+06    -113.161E+03     1.13419E+06         23.1968
            1268     8.85044E-03     61.9112E-03         5.28851         3.49784        -10.0357         5.24203        -9.98923         3.49784     263.520E-03     34.1433E-03    -16.9628E-03    -17.1805E-03    -16.8251E-03     33.7879E-03    -16.9628E-03     8.50054E-03    -1.57575E+06    -3.61321E+06    -108.977E+06    -3.62824E+06    -108.962E+06    -1.57575E+06     1.15506E+06         23.4513
            1269     9.83406E-03     61.9205E-03         5.72974         3.69243        -10.6810         5.70919        -10.6605         3.69243        -1.11730     34.1563E-03    -16.9028E-03    -17.2535E-03    -16.7844E-03     33.6871E-03    -16.9028E-03     9.74380E-03    -2.87362E+06    -4.89916E+06    -86.0004E+06    -3.43329E+06    -85.9822E+06    -4.35769E+06     1.13976E+06         23.8559
            1270     10.8174E-03     61.9313E-03         5.95851         3.88085        -11.1196         5.87656        -11.0376         3.88085        -2.06418     34.0862E-03    -16.8222E-03    -17.2641E-03    -16.7375E-03     33.5596E-03    -16.8222E-03     10.3439E-03    -3.33523E+06    -11.0364E+06    -59.8840E+06    -3.36324E+06    -59.8560E+06    -11.0364E+06     1.06360E+06         24.5997
            1271     11.8011E-03     61.9420E-03         5.99305         4.04254        -11.3437         5.81032        -11.1610         4.04254        -3.52639     34.1247E-03    -16.7121E-03    -17.4126E-03    -16.7250E-03     33.4370E-03    -16.7121E-03     11.7230E-03    -2.99733E+06    -11.0069E+06    -38.1893E+06    -4.38526E+06    -24.8100E+06    -22.9982E+06     1.33006E+06         26.0986
            1272     12.7844E-03     61.9556E-03         5.51694         4.15986        -11.0221         5.35834        -10.8635         4.15986        -3.18031     34.4251E-03    -16.5834E-03    -17.8417E-03    -16.5580E-03     33.1414E-03    -16.5834E-03     15.9589E-03     22.1129E+06    -6.67551E+06    -37.9828E+06    -6.21966E+06     21.6570E+06    -37.9828E+06     1.52209E+06         29.1042
            1273     13.7681E-03     61.9755E-03         4.67697         4.20366        -10.2624         4.59679        -10.1954         4.21684        -1.92275     35.0757E-03    -16.4285E-03    -18.6473E-03    -16.0633E-03     32.4917E-03    -16.4285E-03     22.6444E-03     72.4373E+06    -8.12689E+06    -57.9511E+06    -8.08702E+06     72.3975E+06    -57.9511E+06     1.57792E+06         34.6201
            1274     14.7538E-03     62.0032E-03         4.22026         4.09872        -9.74331         3.83749        -9.47478         4.21295        -3.23014     46.6962E-03    -16.5166E-03    -30.1797E-03    -16.6503E-03     33.1668E-03    -16.5166E-03     55.4897E-03     113.848E+06    -7.50867E+06    -41.4534E+06    -10.9292E+06     113.832E+06    -38.0170E+06     214.446E+03         43.2986
            1275     15.7395E-03     62.0897E-03         4.15007         3.58721        -9.21909         3.10386        -8.73574         4.15007        -4.88091     124.744E-03    -16.8793E-03    -107.865E-03    -29.0075E-03     45.8868E-03    -16.8793E-03     218.576E-03     149.040E+06     24.9865E+06    -12.2958E+06    -12.2864E+06     149.031E+06     24.9865E+06    -1.04510E+06         54.2870
            1276     16.7172E-03     62.4695E-03         4.02366         2.44752        -8.03135         2.20536        -7.78920         4.02366        -2.75040     201.549E-03    -17.3131E-03    -184.236E-03    -40.4630E-03     57.7761E-03    -17.3131E-03     373.022E-03     188.545E+06     110.303E+06    -8.38975E+06    -8.38342E+06     188.539E+06     110.303E+06    -1.05261E+06         64.4299
            1277     983.184E-06     62.9031E-03         6.03608         1.96903        -9.18291         1.43467        -4.58150         1.96903         13.4407     34.2120E-03    -17.0703E-03    -17.1416E-03    -17.1216E-03     34.2011E-03    -17.0795E-03     1.39231E-03    -10.5105E+06    -12.1201E+06    -190.731E+06    -11.3849E+06    -190.722E+06    -11.2551E+06     905.092E+03         22.5663
            1278     1.96676E-03     62.9049E-03         4.37520         1.83620        -7.37674         2.37649        -5.37804         1.83620         8.74257     34.2151E-03    -17.0862E-03    -17.1289E-03    -17.0805E-03     34.1844E-03    -17.1039E-03     2.45191E-03    -9.16735E+06    -10.9138E+06    -188.927E+06    -10.5093E+06    -188.921E+06     -9.5782E+06     735.720E+03         22.5898
            1279     2.94982E-03     62.9081E-03         4.50342         2.11999        -7.78732         3.02094        -6.30484         2.11999         7.09605     34.1555E-03    -17.0541E-03    -17.1014E-03    -16.9960E-03     34.0974E-03    -17.1014E-03     3.41743E-03    -5.51683E+06    -9.06623E+06    -187.275E+06    -8.81276E+06    -187.271E+06    -5.77487E+06     778.657E+03         22.6301
            1280     3.93362E-03     62.9116E-03         3.77410         2.36789        -7.30615         3.16616        -6.69821         2.36789         4.78686     34.1896E-03    -17.0691E-03    -17.1205E-03    -16.9980E-03     34.0967E-03    -17.0987E-03     4.33421E-03    -598.184E+03    -7.26846E+06    -182.778E+06    -7.27155E+06    -182.775E+06    -598.184E+03     630.792E+03         22.6896
            1281     4.91692E-03     62.9169E-03         3.83390         2.53794        -7.55347         3.26426        -6.98384         2.53794         4.51096     34.2918E-03    -17.1019E-03    -17.1899E-03    -17.0564E-03     34.1583E-03    -17.1019E-03     5.21734E-03     4.17073E+06    -5.38268E+06    -173.508E+06    -5.41178E+06    -173.479E+06     4.17073E+06     1.78479E+06         22.7709
            1282     5.90000E-03     62.9224E-03         3.92945         2.69275        -7.82800         3.70772        -7.60627         2.69275         3.10602     34.3082E-03    -17.0979E-03    -17.2103E-03    -17.0321E-03     34.1301E-03    -17.0979E-03     6.03274E-03     6.63487E+06    -3.51334E+06    -162.666E+06    -3.56516E+06    -162.615E+06     6.63487E+06     2.87009E+06         22.8773
            1283     6.88364E-03     62.9293E-03         4.59334         2.87205        -8.69528         4.22902        -8.33096         2.87205         4.30544     34.2485E-03    -17.0553E-03    -17.1932E-03    -16.9551E-03     34.0104E-03    -17.0553E-03     6.96360E-03     4.19390E+06    -2.30912E+06    -146.541E+06    -2.33432E+06    -146.515E+06     4.19390E+06     1.62594E+06         23.0148
            1284     7.86707E-03     62.9368E-03         4.67597         3.05203        -8.97217         4.41149        -8.70770         3.05203         3.52937     34.2376E-03    -17.0019E-03    -17.2357E-03    -16.9445E-03     33.9464E-03    -17.0019E-03     7.71675E-03     408.158E+03    -2.14110E+06    -128.541E+06    -2.14747E+06    -128.535E+06     408.158E+03     788.841E+03         23.1958
            1285     8.85046E-03     62.9450E-03         4.77149         3.21838        -9.24193         4.71536        -9.18580         3.21838     569.957E-03     34.2016E-03    -16.9614E-03    -17.2401E-03    -16.8881E-03     33.8495E-03    -16.9614E-03     8.46383E-03    -928.933E+03    -2.40729E+06    -109.309E+06    -2.42046E+06    -109.296E+06    -928.933E+03     1.12682E+06         23.4492
            1286     9.83381E-03     62.9543E-03         5.52497         3.40483        -10.1969         5.51071        -10.1826         3.40483    -909.595E-03     34.2014E-03    -16.9070E-03    -17.2944E-03    -16.8205E-03     33.7275E-03    -16.9070E-03     9.80010E-03    -1.90230E+06    -4.03630E+06    -85.6311E+06    -2.49535E+06    -85.6183E+06    -3.45605E+06     951.848E+03         23.8499
            1287     10.8175E-03     62.9652E-03         6.20699         3.62198        -11.1234         6.13371        -11.0501         3.62198        -1.93002     34.1371E-03    -16.8272E-03    -17.3099E-03    -16.7814E-03     33.6086E-03    -16.8272E-03     10.3710E-03    -3.03274E+06    -10.9220E+06    -60.0576E+06    -3.05305E+06    -60.0373E+06    -10.9220E+06     896.376E+03         24.5846
            1288     11.8010E-03     62.9759E-03         6.27601         3.82818        -11.4365         6.09602        -11.2565         3.82818        -3.51896     34.1268E-03    -16.7161E-03    -17.4107E-03    -16.7019E-03     33.4180E-03    -16.7161E-03     11.8756E-03    -2.82915E+06    -11.4210E+06    -38.4380E+06    -4.28940E+06    -25.1687E+06    -23.2301E+06     1.38707E+06         26.0664
            1289     12.7845E-03     62.9901E-03         5.68374         3.97930        -11.0325         5.52765        -10.8765         3.97930        -3.15357     34.5696E-03    -16.5829E-03    -17.9867E-03    -16.6716E-03     33.2544E-03    -16.5829E-03     16.2255E-03     22.8974E+06    -6.89108E+06    -39.3050E+06    -6.06919E+06     22.0756E+06    -39.3050E+06     1.07316E+06         29.0494
            1290     13.7686E-03     63.0090E-03         4.72628         4.04309        -10.1822         4.64959        -10.1187         4.05627        -1.90679     35.1035E-03    -16.4433E-03    -18.6601E-03    -16.2808E-03     32.7242E-03    -16.4433E-03     21.8596E-03     73.6862E+06    -8.41785E+06    -58.3913E+06    -8.40457E+06     73.6730E+06    -58.3913E+06     250.756E+03         34.5503
            1291     14.7529E-03     63.0356E-03         4.17543         4.03690        -9.67075         3.87320        -9.39563         4.06402        -3.31631     47.4862E-03    -16.5623E-03    -30.9239E-03    -17.2112E-03     33.7735E-03    -16.5623E-03     56.0970E-03     115.149E+06    -7.57047E+06    -40.3037E+06    -10.9140E+06     115.128E+06    -36.9391E+06     756.401E+03         43.2474
            1292     15.7333E-03     63.1278E-03         4.03481         3.50309        -9.04816         3.08260        -8.59744         4.00459        -4.66893     124.423E-03    -16.8972E-03    -107.526E-03    -27.6773E-03     44.5745E-03    -16.8972E-03     218.513E-03     149.469E+06     24.2059E+06    -12.4376E+06    -12.4160E+06     149.447E+06     24.2059E+06     261.482E+03         54.3203
            1293     16.7271E-03     63.4994E-03         3.86852         2.27868        -7.70433         2.07670        -7.50235         3.86852        -2.42927     201.590E-03    -17.2802E-03    -184.310E-03    -39.9504E-03     57.2307E-03    -17.2802E-03     373.456E-03     188.153E+06     109.465E+06    -8.73520E+06    -8.72986E+06     188.148E+06     109.465E+06    -883.099E+03         64.5748
            1294     983.516E-06     63.9367E-03         6.52214         1.95190        -9.65204         1.64090        -4.77079         1.95190         14.2999     34.1300E-03    -17.0120E-03    -17.1180E-03    -17.1005E-03     34.1182E-03    -17.0178E-03     1.44208E-03    -11.0548E+06    -12.4663E+06    -190.757E+06    -11.5525E+06    -190.745E+06    -11.9810E+06     44.3837E+03         22.5651
            1295     1.96651E-03     63.9390E-03         4.27305         1.79733        -7.22955         1.79855        -4.75505         1.79733         9.21826     34.1199E-03    -17.0399E-03    -17.0799E-03    -17.0293E-03     34.0907E-03    -17.0614E-03     2.40895E-03    -9.39984E+06    -11.2188E+06    -189.047E+06    -10.8086E+06    -189.046E+06    -9.81069E+06     183.246E+03         22.5879
            1296     2.95036E-03     63.9414E-03         4.00037         1.78690        -6.92937         1.91342        -4.86967         1.81414         7.77101     34.1387E-03    -17.0525E-03    -17.0861E-03    -17.0101E-03     34.0820E-03    -17.0719E-03     3.35818E-03    -5.06902E+06    -10.3419E+06    -187.892E+06    -10.0868E+06    -187.889E+06    -5.32706E+06     622.024E+03         22.6281
            1297     3.93339E-03     63.9457E-03         3.05524         1.86224        -6.05653         2.37022        -5.39875         1.88948         4.57819     34.2174E-03    -17.0823E-03    -17.1350E-03    -17.0386E-03     34.1246E-03    -17.0860E-03     4.34046E-03    -339.098E+03    -9.28143E+06    -182.648E+06    -9.30106E+06    -182.628E+06    -339.098E+03     1.36799E+06         22.6879
            1298     4.91682E-03     63.9504E-03         3.66865         2.05770        -6.88280         3.16134        -6.37548         2.05770         3.71314     34.2588E-03    -17.0861E-03    -17.1727E-03    -17.0379E-03     34.1240E-03    -17.0861E-03     5.23667E-03     1.60566E+06    -7.89000E+06    -175.117E+06    -7.92175E+06    -175.086E+06     1.60566E+06     1.60338E+06         22.7696
            1299     5.90036E-03     63.9566E-03         4.05169         2.30215        -7.53995         3.94000        -7.42826         2.30215         2.15475     34.2719E-03    -17.0698E-03    -17.2021E-03    -17.0204E-03     34.0902E-03    -17.0698E-03     6.09192E-03     2.84179E+06    -4.35095E+06    -162.547E+06    -4.37892E+06    -162.519E+06     2.84179E+06     1.21539E+06         22.8765
            1300     6.88354E-03     63.9628E-03         4.72121         2.57020        -8.50178         4.44233        -8.22291         2.57020         3.73902     34.2720E-03    -17.0433E-03    -17.2287E-03    -16.9916E-03     34.0349E-03    -17.0433E-03     6.95516E-03     3.64581E+06    -1.67071E+06    -145.551E+06    -1.70142E+06    -145.520E+06     3.64581E+06     1.40045E+06         23.0143
            1301     7.86709E-03     63.9708E-03         4.84597         2.81486        -8.88752         4.62075        -8.66230         2.81486         3.21424     34.2362E-03    -17.0009E-03    -17.2354E-03    -16.9443E-03     33.9451E-03    -17.0009E-03     7.71313E-03     1.13257E+06    -1.62114E+06    -128.658E+06    -1.56762E+06    -128.632E+06     1.05343E+06     1.59943E+06         23.1950
            1302     8.85037E-03     63.9789E-03         4.86448         3.02535        -9.13177         4.81164        -9.07892         3.02535     238.918E-03     34.1993E-03    -16.9560E-03    -17.2432E-03    -16.8907E-03     33.8467E-03    -16.9560E-03     8.47225E-03    -996.524E+03    -1.89171E+06    -109.161E+06    -1.82417E+06    -109.150E+06    -1.07567E+06     1.09502E+06         23.4471
            1303     9.83410E-03     63.9881E-03         5.27706         3.22476        -9.76392         5.25523        -9.74209         3.22476        -1.04767     34.2382E-03    -16.9054E-03    -17.3328E-03    -16.8468E-03     33.7522E-03    -16.9054E-03     9.91827E-03    -1.42559E+06    -3.73222E+06    -85.7605E+06    -1.94445E+06    -85.7448E+06    -3.22898E+06     1.05653E+06         23.8438
            1304     10.8173E-03     63.9994E-03         5.73910         3.42702        -10.4604         5.67544        -10.3967         3.42702        -1.74515     34.1940E-03    -16.8293E-03    -17.3647E-03    -16.8252E-03     33.6545E-03    -16.8293E-03     10.4850E-03    -2.24045E+06    -10.3684E+06    -59.7626E+06    -2.25655E+06    -59.7465E+06    -10.3684E+06     934.910E+03         24.5690
            1305     11.8008E-03     64.0097E-03         5.82419         3.61149        -10.7687         5.63723        -10.5818         3.61149        -3.43487     34.1302E-03    -16.7196E-03    -17.4106E-03    -16.7026E-03     33.4222E-03    -16.7196E-03     11.8619E-03    -2.83011E+06    -10.3327E+06    -38.5476E+06    -3.18976E+06    -25.7067E+06    -22.8140E+06     824.514E+03         26.0332
            1306     12.7849E-03     64.0238E-03         5.42384         3.74999        -10.5465         5.24533        -10.3679         3.74999        -3.28136     34.5592E-03    -16.5839E-03    -17.9754E-03    -16.6250E-03     33.2088E-03    -16.5839E-03     16.4090E-03     23.5754E+06    -6.07259E+06    -38.6009E+06    -5.24125E+06     22.7441E+06    -38.6009E+06     754.063E+03         28.9924
            1307     13.7677E-03     64.0439E-03         4.80688         3.83483        -10.0565         4.73664        -9.98631         3.83483        -1.98412     35.6604E-03    -16.4659E-03    -19.1945E-03    -16.8286E-03     33.2945E-03    -16.4659E-03     22.1252E-03     75.3779E+06    -8.99417E+06    -56.9330E+06    -8.98140E+06     75.3652E+06    -56.9330E+06     295.158E+03         34.4752
            1308     14.7510E-03     64.0690E-03         4.25517         3.86155        -9.57690         3.97621        -9.29794         3.86155        -3.31764     48.0810E-03    -16.5828E-03    -31.4982E-03    -16.9337E-03     33.5165E-03    -16.5828E-03     57.3315E-03     115.025E+06    -10.0981E+06    -39.7675E+06    -11.8537E+06     115.003E+06    -37.9900E+06     919.865E+03         43.1921
            1309     15.7383E-03     64.1643E-03         3.88920         3.33996        -8.72441         2.97962        -8.28144         3.80657        -4.54459     123.436E-03    -16.8966E-03    -106.540E-03    -27.3630E-03     44.2596E-03    -16.8966E-03     217.196E-03     150.018E+06     22.1195E+06    -11.3369E+06    -11.3184E+06     150.000E+06     22.1195E+06     860.072E+03         54.3386
            1310     16.7206E-03     64.5242E-03         3.65493         2.15391        -7.32846         1.95182        -7.12637         3.65493        -2.49711     200.996E-03    -17.2936E-03    -183.702E-03    -40.0403E-03     57.3339E-03    -17.2936E-03     372.127E-03     189.228E+06     108.755E+06    -7.08206E+06    -7.08049E+06     189.227E+06     108.755E+06     117.743E+03         64.6963
            1311     983.216E-06     64.9707E-03         6.65047         2.09626        -9.92706         2.00050        -5.27709         2.09626         14.4197     34.0615E-03    -16.9473E-03    -17.1142E-03    -17.0628E-03     34.0517E-03    -16.9889E-03     1.30468E-03    -10.6450E+06    -13.5706E+06    -190.374E+06    -12.8070E+06    -190.365E+06    -11.4184E+06    -685.175E+03         22.5639
            1312     1.96706E-03     64.9723E-03         4.00382         1.90247        -7.05032         1.31939        -4.36589         1.90247         9.12465     34.0555E-03    -17.0003E-03    -17.0553E-03    -16.9855E-03     34.0274E-03    -17.0419E-03     2.33634E-03    -7.64264E+06    -11.4998E+06    -189.438E+06    -11.5068E+06    -189.431E+06    -7.64264E+06     801.989E+03         22.5863
            1313     2.94997E-03     64.9754E-03         3.34042         1.61859        -6.06643         1.02776        -3.78722         1.65205         7.47183     34.1727E-03    -17.0554E-03    -17.1172E-03    -17.0607E-03     34.1162E-03    -17.0554E-03     3.36311E-03    -4.79088E+06    -10.8597E+06    -188.331E+06    -10.8703E+06    -188.320E+06    -4.79088E+06     1.18655E+06         22.6263
            1314     3.93367E-03     64.9792E-03         2.46694         1.53488        -5.10649         1.73811        -4.41112         1.56834         4.30930     34.2130E-03    -17.0662E-03    -17.1468E-03    -17.0531E-03     34.1193E-03    -17.0662E-03     4.35740E-03    -2.90631E+06    -8.95922E+06    -183.207E+06    -8.98104E+06    -183.185E+06    -2.90631E+06     1.61997E+06         22.6864
            1315     4.91688E-03     64.9845E-03         3.53304         1.71581        -6.37369         2.98830        -5.82895         1.71581         3.63178     34.2078E-03    -17.0646E-03    -17.1432E-03    -17.0066E-03     34.0712E-03    -17.0646E-03     5.27170E-03    -458.839E+03    -6.89802E+06    -174.352E+06    -6.91630E+06    -174.334E+06    -458.839E+03     1.12266E+06         22.7685
            1316     5.90024E-03     64.9899E-03         4.02871         2.00193        -7.18909         3.92268        -7.08306         2.00193         2.06834     34.2526E-03    -17.0488E-03    -17.2038E-03    -17.0180E-03     34.0668E-03    -17.0488E-03     6.15685E-03     513.078E+03    -5.97713E+06    -161.662E+06    -5.97892E+06    -161.660E+06     513.078E+03    -19.3381E+03         22.8758
            1317     6.88376E-03     64.9972E-03         4.61751         2.30685        -8.10575         4.35532        -7.84356         2.30685         3.55861     34.2816E-03    -17.0318E-03    -17.2498E-03    -17.0129E-03     34.0446E-03    -17.0318E-03     6.96292E-03     1.25772E+06    -5.07026E+06    -146.715E+06    -5.08824E+06    -146.697E+06     1.25772E+06     658.314E+03         23.0139
            1318     7.86692E-03     65.0043E-03         4.98955         2.58939        -8.77732         4.79431        -8.58207         2.58939         2.82074     34.2133E-03    -16.9976E-03    -17.2157E-03    -16.9232E-03     33.9209E-03    -16.9976E-03     7.72269E-03     756.440E+03    -3.37206E+06    -128.445E+06    -3.31715E+06    -128.420E+06     677.298E+03     1.42979E+06         23.1943
            1319     8.85071E-03     65.0129E-03         5.26545         2.85717        -9.34059         5.22292        -9.29805         2.85717    -228.214E-03     34.1935E-03    -16.9500E-03    -17.2435E-03    -16.8885E-03     33.8386E-03    -16.9500E-03     8.50776E-03    -1.28400E+06    -2.30008E+06    -108.630E+06    -2.17805E+06    -108.621E+06    -1.41514E+06     941.716E+03         23.4449
            1320     9.83382E-03     65.0219E-03         5.19767         3.09070        -9.53372         5.15949        -9.49555         3.09070        -1.43908     34.2413E-03    -16.8987E-03    -17.3426E-03    -16.8577E-03     33.7564E-03    -16.8987E-03     9.90255E-03    -1.85682E+06    -4.05007E+06    -85.8509E+06    -1.96795E+06    -85.8417E+06    -3.94813E+06     619.085E+03         23.8374
            1321     10.8176E-03     65.0334E-03         4.95286         3.26496        -9.49688         4.85694        -9.40096         3.26496        -2.07760     34.1798E-03    -16.8238E-03    -17.3560E-03    -16.8072E-03     33.6310E-03    -16.8238E-03     10.5742E-03    -2.07141E+06    -10.6579E+06    -59.5108E+06    -2.08242E+06    -59.4998E+06    -10.6579E+06     601.923E+03         24.5527
            1322     11.8011E-03     65.0437E-03         4.96405         3.39144        -9.67036         4.74368        -9.44999         3.39144        -3.51686     34.2093E-03    -16.7183E-03    -17.4910E-03    -16.7816E-03     33.4999E-03    -16.7183E-03     11.9135E-03    -2.88012E+06    -10.0969E+06    -38.6164E+06    -3.38697E+06    -25.3705E+06    -22.8360E+06     463.321E+03         25.9983
            1323     12.7842E-03     65.0578E-03         4.91285         3.49133        -9.76006         4.71585        -9.56306         3.49133        -3.31140     34.5468E-03    -16.5848E-03    -17.9620E-03    -16.5961E-03     33.1809E-03    -16.5848E-03     16.4686E-03     22.8743E+06    -5.71267E+06    -38.7333E+06    -5.53515E+06     22.6968E+06    -38.7333E+06     734.968E+03         28.9314
            1324     13.7691E-03     65.0778E-03         4.58783         3.56643        -9.55014         4.50515        -9.46746         3.56643        -2.08930     35.7956E-03    -16.4576E-03    -19.3381E-03    -16.7409E-03     33.1984E-03    -16.4576E-03     23.1308E-03     74.6096E+06    -8.76933E+06    -57.9447E+06    -8.75261E+06     74.5929E+06    -57.9447E+06     1.09822E+06         34.3952
            1325     14.7514E-03     65.1058E-03         4.10710         3.59455        -9.13552         3.79419        -8.82261         3.59455        -3.42254     47.1223E-03    -16.5700E-03    -30.5522E-03    -16.6097E-03     33.1797E-03    -16.5700E-03     55.9248E-03     115.641E+06    -8.66369E+06    -41.0027E+06    -12.1018E+06     115.634E+06    -37.5575E+06     830.986E+03         43.1304
            1326     15.7371E-03     65.1914E-03         3.66371         3.20830        -8.34504         2.79042        -7.79552         3.53208        -4.92702     124.461E-03    -16.8818E-03    -107.579E-03    -28.0313E-03     44.9131E-03    -16.8818E-03     218.911E-03     150.651E+06     22.5889E+06    -11.3669E+06    -11.3639E+06     150.647E+06     22.5889E+06     623.690E+03         54.3523
            1327     16.7196E-03     65.5699E-03         3.36349         2.19059        -7.05673         1.90979        -6.77593         3.36349        -2.85767     201.933E-03    -17.2860E-03    -184.647E-03    -40.5969E-03     57.8830E-03    -17.2860E-03     373.789E-03     189.812E+06     107.882E+06    -7.08389E+06    -7.08108E+06     189.809E+06     107.882E+06     709.104E+03         64.8154
            1328     983.436E-06     66.0041E-03         6.33393         1.70966        -9.19264         1.45785        -4.31656         1.70966         14.1650     34.0433E-03    -16.9393E-03    -17.1039E-03    -17.0596E-03     34.0348E-03    -16.9752E-03     1.24793E-03    -8.82622E+06    -13.0215E+06    -190.296E+06    -12.0015E+06    -190.290E+06    -9.85186E+06     154.315E+03         22.5626
            1329     1.96663E-03     66.0060E-03         3.70589         1.45038        -6.24638     923.698E-03        -3.46419         1.45038         8.77096     34.0809E-03    -16.9988E-03    -17.0821E-03    -17.0145E-03     34.0531E-03    -17.0385E-03     2.29727E-03    -7.14699E+06    -10.7668E+06    -189.599E+06    -10.7782E+06    -189.588E+06    -7.14699E+06     1.26002E+06         22.5850
            1330     2.95046E-03     66.0091E-03         3.37588         1.31649        -5.75910         1.35597        -3.74541         1.32270         6.54319     34.1503E-03    -17.0454E-03    -17.1049E-03    -17.0435E-03     34.0928E-03    -17.0493E-03     3.39927E-03    -5.30956E+06    -9.49429E+06    -188.336E+06    -9.51050E+06    -188.320E+06    -5.30956E+06     1.68162E+06         22.6251
            1331     3.93332E-03     66.0132E-03         2.79355         1.42268        -5.29160         2.23939        -4.74366         1.42890         3.82345     34.1917E-03    -17.0574E-03    -17.1343E-03    -17.0412E-03     34.0986E-03    -17.0574E-03     4.34134E-03    -2.88511E+06    -7.63921E+06    -183.174E+06    -7.64628E+06    -183.167E+06    -2.88511E+06     867.553E+03         22.6854
            1332     4.91704E-03     66.0179E-03         3.41693         1.65656        -6.17377         2.91827        -5.67510         1.65656         3.69259     34.2278E-03    -17.0599E-03    -17.1679E-03    -17.0307E-03     34.0907E-03    -17.0599E-03     5.28190E-03     274.546E+03    -5.75253E+06    -173.633E+06    -5.75417E+06    -173.631E+06     274.546E+03     376.119E+03         22.7678
            1333     5.90041E-03     66.0241E-03         3.59652         1.90908        -6.63007         3.42202        -6.45557         1.90908         2.53966     34.2823E-03    -17.0604E-03    -17.2220E-03    -17.0375E-03     34.0979E-03    -17.0604E-03     6.14061E-03     3.46091E+06    -4.80600E+06    -161.162E+06    -4.81575E+06    -161.152E+06     3.46091E+06     907.464E+03         22.8754
            1334     6.88357E-03     66.0307E-03         4.35006         2.16749        -7.66427         4.02196        -7.33617         2.16749         3.88237     34.2532E-03    -17.0375E-03    -17.2158E-03    -16.9821E-03     34.0195E-03    -17.0375E-03     6.90936E-03     2.96655E+06    -4.32510E+06    -146.534E+06    -4.33572E+06    -146.523E+06     2.96655E+06     439.935E+03         23.0134
            1335     7.86726E-03     66.0384E-03         4.94154         2.44269        -8.54687         4.73453        -8.33985         2.44269         2.78725     34.2210E-03    -16.9933E-03    -17.2277E-03    -16.9386E-03     33.9319E-03    -16.9933E-03     7.68042E-03     170.333E+03    -3.67022E+06    -128.842E+06    -3.67637E+06    -128.836E+06     170.333E+03     260.292E+03         23.1935
            1336     8.85037E-03     66.0465E-03         5.10651         2.71557        -9.00840         5.06447        -8.96636         2.71557    -363.207E-03     34.2031E-03    -16.9500E-03    -17.2531E-03    -16.8952E-03     33.8452E-03    -16.9500E-03     8.53967E-03    -1.30914E+06    -2.90634E+06    -108.429E+06    -2.85983E+06    -108.424E+06    -1.36115E+06     495.375E+03         23.4424
            1337     9.83412E-03     66.0561E-03         4.81753         2.93650        -8.96860         4.77318        -8.92425         2.93650        -1.52907     34.2526E-03    -16.8969E-03    -17.3557E-03    -16.8709E-03     33.7679E-03    -16.8969E-03     9.91573E-03    -1.57747E+06    -4.55083E+06    -85.1448E+06    -1.99447E+06    -85.1433E+06    -4.13535E+06    -90.5572E+03         23.8304
            1338     10.8174E-03     66.0669E-03         4.36239         3.07891        -8.68760         4.23460        -8.55981         3.07891        -2.29097     34.1934E-03    -16.8247E-03    -17.3687E-03    -16.8291E-03     33.6538E-03    -16.8247E-03     10.4902E-03    -2.21065E+06    -10.9329E+06     -59.767E+06    -2.21402E+06    -59.7636E+06    -10.9329E+06     6.12568E+03         24.5353
            1339     11.8009E-03     66.0780E-03         4.30672         3.16473        -8.75698         4.02311        -8.47337         3.16473        -3.77278     34.1585E-03    -16.7187E-03    -17.4398E-03    -16.7314E-03     33.4501E-03    -16.7187E-03     11.8851E-03    -2.60061E+06    -10.0346E+06    -38.7640E+06    -3.26453E+06    -25.3464E+06    -22.7883E+06     560.573E+03         25.9613
            1340     12.7848E-03     66.0917E-03         4.24774         3.22694        -8.79970         4.00879        -8.56075         3.22694        -3.40077     34.6095E-03    -16.5805E-03    -18.0291E-03    -16.6704E-03     33.2509E-03    -16.5805E-03     16.4663E-03     22.6521E+06    -6.43934E+06    -39.9551E+06    -5.87637E+06     22.0891E+06    -39.9551E+06     857.736E+03         28.8666
            1341     13.7675E-03     66.1117E-03         3.83564         3.19420        -8.39837         3.66720        -8.30110         3.26537        -2.11771     35.5023E-03    -16.4430E-03    -19.0593E-03    -16.3912E-03     32.8342E-03    -16.4430E-03     23.2260E-03     74.1020E+06    -9.43272E+06    -59.3538E+06    -9.41631E+06     74.0856E+06    -59.3538E+06     1.15203E+06         34.3100
            1342     14.7530E-03     66.1402E-03         3.54100         3.18908        -8.14148         3.10242        -7.77407         3.26025        -3.52591     46.5471E-03    -16.5428E-03    -30.0043E-03    -16.6395E-03     33.1823E-03    -16.5428E-03     55.0597E-03     116.040E+06    -9.87329E+06    -40.8826E+06    -11.7119E+06     116.028E+06    -39.0322E+06     1.03424E+06         43.0609
            1343     15.7367E-03     66.2247E-03         3.30932         3.01088        -7.78292         2.50856        -7.15096         3.17968        -5.09435     124.600E-03    -16.8381E-03    -107.762E-03    -27.2710E-03     44.1091E-03    -16.8381E-03     219.327E-03     151.055E+06     22.1801E+06    -11.8596E+06    -11.8540E+06     151.050E+06     22.1801E+06     889.330E+03         54.3678
            1344     16.7274E-03     66.6043E-03         3.00466         2.12381        -6.62009         1.81790        -6.31417         3.00466        -2.80680     202.329E-03    -17.2231E-03    -185.106E-03    -40.6806E-03     57.9037E-03    -17.2231E-03     374.674E-03     190.876E+06     109.010E+06    -7.67767E+06    -7.67120E+06     190.870E+06     109.010E+06     1.07395E+06         64.9407
            1345     983.533E-06     67.0382E-03         6.60399     483.445E-03        -8.11819     698.620E-03        -2.21283     483.445E-03         14.2215     34.0208E-03    -16.9570E-03    -17.0637E-03    -17.0271E-03     34.0114E-03    -16.9843E-03     1.28880E-03    -8.63568E+06    -11.6406E+06    -189.864E+06    -10.1258E+06    -189.855E+06    -10.1595E+06     1.16758E+06         22.5613
            1346     1.96686E-03     67.0395E-03         4.13168     725.752E-03        -5.89026         1.27029        -3.02886     725.752E-03         9.03020     34.1511E-03    -17.0289E-03    -17.1222E-03    -17.0908E-03     34.1236E-03    -17.0328E-03     2.31648E-03    -8.52917E+06    -10.8665E+06    -190.988E+06    -10.3800E+06    -190.976E+06    -9.02731E+06     1.37196E+06         22.5841
            1347     2.94990E-03     67.0428E-03         3.94881         1.05957        -6.03737         2.24936        -4.33792         1.05957         6.17049     34.1205E-03    -17.0267E-03    -17.0937E-03    -17.0055E-03     34.0635E-03    -17.0579E-03     3.37037E-03    -5.21613E+06    -8.47399E+06    -187.854E+06    -8.48421E+06    -187.844E+06    -5.21613E+06     1.32216E+06         22.6244
            1348     3.93385E-03     67.0468E-03         3.34246         1.44731        -5.84061         2.96162        -5.45976         1.44731         3.38397     34.1827E-03    -17.0372E-03    -17.1455E-03    -17.0242E-03     34.0888E-03    -17.0646E-03     4.36277E-03    -1.11421E+06    -7.59907E+06    -181.755E+06    -7.60499E+06    -181.749E+06    -1.11421E+06     750.364E+03         22.6848
            1349     4.91684E-03     67.0518E-03         3.47252         1.76933        -6.31208         3.09040        -5.92995         1.76933         3.45955     34.2948E-03    -17.0700E-03    -17.2248E-03    -17.0874E-03     34.1573E-03    -17.0700E-03     5.29400E-03     1.29972E+06    -6.43177E+06    -173.153E+06    -6.43236E+06    -173.153E+06     1.29972E+06     134.228E+03         22.7674
            1350     5.90015E-03     67.0579E-03         3.38133         2.00099        -6.47530         3.18509        -6.27906         2.00099         2.66068     34.2707E-03    -17.0662E-03    -17.2045E-03    -17.0224E-03     34.0886E-03    -17.0662E-03     6.10212E-03     3.02450E+06    -4.24251E+06    -161.938E+06    -4.25177E+06    -161.929E+06     3.02450E+06     569.889E+03         22.8749
            1351     6.88377E-03     67.0646E-03         4.04639         2.20558        -7.35997         3.67562        -6.98920         2.20558         4.03181     34.2456E-03    -17.0432E-03    -17.2024E-03    -16.9710E-03     34.0142E-03    -17.0432E-03     6.87092E-03     3.85152E+06    -2.85693E+06    -146.048E+06    -2.89018E+06    -146.015E+06     3.85152E+06     1.12036E+06         23.0128
            1352     7.86695E-03     67.0721E-03         4.35930         2.41775        -7.90351         4.12401        -7.66822         2.41775         2.87876     34.2348E-03    -16.9980E-03    -17.2368E-03    -16.9493E-03     33.9473E-03    -16.9980E-03     7.66333E-03     800.993E+03    -3.16443E+06    -128.242E+06    -3.19295E+06    -128.213E+06     800.993E+03     463.096E+03         23.1923
            1353     8.85063E-03     67.0806E-03         4.25308         2.61264        -8.01179         4.20622        -7.96493         2.61264    -298.122E-03     34.2024E-03    -16.9505E-03    -17.2519E-03    -16.8964E-03     33.8469E-03    -16.9505E-03     8.50932E-03    -1.36981E+06    -2.81516E+06    -107.816E+06    -2.55909E+06    -107.806E+06    -1.63636E+06    -647.744E+03         23.4395
            1354     9.83393E-03     67.0897E-03         4.09350         2.76436        -8.02896         4.05360        -7.98906         2.76436        -1.31369     34.2725E-03    -16.8989E-03    -17.3736E-03    -16.8808E-03     33.7798E-03    -16.8989E-03     9.99220E-03    -1.30003E+06    -4.72622E+06    -85.1548E+06    -1.72394E+06    -85.1463E+06    -4.31074E+06    -737.838E+03         23.8227
            1355     10.8174E-03     67.1015E-03         3.87261         2.86666        -7.94419         3.74417        -7.81575         2.86666        -2.08919     34.2504E-03    -16.8282E-03    -17.4223E-03    -16.8768E-03     33.7049E-03    -16.8282E-03     10.5535E-03    -2.23227E+06    -11.5063E+06    -60.5379E+06    -2.24040E+06    -60.5298E+06    -11.5063E+06    -61.3046E+03         24.5169
            1356     11.8009E-03     67.1113E-03         3.77747         2.92406        -7.94567         3.40810        -7.57629         2.92406        -4.00522     34.1154E-03    -16.7232E-03    -17.3921E-03    -16.6954E-03     33.4187E-03    -16.7232E-03     11.7768E-03    -2.69153E+06    -10.5360E+06    -38.9078E+06    -3.47351E+06    -25.6143E+06    -23.0475E+06     457.929E+03         25.9228
            1357     12.7844E-03     67.1261E-03         3.47766         2.88228        -7.65038         3.07840        -7.31412         2.94527        -3.66687     34.5631E-03    -16.5809E-03    -17.9822E-03    -16.5739E-03     33.1548E-03    -16.5809E-03     16.6884E-03     22.3666E+06    -6.13656E+06    -39.7381E+06    -5.57862E+06     21.8087E+06    -39.7381E+06     929.988E+03         28.8000
            1358     13.7686E-03     67.1460E-03         3.05631         2.62913        -7.02695         2.63553        -6.91020         2.93315        -2.05275     35.3554E-03    -16.4332E-03    -18.9221E-03    -16.3195E-03     32.7527E-03    -16.4332E-03     22.9812E-03     74.1791E+06    -8.90955E+06    -59.6911E+06    -8.88180E+06     74.1514E+06    -59.6911E+06     1.29766E+06         34.2219
            1359     14.7524E-03     67.1727E-03         2.95985         2.64702        -7.00433         2.30031        -6.58582         2.88805        -3.43986     46.5967E-03    -16.5284E-03    -30.0684E-03    -16.6501E-03     33.1785E-03    -16.5284E-03     54.9871E-03     116.429E+06    -10.2748E+06    -41.4726E+06    -11.7675E+06     116.415E+06    -39.9664E+06     1.12111E+06         42.9888
            1360     15.7376E-03     67.2602E-03         2.86062         2.64925        -6.96076         2.04867        -6.28837         2.78881        -4.90407     122.908E-03    -16.8583E-03    -106.050E-03    -27.6663E-03     44.5246E-03    -16.8583E-03     215.600E-03     151.467E+06     21.5485E+06    -12.5190E+06    -12.5075E+06     151.456E+06     21.5485E+06     1.25996E+06         54.3656
            1361     16.7228E-03     67.6291E-03         2.60685         1.83274        -5.93318         1.53584        -5.63629         2.60685        -2.60825     201.572E-03    -17.2717E-03    -184.300E-03    -40.3606E-03     57.6323E-03    -17.2717E-03     373.178E-03     191.611E+06     108.270E+06    -8.19678E+06    -8.18811E+06     191.603E+06     108.270E+06     1.00599E+06         65.0479
            1362     983.389E-06     68.0711E-03         6.90237    -120.752E-03        -7.69996     898.554E-03        -1.69614    -120.752E-03         14.0398     34.0491E-03    -16.9498E-03    -17.0993E-03    -17.0454E-03     34.0385E-03    -16.9932E-03     1.34941E-03    -9.77363E+06    -11.9027E+06    -190.738E+06    -10.9828E+06    -190.731E+06    -10.7008E+06     858.604E+03         22.5604
            1363     1.96673E-03     68.0739E-03         4.82353     715.588E-03        -6.52285         2.01751        -3.71683     715.588E-03         9.75163     34.1265E-03    -17.0245E-03    -17.1021E-03    -17.0574E-03     34.0980E-03    -17.0406E-03     2.37569E-03    -8.06118E+06    -10.8314E+06    -191.101E+06    -10.3462E+06    -191.088E+06    -8.55932E+06     1.39106E+06         22.5834
            1364     2.95025E-03     68.0762E-03         4.24077         1.28027        -6.51670         2.70559        -4.98152         1.28027         6.51984     34.1977E-03    -17.0399E-03    -17.1578E-03    -17.0746E-03     34.1419E-03    -17.0673E-03     3.34263E-03    -4.90524E+06    -9.17562E+06    -187.777E+06    -9.18610E+06    -187.766E+06    -4.90524E+06     1.29763E+06         22.6240
            1365     3.93337E-03     68.0806E-03         3.38119         1.67795        -6.07555         2.94557        -5.63993         1.67795         3.73419     34.2258E-03    -17.0454E-03    -17.1804E-03    -17.0523E-03     34.1315E-03    -17.0792E-03     4.36679E-03    -1.80220E+06    -7.90595E+06    -180.774E+06    -7.91115E+06    -180.769E+06    -1.80220E+06      902.15E+03         22.6846
            1366     4.91691E-03     68.0858E-03         3.49499         1.95319        -6.48207         3.10757        -6.09465         1.95319         3.42747     34.2507E-03    -17.0711E-03    -17.1796E-03    -17.0360E-03     34.1135E-03    -17.0775E-03     5.28814E-03     233.504E+03    -6.78915E+06    -172.100E+06    -6.79059E+06    -172.099E+06     233.504E+03     293.054E+03         22.7671
            1367     5.90024E-03     68.0916E-03         3.46905         2.16665        -6.69068         3.32942        -6.55106         2.16665         2.29548     34.2547E-03    -17.0644E-03    -17.1903E-03    -17.0066E-03     34.0709E-03    -17.0644E-03     6.12260E-03     733.278E+03    -6.10423E+06    -162.530E+06    -6.10591E+06    -162.528E+06     733.278E+03     103.964E+03         22.8743
            1368     6.88355E-03     68.0984E-03         3.67598         2.33688        -7.08353         3.34946        -6.75702         2.33688         3.60593     34.2513E-03    -17.0381E-03    -17.2132E-03    -16.9761E-03     34.0142E-03    -17.0381E-03     6.95797E-03     1.06827E+06    -4.77839E+06    -146.926E+06    -4.80317E+06    -146.901E+06     1.06827E+06     878.439E+03         23.0119
            1369     7.86710E-03     68.1062E-03         3.45153         2.45688        -6.99305         3.20986        -6.75139         2.45688         2.73699     34.2319E-03    -16.9969E-03    -17.2350E-03    -16.9459E-03     33.9428E-03    -16.9969E-03     7.68592E-03     521.788E+03    -2.76791E+06    -126.161E+06    -2.66576E+06    -126.132E+06     391.116E+03     193.132E+03         23.1906
            1370     8.85035E-03     68.1142E-03         3.17343         2.53638        -6.80987         3.12342        -6.75985         2.53638    -265.846E-03     34.2368E-03    -16.9497E-03    -17.2871E-03    -16.9269E-03     33.8767E-03    -16.9497E-03     8.56572E-03    -1.45411E+06    -2.71248E+06    -106.538E+06    -1.88619E+06    -106.522E+06    -2.29587E+06    -1.24013E+06         23.4359
            1371     9.83388E-03     68.1239E-03         3.17951         2.59467        -6.89742         3.13227        -6.85018         2.59467        -1.30577     34.2879E-03    -16.9006E-03    -17.3873E-03    -16.8958E-03     33.7965E-03    -16.9006E-03     9.99049E-03    -2.27977E+06    -5.71106E+06    -85.8029E+06    -2.29432E+06    -85.7883E+06    -5.71106E+06    -1.09018E+06         23.8142
            1372     10.8175E-03     68.1350E-03         3.21332         2.63877        -7.00957         3.06471        -6.86097         2.63877        -2.12699     34.1990E-03    -16.8306E-03    -17.3685E-03    -16.8212E-03     33.6517E-03    -16.8306E-03     10.5623E-03    -2.43971E+06    -12.1603E+06    -61.0588E+06    -2.45545E+06    -61.0431E+06    -12.1603E+06    -395.728E+03         24.4977
            1373     11.8006E-03     68.1461E-03         3.09968         2.65526        -6.95592         2.65787        -6.51411         2.65526        -4.00578     34.1359E-03    -16.7227E-03    -17.4132E-03    -16.7205E-03     33.4432E-03    -16.7227E-03     11.7740E-03    -2.70014E+06    -11.0577E+06    -39.7685E+06    -3.44212E+06    -26.2643E+06    -23.8199E+06     241.524E+03         25.8838
            1374     12.7846E-03     68.1589E-03         2.77550         2.35514        -6.38400         2.07836        -5.96130         2.62959        -3.69275     34.4682E-03    -16.5801E-03    -17.8881E-03    -16.4720E-03     33.0521E-03    -16.5801E-03     16.6530E-03     21.9719E+06    -6.30621E+06    -39.8895E+06    -5.65140E+06     21.3171E+06    -39.8895E+06     1.11070E+06         28.7330
            1375     13.7683E-03     68.1808E-03         2.57263         1.92869        -5.81460         1.77218        -5.65809         2.57263        -2.08637     35.3016E-03    -16.4308E-03    -18.8708E-03    -16.3303E-03     32.7611E-03    -16.4308E-03     22.7706E-03     74.0672E+06    -9.33148E+06    -59.4902E+06    -9.30036E+06     74.0361E+06    -59.4902E+06     1.26150E+06         34.1333
            1376     14.7526E-03     68.2059E-03         2.54892         2.13027        -6.05801         1.64017        -5.51876         2.49977        -3.55558     46.8468E-03    -16.5395E-03    -30.3073E-03    -16.8966E-03     33.4361E-03    -16.5395E-03     54.9944E-03     117.134E+06    -9.45325E+06    -42.0181E+06    -12.6578E+06     117.111E+06    -38.7909E+06     1.55988E+06         42.9142
            1377     15.7365E-03     68.2948E-03         2.42870         2.18858        -6.06489         1.36879        -5.19594         2.37954        -5.02338     123.872E-03    -16.9002E-03    -106.972E-03    -28.8564E-03     45.7566E-03    -16.9002E-03     216.898E-03     152.096E+06     21.3795E+06    -12.3163E+06    -12.2892E+06     152.069E+06     21.3795E+06     1.97622E+06         54.3603
            1378     16.7168E-03     68.6649E-03         2.18219         1.51957        -5.26104         1.12451        -4.86597         2.18219        -2.76237     202.076E-03    -17.3315E-03    -184.745E-03    -40.3206E-03     57.6521E-03    -17.3315E-03     374.158E-03     192.218E+06     106.783E+06    -7.63030E+06    -7.62242E+06     192.210E+06     106.783E+06     890.786E+03         65.1579
            1379     983.316E-06     69.1056E-03         6.27524         1.28295        -8.46632         2.01166        -4.20274         1.28295         12.8940     34.0839E-03    -16.9923E-03    -17.0916E-03    -17.0634E-03     34.0736E-03    -17.0102E-03     1.33058E-03    -11.3201E+06    -13.0851E+06    -191.809E+06    -12.6617E+06    -191.803E+06    -11.7491E+06     215.165E+03         22.5600
            1380     1.96685E-03     69.1068E-03         5.06235         1.80735        -7.80186         2.43319        -5.17271         1.80735         10.3416     34.1118E-03    -17.0369E-03    -17.0748E-03    -17.0277E-03     34.0825E-03    -17.0548E-03     2.39492E-03    -8.62821E+06    -11.6703E+06    -191.325E+06    -11.6806E+06    -191.314E+06    -8.62821E+06     1.24179E+06         22.5830
            1381     2.95011E-03     69.1106E-03         4.08524         2.05807        -7.09143         2.60231        -5.60850         2.05807         7.11791     34.2367E-03    -17.0664E-03    -17.1704E-03    -17.1120E-03     34.1784E-03    -17.0664E-03     3.41988E-03    -7.11500E+06    -10.5947E+06    -187.578E+06    -10.6048E+06    -187.568E+06    -7.11500E+06     1.26288E+06         22.6239
            1382     3.93331E-03     69.1142E-03         3.14056         2.18774        -6.30221         2.47486        -5.63651         2.18774         4.72897     34.2876E-03    -17.0780E-03    -17.2096E-03    -17.1062E-03     34.1906E-03    -17.0844E-03     4.43676E-03    -4.25806E+06    -8.40179E+06    -179.935E+06    -8.40696E+06    -179.930E+06    -4.25806E+06     633.359E+03         22.6845
            1383     4.91673E-03     69.1196E-03         3.09846         2.26305        -6.35202         2.63319        -5.88675         2.26305         3.55397     34.2280E-03    -17.0820E-03    -17.1460E-03    -17.0012E-03     34.0919E-03    -17.0907E-03     5.26913E-03    -443.856E+03    -6.69686E+06    -171.529E+06    -6.70125E+06    -171.525E+06    -443.856E+03     393.145E+03         22.7667
            1384     5.90022E-03     69.1254E-03         3.13764         2.35712        -6.50270         3.02247        -6.38753         2.35712         2.05988     34.2349E-03    -17.0741E-03    -17.1608E-03    -16.9785E-03     34.0550E-03    -17.0765E-03     6.05471E-03     1.32137E+06    -6.14557E+06    -162.165E+06    -6.14987E+06    -162.161E+06     1.32137E+06     613.012E+03         22.8736
            1385     6.88363E-03     69.1323E-03         3.22570         2.44606        -6.69851         2.90290        -6.37571         2.44606         3.37530     34.2479E-03    -17.0345E-03    -17.2134E-03    -16.9741E-03     34.0086E-03    -17.0345E-03     6.98337E-03    -543.968E+03    -4.99104E+06    -145.991E+06    -5.00760E+06    -145.975E+06    -543.968E+03    -518.823E+03         23.0106
            1386     7.86694E-03     69.1399E-03         2.87500         2.32528        -6.23550         2.46083        -5.97391         2.47786         2.65963     34.2367E-03    -16.9879E-03    -17.2488E-03    -16.9565E-03     33.9444E-03    -16.9879E-03     7.73232E-03    -2.03022E+06    -3.16248E+06    -124.974E+06    -3.06170E+06    -124.944E+06    -2.16089E+06    -1.65718E+06         23.1885
            1387     8.85051E-03     69.1483E-03         2.52740         2.12572        -5.70504         2.12174        -5.63135         2.45769    -379.572E-03     34.2672E-03    -16.9573E-03    -17.3098E-03    -16.9477E-03     33.9051E-03    -16.9573E-03     8.59117E-03    -1.60661E+06    -2.70339E+06    -106.402E+06    -2.14757E+06    -106.383E+06    -2.18182E+06    -1.22930E+06         23.4316
            1388     9.83378E-03     69.1578E-03         2.49924         2.09954        -5.67373         2.09177        -5.58791         2.42119        -1.56173     34.3138E-03    -16.9088E-03    -17.4050E-03    -16.9096E-03     33.8184E-03    -16.9088E-03     10.0373E-03    -1.84383E+06    -5.96453E+06     -85.751E+06    -2.20300E+06    -85.7312E+06    -5.62517E+06    -1.08802E+06         23.8050
            1389     10.8170E-03     69.1692E-03         2.54295         2.18031        -5.83308         2.13376        -5.63431         2.39073        -2.30064     34.1251E-03    -16.8313E-03    -17.2938E-03    -16.7501E-03     33.5814E-03    -16.8313E-03     10.5098E-03    -2.69510E+06    -13.1070E+06    -61.5546E+06    -2.71635E+06    -61.5333E+06    -13.1070E+06    -1.01439E+06         24.4780
            1390     11.8012E-03     69.1795E-03         2.45754         2.18864        -5.80609         1.81239        -5.32553         2.35323        -3.74939     34.1047E-03    -16.7173E-03    -17.3874E-03    -16.6756E-03     33.3929E-03    -16.7173E-03     11.8973E-03    -3.45564E+06    -11.6891E+06    -40.8810E+06    -4.00229E+06    -26.9931E+06    -25.0303E+06     5.14335E+03         25.8447
            1391     12.7842E-03     69.1938E-03         2.28882         1.70226        -5.20661         1.24702        -4.74839         2.28584        -3.39819     34.4900E-03    -16.5776E-03    -17.9124E-03    -16.5460E-03     33.1236E-03    -16.5776E-03     16.4531E-03     21.0216E+06    -6.38307E+06    -40.6176E+06    -5.75230E+06     20.3908E+06    -40.6176E+06     844.475E+03         28.6663
            1392     13.7687E-03     69.2132E-03         2.19408         1.17960        -4.65552     953.300E-03        -4.42922         2.19408        -2.18231     35.3896E-03    -16.4345E-03    -18.9551E-03    -16.3417E-03     32.7762E-03    -16.4345E-03     22.9878E-03     74.1012E+06    -8.51757E+06    -58.9903E+06    -8.45468E+06     74.0383E+06    -58.9903E+06     1.89383E+06         34.0440
            1393     14.7522E-03     69.2417E-03         2.12901         1.56455        -5.04950     854.345E-03        -4.30217         2.09189        -3.77321     46.8202E-03    -16.5310E-03    -30.2892E-03    -16.7679E-03     33.2990E-03    -16.5310E-03     55.3913E-03     117.402E+06    -10.2911E+06    -41.8174E+06    -12.1717E+06     117.336E+06    -39.8705E+06     2.35990E+06         42.8399
            1394     15.7367E-03     69.3278E-03         1.98662         1.81684        -5.26384     706.610E-03        -4.11650         1.94950        -5.19434     124.827E-03    -16.8465E-03    -107.980E-03    -28.0766E-03     44.9231E-03    -16.8465E-03     219.405E-03     152.361E+06     18.9889E+06    -12.3696E+06    -12.3484E+06     152.340E+06     18.9889E+06     1.61296E+06         54.3735
            1395     16.7249E-03     69.7049E-03         1.75089         1.34855        -4.71985     838.704E-03        -4.21000         1.75089        -2.89514     202.128E-03    -17.2599E-03    -184.868E-03    -40.6060E-03     57.8659E-03    -17.2599E-03     374.240E-03     193.409E+06     106.170E+06    -7.68037E+06    -7.67517E+06     193.403E+06     106.170E+06     844.697E+03         65.2845
            1396     983.432E-06     70.1385E-03         6.01830         3.49018        -10.4296         3.47688        -7.88818         3.49018         11.6298     34.1218E-03    -17.0427E-03    -17.0791E-03    -17.0678E-03     34.1123E-03    -17.0444E-03     1.27271E-03    -13.1323E+06    -14.4321E+06    -192.290E+06    -14.4425E+06    -192.279E+06    -13.1323E+06     725.824E+03         22.5603
            1397     1.96666E-03     70.1412E-03         5.08064         3.34404        -9.31563         2.77259        -7.00759         3.34404         10.5212     34.1861E-03    -17.0736E-03    -17.1125E-03    -17.0818E-03     34.1572E-03    -17.0754E-03     2.37857E-03    -11.0085E+06    -12.8899E+06    -191.509E+06    -12.8897E+06    -191.503E+06    -11.0146E+06     994.782E+03         22.5834
            1398     2.95005E-03     70.1438E-03         3.81837         2.92394        -7.63214         2.31661        -6.28428         3.07785         7.17850     34.2109E-03    -17.0804E-03    -17.1305E-03    -17.0710E-03     34.1514E-03    -17.0804E-03     3.44980E-03    -9.27705E+06    -11.1708E+06    -186.390E+06    -11.1719E+06    -186.382E+06    -9.28322E+06     334.994E+03         22.6242
            1399     3.93351E-03     70.1485E-03         3.10396         2.61102        -6.63595         2.07666        -5.85432         2.85668         5.20845     34.2541E-03    -17.0838E-03    -17.1702E-03    -17.0738E-03     34.1576E-03    -17.0838E-03     4.42807E-03    -6.65905E+06    -10.0333E+06    -179.110E+06    -10.0400E+06    -179.103E+06    -6.65905E+06    -26.1784E+03         22.6845
            1400     4.91659E-03     70.1531E-03         2.85281         2.34721        -6.13698         2.03561        -5.66843         2.69585         3.54096     34.2902E-03    -17.0895E-03    -17.2007E-03    -17.0615E-03     34.1533E-03    -17.0918E-03     5.28586E-03    -3.09488E+06    -8.81091E+06    -171.573E+06    -8.81649E+06    -171.568E+06    -3.09488E+06     147.147E+03         22.7663
            1401     5.90004E-03     70.1593E-03         2.74988         2.16476        -5.87247         2.15841        -5.71164         2.59541         2.20417     34.2612E-03    -17.0829E-03    -17.1783E-03    -16.9955E-03     34.0807E-03    -17.0853E-03     6.07147E-03    -43.6058E+03    -6.31361E+06    -161.127E+06    -6.32451E+06    -161.116E+06    -43.6058E+03    -334.808E+03         22.8727
            1402     6.88347E-03     70.1660E-03         2.77975         2.35024        -6.09703         2.14060        -5.63973         2.53209         3.68797     34.2166E-03    -17.0425E-03    -17.1741E-03    -16.9378E-03     33.9802E-03    -17.0425E-03     6.93568E-03    -715.412E+03    -4.18776E+06    -143.649E+06    -4.21599E+06    -143.620E+06    -715.412E+03    -1.58701E+06         23.0090
            1403     7.86700E-03     70.1739E-03         2.58896         1.99640        -5.56814         1.74102        -5.18312         2.45934         3.02228     34.2310E-03    -16.9898E-03    -17.2412E-03    -16.9429E-03     33.9327E-03    -16.9898E-03     7.80515E-03    -3.32200E+06    -4.27883E+06    -124.509E+06    -4.01548E+06    -124.467E+06    -3.62706E+06    -2.21385E+06         23.1858
            1404     8.85017E-03     70.1822E-03         2.35514         1.41530        -4.76937         1.30007        -4.65414         2.35514    -295.206E-03     34.2607E-03    -16.9577E-03    -17.3030E-03    -16.9362E-03     33.8940E-03    -16.9577E-03     8.65178E-03    -3.11434E+06    -4.59725E+06    -107.210E+06    -3.68969E+06    -107.157E+06    -4.07568E+06    -2.01154E+06         23.4268
            1405     9.83374E-03     70.1918E-03         2.24080         1.27106        -4.53955         1.15566        -4.42415         2.24080        -1.59255     34.2575E-03    -16.9093E-03    -17.3483E-03    -16.8450E-03     33.7543E-03    -16.9093E-03     10.0954E-03    -2.35872E+06    -6.51836E+06    -85.6991E+06    -2.74433E+06    -85.6529E+06    -6.17900E+06    -1.45619E+06         23.7954
            1406     10.8175E-03     70.2030E-03         2.13475         1.28865        -4.49146         1.04547        -4.24829         2.13475        -2.12329     34.1456E-03    -16.8308E-03    -17.3148E-03    -16.7733E-03     33.6041E-03    -16.8308E-03     10.4870E-03    -3.24954E+06    -13.5128E+06    -61.8044E+06    -3.27218E+06    -61.7818E+06    -13.5128E+06    -895.918E+03         24.4582
            1407     11.8006E-03     70.2132E-03         2.03242         1.40981        -4.55943     844.621E-03        -3.99423         2.03242        -3.40991     34.0577E-03    -16.7139E-03    -17.3438E-03    -16.6187E-03     33.3326E-03    -16.7139E-03     11.9479E-03    -3.76582E+06    -11.9844E+06    -41.4471E+06    -4.22215E+06    -27.3351E+06    -25.6401E+06    -590.549E+03         25.8059
            1408     12.7848E-03     70.2280E-03         1.92543         1.07494        -4.17793     562.303E-03        -3.66529         1.92543        -3.05689     34.4854E-03    -16.5727E-03    -17.9127E-03    -16.5365E-03     33.1092E-03    -16.5727E-03     16.5761E-03     20.2387E+06    -6.74635E+06    -41.1265E+06    -6.05911E+06     19.5515E+06    -41.1265E+06     339.175E+03         28.6002
            1409     13.7679E-03     70.2470E-03         1.80764     464.181E-03        -3.51922     190.862E-03        -3.24590         1.80764        -1.99157     35.3824E-03    -16.4216E-03    -18.9608E-03    -16.3040E-03     32.7257E-03    -16.4216E-03     23.1150E-03     71.8873E+06    -8.86551E+06    -61.0635E+06    -8.78549E+06     71.8073E+06    -61.0635E+06     2.38100E+06         33.9554
            1410     14.7527E-03     70.2756E-03         1.69376     924.292E-03        -3.95083     23.3871E-03        -3.03467         1.67850        -3.58072     46.6967E-03    -16.5120E-03    -30.1847E-03    -16.6619E-03     33.1740E-03    -16.5120E-03     55.4764E-03     117.021E+06    -9.72415E+06    -42.3744E+06    -10.8320E+06     116.952E+06    -41.1976E+06     2.32834E+06         42.7643
            1411     15.7382E-03     70.3610E-03         1.59820         1.49802        -4.54798     268.768E-03        -3.24756         1.52702        -4.94988     123.462E-03    -16.8279E-03    -106.634E-03    -27.5475E-03     44.3754E-03    -16.8279E-03     216.853E-03     153.965E+06     19.5040E+06    -11.5275E+06    -11.5231E+06     153.960E+06     19.5040E+06      763.45E+03         54.3742
            1412     16.7240E-03     70.7358E-03         1.40635         1.18941        -4.15477     716.914E-03        -3.62635         1.35043        -2.71504     201.144E-03    -17.2412E-03    -183.903E-03    -40.4707E-03     57.7119E-03    -17.2412E-03     372.312E-03     195.092E+06     106.052E+06    -8.10745E+06    -8.09520E+06     195.080E+06     106.052E+06     1.10488E+06         65.3944
            1413     983.292E-06     71.1730E-03         6.37261         4.63086        -11.8727         4.55412        -10.0542         4.63086         10.4614     34.2190E-03    -17.0777E-03    -17.1412E-03    -17.1316E-03     34.2093E-03    -17.0777E-03     1.31147E-03    -13.4539E+06    -15.6073E+06    -192.196E+06    -14.6210E+06    -192.186E+06    -14.4510E+06     1.08741E+06         22.5609
            1414     1.96661E-03     71.1744E-03         5.48088         4.17862        -10.5072         3.28836        -8.46861         4.33251         10.5625     34.2637E-03    -17.1154E-03    -17.1483E-03    -17.1193E-03     34.2347E-03    -17.1154E-03     2.37387E-03    -12.8689E+06    -14.1224E+06    -190.333E+06    -14.1271E+06    -190.322E+06    -12.8751E+06     521.624E+03         22.5841
            1415     2.94988E-03     71.1781E-03         3.89330         3.28611        -8.01228         2.33104        -6.98806         3.82414         6.39197     34.2476E-03    -17.1138E-03    -17.1337E-03    -17.0761E-03     34.1900E-03    -17.1138E-03     3.40644E-03    -11.2818E+06    -12.9383E+06    -185.207E+06    -12.9401E+06    -185.199E+06    -11.2879E+06    -457.524E+03         22.6247
            1416     3.93318E-03     71.1818E-03         3.41280         2.72821        -6.99598         2.09850        -6.36626         3.41280         4.74629     34.2171E-03    -17.0887E-03    -17.1284E-03    -17.0215E-03     34.1247E-03    -17.1032E-03     4.32767E-03    -8.69292E+06    -11.5242E+06    -178.518E+06    -11.5368E+06    -178.505E+06    -8.69292E+06    -668.732E+03         22.6846
            1417     4.91682E-03     71.1874E-03         3.11943         2.21419        -6.21553         1.80906        -5.81040         3.11943         3.47486     34.2619E-03    -17.0775E-03    -17.1844E-03    -17.0329E-03     34.1249E-03    -17.0920E-03     5.27812E-03    -6.04169E+06    -9.79310E+06    -170.984E+06    -9.80688E+06    -170.970E+06    -6.04169E+06    -980.368E+03         22.7658
            1418     5.89989E-03     71.1930E-03         2.86437         1.61124        -5.37192         1.35479        -5.11547         2.86437         2.54990     34.3032E-03    -17.0835E-03    -17.2196E-03    -17.0369E-03     34.1205E-03    -17.0835E-03     6.11543E-03    -3.05727E+06    -8.00659E+06    -159.677E+06    -8.03162E+06    -159.652E+06    -3.05727E+06    -1.78717E+06         22.8716
            1419     6.88335E-03     71.2000E-03         2.62645         1.75602        -5.28894         1.04180        -4.57471         2.62645         4.02064     34.2265E-03    -17.0522E-03    -17.1743E-03    -16.9370E-03     33.9891E-03    -17.0522E-03     6.95069E-03    -2.16326E+06    -6.41571E+06    -142.132E+06    -6.45600E+06    -142.091E+06    -2.16326E+06    -2.30159E+06         23.0073
            1420     7.86680E-03     71.2075E-03         2.41907         1.52919        -4.86799     910.975E-03        -4.24977         2.41907         3.44067     34.1944E-03    -16.9981E-03    -17.1963E-03    -16.8926E-03     33.8907E-03    -16.9981E-03     7.86562E-03    -3.63789E+06    -5.97248E+06    -123.938E+06    -5.14452E+06    -123.870E+06    -4.53294E+06    -2.61128E+06         23.1829
            1421     8.85042E-03     71.2164E-03         2.23856     826.711E-03        -4.01005     699.486E-03        -3.88283         2.23856     115.108E-03     34.2119E-03    -16.9557E-03    -17.2562E-03    -16.8872E-03     33.8429E-03    -16.9557E-03     8.67510E-03    -4.19001E+06    -5.83767E+06    -107.225E+06    -4.38420E+06    -107.127E+06    -5.74135E+06    -3.02863E+06         23.4217
            1422     9.83374E-03     71.2254E-03         2.06275     377.575E-03        -3.42149     285.754E-03        -3.32967         2.06275        -1.15352     34.2185E-03    -16.9072E-03    -17.3113E-03    -16.8163E-03     33.7235E-03    -16.9072E-03     10.0072E-03    -4.13006E+06    -7.66299E+06    -86.6994E+06    -4.29066E+06    -86.6351E+06    -7.56666E+06    -2.03690E+06         23.7857
            1423     10.8172E-03     71.2370E-03         1.88168     267.585E-03        -3.17398    -97.5201E-03        -2.80887         1.88168        -1.79049     34.1109E-03    -16.8258E-03    -17.2851E-03    -16.7406E-03     33.5664E-03    -16.8258E-03     10.5157E-03    -3.79141E+06    -14.3040E+06    -61.5492E+06    -3.84009E+06    -61.5005E+06    -14.3040E+06    -1.37292E+06         24.4387
            1424     11.8009E-03     71.2473E-03         1.70984     692.544E-03        -3.47595    -175.870E-03        -2.60753         1.70984        -3.24038     34.0421E-03    -16.7064E-03    -17.3357E-03    -16.6249E-03     33.3314E-03    -16.7064E-03     11.8647E-03    -4.21922E+06    -13.1550E+06    -41.4934E+06    -4.43171E+06    -27.6870E+06    -26.7489E+06    -1.26752E+06         25.7678
            1425     12.7846E-03     71.2610E-03         1.56005     531.006E-03        -3.22363    -160.045E-03        -2.53258         1.56005        -2.77106     34.4454E-03    -16.5658E-03    -17.8797E-03    -16.4723E-03     33.0380E-03    -16.5658E-03     16.6727E-03     19.5755E+06    -7.29548E+06    -41.8686E+06    -6.25622E+06     18.5363E+06    -41.8686E+06     11.9825E+03         28.5351
            1426     13.7687E-03     71.2822E-03         1.42371    -79.4659E-03        -2.54686    -332.354E-03        -2.29397         1.42371        -1.47692     35.1866E-03    -16.4090E-03    -18.7776E-03    -16.2212E-03     32.6301E-03    -16.4090E-03     22.7284E-03     71.4972E+06    -8.76377E+06    -61.6546E+06    -8.73250E+06     71.4659E+06    -61.6546E+06     1.22520E+06         33.8678
            1427     14.7531E-03     71.3073E-03         1.40522     472.156E-03        -3.17033    -379.301E-03        -2.20426         1.29062        -3.14511     47.1347E-03    -16.5019E-03    -30.6328E-03    -16.8963E-03     33.3982E-03    -16.5019E-03     55.9372E-03     116.242E+06    -9.81830E+06    -43.2535E+06    -10.8051E+06     116.211E+06    -42.2352E+06     1.68990E+06         42.6869
            1428     15.7356E-03     71.3982E-03         1.44106         1.15064        -3.97225     17.5204E-03        -2.54872         1.15064        -4.70413     123.499E-03    -16.8627E-03    -106.636E-03    -28.6183E-03     45.4810E-03    -16.8627E-03     216.308E-03     154.288E+06     19.2336E+06    -11.9161E+06    -11.3762E+06     154.253E+06     18.7283E+06     1.93279E+06         54.3600
            1429     16.7200E-03     71.7642E-03         1.17450     928.078E-03        -3.53705     526.550E-03        -2.95971     998.688E-03        -2.56809     201.099E-03    -17.3067E-03    -183.792E-03    -40.2518E-03     57.5585E-03    -17.3067E-03     372.217E-03     196.621E+06     105.190E+06    -8.34128E+06    -8.30835E+06     196.588E+06     105.190E+06     1.64156E+06         65.4955
            1430     983.282E-06     72.2064E-03         6.36300         4.48427        -11.6179         4.46259        -9.79605         4.56280         9.34835     34.2837E-03    -17.0906E-03    -17.1931E-03    -17.1814E-03     34.2720E-03    -17.0906E-03     1.46107E-03    -14.4185E+06    -16.9479E+06    -192.733E+06    -15.9578E+06    -192.726E+06    -15.4156E+06     741.437E+03         22.5613
            1431     1.96647E-03     72.2088E-03         5.99480         4.19082        -10.9566         3.67712        -8.79281         4.34472         10.9348     34.3560E-03    -17.1513E-03    -17.2047E-03    -17.1750E-03     34.3264E-03    -17.1513E-03     2.42222E-03    -13.7691E+06    -15.3960E+06    -189.191E+06    -15.4076E+06    -189.179E+06    -13.7691E+06     589.121E+03         22.5848
            1432     2.94977E-03     72.2115E-03         4.07915         3.58849        -8.43581         2.96398        -7.73603         4.00389         5.55274     34.3114E-03    -17.1266E-03    -17.1847E-03    -17.1029E-03     34.2551E-03    -17.1522E-03     3.36530E-03    -12.3031E+06    -14.3206E+06    -183.305E+06    -14.3435E+06    -183.282E+06    -12.3031E+06    -935.093E+03         22.6253
            1433     3.93311E-03     72.2161E-03         3.69108         3.03822        -7.52389         2.57326        -7.05894         3.69108         4.32179     34.2626E-03    -17.0938E-03    -17.1689E-03    -17.0359E-03     34.1698E-03    -17.1339E-03     4.33651E-03    -10.4564E+06    -12.4586E+06    -177.360E+06    -12.4933E+06    -177.325E+06    -10.4564E+06    -1.93238E+06         22.6847
            1434     4.91636E-03     72.2207E-03         3.39909         2.24080        -6.45667         1.86846        -6.08433         3.39909         3.50697     34.2527E-03    -17.0830E-03    -17.1696E-03    -17.0013E-03     34.1179E-03    -17.1166E-03     5.23786E-03    -7.23422E+06    -10.3969E+06    -169.874E+06    -10.4359E+06    -169.835E+06    -7.23422E+06    -2.37904E+06         22.7653
            1435     5.90005E-03     72.2273E-03         3.06387         1.26159        -5.15763     867.895E-03        -4.76393         3.06387         2.96032     34.2387E-03    -17.0729E-03    -17.1659E-03    -16.9615E-03     34.0597E-03    -17.0982E-03     6.04175E-03    -3.60550E+06    -8.68264E+06    -158.608E+06    -8.72625E+06    -158.564E+06    -3.60550E+06    -2.43509E+06         22.8704
            1436     6.88323E-03     72.2335E-03         2.69822         1.15689        -4.69639     134.436E-03        -3.67393         2.69822         4.25456     34.2638E-03    -17.0532E-03    -17.2106E-03    -16.9645E-03     34.0241E-03    -17.0596E-03     6.98629E-03    -2.82789E+06    -7.20181E+06    -140.422E+06    -7.29359E+06    -140.330E+06    -2.82789E+06    -3.17294E+06         23.0054
            1437     7.86673E-03     72.2416E-03         2.37198     965.162E-03        -4.19142     83.8887E-03        -3.31014         2.37198         3.59215     34.2191E-03    -17.0084E-03    -17.2107E-03    -16.9080E-03     33.9164E-03    -17.0084E-03     7.86008E-03    -4.00926E+06    -6.51856E+06    -122.787E+06    -5.65546E+06    -122.617E+06    -5.04309E+06    -4.30171E+06         23.1800
            1438     8.85010E-03     72.2499E-03         2.11071     149.892E-03        -3.14874    -2.34852E-03        -2.99650         2.11071     456.505E-03     34.1724E-03    -16.9664E-03    -17.2061E-03    -16.8408E-03     33.8071E-03    -16.9664E-03     8.62221E-03    -4.20699E+06    -6.06577E+06    -107.651E+06    -4.44114E+06    -107.513E+06    -5.96945E+06    -3.68384E+06         23.4168
            1439     9.83374E-03     72.2596E-03         1.86904    -477.757E-03        -2.32008    -581.273E-03        -2.21656         1.86904    -659.071E-03     34.1983E-03    -16.9107E-03    -17.2876E-03    -16.7996E-03     33.7103E-03    -16.9107E-03     9.93769E-03    -3.46553E+06    -8.24823E+06    -87.3515E+06    -3.67965E+06    -87.2337E+06    -8.15190E+06    -2.92888E+06         23.7764
            1440     10.8172E-03     72.2706E-03         1.62215    -341.819E-03        -2.25379        -1.05858        -1.53703         1.62215        -1.52918     34.0233E-03    -16.8189E-03    -17.2044E-03    -16.6663E-03     33.4852E-03    -16.8189E-03     10.4396E-03    -3.25597E+06    -15.8323E+06    -61.9130E+06    -3.39230E+06    -61.7767E+06    -15.8323E+06    -2.71536E+06         24.4199
            1441     11.8011E-03     72.2811E-03         1.39428     436.323E-03        -2.85339        -1.07018        -1.34688         1.39428        -3.12486     34.0418E-03    -16.6999E-03    -17.3420E-03    -16.6260E-03     33.3259E-03    -16.6999E-03     11.9105E-03    -4.05102E+06    -14.3632E+06    -41.7818E+06    -4.25843E+06    -28.2880E+06    -27.6496E+06    -1.53942E+06         25.7309
            1442     12.7844E-03     72.2952E-03         1.20660     221.021E-03        -2.50289    -878.515E-03        -1.40336         1.20660        -2.51009     34.3710E-03    -16.5547E-03    -17.8163E-03    -16.4244E-03     32.9791E-03    -16.5547E-03     16.5695E-03     19.2193E+06    -7.74944E+06    -43.3355E+06    -6.20696E+06     17.6768E+06    -43.3355E+06    -433.562E+03         28.4713
            1443     13.7686E-03     72.3150E-03         1.05826    -362.145E-03        -1.83649    -655.428E-03        -1.54321         1.05826        -1.02979     35.2156E-03    -16.3964E-03    -18.8191E-03    -16.2399E-03     32.6363E-03    -16.3964E-03     22.8187E-03     72.0186E+06    -8.79047E+06    -62.7906E+06    -8.78933E+06     72.0174E+06    -62.7906E+06     219.793E+03         33.7809
            1444     14.7524E-03     72.3422E-03         1.30882     223.717E-03        -2.74767    -389.027E-03        -1.76546     939.349E-03        -2.90571     47.2655E-03    -16.4805E-03    -30.7850E-03    -16.7446E-03     33.2251E-03    -16.4805E-03     56.4566E-03     115.215E+06    -11.8991E+06    -45.0177E+06    -11.8732E+06     115.189E+06    -45.0177E+06     1.57806E+06         42.6130
            1445     15.7384E-03     72.4319E-03         1.47023     822.225E-03        -3.57334    -108.430E-03        -1.99468     822.225E-03        -4.65381     124.864E-03    -16.8191E-03    -108.045E-03    -28.7479E-03     45.5671E-03    -16.8191E-03     219.314E-03     153.033E+06     15.8713E+06    -13.1574E+06    -11.6754E+06     152.969E+06     14.4532E+06     3.23898E+06         54.3659
            1446     16.7196E-03     72.8043E-03         1.00533     663.892E-03        -3.01453     298.514E-03        -2.33563     691.805E-03        -2.54614     201.390E-03    -17.2728E-03    -184.117E-03    -40.5610E-03     57.8337E-03    -17.2728E-03     372.702E-03     198.698E+06     104.254E+06    -7.35342E+06    -7.31075E+06     198.655E+06     104.254E+06     2.12981E+06         65.6196
            1447     983.318E-06     73.2406E-03         6.23518         3.71304        -10.6095         3.68830        -8.30502         3.95542         8.65785     34.3479E-03    -17.0974E-03    -17.2505E-03    -17.2376E-03     34.3350E-03    -17.0974E-03     1.56529E-03    -16.7166E+06    -18.8254E+06    -193.124E+06    -18.7503E+06    -193.082E+06    -16.8341E+06     1.31972E+06         22.5617
            1448     1.96651E-03     73.2426E-03         6.48627         3.83005        -10.9975         3.86848        -8.37970         3.83005         11.6734     34.4008E-03    -17.1451E-03    -17.2557E-03    -17.1941E-03     34.3721E-03    -17.1780E-03     2.39393E-03    -14.7767E+06    -16.9774E+06    -187.373E+06    -16.4407E+06    -187.361E+06    -15.3256E+06    -379.142E+03         22.5854
            1449     2.94954E-03     73.2459E-03         4.36795         3.78995        -8.85878         3.71653        -8.23865         3.82122         5.56599     34.3398E-03    -17.1144E-03    -17.2254E-03    -17.1108E-03     34.2836E-03    -17.1729E-03     3.35402E-03    -13.2151E+06    -15.5928E+06    -181.286E+06    -15.0708E+06    -181.259E+06    -13.7641E+06    -1.28664E+06         22.6258
            1450     3.93301E-03     73.2494E-03         3.87875         3.26645        -7.87898         2.95075        -7.39301         3.70849         4.57477     34.3363E-03    -17.1188E-03    -17.2175E-03    -17.0837E-03     34.2416E-03    -17.1579E-03     4.38608E-03    -11.8730E+06    -14.8291E+06    -175.205E+06    -14.8833E+06    -175.151E+06    -11.8730E+06    -2.55371E+06         22.6847
            1451     4.91630E-03     73.2552E-03         3.45198         2.23234        -6.43452         1.83833        -6.04051         3.45198         3.59761     34.2801E-03    -17.1091E-03    -17.1710E-03    -17.0040E-03     34.1456E-03    -17.1417E-03     5.23713E-03    -9.36983E+06    -13.5262E+06    -168.663E+06    -13.6012E+06    -168.588E+06    -9.36983E+06    -3.33769E+06         22.7647
            1452     5.89954E-03     73.2604E-03         3.09617         1.28950        -5.14871     768.280E-03        -4.62749         3.09617         3.41115     34.2046E-03    -17.0821E-03    -17.1225E-03    -16.9171E-03     34.0245E-03    -17.1075E-03     6.05072E-03    -7.12823E+06    -10.9906E+06    -157.383E+06    -11.0466E+06    -157.246E+06    -7.20944E+06    -3.98945E+06         22.8692
            1453     6.88339E-03     73.2679E-03         2.70094         1.18917        -4.66305    -110.770E-03        -3.36312         2.70094         4.66537     34.2195E-03    -17.0489E-03    -17.1706E-03    -16.9212E-03     33.9765E-03    -17.0553E-03     7.03079E-03    -6.23473E+06    -8.12407E+06    -137.961E+06    -8.16459E+06    -137.721E+06    -6.43435E+06    -5.16911E+06         23.0035
            1454     7.86647E-03     73.2753E-03         2.31146     656.323E-03        -3.76206    -699.029E-03        -2.40671         2.31146         3.85338     34.2438E-03    -17.0120E-03    -17.2318E-03    -16.9324E-03     33.9443E-03    -17.0120E-03     7.82435E-03    -5.82204E+06    -7.40627E+06    -122.091E+06    -6.45262E+06    -121.832E+06    -7.03393E+06    -5.44749E+06         23.1771
            1455     8.85013E-03     73.2839E-03         1.95416    -399.678E-03        -2.37669        -1.06984        -1.70652         1.95416     726.576E-03     34.1841E-03    -16.9700E-03    -17.2141E-03    -16.8461E-03     33.8162E-03    -16.9700E-03     8.64649E-03    -5.28288E+06    -8.45784E+06    -108.235E+06    -5.53352E+06    -107.984E+06    -8.45784E+06    -4.86470E+06         23.4122
            1456     9.83350E-03     73.2934E-03         1.63579    -760.686E-03        -1.74107        -1.32881        -1.17295         1.63579    -291.506E-03     34.1259E-03    -16.9069E-03    -17.2190E-03    -16.7324E-03     33.6393E-03    -16.9069E-03     9.92351E-03    -3.79268E+06    -10.7741E+06    -87.1816E+06    -4.09238E+06    -86.8819E+06    -10.7741E+06    -4.74711E+06         23.7678
            1457     10.8173E-03     73.3045E-03         1.35126    -323.020E-03        -1.93883        -1.58601    -675.842E-03         1.35126        -1.14259     34.0224E-03    -16.8180E-03    -17.2044E-03    -16.6758E-03     33.4938E-03    -16.8180E-03     10.3496E-03    -3.11144E+06    -17.3103E+06    -62.6402E+06    -3.37279E+06    -62.3789E+06    -17.3103E+06    -3.89682E+06         24.4022
            1458     11.8008E-03     73.3147E-03         1.14026     505.664E-03        -2.60353        -1.71296    -342.084E-03         1.09744        -2.73835     33.9536E-03    -16.6987E-03    -17.2549E-03    -16.5391E-03     33.2379E-03    -16.6987E-03     11.8804E-03    -3.62983E+06    -15.6031E+06    -42.7790E+06    -3.95690E+06    -29.5438E+06    -28.5112E+06    -2.17875E+06         25.6952
            1459     12.7849E-03     73.3293E-03     928.237E-03     292.391E-03        -2.22560        -1.47157    -418.813E-03     885.418E-03        -2.21106     34.3015E-03    -16.5480E-03    -17.7535E-03    -16.4000E-03     32.9480E-03    -16.5480E-03     16.3656E-03     19.0955E+06    -8.50690E+06    -44.2635E+06    -6.06295E+06     16.6515E+06    -44.2635E+06    -639.416E+03         28.4087
            1460     13.7688E-03     73.3481E-03     729.663E-03    -338.676E-03        -1.45032    -923.346E-03    -865.648E-03     729.663E-03    -830.015E-03     35.2550E-03    -16.3831E-03    -18.8720E-03    -16.2663E-03     32.6494E-03    -16.3831E-03     22.8845E-03     69.5804E+06    -10.4827E+06    -65.9045E+06    -10.4761E+06     69.5738E+06    -65.9045E+06     568.252E+03         33.6948
            1461     14.7531E-03     73.3770E-03         1.17474     47.1032E-03        -2.34302    -425.456E-03        -1.31942     623.699E-03        -2.72544     46.8644E-03    -16.4633E-03    -30.4012E-03    -16.5046E-03     32.9679E-03    -16.4633E-03     56.0257E-03     114.186E+06    -13.4561E+06    -47.3598E+06    -13.4353E+06     114.165E+06    -47.3598E+06     1.44725E+06         42.5397
            1462     15.7375E-03     73.4636E-03         1.49760     528.951E-03        -3.22010    -131.676E-03        -1.59083     528.951E-03        -4.46940     124.688E-03    -16.7572E-03    -107.931E-03    -27.5151E-03     44.2723E-03    -16.7572E-03     219.705E-03     152.972E+06     14.1432E+06    -13.8400E+06    -12.4766E+06     152.939E+06     12.8128E+06     1.96663E+06         54.3811
            1463     16.7266E-03     73.8427E-03         1.01067     425.953E-03        -2.70531     285.551E-03        -1.98020     425.953E-03        -2.58566     201.247E-03    -17.1824E-03    -184.064E-03    -40.7717E-03     57.9541E-03    -17.1824E-03     372.439E-03     199.936E+06     103.395E+06    -7.93983E+06    -7.91686E+06     199.913E+06     103.395E+06     1.76922E+06         65.7537
            1464     983.228E-06     74.2747E-03         6.22458         3.07030        -9.86571         3.23809        -7.17719         3.36827         7.90602     34.4936E-03    -17.1449E-03    -17.3486E-03    -17.2476E-03     34.4824E-03    -17.2348E-03     1.49860E-03    -18.7234E+06    -21.2513E+06    -191.713E+06    -19.6010E+06    -191.671E+06    -20.4158E+06     811.671E+03         22.5622
            1465     1.96614E-03     74.2769E-03         6.80536         3.43054        -10.8479         3.94209        -7.98465         3.43054         12.0557     34.3402E-03    -17.0879E-03    -17.2523E-03    -17.1023E-03     34.3129E-03    -17.2106E-03     2.29442E-03    -17.6683E+06    -20.8339E+06    -185.121E+06    -19.3871E+06    -185.103E+06    -19.1328E+06    -1.39824E+06         22.5858
            1466     2.94988E-03     74.2794E-03         4.37973         3.57191        -8.58930         3.65713        -7.86671         3.57191         5.89198     34.3633E-03    -17.1461E-03    -17.2172E-03    -17.1269E-03     34.3059E-03    -17.1790E-03     3.39829E-03    -16.5331E+06    -19.0370E+06    -179.584E+06    -18.5327E+06    -179.540E+06    -17.0820E+06    -2.27364E+06         22.6260
            1467     3.93274E-03     74.2841E-03         3.78073         3.07977        -7.52953         2.74399        -6.90444         3.49142         5.01150     34.3581E-03    -17.1550E-03    -17.2031E-03    -17.0933E-03     34.2651E-03    -17.1718E-03     4.35214E-03    -13.2461E+06    -16.4599E+06    -172.719E+06    -16.5284E+06    -172.650E+06    -13.2461E+06    -2.85017E+06         22.6847
            1468     4.91618E-03     74.2884E-03         3.24764         2.20066        -6.13012         1.76070        -5.69016         3.24764         3.70577     34.2940E-03    -17.1359E-03    -17.1582E-03    -17.0078E-03     34.1605E-03    -17.1527E-03     5.21686E-03    -11.1482E+06    -14.7306E+06    -167.028E+06    -14.8393E+06    -166.920E+06    -11.1482E+06    -3.93646E+06         22.7641
            1469     5.89973E-03     74.2949E-03         2.93438         1.53856        -5.16707     979.681E-03        -4.60818         2.93438         3.66487     34.2566E-03    -17.1055E-03    -17.1511E-03    -16.9674E-03     34.0729E-03    -17.1055E-03     6.11630E-03    -11.3646E+06    -12.9900E+06    -154.016E+06    -13.1333E+06    -153.705E+06    -11.5320E+06    -6.16584E+06         22.8679
            1470     6.88276E-03     74.3011E-03         2.58720         1.52379        -4.81946     27.8535E-03        -3.32353         2.58720         5.05052     34.1963E-03    -17.0549E-03    -17.1414E-03    -16.8940E-03     33.9490E-03    -17.0549E-03     7.09024E-03    -10.0771E+06    -10.9501E+06    -135.977E+06    -10.5927E+06    -135.461E+06    -10.9501E+06    -7.91453E+06         23.0015
            1471     7.86671E-03     74.3097E-03         2.19264     899.351E-03        -3.81940        -1.17330        -1.74674         2.19264         4.48099     34.2203E-03    -17.0176E-03    -17.2027E-03    -16.9013E-03     33.9189E-03    -17.0176E-03     7.84767E-03    -7.61468E+06    -9.91688E+06    -122.887E+06    -8.08007E+06    -122.422E+06    -9.91688E+06    -7.13645E+06         23.1744
            1472     8.84975E-03     74.3175E-03         1.77332    -92.4496E-03        -2.43510        -1.96019    -567.353E-03         1.77332         1.32658     34.1897E-03    -16.9745E-03    -17.2152E-03    -16.8586E-03     33.8330E-03    -16.9745E-03     8.51845E-03    -5.77637E+06    -10.2696E+06    -107.313E+06    -6.24513E+06    -106.844E+06    -10.2696E+06    -6.72548E+06         23.4080
            1473     9.83358E-03     74.3273E-03         1.39405    -159.989E-03        -2.02300        -2.00206    -180.926E-03         1.39405     223.852E-03     34.1061E-03    -16.9097E-03    -17.1964E-03    -16.7155E-03     33.6252E-03    -16.9097E-03     9.84288E-03    -4.70138E+06    -12.9984E+06    -87.0284E+06    -5.27737E+06    -86.4524E+06    -12.9984E+06    -6.77479E+06         23.7601
            1474     10.8171E-03     74.3380E-03         1.08584     118.826E-03        -2.04071        -1.90249    -19.3924E-03         1.08584    -546.326E-03     34.0253E-03    -16.8210E-03    -17.2042E-03    -16.6737E-03     33.4948E-03    -16.8210E-03     10.3648E-03    -4.21557E+06    -19.7112E+06    -64.3740E+06    -4.69525E+06    -63.8943E+06    -19.7112E+06    -5.28222E+06         24.3857
            1475     11.8008E-03     74.3489E-03     995.891E-03     542.034E-03        -2.41577        -1.97079     262.537E-03     830.408E-03        -2.11331     33.8946E-03    -16.6998E-03    -17.1948E-03    -16.5132E-03     33.2130E-03    -16.6998E-03     11.6034E-03    -4.58857E+06    -17.7078E+06    -45.1265E+06    -5.19320E+06    -31.3069E+06    -30.9228E+06    -3.12161E+06         25.6607
            1476     12.7847E-03     74.3621E-03     802.287E-03     458.568E-03        -2.18401        -1.81343     273.572E-03     616.699E-03        -1.76076     34.3100E-03    -16.5531E-03    -17.7569E-03    -16.3917E-03     32.9448E-03    -16.5531E-03     16.3638E-03     17.5328E+06    -9.69799E+06    -45.4137E+06    -7.09652E+06     14.9313E+06    -45.4137E+06    -1.00913E+06         28.3461
            1477     13.7682E-03     74.3833E-03     477.649E-03    -41.5899E-03        -1.40455        -1.24756    -178.468E-03     457.543E-03    -586.999E-03     35.2635E-03    -16.3906E-03    -18.8729E-03    -16.3557E-03     32.7463E-03    -16.3906E-03     22.6041E-03     68.0648E+06    -10.2460E+06    -66.5355E+06    -10.2330E+06     68.0518E+06    -66.5355E+06     846.694E+03         33.6068
            1478     14.7528E-03     74.4088E-03     968.731E-03     12.1977E-03        -2.01051    -657.558E-03    -725.219E-03     353.200E-03        -2.42515     46.7026E-03    -16.4750E-03    -30.2277E-03    -16.6012E-03     33.0762E-03    -16.4750E-03     55.2245E-03     114.869E+06    -13.6389E+06    -47.8883E+06    -13.6197E+06     114.850E+06    -47.8883E+06     1.51165E+06         42.4607
            1479     15.7380E-03     74.4991E-03         1.53475     273.177E-03        -2.91434    -155.066E-03        -1.22452     273.177E-03        -4.27359     123.437E-03    -16.7776E-03    -106.659E-03    -27.2240E-03     44.0016E-03    -16.7776E-03     217.195E-03     152.980E+06     12.4237E+06    -15.0231E+06    -14.5551E+06     152.972E+06     11.9631E+06     835.889E+03         54.3788
            1480     16.7240E-03     74.8691E-03         1.16119     199.041E-03        -2.54343     393.731E-03        -1.77597     199.041E-03        -2.66196     201.305E-03    -17.1986E-03    -184.106E-03    -40.6182E-03     57.8168E-03    -17.1986E-03     372.619E-03     199.519E+06     101.953E+06    -9.71900E+06    -9.71682E+06     199.517E+06     101.953E+06     489.214E+03         65.8803
            1481     982.582E-06     75.3091E-03         6.27877         3.11646        -9.92786         2.95242        -6.81691         3.33186         6.74082     34.5404E-03    -17.2016E-03    -17.3389E-03    -17.2295E-03     34.5307E-03    -17.3012E-03     1.30212E-03    -22.6734E+06    -24.9113E+06    -190.685E+06    -23.3484E+06    -190.674E+06    -24.2483E+06    -1.11023E+06         22.5622
            1482     1.96664E-03     75.3103E-03         6.36204         3.18709        -10.1033         3.36875        -7.11002         3.18709         11.8041     34.3714E-03    -17.1321E-03    -17.2392E-03    -17.1110E-03     34.3429E-03    -17.2318E-03     2.35118E-03    -21.2032E+06    -23.5360E+06    -181.649E+06    -22.6477E+06    -181.622E+06    -22.1188E+06    -1.65094E+06         22.5859
            1483     2.94926E-03     75.3140E-03         3.68009         3.17875        -7.44239         2.86501        -6.62731         3.17875         5.67959     34.3757E-03    -17.1689E-03    -17.2069E-03    -17.1207E-03     34.3200E-03    -17.1993E-03     3.36038E-03    -18.7282E+06    -20.7079E+06    -176.116E+06    -20.8266E+06    -175.998E+06    -18.7282E+06    -4.00791E+06         22.6259
            1484     3.93292E-03     75.3175E-03         3.30273         2.78097        -6.68676         2.27140        -5.90389         3.02944         5.22231     34.3333E-03    -17.1438E-03    -17.1895E-03    -17.0641E-03     34.2417E-03    -17.1776E-03     4.30831E-03    -16.2550E+06    -17.9141E+06    -171.250E+06    -18.0806E+06    -171.084E+06    -16.2550E+06    -4.82321E+06         22.6842
            1485     4.91615E-03     75.3229E-03         2.81969         2.18531        -5.62668         1.69623        -5.13759         2.81969         3.77347     34.3471E-03    -17.1594E-03    -17.1877E-03    -17.0535E-03     34.2161E-03    -17.1627E-03     5.17633E-03    -11.9176E+06    -14.4563E+06    -164.035E+06    -14.7312E+06    -163.760E+06    -11.9176E+06    -5.89579E+06         22.7632
            1486     5.89932E-03     75.3283E-03         2.57808         1.61627        -4.82496         1.06025        -4.26894         2.57808         3.59013     34.2888E-03    -17.1237E-03    -17.1650E-03    -16.9826E-03     34.1064E-03    -17.1237E-03     6.08869E-03    -9.15949E+06    -11.8879E+06    -149.393E+06    -11.3663E+06    -148.839E+06    -10.2357E+06    -8.45787E+06         22.8666
            1487     6.88305E-03     75.3356E-03         2.39058         1.63873        -4.67247     150.684E-03        -3.08941         2.29556         5.17522     34.2781E-03    -17.0749E-03    -17.2032E-03    -16.9561E-03     34.0310E-03    -17.0749E-03     7.10153E-03    -8.94139E+06    -10.8711E+06    -134.426E+06    -9.68758E+06    -133.680E+06    -10.8711E+06    -9.62690E+06         22.9996
            1488     7.86609E-03     75.3429E-03         2.04983         1.26198        -3.96843        -1.00325        -1.60817         1.95481         5.10525     34.2410E-03    -17.0371E-03    -17.2040E-03    -16.9050E-03     33.9420E-03    -17.0371E-03     7.81514E-03    -7.78054E+06    -11.0994E+06    -123.208E+06    -8.57163E+06    -122.417E+06    -11.0994E+06    -9.45817E+06         23.1718
            1489     8.84990E-03     75.3522E-03         1.56709     499.377E-03        -2.74592        -2.04387    -202.668E-03         1.56709         2.05013     34.1485E-03    -16.9884E-03    -17.1602E-03    -16.8107E-03     33.7990E-03    -16.9884E-03     8.43220E-03    -6.00001E+06    -11.3194E+06    -106.649E+06    -6.83369E+06    -105.815E+06    -11.3194E+06    -9.00596E+06         23.4043
            1490     9.83314E-03     75.3604E-03         1.27255     542.725E-03        -2.52675        -2.47706     584.034E-03         1.18155     768.614E-03     34.1596E-03    -16.9282E-03    -17.2314E-03    -16.7570E-03     33.6851E-03    -16.9282E-03     9.77834E-03    -4.73597E+06    -13.0018E+06    -87.4590E+06    -5.54758E+06    -86.6474E+06    -13.0018E+06    -8.11131E+06         23.7530
            1491     10.8169E-03     75.3725E-03         1.01318     575.874E-03        -2.33686        -2.27671     674.742E-03     854.163E-03    -6.96884E-03     34.0144E-03    -16.8400E-03    -17.1744E-03    -16.6502E-03     33.4902E-03    -16.8400E-03     10.2969E-03    -4.95132E+06    -20.1194E+06    -66.2108E+06    -5.64907E+06    -65.5130E+06    -20.1194E+06    -6.45592E+06         24.3702
            1492     11.8006E-03     75.3820E-03     895.147E-03     507.376E-03        -2.19543        -1.96172     566.154E-03     602.656E-03        -1.45841     33.9661E-03    -16.7146E-03    -17.2514E-03    -16.5890E-03     33.3036E-03    -16.7146E-03     11.4606E-03    -4.96728E+06    -18.9926E+06    -47.2270E+06    -6.07218E+06    -32.9235E+06    -32.1912E+06    -4.42349E+06         25.6272
            1493     12.7843E-03     75.3964E-03     773.389E-03     407.799E-03        -2.01293        -1.80929     569.754E-03     407.799E-03        -1.16007     34.3328E-03    -16.5691E-03    -17.7637E-03    -16.4192E-03     32.9883E-03    -16.5691E-03     16.2222E-03     16.5262E+06    -10.2757E+06    -46.6208E+06    -6.75690E+06     13.0074E+06    -46.6208E+06    -2.27267E+06         28.2837
            1494     13.7688E-03     75.4163E-03     549.861E-03     165.443E-03        -1.59234        -1.57992     449.348E-03     253.527E-03    -164.255E-03     35.3281E-03    -16.4026E-03    -18.9255E-03    -16.3506E-03     32.7533E-03    -16.4026E-03     22.8445E-03     65.7004E+06     -9.3205E+06    -68.1485E+06    -9.27670E+06     65.6566E+06    -68.1485E+06     158.753E+03         33.5175
            1495     14.7516E-03     75.4442E-03         1.03342     54.2714E-03        -2.02002        -1.01437    -60.3102E-03     142.355E-03        -2.14298     46.7727E-03    -16.4871E-03    -30.2856E-03    -16.7955E-03     33.2826E-03    -16.4871E-03     55.1983E-03     114.323E+06    -12.7447E+06    -49.8156E+06    -12.7089E+06     114.287E+06    -49.8156E+06     2.06519E+06         42.3807
            1496     15.7365E-03     75.5304E-03         1.57250     69.0242E-03        -2.64242    -268.830E-03    -801.087E-03     69.0242E-03        -4.10534     123.606E-03    -16.8314E-03    -106.774E-03    -28.2267E-03     45.0581E-03    -16.8314E-03     216.842E-03     155.113E+06     13.5566E+06    -14.2989E+06    -12.8835E+06     155.087E+06     12.1672E+06     1.60140E+06         54.3753
            1497     16.7205E-03     75.9041E-03         1.12870     19.7936E-03        -2.22202     348.801E-03        -1.44211     19.7936E-03        -2.45110     201.927E-03    -17.2739E-03    -184.653E-03    -40.4809E-03     57.7548E-03    -17.2739E-03     373.869E-03     200.511E+06     101.986E+06    -8.44030E+06    -8.43683E+06     200.507E+06     101.986E+06     67.6867E+03         66.0163
            1498     983.614E-06     76.3425E-03         6.33569         3.26972        -10.1126         2.37750        -6.28132         3.39661         5.84343     34.4570E-03    -17.1368E-03    -17.3202E-03    -17.3009E-03     34.4474E-03    -17.1465E-03     1.22718E-03    -23.4236E+06    -24.7153E+06    -188.465E+06    -24.7396E+06    -188.441E+06    -23.4236E+06    -809.229E+03         22.5616
            1499     1.96589E-03     76.3451E-03         5.72562         2.76229        -9.00647         2.26775        -5.54860         2.76229         11.7506     34.4805E-03    -17.1739E-03    -17.3066E-03    -17.2337E-03     34.4512E-03    -17.2175E-03     2.41240E-03    -22.7997E+06    -23.9248E+06    -177.160E+06    -23.5809E+06    -177.104E+06    -23.1995E+06    -2.66391E+06         22.5853
            1500     2.94960E-03     76.3477E-03         3.05317         2.54702        -6.13174         2.00975        -5.08831         2.54702         5.64807     34.3679E-03    -17.1452E-03    -17.2227E-03    -17.1023E-03     34.3117E-03    -17.2094E-03     3.36986E-03    -20.5190E+06    -22.7083E+06    -171.998E+06    -22.4825E+06    -171.824E+06    -20.9187E+06    -4.92933E+06         22.6252
            1501     3.93264E-03     76.3517E-03         2.86231         2.31525        -5.73403         1.78430        -4.72094         2.38016         5.39004     34.3614E-03    -17.1488E-03    -17.2126E-03    -17.0811E-03     34.2691E-03    -17.1880E-03     4.32892E-03    -18.3111E+06    -20.3568E+06    -168.692E+06    -20.7103E+06    -168.338E+06    -18.3111E+06    -7.03447E+06         22.6833
            1502     4.91595E-03     76.3567E-03         2.22234         1.98817        -4.78125         1.41942        -4.21226         2.22210         3.72877     34.3236E-03    -17.1456E-03    -17.1780E-03    -17.0316E-03     34.1891E-03    -17.1575E-03     5.23675E-03    -15.0640E+06    -17.7868E+06    -159.731E+06    -17.4187E+06    -159.053E+06    -16.1097E+06    -9.42206E+06         22.7621
            1503     5.89937E-03     76.3625E-03         2.04159         1.56247        -4.18030     882.551E-03        -3.50039         2.04159         3.64575     34.3168E-03    -17.1169E-03    -17.1999E-03    -17.0097E-03     34.1297E-03    -17.1201E-03     6.17385E-03    -11.5409E+06    -14.9912E+06    -145.343E+06    -13.6887E+06    -144.275E+06    -13.9118E+06    -11.5916E+06         22.8652
            1504     6.88260E-03     76.3691E-03         2.24112         1.51398        -4.33345     185.390E-03        -2.58785         1.82410         5.38132     34.3550E-03    -17.0882E-03    -17.2669E-03    -17.0154E-03     34.1035E-03    -17.0882E-03     7.17196E-03    -9.83051E+06    -12.8843E+06    -133.610E+06    -10.9433E+06    -132.497E+06    -12.8843E+06    -11.5381E+06         22.9980
            1505     7.86603E-03     76.3776E-03         1.98634         1.25791        -3.83188    -574.171E-03        -1.58278         1.56932         5.36647     34.2669E-03    -17.0536E-03    -17.2133E-03    -16.9200E-03     33.9737E-03    -17.0536E-03     7.74586E-03    -8.33589E+06    -12.7145E+06    -121.848E+06    -9.44538E+06    -120.739E+06    -12.7145E+06    -11.0806E+06         23.1698
            1506     8.84944E-03     76.3850E-03         1.27918     584.823E-03        -2.46744        -1.47269    -409.929E-03         1.27918         2.32413     34.1305E-03    -17.0042E-03    -17.1262E-03    -16.7758E-03     33.7800E-03    -17.0042E-03     8.42516E-03    -7.00850E+06    -12.9802E+06    -106.714E+06    -8.26719E+06    -105.455E+06    -12.9802E+06    -11.0807E+06         23.4011
            1507     9.83323E-03     76.3953E-03         1.12468     580.484E-03        -2.33680        -2.24012     645.051E-03     963.433E-03         1.00521     34.1694E-03    -16.9446E-03    -17.2249E-03    -16.7462E-03     33.6907E-03    -16.9446E-03     9.83934E-03    -6.10752E+06    -14.2857E+06    -88.9193E+06    -7.24542E+06    -87.7814E+06    -14.2857E+06    -9.57403E+06         23.7467
            1508     10.8165E-03     76.4053E-03         1.06348     664.228E-03        -2.39245        -2.34768         1.01870     664.228E-03     249.609E-03     34.0839E-03    -16.8580E-03    -17.2259E-03    -16.7083E-03     33.5663E-03    -16.8580E-03     10.2474E-03    -5.33569E+06    -20.8608E+06    -67.5073E+06    -6.39995E+06    -66.4430E+06    -20.8608E+06    -7.91781E+06         24.3556
            1509     11.8004E-03     76.4165E-03     968.450E-03     425.407E-03        -2.09456        -1.97658     850.473E-03     425.407E-03    -996.368E-03     34.0710E-03    -16.7339E-03    -17.3371E-03    -16.6593E-03     33.3932E-03    -16.7339E-03     11.5960E-03    -3.73630E+06    -21.3064E+06    -47.9431E+06    -5.94674E+06    -33.9293E+06    -33.1097E+06    -6.67235E+06         25.5948
            1510     12.7838E-03     76.4298E-03     851.505E-03     247.298E-03        -1.83952        -1.72703     739.015E-03     247.298E-03    -642.460E-03     34.4361E-03    -16.5970E-03    -17.8391E-03    -16.5432E-03     33.1402E-03    -16.5970E-03     16.0386E-03     16.0145E+06    -11.6313E+06    -47.1309E+06    -6.26391E+06     10.6471E+06    -47.1309E+06    -4.37148E+06         28.2225
            1511     13.7676E-03     76.4500E-03     754.032E-03     106.770E-03        -1.64179        -1.62787     740.107E-03     106.770E-03     275.845E-03     35.1067E-03    -16.4257E-03    -18.6809E-03    -16.0769E-03     32.5026E-03    -16.4257E-03     22.7432E-03     61.7972E+06    -8.44506E+06    -68.4596E+06    -8.33025E+06     61.6824E+06    -68.4596E+06    -766.151E+03         33.4301
            1512     14.7529E-03     76.4782E-03         1.21816     638.721E-06        -2.04785        -1.19324     363.545E-03     638.721E-06        -1.88878     46.8683E-03    -16.4789E-03    -30.3894E-03    -16.7534E-03     33.2323E-03    -16.4789E-03     55.8829E-03     111.850E+06    -10.8760E+06    -52.7634E+06    -10.8476E+06     111.821E+06    -52.7634E+06     1.64750E+06         42.3058
            1513     15.7367E-03     76.5650E-03         1.51564    -64.6162E-03        -2.32932    -458.866E-03    -354.807E-03    -64.6162E-03        -3.76488     124.409E-03    -16.8220E-03    -107.587E-03    -28.5065E-03     45.3285E-03    -16.8220E-03     218.257E-03     157.605E+06     15.9069E+06    -16.3377E+06    -10.7402E+06     157.576E+06     10.3378E+06     1.87035E+06         54.3899
            1514     16.7209E-03     76.9399E-03     893.127E-03    -96.3999E-03        -1.69837     130.653E-03    -935.891E-03    -96.3999E-03        -2.06770     202.169E-03    -17.2752E-03    -184.893E-03    -40.3221E-03     57.5973E-03    -17.2752E-03     374.452E-03     202.995E+06     102.557E+06    -7.15684E+06    -7.14358E+06     202.982E+06     102.557E+06     1.00247E+06         66.1693
            1515     983.068E-06     77.3777E-03         6.32809         2.57425        -9.36514         1.52081        -4.89568         2.91207         6.24183     34.3571E-03    -17.0716E-03    -17.2855E-03    -17.2423E-03     34.3462E-03    -17.1039E-03     1.39937E-03    -24.4017E+06    -27.5494E+06    -184.326E+06    -25.0707E+06    -184.286E+06    -26.9208E+06    -1.30268E+06         22.5602
            1516     1.96646E-03     77.3790E-03         5.70181         2.08779        -8.27133         1.57924        -4.14875         2.08779         12.3230     34.4239E-03    -17.1064E-03    -17.3176E-03    -17.2228E-03     34.3953E-03    -17.1725E-03     2.38766E-03    -24.0260E+06    -26.3403E+06    -172.816E+06    -25.1341E+06    -172.734E+06    -25.3144E+06    -3.21066E+06         22.5839
            1517     2.94937E-03     77.3818E-03         2.84546         1.85663        -5.20349         1.24430        -3.60233         1.85663         6.22282     34.4110E-03    -17.1529E-03    -17.2581E-03    -17.1634E-03     34.3522E-03    -17.1889E-03     3.43357E-03    -21.8290E+06    -24.2292E+06    -167.470E+06    -23.9828E+06    -167.208E+06    -22.3384E+06    -5.88354E+06         22.6238
            1518     3.93264E-03     77.3860E-03         2.59483         1.67517        -4.79234         1.06116        -3.25866         1.67517         5.79481     34.3645E-03    -17.1690E-03    -17.1955E-03    -17.0894E-03     34.2694E-03    -17.1800E-03     4.40519E-03    -19.5565E+06    -21.4355E+06    -164.205E+06    -21.5931E+06    -163.607E+06    -19.9971E+06    -8.99179E+06         22.6820
            1519     4.91595E-03     77.3906E-03         1.82699         1.50359        -3.85876     903.485E-03        -2.96384         1.53217         4.01807     34.3168E-03    -17.1270E-03    -17.1898E-03    -17.0385E-03     34.1775E-03    -17.1389E-03     5.32458E-03    -17.5408E+06    -20.4703E+06    -154.027E+06    -19.1327E+06    -152.835E+06    -20.0706E+06    -12.3600E+06         22.7610
            1520     5.89936E-03     77.3965E-03         1.70252         1.30906        -3.54232     554.863E-03        -2.48092         1.39531         4.07175     34.3778E-03    -17.1065E-03    -17.2713E-03    -17.0753E-03     34.1850E-03    -17.1097E-03     6.28627E-03    -15.6204E+06    -18.7887E+06    -142.051E+06    -17.3138E+06    -140.357E+06    -18.7887E+06    -14.4507E+06         22.8642
            1521     6.88247E-03     77.4035E-03         2.25650         1.18067        -3.96106     81.5819E-03        -1.84381         1.23834         5.71569     34.3554E-03    -17.0939E-03    -17.2615E-03    -17.0120E-03     34.1058E-03    -17.0939E-03     7.14502E-03    -13.7954E+06    -16.8569E+06    -133.324E+06    -15.5017E+06    -131.618E+06    -16.8569E+06    -14.0946E+06         22.9969
            1522     7.86594E-03     77.4111E-03         2.07688     977.813E-03        -3.57805    -370.452E-03        -1.21475         1.06184         5.49618     34.2269E-03    -17.0553E-03    -17.1716E-03    -16.8743E-03     33.9296E-03    -17.0553E-03     7.78691E-03    -11.5112E+06    -16.2596E+06    -120.353E+06    -13.1994E+06    -118.665E+06    -16.2596E+06    -13.3097E+06         23.1683
            1523     8.84931E-03     77.4195E-03         1.01427     459.457E-03        -2.00716    -781.773E-03    -627.824E-03     876.160E-03         2.40584     34.2052E-03    -17.0125E-03    -17.1926E-03    -16.8381E-03     33.8506E-03    -17.0125E-03     8.49062E-03    -9.26388E+06    -15.3879E+06    -106.388E+06    -11.0341E+06    -104.618E+06    -15.3879E+06    -12.9191E+06         23.3985
            1524     9.83288E-03     77.4282E-03     752.423E-03     279.247E-03        -1.58653        -1.28580     48.7635E-03     682.171E-03         1.08909     34.1810E-03    -16.9526E-03    -17.2284E-03    -16.7532E-03     33.7057E-03    -16.9526E-03     9.80245E-03    -7.24344E+06    -17.4094E+06    -90.2931E+06    -9.10432E+06    -88.4322E+06    -17.4094E+06    -12.1442E+06         23.7408
            1525     10.8166E-03     77.4402E-03     869.646E-03     408.421E-03        -1.86357        -1.77600     711.824E-03     478.672E-03     255.391E-03     34.1033E-03    -16.8635E-03    -17.2397E-03    -16.7176E-03     33.5812E-03    -16.8635E-03     10.2961E-03    -4.86930E+06    -23.7553E+06    -68.7980E+06    -6.93783E+06    -66.7295E+06    -23.7553E+06    -11.0759E+06         24.3414
            1526     11.7999E-03     77.4495E-03         1.10038     283.136E-03        -1.99696        -1.90547         1.00889     283.136E-03    -943.613E-03     34.1238E-03    -16.7438E-03    -17.3799E-03    -16.6805E-03     33.4243E-03    -16.7438E-03     11.7812E-03    -2.56357E+06    -24.4593E+06    -49.6735E+06    -5.77446E+06    -35.7041E+06    -35.2178E+06    -9.19182E+06         25.5631
            1527     12.7838E-03     77.4647E-03         1.02483     120.674E-03        -1.79125        -1.68704     920.614E-03     120.674E-03    -375.565E-03     34.5061E-03    -16.6109E-03    -17.8952E-03    -16.5517E-03     33.1626E-03    -16.6109E-03     16.3477E-03     15.5085E+06    -14.7993E+06    -48.8722E+06    -7.04335E+06     7.75261E+06    -48.8722E+06    -5.84660E+06         28.1629
            1528     13.7674E-03     77.4833E-03     710.877E-03     1.20870E-03        -1.39090        -1.34328     663.257E-03     1.20870E-03     594.289E-03     35.0697E-03    -16.4489E-03    -18.6208E-03    -16.1375E-03     32.5864E-03    -16.4489E-03     22.2961E-03     58.8598E+06    -9.61961E+06    -68.7418E+06    -9.43181E+06     58.6720E+06    -68.7418E+06    -2.12652E+06         33.3440
            1529     14.7524E-03     77.5104E-03         1.14005    -79.6637E-03        -1.77937    -994.439E-03     355.119E-03    -79.6637E-03        -1.69990     47.1606E-03    -16.4886E-03    -30.6721E-03    -16.7114E-03     33.2000E-03    -16.4886E-03     56.2864E-03     110.176E+06    -11.0694E+06    -54.6910E+06    -11.0465E+06     110.153E+06    -54.6910E+06     237.759E+03         42.2298
            1530     15.7365E-03     77.6019E-03         1.56042    -131.334E-03        -2.17304    -619.149E-03     6.52327E-03    -131.334E-03        -3.64936     123.651E-03    -16.7948E-03    -106.857E-03    -27.6872E-03     44.4820E-03    -16.7948E-03     217.311E-03     157.213E+06     12.8832E+06    -19.9120E+06    -12.0868E+06     157.202E+06     5.06939E+06     1.11989E+06         54.4001
            1531     16.7236E-03     77.9708E-03     878.917E-03    -158.421E-03        -1.45940    -123.777E-03    -456.709E-03    -158.421E-03        -2.13340     201.451E-03    -17.2399E-03    -184.211E-03    -39.9960E-03     57.2359E-03    -17.2399E-03     373.199E-03     203.646E+06     99.6077E+06    -8.45214E+06    -8.44230E+06     203.636E+06     99.6077E+06     1.03953E+06         66.3133
            1532     983.155E-06     78.4109E-03         6.13699         1.62463        -8.17068     785.138E-03        -3.32319         2.12899         7.28229     34.4042E-03    -17.1436E-03    -17.2605E-03    -17.1985E-03     34.3942E-03    -17.1956E-03     1.36531E-03    -22.8953E+06    -27.4870E+06    -179.379E+06    -24.7812E+06    -179.292E+06    -25.6880E+06    -3.51187E+06         22.5583
            1533     1.96648E-03     78.4134E-03         5.98184         1.37395        -7.79482         1.04749        -2.86047         1.37395         13.0096     34.3163E-03    -17.0956E-03    -17.2207E-03    -17.1246E-03     34.2889E-03    -17.1643E-03     2.31618E-03    -22.7884E+06    -26.7215E+06    -168.681E+06    -23.8038E+06    -168.518E+06    -25.8693E+06    -4.54240E+06         22.5820
            1534     2.94952E-03     78.4161E-03         2.89336         1.18431        -4.55670     548.181E-03        -2.21152         1.18431         6.77188     34.3663E-03    -17.1303E-03    -17.2360E-03    -17.1591E-03     34.3083E-03    -17.1491E-03     3.41009E-03    -21.5149E+06    -24.8454E+06    -161.473E+06    -22.7985E+06    -161.042E+06    -23.9932E+06    -7.44544E+06         22.6222
            1535     3.93275E-03     78.4199E-03         2.53742     994.041E-03        -4.01865     340.643E-03        -1.82187     994.041E-03         6.09513     34.3651E-03    -17.1503E-03    -17.2147E-03    -17.1175E-03     34.2701E-03    -17.1525E-03     4.40113E-03    -19.8962E+06    -20.9253E+06    -158.063E+06    -20.8595E+06    -157.100E+06    -20.9253E+06    -11.2230E+06         22.6808
            1536     4.91603E-03     78.4247E-03         1.87051     847.447E-03        -3.22120     229.987E-03        -1.58067     847.447E-03         4.61087     34.4052E-03    -17.1347E-03    -17.2705E-03    -17.1280E-03     34.2627E-03    -17.1347E-03     5.39210E-03    -17.2935E+06    -19.5694E+06    -147.800E+06    -18.9845E+06    -146.109E+06    -19.5694E+06    -14.5244E+06         22.7601
            1537     5.89901E-03     78.4307E-03         1.82748     718.726E-03        -3.03707    -38.4183E-03        -1.17117     718.726E-03         4.57941     34.4227E-03    -17.1252E-03    -17.2975E-03    -17.1017E-03     34.2269E-03    -17.1252E-03     6.33943E-03    -15.6646E+06    -18.7112E+06    -139.358E+06    -18.2454E+06    -137.383E+06    -18.1056E+06    -15.4493E+06         22.8636
            1538     6.88241E-03     78.4376E-03         2.45674     594.968E-03        -3.53365    -192.335E-03    -884.568E-03     594.968E-03         5.87788     34.3373E-03    -17.1084E-03    -17.2289E-03    -16.9840E-03     34.0924E-03    -17.1084E-03     7.07978E-03    -14.4230E+06    -17.2936E+06    -131.348E+06    -17.2348E+06    -129.141E+06    -16.6880E+06    -15.7155E+06         22.9963
            1539     7.86574E-03     78.4450E-03         2.35397     492.636E-03        -3.31712    -172.579E-03    -790.568E-03     492.636E-03         5.62204     34.2343E-03    -17.0583E-03    -17.1760E-03    -16.8815E-03     33.9399E-03    -17.0583E-03     7.74974E-03    -12.1537E+06    -17.9017E+06    -118.884E+06    -14.8264E+06    -116.211E+06    -17.9017E+06    -16.5589E+06         23.1673
            1540     8.84948E-03     78.4533E-03         1.04482     291.957E-03        -1.80919    -192.197E-03    -693.455E-03     413.237E-03         2.67263     34.2375E-03    -17.0141E-03    -17.2234E-03    -16.8621E-03     33.8762E-03    -17.0141E-03     8.57444E-03    -9.21603E+06    -17.8443E+06    -106.839E+06    -12.0145E+06    -104.041E+06    -17.8443E+06    -16.1617E+06         23.3964
            1541     9.83246E-03     78.4628E-03     475.351E-03     146.408E-03        -1.10834    -420.591E-03    -403.926E-03     337.939E-03         1.28110     34.2472E-03    -16.9558E-03    -17.2914E-03    -16.8125E-03     33.7683E-03    -16.9558E-03     9.85635E-03    -6.09668E+06    -19.6939E+06    -90.5513E+06    -9.17145E+06    -87.4765E+06    -19.6939E+06    -15.6356E+06         23.7353
            1542     10.8162E-03     78.4730E-03     454.332E-03     175.142E-03        -1.13431    -886.770E-03     136.539E-03     245.393E-03     183.663E-03     34.0845E-03    -16.8669E-03    -17.2176E-03    -16.6785E-03     33.5454E-03    -16.8669E-03     10.4601E-03    -3.99253E+06    -26.4051E+06    -70.6557E+06    -7.19611E+06    -67.4521E+06    -26.4051E+06    -14.1886E+06         24.3273
            1543     11.8000E-03     78.4846E-03     829.061E-03     130.927E-03        -1.48886        -1.32430     664.508E-03     130.927E-03        -1.08057     34.0763E-03    -16.7459E-03    -17.3303E-03    -16.6186E-03     33.3645E-03    -16.7459E-03     11.9080E-03    -3.17608E+06    -27.6767E+06    -52.6673E+06    -7.30797E+06    -38.3040E+06    -37.9081E+06    -11.0595E+06         25.5315
            1544     12.7835E-03     78.4972E-03     939.826E-03     15.9643E-03        -1.50189        -1.35109     789.031E-03     15.9643E-03    -366.770E-03     34.4519E-03    -16.6033E-03    -17.8486E-03    -16.4945E-03     33.0978E-03    -16.6033E-03     16.3717E-03     13.3310E+06    -17.3859E+06    -52.4667E+06    -8.27412E+06     4.21918E+06    -52.4667E+06    -7.64347E+06         28.1034
            1545     13.7678E-03     78.5183E-03     561.894E-03    -71.3018E-03        -1.06209        -1.00299     502.791E-03    -71.3018E-03     606.505E-03     35.4164E-03    -16.4500E-03    -18.9663E-03    -16.5365E-03     32.9866E-03    -16.4500E-03     22.3059E-03     56.7357E+06    -10.1507E+06    -72.0867E+06    -9.54011E+06     56.1251E+06    -72.0867E+06    -4.69036E+06         33.2563
            1546     14.7509E-03     78.5432E-03         1.02983    -126.378E-03        -1.50194    -730.632E-03     258.521E-03    -126.378E-03        -1.66732     47.4473E-03    -16.5011E-03    -30.9463E-03    -16.7545E-03     33.2556E-03    -16.5011E-03     56.4477E-03     108.560E+06    -11.7888E+06    -58.3664E+06    -11.7049E+06     108.476E+06    -58.3664E+06    -778.353E+03         42.1471
            1547     15.7362E-03     78.6365E-03         1.69467    -164.810E-03        -2.14957    -630.544E-03     175.643E-03    -164.810E-03        -3.75741     123.386E-03    -16.7925E-03    -106.594E-03    -27.4468E-03     44.2394E-03    -16.7925E-03     217.136E-03     155.938E+06     9.59041E+06    -21.3136E+06    -11.8073E+06     155.922E+06     99.3945E+03     1.28803E+06         54.3941
            1548     16.7207E-03     79.0016E-03         1.03505    -185.983E-03        -1.49169    -238.932E-03    -217.704E-03    -185.983E-03        -2.39777     201.181E-03    -17.2440E-03    -183.937E-03    -40.0029E-03     57.2470E-03    -17.2440E-03     372.628E-03     204.067E+06     96.9879E+06    -7.90944E+06    -7.90637E+06     204.064E+06     96.9879E+06     613.661E+03         66.4394
            1549     982.981E-06     79.4456E-03         5.66544     960.759E-03        -6.97768     57.1605E-03        -1.69026         1.28161         7.72887     34.4732E-03    -17.1824E-03    -17.2908E-03    -17.2413E-03     34.4641E-03    -17.2228E-03     1.21722E-03    -19.7635E+06    -24.0952E+06    -173.110E+06    -21.6639E+06    -173.009E+06    -22.2962E+06    -3.67113E+06         22.5560
            1550     1.96607E-03     79.4471E-03         6.13607     585.837E-03        -7.11624     258.702E-03        -1.23887     585.837E-03         13.0902     34.3193E-03    -17.1261E-03    -17.1931E-03    -17.1158E-03     34.2909E-03    -17.1751E-03     2.35262E-03    -22.3759E+06    -26.4910E+06    -163.095E+06    -22.7075E+06    -162.763E+06    -26.4910E+06    -6.41014E+06         22.5801
            1551     2.94969E-03     79.4503E-03         3.12310     431.067E-03        -3.98941     7.86994E-03    -874.176E-03     431.067E-03         6.99281     34.2734E-03    -17.1024E-03    -17.1711E-03    -17.0854E-03     34.2171E-03    -17.1317E-03     3.36655E-03    -21.2343E+06    -25.8604E+06    -154.771E+06    -21.9635E+06    -154.041E+06    -25.8604E+06    -9.57592E+06         22.6207
            1552     3.93277E-03     79.4540E-03         2.70340     292.150E-03        -3.46227    -231.458E-03    -527.412E-03     292.150E-03         6.06196     34.4028E-03    -17.1439E-03    -17.2589E-03    -17.1661E-03     34.3100E-03    -17.1439E-03     4.34715E-03    -18.6816E+06    -20.5655E+06    -150.479E+06    -20.5865E+06    -149.062E+06    -20.0772E+06    -13.2847E+06         22.6798
            1553     4.91585E-03     79.4589E-03         2.13546     158.434E-03        -2.76730    -489.413E-03    -142.425E-03     158.434E-03         4.75868     34.4424E-03    -17.1495E-03    -17.2929E-03    -17.1500E-03     34.2994E-03    -17.1495E-03     5.40107E-03    -16.6859E+06    -18.5290E+06    -143.323E+06    -19.6765E+06    -141.384E+06    -17.4777E+06    -15.4311E+06         22.7595
            1554     5.89916E-03     79.4650E-03         2.21786     35.2743E-03        -2.71883    -617.016E-03     116.054E-03     35.2743E-03         4.82036     34.3974E-03    -17.1381E-03    -17.2593E-03    -17.0651E-03     34.2032E-03    -17.1381E-03     6.31268E-03    -15.1447E+06    -17.7595E+06    -136.349E+06    -18.5464E+06    -134.116E+06    -16.5910E+06    -16.0590E+06         22.8631
            1555     6.88234E-03     79.4715E-03         2.84738    -49.5133E-03        -3.24150    -415.904E-03     21.7779E-03    -49.5133E-03         6.03995     34.3521E-03    -17.1056E-03    -17.2465E-03    -17.0002E-03     34.1058E-03    -17.1056E-03     7.09890E-03    -12.2946E+06    -17.3342E+06    -127.138E+06    -15.9769E+06    -124.061E+06    -16.7286E+06    -18.2120E+06         22.9957
            1556     7.86579E-03     79.4791E-03         2.66228    -75.0880E-03        -3.01716     2.05839E-03    -356.938E-03    -75.0880E-03         5.63173     34.3096E-03    -17.0569E-03    -17.2528E-03    -16.9576E-03     34.0145E-03    -17.0569E-03     7.77535E-03    -9.49823E+06    -19.0432E+06    -116.968E+06    -13.2503E+06    -113.216E+06    -19.0432E+06    -19.6797E+06         23.1665
            1557     8.84881E-03     79.4872E-03         1.23234    -60.0200E-03        -1.59211     197.513E-03    -557.286E-03    -60.0200E-03         2.70058     34.1996E-03    -17.0114E-03    -17.1881E-03    -16.8244E-03     33.8358E-03    -17.0114E-03     8.59273E-03    -6.87179E+06    -20.0011E+06    -106.987E+06    -10.9686E+06    -102.890E+06    -20.0011E+06    -19.7439E+06         23.3943
            1558     9.83302E-03     79.4965E-03     543.576E-03    -42.2076E-03    -920.848E-03     105.415E-03    -482.686E-03    -42.2076E-03         1.30076     34.2251E-03    -16.9499E-03    -17.2752E-03    -16.7819E-03     33.7318E-03    -16.9499E-03     9.99952E-03    -4.73567E+06    -21.8757E+06    -91.0781E+06    -9.14384E+06    -86.6700E+06    -21.8757E+06    -18.9268E+06         23.7300
            1559     10.8160E-03     79.5074E-03     343.254E-03    -38.9739E-03    -730.321E-03    -54.8429E-03    -332.224E-03    -38.9739E-03     280.224E-03     34.1305E-03    -16.8645E-03    -17.2660E-03    -16.7304E-03     33.5949E-03    -16.8645E-03     10.4268E-03    -3.98673E+06    -28.8477E+06    -73.0247E+06    -8.28503E+06    -68.7264E+06    -28.8477E+06    -16.6097E+06         24.3134
            1560     11.7999E-03     79.5174E-03     519.978E-03    -54.8462E-03    -897.831E-03    -354.264E-03    -23.5894E-03    -54.8462E-03        -1.00421     33.9936E-03    -16.7413E-03    -17.2522E-03    -16.5207E-03     33.2621E-03    -16.7413E-03     11.9859E-03    -2.06926E+06    -31.0104E+06    -55.6150E+06    -7.49297E+06    -40.8547E+06    -40.3470E+06    -13.5510E+06         25.4994
            1561     12.7837E-03     79.5323E-03     560.903E-03    -89.2376E-03    -916.736E-03    -606.538E-03     250.704E-03    -89.2376E-03    -559.059E-03     34.5256E-03    -16.5915E-03    -17.9342E-03    -16.5600E-03     33.1515E-03    -16.5915E-03     16.5738E-03     13.0308E+06    -19.4627E+06    -55.6230E+06    -7.65542E+06     1.22345E+06    -55.6230E+06    -10.4021E+06         28.0421
            1562     13.7673E-03     79.5507E-03     340.176E-03    -128.405E-03    -668.336E-03    -626.407E-03     298.247E-03    -128.405E-03     399.202E-03     35.6739E-03    -16.4420E-03    -19.2319E-03    -16.6664E-03     33.1084E-03    -16.4420E-03     22.9146E-03     53.5375E+06    -10.8017E+06    -75.9516E+06    -9.56448E+06     52.3003E+06    -75.9516E+06    -6.28787E+06         33.1651
            1563     14.7510E-03     79.5802E-03         1.01538    -160.650E-03        -1.33222    -553.869E-03     237.027E-03    -160.650E-03        -1.63032     47.1427E-03    -16.5054E-03    -30.6373E-03    -16.8599E-03     33.3652E-03    -16.5054E-03     55.9105E-03     106.491E+06    -11.5631E+06    -60.8204E+06    -11.4318E+06     106.360E+06    -60.8204E+06    -2.51621E+06         42.0583
            1564     15.7368E-03     79.6654E-03         1.64037    -180.939E-03        -1.96281    -406.760E-03     84.3244E-03    -180.939E-03        -3.54918     123.548E-03    -16.8014E-03    -106.747E-03    -27.6169E-03     44.4183E-03    -16.8014E-03     217.163E-03     154.498E+06     8.86690E+06    -21.7615E+06    -10.7738E+06     154.441E+06    -2.06422E+06    -211.050E+03         54.3819
            1565     16.7218E-03     80.0420E-03         1.04454    -178.349E-03        -1.38000    -73.6964E-03    -261.767E-03    -178.349E-03        -2.32131     201.315E-03    -17.2514E-03    -184.064E-03    -39.9172E-03     57.1686E-03    -17.2514E-03     372.939E-03     204.062E+06     95.6223E+06    -6.83790E+06    -6.83060E+06     204.054E+06     95.6223E+06     1.18115E+06         66.5601
            1566     983.323E-06     80.4797E-03         5.65274     60.1918E-03        -5.98994        -1.04882     602.899E-03     168.910E-03         7.98419     34.3304E-03    -17.1179E-03    -17.2125E-03    -17.1814E-03     34.3201E-03    -17.1388E-03     1.31868E-03    -25.7631E+06    -29.1555E+06    -165.583E+06    -27.0334E+06    -165.446E+06    -28.0222E+06    -4.00572E+06         22.5540
            1567     1.96640E-03     80.4814E-03         6.44633    -436.842E-03        -6.33787    -415.330E-03     523.785E-03    -436.842E-03         12.6944     34.3521E-03    -17.1373E-03    -17.2148E-03    -17.1736E-03     34.3237E-03    -17.1501E-03     2.37070E-03    -25.3344E+06    -27.7715E+06    -154.977E+06    -26.4204E+06    -154.405E+06    -27.2575E+06    -7.86496E+06         22.5786
            1568     2.94933E-03     80.4841E-03         3.63750    -447.791E-03        -3.58649    -528.559E-03     579.572E-03    -447.791E-03         7.03883     34.3341E-03    -17.1321E-03    -17.2020E-03    -17.1309E-03     34.2758E-03    -17.1449E-03     3.41534E-03    -22.9244E+06    -26.1903E+06    -147.409E+06    -24.6472E+06    -146.148E+06    -25.7278E+06    -12.1959E+06         22.6197
            1569     3.93271E-03     80.4884E-03         3.21491    -512.299E-03        -3.13750    -892.678E-03     970.085E-03    -512.299E-03         5.91823     34.3775E-03    -17.1502E-03    -17.2273E-03    -17.1324E-03     34.2826E-03    -17.1502E-03     4.40093E-03    -20.7317E+06    -22.6879E+06    -143.939E+06    -23.0564E+06    -142.103E+06    -22.1995E+06    -14.7633E+06         22.6789
            1570     4.91578E-03     80.4931E-03         2.61560    -600.157E-03        -2.46068    -963.488E-03         1.11841    -600.157E-03         4.57606     34.4072E-03    -17.1552E-03    -17.2520E-03    -17.1127E-03     34.2679E-03    -17.1552E-03     5.33292E-03    -18.1716E+06    -19.7280E+06    -139.423E+06    -21.5372E+06    -137.108E+06    -18.6768E+06    -16.3788E+06         22.7587
            1571     5.89901E-03     80.4990E-03         2.66668    -646.915E-03        -2.45406    -722.859E-03     935.472E-03    -646.915E-03         4.82444     34.3605E-03    -17.1281E-03    -17.2324E-03    -17.0417E-03     34.1698E-03    -17.1281E-03     6.24808E-03    -14.1442E+06    -18.9674E+06    -131.436E+06    -18.0443E+06    -128.099E+06    -18.4045E+06    -19.0523E+06         22.8623
            1572     6.88241E-03     80.5057E-03         3.27795    -642.758E-03        -3.04927    -441.065E-03     669.738E-03    -642.758E-03         6.20679     34.3255E-03    -17.0888E-03    -17.2367E-03    -16.9917E-03     34.0805E-03    -17.0888E-03     7.07802E-03    -10.3991E+06    -19.0782E+06    -122.846E+06    -14.7239E+06    -118.521E+06    -19.0782E+06    -21.5257E+06         22.9949
            1573     7.86555E-03     80.5132E-03         2.91414    -604.943E-03        -2.69848    -169.595E-03     385.254E-03    -604.943E-03         5.52656     34.2763E-03    -17.0483E-03    -17.2280E-03    -16.9263E-03     33.9746E-03    -17.0483E-03     7.85246E-03    -8.17722E+06    -20.3394E+06    -115.316E+06    -13.0413E+06    -110.452E+06    -20.3394E+06    -22.1882E+06         23.1653
            1574     8.84929E-03     80.5212E-03         1.38337    -471.760E-03        -1.27772     251.374E-03    -79.7173E-03    -537.771E-03         2.38314     34.2451E-03    -17.0047E-03    -17.2403E-03    -16.8748E-03     33.8795E-03    -17.0047E-03     8.63447E-03    -5.87902E+06    -21.2007E+06    -105.361E+06    -11.4464E+06     -99.794E+06    -21.2007E+06    -22.7387E+06         23.3922
            1575     9.83234E-03     80.5301E-03     872.907E-03    -376.925E-03    -846.551E-03     655.231E-03    -562.865E-03    -442.936E-03         1.02629     34.2118E-03    -16.9501E-03    -17.2617E-03    -16.7686E-03     33.7187E-03    -16.9501E-03     9.98331E-03    -3.67445E+06    -23.0457E+06    -92.7011E+06    -9.52989E+06    -86.8457E+06    -23.0457E+06    -22.0020E+06         23.7246
            1576     10.8164E-03     80.5417E-03     817.813E-03    -342.521E-03    -814.905E-03     734.891E-03    -731.983E-03    -342.521E-03     359.015E-03     34.0851E-03    -16.8608E-03    -17.2242E-03    -16.6889E-03     33.5497E-03    -16.8608E-03     10.4135E-03    -1.57436E+06    -29.9366E+06    -75.3586E+06    -7.52110E+06    -69.4118E+06    -29.9366E+06    -19.9947E+06         24.2995
            1577     11.7996E-03     80.5510E-03     775.011E-03    -262.449E-03    -843.638E-03     548.934E-03    -617.561E-03    -262.449E-03    -811.821E-03     34.0245E-03    -16.7347E-03    -17.2898E-03    -16.5716E-03     33.3063E-03    -16.7347E-03     11.8806E-03     1.27179E+06    -34.0504E+06    -57.9947E+06    -6.20074E+06    -42.5823E+06    -41.9902E+06    -17.3661E+06         25.4668
            1578     12.7841E-03     80.5654E-03     579.007E-03    -212.676E-03    -695.363E-03     260.378E-03    -376.735E-03    -212.676E-03    -577.052E-03     34.5627E-03    -16.5923E-03    -17.9704E-03    -16.5239E-03     33.1162E-03    -16.5923E-03     16.9277E-03     13.6981E+06    -22.2347E+06    -56.1871E+06    -6.61407E+06    -1.92257E+06    -56.1871E+06    -12.9676E+06         27.9783
            1579     13.7671E-03     80.5864E-03     302.731E-03    -190.468E-03    -446.664E-03    -28.7441E-03    -115.189E-03    -190.468E-03     362.121E-03     35.5414E-03    -16.4402E-03    -19.1012E-03    -16.4705E-03     32.9108E-03    -16.4402E-03     23.1830E-03     49.2085E+06    -11.1301E+06    -75.9702E+06    -9.32353E+06     47.4019E+06    -75.9702E+06    -7.26570E+06         33.0700
            1580     14.7518E-03     80.6121E-03     982.579E-03    -184.064E-03        -1.15021    -140.416E-03    -27.2191E-03    -184.064E-03        -1.48863     47.4001E-03    -16.4947E-03    -30.9054E-03    -16.9929E-03     33.4876E-03    -16.4947E-03     56.4492E-03     103.748E+06    -12.9357E+06    -61.7925E+06    -12.7613E+06     103.573E+06    -61.7925E+06    -3.88189E+06         41.9661
            1581     15.7340E-03     80.7024E-03         1.60578    -172.496E-03        -1.79478     35.3535E-03    -224.357E-03    -172.496E-03        -3.34486     123.650E-03    -16.7943E-03    -106.856E-03    -27.9260E-03     44.7203E-03    -16.7943E-03     217.143E-03     152.832E+06     4.13121E+06    -24.1729E+06    -14.0803E+06     152.769E+06    -5.89801E+06    -2.35266E+06         54.3628
            1582     16.7218E-03     81.0692E-03         1.12238    -142.116E-03        -1.29280     244.303E-03    -414.727E-03    -142.116E-03        -2.28583     200.846E-03    -17.2467E-03    -183.599E-03    -39.6374E-03     56.8841E-03    -17.2467E-03     372.113E-03     202.197E+06     90.6345E+06    -9.41199E+06    -9.39460E+06     202.180E+06     90.6345E+06    -336.732E+03         66.6733
            1583     983.097E-06     81.5136E-03         6.44259        -1.04517        -5.60444        -2.04897         2.88711        -1.04517         8.67062     34.2668E-03    -17.0453E-03    -17.2215E-03    -17.2115E-03     34.2568E-03    -17.0453E-03     1.39219E-03    -28.9784E+06    -30.6102E+06    -157.234E+06    -30.8235E+06    -156.930E+06    -29.0693E+06    -4.25761E+06         22.5529
            1584     1.96633E-03     81.5157E-03         7.16737        -1.48265        -5.95939        -1.21782         2.42579        -1.48265         12.4521     34.3432E-03    -17.1318E-03    -17.2114E-03    -17.1795E-03     34.3155E-03    -17.1360E-03     2.31244E-03    -26.7593E+06    -28.1907E+06    -144.548E+06    -28.5492E+06    -143.680E+06    -27.2689E+06    -9.59740E+06         22.5778
            1585     2.94946E-03     81.5185E-03         4.67758        -1.40716        -3.62832        -1.33429         2.38355        -1.40716         7.30695     34.3824E-03    -17.1457E-03    -17.2366E-03    -17.1728E-03     34.3227E-03    -17.1499E-03     3.46222E-03    -25.3686E+06    -27.1741E+06    -139.537E+06    -27.7430E+06    -137.912E+06    -26.4243E+06    -13.3561E+06         22.6190
            1586     3.93242E-03     81.5224E-03         4.05727        -1.40298        -3.04738        -1.43763         2.44752        -1.40298         5.87828     34.3640E-03    -17.1479E-03    -17.2162E-03    -17.1186E-03     34.2665E-03    -17.1479E-03     4.45895E-03    -24.2768E+06    -26.7683E+06    -138.376E+06    -26.9560E+06    -135.984E+06    -26.4811E+06    -16.1898E+06         22.6783
            1587     4.91578E-03     81.5274E-03         3.23744        -1.38388        -2.26418        -1.11045         2.08371        -1.38388         4.44978     34.3418E-03    -17.1332E-03    -17.2086E-03    -17.0673E-03     34.2005E-03    -17.1332E-03     5.36971E-03    -19.8071E+06    -24.5263E+06    -133.550E+06    -23.5002E+06    -129.857E+06    -24.5263E+06    -19.7270E+06         22.7579
            1588     5.89896E-03     81.5331E-03         3.01435        -1.30679        -2.10343    -663.275E-03         1.57419        -1.30679         4.54993     34.3300E-03    -17.1108E-03    -17.2193E-03    -17.0273E-03     34.1381E-03    -17.1108E-03     6.26513E-03    -14.8457E+06    -22.2178E+06    -125.895E+06    -19.8854E+06    -120.855E+06    -22.2178E+06    -22.9012E+06         22.8614
            1589     6.88219E-03     81.5399E-03         3.55624        -1.20168        -2.72827    -428.120E-03         1.25609        -1.20168         6.02330     34.2613E-03    -17.0827E-03    -17.1786E-03    -16.9345E-03     34.0172E-03    -17.0827E-03     7.05991E-03    -12.1326E+06    -21.2503E+06    -119.987E+06    -17.8695E+06    -114.250E+06    -21.2503E+06    -24.0652E+06         22.9938
            1590     7.86585E-03     81.5471E-03         3.16368        -1.09754        -2.40374    -257.265E-03         1.01720        -1.09754         5.41476     34.2119E-03    -17.0383E-03    -17.1736E-03    -16.8787E-03     33.9169E-03    -17.0383E-03     7.75663E-03    -8.39213E+06    -21.9492E+06    -112.964E+06    -15.1784E+06    -106.177E+06    -21.9492E+06    -25.5269E+06         23.1638
            1591     8.84908E-03     81.5552E-03         1.55802    -662.269E-03        -1.20089     250.045E-03     424.907E-03    -980.092E-03         2.26277     34.2283E-03    -16.9931E-03    -17.2353E-03    -16.8670E-03     33.8601E-03    -16.9931E-03     8.65537E-03    -4.75369E+06    -22.7353E+06    -104.421E+06    -12.2774E+06    -96.8968E+06    -22.7353E+06    -26.2587E+06         23.3897
            1592     9.83257E-03     81.5645E-03         1.12689    -452.981E-03    -946.229E-03     956.169E-03    -402.501E-03    -825.992E-03     838.290E-03     34.2288E-03    -16.9377E-03    -17.2911E-03    -16.7968E-03     33.7345E-03    -16.9377E-03     10.0116E-03    -1.66377E+06    -25.2204E+06    -93.5378E+06    -9.63616E+06    -85.5654E+06    -25.2204E+06    -25.7181E+06         23.7190
            1593     10.8160E-03     81.5747E-03         1.43126    -592.003E-03        -1.08356         1.39607    -993.183E-03    -647.191E-03     207.490E-03     34.0539E-03    -16.8476E-03    -17.2063E-03    -16.6669E-03     33.5145E-03    -16.8476E-03     10.4568E-03     1.12155E+06    -32.5855E+06    -77.9796E+06    -7.25034E+06    -69.6077E+06    -32.5855E+06    -24.2102E+06         24.2855
            1594     11.8002E-03     81.5856E-03         1.48118    -478.726E-03        -1.22323         1.40001        -1.14205    -478.726E-03    -740.478E-03     34.0919E-03    -16.7282E-03    -17.3638E-03    -16.6562E-03     33.3843E-03    -16.7282E-03     11.8629E-03     2.92507E+06    -37.8611E+06    -61.0240E+06    -6.65834E+06    -44.8112E+06    -44.4905E+06    -20.7741E+06         25.4337
            1595     12.7829E-03     81.5987E-03         1.19093    -347.603E-03        -1.04446         1.08439    -937.925E-03    -347.603E-03    -266.533E-03     34.4406E-03    -16.5902E-03    -17.8504E-03    -16.3912E-03     32.9814E-03    -16.5902E-03     16.8949E-03     12.4577E+06    -26.0035E+06    -58.0471E+06    -7.11806E+06    -6.42767E+06    -58.0471E+06    -15.6196E+06         27.9125
            1596     13.7682E-03     81.6201E-03     794.438E-03    -259.075E-03    -733.041E-03     726.439E-03    -665.041E-03    -259.075E-03     585.473E-03     35.3107E-03    -16.4251E-03    -18.8856E-03    -16.1969E-03     32.6220E-03    -16.4251E-03     23.3577E-03     44.3432E+06    -12.2893E+06    -77.6507E+06    -9.10061E+06     41.1546E+06    -77.6507E+06    -9.58578E+06         32.9712
            1597     14.7515E-03     81.6462E-03         1.22348    -200.028E-03        -1.22528     536.925E-03    -538.727E-03    -200.028E-03        -1.44067     47.2186E-03    -16.4377E-03    -30.7809E-03    -16.5084E-03     32.9461E-03    -16.4377E-03     56.7570E-03     100.135E+06    -12.8499E+06    -65.8968E+06    -12.5631E+06     99.8482E+06    -65.8968E+06    -3.53208E+06         41.8729
            1598     15.7384E-03     81.7365E-03         1.84644    -151.853E-03        -1.88134     510.882E-03    -545.781E-03    -151.853E-03        -3.55331     124.499E-03    -16.7139E-03    -107.785E-03    -28.3365E-03     45.0504E-03    -16.7139E-03     219.072E-03     152.533E+06     1.63472E+06    -26.5862E+06    -13.4570E+06     152.504E+06    -11.4649E+06    -1.67973E+06         54.3485
            1599     16.7190E-03     82.1056E-03         1.31535    -107.912E-03        -1.34214     425.472E-03    -452.262E-03    -107.912E-03        -2.49897     200.971E-03    -17.2079E-03    -183.763E-03    -40.3675E-03     57.5754E-03    -17.2079E-03     372.032E-03     201.066E+06     87.0875E+06    -9.42162E+06    -9.38388E+06     201.029E+06     87.0875E+06    -2.56862E+06         66.7885
            1600     983.321E-06     82.5486E-03         7.27828        -1.86429        -5.59064        -2.76997         4.45761        -1.86429         9.36039     34.3548E-03    -17.0608E-03    -17.2940E-03    -17.1718E-03     34.3453E-03    -17.1735E-03     1.33287E-03    -26.6038E+06    -29.7605E+06    -147.244E+06    -27.3534E+06    -146.902E+06    -29.3528E+06    -4.45946E+06         22.5532
            1601     1.96614E-03     82.5496E-03         8.20182        -2.32957        -6.10887        -2.37318         4.46613        -2.32957         12.3595     34.3177E-03    -17.1067E-03    -17.2110E-03    -17.1404E-03     34.2889E-03    -17.1485E-03     2.35207E-03    -26.7576E+06    -29.1792E+06    -133.837E+06    -28.2211E+06    -132.783E+06    -28.7693E+06    -10.1750E+06         22.5779
            1602     2.94941E-03     82.5530E-03         6.07693        -2.32848        -4.05787        -2.24158         4.26065        -2.32848         7.71733     34.3596E-03    -17.1357E-03    -17.2239E-03    -17.1487E-03     34.3003E-03    -17.1516E-03     3.46121E-03    -25.3567E+06    -27.0798E+06    -131.409E+06    -27.6247E+06    -129.430E+06    -26.7904E+06    -14.1585E+06         22.6189
            1603     3.93251E-03     82.5567E-03         4.97685        -2.19934        -3.12866        -1.83863         3.75150        -2.26402         5.71444     34.3672E-03    -17.1365E-03    -17.2306E-03    -17.1218E-03     34.2701E-03    -17.1482E-03     4.44438E-03    -21.8517E+06    -25.8442E+06    -130.137E+06    -25.4541E+06    -126.822E+06    -25.5570E+06    -18.3953E+06         22.6780
            1604     4.91563E-03     82.5615E-03         3.85571        -1.89486        -2.32550        -1.27702         3.04158        -2.12920         4.01732     34.3426E-03    -17.1284E-03    -17.2141E-03    -17.0696E-03     34.1980E-03    -17.1284E-03     5.42896E-03    -18.4264E+06    -25.1831E+06    -126.209E+06    -23.6227E+06    -121.013E+06    -25.1831E+06    -22.8745E+06         22.7575
            1605     5.89892E-03     82.5675E-03         3.39850        -1.65826        -2.08829    -823.124E-03         2.42862        -1.95355         3.93954     34.3049E-03    -17.1148E-03    -17.1901E-03    -17.0020E-03     34.1167E-03    -17.1148E-03     6.20519E-03    -15.7246E+06     -22.505E+06    -121.342E+06    -22.2144E+06    -114.853E+06     -22.505E+06    -25.3089E+06         22.8606
            1606     6.88234E-03     82.5737E-03         3.75214        -1.63398        -2.42693    -311.096E-03         1.76194        -1.75961         5.55923     34.2563E-03    -17.0865E-03    -17.1698E-03    -16.9331E-03     34.0196E-03    -17.0865E-03     6.94370E-03    -11.1839E+06    -21.1095E+06    -116.321E+06    -19.1124E+06    -108.392E+06    -21.1095E+06    -27.5598E+06         22.9927
            1607     7.86549E-03     82.5812E-03         3.34675        -1.46060        -2.15814     218.672E-03         1.05835        -1.54901         5.31240     34.2095E-03    -17.0317E-03    -17.1777E-03    -16.8851E-03     33.9168E-03    -17.0317E-03     7.72604E-03    -5.99355E+06    -23.7283E+06    -110.227E+06    -15.4530E+06    -100.768E+06    -23.7283E+06    -29.8424E+06         23.1622
            1608     8.84905E-03     82.5891E-03         1.82145    -681.889E-03        -1.36637     528.539E-03     582.261E-03        -1.33761         2.49387     34.1537E-03    -16.9844E-03    -17.1693E-03    -16.8104E-03     33.7948E-03    -16.9844E-03     8.53474E-03    -2.23734E+06    -24.9733E+06    -104.118E+06    -12.3348E+06    -94.0210E+06    -24.9733E+06    -30.3321E+06         23.3870
            1609     9.83280E-03     82.5982E-03         1.22032    -272.094E-03        -1.13387     916.061E-03     32.1690E-03        -1.13387     951.121E-03     34.1862E-03    -16.9264E-03    -17.2598E-03    -16.7795E-03     33.7058E-03    -16.9264E-03     9.85875E-03     901.904E+03    -27.2745E+06    -93.7546E+06    -9.85197E+06    -83.0007E+06    -27.2745E+06    -29.9053E+06         23.7132
            1610     10.8162E-03     82.6090E-03         1.67546    -623.399E-03        -1.19171         1.63110    -852.888E-03    -917.857E-03     160.396E-03     34.1110E-03    -16.8418E-03    -17.2693E-03    -16.7507E-03     33.5924E-03    -16.8418E-03     10.2632E-03     2.76157E+06    -35.1656E+06    -80.9533E+06    -8.24547E+06    -69.9462E+06    -35.1656E+06    -28.2520E+06         24.2711
            1611     11.7995E-03     82.6186E-03         2.09864    -689.603E-03        -1.50806         2.06187        -1.47129    -689.603E-03    -658.107E-03     34.0297E-03    -16.7211E-03    -17.3086E-03    -16.5900E-03     33.3112E-03    -16.7211E-03     11.8833E-03     4.83465E+06    -42.3336E+06    -65.0201E+06    -6.90927E+06    -47.7600E+06    -47.8498E+06    -24.4462E+06         25.4000
            1612     12.7840E-03     82.6334E-03         1.95274    -485.985E-03        -1.53582         1.88294        -1.46602    -485.985E-03     5.17571E-03     34.3457E-03    -16.5739E-03    -17.7718E-03    -16.3885E-03     32.9624E-03    -16.5739E-03     16.5493E-03     12.8998E+06    -30.8336E+06    -62.6885E+06    -6.56953E+06    -11.3643E+06    -62.6885E+06    -19.1728E+06         27.8461
            1613     13.7675E-03     82.6518E-03         1.54494    -331.605E-03        -1.25912         1.48945        -1.20363    -331.605E-03     760.001E-03     35.0684E-03    -16.3941E-03    -18.6744E-03    -15.9749E-03     32.3690E-03    -16.3941E-03     23.1434E-03     38.8194E+06    -14.0303E+06    -84.0882E+06    -8.32222E+06     33.1113E+06    -84.0882E+06    -12.0097E+06         32.8705
            1614     14.7527E-03     82.6817E-03         1.72132    -220.653E-03        -1.53481         1.18938        -1.00287    -220.653E-03        -1.47628     46.4386E-03    -16.3774E-03    -30.0612E-03    -16.1485E-03     32.5259E-03    -16.3774E-03     55.8944E-03     94.8832E+06    -10.0344E+06    -72.8348E+06    -9.50857E+06     94.3573E+06    -72.8348E+06    -5.35839E+06         41.7742
            1615     15.7377E-03     82.7659E-03         2.07147    -141.663E-03        -1.93375     869.649E-03    -731.924E-03    -141.663E-03        -3.63920     124.595E-03    -16.6230E-03    -107.972E-03    -27.7147E-03     44.3377E-03    -16.6230E-03     219.620E-03     152.868E+06     3.72556E+06    -27.6841E+06    -8.49792E+06     152.763E+06    -15.3556E+06    -2.25513E+06         54.3376
            1616     16.7252E-03     83.1480E-03         1.36035    -92.5067E-03        -1.23774     436.351E-03    -313.742E-03    -92.5067E-03        -2.47628     201.152E-03    -17.1260E-03    -184.026E-03    -40.7686E-03     57.8946E-03    -17.1260E-03     372.314E-03     201.695E+06     87.1123E+06    -5.62059E+06    -5.58803E+06     201.663E+06     87.1123E+06    -944.326E+03         66.9172
            1617     982.656E-06     83.5817E-03         8.35316        -2.77314        -5.75159        -3.47181         6.07339        -2.77314         9.58104     34.4400E-03    -17.1003E-03    -17.3397E-03    -17.2167E-03     34.4296E-03    -17.2130E-03     1.33219E-03    -24.3961E+06    -29.2059E+06    -135.319E+06    -26.0574E+06    -134.929E+06    -27.9346E+06    -5.88102E+06         22.5544
            1618     1.96640E-03     83.5846E-03         9.18276        -3.15832        -6.23751        -3.29387         6.23913        -3.15832         11.9334     34.3397E-03    -17.1148E-03    -17.2249E-03    -17.1337E-03     34.3107E-03    -17.1770E-03     2.39586E-03    -25.2940E+06    -28.3104E+06    -123.777E+06    -26.4558E+06    -122.618E+06    -28.3082E+06    -10.2177E+06         22.5789
            1619     2.94914E-03     83.5869E-03         7.24163        -3.15860        -4.35495        -2.94239         5.82907        -3.15860         7.50128     34.3529E-03    -17.1316E-03    -17.2213E-03    -17.1270E-03     34.2950E-03    -17.1679E-03     3.40935E-03    -23.2144E+06    -25.2198E+06    -121.585E+06    -25.8928E+06    -118.909E+06    -25.2176E+06    -15.6174E+06         22.6197
            1620     3.93253E-03     83.5912E-03         5.86591        -2.82078        -3.35786        -2.32195         5.04539        -3.03617         5.09126     34.3641E-03    -17.1431E-03    -17.2210E-03    -17.1041E-03     34.2696E-03    -17.1655E-03     4.39056E-03    -18.9943E+06    -21.9402E+06    -120.748E+06    -23.5159E+06    -116.227E+06    -21.9402E+06    -20.7551E+06         22.6785
            1621     4.91562E-03     83.5958E-03         4.62640        -2.11037        -2.82990        -1.62735         4.14338        -2.82990         3.42492     34.3551E-03    -17.1384E-03    -17.2167E-03    -17.0666E-03     34.2157E-03    -17.1490E-03     5.32900E-03    -15.5923E+06    -20.8640E+06    -118.645E+06    -21.7159E+06    -112.521E+06    -20.8640E+06    -24.2774E+06         22.7575
            1622     5.89884E-03     83.6016E-03         3.84905        -1.55994        -2.57196    -878.839E-03         3.16794        -2.57196         3.42558     34.3045E-03    -17.1135E-03    -17.1910E-03    -17.0030E-03     34.1165E-03    -17.1135E-03     6.19664E-03    -11.5332E+06    -22.1768E+06    -115.685E+06    -19.7503E+06    -107.468E+06    -22.1768E+06    -27.8927E+06         22.8602
            1623     6.88197E-03     83.6080E-03         3.87089        -1.68921        -2.41569     53.2469E-03         1.98093        -2.26820         5.15201     34.2636E-03    -17.0748E-03    -17.1888E-03    -16.9502E-03     34.0250E-03    -17.0748E-03     6.97624E-03    -6.47668E+06    -22.6211E+06    -111.149E+06    -17.0197E+06    -100.606E+06    -22.6211E+06    -31.3507E+06         22.9918
            1624     7.86558E-03     83.6152E-03         3.47187        -1.57357        -2.08118     808.189E-03     942.612E-03        -1.93369         5.14944     34.2320E-03    -17.0305E-03    -17.2015E-03    -16.9074E-03     33.9379E-03    -17.0305E-03     7.74823E-03    -2.86867E+06    -24.5993E+06    -107.319E+06    -15.0440E+06    -95.1435E+06    -24.5993E+06    -33.4238E+06         23.1607
            1625     8.84893E-03     83.6232E-03         2.17750    -697.541E-03        -1.61680         1.04176     438.198E-03        -1.61680         2.73943     34.2046E-03    -16.9857E-03    -17.2189E-03    -16.8695E-03     33.8552E-03    -16.9857E-03     8.44147E-03     128.753E+03    -26.8404E+06    -103.062E+06    -13.2509E+06    -89.6822E+06    -26.8404E+06    -34.5458E+06         23.3842
            1626     9.83220E-03     83.6320E-03         1.46394    -200.676E-03        -1.34675         1.13426     129.006E-03        -1.34675         1.18568     34.1510E-03    -16.9322E-03    -17.2188E-03    -16.7476E-03     33.6798E-03    -16.9322E-03     9.74349E-03     3.20459E+06    -29.1175E+06    -95.0846E+06    -10.7703E+06    -81.1098E+06    -29.1175E+06    -34.2593E+06         23.7070
            1627     10.8160E-03     83.6430E-03         1.61053    -459.842E-03        -1.18141         1.54903    -476.263E-03        -1.10349     310.082E-03     34.0797E-03    -16.8432E-03    -17.2365E-03    -16.7126E-03     33.5558E-03    -16.8432E-03     10.3075E-03     5.69171E+06    -37.2845E+06    -84.0439E+06     -8.4062E+06    -69.9460E+06    -37.2845E+06    -32.5682E+06         24.2562
            1628     11.7997E-03     83.6526E-03         2.14719    -731.966E-03        -1.39011         2.12820        -1.24330    -859.789E-03    -470.497E-03     34.0231E-03    -16.7206E-03    -17.3025E-03    -16.6147E-03     33.3352E-03    -16.7206E-03     11.6572E-03     8.98490E+06    -47.4509E+06    -67.2322E+06    -6.33047E+06    -49.2338E+06    -50.1339E+06    -29.5300E+06         25.3664
            1629     12.7834E-03     83.6663E-03         2.44062    -621.219E-03        -1.74836         2.38878        -1.69652    -621.219E-03     174.937E-03     34.2843E-03    -16.5712E-03    -17.7131E-03    -16.3383E-03     32.9095E-03    -16.5712E-03     16.4034E-03     15.2713E+06    -36.9568E+06    -65.6332E+06    -5.00605E+06    -16.6794E+06    -65.6332E+06    -23.9957E+06         27.7809
            1630     13.7674E-03     83.6866E-03         2.24345    -414.023E-03        -1.72367         2.19632        -1.67655    -414.023E-03     837.222E-03     34.8979E-03    -16.3881E-03    -18.5098E-03    -15.9344E-03     32.3225E-03    -16.3881E-03     22.6277E-03     35.0121E+06    -14.5863E+06    -86.7109E+06    -4.56609E+06     24.9919E+06    -86.7109E+06    -15.6043E+06         32.7715
            1631     14.7528E-03     83.7118E-03         2.18453    -255.734E-03        -1.79712         1.74739        -1.35997    -255.734E-03        -1.42288     46.6446E-03    -16.3589E-03    -30.2857E-03    -16.2932E-03     32.6521E-03    -16.3589E-03     55.9580E-03     89.8723E+06    -7.48494E+06    -77.3613E+06    -6.12941E+06     88.5168E+06    -77.3613E+06    -8.66803E+06         41.6746
            1632     15.7370E-03     83.8033E-03         2.15601    -150.197E-03        -1.83899         1.16548    -848.456E-03    -150.197E-03        -3.40179     123.854E-03    -16.5979E-03    -107.256E-03    -27.5798E-03     44.1777E-03    -16.5979E-03     218.188E-03     149.804E+06     818.256E+03    -32.3365E+06    -8.42744E+06     149.641E+06    -22.9271E+06    -3.79622E+06         54.3158
            1633     16.7247E-03     84.1728E-03         1.37355    -96.5437E-03        -1.02072     479.685E-03    -126.854E-03    -96.5437E-03        -2.23252     200.614E-03    -17.1086E-03    -183.505E-03    -40.2800E-03     57.3885E-03    -17.1086E-03     371.474E-03     200.613E+06     82.2492E+06    -6.21554E+06    -6.20194E+06     200.600E+06     82.2492E+06     172.202E+03         67.0495
            1634     983.447E-06     84.6172E-03         10.2384        -4.23505        -6.15929        -4.33517         8.41428        -4.23505         9.37570     34.4584E-03    -17.1212E-03    -17.3371E-03    -17.3267E-03     34.4480E-03    -17.1212E-03     1.37117E-03    -21.6882E+06    -25.5830E+06    -123.657E+06    -23.9741E+06    -123.203E+06    -23.7514E+06    -5.91550E+06         22.5561
            1635     1.96573E-03     84.6183E-03         10.0884        -4.19414        -6.09320        -3.82094         7.81610        -4.19414         11.0331     34.4312E-03    -17.1768E-03    -17.2544E-03    -17.1986E-03     34.4024E-03    -17.2037E-03     2.37793E-03    -22.2083E+06    -25.1005E+06    -112.751E+06    -24.2538E+06    -111.266E+06    -24.5401E+06    -11.0405E+06         22.5805
            1636     2.94941E-03     84.6218E-03         7.99833        -3.80269        -4.44980        -3.28353         7.01574        -3.98638         6.57074     34.3727E-03    -17.1577E-03    -17.2149E-03    -17.1199E-03     34.3151E-03    -17.1953E-03     3.40564E-03    -20.1747E+06    -22.4228E+06    -110.397E+06    -23.3966E+06    -107.175E+06    -22.4228E+06    -16.4090E+06         22.6211
            1637     3.93216E-03     84.6252E-03         6.57503        -3.07195        -3.77995        -2.59228         6.04516        -3.72976         4.37396     34.3707E-03    -17.1609E-03    -17.2097E-03    -17.0954E-03     34.2776E-03    -17.1822E-03     4.35430E-03    -17.4227E+06    -20.5285E+06    -111.077E+06    -22.8572E+06    -105.642E+06    -20.5285E+06    -21.7606E+06         22.6795
            1638     4.91552E-03     84.6303E-03         5.24251        -2.08577        -3.42114        -1.73137         4.88810        -3.42114         3.14065     34.3149E-03    -17.1367E-03    -17.1782E-03    -17.0303E-03     34.1777E-03    -17.1474E-03     5.28448E-03    -12.3189E+06    -21.6537E+06    -111.072E+06    -20.4335E+06    -102.957E+06    -21.6537E+06    -26.8024E+06         22.7580
            1639     5.89875E-03     84.6357E-03         4.12506        -1.28466        -3.05253    -630.060E-03         3.47045        -3.05253         3.26794     34.2666E-03    -17.1021E-03    -17.1645E-03    -16.9780E-03     34.0801E-03    -17.1021E-03     6.16682E-03    -6.82265E+06    -23.1062E+06    -108.689E+06    -17.6774E+06    -97.8346E+06    -23.1062E+06    -31.1942E+06         22.8601
            1640     6.88228E-03     84.6422E-03         3.99286        -1.50567        -2.63957     342.605E-03         2.14458        -2.63957         5.02771     34.2786E-03    -17.0729E-03    -17.2057E-03    -16.9673E-03     34.0402E-03    -17.0729E-03     6.97613E-03    -2.88395E+06    -22.2454E+06    -105.965E+06    -15.8691E+06    -92.9800E+06    -22.2454E+06    -34.1270E+06         22.9910
            1641     7.86534E-03     84.6493E-03         3.60418        -1.46525        -2.22567         1.01620         1.12273        -2.22567         5.00907     34.2876E-03    -17.0435E-03    -17.2441E-03    -16.9558E-03     33.9993E-03    -17.0435E-03     7.68092E-03     912.931E+03    -22.4618E+06    -103.588E+06    -13.9113E+06    -88.7643E+06    -22.4618E+06    -36.4025E+06         23.1592
            1642     8.84871E-03     84.6573E-03         2.46954    -661.165E-03        -1.83899         1.50255     305.824E-03        -1.83899         2.70243     34.2228E-03    -17.0001E-03    -17.2227E-03    -16.8691E-03     33.8692E-03    -17.0001E-03     8.48382E-03     4.11116E+06    -25.2561E+06    -101.029E+06    -12.1285E+06    -84.7897E+06    -25.2561E+06    -37.9696E+06         23.3812
            1643     9.83221E-03     84.6661E-03         1.88266    -362.721E-03        -1.49617         1.67279    -152.858E-03        -1.49617         1.23169     34.1947E-03    -16.9416E-03    -17.2532E-03    -16.7814E-03     33.7230E-03    -16.9416E-03     9.77332E-03     6.55739E+06    -29.5098E+06    -95.7069E+06    -10.6922E+06    -78.4573E+06    -29.5098E+06    -38.2365E+06         23.7005
            1644     10.8160E-03     84.6763E-03         1.71852    -427.317E-03        -1.20797         1.66546    -374.266E-03        -1.20797     379.220E-03     34.0573E-03    -16.8517E-03    -17.2056E-03    -16.6815E-03     33.5332E-03    -16.8517E-03     10.3090E-03     9.36391E+06    -38.0506E+06    -86.2827E+06    -8.77847E+06    -68.1404E+06    -38.0506E+06    -37.4131E+06         24.2414
            1645     11.7994E-03     84.6870E-03         1.90225    -644.897E-03        -1.11292         1.89318    -789.620E-03    -959.131E-03    -288.067E-03     34.0134E-03    -16.7284E-03    -17.2850E-03    -16.6052E-03     33.3336E-03    -16.7284E-03     11.6286E-03     12.8123E+06    -51.1322E+06    -70.4526E+06    -6.96811E+06    -50.4094E+06    -51.3949E+06    -35.1306E+06         25.3340
            1646     12.7831E-03     84.6995E-03         2.38383    -701.363E-03        -1.47565         2.32868        -1.39814    -723.716E-03     409.119E-03     34.2493E-03    -16.5802E-03    -17.6691E-03    -16.3330E-03     32.9133E-03    -16.5802E-03     16.1434E-03     18.2598E+06    -44.1788E+06    -68.1058E+06    -5.18345E+06    -21.6124E+06    -67.2290E+06    -29.7668E+06         27.7186
            1647     13.7682E-03     84.7195E-03         2.57525    -499.983E-03        -1.82505         2.51541        -1.76520    -499.983E-03     963.530E-03     34.9772E-03    -16.4098E-03    -18.5674E-03    -16.0977E-03     32.5075E-03    -16.4098E-03     22.2592E-03     31.5717E+06    -20.8623E+06    -87.9888E+06    -5.30035E+06     16.0098E+06    -87.9888E+06    -20.6777E+06         32.6762
            1648     14.7515E-03     84.7458E-03         2.50634    -312.899E-03        -1.90978         2.14511        -1.54854    -312.899E-03        -1.28829     46.6452E-03    -16.3696E-03    -30.2756E-03    -16.3583E-03     32.7279E-03    -16.3696E-03     55.5551E-03     83.1539E+06    -10.5612E+06    -82.0149E+06    -7.91669E+06     80.5095E+06    -82.0149E+06    -10.2630E+06         41.5801
            1649     15.7383E-03     84.8350E-03         2.31367    -189.531E-03        -1.79813         1.41081    -895.279E-03    -189.531E-03        -3.32728     124.317E-03    -16.5953E-03    -107.722E-03    -28.2244E-03     44.8197E-03    -16.5953E-03     218.886E-03     145.205E+06    -5.18943E+06    -37.4033E+06    -10.1799E+06     145.097E+06    -32.3041E+06    -3.47963E+06         54.3036
            1650     16.7184E-03     85.2093E-03         1.53683    -141.351E-03    -961.633E-03     536.708E-03     38.4897E-03    -141.351E-03        -2.27463     201.233E-03    -17.1228E-03    -184.110E-03    -40.1652E-03     57.2880E-03    -17.1228E-03     372.791E-03     198.140E+06     75.2057E+06    -8.28912E+06    -8.27822E+06     198.129E+06     75.2057E+06    -1.16004E+06         67.2009
            1651     982.821E-06     85.6513E-03         12.1492        -5.57072        -6.71398        -5.24937         10.7257        -5.61179         8.86954     34.4756E-03    -17.1681E-03    -17.3075E-03    -17.2468E-03     34.4653E-03    -17.2184E-03     1.35124E-03    -17.3233E+06    -21.5948E+06    -112.394E+06    -19.6032E+06    -112.000E+06    -19.7092E+06    -5.42000E+06         22.5579
            1652     1.96634E-03     85.6534E-03         11.0869        -5.04840        -6.22479        -4.28030         9.29590        -5.20192         10.3456     34.4667E-03    -17.1796E-03    -17.2871E-03    -17.2215E-03     34.4385E-03    -17.2171E-03     2.35845E-03    -17.4311E+06    -20.0785E+06    -100.230E+06    -19.7580E+06    -98.4632E+06    -19.5182E+06    -11.2320E+06         22.5821
            1653     2.94883E-03     85.6557E-03         8.61798        -4.06810        -4.78638        -3.35301         7.85851        -4.74199         5.98060     34.4266E-03    -17.1842E-03    -17.2423E-03    -17.1595E-03     34.3684E-03    -17.2089E-03     3.41527E-03    -15.3075E+06    -18.9794E+06    -99.2622E+06    -19.0587E+06    -95.5110E+06    -18.9794E+06    -17.1966E+06         22.6224
            1654     3.93240E-03     85.6601E-03         6.85373        -2.81728        -4.27938        -2.41554         6.45198        -4.27938         3.85177     34.3628E-03    -17.1656E-03    -17.1973E-03    -17.0792E-03     34.2686E-03    -17.1894E-03     4.38502E-03    -11.0919E+06    -17.6505E+06    -100.339E+06    -17.4051E+06    -94.0260E+06    -17.6505E+06    -22.6695E+06         22.6805
            1655     4.91537E-03     85.6642E-03         5.18770        -1.60226        -3.79636        -1.28218         4.86762        -3.79636         2.84561     34.3556E-03    -17.1622E-03    -17.1934E-03    -17.0555E-03     34.2192E-03    -17.1637E-03     5.27338E-03    -6.62028E+06    -16.8226E+06    -101.311E+06    -16.5191E+06    -91.4121E+06    -16.8226E+06    -28.8129E+06         22.7586
            1656     5.89875E-03     85.6702E-03         4.18238        -1.03027        -3.30098    -363.255E-03         3.51537        -3.30098         3.29343     34.3302E-03    -17.1301E-03    -17.2001E-03    -17.0210E-03     34.1511E-03    -17.1301E-03     6.05752E-03    -1.96619E+06    -17.7854E+06    -101.093E+06    -15.3956E+06    -87.6637E+06    -17.7854E+06    -33.8123E+06         22.8600
            1657     6.88185E-03     85.6762E-03         4.21215        -1.44573        -2.83354     292.020E-03         2.47440        -2.83354         5.07710     34.2962E-03    -17.0962E-03    -17.1999E-03    -16.9696E-03     34.0664E-03    -17.0968E-03     6.84555E-03     2.83079E+06    -18.5285E+06    -100.801E+06    -13.1119E+06    -84.8586E+06    -18.5285E+06    -37.3018E+06         22.9901
            1658     7.86529E-03     85.6839E-03         3.72212        -1.31462        -2.40079     961.607E-03         1.44590        -2.40079         4.94666     34.2499E-03    -17.0594E-03    -17.1905E-03    -16.9028E-03     33.9629E-03    -17.0600E-03     7.65629E-03     6.06270E+06    -19.6470E+06    -99.6424E+06    -11.2297E+06    -82.3500E+06    -19.6470E+06    -39.0669E+06         23.1572
            1659     8.84864E-03     85.6911E-03         2.56176    -493.909E-03        -1.99125         1.61108     456.772E-03        -1.99125         2.55397     34.2050E-03    -17.0157E-03    -17.1893E-03    -16.8418E-03     33.8575E-03    -17.0157E-03     8.40860E-03     8.28649E+06    -22.0187E+06    -98.0613E+06    -10.2615E+06    -79.5133E+06    -22.0187E+06    -40.3077E+06         23.3775
            1660     9.83233E-03     85.7001E-03         2.18041    -439.375E-03        -1.60968         2.03469    -293.654E-03        -1.60968         1.12240     34.2550E-03    -16.9565E-03    -17.2985E-03    -16.8249E-03     33.7815E-03    -16.9565E-03     9.78426E-03     11.2789E+06    -26.6052E+06    -93.9933E+06    -9.02599E+06    -73.6883E+06    -26.6052E+06    -41.4745E+06         23.6935
            1661     10.8153E-03     85.7106E-03         2.11278    -644.110E-03        -1.27564         2.07815    -609.484E-03        -1.27564     398.699E-03     34.0790E-03    -16.8641E-03    -17.2149E-03    -16.6980E-03     33.5621E-03    -16.8641E-03     10.2303E-03     14.3916E+06    -36.7443E+06    -87.4749E+06    -7.47267E+06    -65.6107E+06    -36.7443E+06    -41.7900E+06         24.2267
            1662     11.7995E-03     85.7200E-03         1.94445    -683.017E-03        -1.00100         1.93828    -676.845E-03        -1.00100    -201.049E-03     33.9654E-03    -16.7347E-03    -17.2306E-03    -16.5301E-03     33.2648E-03    -16.7347E-03     11.7277E-03     17.5646E+06    -51.5223E+06    -74.4446E+06    -6.15917E+06    -50.7208E+06    -51.5223E+06    -40.0675E+06         25.3028
            1663     12.7834E-03     85.7339E-03         2.07631    -696.264E-03        -1.05680         1.99226    -896.628E-03    -772.387E-03     537.355E-03     34.4055E-03    -16.5882E-03    -17.8173E-03    -16.5428E-03     33.1310E-03    -16.5882E-03     15.9724E-03     21.0579E+06    -50.3297E+06    -72.1683E+06    -6.09199E+06    -25.9648E+06    -69.3834E+06    -35.1898E+06         27.6586
            1664     13.7665E-03     85.7520E-03         2.28664    -568.371E-03        -1.33664         2.18652        -1.23652    -568.371E-03         1.09107     35.1268E-03    -16.4246E-03    -18.7021E-03    -16.2461E-03     32.6707E-03    -16.4246E-03     22.1286E-03     27.3365E+06    -29.1876E+06    -93.0732E+06    -6.80657E+06     4.95550E+06    -93.0732E+06    -25.4311E+06         32.5837
            1665     14.7519E-03     85.7801E-03         2.39499    -391.566E-03        -1.58509         2.05576        -1.24585    -391.566E-03        -1.11624     46.7018E-03    -16.3775E-03    -30.3244E-03    -16.6821E-03     33.0595E-03    -16.3775E-03     55.5208E-03     74.7334E+06    -13.3722E+06    -90.5273E+06     -8.2809E+06     69.6421E+06    -90.5273E+06    -12.5511E+06         41.4875
            1666     15.7357E-03     85.8667E-03         2.35800    -276.371E-03        -1.63004         1.32719    -599.232E-03    -276.371E-03        -3.31358     124.458E-03    -16.5676E-03    -107.890E-03    -27.3399E-03     43.9074E-03    -16.5676E-03     219.407E-03     141.328E+06    -7.83543E+06    -42.4730E+06    -9.09709E+06     141.152E+06    -41.0347E+06    -3.88925E+06         54.3081
            1667     16.7255E-03     86.2474E-03         1.63545    -248.339E-03    -944.124E-03     406.613E-03     284.713E-03    -248.339E-03        -2.41553     201.972E-03    -17.0561E-03    -184.916E-03    -39.6954E-03     56.7515E-03    -17.0561E-03     374.654E-03     196.889E+06     70.9581E+06    -6.97383E+06    -6.08902E+06     196.880E+06     70.0819E+06    -924.761E+03         67.3778
            1668     983.037E-06     86.6857E-03         12.8520        -5.85818        -7.11782        -5.44272         11.5635        -6.24474         8.34900     34.5356E-03    -17.1875E-03    -17.3481E-03    -17.2867E-03     34.5246E-03    -17.2379E-03     1.39385E-03    -10.9312E+06    -15.2132E+06    -100.282E+06    -12.8497E+06    -99.6884E+06    -13.8879E+06    -5.58542E+06         22.5591
            1669     1.96592E-03     86.6879E-03         11.7151        -5.42704        -6.47310        -4.62532         10.0403        -5.60003         10.3143     34.4332E-03    -17.1626E-03    -17.2706E-03    -17.1815E-03     34.4036E-03    -17.2221E-03     2.41684E-03    -10.1854E+06    -14.4711E+06    -87.7253E+06    -12.1897E+06    -85.7211E+06    -14.4711E+06    -11.8300E+06         22.5830
            1670     2.94927E-03     86.6907E-03         9.05854        -4.17636        -5.08349        -3.44615         8.32833        -5.08349         6.02268     34.4449E-03    -17.1721E-03    -17.2729E-03    -17.1795E-03     34.3877E-03    -17.2082E-03     3.39458E-03    -7.59737E+06    -12.8449E+06    -87.7416E+06    -12.0616E+06    -83.2774E+06    -12.8449E+06    -18.0631E+06         22.6230
            1671     3.93210E-03     86.6941E-03         6.79189        -2.48376        -4.51123        -2.11574         6.42388        -4.51123         3.58767     34.4339E-03    -17.1906E-03    -17.2433E-03    -17.1362E-03     34.3401E-03    -17.2038E-03     4.37024E-03    -3.74885E+06    -10.5113E+06    -89.2163E+06    -11.2363E+06    -81.7289E+06    -10.5113E+06    -24.0157E+06         22.6808
            1672     4.91550E-03     86.6992E-03         4.91874        -1.16030        -3.91192    -913.750E-03         4.67219        -3.91192         2.34310     34.4289E-03    -17.1920E-03    -17.2369E-03    -17.1028E-03     34.2962E-03    -17.1935E-03     5.21603E-03     792.685E+03    -8.47351E+06    -90.0906E+06    -10.0457E+06    -79.2522E+06    -8.47351E+06    -29.3130E+06         22.7584
            1673     5.89841E-03     86.7043E-03         4.11506    -847.387E-03        -3.35160    -227.569E-03         3.49524        -3.35160         3.10830     34.3892E-03    -17.1576E-03    -17.2316E-03    -17.0487E-03     34.2077E-03    -17.1589E-03     6.08776E-03     5.14595E+06    -10.8388E+06    -91.4280E+06    -9.62734E+06    -76.6547E+06    -10.8388E+06    -34.6657E+06         22.8592
            1674     6.88170E-03     86.7109E-03         4.26683        -1.38889        -2.86807     252.966E-03         2.62498        -2.86807         5.00388     34.2933E-03    -17.1065E-03    -17.1868E-03    -16.9481E-03     34.0566E-03    -17.1084E-03     6.95480E-03     8.18053E+06    -15.8198E+06    -94.0033E+06    -10.0423E+06    -75.7805E+06    -15.8198E+06    -39.0616E+06         22.9884
            1675     7.86516E-03     86.7174E-03         3.80859        -1.27212        -2.43903     853.463E-03         1.68302        -2.43903         4.97087     34.2146E-03    -17.0632E-03    -17.1514E-03    -16.8628E-03     33.9266E-03    -17.0638E-03     7.66303E-03     10.2785E+06    -18.5796E+06    -95.8461E+06    -9.67410E+06    -75.8936E+06    -18.5796E+06    -41.4199E+06         23.1542
            1676     8.84871E-03     86.7258E-03         2.56501    -359.626E-03        -2.04050         1.42434     781.044E-03        -2.04050         2.64146     34.2071E-03    -17.0176E-03    -17.1895E-03    -16.8407E-03     33.8583E-03    -17.0176E-03     8.42682E-03     13.2050E+06    -20.5557E+06    -94.6394E+06    -8.06067E+06    -73.3737E+06    -20.5557E+06    -42.8687E+06         23.3726
            1677     9.83180E-03     86.7338E-03         2.15581    -256.557E-03        -1.66622         1.96816    -68.9030E-03        -1.66622         1.11141     34.1812E-03    -16.9509E-03    -17.2304E-03    -16.7474E-03     33.6983E-03    -16.9509E-03     9.85984E-03     16.9013E+06    -25.7777E+06    -91.5509E+06    -6.58205E+06    -68.0676E+06    -25.7777E+06    -44.6223E+06         23.6853
            1678     10.8160E-03     86.7448E-03         2.33063    -717.283E-03        -1.32008         2.29947    -686.116E-03        -1.32008     469.249E-03     34.0851E-03    -16.8529E-03    -17.2322E-03    -16.7037E-03     33.5566E-03    -16.8529E-03     10.3449E-03     20.0539E+06    -36.8485E+06    -87.3132E+06    -5.54477E+06    -61.7146E+06    -36.8485E+06    -45.6879E+06         24.2114
            1679     11.7991E-03     86.7534E-03         2.16306    -776.810E-03        -1.02322         2.15627    -770.019E-03        -1.02322    -114.627E-03     34.0925E-03    -16.7366E-03    -17.3560E-03    -16.6655E-03     33.4021E-03    -16.7366E-03     11.6835E-03     22.7031E+06    -51.1601E+06    -77.2880E+06    -4.71940E+06    -49.8655E+06    -51.1601E+06    -44.4884E+06         25.2716
            1680     12.7831E-03     86.7677E-03         1.91254    -638.015E-03    -841.354E-03         1.80052    -576.168E-03    -791.179E-03     527.366E-03     34.4429E-03    -16.6024E-03    -17.8405E-03    -16.5151E-03     33.1175E-03    -16.6024E-03     16.2201E-03     23.6101E+06    -53.7947E+06    -74.9332E+06    -5.14129E+06    -30.8923E+06    -69.0842E+06    -39.3143E+06         27.5986
            1681     13.7671E-03     86.7863E-03         1.75866    -475.279E-03    -794.103E-03         1.59477    -492.403E-03    -613.091E-03         1.14804     35.3520E-03    -16.4428E-03    -18.9092E-03    -16.4839E-03     32.9268E-03    -16.4428E-03     22.1922E-03     24.7364E+06    -37.0927E+06    -94.8995E+06    -6.88593E+06    -5.47035E+06    -94.8995E+06    -29.7563E+06         32.4905
            1682     14.7513E-03     86.8116E-03         1.82050    -385.442E-03    -904.943E-03         1.36093    -354.665E-03    -476.152E-03    -803.520E-03     47.3328E-03    -16.3793E-03    -30.9534E-03    -16.9524E-03     33.3317E-03    -16.3793E-03     56.2664E-03     67.6351E+06    -17.5202E+06    -98.2203E+06    -8.43737E+06     58.5523E+06    -98.2203E+06    -17.4875E+06         41.3930
            1683     15.7351E-03     86.9043E-03         1.99659    -396.989E-03        -1.06810     767.065E-03     161.425E-03    -396.989E-03        -2.78815     122.925E-03    -16.5427E-03    -106.382E-03    -26.7297E-03     43.2724E-03    -16.5427E-03     216.709E-03     134.473E+06    -8.95256E+06    -52.9691E+06    -8.38692E+06     133.908E+06    -52.9691E+06    -6.54437E+06         54.2979
            1684     16.7245E-03     87.2676E-03         1.55165    -341.850E-03    -779.978E-03     127.242E-03     691.618E-03    -389.034E-03        -2.04788     201.355E-03    -17.0251E-03    -184.330E-03    -39.0762E-03     56.1013E-03    -17.0251E-03     373.732E-03     193.754E+06     67.0799E+06    -11.6187E+06    -5.76891E+06     193.738E+06     61.2462E+06    -793.100E+03         67.5382
            1685     983.013E-06     87.7211E-03         11.8954        -5.03549        -6.99411        -4.77555         10.4217        -5.78037         7.64163     34.5030E-03    -17.1853E-03    -17.3177E-03    -17.2895E-03     34.4926E-03    -17.2032E-03     1.36560E-03    -3.65835E+06    -8.51975E+06    -87.3435E+06    -4.73295E+06    -86.2689E+06    -8.51975E+06    -7.99547E+06         22.5592
            1686     1.96608E-03     87.7222E-03         11.3667        -5.10407        -6.41740        -4.51287         9.48165        -5.12354         10.6389     34.4282E-03    -17.1810E-03    -17.2472E-03    -17.1923E-03     34.3977E-03    -17.2054E-03     2.44225E-03    -3.04323E+06    -9.04889E+06    -75.4573E+06    -5.74443E+06    -72.7561E+06    -9.04889E+06    -13.2633E+06         22.5827
            1687     2.94917E-03     87.7253E-03         8.79621        -4.12206        -4.83266        -3.45498         8.04900        -4.75253         6.04828     34.4518E-03    -17.1836E-03    -17.2682E-03    -17.1865E-03     34.3946E-03    -17.2080E-03     3.41325E-03     203.282E+03    -5.44298E+06    -75.5176E+06    -5.21882E+06    -70.0955E+06    -5.44298E+06    -19.2069E+06         22.6222
            1688     3.93229E-03     87.7289E-03         6.69877        -2.56955        -4.27271        -2.18046         6.30968        -4.27271         3.61681     34.5012E-03    -17.2133E-03    -17.2880E-03    -17.1952E-03     34.4085E-03    -17.2133E-03     4.34613E-03     4.95706E+06    -2.78746E+06    -77.7695E+06    -3.61606E+06    -69.1963E+06    -2.78746E+06    -25.1309E+06         22.6794
            1689     4.91516E-03     87.7335E-03         5.03672        -1.37964        -3.75379        -1.19658         4.85366        -3.75379         2.10758     34.4350E-03    -17.1824E-03    -17.2527E-03    -17.0991E-03     34.2976E-03    -17.1985E-03     5.30250E-03     10.1441E+06    -2.36947E+06     -79.431E+06    -1.75319E+06    -67.5337E+06    -2.36947E+06    -30.3173E+06         22.7564
            1690     5.89857E-03     87.7390E-03         4.09338    -852.733E-03        -3.24899    -275.204E-03         3.51585        -3.24899         2.87957     34.3526E-03    -17.1517E-03    -17.2009E-03    -16.9996E-03     34.1687E-03    -17.1691E-03     6.12857E-03     13.9288E+06    -2.48429E+06    -80.7299E+06     -901.92E+03    -65.8992E+06    -2.48429E+06    -34.3880E+06         22.8566
            1691     6.88200E-03     87.7448E-03         4.11765        -1.26489        -2.77178     424.534E-03         2.42822        -2.77178         4.87177     34.3162E-03    -17.1180E-03    -17.1982E-03    -16.9584E-03     34.0778E-03    -17.1193E-03     6.97589E-03     15.7793E+06    -6.97401E+06    -83.9986E+06    -2.24740E+06    -65.9718E+06    -6.97401E+06    -38.3252E+06         22.9850
            1692     7.86511E-03     87.7522E-03         3.83381        -1.32042        -2.34313     844.049E-03         1.66934        -2.34313         5.07200     34.2560E-03    -17.0621E-03    -17.1939E-03    -16.9008E-03     33.9630E-03    -17.0621E-03     7.73626E-03     17.9554E+06    -13.4123E+06    -88.7532E+06    -3.46536E+06    -67.3324E+06    -13.4123E+06    -42.7233E+06         23.1494
            1693     8.84851E-03     87.7593E-03         2.61016    -397.461E-03        -1.96754         1.18647         1.02623        -1.96754         2.92028     34.1614E-03    -17.0081E-03    -17.1533E-03    -16.7870E-03     33.7951E-03    -17.0081E-03     8.61930E-03     20.6525E+06    -17.6240E+06    -90.6901E+06    -3.14302E+06    -66.8946E+06    -17.6240E+06    -45.6209E+06         23.3660
            1694     9.83238E-03     87.7684E-03         1.93296     8.96825E-03        -1.63107         1.57360     368.330E-03        -1.63107         1.27018     34.1143E-03    -16.9358E-03    -17.1786E-03    -16.6960E-03     33.6318E-03    -16.9358E-03     9.87857E-03     23.7826E+06    -23.1902E+06    -88.1876E+06    -2.60248E+06    -61.8025E+06    -23.1902E+06    -47.4738E+06         23.6753
            1695     10.8157E-03     87.7776E-03         2.04221    -338.493E-03        -1.31983         1.98856    -284.841E-03        -1.31983     530.520E-03     34.1105E-03    -16.8394E-03    -17.2710E-03    -16.7249E-03     33.5643E-03    -16.8394E-03     10.5349E-03     26.0795E+06    -34.4429E+06    -85.3902E+06    -2.76708E+06    -56.5436E+06    -34.4429E+06    -48.7951E+06         24.1944
            1696     11.7994E-03     87.7887E-03         2.10537    -609.303E-03        -1.03857         2.09864    -602.578E-03        -1.03857     110.168E-03     34.1536E-03    -16.7332E-03    -17.4205E-03    -16.7214E-03     33.4546E-03    -16.7332E-03     11.8482E-03     25.4244E+06    -49.7172E+06    -79.3455E+06    -4.50906E+06    -49.4121E+06    -49.7172E+06    -47.2818E+06         25.2384
            1697     12.7829E-03     87.8001E-03         1.88585    -539.352E-03    -810.698E-03         1.71927    -372.765E-03    -810.698E-03     759.169E-03     34.4456E-03    -16.6082E-03    -17.8374E-03    -16.5035E-03     33.1117E-03    -16.6082E-03     16.2116E-03     23.5808E+06    -57.1615E+06    -76.9743E+06    -6.94098E+06    -35.2668E+06    -68.3472E+06    -42.2021E+06         27.5354
            1698     13.7676E-03     87.8203E-03         1.53972    -292.854E-03    -650.738E-03         1.12005     126.818E-03    -650.738E-03         1.35119     35.7184E-03    -16.4581E-03    -19.2603E-03    -16.7488E-03     33.2069E-03    -16.4581E-03     22.7523E-03     23.9769E+06    -46.2758E+06    -95.0722E+06    -7.99174E+06    -14.3072E+06    -95.0722E+06    -34.3333E+06         32.3908
            1699     14.7499E-03     87.8466E-03         1.47146    -275.333E-03    -565.151E-03     553.096E-03     631.278E-03    -553.397E-03    -321.065E-03     47.0718E-03    -16.3581E-03    -30.7137E-03    -16.8003E-03     33.1584E-03    -16.3581E-03     55.7662E-03     61.9072E+06    -23.6498E+06    -106.590E+06    -8.54412E+06     46.8015E+06    -106.590E+06    -23.1343E+06         41.2899
            1700     15.7372E-03     87.9348E-03         1.72614    -467.571E-03    -635.598E-03     117.195E-03         1.01688    -511.107E-03        -1.98277     122.978E-03    -16.4943E-03    -106.484E-03    -27.8016E-03     44.2959E-03    -16.4943E-03     216.495E-03     123.117E+06    -11.0575E+06    -71.6557E+06    -9.62730E+06     121.687E+06    -71.6557E+06    -10.8203E+06         54.2708
            1701     16.7180E-03     88.3032E-03         1.68141    -438.761E-03    -627.443E-03    -173.728E-03         1.30364    -514.706E-03        -1.45001     201.312E-03    -17.0277E-03    -184.284E-03    -39.0542E-03     56.0819E-03    -17.0277E-03     373.621E-03     188.557E+06     63.6700E+06    -22.8701E+06    -7.49774E+06     188.453E+06     48.4016E+06    -2.35814E+06         67.6735
            1702     983.063E-06     88.7550E-03         10.3094        -3.83976        -6.57741        -3.49087         8.08929        -4.70623         6.28777     34.4907E-03    -17.2222E-03    -17.2685E-03    -17.2182E-03     34.4807E-03    -17.2625E-03     1.30936E-03     7.55356E+06     3.28132E+06    -73.1986E+06     5.31213E+06    -72.1215E+06     4.44568E+06    -8.78588E+06         22.5574
            1703     1.96621E-03     88.7574E-03         9.98998        -4.00733        -6.09032        -3.65301         7.55267        -4.00733         10.9757     34.4721E-03    -17.2110E-03    -17.2611E-03    -17.2319E-03     34.4429E-03    -17.2110E-03     2.40532E-03     7.74207E+06     1.13272E+06    -62.0585E+06     3.64993E+06    -58.7117E+06     1.87800E+06    -13.9895E+06         22.5804
            1704     2.94911E-03     88.7598E-03         7.70325        -3.59745        -4.20896        -3.18510         6.89294        -3.81101         5.92269     34.4780E-03    -17.2083E-03    -17.2697E-03    -17.2118E-03     34.4201E-03    -17.2083E-03     3.42074E-03     11.4082E+06     2.24124E+06    -62.5264E+06     4.55624E+06    -55.6744E+06     2.24124E+06    -21.3402E+06         22.6191
            1705     3.93222E-03     88.7638E-03         6.49391        -2.81913        -3.75990        -2.53887         6.02751        -3.57377         3.88315     34.4294E-03    -17.1781E-03    -17.2513E-03    -17.1299E-03     34.3353E-03    -17.2053E-03     4.38155E-03     16.2148E+06     4.12533E+06    -67.2771E+06     6.25531E+06    -57.3177E+06     4.12533E+06    -26.9678E+06         22.6753
            1706     4.91550E-03     88.7680E-03         5.14260        -1.88652        -3.28118        -1.68108         4.93716        -3.28118         2.29443     34.3831E-03    -17.1442E-03    -17.2389E-03    -17.0565E-03     34.2440E-03    -17.1875E-03     5.32446E-03     20.5104E+06     6.19732E+06    -69.0790E+06     7.50084E+06    -56.0695E+06     6.19732E+06    -31.5031E+06         22.7514
            1707     5.89876E-03     88.7733E-03         4.15330        -1.17271        -2.92429    -595.055E-03         3.57564        -2.92429         3.05800     34.3562E-03    -17.1464E-03    -17.2098E-03    -17.0076E-03     34.1701E-03    -17.1625E-03     6.16993E-03     24.3929E+06     7.00753E+06    -71.8679E+06     8.82882E+06    -56.3039E+06     7.00753E+06    -35.4156E+06         22.8507
            1708     6.88186E-03     88.7795E-03         4.11700        -1.44280        -2.52277     347.931E-03         2.32627        -2.52277         5.00193     34.2940E-03    -17.1202E-03    -17.1737E-03    -16.9338E-03     34.0540E-03    -17.1202E-03     6.99286E-03     27.6736E+06     4.91601E+06    -73.8445E+06     10.1323E+06    -56.3033E+06     4.91601E+06     -38.362E+06         22.9781
            1709     7.86553E-03     88.7861E-03         3.85872        -1.49374        -2.13091     825.476E-03         1.53950        -2.13091         5.30154     34.2207E-03    -17.0603E-03    -17.1604E-03    -16.8590E-03     33.9193E-03    -17.0603E-03     7.83831E-03     28.8004E+06    -1.26731E+06    -77.9156E+06     8.84324E+06    -57.9584E+06    -1.26731E+06    -41.5556E+06         23.1413
            1710     8.84894E-03     88.7937E-03         2.61345    -510.376E-03        -1.79185     952.585E-03         1.15049        -1.79185         3.10311     34.1570E-03    -16.9946E-03    -17.1624E-03    -16.7894E-03     33.7840E-03    -16.9946E-03     8.70414E-03     29.5610E+06    -8.69007E+06    -82.4477E+06     5.62567E+06    -58.5124E+06    -8.69007E+06    -45.8040E+06         23.3561
            1711     9.83245E-03     88.8017E-03         1.72279     165.541E-03        -1.50753         1.09725     791.075E-03        -1.50753         1.40360     34.1421E-03    -16.9210E-03    -17.2211E-03    -16.7234E-03     33.6444E-03    -16.9210E-03     10.0254E-03     31.7065E+06    -16.1733E+06    -82.7035E+06     3.75853E+06    -54.7555E+06    -16.1733E+06    -49.1275E+06         23.6624
            1712     10.8161E-03     88.8124E-03         1.53297     185.085E-03        -1.25652         1.37307     344.980E-03        -1.25652     630.847E-03     34.0660E-03    -16.8300E-03    -17.2361E-03    -16.6632E-03     33.4932E-03    -16.8300E-03     10.7781E-03     30.7741E+06    -28.0290E+06    -81.9214E+06     1.53972E+06    -52.6870E+06    -28.0290E+06    -49.3898E+06         24.1742
            1713     11.7998E-03     88.8215E-03         1.64754    -67.1423E-03        -1.02711         1.59345    -13.0477E-03        -1.02711     440.518E-03     34.0632E-03    -16.7252E-03    -17.3380E-03    -16.6045E-03     33.3297E-03    -16.7252E-03     12.1102E-03     27.5734E+06    -43.4550E+06    -78.3306E+06    -2.33792E+06    -48.4193E+06    -43.4550E+06    -47.6098E+06         25.2017
            1714     12.7837E-03     88.8349E-03         1.77120    -295.573E-03    -833.430E-03         1.36318     112.444E-03    -833.430E-03         1.25274     34.6615E-03    -16.5940E-03    -18.0675E-03    -16.6845E-03     33.2785E-03    -16.5940E-03     16.6000E-03     27.2739E+06    -56.6240E+06    -76.5316E+06    -4.71680E+06    -36.5101E+06    -64.6549E+06    -45.0154E+06         27.4675
            1715     13.7666E-03     88.8530E-03         1.70924    -286.203E-03    -699.902E-03     697.284E-03     725.751E-03    -699.902E-03         1.76449     35.8438E-03    -16.4300E-03    -19.4138E-03    -16.6071E-03     33.0372E-03    -16.4300E-03     23.9205E-03     25.9247E+06    -54.1420E+06    -96.3928E+06    -6.04924E+06    -22.1681E+06    -96.3928E+06    -39.0376E+06         32.2841
            1716     14.7515E-03     88.8822E-03         1.70977    -310.448E-03    -629.791E-03     66.8976E-03         1.33242    -629.791E-03     22.0477E-03     46.8062E-03    -16.3046E-03    -30.5016E-03    -16.8658E-03     33.1704E-03    -16.3046E-03     55.9069E-03     55.3347E+06    -30.2943E+06    -114.409E+06    -8.35874E+06     33.3991E+06    -114.409E+06    -27.9292E+06         41.1770
            1717     15.7353E-03     88.9644E-03         2.02380    -530.441E-03    -676.572E-03    -244.879E-03         1.67043    -608.769E-03        -1.77718     124.225E-03    -16.3908E-03    -107.835E-03    -27.8470E-03     44.2378E-03    -16.3908E-03     218.876E-03     111.205E+06    -12.3521E+06    -87.3168E+06    -9.73782E+06     108.591E+06    -87.3168E+06    -14.7212E+06         54.2443
            1718     16.7226E-03     89.3445E-03         2.27162    -597.285E-03    -724.672E-03    -455.822E-03         2.03153    -626.045E-03        -1.42310     201.429E-03    -16.9104E-03    -184.519E-03    -38.8014E-03     55.7119E-03    -16.9104E-03     374.157E-03     182.197E+06     61.1181E+06    -32.6654E+06    -7.35405E+06     181.955E+06     36.0478E+06    -4.51060E+06         67.8056
            1719     983.084E-06     89.7903E-03         9.14118        -3.05996        -6.10330        -1.95194         5.45691        -3.52705         4.58234     34.5803E-03    -17.2143E-03    -17.3660E-03    -17.3338E-03     34.5706E-03    -17.2369E-03     1.27216E-03     19.8440E+06     17.0633E+06    -58.0774E+06     17.7321E+06    -57.1299E+06     18.2276E+06    -7.61215E+06         22.5525
            1720     1.96601E-03     89.7918E-03         8.14825        -2.65250        -5.54845        -2.31489         4.91468        -2.65250         10.9828     34.5083E-03    -17.2273E-03    -17.2810E-03    -17.2325E-03     34.4791E-03    -17.2465E-03     2.40215E-03     23.3903E+06     15.2223E+06    -46.8006E+06     18.7035E+06    -42.8590E+06     15.9676E+06    -15.0294E+06         22.5746
            1721     2.94921E-03     89.7949E-03         6.12033        -2.56397        -3.59479        -2.56074         5.08628        -2.56397         5.90416     34.4034E-03    -17.1592E-03    -17.2442E-03    -17.1335E-03     34.3453E-03    -17.2118E-03     3.42299E-03     26.1159E+06     14.4899E+06    -48.6886E+06     18.5448E+06    -41.1176E+06     14.4899E+06    -22.5232E+06         22.6118
            1722     3.93233E-03     89.7981E-03         5.76722        -2.43492        -3.35958        -2.55531         5.08688        -2.55887         4.25453     34.3441E-03    -17.1245E-03    -17.2196E-03    -17.0612E-03     34.2463E-03    -17.1851E-03     4.45046E-03     28.8276E+06     14.8234E+06    -55.9031E+06     17.9000E+06    -44.9755E+06     14.8234E+06    -28.2378E+06         22.6667
            1723     4.91573E-03     89.8027E-03         4.68728        -2.04780        -2.60060        -1.90729         4.44152        -2.49534         2.39145     34.3148E-03    -17.1173E-03    -17.1975E-03    -17.0222E-03     34.1732E-03    -17.1510E-03     5.37590E-03     32.0742E+06     14.7078E+06    -58.7630E+06     17.9477E+06    -44.6365E+06     14.7078E+06    -32.8979E+06         22.7415
            1724     5.89887E-03     89.8078E-03         4.04644        -1.61008        -2.32312        -1.01113         3.44748        -2.32312         3.36343     34.2561E-03    -17.1003E-03    -17.1559E-03    -16.9399E-03     34.0632E-03    -17.1233E-03     6.26484E-03     35.2923E+06     15.1141E+06    -63.4051E+06     18.5725E+06    -46.6853E+06     15.1141E+06    -36.9900E+06         22.8394
            1725     6.88252E-03     89.8137E-03         4.21202        -1.67822        -2.32339    -212.048E-03         2.49942        -2.07695         5.28405     34.1832E-03    -17.0652E-03    -17.1180E-03    -16.8477E-03     33.9295E-03    -17.0817E-03     7.18286E-03     37.0830E+06     13.6534E+06    -66.6621E+06     19.0251E+06    -48.6042E+06     13.6534E+06    -39.3261E+06         22.9652
            1726     7.86583E-03     89.8203E-03         3.96293        -1.61319        -2.05170     362.557E-03         1.74076        -1.80527         5.62445     34.1493E-03    -17.0278E-03    -17.1215E-03    -16.8087E-03     33.8365E-03    -17.0278E-03     7.97544E-03     37.7806E+06     9.83161E+06    -68.9174E+06     18.9301E+06    -50.0668E+06     9.83161E+06    -40.6763E+06         23.1270
            1727     8.84954E-03     89.8277E-03         2.64312    -722.244E-03        -1.54927     577.688E-03         1.34319        -1.54927         3.25309     34.1008E-03    -16.9619E-03    -17.1389E-03    -16.7512E-03     33.7131E-03    -16.9619E-03     8.86144E-03     39.9798E+06     3.79274E+06    -70.5158E+06     17.5876E+06    -48.1235E+06     3.79274E+06    -44.3094E+06         23.3403
            1728     9.83297E-03     89.8360E-03         1.65492     128.059E-03        -1.32922     670.235E-03         1.11274        -1.32922         1.40703     34.1176E-03    -16.8881E-03    -17.2295E-03    -16.6951E-03     33.5832E-03    -16.8881E-03     10.3729E-03     40.1733E+06    -5.23536E+06    -73.8478E+06     14.0434E+06    -47.7179E+06    -5.23536E+06    -47.8595E+06         23.6439
            1729     10.8168E-03     89.8458E-03         1.29917     383.667E-03        -1.14091     768.546E-03     914.290E-03        -1.14091     673.406E-03     34.0030E-03    -16.7935E-03    -17.2095E-03    -16.6074E-03     33.4009E-03    -16.7935E-03     11.0355E-03     36.4755E+06    -19.4748E+06    -76.5184E+06     9.68067E+06    -49.7236E+06    -19.4748E+06    -48.0043E+06         24.1486
            1730     11.8006E-03     89.8556E-03         1.41912     215.070E-03    -981.255E-03     744.130E-03     890.057E-03    -981.255E-03     672.964E-03     33.9809E-03    -16.6822E-03    -17.2987E-03    -16.5158E-03     33.1980E-03    -16.6822E-03     12.4537E-03     34.5819E+06    -35.3846E+06    -73.7332E+06     6.28018E+06    -45.4314E+06    -35.3846E+06    -47.4439E+06         25.1596
            1731     12.7843E-03     89.8680E-03         1.88603    -257.410E-03    -856.629E-03     513.085E-03         1.11553    -856.629E-03         1.61650     34.6729E-03    -16.5466E-03    -18.1263E-03    -16.6101E-03     33.1567E-03    -16.5466E-03     17.3816E-03     34.6698E+06    -53.4315E+06    -71.1183E+06     2.90456E+06    -35.2963E+06    -57.4883E+06    -47.0448E+06         27.3937
            1732     13.7685E-03     89.8879E-03         2.12096    -471.852E-03    -772.399E-03     145.375E-03         1.50374    -772.399E-03         1.99313     35.5500E-03    -16.3708E-03    -19.1792E-03    -16.3560E-03     32.7268E-03    -16.3708E-03     23.9512E-03     29.9175E+06    -59.2984E+06    -92.7012E+06    -1.56141E+06    -27.8195E+06    -92.7012E+06    -42.5252E+06         32.1724
            1733     14.7531E-03     89.9130E-03         2.18678    -489.882E-03    -726.694E-03    -211.689E-03         1.90859    -726.694E-03    -46.4921E-03     47.2595E-03    -16.2318E-03    -31.0277E-03    -16.8304E-03     33.0622E-03    -16.2318E-03     57.1499E-03     49.5563E+06    -35.0152E+06    -114.407E+06    -5.73974E+06     20.2809E+06    -114.407E+06    -31.7269E+06         41.0584
            1734     15.7369E-03     90.0025E-03         2.65710    -669.741E-03    -898.172E-03    -481.442E-03         2.29107    -720.438E-03        -2.12844     123.716E-03    -16.2567E-03    -107.460E-03    -26.9787E-03     43.2355E-03    -16.2567E-03     218.546E-03     98.8251E+06    -12.1475E+06    -95.9268E+06    -7.74038E+06     94.4180E+06    -95.9268E+06    -17.5959E+06         54.2083
            1735     16.7268E-03     90.3686E-03         3.06270    -757.519E-03        -1.02109    -757.792E-03         2.79940    -757.519E-03        -1.72033     201.075E-03    -16.7422E-03    -184.333E-03    -38.8254E-03     55.5676E-03    -16.7422E-03     373.669E-03     174.158E+06     58.4779E+06    -40.4298E+06    -6.27251E+06     173.734E+06     24.7446E+06    -6.29037E+06         67.9272
            1736     982.970E-06     90.8249E-03         8.87710        -2.06985        -6.76691    -671.186E-03         2.78137        -2.06985         2.88640     34.6355E-03    -17.2099E-03    -17.4256E-03    -17.4055E-03     34.6253E-03    -17.2198E-03     1.33662E-03     35.4936E+06     30.9434E+06    -40.6571E+06     33.7526E+06    -38.9161E+06     30.9434E+06    -9.65367E+06         22.5414
            1737     1.96608E-03     90.8270E-03         6.74588        -1.34467        -5.36781        -1.24991         2.62798        -1.34467         10.9792     34.4233E-03    -17.1644E-03    -17.2589E-03    -17.1460E-03     34.3938E-03    -17.2479E-03     2.40315E-03     38.8977E+06     29.8288E+06    -31.3857E+06     34.2264E+06    -26.7144E+06     29.8288E+06    -17.0175E+06         22.5621
            1738     2.94931E-03     90.8292E-03         4.39924        -1.36180        -3.01818        -1.62404         3.00510        -1.36180         5.64795     34.2756E-03    -17.0801E-03    -17.1954E-03    -17.0204E-03     34.2159E-03    -17.1954E-03     3.46031E-03     42.1325E+06     31.8791E+06    -34.9125E+06     34.3637E+06    -27.1437E+06     31.8791E+06    -23.0895E+06         22.5978
            1739     3.93285E-03     90.8328E-03         4.34644        -1.45066        -2.86262        -1.84133         3.32515        -1.45066         4.22335     34.2625E-03    -17.0905E-03    -17.1719E-03    -17.0118E-03     34.1600E-03    -17.1481E-03     4.54910E-03     46.5830E+06     31.7853E+06    -42.5241E+06     35.3334E+06    -31.2745E+06     31.7853E+06    -29.4562E+06         22.6509
            1740     4.91591E-03     90.8371E-03         3.60993        -1.49750        -2.03562        -1.73411         3.32775        -1.51684         2.20592     34.1979E-03    -17.0707E-03    -17.1272E-03    -16.9428E-03     34.0462E-03    -17.1034E-03     5.55202E-03     49.9395E+06     30.2952E+06    -47.7697E+06     36.0198E+06    -33.8501E+06     30.2952E+06    -34.0954E+06         22.7236
            1741     5.89960E-03     90.8421E-03         3.67329        -1.44872        -2.06031        -1.37496         3.06101        -1.52179         3.47705     34.1123E-03    -17.0346E-03    -17.0777E-03    -16.8414E-03     33.9093E-03    -17.0679E-03     6.41652E-03     50.3842E+06     30.1425E+06    -52.5499E+06     34.9495E+06    -37.1152E+06     30.1425E+06    -36.6153E+06         22.8192
            1742     6.88304E-03     90.8478E-03         4.14633        -1.41541        -2.47274    -961.866E-03         2.68920        -1.46915         5.28600     34.0601E-03    -17.0064E-03    -17.0537E-03    -16.7719E-03     33.7950E-03    -17.0231E-03     7.32512E-03     49.4525E+06     27.6673E+06    -58.1315E+06     32.8794E+06    -41.5583E+06     27.6673E+06    -38.6889E+06         22.9429
            1743     7.86679E-03     90.8545E-03         4.04554        -1.36324        -2.32473    -444.249E-03         2.17323        -1.37142         5.76995     34.0063E-03    -16.9506E-03    -17.0557E-03    -16.7157E-03     33.6664E-03    -16.9508E-03     8.28474E-03     50.0381E+06     20.7762E+06    -60.6898E+06     31.4914E+06    -42.1430E+06     20.7762E+06    -41.2557E+06         23.1029
            1744     8.85020E-03     90.8616E-03         2.85524    -951.480E-03        -1.46021    -48.1462E-03         1.73586        -1.24416         3.56697     33.9203E-03    -16.8771E-03    -17.0432E-03    -16.6234E-03     33.5005E-03    -16.8771E-03     9.19695E-03     50.6401E+06     14.1674E+06    -60.8154E+06     29.8773E+06    -40.0526E+06     14.1674E+06    -43.3583E+06         23.3147
            1745     9.83437E-03     90.8697E-03         1.95793    -312.476E-03        -1.11552     83.2151E-03         1.56224        -1.11552         1.58708     33.9676E-03    -16.8092E-03    -17.1584E-03    -16.5745E-03     33.3837E-03    -16.8092E-03     10.7991E-03     48.1799E+06      6.6079E+06    -63.8951E+06     26.2042E+06    -41.9194E+06      6.6079E+06    -44.4263E+06         23.6158
            1746     10.8178E-03     90.8799E-03         1.73364    -84.3049E-03        -1.00808     1.29198E-03         1.64805        -1.00808     639.998E-03     33.9632E-03    -16.7140E-03    -17.2492E-03    -16.5967E-03     33.3107E-03    -16.7140E-03     11.4722E-03     44.3838E+06    -8.37831E+06    -68.2562E+06     21.0845E+06    -44.9569E+06    -8.37831E+06    -45.5713E+06         24.1144
            1747     11.8018E-03     90.8886E-03         2.02914    -312.672E-03    -946.924E-03    -256.484E-03         1.95925    -933.221E-03     682.717E-03     33.9551E-03    -16.6077E-03    -17.3474E-03    -16.5136E-03     33.1213E-03    -16.6077E-03     12.8392E-03     41.8847E+06    -25.1994E+06    -67.4746E+06     16.0665E+06    -41.6564E+06    -25.1994E+06    -46.3149E+06         25.1094
            1748     12.7859E-03     90.9020E-03         2.60390    -657.243E-03        -1.02925    -508.014E-03         2.31597    -890.556E-03         1.70296     34.4911E-03    -16.4847E-03    -18.0064E-03    -16.4043E-03     32.8890E-03    -16.4847E-03     17.8138E-03     40.1176E+06    -44.8143E+06    -62.7641E+06     10.5201E+06    -32.5074E+06    -45.4734E+06    -46.2172E+06         27.3127
            1749     13.7697E-03     90.9209E-03         2.82000    -759.256E-03    -998.713E-03    -552.760E-03         2.48097    -866.176E-03         2.03139     35.4402E-03    -16.3095E-03    -19.1308E-03    -16.3696E-03     32.6791E-03    -16.3095E-03     23.7761E-03     34.0860E+06    -58.7252E+06    -84.0069E+06     4.23649E+06    -30.4141E+06    -82.4685E+06    -43.8435E+06         32.0533
            1750     14.7541E-03     90.9461E-03         2.79806    -739.769E-03    -857.685E-03    -554.513E-03         2.60526    -850.139E-03    -76.6304E-03     47.1176E-03    -16.1658E-03    -30.9518E-03    -16.2908E-03     32.4566E-03    -16.1658E-03     57.2667E-03     44.4414E+06    -37.3818E+06    -105.914E+06    -596.063E+03     7.65570E+06    -105.914E+06    -34.2987E+06         40.9340
            1751     15.7406E-03     91.0353E-03         3.30822    -838.115E-03        -1.10435    -798.164E-03         3.02349    -859.565E-03        -2.10590     123.153E-03    -16.1484E-03    -107.005E-03    -27.3815E-03     43.5299E-03    -16.1484E-03     217.738E-03     85.5120E+06    -12.0068E+06    -98.1075E+06    -5.31508E+06     78.8203E+06    -98.1075E+06    -19.7683E+06         54.1574
            1752     16.7250E-03     91.3991E-03         3.83641    -913.187E-03        -1.32592        -1.13132         3.64181    -913.187E-03        -1.62445     200.701E-03    -16.6144E-03    -184.087E-03    -39.3065E-03     55.9210E-03    -16.6144E-03     372.779E-03     164.771E+06     52.8054E+06    -47.1842E+06    -5.83816E+06     164.077E+06     12.1529E+06    -8.08119E+06         68.0363
            1753     983.050E-06     91.8604E-03         9.55865    -761.364E-03        -8.70395     449.055E-03     405.638E-03    -761.364E-03         1.47078     34.4220E-03    -17.1581E-03    -17.2639E-03    -17.2342E-03     34.4095E-03    -17.1752E-03     1.57528E-03     54.5094E+06     50.1382E+06    -21.7172E+06     51.3037E+06    -19.9488E+06     51.5755E+06    -9.94565E+06         22.5190
            1754     1.96625E-03     91.8614E-03         5.94298    -244.116E-03        -5.61242    -601.974E-03     932.531E-03    -244.116E-03         11.1554     34.2333E-03    -17.0766E-03    -17.1567E-03    -17.0544E-03     34.2025E-03    -17.1481E-03     2.44408E-03     55.3777E+06     46.8668E+06    -15.8746E+06     49.8336E+06    -10.9367E+06     47.4730E+06    -17.4442E+06         22.5386
            1755     2.94984E-03     91.8639E-03         2.98928    -383.106E-03        -2.52548    -692.819E-03         1.15662    -383.106E-03         4.98222     34.1077E-03    -17.0122E-03    -17.0955E-03    -16.9550E-03     34.0418E-03    -17.0868E-03     3.61604E-03     57.8687E+06     45.3292E+06    -20.5609E+06     49.0571E+06    -11.7493E+06     45.3292E+06    -24.6073E+06         22.5726
            1756     3.93298E-03     91.8672E-03         2.75892    -462.952E-03        -2.22790    -711.656E-03         1.24267    -462.952E-03         3.86467     34.0118E-03    -16.9712E-03    -17.0406E-03    -16.8606E-03     33.9012E-03    -17.0406E-03     4.71286E-03     60.9880E+06     44.6655E+06    -29.6977E+06     48.8793E+06    -17.5890E+06     44.6655E+06    -30.8005E+06         22.6231
            1757     4.91689E-03     91.8714E-03         2.13953    -549.164E-03        -1.47970        -1.13655         1.79638    -549.164E-03         1.87690     33.9142E-03    -16.9265E-03    -16.9877E-03    -16.7630E-03     33.7507E-03    -16.9877E-03     5.73172E-03     62.7527E+06     42.7526E+06    -37.7600E+06     48.6658E+06    -23.6731E+06     42.7526E+06    -34.8520E+06         22.6926
            1758     5.90036E-03     91.8762E-03         3.04781    -675.611E-03        -2.18050        -1.53650         2.40381    -675.611E-03         3.41326     33.8802E-03    -16.9267E-03    -16.9534E-03    -16.7179E-03     33.6567E-03    -16.9388E-03     6.70494E-03     63.7336E+06     41.3638E+06    -43.7246E+06     49.1383E+06    -29.1293E+06     41.3638E+06    -36.7974E+06         22.7852
            1759     6.88408E-03     91.8820E-03         3.89768    -794.497E-03        -2.79796        -1.51063         2.61034    -794.497E-03         5.13823     33.8394E-03    -16.8956E-03    -16.9439E-03    -16.6480E-03     33.5437E-03    -16.8957E-03     7.70011E-03     65.1274E+06     40.6495E+06    -48.6437E+06     49.9064E+06    -33.4228E+06     40.6495E+06    -38.7222E+06         22.9062
            1760     7.86782E-03     91.8881E-03         4.03903    -860.093E-03        -2.76691        -1.15003         2.42215    -860.093E-03         5.77879     33.7162E-03    -16.8174E-03    -16.8988E-03    -16.5197E-03     33.3372E-03    -16.8176E-03     8.70661E-03     65.2959E+06     33.8688E+06    -51.5119E+06     48.5549E+06     -34.771E+06     33.8688E+06    -40.8241E+06         23.0642
            1761     8.85204E-03     91.8956E-03         3.19258    -851.311E-03        -1.82428    -861.826E-03         2.25319    -874.364E-03         3.83531     33.6920E-03    -16.7382E-03    -16.9538E-03    -16.4798E-03     33.2180E-03    -16.7382E-03     9.72801E-03     61.4857E+06     25.8769E+06    -52.8392E+06     44.2004E+06    -35.5539E+06     25.8769E+06    -40.7795E+06         23.2745
            1762     9.83559E-03     91.9030E-03         2.72165    -711.740E-03        -1.38652    -889.288E-03         2.38472    -872.039E-03         1.95968     33.7951E-03    -16.6787E-03    -17.1164E-03    -16.4789E-03     33.1575E-03    -16.6787E-03     11.2699E-03     56.2666E+06     19.4209E+06    -54.5509E+06     38.5562E+06    -36.8405E+06     19.4209E+06    -40.4813E+06         23.5736
            1763     10.8201E-03     91.9135E-03         2.80285    -675.088E-03        -1.37667        -1.11994         2.75313    -882.096E-03     828.606E-03     33.7963E-03    -16.5888E-03    -17.2075E-03    -16.4902E-03     33.0790E-03    -16.5888E-03     11.9984E-03     51.8616E+06     4.74904E+06    -58.7701E+06     32.5454E+06    -39.4538E+06     4.74904E+06    -41.8891E+06         24.0667
            1764     11.8035E-03     91.9224E-03         3.15216    -838.935E-03        -1.40716        -1.30120         3.11596    -908.697E-03     790.119E-03     33.9309E-03    -16.4890E-03    -17.4420E-03    -16.5321E-03     33.0211E-03    -16.4890E-03     13.4389E-03     47.7098E+06    -13.1389E+06    -59.3927E+06     25.7911E+06    -37.4741E+06    -13.1389E+06    -43.0044E+06         25.0475
            1765     12.7874E-03     91.9350E-03         3.51229    -939.625E-03        -1.49753        -1.30664         3.32140    -939.625E-03         1.75830     34.4462E-03    -16.3848E-03    -18.0614E-03    -16.3794E-03     32.7642E-03    -16.3848E-03     18.2405E-03     44.3793E+06    -32.3811E+06    -54.7362E+06     18.9989E+06    -29.3558E+06    -32.3811E+06    -43.0848E+06         27.2223
            1766     13.7721E-03     91.9542E-03         3.61285    -961.727E-03        -1.39900        -1.14418         3.35803    -961.727E-03         2.17610     35.4212E-03    -16.2290E-03    -19.1922E-03    -16.2742E-03     32.5032E-03    -16.2290E-03     24.4050E-03     35.7527E+06    -53.3315E+06    -72.7401E+06     10.4754E+06    -32.1643E+06    -68.6300E+06    -41.2499E+06         31.9278
            1767     14.7559E-03     91.9795E-03         3.59331    -969.944E-03        -1.19673        -1.05932         3.46144    -975.489E-03     322.189E-03     46.6414E-03    -16.0912E-03    -30.5502E-03    -16.3159E-03     32.4071E-03    -16.0912E-03     56.4860E-03     38.6882E+06    -40.8407E+06    -96.3959E+06     882.699E+03    -3.03514E+06    -96.3959E+06    -34.0224E+06         40.8041
            1768     15.7430E-03     92.0641E-03         4.00873        -1.00066        -1.37936        -1.24174         3.87666        -1.00620        -1.56186     124.261E-03    -16.0238E-03    -108.237E-03    -27.9121E-03     43.9359E-03    -16.0238E-03     219.767E-03     74.0702E+06    -13.3973E+06    -101.748E+06    -4.36990E+06     65.0428E+06    -101.748E+06    -21.9364E+06         54.1101
            1769     16.7257E-03     92.4412E-03         4.57510        -1.07477        -1.60411        -1.50670         4.47769        -1.07477        -1.30735     200.815E-03    -16.4453E-03    -184.369E-03    -39.3441E-03     55.7894E-03    -16.4453E-03     373.210E-03     154.117E+06     47.2712E+06    -53.7260E+06    -4.42880E+06     152.914E+06    -823.084E+03    -9.73673E+06         68.1588
            1770     983.575E-06     92.8949E-03         10.6552     11.6856E-03        -10.5388         1.18649        -1.07005     11.6856E-03     460.723E-03     33.9010E-03    -16.9159E-03    -16.9851E-03    -16.9139E-03     33.8888E-03    -16.9749E-03     1.45032E-03     72.0457E+06     67.9021E+06    -4.38361E+06     69.2429E+06    -3.01805E+06     69.3394E+06    -8.52224E+06         22.4793
            1771     1.96703E-03     92.8961E-03         5.74937     497.480E-03        -6.14158     221.108E-03    -640.073E-03     524.237E-03         11.4041     33.8491E-03    -16.8917E-03    -16.9574E-03    -16.8992E-03     33.8137E-03    -16.9145E-03     2.59966E-03     74.0382E+06     66.3346E+06     1.90193E+06     68.6694E+06     6.66459E+06     66.9408E+06    -17.1702E+06         22.4978
            1772     2.95021E-03     92.8982E-03         2.28470     379.089E-03        -2.55917     140.878E-03    -442.106E-03     405.846E-03         4.34909     33.7963E-03    -16.8702E-03    -16.9261E-03    -16.8383E-03     33.7205E-03    -16.8822E-03     3.86488E-03     75.8959E+06     63.0414E+06    -4.40678E+06     67.3043E+06     4.18481E+06     63.0414E+06    -24.6920E+06         22.5295
            1773     3.93417E-03     92.9015E-03         2.05546     220.747E-03        -2.18879     69.4489E-03    -313.159E-03     331.134E-03         3.55685     33.6538E-03    -16.8014E-03    -16.8524E-03    -16.6835E-03     33.5301E-03    -16.8466E-03     4.96345E-03     76.6678E+06     60.1201E+06    -15.8244E+06     65.0526E+06    -4.20927E+06     60.1201E+06    -30.5282E+06         22.5765
            1774     4.91771E-03     92.9051E-03         1.22543     121.963E-03        -1.21235    -453.869E-03     356.563E-03     232.350E-03         1.52747     33.5076E-03    -16.7182E-03    -16.7894E-03    -16.5374E-03     33.3220E-03    -16.7846E-03     6.05711E-03     76.9628E+06     55.5949E+06    -26.7111E+06     63.1439E+06    -12.8921E+06     55.5949E+06    -35.1468E+06         22.6422
            1775     5.90174E-03     92.9102E-03         2.21037     65.5537E-03        -2.05964        -1.14805         1.29879     65.5537E-03         3.30837     33.3886E-03    -16.6686E-03    -16.7200E-03    -16.4187E-03     33.1203E-03    -16.7017E-03     7.26990E-03     77.7231E+06     48.9324E+06    -36.1334E+06     62.4249E+06    -20.8352E+06     48.9324E+06    -38.8014E+06         22.7310
            1776     6.88577E-03     92.9153E-03         3.38916    -135.767E-03        -2.91534        -1.58521         2.05903    -135.767E-03         5.06306     33.3499E-03    -16.6316E-03    -16.7183E-03    -16.3524E-03     32.9841E-03    -16.6316E-03     8.48735E-03     78.2183E+06     45.3541E+06     -41.971E+06     62.3326E+06    -26.0853E+06     45.3541E+06    -40.6944E+06         22.8490
            1777     7.86987E-03     92.9220E-03         4.01005    -323.642E-03        -3.22333        -1.72727         2.51398    -323.642E-03         5.78629     33.3193E-03    -16.5678E-03    -16.7515E-03    -16.2934E-03     32.8612E-03    -16.5678E-03     9.50403E-03     75.4624E+06     41.5611E+06    -45.3213E+06     60.6249E+06    -30.4838E+06     41.5611E+06    -39.6026E+06         23.0048
            1778     8.85400E-03     92.9282E-03         3.65418    -484.382E-03        -2.58367        -1.85197         2.92247    -484.382E-03         3.87827     33.3699E-03    -16.4963E-03    -16.8736E-03    -16.2891E-03     32.7854E-03    -16.4963E-03     10.7219E-03     70.4684E+06     34.6008E+06    -46.5989E+06     56.8714E+06    -33.0019E+06     34.6008E+06    -37.4466E+06         23.2138
            1779     9.83835E-03     92.9373E-03         3.65290    -629.210E-03        -2.30260        -2.05163         3.40192    -629.210E-03         2.15340     33.5695E-03    -16.4415E-03    -17.1280E-03    -16.3594E-03     32.8009E-03    -16.4415E-03     12.3345E-03     65.4229E+06     28.5426E+06    -46.6091E+06     51.8042E+06    -32.9903E+06     28.5426E+06    -36.4574E+06         23.5116
            1780     10.8219E-03     92.9459E-03         3.93971    -766.264E-03        -2.30666        -2.24835         3.88140    -766.264E-03         1.17950     33.6151E-03    -16.3665E-03    -17.2486E-03    -16.3898E-03     32.7563E-03    -16.3665E-03     13.0786E-03     59.8380E+06     15.1267E+06    -49.2215E+06     45.3376E+06    -34.7210E+06     15.1267E+06    -36.8371E+06         24.0010
            1781     11.8066E-03     92.9562E-03         4.23655    -889.715E-03        -2.30564        -2.24994         4.18086    -889.715E-03         1.19239     33.8494E-03    -16.2770E-03    -17.5724E-03    -16.4993E-03     32.7763E-03    -16.2770E-03     14.6108E-03     54.0873E+06    -3.37199E+06    -49.7620E+06     37.2625E+06    -32.9372E+06    -3.37199E+06    -37.9876E+06         24.9706
            1782     12.7903E-03     92.9680E-03         4.36885    -984.764E-03        -2.15168        -1.97692         4.19409    -984.764E-03         1.97448     34.4767E-03    -16.1940E-03    -18.2828E-03    -16.4717E-03     32.6656E-03    -16.1940E-03     19.0065E-03     47.2903E+06    -23.4851E+06    -47.1810E+06     27.8085E+06    -27.6992E+06    -23.4851E+06    -37.9470E+06         27.1220
            1783     13.7742E-03     92.9871E-03         4.38660        -1.04709        -1.91398        -1.68922         4.16184        -1.04709         2.30273     35.4819E-03    -16.0829E-03    -19.3990E-03    -16.3224E-03     32.4053E-03    -16.0829E-03     25.0782E-03     35.4342E+06    -46.7090E+06    -61.4020E+06     17.4150E+06    -33.8456E+06    -56.2461E+06    -35.0334E+06         31.7994
            1784     14.7597E-03     93.0119E-03         4.46879        -1.09303        -1.74896        -1.65136         4.37120        -1.09303     557.225E-03     46.8474E-03    -15.9577E-03    -30.8896E-03    -16.9140E-03     32.8718E-03    -15.9577E-03     56.7155E-03     35.7771E+06    -37.7599E+06    -89.3367E+06     6.50981E+06    -8.49262E+06    -89.3367E+06    -30.5985E+06         40.6758
            1785     15.7422E-03     93.0977E-03         4.85761        -1.15300        -1.85219        -1.78200         4.78742        -1.15300        -1.30782     124.610E-03    -15.8444E-03    -108.765E-03    -27.5510E-03     43.3954E-03    -15.8444E-03     220.623E-03     65.1481E+06    -13.8775E+06    -108.959E+06    -2.53607E+06     53.8067E+06    -108.959E+06    -23.3935E+06         54.0784
            1786     16.7339E-03     93.4722E-03         5.27066        -1.24215        -1.89944        -1.83143         5.20266        -1.24215        -1.30092     200.698E-03    -16.2194E-03    -184.478E-03    -38.9242E-03     55.1436E-03    -16.2194E-03     373.510E-03     142.109E+06     38.7186E+06    -59.8280E+06    -4.82298E+06     140.146E+06    -14.3235E+06    -11.9165E+06         68.3208
            1787     983.624E-06     93.9284E-03         11.5908     337.192E-03        -11.8166         1.57493        -1.80065     337.192E-03    -663.720E-03     33.1673E-03    -16.5049E-03    -16.6624E-03    -16.5966E-03     33.1533E-03    -16.5567E-03     1.45808E-03     83.5893E+06     77.2569E+06     13.2105E+06     81.8171E+06     14.9827E+06     77.2569E+06    -9.22852E+06         22.4149
            1788     1.96767E-03     93.9302E-03         6.09912     990.340E-03        -6.99484         1.25900        -2.18147         1.01710         11.4985     33.0868E-03    -16.4901E-03    -16.5967E-03    -16.5141E-03     33.0448E-03    -16.5307E-03     2.82043E-03     85.0895E+06     75.1965E+06     19.3840E+06     79.2873E+06     25.1861E+06     75.1965E+06    -17.9509E+06         22.4314
            1789     2.95167E-03     93.9322E-03         2.36212         1.01688        -3.30538     833.339E-03        -1.80336         1.04364         4.09758     33.0701E-03    -16.4915E-03    -16.5786E-03    -16.4639E-03     32.9805E-03    -16.5166E-03     4.14031E-03     88.0793E+06     74.9131E+06     9.46322E+06     78.9351E+06     18.6074E+06     74.9131E+06    -24.9326E+06         22.4600
            1790     3.93529E-03     93.9350E-03         2.18695     660.608E-03        -2.75237     330.138E-03        -1.16945     934.506E-03         3.35515     32.9735E-03    -16.4705E-03    -16.5030E-03    -16.3459E-03     32.8164E-03    -16.4705E-03     5.50387E-03     89.8102E+06     70.0521E+06    -2.26176E+06     78.3869E+06     9.16160E+06     70.0521E+06    -30.2391E+06         22.5033
            1791     4.91954E-03     93.9389E-03         1.18601     511.427E-03        -1.55324     32.6980E-03    -673.822E-03     785.325E-03         1.22333     32.7969E-03    -16.3666E-03    -16.4303E-03    -16.1570E-03     32.5550E-03    -16.3980E-03     6.81543E-03     91.3918E+06     63.6766E+06    -15.0853E+06     77.5194E+06    -1.21298E+06     63.6766E+06    -35.7708E+06         22.5649
            1792     5.90394E-03     93.9428E-03         1.57484     624.060E-03        -1.95652    -430.949E-03     49.2614E-03     624.060E-03         3.26638     32.6455E-03    -16.2715E-03    -16.3740E-03    -15.9891E-03     32.2919E-03    -16.3028E-03     8.23008E-03     90.9445E+06     55.7007E+06    -26.2346E+06     75.3668E+06    -10.6569E+06     55.7007E+06    -39.7669E+06         22.6498
            1793     6.88850E-03     93.9486E-03         2.81374     414.650E-03        -2.87240        -1.31855         1.25989     414.650E-03         5.00237     32.5946E-03    -16.2192E-03    -16.3754E-03    -15.8971E-03     32.1163E-03    -16.2192E-03     9.58212E-03     86.9532E+06     49.3468E+06    -35.9449E+06     71.3786E+06    -20.3703E+06     49.3468E+06    -40.8292E+06         22.7646
            1794     7.87317E-03     93.9542E-03         3.99262     144.743E-03        -3.63585        -2.23211         2.58889     144.743E-03         5.68267     32.7202E-03    -16.1597E-03    -16.5605E-03    -15.9515E-03     32.1112E-03    -16.1597E-03     10.8353E-03     81.3848E+06     45.2363E+06    -42.4117E+06     67.6343E+06    -28.6612E+06     45.2363E+06    -38.8722E+06         22.9187
            1795     8.85754E-03     93.9616E-03         4.16244    -150.373E-03        -3.36401        -2.82782         3.62626    -150.373E-03         3.72484     32.8899E-03    -16.1017E-03    -16.7882E-03    -16.0208E-03     32.1225E-03    -16.1017E-03     12.1962E-03     77.3494E+06     39.6385E+06    -43.4237E+06     65.1177E+06    -31.1920E+06     39.6385E+06    -36.4201E+06         23.1271
            1796     9.84194E-03     93.9692E-03         4.43926    -427.563E-03        -3.21169        -3.03030         4.25787    -427.563E-03         2.14358     33.1627E-03    -16.0640E-03    -17.0987E-03    -16.0938E-03     32.1578E-03    -16.0640E-03     14.0011E-03     73.2486E+06     35.3742E+06    -42.9929E+06     62.2492E+06    -31.9935E+06     35.3742E+06    -33.9632E+06         23.4253
            1797     10.8267E-03     93.9798E-03         4.73882    -664.306E-03        -3.10115        -3.03516         4.67283    -664.306E-03         1.42676     33.4664E-03    -16.0188E-03    -17.4476E-03    -16.3502E-03     32.3690E-03    -16.0188E-03     14.7537E-03     67.0321E+06     25.1041E+06    -42.2894E+06     56.7601E+06    -32.0174E+06     25.1041E+06    -31.7504E+06         23.9142
            1798     11.8101E-03     93.9881E-03         5.04077    -858.685E-03        -3.02619        -2.95273         4.96731    -858.685E-03         1.52896     33.7728E-03    -15.9668E-03    -17.8060E-03    -16.4750E-03     32.4418E-03    -15.9668E-03     16.2321E-03     59.2400E+06     8.94554E+06    -40.6410E+06     47.9592E+06    -29.3602E+06     8.94554E+06    -31.1771E+06         24.8776
            1799     12.7943E-03     94.0024E-03         5.29881        -1.01354        -2.92555        -2.77121         5.14447        -1.01354         2.13074     34.6256E-03    -15.9187E-03    -18.7069E-03    -16.6389E-03     32.5576E-03    -15.9187E-03     20.4645E-03     49.2223E+06    -11.4017E+06    -39.3758E+06     37.0454E+06    -27.1989E+06    -11.4017E+06    -30.1151E+06         27.0133
            1800     13.7786E-03     94.0187E-03         5.40510        -1.13243        -2.70195        -2.53480         5.23794        -1.13243         2.21275     35.9526E-03    -15.8565E-03    -20.0961E-03    -16.8121E-03     32.6687E-03    -15.8565E-03     26.1579E-03     34.3349E+06    -38.7228E+06    -52.5486E+06     23.7294E+06    -35.9001E+06    -44.7659E+06    -26.8033E+06         31.6727
            1801     14.7613E-03     94.0464E-03         5.42799        -1.22552        -2.41829        -2.35457         5.36427        -1.22552     363.151E-03     47.4285E-03    -15.7700E-03    -31.6585E-03    -17.2010E-03     32.9710E-03    -15.7700E-03     58.1348E-03     32.8594E+06    -32.4672E+06    -79.1492E+06     10.5315E+06    -10.1394E+06    -79.1492E+06    -24.5514E+06         40.5750
            1802     15.7479E-03     94.1297E-03         5.66811        -1.31785        -2.34154        -2.25692         5.58348        -1.31785        -1.53755     124.334E-03    -15.6775E-03    -108.656E-03    -28.2925E-03     43.9700E-03    -15.6775E-03     219.957E-03     59.3630E+06    -9.29503E+06    -105.633E+06     1.39358E+06     48.6744E+06    -105.633E+06    -21.5361E+06         54.1035
            1803     16.7319E-03     94.5015E-03         5.81226        -1.42308        -2.13147        -2.04696         5.72775        -1.42308        -1.53089     199.997E-03    -16.0562E-03    -183.941E-03    -38.5504E-03     54.6065E-03    -16.0562E-03     372.407E-03     130.016E+06     35.9587E+06     -60.614E+06    -2.64138E+06     127.743E+06    -19.7404E+06    -12.6418E+06         68.6206
            1804     984.546E-06     94.9621E-03         11.8601     705.401E-03        -12.5223         1.86658        -2.52879     705.401E-03        -1.81334     32.1352E-03    -15.9972E-03    -16.1380E-03    -16.1204E-03     32.1176E-03    -15.9972E-03     1.73265E-03     96.6029E+06     89.9309E+06     31.3166E+06     93.4361E+06     33.8491E+06     90.5652E+06    -10.9359E+06         22.3172
            1805     1.96853E-03     94.9631E-03         6.23188         1.39366        -7.59704         1.82253        -3.18770         1.39366         11.2205     31.9906E-03    -15.9641E-03    -16.0265E-03    -15.9471E-03     31.9362E-03    -15.9891E-03     3.10568E-03     97.7473E+06     84.8174E+06     37.1876E+06     91.1810E+06     43.7539E+06     84.8174E+06    -18.4833E+06         22.3311
            1806     2.95307E-03     94.9651E-03         2.69801         1.47386        -4.14333         1.30808        -2.75340         1.47386         4.20876     31.8410E-03    -15.8775E-03    -15.9635E-03    -15.7886E-03     31.7217E-03    -15.9331E-03     4.67448E-03     98.9292E+06     80.5371E+06     23.1800E+06     88.4952E+06     33.6141E+06     80.5371E+06    -25.9651E+06         22.3562
            1807     3.93788E-03     94.9680E-03         2.46522         1.01237        -3.40747     641.283E-03        -1.92869         1.35753         3.47997     31.7128E-03    -15.8199E-03    -15.8928E-03    -15.6514E-03     31.5019E-03    -15.8505E-03     6.24912E-03     100.699E+06     74.3197E+06     8.94546E+06     87.5791E+06     22.0656E+06     74.3197E+06    -32.0850E+06         22.3958
            1808     4.92267E-03     94.9709E-03         1.32689     834.184E-03        -2.01426     282.215E-03        -1.31473         1.17934         1.15406     31.6291E-03    -15.7634E-03    -15.8657E-03    -15.5310E-03     31.2944E-03    -15.7634E-03     7.86952E-03     101.250E+06     67.7998E+06    -4.08910E+06     86.1195E+06     11.0413E+06     67.7998E+06    -36.9227E+06         22.4537
            1809     5.90753E-03     94.9753E-03         1.32502     991.730E-03        -2.07616    -196.655E-03    -554.490E-03     991.730E-03         3.26707     31.5817E-03    -15.6847E-03    -15.8970E-03    -15.4134E-03     31.0981E-03    -15.6847E-03     9.46350E-03     98.2529E+06     61.4373E+06    -17.6677E+06     82.8555E+06    -2.27026E+06     61.4373E+06    -39.2507E+06         22.5354
            1810     6.89268E-03     94.9800E-03         2.50051     753.068E-03        -2.87814        -1.21663     838.986E-03     753.068E-03         4.91049     31.6085E-03    -15.6075E-03    -16.0010E-03    -15.3363E-03     30.9438E-03    -15.6075E-03     11.0850E-03     91.4870E+06     53.8048E+06    -29.8028E+06     77.7102E+06    -16.0259E+06     53.8048E+06    -38.3932E+06         22.6479
            1811     7.87773E-03     94.9864E-03         3.87085     433.169E-03        -3.78592        -2.45011         2.53504     433.169E-03         5.49564     31.8144E-03    -15.5380E-03    -16.2764E-03    -15.4083E-03     30.9463E-03    -15.5380E-03     12.7136E-03     84.8751E+06     45.7465E+06    -38.4809E+06     72.0355E+06    -25.6413E+06     45.7465E+06    -37.6602E+06         22.8012
            1812     8.86275E-03     94.9933E-03         4.36740     66.7731E-03        -3.74974        -3.30305         3.92071     66.7731E-03         3.57405     32.1367E-03    -15.4882E-03    -16.6485E-03    -15.5693E-03     31.0575E-03    -15.4882E-03     14.2592E-03     78.5795E+06     38.1784E+06    -42.3471E+06     67.0091E+06    -30.7768E+06     38.1784E+06    -35.5220E+06         23.0113
            1813     9.84760E-03     95.0015E-03         4.91291    -286.033E-03        -3.76995        -3.61852         4.76149    -286.033E-03         2.10061     32.6817E-03    -15.4794E-03    -17.2023E-03    -15.8142E-03     31.2936E-03    -15.4794E-03     16.2984E-03     71.9883E+06     34.4487E+06    -41.8861E+06     62.0851E+06    -31.9829E+06     34.4487E+06    -32.0601E+06         23.3135
            1814     10.8320E-03     95.0116E-03         5.26018    -587.556E-03        -3.63524        -3.57457         5.19951    -587.556E-03         1.45005     33.1994E-03    -15.4806E-03    -17.7188E-03    -16.2030E-03     31.6835E-03    -15.4806E-03     17.2150E-03     65.7923E+06     26.8749E+06    -40.9528E+06     57.3565E+06    -32.5170E+06     26.8749E+06    -28.7231E+06         23.8069
            1815     11.8162E-03     95.0219E-03         5.67728    -835.272E-03        -3.60544        -3.53381         5.60566    -835.272E-03         1.61879     33.7318E-03    -15.5005E-03    -18.2313E-03    -16.5467E-03     32.0472E-03    -15.5005E-03     18.3130E-03     57.3010E+06     17.0627E+06    -36.7079E+06     50.7099E+06    -30.1167E+06     17.0627E+06    -23.7667E+06         24.7716
            1816     12.8006E-03     95.0334E-03         6.22948        -1.04651        -3.74005        -3.61136         6.10078        -1.04651         2.19013     35.0258E-03    -15.5307E-03    -19.4951E-03    -16.9786E-03     32.5093E-03    -15.5307E-03     22.7183E-03     44.6775E+06     1.29086E+06    -33.1481E+06     38.9194E+06    -27.3900E+06     1.29086E+06    -19.9023E+06         26.9016
            1817     13.7829E-03     95.0546E-03         6.53359        -1.22828        -3.64332        -3.51952         6.40979        -1.22828         2.14636     36.5174E-03    -15.5310E-03    -20.9863E-03    -17.3796E-03     32.9106E-03    -15.5310E-03     27.7986E-03     30.4707E+06    -31.0336E+06    -45.9984E+06     25.7220E+06    -39.1144E+06    -33.1690E+06    -17.5259E+06         31.5618
            1818     14.7678E-03     95.0769E-03         6.46925        -1.37526        -3.21022        -3.16688         6.42591        -1.37526     275.045E-03     47.9849E-03    -15.5146E-03    -32.4703E-03    -17.6514E-03     33.1660E-03    -15.5146E-03     59.2237E-03     35.6170E+06    -25.6642E+06    -63.9575E+06     14.5938E+06    -5.82903E+06    -62.7694E+06    -17.5140E+06         40.5385
            1819     15.7506E-03     95.1650E-03         6.36409        -1.49688        -2.76645        -2.68036         6.27800        -1.49688        -1.61925     125.880E-03    -15.4849E-03    -110.395E-03    -29.0469E-03     44.5318E-03    -15.4849E-03     223.074E-03     54.7683E+06    -2.61567E+06    -88.5906E+06      5.5088E+06     46.6438E+06    -88.5906E+06    -18.8901E+06         54.4049
            1820     16.7341E-03     95.5363E-03         6.20869        -1.60582        -2.28291        -2.19938         6.12516        -1.60582        -1.53768     200.510E-03    -15.8810E-03    -184.629E-03    -38.7535E-03     54.6346E-03    -15.8810E-03     373.580E-03     117.237E+06     41.5529E+06    -52.6643E+06     1.54181E+06     114.036E+06    -9.45210E+06    -10.6071E+06         69.4996
            1821     984.818E-06     95.9943E-03         11.5444         1.56819        -13.1862         2.04675        -3.68851         1.56819        -2.01420     30.5138E-03    -15.2011E-03    -15.3127E-03    -15.2522E-03     30.4887E-03    -15.2365E-03     2.01668E-03     107.756E+06     101.660E+06     50.8899E+06     104.070E+06     53.9420E+06     102.294E+06    -10.9790E+06         22.1779
            1822     1.97032E-03     95.9949E-03         6.09548         1.67927        -7.84138         1.63518        -3.47521         1.77341         11.2157     30.2792E-03    -15.1152E-03    -15.1640E-03    -15.0503E-03     30.2009E-03    -15.1506E-03     3.60519E-03     108.926E+06     93.5189E+06     53.4473E+06     101.412E+06     60.9615E+06     93.5189E+06    -18.5740E+06         22.1895
            1823     2.95558E-03     95.9968E-03         2.90295         1.62012        -4.54854         1.56464        -3.30438         1.71425         4.41381     30.1079E-03    -15.0198E-03    -15.0882E-03    -14.8880E-03     29.9382E-03    -15.0502E-03     5.42734E-03     109.472E+06     85.1222E+06     38.4897E+06     97.6566E+06     50.3050E+06     85.1222E+06    -26.0911E+06         22.2118
            1824     3.94118E-03     95.9988E-03         2.76509         1.25471        -3.99843         1.12359        -2.72904         1.62682         3.80159     29.9590E-03    -14.9203E-03    -15.0387E-03    -14.7133E-03     29.6641E-03    -14.9508E-03     7.15556E-03     108.810E+06     76.8014E+06     20.3428E+06     93.4188E+06     35.7336E+06     76.8014E+06    -33.3153E+06         22.2485
            1825     4.92698E-03     96.0021E-03         1.45774         1.04684        -2.39346     243.399E-03        -1.57661         1.44434         1.42801     29.8993E-03    -14.8429E-03    -15.0564E-03    -14.5853E-03     29.4282E-03    -14.8429E-03     9.04338E-03     104.466E+06     66.5139E+06     4.90879E+06     88.1251E+06     21.2494E+06     66.5139E+06    -36.6778E+06         22.3040
            1826     5.91283E-03     96.0058E-03         1.39061         1.14124        -2.30576    -728.784E-03    -211.754E-03         1.16663         3.35451     29.9704E-03    -14.7520E-03    -15.2184E-03    -14.5251E-03     29.2772E-03    -14.7520E-03     10.9964E-03     96.3624E+06     56.1564E+06    -11.2351E+06     81.2821E+06     3.84529E+06     56.1564E+06    -37.2153E+06         22.3842
            1827     6.89866E-03     96.0107E-03         2.52617     839.260E-03        -3.00045        -1.53135         1.05707     839.260E-03         4.81876     30.2019E-03    -14.6745E-03    -15.5274E-03    -14.5540E-03     29.2285E-03    -14.6745E-03     13.0723E-03     88.2971E+06     45.5983E+06    -25.5099E+06     75.0973E+06    -12.3102E+06     45.5983E+06    -36.3145E+06         22.4968
            1828     7.88455E-03     96.0167E-03         3.64883     495.183E-03        -3.62274        -2.29531         2.32140     495.183E-03         5.37719     30.5321E-03    -14.6158E-03    -15.9163E-03    -14.6394E-03     29.2552E-03    -14.6158E-03     15.0783E-03     79.5606E+06     36.0782E+06    -34.1742E+06     68.2043E+06    -22.8178E+06     36.0782E+06    -34.0308E+06         22.6527
            1829     8.87029E-03     96.0239E-03         4.15227     139.332E-03        -3.60630        -3.12405         3.67002     139.332E-03         3.59267     31.1233E-03    -14.5940E-03    -16.5293E-03    -14.9409E-03     29.5348E-03    -14.5940E-03     16.9925E-03     69.3359E+06     27.9001E+06    -41.0159E+06     59.4197E+06    -31.0996E+06     27.9001E+06    -31.5096E+06         22.8689
            1830     9.85560E-03     96.0323E-03         5.02049    -219.380E-03        -3.93335        -3.77272         4.85985    -219.380E-03         2.13083     32.0248E-03    -14.6214E-03    -17.4034E-03    -15.4040E-03     30.0254E-03    -14.6214E-03     19.3548E-03     59.5979E+06     23.0678E+06    -41.6074E+06     50.9909E+06    -33.0005E+06     23.0678E+06    -28.1891E+06         23.1811
            1831     10.8403E-03     96.0435E-03         5.69985    -555.040E-03        -4.08639        -4.04026         5.65372    -555.040E-03         1.33269     32.8358E-03    -14.6921E-03    -18.1437E-03    -15.9663E-03     30.6584E-03    -14.6921E-03     20.5299E-03     48.5973E+06     17.6786E+06    -41.9864E+06     41.9620E+06    -35.3510E+06     17.6786E+06    -23.4689E+06         23.6872
            1832     11.8247E-03     96.0532E-03         6.29910    -849.662E-03        -4.18943        -4.12354         6.23322    -849.662E-03         1.64278     33.9094E-03    -14.7966E-03    -19.1127E-03    -16.7914E-03     31.5881E-03    -14.7966E-03     21.5953E-03     37.9469E+06     9.87199E+06    -39.3021E+06     33.5309E+06    -34.8861E+06     9.87199E+06    -17.8563E+06         24.6635
            1833     12.8072E-03     96.0675E-03         6.95007        -1.10699        -4.36893        -4.24107         6.82221        -1.10699         2.35747     35.4503E-03    -14.9370E-03    -20.5133E-03    -17.3550E-03     32.2920E-03    -14.9370E-03     25.6586E-03     30.7608E+06     2.33995E+06    -31.4531E+06     27.8495E+06    -28.5419E+06     2.33995E+06    -13.0394E+06         26.8013
            1834     13.7915E-03     96.0867E-03         7.35785        -1.33163        -4.33148        -4.21070         7.23708        -1.33163         2.30068     37.4629E-03    -15.0415E-03    -22.4214E-03    -18.1442E-03     33.1857E-03    -15.0415E-03     30.7857E-03     22.8346E+06    -27.5506E+06    -44.4652E+06     21.1521E+06    -42.7826E+06    -27.5506E+06    -9.31194E+06         31.4898
            1835     14.7721E-03     96.1123E-03         7.27011        -1.51462        -3.83605        -3.79259         7.22665        -1.51462     414.407E-03     48.7503E-03    -15.1533E-03    -33.5969E-03    -18.7709E-03     33.9243E-03    -15.1533E-03     60.4414E-03     43.5495E+06    -25.4338E+06    -51.9679E+06     11.3662E+06     2.84532E+06    -48.0637E+06    -11.2516E+06         40.6270
            1836     15.7576E-03     96.1964E-03         6.96912        -1.65522        -3.17123        -3.11047         6.90836        -1.65522        -1.43638     126.092E-03    -15.2425E-03    -110.849E-03    -28.5612E-03     43.8037E-03    -15.2425E-03     223.856E-03     54.2222E+06    -5.03112E+06    -64.4353E+06     1.20241E+06     47.9886E+06    -64.4353E+06    -16.8246E+06         55.1831
            1837     16.7477E-03     96.5740E-03         6.63451        -1.76331        -2.51487        -2.45857         6.57821        -1.76331        -1.27637     199.730E-03    -15.6725E-03    -184.058E-03    -39.0515E-03     54.7240E-03    -15.6725E-03     372.147E-03     102.234E+06     44.4822E+06    -45.3411E+06    -4.35607E+06     98.0229E+06     7.70789E+06    -10.8340E+06         72.0421
            1838     986.327E-06     97.0237E-03         10.9475         2.33214        -13.4859         2.20929        -4.74765         2.33214        -1.26152     28.0107E-03    -13.9328E-03    -14.0779E-03    -14.0047E-03     27.9729E-03    -13.9682E-03     2.25995E-03     110.978E+06     104.094E+06      69.457E+06     107.175E+06     73.2597E+06     104.094E+06    -10.5544E+06         21.9916
            1839     1.97264E-03     97.0249E-03         6.07648         1.82015        -8.05476         1.46312        -3.73062         2.10937         11.3762     27.8400E-03    -13.8638E-03    -13.9763E-03    -13.8302E-03     27.7294E-03    -13.8992E-03     4.18091E-03     113.493E+06     95.1560E+06     68.5835E+06     103.455E+06     78.6216E+06     95.1560E+06    -18.4183E+06         22.0026
            1840     2.95929E-03     97.0259E-03         2.91529         1.58353        -4.61446         1.42129        -3.40968         1.87275         4.46552     27.7145E-03    -13.8035E-03    -13.9110E-03    -13.6752E-03     27.4787E-03    -13.8035E-03     6.11769E-03     113.731E+06     84.8073E+06     51.6410E+06     99.0720E+06     66.3001E+06     84.8073E+06    -26.2387E+06         22.0240
            1841     3.94596E-03     97.0281E-03         2.75805         1.22649        -4.03406         1.05949        -2.82452         1.71551         3.86522     27.6273E-03    -13.6947E-03    -13.9326E-03    -13.5043E-03     27.1989E-03    -13.6947E-03     8.26694E-03     108.696E+06     71.8637E+06     32.6120E+06     92.3900E+06     48.9176E+06     71.8637E+06    -31.1887E+06         22.0599
            1842     4.93279E-03     97.0305E-03         1.51676     961.736E-03        -2.43641    -94.2762E-03        -1.33979         1.47615         1.63856     27.6288E-03    -13.5813E-03    -14.0475E-03    -13.3698E-03     26.9510E-03    -13.5813E-03     10.4198E-03     99.7331E+06     57.0622E+06     12.7851E+06     83.6285E+06     28.8898E+06     57.0622E+06    -33.6750E+06         22.1156
            1843     5.92001E-03     97.0343E-03         1.59929         1.09093        -2.50930        -1.30891     373.509E-03         1.11632         3.46882     27.8195E-03    -13.4797E-03    -14.3398E-03    -13.3384E-03     26.8181E-03    -13.4797E-03     12.7104E-03     88.1917E+06     42.1915E+06    -5.14320E+06     74.1391E+06     8.90936E+06     42.1915E+06    -33.3216E+06         22.1978
            1844     6.90697E-03     97.0390E-03         2.76962     726.350E-03        -3.17136        -1.89019         1.48845     726.350E-03         4.83553     28.2539E-03    -13.4161E-03    -14.8378E-03    -13.4385E-03     26.8546E-03    -13.4161E-03     15.1517E-03     75.1444E+06     29.9243E+06    -21.3912E+06     62.9980E+06    -9.24489E+06     29.9243E+06    -31.9562E+06         22.3152
            1845     7.89381E-03     97.0452E-03         3.59943     381.255E-03        -3.49463        -2.13206         2.23686     381.255E-03         5.46584     28.8964E-03    -13.3947E-03    -15.5017E-03    -13.6776E-03     27.0723E-03    -13.3947E-03     17.5127E-03     61.0771E+06     20.1854E+06    -33.4259E+06     51.8637E+06    -24.2125E+06     20.1854E+06    -27.8893E+06         22.4797
            1846     8.88044E-03     97.0525E-03         3.89890     67.9680E-03        -3.31678        -2.72477         3.30689     67.9680E-03         3.80852     29.8433E-03    -13.4229E-03    -16.4204E-03    -14.1359E-03     27.5588E-03    -13.4229E-03     19.9284E-03     47.8392E+06     13.9451E+06    -38.1101E+06     40.5675E+06    -30.8384E+06     13.9451E+06    -23.9005E+06         22.7095
            1847     9.86618E-03     97.0622E-03         4.89217    -255.633E-03        -3.81023        -3.60954         4.69148    -255.633E-03         2.25881     31.1258E-03    -13.5215E-03    -17.6043E-03    -14.8237E-03     28.3451E-03    -13.5215E-03     22.5117E-03     34.6023E+06     10.8751E+06    -42.2249E+06     28.7559E+06    -36.3785E+06     10.8751E+06    -20.1774E+06         23.0409
            1848     10.8517E-03     97.0732E-03         5.97504    -592.976E-03        -4.35886        -4.31676         5.93294    -592.976E-03         1.31586     32.4886E-03    -13.6859E-03    -18.8027E-03    -15.8247E-03     29.5106E-03    -13.6859E-03     23.9181E-03     22.4114E+06     8.48058E+06    -42.8718E+06     18.3419E+06    -39.3006E+06     8.97896E+06    -14.6669E+06         23.5711
            1849     11.8354E-03     97.0856E-03         6.82114    -916.668E-03        -4.67737        -4.61676         6.76054    -916.668E-03         1.64770     34.0607E-03    -13.8908E-03    -20.1700E-03    -17.0306E-03     30.9213E-03    -13.8908E-03     25.2755E-03     13.8867E+06     2.33444E+06    -40.1216E+06     10.2454E+06    -36.9787E+06     2.83282E+06    -12.4958E+06         24.5727
            1850     12.8186E-03     97.0999E-03         7.39443        -1.20272        -4.74482        -4.61519         7.26480        -1.20272         2.44260     36.0053E-03    -14.1509E-03    -21.8544E-03    -18.0791E-03     32.2300E-03    -14.1509E-03     28.5385E-03     8.50948E+06    -5.28553E+06    -34.9477E+06     4.83734E+06    -32.6168E+06    -3.94431E+06    -9.48279E+06         26.7357
            1851     13.8004E-03     97.1198E-03         7.66587        -1.44188        -4.54927        -4.42593         7.54254        -1.44188         2.37001     38.7393E-03    -14.4121E-03    -24.3272E-03    -19.4234E-03     33.8354E-03    -14.4121E-03     33.7350E-03     2.74162E+06    -29.6641E+06    -46.2618E+06     538.104E+03    -45.3995E+06    -28.3229E+06    -5.37877E+06         31.4793
            1852     14.7820E-03     97.1492E-03         7.56236        -1.63024        -4.02751        -3.98709         7.52194        -1.63024     460.179E-03     49.5329E-03    -14.7179E-03    -34.8150E-03    -20.5646E-03     35.2825E-03    -14.7179E-03     61.0747E-03     42.6863E+06    -28.0952E+06    -41.5983E+06    -2.36067E+06     11.5489E+06    -36.1954E+06    -8.89411E+06         40.8776
            1853     15.7621E-03     97.2286E-03         7.36629        -1.77336        -3.46016        -3.41935         7.32548        -1.77336        -1.24261     124.550E-03    -15.0109E-03    -109.539E-03    -29.9581E-03     44.9690E-03    -15.0109E-03     219.478E-03     56.4892E+06    -9.03913E+06    -44.6937E+06    -4.87099E+06     52.3210E+06    -44.6937E+06    -13.8867E+06         56.4836
            1854     16.7476E-03     97.6017E-03         7.00681        -1.87845        -2.77174        -2.73416         6.96924        -1.87845        -1.11102     198.340E-03    -15.5830E-03    -182.757E-03    -39.7553E-03     55.3383E-03    -15.5830E-03     369.024E-03     89.6862E+06     48.3998E+06    -37.4498E+06    -6.59657E+06     86.3872E+06     20.8455E+06    -10.4441E+06         76.7673
            1855     988.005E-06     98.0511E-03         10.1411         2.13853        -12.5954         2.10004        -4.55436         2.13853    -819.138E-03     24.7840E-03    -12.3176E-03    -12.4664E-03    -12.4165E-03     24.7341E-03    -12.3176E-03     2.47228E-03     116.808E+06     108.395E+06     85.7560E+06     110.776E+06     91.7876E+06     108.395E+06    -10.4011E+06         21.7599
            1856     1.97585E-03     98.0516E-03         5.84563         1.77607        -7.89103         1.70523        -4.01085         2.03629         10.7670     24.7374E-03    -12.2905E-03    -12.4469E-03    -12.2954E-03     24.5859E-03    -12.2905E-03     4.58356E-03     120.420E+06     97.2297E+06     82.1797E+06     106.444E+06     96.1553E+06     97.2297E+06    -17.9020E+06         21.7722
            1857     2.96378E-03     98.0527E-03         2.53415         1.55099        -4.33497     958.960E-03        -3.01999         1.81121         4.06909     24.6537E-03    -12.2065E-03    -12.4472E-03    -12.1209E-03     24.3274E-03    -12.2065E-03     6.77849E-03     114.963E+06     82.4510E+06     63.1648E+06     98.2466E+06     79.8816E+06     82.4510E+06    -23.7705E+06         21.7954
            1858     3.95216E-03     98.0540E-03         2.22875     866.763E-03        -3.25267     203.889E-03        -1.86685         1.50581         3.43538     24.6499E-03    -12.0886E-03    -12.5613E-03    -11.9669E-03     24.0555E-03    -12.0886E-03     9.18761E-03     103.587E+06     63.2343E+06     42.6565E+06     87.3263E+06     58.9168E+06     63.2343E+06    -26.6713E+06         21.8341
            1859     4.94064E-03     98.0567E-03         1.42886     534.155E-03        -2.00773    -513.774E-03    -704.134E-03         1.17320         1.65325     24.8515E-03    -11.9851E-03    -12.8664E-03    -11.9161E-03     23.9012E-03    -11.9851E-03     11.6889E-03     88.5913E+06     44.3242E+06     20.3048E+06     74.4038E+06     34.4923E+06     44.3242E+06    -27.2130E+06         21.8945
            1860     5.92878E-03     98.0598E-03         1.74150     826.124E-03        -2.47785        -1.29587     559.513E-03     826.124E-03         3.63465     25.2638E-03    -11.9080E-03    -13.3558E-03    -11.9519E-03     23.8599E-03    -11.9080E-03     14.3115E-03     70.2910E+06     26.2657E+06     167.757E+03     59.3626E+06     11.0962E+06     26.2657E+06    -25.3540E+06         21.9844
            1861     6.91729E-03     98.0649E-03         2.92419     481.084E-03        -3.15374        -1.85109         1.62153     481.084E-03         4.95577     25.9423E-03    -11.8819E-03    -14.0604E-03    -12.1280E-03     24.0100E-03    -11.8819E-03     17.0314E-03     50.5191E+06     12.5097E+06    -17.5698E+06     42.6232E+06    -9.67394E+06     12.5097E+06    -21.0545E+06         22.1135
            1862     7.90533E-03     98.0710E-03         3.80892     165.263E-03        -3.57470        -2.19650         2.43072     165.263E-03         5.66514     26.9884E-03    -11.9205E-03    -15.0680E-03    -12.5703E-03     24.4907E-03    -11.9205E-03     19.7686E-03     31.4006E+06     3.54612E+06    -31.9122E+06     25.7377E+06    -26.2494E+06     3.54612E+06    -17.5388E+06         22.2949
            1863     8.89262E-03     98.0794E-03         4.02966    -125.442E-03        -3.33880        -2.66895         3.35980    -125.442E-03         4.11287     28.3396E-03    -12.0178E-03    -16.3217E-03    -13.2462E-03     25.2641E-03    -12.0178E-03     22.5328E-03     15.5073E+06    -2.20695E+06    -37.9654E+06     11.2966E+06    -33.7713E+06    -2.19036E+06    -13.3358E+06         22.5481
            1864     9.87962E-03     98.0893E-03         4.80911    -418.910E-03        -3.65246        -3.42280         4.57945    -418.910E-03         2.37975     30.2269E-03    -12.2234E-03    -18.0035E-03    -14.3531E-03     26.5765E-03    -12.2234E-03     25.4497E-03     7.21589E+06    -4.49047E+06    -41.4899E+06    -169.298E+03    -38.7030E+06     107.881E+03    -9.64863E+06         22.9104
            1865     10.8645E-03     98.1028E-03         5.95932    -731.147E-03        -4.30258        -4.25745         5.91419    -731.147E-03         1.35613     32.1823E-03    -12.5137E-03    -19.6686E-03    -15.8293E-03     28.3430E-03    -12.5137E-03     27.0952E-03     5.03384E+06    -6.88786E+06    -44.5008E+06    -6.79272E+06    -42.5028E+06     2.94068E+06    -8.22294E+06         23.4779
            1866     11.8485E-03     98.1162E-03         7.02397        -1.04826        -4.83338        -4.78172         6.97231        -1.04826         1.55835     34.2835E-03    -12.8669E-03    -21.4166E-03    -17.5479E-03     30.4148E-03    -12.8669E-03     28.2985E-03     3.44985E+06    -8.59483E+06    -39.7142E+06    -10.5711E+06    -37.2005E+06     2.91234E+06    -6.02286E+06         24.5205
            1867     12.8305E-03     98.1328E-03         7.53097        -1.33485        -4.82763        -4.71243         7.41577        -1.33485         2.28949     37.0846E-03    -13.2955E-03    -23.7891E-03    -19.5826E-03     32.8781E-03    -13.2955E-03     30.8712E-03    -2.80686E+06    -12.4087E+06    -38.4826E+06    -14.3211E+06    -36.0327E+06    -3.34437E+06    -5.40116E+06         26.7248
            1868     13.8105E-03     98.1549E-03         7.53314        -1.56216        -4.36363        -4.24805         7.41755        -1.56216         2.26443     40.3367E-03    -13.7485E-03    -26.5882E-03    -21.4835E-03     35.2319E-03    -13.7485E-03     35.4861E-03    -8.07928E+06    -28.0205E+06    -46.0506E+06    -12.9845E+06    -43.9494E+06    -25.2165E+06    -7.65724E+06         31.5405
            1869     14.7886E-03     98.1855E-03         7.44693        -1.73095        -3.86693        -3.83321         7.41321        -1.73095     510.058E-03     50.9437E-03    -14.2930E-03    -36.6507E-03    -23.2219E-03     37.5149E-03    -14.2930E-03     61.3452E-03     40.5118E+06    -21.2293E+06    -29.4607E+06    -7.47288E+06     20.2836E+06    -22.9890E+06    -13.1937E+06         41.2365
            1870     15.7677E-03     98.2674E-03         7.44955        -1.86102        -3.50795        -3.47399         7.41559        -1.86102        -1.09948     123.367E-03    -14.8373E-03    -108.530E-03    -33.0829E-03     47.9202E-03    -14.8373E-03     214.424E-03     55.0791E+06    -4.84042E+06    -36.3882E+06    -4.89002E+06     51.6545E+06    -32.9140E+06    -13.3378E+06         58.1659
            1871     16.7489E-03     98.6331E-03         7.06883        -1.95499        -2.83304        -2.79233         7.02812        -1.95499        -1.23170     196.488E-03    -15.5867E-03    -180.901E-03    -40.4460E-03     56.0327E-03    -15.5867E-03     364.755E-03     81.4797E+06     51.4473E+06    -31.2691E+06     -2.9909E+06     79.5155E+06     25.1334E+06    -8.20361E+06         81.6898
            1872     989.695E-06     99.0746E-03         8.97875         1.11207        -10.5215         1.30053        -2.84333         1.11207    -871.832E-03     20.9837E-03    -10.4269E-03    -10.5569E-03    -10.4902E-03     20.9171E-03    -10.4269E-03     2.73013E-03     119.849E+06     103.676E+06     92.8785E+06     105.120E+06     109.316E+06     101.967E+06    -8.84545E+06         21.4921
            1873     1.97955E-03     99.0751E-03         4.97699         1.17273        -6.59007         1.36576        -3.04397         1.23786         9.34448     20.8883E-03    -10.3596E-03    -10.5287E-03    -10.3312E-03     20.6907E-03    -10.3596E-03     4.79184E-03     121.208E+06     90.1017E+06     82.8396E+06     97.4788E+06     109.826E+06     86.8445E+06    -14.6105E+06         21.5073
            1874     2.96963E-03     99.0756E-03         1.99447         1.10446        -3.50012     572.372E-03        -2.14315         1.16960         3.52960     20.9504E-03    -10.2674E-03    -10.6829E-03    -10.2470E-03     20.5144E-03    -10.2674E-03     7.22430E-03     107.007E+06     72.3920E+06      63.871E+06     85.3216E+06     89.6546E+06     68.2940E+06    -17.6465E+06         21.5356
            1875     3.95948E-03     99.0769E-03         1.66206     514.070E-03        -2.48886    -421.044E-03    -795.046E-03     903.365E-03         2.99891     21.1681E-03    -10.1740E-03    -10.9941E-03    -10.2051E-03     20.3790E-03    -10.1740E-03     9.80490E-03     86.3780E+06     52.5724E+06     41.3131E+06     70.0134E+06     64.5618E+06     45.6883E+06    -18.1446E+06         21.5818
            1876     4.94953E-03     99.0789E-03         1.24182     210.944E-03        -1.62546    -759.404E-03    -13.5338E-03     600.240E-03         1.70636     21.5803E-03    -10.1023E-03    -11.4781E-03    -10.2167E-03     20.3190E-03    -10.1023E-03     12.5328E-03     61.9497E+06     30.2235E+06     17.5370E+06     51.3985E+06     35.8083E+06     22.5035E+06    -15.6733E+06         21.6528
            1877     5.93969E-03     99.0826E-03         1.90455     351.785E-03        -2.28305    -973.945E-03     595.448E-03     351.785E-03         3.83193     22.3151E-03    -10.0799E-03    -12.2352E-03    -10.3911E-03     20.4710E-03    -10.0799E-03     15.4173E-03     36.5239E+06     9.70861E+06    -2.04819E+06     30.9889E+06     9.42876E+06     3.76661E+06    -11.2806E+06         21.7571
            1878     6.92920E-03     99.0872E-03         3.06014     117.732E-03        -3.05994        -1.58058         1.58078     117.732E-03         5.22659     23.4409E-03    -10.1288E-03    -13.3122E-03    -10.7858E-03     20.9146E-03    -10.1288E-03     18.4955E-03     15.1656E+06    -5.65140E+06    -18.5095E+06     12.3761E+06    -13.1641E+06    -8.20739E+06    -6.93002E+06         21.9057
            1879     7.91836E-03     99.0945E-03         4.14707    -146.106E-03        -3.72707        -2.38662         2.80663    -146.106E-03         5.74898     24.9339E-03    -10.2674E-03    -14.6665E-03    -11.4412E-03     21.7086E-03    -10.2674E-03     21.5836E-03     759.600E+03    -12.2256E+06    -30.9214E+06    -3.33460E+06    -27.9432E+06    -11.1097E+06    -3.61008E+06         22.1130
            1880     8.90684E-03     99.1032E-03         4.42586    -430.477E-03        -3.57363        -2.97588         3.82811    -430.477E-03         4.08111     26.9014E-03    -10.4968E-03    -16.4046E-03    -12.5228E-03     23.0196E-03    -10.4968E-03     24.6862E-03    -5.16023E+06    -16.3051E+06    -40.2187E+06    -15.3426E+06    -37.5989E+06    -8.74258E+06    -1.98830E+06         22.4000
            1881     9.89356E-03     99.1154E-03         4.92036    -710.398E-03        -3.61684        -3.40971         4.71323    -710.398E-03         2.33757     29.4793E-03    -10.8235E-03    -18.6557E-03    -14.0817E-03     24.9053E-03    -10.8235E-03     28.1823E-03    -2.05281E+06    -20.1932E+06    -39.4863E+06    -21.0989E+06    -38.5806E+06    -2.05281E+06    -2.17875E+06         22.8047
            1882     10.8791E-03     99.1308E-03         5.75250    -982.998E-03        -3.98293        -3.93076         5.70033    -982.998E-03         1.41493     32.1136E-03    -11.2621E-03    -20.8515E-03    -16.1806E-03     27.4427E-03    -11.2621E-03     29.9685E-03     3.85824E+06    -22.1944E+06    -43.9560E+06    -23.4146E+06    -42.7358E+06     3.85824E+06    -3.71798E+06         23.4227
            1883     11.8621E-03     99.1464E-03         6.67444        -1.24929        -4.41951        -4.35641         6.61134        -1.24929         1.64470     35.0743E-03    -11.7964E-03    -23.2779E-03    -18.7357E-03     30.5321E-03    -11.7964E-03     31.2560E-03     6.52773E+06    -19.4096E+06    -41.2544E+06    -21.9605E+06    -38.7035E+06     6.52773E+06    -4.15828E+06         24.5196
            1884     12.8422E-03     99.1673E-03         7.20074        -1.48999        -4.45876        -4.33341         7.07539        -1.48999         2.32312     38.7754E-03    -12.4338E-03    -26.3416E-03    -21.6105E-03     34.0444E-03    -12.4338E-03     33.7887E-03     3.98349E+06    -14.0257E+06    -37.3177E+06    -16.8696E+06    -34.4738E+06     3.98349E+06    -5.09033E+06         26.7747
            1885     13.8197E-03     99.1913E-03         7.24387        -1.68103        -4.05637        -3.92876         7.11625        -1.68103         2.33365     42.9165E-03    -13.1284E-03    -29.7881E-03    -24.5791E-03     37.7075E-03    -13.1284E-03     37.4713E-03    -223.134E+03    -22.4144E+06    -43.2855E+06    -12.5807E+06    -37.3586E+06    -15.9837E+06    -11.4513E+06         31.6527
            1886     14.7958E-03     99.2253E-03         7.21523        -1.82263        -3.63182        -3.59306         7.17647        -1.82263     789.412E-03     53.7890E-03    -13.9952E-03    -39.7938E-03    -27.6022E-03     41.5974E-03    -13.9952E-03     61.3501E-03     44.5768E+06    -8.51616E+06    -25.5314E+06    -9.15433E+06     28.1997E+06    -8.51616E+06    -19.1289E+06         41.5868
            1887     15.7690E-03     99.3091E-03         7.22494        -1.93027        -3.30270        -3.26905         7.19129        -1.93027    -923.471E-03     121.105E-03    -14.8134E-03    -106.292E-03    -35.6573E-03     50.4707E-03    -14.8134E-03     206.217E-03     53.3919E+06     883.762E+03    -38.9798E+06    -4.21754E+06     44.8489E+06    -25.3354E+06    -17.0896E+06         59.4531
            1888     16.7459E-03     99.6675E-03         6.76357        -1.96740        -2.63345        -2.55607         6.71669        -1.99791        -1.30637     191.801E-03    -15.6618E-03    -176.139E-03    -39.0701E-03     54.7320E-03    -15.6618E-03     355.575E-03     76.1648E+06     51.1137E+06    -33.7486E+06    -1.37746E+06     70.0128E+06     24.8945E+06    -7.65753E+06         84.2486
            1889     991.818E-06     100.094E-03         7.89549    -26.2329E-03        -8.53507    -187.509E-03    -452.066E-03    -26.2329E-03    -522.875E-03     16.6940E-03    -8.30945E-03    -8.38451E-03    -8.30117E-03     16.6106E-03    -8.30945E-03     2.70793E-03     123.877E+06     90.8320E+06     87.7164E+06     91.5507E+06     122.305E+06     88.5692E+06    -5.60862E+06         21.2041
            1890     1.98379E-03     100.094E-03         4.31952    -65.9870E-03        -4.89983     98.2926E-03    -678.601E-03    -65.9870E-03         8.44929     16.6602E-03    -8.21794E-03    -8.44223E-03    -8.19323E-03     16.4112E-03    -8.21794E-03     4.80138E-03     120.031E+06     78.6879E+06     72.2948E+06     81.0796E+06     117.640E+06     72.2948E+06    -7.69369E+06         21.2245
            1891     2.97572E-03     100.095E-03         1.88488    -1.39292E-03        -2.49282     143.970E-03    -751.904E-03    -1.39292E-03         3.67755     16.9130E-03    -8.15052E-03    -8.76250E-03    -8.21797E-03     16.3685E-03    -8.15052E-03     7.25140E-03     97.2389E+06     61.4124E+06     51.8509E+06     65.7725E+06     92.8788E+06     51.8509E+06    -6.96894E+06         21.2614
            1892     3.96778E-03     100.096E-03         1.59302    -24.6505E-03        -2.06335    -304.447E-03    -175.835E-03    -14.6948E-03         3.06779     17.3859E-03    -8.10352E-03    -9.28242E-03    -8.30679E-03     16.4103E-03    -8.10352E-03     9.88993E-03     68.5822E+06     39.8172E+06     26.6466E+06     45.2998E+06     63.0996E+06     26.6466E+06    -3.32016E+06         21.3198
            1893     4.95948E-03     100.098E-03         1.15177    -121.444E-03        -1.38550    -698.959E-03     455.274E-03    -111.488E-03         1.82561     18.1401E-03    -8.10519E-03    -10.0349E-03    -8.48703E-03     16.5922E-03    -8.10519E-03     12.7323E-03     40.0925E+06     14.8726E+06     2.22949E+06     21.8215E+06     31.7067E+06     3.66637E+06     2.22154E+06         21.4067
            1894     5.95093E-03     100.101E-03         2.24797    -232.225E-03        -2.20664    -947.106E-03     988.438E-03    -232.225E-03         3.98149     19.2515E-03    -8.16809E-03    -11.0834E-03    -8.82758E-03     16.9957E-03    -8.16809E-03     15.8217E-03     14.8816E+06    -7.11716E+06    -16.2367E+06    -454.204E+03     5.04105E+06    -13.0592E+06     6.69391E+06         21.5313
            1895     6.94206E-03     100.107E-03         3.46952    -384.322E-03        -3.13606        -1.63446         1.96792    -384.322E-03         5.51002     20.8458E-03    -8.31340E-03    -12.5324E-03    -9.44835E-03     17.7618E-03    -8.31340E-03     19.2525E-03    -5.18486E+06    -18.4980E+06    -31.2792E+06    -18.1843E+06    -15.7238E+06    -21.0540E+06     7.71792E+06         21.7057
            1896     7.93224E-03     100.115E-03         4.47377    -600.511E-03        -3.78602        -2.56512         3.25288    -600.511E-03         5.64785     22.9375E-03    -8.56849E-03    -14.3690E-03    -10.4490E-03     19.0175E-03    -8.56849E-03     22.8268E-03    -13.8766E+06    -23.2440E+06    -39.9615E+06    -28.5987E+06    -30.4384E+06    -18.0449E+06     7.42374E+06         21.9459
            1897     8.92116E-03     100.126E-03         4.71548    -855.053E-03        -3.62447        -3.13951         4.23053    -855.053E-03         3.80571     25.5918E-03    -8.93132E-03    -16.6605E-03    -11.9369E-03     20.8682E-03    -8.93132E-03     26.5810E-03    -7.72917E+06    -26.2678E+06    -41.8136E+06    -31.5791E+06    -36.5023E+06    -7.72917E+06     4.95420E+06         22.2744
            1898     9.90854E-03     100.139E-03         5.02707        -1.09957        -3.52719        -3.34273         4.84260        -1.09957         2.33386     28.9353E-03    -9.39441E-03    -19.5409E-03    -14.0404E-03     23.4348E-03    -9.39441E-03     30.7191E-03     1.73510E+06    -28.8073E+06    -39.4728E+06    -30.9705E+06    -37.3096E+06     1.73510E+06     857.448E+03         22.7302
            1899     10.8936E-03     100.158E-03         5.38785        -1.31126        -3.47127        -3.38055         5.29713        -1.31126         1.73512     32.4909E-03    -9.99409E-03    -22.4968E-03    -16.8967E-03     26.8908E-03    -9.99409E-03     33.1753E-03     9.79209E+06    -25.7769E+06    -40.6849E+06    -26.7286E+06    -39.7333E+06     9.79209E+06    -2.67652E+06         23.4084
            1900     11.8749E-03     100.178E-03         5.89318        -1.49038        -3.55975        -3.42513         5.75855        -1.49038         2.15549     36.3942E-03    -10.7256E-03    -25.6686E-03    -20.2865E-03     31.0122E-03    -10.7256E-03     34.8914E-03     13.3215E+06    -17.3312E+06    -40.2804E+06    -20.5292E+06    -37.0825E+06     13.3215E+06    -7.17601E+06         24.5682
            1901     12.8539E-03     100.202E-03         6.49721        -1.64664        -3.74490        -3.53792         6.29022        -1.64664         2.80684     41.0953E-03    -11.5960E-03    -29.4993E-03    -24.0876E-03     35.6836E-03    -11.5960E-03     37.5346E-03     10.6280E+06    -11.3006E+06    -37.9508E+06    -15.0068E+06    -34.2447E+06     10.6280E+06    -8.61362E+06         26.8727
            1902     13.8287E-03     100.232E-03         6.91988        -1.78464        -3.75285        -3.56740         6.73443        -1.78464         2.71398     46.8194E-03    -12.5946E-03    -34.2248E-03    -28.6456E-03     41.2402E-03    -12.5946E-03     41.0286E-03     10.5543E+06    -12.1879E+06    -36.4507E+06    -11.1257E+06    -24.4126E+06    -2.54595E+06    -14.6992E+06         31.7686
            1903     14.7978E-03     100.270E-03         6.95003        -1.89779        -3.39877        -3.33863         6.88989        -1.89779         1.22470     58.4470E-03    -13.8083E-03    -44.6387E-03    -32.9655E-03     46.7738E-03    -13.8083E-03     63.9053E-03     48.9674E+06     3.65821E+06    -21.1468E+06    -6.41667E+06     34.2373E+06     3.65821E+06    -23.1340E+06         41.7459
            1904     15.7635E-03     100.359E-03         6.70344        -1.97360        -2.83662        -2.81075         6.67757        -1.97360    -536.588E-03     118.805E-03    -14.8926E-03    -103.912E-03    -38.5496E-03     53.4422E-03    -14.8926E-03     197.507E-03     47.5097E+06    -776.903E+03    -42.7814E+06    -3.85487E+06     34.7890E+06    -26.9827E+06    -20.1648E+06         59.6619
            1905     16.7434E-03     100.693E-03         6.25435        -1.90206        -2.26192        -2.13024         6.22047        -1.99986        -1.03520     184.576E-03    -15.8268E-03    -168.749E-03    -36.0006E-03     51.8274E-03    -15.8268E-03     341.612E-03     68.3068E+06     47.4739E+06    -39.0049E+06    -3.58747E+06     59.0951E+06     21.2681E+06    -8.19170E+06         84.3859
            1906     994.039E-06     101.109E-03         7.35180        -1.12764        -7.23051        -1.53891         1.66020        -1.12764     518.460E-03     12.1518E-03    -6.02030E-03    -6.13145E-03    -6.03299E-03     12.0533E-03    -6.02030E-03     2.46899E-03     126.988E+06     67.4940E+06     65.7711E+06       67.29E+06     126.710E+06     66.2530E+06     126.386E+03         20.9179
            1907     1.98818E-03     101.109E-03         4.78683        -1.30383        -4.42626        -1.18587         1.54644        -1.30383         8.52294     12.3807E-03    -5.99626E-03    -6.38441E-03    -6.08703E-03     12.0833E-03    -5.99626E-03     4.53772E-03     117.282E+06     53.8257E+06     49.2164E+06     54.0899E+06     116.232E+06     50.0024E+06     3.75435E+06         20.9457
            1908     2.98216E-03     101.109E-03         2.63139        -1.19638        -2.31184    -725.237E-03         1.04479        -1.19638         4.29814     12.8738E-03    -6.01104E-03    -6.86274E-03    -6.23504E-03     12.2461E-03    -6.01104E-03     6.81231E-03     89.3874E+06     34.5047E+06     26.7876E+06     35.2319E+06     86.4066E+06     29.0412E+06     9.67668E+06         20.9938
            1909     3.97582E-03     101.110E-03         1.99858    -700.340E-03        -2.02830    -366.946E-03     672.539E-03        -1.03564         3.25843     13.6265E-03    -6.06191E-03    -7.56458E-03    -6.45196E-03     12.5139E-03    -6.06191E-03     9.35136E-03     61.1347E+06     14.4190E+06     144.023E+03     13.3486E+06     54.2167E+06     8.13244E+06     16.9172E+06         21.0671
            1910     4.96938E-03     101.113E-03         1.45600    -587.917E-03        -1.44325    -611.586E-03     959.640E-03    -923.222E-03         1.91016     14.7658E-03    -6.16607E-03    -8.59975E-03    -6.83389E-03     13.0000E-03    -6.16607E-03     12.2670E-03     35.4076E+06    -5.32618E+06    -23.6529E+06    -7.90957E+06     23.1504E+06    -8.81231E+06     22.4855E+06         21.1729
            1911     5.96223E-03     101.117E-03         2.86191    -934.179E-03        -2.34650        -1.39866         1.91408    -934.179E-03         3.91251     16.3231E-03    -6.32829E-03    -9.99482E-03    -7.39511E-03     13.7234E-03    -6.32829E-03     15.6314E-03     15.0235E+06    -19.6818E+06    -39.0112E+06    -24.4543E+06     466.733E+03    -19.6818E+06     23.9388E+06         21.3207
            1912     6.95445E-03     101.123E-03         4.06059        -1.04951        -3.27610        -2.05418         2.83868        -1.04951         5.40302     18.4096E-03    -6.57944E-03    -11.8302E-03    -8.25529E-03     14.8347E-03    -6.57944E-03     19.4737E-03    -2.66606E+06    -21.5472E+06    -49.3880E+06    -35.9660E+06    -16.0880E+06    -21.5472E+06     21.0694E+06         21.5239
            1913     7.94567E-03     101.133E-03         4.65302        -1.20620        -3.58574        -2.46453         3.53181        -1.20620         5.53923     21.0652E-03    -6.93375E-03    -14.1315E-03    -9.55202E-03     16.4858E-03    -6.93375E-03     23.6392E-03    -12.4996E+06    -22.3624E+06    -50.3747E+06    -41.3335E+06    -27.9931E+06    -15.9100E+06     13.9758E+06         21.7998
            1914     8.93533E-03     101.145E-03         4.70592        -1.37025        -3.33191        -2.78111         4.15512        -1.37025         3.95874     24.3551E-03    -7.39052E-03    -16.9645E-03    -11.3870E-03     18.7775E-03    -7.39052E-03     28.2035E-03    -6.67502E+06    -28.3526E+06    -44.4185E+06    -40.4953E+06    -32.2757E+06    -6.67502E+06     6.39977E+06         22.1727
            1915     9.92298E-03     101.162E-03         4.82875        -1.52293        -3.12626        -2.86506         4.56756        -1.52293         2.72616     28.6111E-03    -7.98575E-03    -20.6253E-03    -14.0556E-03     22.0414E-03    -7.98575E-03     33.4427E-03      4.8027E+06    -29.7932E+06    -39.0084E+06     -35.389E+06    -33.4126E+06      4.8027E+06     463.552E+03         22.6834
            1916     10.9072E-03     101.185E-03         4.90547        -1.64375        -2.86545        -2.67631         4.71632        -1.64375         2.32681     33.0770E-03    -8.73485E-03    -24.3421E-03    -17.5200E-03     26.2549E-03    -8.73485E-03     37.0600E-03     13.6252E+06    -21.7962E+06    -39.3661E+06    -27.6155E+06    -33.5467E+06     13.6252E+06    -6.92527E+06         23.4259
            1917     11.8887E-03     101.209E-03         5.18647        -1.73010        -2.79839        -2.53695         4.92502        -1.73010         2.79004     38.1365E-03    -9.65809E-03    -28.4785E-03    -21.8316E-03     31.4897E-03    -9.65809E-03     39.8596E-03     17.4792E+06    -12.7263E+06    -40.7988E+06    -19.0849E+06    -34.4402E+06     17.4792E+06    -11.0408E+06         24.6510
            1918     12.8643E-03     101.239E-03         5.81956        -1.80367        -3.07204        -2.72283         5.47035        -1.80367         3.41168     44.3076E-03    -10.7745E-03    -33.5331E-03    -26.9494E-03     37.7239E-03    -10.7745E-03     43.2292E-03     15.5822E+06    -6.26380E+06    -39.7985E+06    -11.8950E+06    -34.1673E+06     15.5822E+06    -12.3191E+06         26.9929
            1919     13.8356E-03     101.275E-03         6.37257        -1.88084        -3.24709        -2.96541         6.09089        -1.88084         3.13729     51.5533E-03    -12.0646E-03    -39.4887E-03    -32.5394E-03     44.6040E-03    -12.0646E-03     48.2762E-03     21.3534E+06     462.953E+03    -29.9441E+06    -5.67952E+06    -10.6022E+06     8.15399E+06    -18.5978E+06         31.8420
            1920     14.8008E-03     101.322E-03         6.32861        -1.94785        -2.84307        -2.75461         6.24015        -1.94785         1.53602     63.7286E-03    -13.5788E-03    -50.1498E-03    -37.7108E-03     51.2896E-03    -13.5788E-03     70.0888E-03     52.1304E+06     10.0686E+06    -16.2229E+06    -2.86421E+06     38.7717E+06     10.0686E+06    -25.1909E+06         41.6085
            1921     15.7659E-03     101.411E-03         5.95788        -1.87414        -2.27158        -2.15065         5.93998        -1.97716    -157.534E-03     117.353E-03    -14.9065E-03    -102.447E-03    -41.6692E-03     56.5757E-03    -14.9065E-03     190.654E-03     39.0608E+06    -5.81250E+06    -46.8686E+06    -4.35115E+06     23.0134E+06    -32.2826E+06    -19.7476E+06         59.0326
            1922     16.7327E-03     101.728E-03         5.77270        -1.70188        -1.99335        -1.71630         5.75655        -1.96278    -626.532E-03     176.050E-03    -15.9468E-03    -160.104E-03    -33.1947E-03     49.1415E-03    -15.9468E-03     324.782E-03     61.9987E+06     43.5572E+06    -42.8785E+06    -4.99681E+06     49.2010E+06     18.4733E+06    -7.56923E+06         83.3287
            1923     996.337E-06     102.119E-03         6.84387        -2.11675        -6.13569        -2.40386         3.11204        -2.11675         1.87624     7.90890E-03    -3.84629E-03    -4.06261E-03    -3.95735E-03     7.80363E-03    -3.84629E-03     2.06605E-03     117.713E+06     35.2028E+06     30.9510E+06     33.1404E+06     116.211E+06     34.5153E+06     8.48095E+06         20.6581
            1924     1.99229E-03     102.119E-03         5.63447        -2.25140        -4.72841        -2.21514         3.12120        -2.25140         8.39494     8.41321E-03    -3.94730E-03    -4.46591E-03    -4.15768E-03     8.10498E-03    -3.94730E-03     3.84016E-03     106.756E+06     22.5550E+06     12.8537E+06     19.4225E+06     100.875E+06     21.8676E+06     20.5568E+06         20.6936
            1925     2.98791E-03     102.120E-03         3.71261        -2.17309        -2.73080        -1.75351         2.73532        -2.17309         4.37275     9.17608E-03    -4.07812E-03    -5.09797E-03    -4.44195E-03     8.52007E-03    -4.07812E-03     5.89110E-03     83.3336E+06     7.97007E+06    -11.6292E+06     552.939E+03     71.1514E+06     7.97007E+06     30.4597E+06         20.7530
            1926     3.98337E-03     102.121E-03         2.97934        -1.58367        -2.43163        -1.25712         2.23175        -2.01061         3.01333     10.2710E-03    -4.24630E-03    -6.02474E-03    -4.84015E-03     9.08645E-03    -4.24630E-03     8.38719E-03     58.5487E+06    -3.88756E+06    -35.3317E+06    -16.2568E+06     39.4738E+06    -3.88756E+06     37.2367E+06         20.8411
            1927     4.97808E-03     102.124E-03         2.63877        -1.43889        -2.05642        -1.32778         2.33707        -1.86582         1.86345     11.7151E-03    -4.44028E-03    -7.27487E-03    -5.36094E-03     9.80122E-03    -4.44028E-03     11.3677E-03     37.6951E+06    -13.5868E+06    -51.4021E+06    -28.3437E+06     14.6366E+06    -13.5868E+06     38.9030E+06         20.9650
            1928     5.97247E-03     102.129E-03         3.65814        -1.82621        -2.52140        -1.93417         3.07091        -1.82621         3.53839     13.6577E-03    -4.68599E-03    -8.97170E-03    -6.11013E-03     10.7961E-03    -4.68599E-03     14.9870E-03     19.9719E+06    -18.0400E+06    -58.5885E+06    -35.7415E+06    -2.87504E+06    -18.0400E+06     35.6523E+06         21.1350
            1929     6.96579E-03     102.137E-03         4.43117        -1.86127        -3.11320        -2.12699         3.44496        -1.86127         5.00264     16.2200E-03    -5.01566E-03    -11.2043E-03    -7.18728E-03     12.2029E-03    -5.01566E-03     19.3469E-03     5.46224E+06    -15.0985E+06    -57.8879E+06    -38.5240E+06    -13.9017E+06    -15.0985E+06     29.1626E+06         21.3652
            1930     7.95783E-03     102.148E-03         4.63863        -1.89174        -3.14622        -1.94069         3.43310        -1.89174         5.60078     19.3566E-03    -5.43807E-03    -13.9186E-03    -8.68050E-03     14.1186E-03    -5.43807E-03     24.2003E-03    -3.37018E+06    -13.6328E+06    -50.7630E+06    -39.0142E+06    -20.3301E+06    -8.42167E+06     18.7117E+06         21.6747
            1931     8.94833E-03     102.163E-03         4.45380        -1.90621        -2.80342        -1.95026         3.60064        -1.90621         4.56519     23.2998E-03    -5.97420E-03    -17.3256E-03    -10.8242E-03     16.7984E-03    -5.97420E-03     29.7521E-03    -361.003E+03    -21.1163E+06    -41.2376E+06    -37.5868E+06    -24.7671E+06    -361.003E+03     7.18845E+06         22.0901
            1932     9.93619E-03     102.183E-03         4.38274        -1.91726        -2.53059        -2.05672         3.91570        -1.92409         3.33152     28.3498E-03    -6.65287E-03    -21.6970E-03    -13.8056E-03     20.4584E-03    -6.65287E-03     36.4335E-03     8.35050E+06    -23.5775E+06    -35.2068E+06    -32.2906E+06    -26.4937E+06     8.35050E+06    -2.50317E+06         22.6538
            1933     10.9212E-03     102.211E-03         4.45453        -1.93607        -2.34689        -2.03024         4.14471        -1.94290         2.80879     33.7103E-03    -7.51322E-03    -26.1971E-03    -17.7679E-03     25.2811E-03    -7.51322E-03     41.5360E-03     16.9367E+06    -14.1017E+06    -36.4197E+06    -25.5853E+06    -24.9361E+06     16.9367E+06    -10.7480E+06         23.4591
            1934     11.9009E-03     102.240E-03         4.81664        -1.95679        -2.40882        -2.01522         4.42304        -1.95679         3.26024     40.0525E-03    -8.59037E-03    -31.4621E-03    -22.9020E-03     31.4924E-03    -8.59037E-03     46.3218E-03     20.0825E+06    -6.74598E+06    -44.1182E+06    -18.4875E+06    -32.3767E+06     20.0825E+06    -16.3020E+06         24.7459
            1935     12.8762E-03     102.279E-03         5.33497        -1.97006        -2.59910        -2.07343         4.80930        -1.97006         3.90830     47.8564E-03    -9.89710E-03    -37.9593E-03    -29.1572E-03     39.0543E-03    -9.89710E-03     51.8930E-03     18.3463E+06     483.746E+03    -42.2325E+06    -9.23031E+06    -32.5185E+06     18.3463E+06    -17.6500E+06         27.1088
            1936     13.8441E-03     102.321E-03         5.51131        -1.86912        -2.55069        -2.01161         5.08380        -1.98069         3.45906     56.3156E-03    -11.4275E-03    -44.8881E-03    -35.6798E-03     47.1073E-03    -11.4275E-03     58.1316E-03     30.4412E+06     9.82765E+06    -25.9825E+06    -2.63092E+06     1.40104E+06     15.5163E+06    -22.1126E+06         31.8493
            1937     14.8081E-03     102.377E-03         5.27174        -1.65044        -2.20462        -1.74267         5.13626        -1.97691         1.68372     69.9273E-03    -13.2506E-03    -56.6767E-03    -42.7556E-03     56.0062E-03    -13.2506E-03     78.8363E-03     51.7606E+06     18.1765E+06    -12.9941E+06    -357.691E+03     39.1241E+06     18.1765E+06    -25.0077E+06         41.2370
            1938     15.7625E-03     102.472E-03         5.17690        -1.47770        -1.97378        -1.48100         5.15792        -1.95149     18.4992E-03     113.509E-03    -14.7604E-03    -98.7490E-03    -41.5090E-03     56.2694E-03    -14.7604E-03     180.963E-03     28.7055E+06    -5.95660E+06    -45.9933E+06    -3.30543E+06     10.1564E+06    -30.0953E+06    -17.1271E+06         58.0201
            1939     16.7410E-03     102.760E-03         5.41071        -1.46922        -1.91223        -1.46026         5.40175        -1.91223    -367.192E-03     168.880E-03    -15.8167E-03    -153.063E-03    -31.7968E-03     47.6135E-03    -15.8167E-03     311.264E-03     59.8890E+06     38.1728E+06    -43.8982E+06    -5.89491E+06     40.3112E+06     19.7473E+06    -6.48244E+06         81.5965
            1940     997.864E-06     103.126E-03         6.82301        -3.09083        -5.62293        -3.38783         4.58790        -3.09083         2.48536     4.59142E-03    -2.20739E-03    -2.38403E-03    -2.29168E-03     4.49907E-03    -2.20739E-03     1.49661E-03     92.9125E+06     3.46427E+06    -14.3097E+06    -6.70746E+06     85.3102E+06     3.46427E+06     24.6995E+06         20.4456
            1941     1.99539E-03     103.126E-03         6.32147        -3.16116        -4.90427        -3.12141         4.59377        -3.21633         7.45813     5.20058E-03    -2.36943E-03    -2.83115E-03    -2.55743E-03     4.92685E-03    -2.36943E-03     2.85016E-03     86.4171E+06    -2.80523E+06    -33.8851E+06    -18.2545E+06     70.7865E+06    -2.80523E+06     39.5312E+06         20.4862
            1942     2.99272E-03     103.127E-03         4.73734        -3.05629        -3.27582        -2.70662         4.23615        -3.12429         3.65672     6.14535E-03    -2.56966E-03    -3.57569E-03    -2.95433E-03     5.52399E-03    -2.56966E-03     4.69245E-03     74.2478E+06    -4.98421E+06    -51.9687E+06    -27.2738E+06     49.5530E+06    -4.98421E+06     49.4675E+06         20.5538
            1943     3.98920E-03     103.129E-03         4.57951        -2.86615        -3.10516        -2.62810         4.24576        -3.00947         2.31765     7.46066E-03    -2.79523E-03    -4.66542E-03    -3.47544E-03     6.27067E-03    -2.79523E-03     7.15645E-03     54.8841E+06    -8.57262E+06    -63.7574E+06    -33.1897E+06     24.3164E+06    -8.57262E+06     51.6712E+06         20.6530
            1944     4.98547E-03     103.133E-03         4.51102        -2.73660        -2.98460        -2.62455         4.34944        -2.93507         1.71775     9.16799E-03    -3.03276E-03    -6.13523E-03    -4.12435E-03     7.15711E-03    -3.03276E-03     10.2872E-03     39.3452E+06    -12.9383E+06    -67.3960E+06    -35.8630E+06     7.81220E+06    -12.9383E+06     48.5955E+06         20.7909
            1945     5.98071E-03     103.139E-03         4.46575        -2.50459        -2.98314        -2.19987         4.03394        -2.85605         3.31826     11.4002E-03    -3.32374E-03    -8.07648E-03    -4.99032E-03     8.31406E-03    -3.32374E-03     14.1820E-03     24.8901E+06    -13.7148E+06    -65.7332E+06    -36.8245E+06    -4.01867E+06    -13.7148E+06     42.1726E+06         20.9781
            1946     6.97524E-03     103.147E-03         4.47487        -2.30886        -3.02897        -1.60958         3.47678        -2.73016         4.78031     14.2328E-03    -3.68245E-03    -10.5503E-03    -6.12714E-03     9.80959E-03    -3.68245E-03     18.9404E-03     12.6265E+06    -10.6559E+06    -58.2837E+06    -36.5475E+06    -9.10965E+06    -10.6559E+06     32.6171E+06         21.2295
            1947     7.96848E-03     103.161E-03         4.48372        -2.29496        -2.89814        -1.20884         3.07439        -2.57492         5.64635     17.7787E-03    -4.13789E-03    -13.6408E-03    -7.72854E-03     11.8664E-03    -4.13789E-03     24.5242E-03     5.04469E+06    -6.97901E+06    -46.3758E+06    -33.8718E+06    -11.2813E+06    -3.15708E+06     20.8587E+06         21.5661
            1948     8.95969E-03     103.178E-03         4.13142        -2.06933        -2.59321        -1.07476         2.96910        -2.42546         4.88218     22.3058E-03    -4.71607E-03    -17.5898E-03    -9.99764E-03     14.7137E-03    -4.71607E-03     31.2738E-03     6.05928E+06    -10.2507E+06    -34.2079E+06    -30.0615E+06    -14.3972E+06     6.05928E+06     8.10159E+06         22.0173
            1949     9.94846E-03     103.203E-03         3.87746        -1.84213        -2.36628        -1.22708         3.20385        -2.30770         3.59425     28.0902E-03    -5.43722E-03    -22.6530E-03    -13.1621E-03     18.5993E-03    -5.43722E-03     39.5138E-03     13.4613E+06    -12.8401E+06    -30.3246E+06    -26.2864E+06    -16.8783E+06     13.4613E+06    -4.01249E+06         22.6276
            1950     10.9336E-03     103.235E-03         4.02907        -1.85504        -2.25202        -1.45493         3.60635        -2.22941         3.02388     34.2556E-03    -6.34657E-03    -27.9090E-03    -17.3451E-03     23.6916E-03    -6.34657E-03     46.5589E-03     19.9403E+06    -7.38134E+06    -32.2642E+06    -22.1148E+06    -17.5308E+06     19.9403E+06    -12.0408E+06         23.4896
            1951     11.9145E-03     103.272E-03         4.51575        -2.00344        -2.29168        -1.55879         3.95784        -2.17842         3.63811     41.9535E-03    -7.50224E-03    -34.4513E-03    -23.1431E-03     30.6454E-03    -7.50224E-03     54.1176E-03     23.2114E+06     370.408E+03    -42.0347E+06    -16.9184E+06    -24.7459E+06     23.2114E+06    -20.0967E+06         24.8296
            1952     12.8887E-03     103.317E-03         4.83859        -1.97823        -2.30560        -1.36571         4.05254        -2.13208         4.34079     50.8667E-03    -8.92145E-03    -41.9452E-03    -30.1142E-03     39.0356E-03    -8.92145E-03     61.7134E-03     19.5035E+06     7.48930E+06    -48.3546E+06     -9.5388E+06    -31.3265E+06     19.5035E+06    -25.4909E+06         27.1955
            1953     13.8565E-03     103.372E-03         4.62079        -1.55638        -2.15253    -944.421E-03         3.92595        -2.06965         3.81604     61.1399E-03    -10.6255E-03    -50.5144E-03    -38.0301E-03     48.6556E-03    -10.6255E-03     70.1955E-03     37.2691E+06     18.5030E+06    -28.5682E+06    -2.32137E+06     8.34075E+06     21.1845E+06    -25.7038E+06         31.7856
            1954     14.8147E-03     103.434E-03         4.29154        -1.03459        -1.99291    -758.998E-03         4.01595        -1.99291         2.04390     77.3646E-03    -12.6976E-03    -64.6670E-03    -47.1146E-03     59.8122E-03    -12.6976E-03     93.1483E-03     47.3903E+06     23.6018E+06    -11.9722E+06     1.00197E+06     34.4162E+06     23.6018E+06    -23.5992E+06         40.7238
            1955     15.7667E-03     103.545E-03         4.57749        -1.05046        -1.92342        -1.01314         4.54017        -1.92342     378.424E-03     104.944E-03    -14.4245E-03    -90.5197E-03    -42.0954E-03     56.5199E-03    -14.4245E-03     162.563E-03      19.619E+06    -7.70238E+06    -43.6180E+06     959.323E+03    -5.32115E+06    -27.3396E+06    -13.0643E+06         56.8004
            1956     16.7526E-03     103.761E-03         5.11123        -1.36538        -1.87445        -1.36139         5.10723        -1.87445    -187.289E-03     160.334E-03    -15.6338E-03    -144.700E-03    -32.8930E-03     48.5268E-03    -15.6338E-03     292.976E-03     66.2476E+06     35.0944E+06    -39.2741E+06    -1.35060E+06     36.4255E+06     26.9930E+06    -3.37014E+06         79.4815
            1957     998.829E-06     104.129E-03         8.25511        -4.69927        -5.89589        -4.61955         6.97877        -4.69927         2.04060     2.52231E-03    -1.23222E-03    -1.29009E-03    -1.22323E-03     2.45991E-03    -1.23668E-03     898.662E-06     52.2313E+06    -24.7962E+06    -54.4825E+06    -31.0919E+06     28.8407E+06    -24.7962E+06     40.4366E+06         20.2927
            1958     1.99747E-03     104.130E-03         7.27823        -4.22703        -5.23316        -3.91845         6.24905        -4.51256         5.99296     3.04960E-03    -1.35376E-03    -1.69584E-03    -1.44187E-03     2.79564E-03    -1.35376E-03     2.05304E-03     65.7444E+06    -17.0333E+06    -69.6383E+06    -36.1997E+06     32.3058E+06    -17.0333E+06     56.5758E+06         20.3335
            1959     2.99550E-03     104.132E-03         6.18404        -3.93920        -4.27379        -3.71767         5.96250        -4.27379         2.82718     4.02559E-03    -1.54079E-03    -2.48479E-03    -1.86143E-03     3.40222E-03    -1.54079E-03     3.77142E-03     63.3139E+06    -11.7046E+06    -78.5545E+06    -39.5124E+06     24.2718E+06    -11.7046E+06     62.4982E+06         20.4031
            1960     3.99351E-03     104.134E-03         6.21711        -3.89312        -4.14374        -3.75104         6.06781        -4.13652         1.96656     5.36792E-03    -1.75391E-03    -3.61401E-03    -2.40143E-03     4.15534E-03    -1.75391E-03     6.08865E-03     52.4231E+06    -10.6145E+06    -78.4836E+06    -39.1419E+06     13.0814E+06    -10.6145E+06     59.9221E+06         20.5069
            1961     4.99057E-03     104.139E-03         5.81758        -3.40078        -4.02646        -3.27654         5.68613        -4.01925         1.74159     7.20186E-03    -1.99623E-03    -5.20563E-03    -3.10555E-03     5.10178E-03    -1.99623E-03     9.26602E-03     39.2975E+06    -10.9389E+06    -72.6214E+06    -36.2586E+06     2.93467E+06    -10.9389E+06     52.3733E+06         20.6520
            1962     5.98716E-03     104.146E-03         5.07030        -2.67425        -3.82005        -2.23688         4.63293        -3.82005         3.42582     9.56502E-03    -2.28679E-03    -7.27823E-03    -3.99614E-03     6.28293E-03    -2.28679E-03     13.3096E-03     28.4389E+06    -10.0133E+06    -64.8620E+06    -32.2086E+06    -4.21445E+06    -10.0133E+06     44.4509E+06         20.8488
            1963     6.98248E-03     104.156E-03         4.62920        -2.32994        -3.53407        -1.25051         3.54977        -3.53407         4.88209     12.6068E-03    -2.64581E-03    -9.96097E-03    -5.14978E-03     7.79558E-03    -2.64581E-03     18.4549E-03     21.0525E+06    -5.22101E+06    -53.2732E+06    -29.0283E+06    -3.19244E+06    -5.22101E+06     34.6280E+06         21.1128
            1964     7.97669E-03     104.171E-03         4.38022        -2.20194        -3.22576    -723.000E-03         2.90128        -3.22576         5.49326     16.3599E-03    -3.09282E-03    -13.2670E-03    -6.67178E-03     9.76460E-03    -3.09282E-03     24.6159E-03     12.2506E+06     861.547E+03    -39.1910E+06    -26.6661E+06    -1.25425E+06     1.84153E+06     21.6826E+06         21.4668
            1965     8.96923E-03     104.192E-03         3.81754        -1.72134        -2.94600    -488.895E-03         2.58509        -2.94600         4.60137     21.2817E-03    -3.65456E-03    -17.6271E-03    -8.86910E-03     12.5237E-03    -3.65456E-03     32.4570E-03     10.5272E+06     112.456E+03    -26.9762E+06    -23.1657E+06    -3.18877E+06     10.0180E+06     8.25318E+06         21.9430
            1966     9.95937E-03     104.220E-03         3.39777        -1.30725        -2.71313    -493.495E-03         2.58401        -2.71313         3.49178     27.6014E-03    -4.36255E-03    -23.2388E-03    -11.9284E-03     16.2909E-03    -4.36255E-03     42.2217E-03     17.8287E+06    -5.16841E+06    -22.1643E+06    -20.1860E+06    -7.14672E+06     17.8287E+06    -2.55038E+06         22.5889
            1967     10.9457E-03     104.258E-03         3.50393        -1.33361        -2.53438    -720.404E-03         2.89072        -2.53438         3.15649     34.5778E-03    -5.25373E-03    -29.3241E-03    -16.1919E-03     21.4457E-03    -5.25373E-03     51.5121E-03     23.2103E+06    -2.70130E+06    -26.4957E+06    -18.4787E+06    -10.7183E+06     23.2103E+06    -11.0645E+06         23.4968
            1968     11.9281E-03     104.300E-03         3.94850        -1.60565        -2.39656    -749.322E-03         3.09217        -2.39656         3.89630     43.6181E-03    -6.40712E-03    -37.2109E-03    -22.4225E-03     28.8296E-03    -6.40712E-03     62.3439E-03     27.0180E+06     6.09010E+06    -35.4960E+06    -16.9374E+06    -12.4685E+06     27.0180E+06    -20.1299E+06         24.8769
            1969     12.9024E-03     104.359E-03         4.19745        -1.62766        -2.26712    -401.448E-03         2.97124        -2.26712         4.62553     53.4009E-03    -7.86340E-03    -45.5375E-03    -29.9841E-03     37.8475E-03    -7.86340E-03     71.7486E-03     21.9613E+06     12.6845E+06    -51.1344E+06    -13.9103E+06    -24.3604E+06     21.7821E+06    -30.5121E+06         27.2265
            1970     13.8706E-03     104.417E-03         4.00416        -1.19089        -2.12979    -62.7630E-03         2.87603        -2.12979         4.19478     65.6821E-03    -9.64728E-03    -56.0348E-03    -39.0671E-03     48.7144E-03    -9.64728E-03     84.1549E-03     35.3251E+06     21.1218E+06    -37.8429E+06    -6.88829E+06     4.36060E+06     21.1317E+06    -31.0548E+06         31.6375
            1971     14.8293E-03     104.503E-03         3.80146    -732.248E-03        -2.00129    -187.400E-03         3.25661        -2.00129         2.69926     83.3604E-03    -11.8574E-03    -71.5031E-03    -49.5311E-03     61.3884E-03    -11.8574E-03     107.954E-03     40.0513E+06     23.4463E+06    -15.8983E+06    -4.27312E+06     28.0272E+06     23.8452E+06    -21.4899E+06         40.1188
            1972     15.7802E-03     104.612E-03         4.21069    -880.626E-03        -1.90800    -763.740E-03         4.09381        -1.90800         1.12836     100.387E-03    -13.9429E-03    -86.4441E-03    -49.5185E-03     63.4614E-03    -13.9429E-03     146.332E-03     11.4169E+06    -16.3651E+06    -48.7776E+06    -6.12935E+06    -17.6804E+06    -29.9161E+06    -12.9580E+06         55.4692
            1973     16.7373E-03     104.787E-03         4.78743        -1.24418        -1.85199        -1.23542         4.77867        -1.85199     212.457E-03     151.446E-03    -15.5762E-03    -135.870E-03    -36.2367E-03     51.8129E-03    -15.5762E-03     268.695E-03     64.2298E+06     26.6153E+06    -39.9645E+06    -2.71593E+06     28.5077E+06     25.0887E+06    -3.42011E+06         77.9511
            1974     999.138E-06     105.131E-03         10.4211        -6.47734        -6.69259        -6.01314         9.74549        -6.48116         1.45104     1.43444E-03    -705.150E-06    -729.292E-06    -691.015E-06     1.40402E-03    -713.008E-06     445.300E-06    -15.1979E+06    -84.8752E+06    -100.432E+06    -79.1792E+06    -35.8887E+06    -85.4373E+06     32.5764E+06         20.2051
            1975     1.99849E-03     105.132E-03         8.92529        -5.46369        -6.13206        -5.04415         8.38188        -6.00819         4.80491     1.72794E-03    -758.241E-06    -969.694E-06    -780.123E-06     1.53836E-03    -758.241E-06     1.31124E-03     24.1178E+06    -58.8534E+06    -93.5500E+06    -58.6804E+06    -10.5046E+06    -59.1005E+06     52.5495E+06         20.2402
            1976     2.99769E-03     105.134E-03         7.79883        -4.67992        -5.59380        -4.53442         7.65332        -5.59380         2.59000     2.57232E-03    -904.403E-06    -1.66792E-03    -1.09144E-03     1.99584E-03    -904.403E-06     2.87700E-03     44.1834E+06    -32.1286E+06    -85.3613E+06    -40.0993E+06    -1.07855E+06    -32.1286E+06     61.4440E+06         20.3036
            1977     3.99594E-03     105.138E-03         7.19837        -4.20679        -5.27333        -4.08860         7.08018        -5.27333         2.08094     3.96003E-03    -1.09464E-03    -2.86539E-03    -1.62054E-03     2.71518E-03    -1.09464E-03     5.24386E-03     49.7815E+06    -14.5763E+06    -77.2069E+06    -29.2115E+06     1.78615E+06    -14.5763E+06     61.0272E+06         20.4025
            1978     4.99403E-03     105.143E-03         6.21207        -3.32842        -4.95494        -3.19991         6.08356        -4.95494         1.87390     5.85493E-03    -1.31848E-03    -4.53645E-03    -2.32066E-03     3.63914E-03    -1.31848E-03     8.48678E-03     43.4707E+06    -8.23245E+06    -71.2885E+06    -26.3028E+06    -1.51491E+06    -8.23245E+06     55.6112E+06         20.5450
            1979     5.99107E-03     105.151E-03         5.41898        -2.69150        -4.59326        -2.28047         5.00795        -4.59326         3.42207     8.27687E-03    -1.59091E-03    -6.68596E-03    -3.20373E-03     4.79465E-03    -1.59091E-03     12.6265E-03     33.0030E+06    -5.13115E+06    -60.9622E+06    -25.8912E+06    -2.06801E+06    -5.13115E+06     45.1458E+06         20.7416
            1980     6.98771E-03     105.163E-03         4.98221        -2.42700        -4.21382        -1.47912         4.03433        -4.21382         4.78444     11.3603E-03    -1.92681E-03    -9.43351E-03    -4.28643E-03     6.21324E-03    -1.92681E-03     17.9273E-03     25.9436E+06     1.26861E+06    -42.8169E+06    -20.0844E+06     3.21111E+06     1.26861E+06     32.2053E+06         21.0076
            1981     7.98271E-03     105.180E-03         4.44660        -2.04799        -3.83598    -733.457E-03         3.13207        -3.83598         5.18241     15.1535E-03    -2.33350E-03    -12.8200E-03    -5.64885E-03     7.98235E-03    -2.33350E-03     24.4061E-03     20.9086E+06     9.21670E+06    -25.0218E+06    -11.9695E+06     7.85629E+06     9.21670E+06     20.5911E+06         21.3669
            1982     8.97661E-03     105.202E-03         3.62985        -1.36704        -3.47367    -183.131E-03         2.44595        -3.47367         4.24717     20.3464E-03    -2.84303E-03    -17.5033E-03    -7.63240E-03     10.4754E-03    -2.84303E-03     33.2003E-03     18.5469E+06     10.2389E+06    -15.8933E+06    -9.36339E+06     5.90250E+06     16.3534E+06     10.7147E+06         21.8542
            1983     9.96772E-03     105.236E-03         3.02798    -855.092E-03        -3.14539     101.623E-03         2.07127        -3.14539         3.31546     26.7493E-03    -3.48244E-03    -23.2669E-03    -10.2822E-03     13.7646E-03    -3.48244E-03     43.8068E-03     22.9023E+06     4.25340E+06    -13.8944E+06    -11.1563E+06     1.51529E+06     22.9023E+06     1.70460E+06         22.5205
            1984     10.9573E-03     105.276E-03         2.96518    -805.593E-03        -2.86029     230.963E-03         1.92863        -2.86029         3.21922     34.6537E-03    -4.29845E-03    -30.3553E-03    -14.4878E-03     18.7862E-03    -4.29845E-03     55.7331E-03     29.1822E+06     4.35062E+06    -17.2918E+06    -11.6913E+06    -1.24990E+06     29.1822E+06    -8.37185E+06         23.4573
            1985     11.9400E-03     105.330E-03         3.28609        -1.05355        -2.61092     399.344E-03         1.83320        -2.61092         3.89482     44.5842E-03    -5.37249E-03    -39.2117E-03    -20.6205E-03     25.9930E-03    -5.37249E-03     69.4811E-03     32.9254E+06     8.91629E+06    -23.8456E+06    -11.8443E+06    -3.08498E+06     32.9254E+06    -15.7447E+06         24.8574
            1986     12.9182E-03     105.393E-03         3.59572        -1.21750        -2.38393     620.759E-03         1.75745        -2.38393         4.56209     55.5779E-03    -6.77390E-03    -48.8040E-03    -28.7357E-03     35.5096E-03    -6.77390E-03     81.9715E-03     29.0874E+06     15.4653E+06    -39.4664E+06    -15.4251E+06    -8.39678E+06     28.9082E+06    -26.5168E+06         27.1671
            1987     13.8859E-03     105.468E-03         3.61891        -1.03104        -2.18219     554.594E-03         2.03328        -2.18219         4.32778     69.8657E-03    -8.56225E-03    -61.3034E-03    -39.2525E-03     47.8147E-03    -8.56225E-03     97.9369E-03     28.4282E+06     17.7598E+06    -45.9156E+06    -18.9787E+06    -239.731E+03     19.4908E+06    -33.6018E+06         31.3731
            1988     14.8450E-03     105.562E-03         3.53434    -690.911E-03        -2.02328     108.249E-03         2.73518        -2.02328         3.13911     87.9608E-03    -10.8083E-03    -77.1525E-03    -49.7437E-03     60.5520E-03    -10.8083E-03     122.623E-03     28.3568E+06     18.3416E+06    -29.2462E+06    -16.8896E+06     14.7432E+06     19.5987E+06    -22.6954E+06         39.4253
            1989     15.7915E-03     105.692E-03         3.80005    -680.055E-03        -1.91386    -441.952E-03         3.56194        -1.91386         1.76279     105.181E-03    -13.0609E-03    -92.1201E-03    -55.5600E-03     68.6209E-03    -13.0609E-03     152.923E-03     7.33027E+06    -21.7957E+06    -59.4308E+06    -14.2994E+06    -21.8355E+06    -37.7614E+06    -14.1541E+06         54.3192
            1990     16.7393E-03     105.842E-03         4.38807    -950.160E-03        -1.84377    -914.222E-03         4.35213        -1.84377     631.364E-03     143.321E-03    -15.1019E-03    -128.219E-03    -41.7969E-03     56.8988E-03    -15.1019E-03     246.341E-03     52.8016E+06     15.0393E+06    -51.0944E+06    -8.07131E+06     17.1079E+06     7.70988E+06    -9.06764E+06         77.5986
            1991     998.987E-06     106.132E-03         11.9369        -7.45030        -7.74164        -7.38426         11.5833        -7.45413         1.42515     1.33717E-03    -652.124E-06    -685.044E-06    -651.603E-06     1.32753E-03    -675.922E-06     182.093E-06    -68.6420E+06    -151.379E+06    -154.361E+06    -147.538E+06    -72.4831E+06    -154.361E+06     6.62229E+06         20.1868
            1992     1.99801E-03     106.133E-03         10.7953        -6.64563        -7.27337        -6.38221         10.4713        -7.21286         4.43930     1.31944E-03    -615.118E-06    -704.317E-06    -599.708E-06     1.24565E-03    -645.943E-06     634.586E-06    -34.0655E+06    -124.176E+06    -135.566E+06    -116.793E+06    -46.1450E+06    -130.869E+06     18.9168E+06         20.2132
            1993     2.99733E-03     106.136E-03         9.07718        -5.30397        -6.74217        -5.15001         8.92321        -6.74217         2.89105     1.65432E-03    -640.708E-06    -1.01362E-03    -672.230E-06     1.32953E-03    -657.304E-06     1.65405E-03    -2.49129E+06    -84.0582E+06    -116.580E+06    -77.9873E+06    -24.5839E+06    -100.558E+06     31.3794E+06         20.2635
            1994     3.99709E-03     106.140E-03         7.57140        -4.12335        -6.20578        -4.01052         7.45857        -6.20578         2.08640     2.68641E-03    -765.303E-06    -1.92111E-03    -1.03537E-03     1.80068E-03    -765.303E-06     3.60474E-03     18.6606E+06    -50.3876E+06    -92.3004E+06    -43.2015E+06    -15.0160E+06    -65.8099E+06     40.8436E+06         20.3470
            1995     4.99565E-03     106.146E-03         6.38147        -3.26639        -5.68376        -3.16287         6.27795        -5.68376         1.73169     4.48742E-03    -976.538E-06    -3.51088E-03    -1.66014E-03     2.63668E-03    -976.538E-06     6.73502E-03     32.5413E+06    -26.0797E+06    -65.1586E+06    -17.3888E+06    -10.4037E+06    -30.9044E+06     46.0767E+06         20.4738
            1996     5.99382E-03     106.155E-03         5.75033        -2.88445        -5.21739        -2.57281         5.43869        -5.21739         3.10628     7.07543E-03    -1.24282E-03    -5.83260E-03    -2.53013E-03     3.77295E-03    -1.24282E-03     11.2586E-03     42.2575E+06    -3.93881E+06    -44.1260E+06    -2.82220E+06     953.708E+03    -3.93881E+06     41.8967E+06         20.6557
            1997     6.99017E-03     106.169E-03         5.25194        -2.57912        -4.79832        -1.89976         4.57257        -4.79832         4.27016     10.1956E-03    -1.54702E-03    -8.64860E-03    -3.54150E-03     5.08852E-03    -1.54702E-03     16.7467E-03     37.7140E+06     8.92962E+06    -31.3426E+06    -1.86683E+06     8.23828E+06     8.92962E+06     32.8471E+06         20.9089
            1998     7.98661E-03     106.187E-03         4.48948        -1.98804        -4.38848    -966.642E-03         3.46807        -4.38848         4.65390     14.0208E-03    -1.89686E-03    -12.1239E-03    -4.77053E-03     6.66739E-03    -1.89686E-03     23.5021E-03     30.2131E+06     13.6301E+06    -23.2332E+06    -7.96216E+06     14.9421E+06     13.6301E+06     23.1367E+06         21.2581
            1999     8.98109E-03     106.213E-03         3.52509        -1.19552        -3.97207    -72.6457E-03         2.40221        -3.97207         3.98007     19.1358E-03    -2.32788E-03    -16.8079E-03    -6.36929E-03     8.69717E-03    -2.32788E-03     32.6173E-03     24.5594E+06     14.3450E+06    -15.1862E+06    -8.60747E+06     14.0826E+06     18.2431E+06     11.9447E+06         21.7391
            2000     9.97471E-03     106.247E-03         2.82529    -647.288E-03        -3.56554     568.264E-03         1.60974        -3.56554         3.23967     25.6500E-03    -2.87283E-03    -22.7771E-03    -8.65365E-03     11.5265E-03    -2.87283E-03     43.9946E-03     27.0802E+06     12.4924E+06    -5.47174E+06    -1.95800E+06     8.97866E+06     27.0802E+06     2.38880E+06         22.4055
            2001     10.9645E-03     106.293E-03         2.67681    -592.641E-03        -3.18360         1.07930         1.00487        -3.18360         3.14003     34.2059E-03    -3.57266E-03    -30.6332E-03    -12.3489E-03     15.9216E-03    -3.57266E-03     58.2846E-03     35.7424E+06     9.99575E+06    -2.92599E+06     631.512E+03     6.43825E+06     35.7424E+06    -3.26871E+06         23.3466
            2002     11.9518E-03     106.353E-03         2.92282    -853.707E-03        -2.83294         1.39309     676.022E-03        -2.83294         3.60305     44.6677E-03    -4.50212E-03    -40.1656E-03    -17.9331E-03     22.4352E-03    -4.50212E-03     74.4681E-03     39.4582E+06     8.22535E+06    -9.57147E+06    -3.37280E+06     2.02668E+06     39.4582E+06    -7.86128E+06         24.7382
            2003     12.9315E-03     106.426E-03         3.19192        -1.02940        -2.52738         1.34127     821.252E-03        -2.52738         4.12008     57.3507E-03    -5.77216E-03    -51.5786E-03    -26.6107E-03     32.3828E-03    -5.77216E-03     91.3120E-03     40.3064E+06     18.0043E+06    -19.2629E+06    -9.30981E+06     8.05129E+06     40.3064E+06    -15.5333E+06         26.9746
            2004     13.9031E-03     106.514E-03         3.22660    -873.049E-03        -2.28223     965.618E-03         1.38793        -2.28223         4.00314     72.9955E-03    -7.47272E-03    -65.5228E-03    -37.4377E-03     44.9104E-03    -7.47272E-03     111.108E-03     34.2933E+06     22.4047E+06    -34.8655E+06    -16.7730E+06     7.46134E+06     31.1441E+06    -26.5364E+06         30.9552
            2005     14.8606E-03     106.625E-03         3.07435    -454.111E-03        -2.09961     482.565E-03         2.13767        -2.09961         2.96893     90.2593E-03    -9.54604E-03    -80.7133E-03    -45.8755E-03     55.4215E-03    -9.54604E-03     137.372E-03     24.8347E+06     16.0559E+06    -38.7064E+06    -17.1049E+06    -2.39639E+06     21.6855E+06    -25.9764E+06         38.6348
            2006     15.8216E-03     106.758E-03         3.17360    -227.621E-03        -1.96911     46.4568E-03         2.89952        -1.96911         1.61471     110.731E-03    -11.6136E-03    -99.1179E-03    -54.3474E-03     65.9610E-03    -11.6136E-03     171.716E-03     9.06222E+06    -21.2587E+06    -64.4404E+06    -10.6507E+06    -28.3240E+06    -37.6621E+06    -17.0528E+06         53.5358
            2007     16.7691E-03     106.928E-03         3.93237    -579.784E-03        -1.88538    -545.564E-03         3.89815        -1.88538     533.677E-03     136.169E-03    -13.9773E-03    -122.192E-03    -51.8266E-03     65.8039E-03    -13.9773E-03     226.858E-03     48.6942E+06     10.9839E+06    -49.2044E+06    -4.23371E+06     12.7375E+06     1.96979E+06    -12.4552E+06         77.8699
            2008     998.264E-06     107.134E-03         12.4265        -7.91219        -8.29519        -7.99520         12.1624        -7.94809         1.58245     2.61209E-03    -1.25314E-03    -1.35895E-03    -1.31191E-03     2.60833E-03    -1.29643E-03    -118.986E-06    -69.9653E+06    -147.421E+06    -152.308E+06    -148.083E+06    -71.4613E+06    -150.149E+06    -9.78575E+06         20.2399
            2009     1.99671E-03     107.135E-03         11.6360        -7.33024        -7.93407        -7.18172         11.3674        -7.81397         4.29051     2.39162E-03    -1.14375E-03    -1.24788E-03    -1.12677E-03     2.37464E-03    -1.24788E-03     54.2927E-06    -53.9019E+06    -138.488E+06    -147.899E+06    -138.303E+06    -56.7424E+06    -145.243E+06    -11.6404E+06         20.2601
            2010     2.99544E-03     107.137E-03         9.80693        -5.88975        -7.38492        -5.75428         9.67146        -7.38492         2.83146     2.24472E-03    -1.02947E-03    -1.21525E-03    -1.00530E-03     2.15781E-03    -1.15251E-03     649.306E-06    -36.8608E+06    -120.267E+06    -139.991E+06    -119.867E+06    -39.9171E+06    -137.335E+06    -6.35377E+06         20.2977
            2011     3.99399E-03     107.141E-03         7.99090        -4.46629        -6.81010        -4.37234         7.89695        -6.81010         1.96571     2.49333E-03    -1.05809E-03    -1.43524E-03    -1.04986E-03     2.16399E-03    -1.11412E-03     1.88582E-03    -22.3972E+06    -101.703E+06    -120.404E+06    -92.8338E+06    -31.2662E+06    -120.404E+06     3.09684E+06         20.3610
            2012     4.99341E-03     107.148E-03         6.86022        -3.69580        -6.24662        -3.62635         6.79077        -6.24662         1.53913     3.52092E-03    -1.16327E-03    -2.35765E-03    -1.35734E-03     2.52061E-03    -1.16327E-03     4.25277E-03    -2.63643E+06    -71.9260E+06    -94.1027E+06    -56.6929E+06    -20.7042E+06    -91.2681E+06     10.1502E+06         20.4615
            2013     5.99201E-03     107.159E-03         6.13702        -3.25039        -5.76408        -3.05248         5.93911        -5.76408         2.58407     5.45201E-03    -1.26891E-03    -4.18311E-03    -1.92503E-03     3.19393E-03    -1.26891E-03     8.10327E-03     18.6781E+06    -31.4560E+06    -72.8684E+06    -19.7463E+06    -4.61459E+06    -61.2853E+06     16.6333E+06         20.6126
            2014     6.99072E-03     107.173E-03         5.31529        -2.63817        -5.32097        -2.17233         4.84945        -5.32097         3.57155     8.30879E-03    -1.52041E-03    -6.78838E-03    -2.77897E-03     4.29939E-03    -1.52041E-03     13.3170E-03     35.1032E+06    -5.09168E+06    -43.2709E+06     6.84982E+06     3.40443E+06    -23.5136E+06     24.5867E+06         20.8330
            2015     7.98689E-03     107.193E-03         4.33004        -1.86043        -4.87157        -1.11809         3.58770        -4.87157         3.95961     12.3309E-03    -1.88016E-03    -10.4507E-03    -3.93132E-03     5.81148E-03    -1.88016E-03     20.5837E-03     49.5940E+06     14.7698E+06    -16.2148E+06     17.0720E+06     16.7065E+06     14.3704E+06     27.6034E+06         21.1494
            2016     8.98246E-03     107.220E-03         3.28734        -1.02822        -4.40584    -18.6501E-03         2.27777        -4.40584         3.53837     17.4430E-03    -2.25035E-03    -15.1926E-03    -5.34132E-03     7.59167E-03    -2.25035E-03     29.9603E-03     45.0012E+06     27.6953E+06    -10.4215E+06     9.41939E+06     23.7110E+06     29.1447E+06     20.5415E+06         21.5993
            2017     9.97645E-03     107.257E-03         2.62572    -561.851E-03        -3.93612     886.541E-03         1.17733        -3.93612         3.05970     24.0218E-03    -2.68148E-03    -21.3403E-03    -7.27562E-03     9.95711E-03    -2.68148E-03     41.9571E-03     32.3698E+06     22.3013E+06    -13.1404E+06    -5.99723E+06     17.3177E+06     30.2103E+06     8.69233E+06         22.2372
            2018     10.9696E-03     107.306E-03         2.48076    -560.135E-03        -3.48775         1.46421     456.407E-03        -3.48775         2.81399     32.5131E-03    -3.22744E-03    -29.2857E-03    -10.0170E-03     13.2445E-03    -3.22744E-03     57.2288E-03     34.0690E+06     15.3432E+06    -12.5357E+06    -9.91508E+06     12.7227E+06     34.0690E+06    -1.67156E+06         23.1492
            2019     11.9584E-03     107.371E-03         2.65454    -772.638E-03        -3.08439         1.71160     170.301E-03        -3.08439         3.05669     43.6648E-03    -3.97312E-03    -39.6917E-03    -14.8842E-03     18.8574E-03    -3.97312E-03     76.1370E-03     43.4103E+06     15.0366E+06    -8.57258E+06     261.163E+03     6.20287E+06     43.4103E+06    -8.32826E+06         24.4925
            2020     12.9432E-03     107.454E-03         2.81370    -855.472E-03        -2.74447         1.59293     365.304E-03        -2.74447         3.42530     58.0808E-03    -5.04879E-03    -53.0320E-03    -23.3069E-03     28.3556E-03    -5.04879E-03     98.1359E-03     53.3444E+06     22.1409E+06    -2.86694E+06     7.77514E+06     11.4988E+06     53.3444E+06    -7.59173E+06         26.6097
            2021     13.9155E-03     107.559E-03         2.78514    -636.676E-03        -2.47366         1.30150     846.966E-03        -2.47366         3.33242     72.7650E-03    -6.48604E-03    -66.2789E-03    -31.8500E-03     38.3360E-03    -6.48604E-03     119.751E-03     55.1339E+06     34.8452E+06    -6.18307E+06     3.74706E+06     24.9151E+06     55.1339E+06    -12.3494E+06         30.3495
            2022     14.8871E-03     107.675E-03         2.50638    -76.5657E-03        -2.26375     964.588E-03         1.46523        -2.26375         2.39510     89.5943E-03    -8.20420E-03    -81.3901E-03    -40.2932E-03     48.4974E-03    -8.20420E-03     145.945E-03     36.2558E+06     28.4103E+06    -35.2366E+06    -931.273E+03    -5.40026E+06     35.7610E+06    -24.4050E+06         37.7497
            2023     15.8488E-03     107.817E-03         2.60259     183.790E-03        -2.11134     437.557E-03         2.34883        -2.11134         1.12917     112.313E-03    -10.0677E-03    -102.245E-03    -51.8052E-03     61.8729E-03    -10.0677E-03     181.943E-03     9.55035E+06    -17.0313E+06    -62.6194E+06    -2.82554E+06    -41.8081E+06    -25.4667E+06    -20.5302E+06         52.8394
            2024     16.8021E-03     108.011E-03         3.54987    -344.972E-03        -2.02203    -329.245E-03         3.53415        -2.02203     325.990E-03     137.294E-03    -12.7562E-03    -124.538E-03    -64.5696E-03     77.3258E-03    -12.7562E-03     219.538E-03     42.3046E+06     8.34765E+06    -39.9828E+06    -6.54250E+06     9.42957E+06     7.78232E+06    -12.3032E+06         78.9193
            2025     997.291E-06     108.138E-03         12.1757        -8.05216        -8.38930        -7.87092         11.9324        -8.32716         1.35142     4.58182E-03    -2.19323E-03    -2.38859E-03    -2.29852E-03     4.57705E-03    -2.27853E-03    -236.611E-06    -53.2613E+06    -111.660E+06    -117.434E+06    -114.476E+06    -55.2902E+06    -112.588E+06    -9.74200E+06         20.3612
            2026     1.99475E-03     108.138E-03         11.1754        -7.38322        -7.98498        -7.21826         10.9483        -7.92283         3.81569     4.53005E-03    -2.20206E-03    -2.32799E-03    -2.24348E-03     4.52394E-03    -2.28045E-03    -405.182E-06    -41.5415E+06    -112.849E+06    -121.081E+06    -116.197E+06    -46.1167E+06    -113.158E+06    -18.3281E+06         20.3814
            2027     2.99220E-03     108.140E-03         9.79094        -6.27957        -7.52414        -6.18987         9.70123        -7.52414         2.34840     4.42330E-03    -2.15028E-03    -2.27303E-03    -2.14983E-03     4.41164E-03    -2.26181E-03    -56.8418E-06    -34.7659E+06    -111.521E+06    -122.255E+06    -115.362E+06    -41.0901E+06    -112.089E+06    -21.9016E+06         20.4141
            2028     3.99019E-03     108.144E-03         8.58023        -5.34520        -7.07693        -5.27565         8.51069        -7.07693         1.86193     4.46396E-03    -2.18056E-03    -2.28340E-03    -2.15906E-03     4.39565E-03    -2.23659E-03     778.867E-06    -26.2381E+06    -104.610E+06    -116.970E+06    -106.291E+06    -33.6387E+06    -107.888E+06    -23.0431E+06         20.4641
            2029     4.98748E-03     108.151E-03         7.54576        -4.55735        -6.63897        -4.49342         7.48182        -6.63897         1.63922     4.73652E-03    -2.20613E-03    -2.53040E-03    -2.20172E-03     4.40784E-03    -2.20613E-03     2.31920E-03    -14.8898E+06    -88.8678E+06    -113.933E+06    -90.7678E+06    -23.5378E+06    -103.385E+06    -23.8646E+06         20.5406
            2030     5.98553E-03     108.161E-03         6.49011        -3.72116        -6.20918        -3.58130         6.35026        -6.20918         2.32860     5.42135E-03    -2.18407E-03    -3.23728E-03    -2.28546E-03     4.46953E-03    -2.18407E-03     4.84388E-03    -6.72421E+06    -67.2165E+06    -107.474E+06    -70.0603E+06    -14.3089E+06    -97.0458E+06    -19.2447E+06         20.6563
            2031     6.98303E-03     108.177E-03         5.29483        -2.75768        -5.75845        -2.43236         4.96951        -5.75845         3.00587     6.99676E-03    -2.26086E-03    -4.73590E-03    -2.57887E-03     4.83973E-03    -2.26086E-03     8.75728E-03     8.63398E+06    -53.6280E+06    -77.3620E+06    -39.6260E+06    -9.40104E+06    -73.3290E+06    -9.00169E+06         20.8304
            2032     7.98170E-03     108.198E-03         4.01631        -1.72149        -5.27262        -1.17453         3.46934        -5.27262         3.30006     9.95632E-03    -2.40912E-03    -7.54721E-03    -3.25832E-03     5.66744E-03    -2.40912E-03     14.9026E-03     33.0755E+06    -21.6648E+06    -47.3196E+06    -2.52371E+06     5.79958E+06    -39.1847E+06     5.00538E+06         21.0903
            2033     8.97855E-03     108.227E-03         2.89170    -841.874E-03        -4.76338    -26.3451E-03         2.07617        -4.76338         2.95432     14.5599E-03    -2.69610E-03    -11.8638E-03    -4.39594E-03     7.09204E-03    -2.69610E-03     23.7422E-03     51.6816E+06     20.0986E+06    -22.2896E+06     25.6203E+06     19.6131E+06     4.25709E+06     19.6236E+06         21.4762
            2034     9.97362E-03     108.265E-03         2.24185    -406.198E-03        -4.25953     817.341E-03         1.01831        -4.25953         2.52784     21.3224E-03    -3.11443E-03    -18.2080E-03    -6.05768E-03     9.17212E-03    -3.11443E-03     36.4556E-03     64.3180E+06     44.1940E+06    -5.31206E+06     32.9333E+06     25.1306E+06     45.1360E+06     22.2753E+06         22.0444
            2035     10.9659E-03     108.318E-03         2.00729    -302.168E-03        -3.79418         1.25492     450.199E-03        -3.79418         2.13512     29.7602E-03    -3.52615E-03    -26.2340E-03    -8.25604E-03     11.7822E-03    -3.52615E-03     52.2823E-03     62.2722E+06     45.8884E+06    -3.66277E+06     22.3158E+06     26.0616E+06     56.1205E+06     9.37660E+06         22.8790
            2036     11.9589E-03     108.385E-03         2.09433    -412.586E-03        -3.39020         1.40727     274.479E-03        -3.39020         2.23034     41.5351E-03    -4.07387E-03    -37.4612E-03    -12.4082E-03     16.4820E-03    -4.07387E-03     73.5065E-03     54.1792E+06     26.2443E+06    -8.82557E+06     5.23645E+06     12.1823E+06     54.1792E+06    -3.01814E+06         24.1177
            2037     12.9451E-03     108.479E-03         2.35633    -582.890E-03        -3.04854         1.52681     246.628E-03        -3.04854         2.63875     55.7191E-03    -4.86870E-03    -50.8504E-03    -18.2283E-03     23.0970E-03    -4.86870E-03     98.1002E-03     58.8535E+06     20.9697E+06    -11.8377E+06    -1.14105E+06     10.2731E+06     58.8535E+06    -7.58059E+06         26.0608
            2038     13.9283E-03     108.592E-03         2.46877    -502.827E-03        -2.75849         1.56856     397.384E-03        -2.75849         2.70276     68.7369E-03    -5.89960E-03    -62.8373E-03    -24.6497E-03     30.5493E-03    -5.89960E-03     119.263E-03     67.3851E+06     36.1376E+06    -692.694E+03     4.20977E+06     31.2352E+06     67.3851E+06    -5.92580E+06         29.5367
            2039     14.9049E-03     108.714E-03         2.16841     77.9984E-03        -2.52122         1.32690     919.503E-03        -2.52122         1.95985     88.0712E-03    -7.29440E-03    -80.7768E-03    -36.6598E-03     43.9542E-03    -7.29440E-03     148.195E-03     53.3689E+06     32.8157E+06    -21.6356E+06     773.553E+03     10.9014E+06     52.8741E+06    -14.4773E+06         36.6818
            2040     15.8676E-03     108.881E-03         2.30073     319.143E-03        -2.35093     676.779E-03         1.94309        -2.35093         1.13979     111.926E-03    -9.15150E-03    -102.775E-03    -53.0947E-03     62.2462E-03    -9.15150E-03     180.783E-03     23.7699E+06    -15.0507E+06    -67.5427E+06    -893.340E+03    -48.1026E+06    -9.82769E+06    -25.3575E+06         52.2189
            2041     16.8216E-03     109.076E-03         3.29645    -245.102E-03        -2.25817    -193.573E-03         3.24492        -2.25817     515.774E-03     142.811E-03    -12.1201E-03    -130.691E-03    -73.7690E-03     85.8891E-03    -12.1201E-03     221.806E-03     43.2239E+06     6.15457E+06    -46.4558E+06     676.338E+03    -7.87486E+06     10.1212E+06    -11.9885E+06         81.0965
            2042     996.786E-06     109.143E-03         11.4516        -7.83248        -8.44613        -7.83792         11.2769        -8.26593     523.215E-03     6.90134E-03    -3.36747E-03    -3.53386E-03    -3.40684E-03     6.89317E-03    -3.48633E-03    -450.677E-06    -37.7496E+06    -78.6516E+06    -84.2114E+06    -81.1282E+06    -40.2138E+06    -79.2707E+06    -7.90514E+06         20.5431
            2043     1.99268E-03     109.144E-03         10.0760        -6.99761        -7.81417        -6.86354         9.94195        -7.81417         2.66796     7.24439E-03    -3.50842E-03    -3.73597E-03    -3.69625E-03     7.23031E-03    -3.53405E-03    -756.880E-06    -26.7751E+06    -72.4802E+06    -85.6032E+06    -81.1323E+06    -31.2460E+06    -72.4802E+06    -14.5470E+06         20.5690
            2044     2.98890E-03     109.146E-03         9.16843        -6.39665        -7.39848        -6.33217         9.10394        -7.39848         1.87055     7.62251E-03    -3.65611E-03    -3.96640E-03    -3.94505E-03     7.60625E-03    -3.66120E-03    -817.729E-06    -20.4180E+06    -69.7982E+06    -88.8100E+06    -79.2271E+06    -30.0009E+06    -69.7982E+06    -22.8484E+06         20.6070
            2045     3.98433E-03     109.150E-03         8.72932        -6.09738        -7.08852        -6.03345         8.66540        -7.08852         1.86990     7.83534E-03    -3.75949E-03    -4.07586E-03    -4.06595E-03     7.82544E-03    -3.75949E-03    -341.103E-06    -10.7048E+06    -69.3357E+06    -90.5838E+06    -76.7495E+06    -24.5391E+06    -69.3357E+06    -29.8075E+06         20.6576
            2046     4.98031E-03     109.157E-03         7.88596        -5.35397        -6.80464        -5.28306         7.81505        -6.80464         1.80857     8.03835E-03    -3.84844E-03    -4.18991E-03    -4.14972E-03     7.99817E-03    -3.84844E-03     709.026E-06    -4.18350E+06    -67.5178E+06    -91.3954E+06    -76.4819E+06    -19.0970E+06    -67.5178E+06    -32.6816E+06         20.7261
            2047     5.97563E-03     109.168E-03         6.68590        -4.29286        -6.46175        -4.15757         6.55061        -6.46175         2.39810     8.32179E-03    -3.93500E-03    -4.38679E-03    -4.17074E-03     8.10575E-03    -3.93500E-03     2.42967E-03    -1.71664E+06    -64.1106E+06    -91.0458E+06    -77.0328E+06    -15.7296E+06    -64.1106E+06    -32.4267E+06         20.8218
            2048     6.97188E-03     109.182E-03         5.27340        -3.08084        -6.04294        -2.82905         5.02160        -6.04294         2.73577     8.90860E-03    -3.99322E-03    -4.91538E-03    -4.20161E-03     8.19483E-03    -3.99322E-03     5.08618E-03     1.28475E+06    -61.5630E+06    -89.8502E+06    -73.7976E+06    -13.4888E+06    -62.8421E+06    -33.1175E+06         20.9590
            2049     7.96703E-03     109.204E-03         3.80058        -1.84579        -5.56099        -1.44878         3.40356        -5.56099         2.81426     10.0824E-03    -4.00813E-03    -6.07428E-03    -4.25571E-03     8.26383E-03    -4.00813E-03     9.24197E-03     7.96656E+06    -45.9019E+06    -90.3545E+06    -58.5873E+06    -6.68021E+06    -63.0225E+06    -29.8903E+06         21.1609
            2050     8.96353E-03     109.233E-03         2.65027    -928.906E-03        -5.05476    -434.897E-03         2.15626        -5.05476         2.33820     12.6124E-03    -4.13472E-03    -8.47765E-03    -4.51570E-03     8.65042E-03    -4.13472E-03     15.8182E-03     24.1420E+06    -20.7818E+06    -66.0132E+06    -25.8759E+06    -153.878E+03    -36.6233E+06    -15.0143E+06         21.4639
            2051     9.96026E-03     109.274E-03         1.93003    -376.718E-03        -4.57304     173.993E-03         1.37932        -4.57304         1.66596     17.4988E-03    -4.35586E-03    -13.1430E-03    -5.32200E-03     9.67786E-03    -4.35586E-03     26.3607E-03     52.9529E+06     8.60761E+06    -22.7429E+06     14.4737E+06     16.7658E+06     7.57815E+06     3.72658E+06         21.9223
            2052     10.9566E-03     109.328E-03         1.49760    -27.3118E-03        -4.14085     577.058E-03     893.229E-03        -4.14085         1.20038     24.8794E-03    -4.67602E-03    -20.2034E-03    -6.95726E-03     11.6333E-03    -4.67602E-03     40.9397E-03     72.2176E+06     42.7914E+06     3.35753E+06     38.5290E+06     29.6813E+06     50.1562E+06     16.5336E+06         22.6179
            2053     11.9476E-03     109.398E-03         1.48906    -8.20178E-03        -3.75988     937.831E-03     543.025E-03        -3.75988         1.34192     37.0017E-03    -5.12833E-03    -31.8734E-03    -9.87650E-03     15.0048E-03    -5.12833E-03     64.1624E-03     79.5760E+06     55.6215E+06     1.52160E+06     37.7007E+06     19.4425E+06     79.5760E+06     17.6077E+06         23.6755
            2054     12.9368E-03     109.498E-03         1.88601    -304.684E-03        -3.41957         1.35550     225.829E-03        -3.41957         1.86611     50.2138E-03    -5.60527E-03    -44.6086E-03    -13.5299E-03     19.1352E-03    -5.60527E-03     89.0084E-03     83.1579E+06     49.9174E+06    -6.08046E+06     23.3709E+06     20.4660E+06     83.1579E+06     7.46294E+06         25.3759
            2055     13.9261E-03     109.611E-03         2.21400    -449.036E-03        -3.11416         1.62420     140.764E-03        -3.11416         2.20493     63.0097E-03    -6.28587E-03    -56.7238E-03    -20.3099E-03     26.5957E-03    -6.28587E-03     110.035E-03     79.3293E+06     37.3875E+06     1.36912E+06     10.9305E+06     27.8261E+06     79.3293E+06     150.056E+03         28.5203
            2056     14.9063E-03     109.752E-03         2.05109     1.93457E-03        -2.85987         1.42801     625.009E-03        -2.85987         1.82394     84.4091E-03    -7.45674E-03    -76.9523E-03    -33.3771E-03     40.8339E-03    -7.45674E-03     143.167E-03     74.5902E+06     31.8397E+06     2.38904E+06     6.68807E+06     27.5406E+06     74.5902E+06    -2.04715E+06         35.2663
            2057     15.8694E-03     109.937E-03         2.13572     311.957E-03        -2.68152     784.423E-03         1.66325        -2.68152         1.28923     114.403E-03    -9.29270E-03    -105.110E-03    -55.3918E-03     64.6845E-03    -9.29270E-03     183.167E-03     32.7308E+06    -6.40703E+06    -52.5090E+06    -6.00759E+06    -32.2595E+06     12.0819E+06    -17.2451E+06         51.3350
            2058     16.8054E-03     110.156E-03         3.03512    -84.2851E-03        -2.58723    -2.11575E-03         2.95295        -2.58723     637.584E-03     147.196E-03    -12.2282E-03    -134.968E-03    -75.4482E-03     87.6763E-03    -12.2282E-03     230.062E-03     21.0342E+06    -14.0439E+06    -67.6103E+06    -17.7335E+06    -31.3349E+06    -11.5516E+06    -21.2447E+06         85.0668
            2059     994.639E-06     110.151E-03         10.5094        -7.70808        -8.22442        -7.76846         10.3896        -8.04423    -749.923E-03     10.0676E-03    -4.87993E-03    -5.18767E-03    -5.11921E-03     10.0556E-03    -4.93638E-03    -694.993E-06    -25.6145E+06    -44.7416E+06    -51.8831E+06    -48.7710E+06    -28.7266E+06    -44.7416E+06    -7.08641E+06         20.7735
            2060     1.99031E-03     110.153E-03         9.11589        -6.78444        -7.67404        -6.74502         9.07647        -7.67404         1.11016     10.5893E-03    -5.11947E-03    -5.46984E-03    -5.42470E-03     10.5647E-03    -5.14002E-03    -1.23408E-03    -12.6192E+06    -38.8239E+06    -51.5856E+06    -46.2865E+06    -17.9183E+06    -38.8239E+06    -12.5144E+06         20.8080
            2061     2.98383E-03     110.156E-03         8.28091        -6.29891        -7.27230        -6.25535         8.23734        -7.27230         1.15417     11.3358E-03    -5.35442E-03    -5.98143E-03    -5.94853E-03     11.3029E-03    -5.35442E-03    -1.50434E-03    -5.67587E+06    -35.3013E+06    -55.4898E+06    -45.2814E+06    -15.8843E+06    -35.3013E+06    -19.8362E+06         20.8587
            2062     3.97792E-03     110.160E-03         7.97894        -6.13882        -6.98957        -6.08590         7.92602        -6.98957         1.65427     11.9716E-03    -5.57668E-03    -6.39489E-03    -6.36849E-03     11.9452E-03    -5.57668E-03    -1.34807E-03    -539.326E+03    -36.6497E+06    -62.1378E+06    -48.8038E+06    -13.8734E+06    -36.6497E+06    -25.2054E+06         20.9241
            2063     4.97109E-03     110.167E-03         7.49106        -5.68868        -6.76254        -5.62869         7.43107        -6.76254         1.66355     12.5639E-03    -5.80303E-03    -6.76086E-03    -6.74209E-03     12.5451E-03    -5.80303E-03    -876.394E-06     1.21408E+06    -37.5606E+06    -68.3222E+06    -53.7040E+06    -13.4041E+06    -37.5606E+06    -27.8243E+06         21.0050
            2064     5.96447E-03     110.178E-03         6.47907        -4.74788        -6.49368        -4.63577         6.36695        -6.49368         2.20249     13.2092E-03    -6.04873E-03    -7.16045E-03    -7.13545E-03     13.1842E-03    -6.04873E-03     52.6274E-06     4.24307E+06    -32.6097E+06    -69.7633E+06    -54.5538E+06    -10.9664E+06    -32.6097E+06    -29.4232E+06         21.1064
            2065     6.95646E-03     110.193E-03         5.14963        -3.54136        -6.14056        -3.36233         4.97060        -6.14056         2.38701     13.8163E-03    -6.29834E-03    -7.51799E-03    -7.41053E-03     13.7089E-03    -6.29834E-03     1.85340E-03     11.0544E+06    -24.6676E+06    -71.2117E+06    -54.1529E+06    -6.00446E+06    -24.6676E+06    -33.2288E+06         21.2374
            2066     7.94920E-03     110.215E-03         3.96065        -2.51205        -5.72877        -2.27983         3.72843        -5.72877         2.29560     14.5745E-03    -6.52711E-03    -8.04742E-03    -7.61682E-03     14.1439E-03    -6.52711E-03     4.72925E-03     11.0882E+06    -21.4996E+06    -77.2145E+06    -58.3206E+06     -7.8057E+06    -21.4996E+06    -35.9407E+06         21.4129
            2067     8.94127E-03     110.243E-03         3.00478        -1.68078        -5.30775        -1.49457         2.81857        -5.30775         1.63438     15.7502E-03    -6.71356E-03    -9.03668E-03    -7.78064E-03     14.4942E-03    -6.71356E-03     8.95893E-03     8.03238E+06    -24.3587E+06    -81.0074E+06    -62.7092E+06    -10.2658E+06    -24.3587E+06    -35.6096E+06         21.6562
            2068     9.93339E-03     110.283E-03         2.21168    -961.721E-03        -4.90720    -875.903E-03         2.12586        -4.90720     770.887E-03     17.6313E-03    -6.86677E-03    -10.7645E-03    -7.71042E-03     14.5772E-03    -6.86677E-03     15.6076E-03     12.1886E+06    -21.3652E+06    -68.7681E+06    -54.3847E+06    -1.16531E+06    -22.3946E+06    -27.7381E+06         22.0073
            2069     10.9256E-03     110.337E-03         1.51643    -286.672E-03        -4.53078    -222.862E-03         1.45262        -4.53078     360.467E-03     21.6181E-03    -7.14387E-03    -14.4742E-03    -8.00708E-03     15.1509E-03    -7.14387E-03     26.2216E-03     31.2746E+06     10.8754E+06    -43.9889E+06    -26.6008E+06     11.8375E+06     12.9244E+06    -10.1225E+06         22.5317
            2070     11.9206E-03     110.410E-03         1.15474     105.341E-03        -4.17261     453.707E-03     806.371E-03        -4.17261     631.130E-03     29.5332E-03    -7.48047E-03    -22.0527E-03    -8.76738E-03     16.2478E-03    -7.48047E-03     43.9925E-03     57.5471E+06     46.8082E+06    -22.0305E+06     10.7315E+06     14.0461E+06     57.5471E+06     6.20442E+06         23.3417
            2071     12.9154E-03     110.510E-03         1.36188    -13.4740E-03        -3.83441         1.01263     335.772E-03        -3.83441         1.15070     40.0180E-03    -7.82644E-03    -32.1916E-03    -10.6250E-03     18.4514E-03    -7.82644E-03     65.7003E-03     92.5086E+06     56.6571E+06     131.597E+03     35.0874E+06     21.7013E+06     92.5086E+06     17.1025E+06         24.7096
            2072     13.9018E-03     110.631E-03         1.73958    -201.810E-03        -3.52879         1.30688     230.890E-03        -3.52879         1.60120     54.6182E-03    -8.32022E-03    -46.2980E-03    -16.7716E-03     25.0918E-03    -8.32022E-03     91.7456E-03     109.967E+06     56.1411E+06     11.3286E+06     35.2767E+06     32.1930E+06     109.967E+06     18.4853E+06         27.3710
            2073     14.8789E-03     110.782E-03         1.73969     106.225E-03        -3.27989         1.15965     686.262E-03        -3.27989         1.45602     78.0083E-03    -9.16011E-03    -68.8482E-03    -29.0229E-03     38.1830E-03    -9.16011E-03     130.519E-03     96.8334E+06     45.8095E+06     11.0850E+06     24.3195E+06     32.5751E+06     96.8334E+06     13.0816E+06         33.3876
            2074     15.8537E-03     110.981E-03         1.88875     395.975E-03        -3.11136     711.016E-03         1.57371        -3.11136     944.207E-03     114.364E-03    -10.7462E-03    -103.618E-03    -51.5054E-03     62.2516E-03    -10.7462E-03     185.539E-03     56.3553E+06     23.0651E+06    -14.7401E+06     13.4483E+06    -3.44058E+06     54.6726E+06     3.46244E+06         48.5620
            2075     16.7980E-03     111.257E-03         2.67980     154.563E-03        -3.01940     200.779E-03         2.63358        -3.01940     378.361E-03     141.218E-03    -13.1074E-03    -128.110E-03    -64.1708E-03     77.2782E-03    -13.1074E-03     228.704E-03     20.9229E+06    -9.16930E+06    -47.3965E+06    -6.00935E+06    -26.6829E+06    -2.95069E+06    -13.7896E+06         87.4469
            2076     993.736E-06     111.164E-03         9.33764        -7.50881        -7.85475        -7.39230         9.21886        -7.85247        -1.60105     14.1743E-03    -6.76377E-03    -7.41054E-03    -7.08073E-03     14.1630E-03    -7.08225E-03    -798.010E-06    -4.85098E+06    -14.5734E+06    -26.8185E+06    -14.0686E+06    -17.6009E+06    -14.5734E+06    -6.00637E+06         21.0231
            2077     1.98526E-03     111.165E-03         8.36259        -6.97059        -7.49231        -6.96346         8.35319        -7.49004     57.1659E-03     14.6902E-03    -7.15608E-03    -7.53411E-03    -7.50949E-03     14.6656E-03    -7.15608E-03    -1.45818E-03     3.58486E+06    -14.3719E+06    -25.2249E+06    -14.1314E+06    -7.50865E+06    -14.3719E+06    -11.4102E+06         21.0664
            2078     2.97870E-03     111.169E-03         7.42795        -6.25721        -7.19664        -6.22763         7.39838        -7.19664     500.115E-03     15.5436E-03    -7.40143E-03    -8.14213E-03    -8.10867E-03     15.5101E-03    -7.40143E-03    -1.76001E-03     6.22638E+06    -12.5721E+06    -28.8410E+06    -17.8556E+06    -6.56166E+06    -10.7695E+06    -13.8770E+06         21.1332
            2079     3.96962E-03     111.174E-03         6.80460        -5.81166        -6.89547        -5.77921         6.77216        -6.89547         1.21241     16.9016E-03    -7.77271E-03    -9.12890E-03    -9.08554E-03     16.8582E-03    -7.77271E-03    -2.11171E-03     11.3561E+06    -6.35684E+06    -32.8835E+06    -20.9552E+06    -5.77020E+06    -1.15883E+06    -16.8791E+06         21.2217
            2080     4.96040E-03     111.182E-03         6.45254        -5.53539        -6.64172        -5.50437         6.42152        -6.64172         1.12523     18.1899E-03    -8.18726E-03    -10.0027E-03    -9.95776E-03     18.1450E-03    -8.18726E-03    -2.24210E-03     14.5967E+06    -3.39673E+06    -37.6049E+06    -22.7903E+06    -6.47203E+06     2.85733E+06    -20.4872E+06         21.3299
            2081     5.94950E-03     111.194E-03         5.83661        -4.93961        -6.40108        -4.88854         5.78555        -6.40108         1.30086     19.3401E-03    -8.58387E-03    -10.7562E-03    -10.7258E-03     19.3096E-03    -8.58387E-03    -1.81511E-03     13.6938E+06    -2.53423E+06    -41.9138E+06    -25.6153E+06    -5.46328E+06     324.435E+03    -23.9119E+06         21.4596
            2082     6.93884E-03     111.210E-03         5.03777        -4.17936        -6.12970        -4.09795         4.95636        -6.12970         1.49032     20.6507E-03    -8.99807E-03    -11.6527E-03    -11.6327E-03     20.6308E-03    -8.99807E-03    -968.389E-06     13.5607E+06    -1.40118E+06    -45.0511E+06    -31.1410E+06    -349.343E+03    -1.40118E+06    -24.4211E+06         21.6170
            2083     7.92667E-03     111.232E-03         4.41923        -3.56688        -5.83957        -3.48239         4.33473        -5.83957         1.48650     22.2551E-03    -9.49544E-03    -12.7597E-03    -12.7158E-03     22.2113E-03    -9.49544E-03     293.193E-06     12.5173E+06    -1.74263E+06    -50.8991E+06    -38.2191E+06    -4.59284E+06     2.68758E+06    -23.5220E+06         21.8100
            2084     8.91323E-03     111.262E-03         3.73605        -2.85118        -5.54708        -2.81079         3.69566        -5.54708     885.436E-03     23.8450E-03    -10.0290E-03    -13.8160E-03    -13.6632E-03     23.6922E-03    -10.0290E-03     2.63620E-03     16.6498E+06     756.629E+03    -57.6118E+06    -43.5112E+06    -5.51823E+06     8.82407E+06    -26.3602E+06         22.0486
            2085     9.89854E-03     111.301E-03         2.90762        -1.97672        -5.24405        -1.96474         2.89564        -5.24405     228.814E-03     25.4550E-03    -10.5549E-03    -14.9000E-03    -14.3176E-03     24.8725E-03    -10.5549E-03     6.41458E-03     18.3185E+06     3.23344E+06    -63.6081E+06    -48.2234E+06    -5.92027E+06     12.0876E+06    -29.4792E+06         22.3500
            2086     10.8849E-03     111.354E-03         2.04553        -1.08867        -4.92589        -1.07893         2.03578        -4.92589    -226.623E-03     27.6074E-03    -11.0761E-03    -16.5312E-03    -14.8657E-03     25.9418E-03    -11.0761E-03     12.4012E-03     18.5462E+06     6.23422E+06    -63.3643E+06    -51.0500E+06    -3.63949E+06     16.1056E+06    -26.6540E+06         22.7472
            2087     11.8680E-03     111.426E-03         1.31600    -335.995E-03        -4.60089    -268.216E-03         1.24822        -4.60089    -64.7527E-03     29.9765E-03    -11.5909E-03    -18.3856E-03    -14.5595E-03     26.1504E-03    -11.5909E-03     20.9450E-03     27.4402E+06     9.20722E+06    -53.6747E+06    -45.2669E+06     799.485E+03     27.4402E+06    -19.3226E+06         23.3238
            2088     12.8528E-03     111.521E-03         1.10872    -34.7533E-03        -4.28742     278.947E-03     795.016E-03        -4.28742     380.576E-03     33.4117E-03    -12.1187E-03    -21.2929E-03    -13.0884E-03     25.2071E-03    -12.1187E-03     34.4109E-03     63.9385E+06     18.9116E+06    -37.2508E+06    -22.7664E+06     4.42714E+06     63.9385E+06    -8.57689E+06         24.3150
            2089     13.8446E-03     111.646E-03         1.33262    -50.0616E-03        -4.01180     468.494E-03     814.067E-03        -4.01180     730.860E-03     42.1685E-03    -12.5440E-03    -29.6245E-03    -13.7022E-03     26.2462E-03    -12.5440E-03     57.3727E-03     98.5061E+06     41.6697E+06    -12.2675E+06     9.94647E+06     19.4558E+06     98.5061E+06     11.4077E+06         26.3382
            2090     14.8340E-03     111.806E-03         1.48203     152.972E-03        -3.79632     483.692E-03         1.15131        -3.79632     602.419E-03     64.1691E-03    -13.1270E-03    -51.0421E-03    -22.8299E-03     35.9570E-03    -13.1270E-03     98.5479E-03     111.492E+06     55.7833E+06     8.44342E+06     29.1879E+06     35.0388E+06     111.492E+06     23.3314E+06         31.0493
            2091     15.7980E-03     112.022E-03         1.71216     401.013E-03        -3.64921     479.033E-03         1.63414        -3.64921     192.710E-03     100.303E-03    -14.2354E-03    -86.0674E-03    -38.4265E-03     52.6618E-03    -14.2354E-03     162.331E-03     100.832E+06     47.6170E+06     7.75295E+06     33.3475E+06     22.0224E+06     100.832E+06     12.1135E+06         43.3219
            2092     16.7604E-03     112.315E-03         2.30337     348.486E-03        -3.55219     360.513E-03         2.29135        -3.55219    -25.2278E-03     116.704E-03    -15.3725E-03    -101.331E-03    -37.3643E-03     52.7367E-03    -15.3725E-03     196.733E-03     48.6536E+06     7.31962E+06    -18.7408E+06     20.0778E+06    -13.0590E+06     30.2135E+06     6.31085E+06         75.4876
            2093     990.278E-06     112.180E-03         7.49283        -6.76182        -7.47462        -7.17399         7.39407        -6.96369        -1.15163     19.0038E-03    -9.09078E-03    -9.91305E-03    -9.44720E-03     18.9945E-03    -9.54734E-03    -980.972E-06     28.2020E+06     18.4162E+06    -8.99160E+06     24.3293E+06    -7.01499E+06     20.3123E+06    -6.54169E+06         21.2291
            2094     1.98195E-03     112.183E-03         7.29105        -6.93980        -7.27447        -7.11925         7.27327        -7.07723    -24.8755E-03     19.4341E-03    -9.40941E-03    -10.0246E-03    -9.87220E-03     19.4197E-03    -9.54750E-03    -1.22815E-03     24.9221E+06     13.8964E+06    -6.05472E+06     18.3026E+06    -2.46821E+06     16.9294E+06    -7.56957E+06         21.2798
            2095     2.97098E-03     112.186E-03         6.61423        -6.48304        -7.07271        -6.52717         6.59183        -7.00616     122.163E-03     20.7892E-03    -9.86506E-03    -10.9241E-03    -10.9013E-03     20.7664E-03    -9.86506E-03    -1.65128E-03     27.4481E+06     15.3514E+06    -6.12500E+06     13.6501E+06    -1.25973E+06     24.2841E+06    -8.09183E+06         21.3608
            2096     3.96040E-03     112.194E-03         5.87692        -5.81764        -6.80050        -5.80057         5.85985        -6.80050     804.982E-03     22.4382E-03    -10.3475E-03    -12.0907E-03    -12.0561E-03     22.4036E-03    -10.3475E-03    -2.10055E-03     33.2132E+06     17.6718E+06    -8.10966E+06     10.4072E+06    -845.072E+03     33.2132E+06    -9.46918E+06         21.4701
            2097     4.94694E-03     112.204E-03         5.43630        -5.35558        -6.55468        -5.34769         5.42841        -6.55468     497.699E-03     24.4418E-03    -10.8957E-03    -13.5461E-03    -13.5050E-03     24.4007E-03    -10.8957E-03    -2.40053E-03     35.4072E+06     16.6497E+06    -10.7357E+06     6.89383E+06    -979.829E+03     35.4072E+06    -11.0452E+06         21.6065
            2098     5.93344E-03     112.217E-03         5.23139        -5.18016        -6.33715        -5.17025         5.22148        -6.33715     142.647E-03     26.7036E-03    -11.5035E-03    -15.2001E-03    -15.1586E-03     26.6621E-03    -11.5035E-03    -2.60530E-03     31.8193E+06     12.3652E+06    -14.0448E+06     475.836E+03    -523.861E+03     30.1877E+06    -12.4797E+06         21.7714
            2099     6.91747E-03     112.234E-03         5.03884        -4.97405        -6.15604        -4.95619         5.02099        -6.15604     190.855E-03     29.3868E-03    -12.2237E-03    -17.1631E-03    -17.1209E-03     29.3446E-03    -12.2237E-03    -2.79693E-03     29.1745E+06     8.62766E+06    -19.2427E+06    -7.21237E+06    -1.41223E+06     27.1840E+06    -11.9760E+06         21.9679
            2100     7.89909E-03     112.259E-03         4.69418        -4.47960        -5.98009        -4.46314         4.67772        -5.98009     496.049E-03     32.3510E-03    -13.0744E-03    -19.2766E-03    -19.2342E-03     32.3086E-03    -13.0744E-03    -2.89011E-03     31.8807E+06     8.32545E+06    -22.4410E+06    -12.0183E+06    -1.73840E+06     31.5218E+06    -12.1423E+06         22.2006
            2101     8.87877E-03     112.290E-03         4.16901        -3.72529        -5.77905        -3.72045         4.16417        -5.77905     266.902E-03     35.6064E-03    -14.0264E-03    -21.5799E-03    -21.5268E-03     35.5532E-03    -14.0264E-03    -2.75282E-03     37.5985E+06     7.36779E+06    -26.0154E+06    -17.4917E+06    -1.15596E+06     37.5985E+06    -13.4444E+06         22.4739
            2102     9.85689E-03     112.332E-03         3.48877        -2.88601        -5.54430        -2.88083         3.48359        -5.54430    -98.1728E-03     39.5063E-03    -15.0779E-03    -24.4284E-03    -24.3464E-03     39.4243E-03    -15.0779E-03    -2.57036E-03     39.8551E+06     6.50021E+06    -33.1727E+06    -24.9263E+06    -1.74612E+06     39.8551E+06    -14.7714E+06         22.7860
            2103     10.8293E-03     112.386E-03         2.78895        -2.15258        -5.28742        -2.13407         2.77044        -5.28742    -549.188E-03     43.0003E-03    -16.2362E-03    -26.7641E-03    -26.5822E-03     42.8185E-03    -16.2362E-03    -1.62975E-03     42.2889E+06     3.49535E+06    -39.7492E+06    -31.0468E+06    -5.20697E+06     42.2889E+06    -15.8519E+06         23.1382
            2104     11.8012E-03     112.459E-03         2.21019        -1.58290        -5.02893        -1.54626         2.17354        -5.02893    -720.642E-03     44.8004E-03    -17.4264E-03    -27.3741E-03    -26.9367E-03     44.3631E-03    -17.4264E-03     753.719E-06     53.2195E+06     6.47958E+06    -43.1450E+06    -34.3010E+06    -2.36436E+06     53.2195E+06    -17.0247E+06         23.5803
            2105     12.7725E-03     112.549E-03         1.87925        -1.16662        -4.78849        -1.12744         1.84007        -4.78849    -604.526E-03     45.2998E-03    -18.5039E-03    -26.7958E-03    -25.5512E-03     44.0551E-03    -18.5039E-03     4.80020E-03     61.5290E+06     4.09108E+06    -46.1601E+06    -37.4639E+06    -4.60511E+06     61.5290E+06    -18.0596E+06         24.2888
            2106     13.7437E-03     112.664E-03         1.85607    -858.343E-03        -4.58157    -820.197E-03         1.81792        -4.58157    -415.431E-03     46.7002E-03    -19.3961E-03    -27.3041E-03    -23.8697E-03     43.2658E-03    -19.3961E-03     12.9458E-03     57.4782E+06     4.69282E+06    -42.6985E+06    -32.6792E+06    -5.32646E+06     57.4782E+06    -12.1497E+06         25.7123
            2107     14.7190E-03     112.821E-03         1.88825    -461.005E-03        -4.41511    -410.921E-03         1.83817        -4.41511    -487.147E-03     55.9771E-03    -20.4910E-03    -35.4861E-03    -25.8817E-03     46.3727E-03    -20.4910E-03     35.8113E-03     85.8762E+06     34.0332E+06    -25.7797E+06    -12.5077E+06     20.7612E+06     85.8762E+06     1.14648E+06         28.9272
            2108     15.6983E-03     113.050E-03         1.90644    -7.02556E-03        -4.28393     54.2952E-03         1.84512        -4.28393    -621.085E-03     64.2565E-03    -13.5362E-03    -50.7203E-03    -20.4594E-03     41.8728E-03    -21.4133E-03     75.0141E-03     89.8561E+06     29.3554E+06    -16.7884E+06    -2.06885E+06     26.3829E+06     78.1090E+06     10.4863E+06         36.8772
            2109     16.6779E-03     113.329E-03         2.04182     375.057E-03        -4.16842     416.177E-03         2.00070        -4.16842    -440.982E-03     59.0935E-03    -4.29689E-03    -54.7966E-03    -4.94417E-03     26.3332E-03    -21.3890E-03     90.7060E-03     40.6661E+06    -4.70596E+06    -44.2656E+06     3.21944E+06    -2.82721E+06    -8.69769E+06     13.9586E+06         51.3588


