********************************************************************************
Field Output Report, written Tue May  6 11:29:42 2025

Source 1
---------

   ODB: D:/AISI_1020/Vel_40/aisi_1020_2a_32_red_150_cal_30_vel_40_fric_050.odb
   Step: Step-1
   Frame: Increment   1617772: Step Time =   0.2087

Loc 1 : Nodal values from source 1

Output sorted by column "Node Label".

Field Output reported at nodes for region: DIE_2A_32_D0_36-1.Region_1
   Computation algorithm: EXTRAPOLATE_COMPUTE_AVERAGE
   Averaged at nodes
   Averaging regions: ODB_REGIONS

      Node Label     COORD.COOR1     COORD.COOR2
                          @Loc 1          @Loc 1
-------------------------------------------------
               1     22.6170E-03     114.532E-03


Field Output reported at nodes for region: DIE_2A_32_D0_36-1.Region_2
   Computation algorithm: EXTRAPOLATE_COMPUTE_AVERAGE
   Averaged at nodes
   Averaging regions: ODB_REGIONS

      Node Label     COORD.COOR1     COORD.COOR2
                          @Loc 1          @Loc 1
-------------------------------------------------
               1     22.6170E-03     114.532E-03


Field Output reported at nodes for part: WIRE_1-1
   Computation algorithm: EXTRAPOLATE_COMPUTE_AVERAGE
   Averaged at nodes
   Averaging regions: ODB_REGIONS

      Node Label     COORD.COOR1     COORD.COOR2    ER.Max. Prin    ER.Mid. Prin    ER.Min. Prin         ER.ER11         ER.ER22         ER.ER33         ER.ER12    PE.Max. Prin    PE.Mid. Prin    PE.Min. Prin         PE.PE11         PE.PE22         PE.PE33         PE.PE12     S.Max. Prin     S.Mid. Prin     S.Min. Prin           S.S11           S.S22           S.S33           S.S12            TEMP
                          @Loc 1          @Loc 1          @Loc 1          @Loc 1          @Loc 1          @Loc 1          @Loc 1          @Loc 1          @Loc 1          @Loc 1          @Loc 1          @Loc 1          @Loc 1          @Loc 1          @Loc 1          @Loc 1          @Loc 1          @Loc 1          @Loc 1          @Loc 1          @Loc 1          @Loc 1          @Loc 1          @Loc 1
-----------------------------------------------------------------------------------------------------------------------------------------------------------------------------------------------------------------------------------------------------------------------------------------------------------------------------------------------------------------------------------------------------------------
               1     17.7171E-03     57.9135E-03         2.15059     194.780E-03        -2.43731     190.985E-03        -2.43352         2.15059     196.616E-03     292.127E-03    -16.9605E-03    -275.166E-03    -56.2500E-03     73.2105E-03    -16.9605E-03     552.321E-03     212.583E+06     111.055E+06    -861.576E+03    -857.369E+03     212.579E+06     111.055E+06     846.899E+03         72.3513
               2     302.329E-09     56.6170E-03         10.3733        -4.20489        -6.36779         9.75942        -5.75386        -4.20489         6.27683     34.0730E-03    -16.9042E-03    -17.1688E-03    -17.1614E-03     34.0656E-03    -16.9042E-03     1.23044E-03     285.473E+03    -904.507E+03    -181.106E+06    -910.648E+03    -181.099E+06     285.473E+03     1.04220E+06         22.4788
               3     1.32965E-06    -62.4500E-18         1.93658         1.52112        -3.81129         1.93598        -3.81069         1.52112    -117.602E-03     48.8841E-03    -24.4095E-03    -24.4746E-03    -24.4064E-03     48.8811E-03    -24.4746E-03    -945.734E-06    -33.5492E+06    -33.8557E+06    -197.617E+06    -33.6027E+06    -197.564E+06    -33.8557E+06     2.96088E+06         24.8416
               4     17.6339E-03    -62.4500E-18     746.128E-03     744.902E-03        -2.51849     744.856E-03        -2.51844     746.128E-03     24.4497E-03     168.839E-03    -17.6693E-03    -151.170E-03    -125.328E-03     142.997E-03    -17.6693E-03     174.377E-03     213.389E+06     75.6041E+06     34.8088E+06     36.0520E+06     212.146E+06     75.6041E+06    -14.8475E+06         41.6608
               5     17.3710E-03     114.535E-03     528.651E-03     9.83020E-03    -567.504E-03     28.0147E-03     510.467E-03    -567.504E-03    -190.828E-03     14.9950E-03     12.1566E-03    -27.1516E-03     13.4131E-03     13.7385E-03    -27.1516E-03     2.81967E-03     9.56938E+06    -15.9791E+06    -109.818E+06     9.01004E+06    -15.4197E+06    -109.818E+06     3.73865E+06         32.0472
               6     5.18206E-06     113.102E-03     634.550E-03    -362.606E-03    -908.440E-03    -861.166E-03     587.277E-03    -362.606E-03    -531.818E-03     23.2510E-03    -11.0123E-03    -12.2386E-03    -12.2336E-03     23.2460E-03    -11.0123E-03    -843.356E-06     73.4896E+06     55.8243E+06     7.74940E+06     54.2576E+06     9.31613E+06     73.4896E+06    -8.53614E+06         21.4012
               7     16.7168E-03     57.2837E-03         2.20334     393.138E-03        -2.71279     381.105E-03        -2.70076         2.20334    -170.165E-03     249.882E-03    -16.9137E-03    -232.968E-03    -49.7455E-03     66.6592E-03    -16.9137E-03     468.545E-03     197.691E+06     90.7870E+06    -4.59568E+06    -4.58666E+06     197.682E+06     90.7870E+06     1.14231E+06         67.8492
               8     15.7440E-03     56.8702E-03         2.30243     892.105E-03        -3.35004     739.903E-03        -3.19784         2.30243        -1.41425     137.626E-03    -16.5993E-03    -121.027E-03    -30.4106E-03     47.0099E-03    -16.5993E-03     245.963E-03     154.200E+06     29.6396E+06    -13.6390E+06    -9.99677E+06     154.187E+06     26.0104E+06     594.966E+03         57.1202
               9     14.7574E-03     56.7629E-03         2.39270         1.42925        -3.99465         1.04550        -3.61089         2.39270        -2.77025     51.2805E-03    -16.1996E-03    -35.0809E-03    -16.6400E-03     32.8395E-03    -16.1996E-03     66.2631E-03     99.4605E+06    -10.1565E+06    -45.9629E+06    -10.3590E+06     99.4382E+06    -45.7381E+06    -259.213E+03         45.2219
              10     13.7735E-03     56.7364E-03         2.47715         1.62621        -4.27863         1.33288        -3.98529         2.47715        -2.39604     34.4723E-03    -16.1496E-03    -18.3227E-03    -15.8258E-03     31.9754E-03    -16.1496E-03     22.2015E-03     54.6851E+06    -5.77269E+06    -58.3217E+06    -5.72522E+06     54.6376E+06    -58.3217E+06     8.79878E+03         35.6214
              11     12.7884E-03     56.7175E-03         2.55299         1.67886        -4.40863         1.62714        -4.35691         2.55299    -742.105E-03     33.5860E-03    -16.3188E-03    -17.2671E-03    -16.0016E-03     32.3204E-03    -16.3188E-03     15.4494E-03     18.0172E+06    -6.34757E+06    -32.7279E+06    -1.65764E+06     13.3273E+06    -32.7279E+06     1.40935E+06         29.4610
              12     11.8044E-03     56.7055E-03         2.61680         1.99088        -4.78583         1.92529        -4.72024         2.61680    -935.939E-03     33.2737E-03    -16.4413E-03    -16.8324E-03    -16.1566E-03     32.5979E-03    -16.4413E-03     11.5509E-03    -512.826E+03    -16.9587E+06    -38.0192E+06    -964.726E+03    -31.7835E+06    -22.7424E+06     1.63763E+06         26.1241
              13     10.8201E-03     56.6945E-03         2.67490         2.43286        -5.28636         2.19970        -5.04438         2.66608        -2.63073     33.6314E-03    -16.5409E-03    -17.0904E-03    -16.3993E-03     32.9403E-03    -16.5409E-03     11.7524E-03     95.7571E+03    -15.5069E+06    -65.0418E+06     87.4130E+03    -65.0335E+06    -15.5069E+06     506.189E+03         24.5024
              14     9.83661E-03     56.6816E-03         2.71238         2.52834        -5.42352         2.36016        -5.24651         2.70355        -1.75687     33.7618E-03    -16.6423E-03    -17.1196E-03    -16.4746E-03     33.1169E-03    -16.6423E-03     11.3506E-03     2.19163E+06    -5.22985E+06    -87.8409E+06     2.18314E+06    -87.8324E+06    -5.22985E+06     733.321E+03         23.7324
              15     8.85240E-03     56.6714E-03         2.86523         2.57601        -5.63299         2.45607        -5.38314         2.73532         1.96339     33.6534E-03    -16.7090E-03    -16.9443E-03    -16.4426E-03     33.1517E-03    -16.7090E-03     10.0173E-03     3.16015E+06    -3.31843E+06    -108.998E+06     3.15140E+06    -108.989E+06    -3.31843E+06     647.570E+03         23.3331
              16     7.86855E-03     56.6615E-03         3.03903         2.76142        -6.00812         2.57773        -5.54681         2.76142         3.97564     33.7492E-03    -16.7903E-03    -16.9590E-03    -16.5282E-03     33.3185E-03    -16.7903E-03     9.30141E-03     4.38061E+06     756.473E+03    -126.785E+06     4.37368E+06    -126.778E+06     756.473E+03     528.650E+03         23.0890
              17     6.88490E-03     56.6527E-03         2.98445         2.77776        -5.98565         2.69688        -5.69808         2.77776         3.06478     33.8489E-03    -16.8703E-03    -16.9786E-03    -16.6072E-03     33.4775E-03    -16.8703E-03     8.64954E-03     5.88519E+06     5.07930E+06    -139.508E+06     5.37802E+06    -139.500E+06     5.57854E+06     821.600E+03         22.9167
              18     5.90080E-03     56.6438E-03         2.88526         2.78098        -5.89650         2.80024        -5.81149         2.78098         1.54985     33.9679E-03    -16.9199E-03    -17.0480E-03    -16.7410E-03     33.6609E-03    -16.9199E-03     7.87725E-03     6.60760E+06     5.40814E+06    -147.074E+06     5.52673E+06    -147.048E+06     6.46276E+06     1.62415E+06         22.7855
              19     4.91749E-03     56.6366E-03         3.11336         2.76925        -6.11067         2.86118        -5.85849         2.76925         2.52057     34.0430E-03    -16.9352E-03    -17.1078E-03    -16.8575E-03     33.8129E-03    -16.9554E-03     6.81521E-03     5.95558E+06     4.40614E+06    -158.880E+06     5.34645E+06    -158.826E+06     4.96151E+06     2.54024E+06         22.6836
              20     3.93381E-03     56.6296E-03         3.37218         2.74985        -6.33890         2.82520        -5.79191         2.74985         4.46892     34.0692E-03    -16.9650E-03    -17.1043E-03    -16.9319E-03     33.9170E-03    -16.9851E-03     5.53479E-03     4.08030E+06     3.06950E+06    -171.233E+06     3.88619E+06    -171.200E+06     3.23106E+06     1.03582E+06         22.6052
              21     2.95009E-03     56.6244E-03         3.58130         2.73360        -6.52266         2.77039        -5.71176         2.73360         5.45018     34.1106E-03    -16.9974E-03    -17.1132E-03    -17.0196E-03     34.0170E-03    -16.9974E-03     4.33366E-03     3.09736E+06     2.42241E+06    -176.551E+06     2.39916E+06    -176.528E+06     3.09736E+06     933.318E+03         22.5475
              22     1.96712E-03     56.6205E-03         3.67389         2.73230        -6.61458         2.71036        -5.65105         2.73230     200.459E-03     34.0229E-03    -16.9637E-03    -17.0592E-03    -16.9742E-03     33.9761E-03    -17.0018E-03     2.97784E-03     3.18170E+06     1.94735E+06    -179.652E+06     1.92442E+06    -179.629E+06     3.18170E+06     1.46106E+06         22.5085
              23     983.286E-06     56.6182E-03         6.97284    -733.718E-03        -6.44427         6.20899        -5.68042    -733.718E-03     242.831E-03     34.0077E-03    -16.9186E-03    -17.0891E-03    -17.0354E-03     33.9922E-03    -16.9568E-03     1.70787E-03     1.88544E+06     569.480E+03    -181.283E+06     564.282E+03    -181.278E+06     1.88544E+06     827.578E+03         22.4861
              24     133.518E-09     55.5829E-03         9.91694        -4.36657        -5.85261         9.53173        -5.46741        -4.36657         4.81072     33.8652E-03    -16.8149E-03    -17.0503E-03    -17.0275E-03     33.8580E-03    -16.8305E-03     1.20663E-03     2.23245E+06     765.080E+03    -180.781E+06     1.46277E+06    -180.777E+06     1.53040E+06     797.103E+03         22.4778
              25    -179.981E-09     54.5502E-03         9.53957        -4.48850        -5.45334         9.37894        -5.29270        -4.48850         2.92366     33.4866E-03    -16.6869E-03    -16.7997E-03    -16.7797E-03     33.4823E-03    -16.7026E-03     889.507E-06    -359.565E+03    -1.65947E+06    -182.869E+06    -361.516E+03    -182.867E+06    -1.65947E+06     570.386E+03         22.4735
              26     362.179E-09     53.5170E-03         9.34309        -4.54242        -5.28027         9.30847        -5.24565        -4.54242     598.189E-03     33.3872E-03    -16.5922E-03    -16.7950E-03    -16.7910E-03     33.3832E-03    -16.5922E-03     864.139E-06     2.16854E+06     114.485E+03    -180.104E+06     706.302E+03    -180.098E+06     1.57069E+06     1.00756E+06         22.4661
              27    -139.743E-09     52.4842E-03         9.41436        -4.52843        -5.45040         9.27005        -5.30608        -4.52843        -2.38817     33.5342E-03    -16.7000E-03    -16.8341E-03    -16.8281E-03     33.5281E-03    -16.7000E-03     1.10440E-03     3.01822E+06     214.343E+03    -178.668E+06     1.53691E+06    -178.643E+06     1.67055E+06     2.00353E+06         22.4564
              28     173.031E-09     51.4499E-03         9.88582        -4.64388        -5.87823         9.29820        -5.29061        -4.64388        -5.76404     33.2975E-03    -16.6029E-03    -16.6947E-03    -16.6272E-03     33.2934E-03    -16.6662E-03     890.668E-06     96.8179E+03    -2.05508E+06    -180.261E+06    -734.857E+03    -180.234E+06    -1.25086E+06     589.447E+03         22.4463
              29    -287.769E-09     50.4187E-03         10.6413        -4.88898        -6.44917         9.26906        -5.07693        -4.88898        -9.15446     33.0081E-03    -16.4507E-03    -16.5574E-03    -16.4913E-03     33.0053E-03    -16.5141E-03     740.539E-06     1.99790E+06     554.821E+03    -178.075E+06     1.18643E+06    -178.068E+06     1.35904E+06    -967.582E+03         22.4375
              30     362.853E-09     49.3851E-03         11.5902        -5.26826        -7.09189         9.06090        -4.56257        -5.26826        -12.6759     33.0363E-03    -16.4893E-03    -16.5470E-03    -16.5238E-03     33.0275E-03    -16.5037E-03     1.24394E-03     1.77887E+06     625.403E+03    -178.632E+06     1.26353E+06    -178.631E+06     1.14001E+06    -362.034E+03         22.4310
              31    -397.219E-09     48.3514E-03         12.8196        -5.82250        -7.77295         8.92571        -3.87902        -5.82250        -16.0784     32.7229E-03    -16.2828E-03    -16.4401E-03    -16.4155E-03     32.7127E-03    -16.2972E-03     1.38084E-03    -1.96636E+06    -3.19608E+06    -181.576E+06    -2.48388E+06    -181.574E+06    -2.68147E+06     307.423E+03         22.4276
              32     665.022E-09     47.3212E-03         14.2347        -6.16645        -8.88094         8.91876        -3.56499        -6.16645        -19.4320     32.5654E-03    -16.1988E-03    -16.3665E-03    -16.3622E-03     32.5610E-03    -16.1988E-03     907.672E-06    -455.756E+03    -1.46885E+06    -181.352E+06    -458.354E+03    -181.349E+06    -1.46885E+06     437.283E+03         22.4276
              33    -620.462E-09     46.2885E-03         15.8465        -6.36549        -10.3909         9.11191        -3.65628        -6.36549        -22.9131     32.8409E-03    -16.3318E-03    -16.5091E-03    -16.3515E-03     32.8358E-03    -16.4843E-03     977.057E-06     52.6225E+03    -431.052E+03    -182.074E+06     51.9883E+03    -182.073E+06    -431.052E+03     191.755E+03         22.4309
              34     312.316E-09     45.2545E-03         17.4109        -6.85075        -11.4887         9.35400        -3.43185        -6.85075        -25.9053     33.0833E-03    -16.3089E-03    -16.7744E-03    -16.6145E-03     33.0759E-03    -16.4614E-03     1.21494E-03    -469.278E+03    -1.06946E+06    -183.138E+06    -907.177E+03    -183.115E+06    -654.968E+03     1.67662E+06         22.4372
              35     303.610E-09     44.2233E-03         18.7094        -7.48806        -12.1906         9.21044        -2.69167        -7.48806        -28.4948     33.3321E-03    -16.4972E-03    -16.8348E-03    -16.8033E-03     33.3251E-03    -16.5219E-03     1.17982E-03     2.95409E+06     922.122E+03    -179.095E+06     899.096E+03    -179.072E+06     2.95409E+06     1.29855E+06         22.4447
              36    -334.497E-09     43.1892E-03         20.0728        -8.19206        -12.8845         8.99586        -1.80761        -8.19206        -31.1241     33.4987E-03    -16.6905E-03    -16.8083E-03    -16.7786E-03     33.4937E-03    -16.7151E-03     1.00122E-03     4.41548E+06     1.72335E+06    -177.891E+06     2.76098E+06    -177.854E+06     3.34082E+06    -1.97972E+06         22.4515
              37     502.227E-09     42.1563E-03         21.3060        -8.90510        -13.4215         9.00259        -1.11804        -8.90510        -33.2172     33.3301E-03    -16.5965E-03    -16.7336E-03    -16.7277E-03     33.3242E-03    -16.5965E-03     1.06722E-03    -724.557E+03    -3.21013E+06    -181.843E+06    -770.470E+03    -181.797E+06    -3.21013E+06    -934.941E+03         22.4559
              38    -440.981E-09     41.1234E-03         22.0701        -9.41370        -13.7044         9.07166    -705.934E-03        -9.41370        -34.4115     33.2404E-03    -16.5417E-03    -16.6987E-03    -16.5804E-03     33.2352E-03    -16.6548E-03     971.515E-06     43.3385E+03    -3.94944E+06    -179.788E+06    -2.54906E+06    -179.778E+06    -1.36757E+06     549.788E+03         22.4577
              39     252.602E-09     40.0910E-03         22.5985        -9.84096        -13.8252         9.06673    -293.479E-03        -9.84096        -35.1985     33.5634E-03    -16.6617E-03    -16.9017E-03    -16.7827E-03     33.5575E-03    -16.7748E-03     1.02917E-03     3.35616E+06    -919.093E+03    -179.133E+06     762.912E+03    -179.122E+06     1.66277E+06    -1.31040E+06         22.4582
              40    -33.2820E-09     39.0562E-03         22.9740        -10.3193        -13.7180         9.02607     230.028E-03        -10.3193        -35.6210     33.5556E-03    -16.6772E-03    -16.8784E-03    -16.8715E-03     33.5487E-03    -16.6772E-03     1.16052E-03     1.27202E+06    -1.10351E+06    -182.748E+06     579.497E+03    -182.738E+06    -421.373E+03     -762.49E+03         22.4590
              41     186.472E-09     38.0243E-03         23.0631        -10.6753        -13.4259         9.09652     540.633E-03        -10.6753        -35.4716     33.1545E-03    -16.5256E-03    -16.6289E-03    -16.6244E-03     33.1500E-03    -16.5256E-03     951.056E-06    -2.45862E+06    -3.25776E+06    -185.474E+06    -3.15530E+06    -185.459E+06    -2.57563E+06    -938.476E+03         22.4606
              42    -133.829E-09     36.9917E-03         22.8198        -10.8734        -13.0160         9.12509     678.733E-03        -10.8734        -34.8261     33.0937E-03    -16.5297E-03    -16.5641E-03    -16.5586E-03     33.0883E-03    -16.5297E-03     1.04177E-03    -1.79878E+06    -4.37620E+06    -185.999E+06    -1.82300E+06    -185.975E+06    -4.37620E+06    -164.251E+03         22.4629
              43     107.339E-09     35.9580E-03         22.3553        -11.1675        -12.2317         9.08632         1.03732        -11.1675        -33.6373     33.3360E-03    -16.5954E-03    -16.7406E-03    -16.7343E-03     33.3297E-03    -16.5954E-03     1.12105E-03     3.40257E+06    -2.30220E+06    -183.113E+06     141.538E+03    -183.096E+06     942.167E+03     1.73985E+06         22.4656
              44     206.151E-09     34.9261E-03         21.5762        -10.8634        -11.7043         8.98395         1.55884        -11.5342        -31.7529     33.7219E-03    -16.7506E-03    -16.9713E-03    -16.9664E-03     33.7170E-03    -16.7506E-03     982.255E-06     2.88203E+06    -1.11137E+06    -182.673E+06    -392.080E+03    -182.643E+06     2.13299E+06    -690.963E+03         22.4687
              45    -58.8423E-09     33.8917E-03         20.4377        -9.76240        -11.6470         8.78306         1.89226        -11.6470        -29.4032     33.8869E-03    -16.8443E-03    -17.0426E-03    -16.9218E-03     33.8836E-03    -16.9619E-03     817.812E-06     749.973E+03    -22.6358E+03    -183.537E+06     703.015E+03    -183.514E+06         940.344    -1.60509E+06         22.4725
              46    -174.053E-09     32.8584E-03         19.1901        -8.75679        -11.3695         8.85192         1.58141        -11.3695        -26.9714     33.7558E-03    -16.7592E-03    -16.9967E-03    -16.8738E-03     33.7505E-03    -16.8767E-03     1.01966E-03    -2.26828E+06    -2.63071E+06    -185.345E+06    -2.29208E+06    -185.345E+06    -2.60713E+06    -146.062E+03         22.4764
              47     398.961E-09     31.8246E-03         17.7561        -7.76559        -10.8937         9.11851     871.957E-03        -10.8937        -24.1347     33.7215E-03    -16.7832E-03    -16.9383E-03    -16.9250E-03     33.7081E-03    -16.7832E-03     1.60355E-03     764.130E+03     165.516E+03    -183.498E+06     736.801E+03    -183.471E+06     165.516E+03     1.59382E+06         22.4791
              48    -351.302E-09     30.7905E-03         16.0497        -6.38971        -10.4913         9.04191     618.126E-03        -10.4913        -20.7942     33.4819E-03    -16.6647E-03    -16.8172E-03    -16.8062E-03     33.4709E-03    -16.6647E-03     1.36151E-03     4.08119E+06     3.17814E+06    -179.209E+06     3.40746E+06    -179.179E+06     3.82143E+06     1.06783E+06         22.4798
              49     588.783E-09     29.7596E-03         14.3402        -4.88013        -10.2158         8.59866     861.398E-03        -10.2158        -17.5931     33.4844E-03    -16.6099E-03    -16.8745E-03    -16.8730E-03     33.4829E-03    -16.6099E-03     459.217E-06     2.27129E+06     1.35396E+06    -180.474E+06     1.33356E+06    -180.454E+06     2.27129E+06    -1.79172E+06         22.4778
              50    -293.444E-09     28.7264E-03         12.6928        -3.44761        -9.95884         8.17604         1.06910        -9.95884        -14.4812     33.9481E-03    -16.8027E-03    -17.1454E-03    -16.9491E-03     33.9472E-03    -16.9981E-03     368.975E-06     4.09174E+06     3.45823E+06    -181.458E+06     3.77232E+06    -181.412E+06     3.73227E+06    -2.87861E+06         22.4723
              51    -96.1301E-09     27.6907E-03         10.9453        -2.16018        -9.43837         7.92859     856.525E-03        -9.43837        -10.9727     33.9579E-03    -16.8389E-03    -17.1191E-03    -16.9131E-03     33.9473E-03    -17.0343E-03     1.28221E-03     2.99192E+06     2.45993E+06    -181.735E+06     2.96253E+06    -181.706E+06     2.45993E+06    -1.27129E+06         22.4636
              52     241.119E-09     26.6568E-03         9.31799        -1.46309        -8.45608         7.69307     161.842E-03        -8.45608        -7.61005     33.3137E-03    -16.5670E-03    -16.7466E-03    -16.7342E-03     33.3013E-03    -16.5670E-03     1.50482E-03     734.720E+03    -1.37100E+06    -184.044E+06     701.876E+03    -184.011E+06    -1.37100E+06     2.05574E+06         22.4521
              53    -84.7068E-09     25.6262E-03         8.16292        -1.26208        -7.45028         7.44360    -542.764E-03        -7.45028        -4.87147     32.6818E-03    -16.2812E-03    -16.4007E-03    -16.3980E-03     32.6792E-03    -16.2812E-03     526.160E-06     6.59788E+06     154.994E+03    -179.382E+06     2.05663E+06    -179.350E+06     4.66469E+06     1.69110E+06         22.4377
              54     194.584E-09     24.5939E-03         7.29833        -1.09144        -6.70380         7.08695    -880.059E-03        -6.70380        -2.35449     32.6446E-03    -16.2716E-03    -16.3729E-03    -16.3699E-03     32.6415E-03    -16.2716E-03     564.549E-06     8.07359E+06    -82.7511E+03    -176.521E+06     3.54300E+06    -176.500E+06     4.42694E+06    -1.40313E+06         22.4196
              55    -98.3339E-09     23.5605E-03         6.52778        -1.11836        -5.88102         6.50121        -1.09178        -5.88102    -200.626E-03     32.6609E-03    -16.2330E-03    -16.4278E-03    -16.2978E-03     32.6490E-03    -16.3512E-03     1.47324E-03     2.11163E+06    -1.74663E+06    -178.326E+06     1.77791E+06    -178.204E+06    -1.53502E+06     1.61227E+06         22.3972
              56    -147.682E-09     22.5273E-03         6.03328        -1.42155        -5.04399         5.96466        -1.35293        -5.04399         1.28675     32.1578E-03    -15.9312E-03    -16.2266E-03    -16.0971E-03     32.1464E-03    -16.0494E-03     1.42390E-03     1.38387E+06    -145.614E+03    -175.863E+06    -267.278E+03    -175.742E+06     1.38387E+06     1.66104E+06         22.3691
              57     509.408E-09     21.4982E-03         5.79993        -1.84873        -4.33101         5.53769        -1.58650        -4.33101         2.67410     31.4262E-03    -15.5135E-03    -15.9127E-03    -15.9101E-03     31.4235E-03    -15.5135E-03     552.091E-06    -602.910E+03    -2.30175E+06    -176.662E+06    -1.97012E+06    -176.612E+06    -983.879E+03    -2.92510E+06         22.3325
              58    -77.0194E-09     20.4668E-03         5.49649        -2.38279        -3.47911         4.97970        -1.86601        -3.47911         3.87564     30.6045E-03    -15.0730E-03    -15.5315E-03    -15.2923E-03     30.6019E-03    -15.3095E-03     536.169E-06    -1.73942E+06    -3.22882E+06    -177.433E+06    -1.77821E+06    -177.395E+06    -3.22882E+06    -658.378E+03         22.2840
              59    -408.188E-09     19.4364E-03         5.08321        -2.50081        -2.91252         4.43125        -2.09990        -2.66147         4.32673     29.9061E-03    -14.7400E-03    -15.1661E-03    -14.9257E-03     29.9022E-03    -14.9765E-03     820.743E-06    -12.2583E+03    -2.34979E+06    -175.089E+06    -1.25214E+06    -175.079E+06    -1.12068E+06     1.20821E+06         22.2210
              60     794.530E-09     18.4078E-03         4.70000        -2.02809        -2.94386         4.01616        -2.26002        -2.02809         4.36282     29.0810E-03    -14.4005E-03    -14.6805E-03    -14.6784E-03     29.0790E-03    -14.4005E-03     596.573E-06    -37.0422E+03    -2.39184E+06    -173.629E+06    -2.39608E+06    -173.625E+06    -37.0422E+03     811.267E+03         22.1413
              61    -603.663E-09     17.3796E-03         4.23784        -1.31150        -3.19186         3.57563        -2.52966        -1.31150         4.23327     27.8521E-03    -13.8580E-03    -13.9941E-03    -13.9474E-03     27.8511E-03    -13.9038E-03     383.529E-06     4.28064E+06     384.216E+03    -169.013E+06     3.14964E+06    -169.008E+06     1.50991E+06     946.508E+03         22.0432
              62     474.817E-09     16.3530E-03         3.65211    -749.225E-03        -3.16371         3.10724        -2.61884    -749.225E-03         3.69293     26.3519E-03    -13.0944E-03    -13.2575E-03    -13.2115E-03     26.3516E-03    -13.1402E-03     202.112E-06     5.78616E+06     772.391E+03    -166.478E+06      3.5271E+06    -166.462E+06     3.01543E+06     1.49291E+06         21.9267
              63    -213.841E-09     15.3276E-03         3.04038    -544.853E-03        -2.74126         2.59320        -2.29408    -544.853E-03         3.08693     24.1377E-03    -11.9981E-03    -12.1395E-03    -12.1394E-03     24.1375E-03    -11.9981E-03     22.7799E-06     3.27846E+06    -2.55419E+06    -167.124E+06     996.750E+03    -167.086E+06    -311.154E+03     2.52769E+06         21.7940
              64     213.043E-09     14.3057E-03         2.50839    -330.197E-03        -2.42863         2.09666        -2.01690    -330.197E-03         2.72998     21.6149E-03    -10.7777E-03    -10.8372E-03    -10.8013E-03     21.6145E-03    -10.8131E-03    -209.099E-06     4.72365E+06    -1.52696E+06    -161.894E+06     2.01914E+06    -161.850E+06     1.13404E+06     2.66786E+06         21.6508
              65    -249.548E-09     13.2864E-03         2.05034     723.645E-06        -2.31232         1.75278        -2.01477     723.645E-06         2.18029     19.2913E-03    -9.59233E-03    -9.69900E-03    -9.65847E-03     19.2862E-03    -9.62778E-03    -660.518E-06     10.9015E+06     7.09201E+06    -152.277E+06     8.18970E+06    -152.227E+06     9.75301E+06    -388.002E+03         21.5056
              66     365.430E-09     12.2686E-03         1.77675     303.161E-03        -2.34703         1.62613        -2.19642     303.161E-03         1.51588     16.7584E-03    -8.33066E-03    -8.42771E-03    -8.42026E-03     16.7509E-03    -8.33066E-03    -862.806E-06     17.1703E+06     15.5838E+06    -146.672E+06     17.1095E+06    -146.611E+06     15.5838E+06    -66.9446E+03         21.3702
              67    -326.447E-09     11.2542E-03         1.72742     630.751E-03        -2.61655         1.65658        -2.54570     630.751E-03         1.07901     14.4965E-03    -7.20332E-03    -7.29315E-03    -7.22216E-03     14.4895E-03    -7.26731E-03    -772.316E-06     24.5548E+06     24.0568E+06    -141.584E+06     24.4586E+06    -141.548E+06     24.1168E+06     762.536E+03         21.2596
              68     189.950E-09     10.2415E-03         1.55655     854.289E-03        -2.66039         1.52824        -2.63207     854.289E-03     653.905E-03     12.9767E-03    -6.39203E-03    -6.58463E-03    -6.51473E-03     12.9708E-03    -6.45603E-03    -664.020E-06     28.9105E+06     27.8367E+06    -141.071E+06     27.8284E+06    -141.063E+06     28.9105E+06    -1.06723E+06         21.1897
              69     73.4994E-09     9.22911E-03         1.34468     831.239E-03        -2.39635         1.33898        -2.39065     831.239E-03     123.802E-03     11.7404E-03    -5.76896E-03    -5.97144E-03    -5.89571E-03     11.7385E-03    -5.84284E-03    -327.935E-06     23.2664E+06     22.1382E+06    -146.321E+06     22.2437E+06    -146.312E+06     23.1521E+06    -1.09438E+06         21.1755
              70    -225.358E-09     8.21938E-03         1.28752     812.129E-03        -2.30295         1.28586        -2.30129     812.129E-03    -154.098E-03     11.2662E-03    -5.57533E-03    -5.69086E-03    -5.57380E-03     11.2647E-03    -5.69086E-03     134.385E-06     16.6943E+06     16.1063E+06    -149.834E+06     16.6860E+06    -149.826E+06     16.1063E+06    -617.121E+03         21.2289
              71     131.815E-09     7.20781E-03         1.30080     916.653E-03        -2.42778         1.29904        -2.42602     916.653E-03    -162.037E-03     12.4682E-03    -6.16970E-03    -6.29847E-03    -6.25346E-03     12.4648E-03    -6.21135E-03     501.418E-06     12.2412E+06     9.65359E+06    -154.513E+06     10.1264E+06    -154.513E+06     11.7674E+06    -1.31688E+03         21.3578
              72     62.7451E-09     6.19656E-03         1.44107         1.09499        -2.75559         1.43958        -2.75411         1.09499    -156.749E-03     15.4464E-03    -7.61130E-03    -7.83515E-03    -7.69398E-03     15.4420E-03    -7.74802E-03     641.242E-06     7.07020E+06     3.73830E+06    -159.693E+06     4.89090E+06    -159.627E+06     5.85214E+06    -2.51628E+06         21.5666
              73    -354.869E-09     5.17913E-03         1.63852         1.31836        -3.20746         1.63679        -3.20573         1.31836    -182.162E-03     20.1807E-03    -9.96011E-03    -10.2206E-03    -10.0722E-03     20.1690E-03    -10.0968E-03     1.15609E-03    -617.431E+03    -2.47518E+06    -166.610E+06    -1.35857E+06    -166.509E+06    -1.83549E+06    -4.05464E+06         21.8577
              74     586.259E-09     4.15637E-03         1.81548         1.48723        -3.57265         1.81399        -3.57117         1.48723    -172.437E-03     25.8065E-03    -12.7919E-03    -13.0146E-03    -12.8978E-03     25.7887E-03    -12.8909E-03     1.65477E-03    -10.5025E+06    -12.0295E+06    -175.639E+06    -11.2394E+06    -175.542E+06    -11.3898E+06    -3.96484E+06         22.2376
              75    -812.810E-09     3.12865E-03         1.90033         1.58431        -3.78657         1.89491        -3.78116         1.58431    -306.244E-03     32.0966E-03    -15.8492E-03    -16.2474E-03    -16.1376E-03     32.0858E-03    -15.9482E-03     1.34704E-03    -17.3583E+06    -19.3877E+06    -182.927E+06    -17.4235E+06    -182.862E+06    -19.3877E+06    -2.84965E+06         22.7309
              76     1.36518E-06     2.09413E-03         1.94381         1.54141        -3.81104         1.93760        -3.80483         1.54141    -357.042E-03     39.5000E-03    -19.5825E-03    -19.9175E-03    -19.8785E-03     39.4968E-03    -19.6184E-03     827.934E-06    -20.2193E+06    -22.7127E+06    -186.573E+06    -21.5799E+06    -186.563E+06    -21.3615E+06     9.74175E+03         23.3925
              77    -1.45012E-06     1.05123E-03         1.96620         1.49000        -3.79087         1.96471        -3.78938         1.49000    -175.834E-03     46.1515E-03    -23.0415E-03    -23.1100E-03    -23.0391E-03     46.1491E-03    -23.1100E-03    -139.646E-06    -27.4337E+06    -28.9382E+06    -192.522E+06    -28.8165E+06    -192.490E+06    -27.5870E+06     2.10599E+06         24.3080
              78     975.011E-06    -62.4500E-18         1.87246         1.63818        -3.86687         1.87205        -3.86647         1.63818    -93.4022E-03     47.8158E-03    -23.6116E-03    -24.2042E-03    -23.6087E-03     47.8129E-03    -24.2042E-03    -30.6290E-06    -25.9552E+06    -30.3717E+06    -192.662E+06    -30.2794E+06    -192.601E+06    -26.1085E+06    -178.552E+03         24.8278
              79     1.95294E-03    -62.4500E-18         1.78714         1.75593        -3.92545         1.78203        -3.92501         1.76060     27.2696E-03     45.7218E-03    -22.1523E-03    -23.5695E-03    -22.1462E-03     45.7157E-03    -23.5695E-03     1.23258E-03    -20.4931E+06    -24.8155E+06    -187.700E+06    -24.8616E+06    -187.654E+06    -20.4931E+06    -2.64705E+06         24.7883
              80     2.93117E-03    -62.4500E-18         1.73771         1.57041        -3.73634         1.56874        -3.73468         1.73771     176.322E-03     43.5270E-03    -20.6994E-03    -22.8276E-03    -20.6880E-03     43.5156E-03    -22.8276E-03     1.69890E-03    -21.0885E+06    -25.3040E+06    -188.110E+06    -21.1671E+06    -188.091E+06    -25.2448E+06    -1.78768E+06         24.7271
              81     3.91190E-03    -62.4500E-18         1.65364         1.21078        -3.33601         1.20854        -3.33377         1.65364     201.514E-03     41.1644E-03    -19.1080E-03    -22.0564E-03    -19.0914E-03     41.1478E-03    -22.0564E-03     1.98541E-03    -19.5302E+06    -30.5983E+06    -189.705E+06    -19.5491E+06    -189.686E+06    -30.5983E+06    -1.78662E+06         24.6487
              82     4.89384E-03    -62.4500E-18         1.54105     977.265E-03        -3.02915     975.639E-03        -3.02753         1.54105     161.249E-03     38.6947E-03    -17.4643E-03    -21.2304E-03    -17.4437E-03     38.6741E-03    -21.2304E-03     2.15138E-03    -17.0185E+06    -40.1258E+06    -192.544E+06    -17.1636E+06    -192.399E+06    -40.1258E+06    -4.45013E+06         24.5597
              83     5.87762E-03    -62.4500E-18         1.43670     870.660E-03        -2.84960     868.780E-03        -2.84772         1.43670     165.660E-03     36.1781E-03    -15.8462E-03    -20.3319E-03    -15.8188E-03     36.1507E-03    -20.3319E-03     2.36654E-03    -12.2236E+06    -57.3982E+06    -191.112E+06    -12.4977E+06    -190.838E+06    -57.3982E+06    -6.99635E+06         24.4697
              84     6.86321E-03    -62.4500E-18         1.34690     760.537E-03        -2.67111     759.050E-03        -2.66962         1.34690     137.365E-03     33.7497E-03    -14.3189E-03    -19.4308E-03    -14.2810E-03     33.7117E-03    -19.4308E-03     2.69129E-03    -7.89388E+06    -71.2458E+06    -178.529E+06    -8.18667E+06    -178.236E+06    -71.2458E+06    -7.05589E+06         24.3919
              85     7.84951E-03    -62.4500E-18         1.26046     560.633E-03        -2.40031     557.522E-03        -2.39720         1.26046     167.378E-03     31.4124E-03    -12.8941E-03    -18.5183E-03    -12.8561E-03     31.3744E-03    -18.5183E-03     2.59219E-03    -2.83455E+06    -85.2307E+06    -151.260E+06    -3.26416E+06    -150.831E+06    -85.2307E+06    -7.81839E+06         24.3444
              86     8.83931E-03    -62.4500E-18         1.16787     305.772E-03        -2.07104     302.824E-03        -2.06809         1.16787     147.335E-03     29.3317E-03    -11.7149E-03    -17.6168E-03    -11.6578E-03     29.2746E-03    -17.6168E-03     2.97805E-03     1.83393E+06    -98.3621E+06    -119.686E+06     1.16307E+06    -116.509E+06    -100.868E+06    -8.81035E+06         24.3591
              87     9.82587E-03    -62.4500E-18         1.07573     207.481E-03        -1.91001     206.486E-03        -1.90902         1.07573    -33.8282E-03     27.7039E-03    -10.8894E-03    -16.8144E-03    -10.8285E-03     27.6430E-03    -16.8144E-03     3.02768E-03     5.11856E+06    -79.8749E+06    -107.210E+06     4.34048E+06    -79.0968E+06    -107.210E+06    -8.04594E+06         24.5016
              88     10.8201E-03    -62.4500E-18     997.575E-03     247.118E-03        -1.91767     245.701E-03        -1.91626     997.575E-03    -110.192E-03     26.3913E-03    -10.3132E-03    -16.0782E-03    -10.1805E-03     26.2587E-03    -16.0782E-03     4.06771E-03     7.61627E+06    -33.6595E+06    -111.589E+06     6.95725E+06    -33.0004E+06    -111.589E+06    -5.03002E+06         24.8975
              89     11.8025E-03    -62.4500E-18     933.139E-03     218.467E-03        -1.87898     217.482E-03        -1.87800     933.139E-03    -10.3350E-03     24.5184E-03    -9.11354E-03    -15.4048E-03    -8.99819E-03     24.4030E-03    -15.4048E-03     3.27872E-03     33.4011E+06    -1.94446E+06    -109.615E+06     6.50935E+06     24.9472E+06    -109.615E+06    -4.19567E+06         25.7537
              90     12.8069E-03    -62.4500E-18     874.366E-03     132.755E-03        -1.78453     132.162E-03        -1.78393     874.366E-03     66.5330E-03     23.7738E-03    -8.86422E-03    -14.9096E-03    -8.62038E-03     23.5299E-03    -14.9096E-03     4.46001E-03     78.9315E+06     2.42494E+06    -85.1693E+06     2.80292E+06     78.5535E+06    -85.1693E+06    -420.033E+03         27.3364
              91     13.7816E-03    -62.4500E-18     820.984E-03     135.935E-03        -1.77756     135.555E-03        -1.77718     820.984E-03     53.9041E-03     23.3847E-03    -8.77619E-03    -14.6085E-03    -8.48973E-03     23.0982E-03    -14.6085E-03     5.67637E-03     114.524E+06     2.11077E+06    -43.5480E+06     2.50339E+06     114.131E+06    -43.5480E+06    -1.96532E+06         29.8606
              92     14.7897E-03    -62.4500E-18     779.977E-03     289.335E-03        -1.93200     288.959E-03        -1.93162     779.977E-03     57.6976E-03     28.4246E-03    -11.3935E-03    -17.0311E-03    -12.9176E-03     27.5568E-03    -14.6392E-03     10.9420E-03     140.060E+06     25.7902E+06    -21.0148E+06    -6.09934E+06     137.780E+06     13.1554E+06     8.66883E+06         33.2660
              93     15.7567E-03    -62.4500E-18     756.327E-03     523.788E-03        -2.19450     523.293E-03        -2.19400     756.327E-03     73.1422E-03     32.7144E-03    -14.8347E-03    -17.8797E-03    -14.8917E-03     29.7264E-03    -14.8347E-03     22.9072E-03     145.293E+06     42.7297E+06    -27.5912E+06    -24.8331E+06     142.535E+06     42.7297E+06     21.0462E+06         37.0535
              94     16.7189E-03    -62.4500E-18     747.585E-03     695.314E-03        -2.42860     694.981E-03        -2.42827     747.585E-03     55.2203E-03     99.9510E-03    -16.2738E-03    -83.6772E-03    -68.5902E-03     84.8640E-03    -16.2738E-03     100.824E-03     176.689E+06     56.7064E+06     158.058E+03     1.54491E+06     175.302E+06     56.7064E+06     711.329E+03         40.3062
              95     17.6507E-03     1.29754E-03     752.369E-03     666.308E-03        -2.41947     666.225E-03        -2.41939     752.369E-03    -6.42007E-03     190.691E-03    -17.3412E-03    -173.349E-03    -129.918E-03     147.259E-03    -17.3412E-03     232.714E-03     194.439E+06     97.6921E+06     964.346E+03     1.71553E+06     193.688E+06     97.6921E+06    -11.0964E+06         42.0477
              96     17.6715E-03     2.49539E-03     771.630E-03     569.000E-03        -2.27065     567.938E-03        -2.26958     771.630E-03    -93.1432E-03     230.457E-03    -16.8725E-03    -213.585E-03    -125.054E-03     141.926E-03    -16.8725E-03     351.038E-03     192.485E+06     121.115E+06    -16.6094E+06    -15.7764E+06     191.652E+06     121.115E+06     4.88898E+06         43.5829
              97     17.6894E-03     3.65891E-03     801.992E-03     556.353E-03        -2.19227     555.160E-03        -2.19107     801.992E-03    -106.790E-03     260.265E-03    -16.4371E-03    -243.828E-03    -115.337E-03     131.774E-03    -16.4371E-03     439.130E-03      206.26E+06     115.241E+06    -2.96351E+06    -2.24832E+06     205.545E+06     115.241E+06     7.45408E+06         46.1827
              98     17.6983E-03     4.78603E-03     837.101E-03     555.710E-03        -2.13361     555.435E-03        -2.13333     837.101E-03    -11.2265E-03     278.203E-03    -16.1030E-03    -262.100E-03    -112.268E-03     128.371E-03    -16.1030E-03     483.598E-03     209.152E+06     128.117E+06    -1.71541E+06    -1.56633E+06     209.003E+06     128.117E+06     2.71511E+06         49.0644
              99     17.7089E-03     5.88386E-03     869.054E-03     528.974E-03        -2.07271     528.817E-03        -2.07255     869.054E-03     40.4704E-03     286.585E-03    -15.8979E-03    -270.687E-03    -108.824E-03     124.722E-03    -15.8979E-03     505.959E-03     212.393E+06     142.920E+06    -500.575E+03    -332.296E+03     212.224E+06     142.920E+06     2.00850E+06         51.7585
             100     17.7117E-03     6.97579E-03     890.878E-03     504.430E-03        -2.01171     504.103E-03        -2.01138     890.878E-03     54.8620E-03     287.750E-03    -15.7670E-03    -271.983E-03    -105.119E-03     120.886E-03    -15.7670E-03     512.046E-03     208.576E+06     146.688E+06    -4.50125E+06    -4.43058E+06     208.505E+06     146.688E+06     244.154E+03         54.0672
             101     17.7157E-03     8.05474E-03     897.199E-03     490.469E-03        -1.94711     489.733E-03        -1.94637     897.199E-03     83.5389E-03     285.418E-03    -15.8099E-03    -269.608E-03    -98.6344E-03     114.444E-03    -15.8099E-03     512.455E-03     208.263E+06     152.996E+06    -5.27344E+06    -5.23367E+06     208.223E+06     152.996E+06     2.14135E+06         55.9811
             102     17.7163E-03     9.11605E-03     884.052E-03     462.121E-03        -1.87973     460.974E-03        -1.87858     884.052E-03     103.193E-03     282.188E-03    -15.7567E-03    -266.431E-03    -96.7152E-03     112.472E-03    -15.7567E-03     507.149E-03     208.109E+06     153.795E+06    -5.33019E+06    -5.32335E+06     208.102E+06     153.795E+06    -767.051E+03         57.5959
             103     17.7168E-03     10.1956E-03     852.311E-03     427.402E-03        -1.82393     425.636E-03        -1.82216     852.311E-03     124.924E-03     280.426E-03    -15.7110E-03    -264.715E-03    -97.1274E-03     112.838E-03    -15.7110E-03     503.077E-03     208.337E+06     151.468E+06    -4.80106E+06    -4.79378E+06     208.329E+06     151.468E+06    -616.662E+03         58.9838
             104     17.7158E-03     11.2783E-03     808.600E-03     417.162E-03        -1.80147     415.849E-03        -1.80016     808.600E-03     100.432E-03     279.031E-03    -15.8540E-03    -263.177E-03    -91.5070E-03     107.361E-03    -15.8540E-03     504.354E-03     208.250E+06     142.572E+06    -4.57391E+06    -4.57311E+06     208.249E+06     142.572E+06     59.9890E+03         60.2065
             105     17.7153E-03     12.3231E-03     757.367E-03     447.070E-03        -1.81268     446.842E-03        -1.81245     757.367E-03     21.8968E-03     273.339E-03    -15.9862E-03    -257.352E-03    -84.8946E-03     100.881E-03    -15.9862E-03     497.110E-03     207.270E+06     134.982E+06    -4.74306E+06    -4.74270E+06     207.270E+06     134.982E+06    -263.518E+03         61.3313
             106     17.7156E-03     13.3862E-03     699.040E-03     485.705E-03        -1.81230     485.665E-03        -1.81226     699.040E-03     1.61890E-03     266.661E-03    -16.0506E-03    -250.611E-03    -79.9135E-03     95.9641E-03    -16.0506E-03     486.437E-03     206.923E+06     130.993E+06    -4.49032E+06    -4.48607E+06     206.918E+06     130.993E+06    -755.074E+03         62.3748
             107     17.7158E-03     14.4417E-03     636.410E-03     476.425E-03        -1.73799     476.175E-03        -1.73774     636.410E-03     41.4071E-03     266.406E-03    -16.1597E-03    -250.246E-03    -76.3513E-03     92.5110E-03    -16.1597E-03     488.268E-03     206.807E+06     131.306E+06    -4.73007E+06    -4.72583E+06     206.803E+06     131.306E+06    -588.516E+03         63.3299
             108     17.7154E-03     15.5080E-03     573.655E-03     417.454E-03        -1.58885     416.960E-03        -1.58836     573.655E-03     62.8395E-03     274.919E-03    -16.2665E-03    -258.653E-03    -77.0408E-03     93.3073E-03    -16.2665E-03     505.648E-03     206.883E+06     134.240E+06    -5.05698E+06    -5.05674E+06     206.882E+06     134.240E+06     218.259E+03         64.1915
             109     17.7150E-03     16.5851E-03     513.534E-03     351.342E-03        -1.41545     350.457E-03        -1.41457     513.534E-03     76.8737E-03     283.349E-03    -16.4903E-03    -266.859E-03    -74.1412E-03     90.6314E-03    -16.4903E-03     524.858E-03     207.806E+06     138.640E+06    -4.83232E+06    -4.83000E+06     207.803E+06     138.640E+06     618.013E+03         64.9424
             110     17.7147E-03     17.6180E-03     457.685E-03     301.603E-03        -1.25679     300.597E-03        -1.25579     457.685E-03     78.8883E-03     282.959E-03    -16.7335E-03    -266.225E-03    -65.7315E-03     82.4651E-03    -16.7335E-03     528.765E-03     210.523E+06     138.645E+06    -2.49571E+06    -2.48336E+06     210.511E+06     138.645E+06     1.51940E+06         65.5874
             111     17.7155E-03     18.6451E-03     404.831E-03     279.073E-03        -1.14087     278.680E-03        -1.14047     404.831E-03     37.3376E-03     277.586E-03    -16.7940E-03    -260.792E-03    -60.3128E-03     77.1068E-03    -16.7940E-03     520.543E-03     209.873E+06     134.204E+06    -3.32299E+06    -3.30518E+06     209.855E+06     134.204E+06     143.648E+03         66.1301
             112     17.7159E-03     19.6843E-03     351.946E-03     279.434E-03        -1.04663     279.426E-03        -1.04663     351.946E-03     6.40580E-03     279.147E-03    -16.7617E-03    -262.385E-03    -61.1172E-03     77.8789E-03    -16.7617E-03     523.386E-03     209.115E+06     131.354E+06    -4.03592E+06    -4.02601E+06     209.105E+06     131.354E+06    -402.760E+03         66.5626
             113     17.7156E-03     20.7368E-03     302.403E-03     273.783E-03    -949.697E-03     281.281E-03    -949.504E-03     294.712E-03    -18.3189E-03     283.565E-03    -16.7720E-03    -266.793E-03    -62.2889E-03     79.0609E-03    -16.7720E-03     531.893E-03     208.302E+06     129.603E+06    -4.59994E+06    -4.57082E+06     208.273E+06     129.603E+06    -1.19192E+06         66.9092
             114     17.7158E-03     21.7641E-03     268.376E-03     227.190E-03    -862.571E-03     267.903E-03    -862.099E-03     227.190E-03    -45.8736E-03     282.812E-03    -16.8149E-03    -265.997E-03    -59.7190E-03     76.5339E-03    -16.8149E-03     531.618E-03     209.615E+06     128.528E+06    -2.77778E+06    -2.70470E+06     209.542E+06     128.528E+06     525.056E+03         67.2067
             115     17.7170E-03     22.7954E-03     254.553E-03     148.516E-03    -798.338E-03     254.206E-03    -797.992E-03     148.516E-03    -36.1849E-03     283.852E-03    -16.7977E-03    -267.054E-03    -60.2307E-03     77.0284E-03    -16.7977E-03     533.522E-03     209.183E+06     128.565E+06    -3.30033E+06    -3.24361E+06     209.126E+06     128.565E+06     1.15929E+06         67.4685
             116     17.7157E-03     23.8463E-03     267.444E-03     63.0132E-03    -797.449E-03     265.744E-03    -795.748E-03     63.0132E-03    -71.5043E-03     291.009E-03    -16.8043E-03    -274.204E-03    -63.1144E-03     79.9187E-03    -16.8043E-03     546.814E-03     207.882E+06     129.627E+06    -5.50773E+06    -5.47809E+06     207.852E+06     129.627E+06     377.935E+03         67.6823
             117     17.7172E-03     24.8904E-03     333.458E-03    -25.7790E-03    -892.463E-03     328.804E-03    -887.808E-03    -25.7790E-03    -150.023E-03     297.193E-03    -16.9127E-03    -280.280E-03    -60.6135E-03     77.5262E-03    -16.9127E-03     560.664E-03     209.677E+06     125.955E+06    -3.45974E+06    -3.43782E+06     209.655E+06     125.955E+06     895.313E+03         67.8469
             118     17.7164E-03     25.9086E-03     449.526E-03    -114.226E-03        -1.05937     443.227E-03        -1.05308    -114.226E-03    -194.464E-03     297.525E-03    -17.0281E-03    -280.497E-03    -57.8563E-03     74.8844E-03    -17.0281E-03     562.573E-03     210.809E+06     130.306E+06    -3.34676E+06    -3.34404E+06     210.806E+06     130.306E+06    -561.168E+03         67.9734
             119     17.7156E-03     26.9351E-03     560.247E-03    -197.833E-03        -1.23283     554.295E-03        -1.22687    -197.833E-03    -205.505E-03     296.230E-03    -16.9986E-03    -279.231E-03    -60.6479E-03     77.6465E-03    -16.9986E-03     558.573E-03     212.024E+06     137.678E+06    -3.78949E+06    -3.78921E+06     212.024E+06     137.678E+06    -197.191E+03         68.0608
             120     17.7159E-03     27.9718E-03     631.365E-03    -271.324E-03        -1.35016     628.040E-03        -1.34684    -271.324E-03    -152.742E-03     292.566E-03    -16.9231E-03    -275.643E-03    -60.7088E-03     77.6319E-03    -16.9231E-03     551.101E-03     210.520E+06     129.940E+06    -4.76136E+06    -4.75923E+06     210.518E+06     129.940E+06    -618.685E+03         68.1155
             121     17.7160E-03     28.9875E-03     671.910E-03    -329.229E-03        -1.42455     670.818E-03        -1.42345    -329.229E-03    -95.0762E-03     287.618E-03    -16.9070E-03    -270.711E-03    -58.6561E-03     75.5631E-03    -16.9070E-03     541.954E-03     212.134E+06     127.454E+06    -2.48874E+06    -2.48128E+06     212.126E+06     127.454E+06     330.144E+03         68.1719
             122     17.7158E-03     30.0218E-03     705.739E-03    -368.663E-03        -1.49483     704.911E-03        -1.49400    -368.663E-03    -85.3193E-03     286.284E-03    -16.8373E-03    -269.446E-03    -61.2361E-03     78.0734E-03    -16.8373E-03     537.967E-03     212.172E+06     130.427E+06    -2.45972E+06    -2.45410E+06     212.167E+06     130.427E+06     800.451E+03         68.2543
             123     17.7159E-03     31.0651E-03     746.515E-03    -389.056E-03        -1.56643     746.096E-03        -1.56601    -389.056E-03    -53.6022E-03     287.419E-03    -16.8251E-03    -270.594E-03    -62.4128E-03     79.2378E-03    -16.8251E-03     539.728E-03     209.529E+06     131.480E+06    -5.27267E+06    -5.27237E+06     209.528E+06     131.480E+06    -150.048E+03         68.3576
             124     17.7161E-03     32.0984E-03     782.902E-03    -390.605E-03        -1.64331     782.838E-03        -1.64324    -390.605E-03    -24.9354E-03     288.229E-03    -16.8911E-03    -271.338E-03    -60.4423E-03     77.3333E-03    -16.8911E-03     542.337E-03     211.167E+06     133.614E+06    -3.05964E+06    -3.05847E+06     211.165E+06     133.614E+06     133.617E+03         68.4860
             125     17.7162E-03     33.1286E-03     821.348E-03    -374.820E-03        -1.73205     821.018E-03        -1.73172    -374.820E-03    -52.5528E-03     287.246E-03    -16.8979E-03    -270.348E-03    -60.4576E-03     77.3555E-03    -16.8979E-03     540.289E-03     209.200E+06     133.041E+06    -3.84304E+06    -3.82149E+06     209.178E+06     133.041E+06    -1.17358E+06         68.6365
             126     17.7148E-03     34.1617E-03     864.444E-03    -345.559E-03        -1.81418     863.863E-03        -1.81359    -345.559E-03    -78.9060E-03     286.277E-03    -16.8765E-03    -269.400E-03    -61.2942E-03     78.1707E-03    -16.8765E-03     537.891E-03     207.434E+06     130.994E+06    -4.64498E+06    -4.61763E+06     207.407E+06     130.994E+06    -641.930E+03         68.7915
             127     17.7161E-03     35.2006E-03     887.560E-03    -308.131E-03        -1.86379     887.183E-03        -1.86341    -308.131E-03    -61.9691E-03     284.292E-03    -16.9049E-03    -267.388E-03    -58.4749E-03     75.3797E-03    -16.9049E-03     535.174E-03     208.799E+06     128.150E+06    -2.57432E+06    -2.55293E+06     208.778E+06     128.150E+06    -406.346E+03         68.9541
             128     17.7158E-03     36.2191E-03     877.198E-03    -266.880E-03        -1.90151     876.993E-03        -1.90130    -266.880E-03    -47.5880E-03     281.848E-03    -16.9051E-03    -264.943E-03    -57.3365E-03     74.2415E-03    -16.9051E-03     530.711E-03     209.214E+06     128.325E+06    -2.70707E+06    -2.68926E+06     209.196E+06     128.325E+06    -672.587E+03         69.1402
             129     17.7158E-03     37.2584E-03     854.072E-03    -221.283E-03        -1.95105     853.956E-03        -1.95094    -221.283E-03    -27.3083E-03     281.674E-03    -16.8200E-03    -264.854E-03    -59.7563E-03     76.5762E-03    -16.8200E-03     529.248E-03     208.564E+06     126.197E+06    -3.68962E+06    -3.68499E+06     208.559E+06     126.197E+06     976.736E+03         69.3453
             130     17.7167E-03     38.2992E-03     864.286E-03    -167.716E-03        -2.05146     863.896E-03        -2.05107    -167.716E-03    -50.4306E-03     286.718E-03    -16.7781E-03    -269.940E-03    -61.4488E-03     78.2269E-03    -16.7781E-03     538.850E-03     207.045E+06     121.541E+06    -5.15604E+06    -5.15447E+06     207.044E+06     121.541E+06     340.160E+03         69.5575
             131     17.7170E-03     39.3456E-03     918.391E-03    -106.303E-03        -2.23926     916.646E-03        -2.23751    -106.303E-03    -143.036E-03     293.707E-03    -16.8435E-03    -276.864E-03    -61.6487E-03     78.4922E-03    -16.8435E-03     553.087E-03     209.527E+06     124.588E+06    -3.63369E+06    -3.62988E+06     209.523E+06     124.588E+06      572.25E+03         69.7658
             132     17.7168E-03     40.3793E-03     985.388E-03    -35.2058E-03        -2.44601     983.695E-03        -2.44431    -35.2058E-03    -143.637E-03     299.257E-03    -16.9414E-03    -282.316E-03    -61.7273E-03     78.6687E-03    -16.9414E-03     564.372E-03     210.202E+06     128.319E+06    -4.32665E+06    -4.32244E+06     210.198E+06     128.319E+06     420.926E+03         69.9472
             133     17.7158E-03     41.4127E-03         1.01214     52.1369E-03        -2.58358         1.01173        -2.58318     52.1369E-03    -71.4199E-03     301.904E-03    -16.9850E-03    -284.919E-03    -61.9093E-03     78.8943E-03    -16.9850E-03     569.679E-03     211.262E+06     128.904E+06    -3.78239E+06    -3.77543E+06     211.255E+06     128.904E+06     623.611E+03         70.0852
             134     17.7169E-03     42.4404E-03     984.070E-03     157.622E-03        -2.66121     984.001E-03        -2.66114     157.622E-03    -23.8748E-03     298.288E-03    -17.0136E-03    -281.275E-03    -59.2398E-03     76.2534E-03    -17.0136E-03     563.496E-03     212.635E+06     128.407E+06    -2.53984E+06    -2.52605E+06     212.621E+06     128.407E+06    -46.9571E+03         70.1824
             135     17.7158E-03     43.4504E-03     934.788E-03     282.917E-03        -2.72218     934.677E-03        -2.72207     282.917E-03     27.0140E-03     291.526E-03    -16.9563E-03    -274.570E-03    -58.8626E-03     75.8189E-03    -16.9563E-03     549.816E-03     211.881E+06     129.467E+06    -3.80080E+06    -3.79090E+06     211.871E+06     129.467E+06    -350.910E+03         70.2598
             136     17.7168E-03     44.4853E-03     895.016E-03     433.349E-03        -2.77419     894.818E-03        -2.77399     433.349E-03     53.8949E-03     291.388E-03    -16.8074E-03    -274.580E-03    -64.4189E-03     81.2263E-03    -16.8074E-03     546.874E-03     211.751E+06     130.418E+06    -4.19745E+06    -4.19260E+06     211.746E+06     130.418E+06     44.0492E+03         70.3263
             137     17.7153E-03     45.5460E-03     873.735E-03     605.383E-03        -2.82754     873.613E-03        -2.82742     605.383E-03     41.2799E-03     294.245E-03    -16.8586E-03    -277.387E-03    -64.0039E-03     80.8626E-03    -16.8586E-03     552.909E-03     211.390E+06     127.878E+06    -4.30964E+06    -4.30743E+06     211.388E+06     127.878E+06    -498.352E+03         70.3920
             138     17.7162E-03     46.5543E-03     873.766E-03     760.239E-03        -2.88488     845.139E-03        -2.88466     788.639E-03     53.9377E-03     287.333E-03    -17.0084E-03    -270.325E-03    -55.4717E-03     72.4801E-03    -17.0084E-03     542.749E-03     215.435E+06     127.184E+06     709.607E+03     733.766E+03     215.411E+06     127.184E+06     1.59977E+06         70.4986
             139     17.7167E-03     47.5609E-03     979.955E-03     797.460E-03        -2.92099     797.108E-03        -2.92064     979.955E-03     72.3167E-03     280.517E-03    -16.8838E-03    -263.633E-03    -57.2683E-03     74.1521E-03    -16.8838E-03     527.890E-03     213.436E+06     128.704E+06    -1.81903E+06    -1.77510E+06     213.392E+06     128.704E+06     146.366E+03         70.6525
             140     17.7154E-03     48.6237E-03         1.17693     728.250E-03        -2.90224     727.945E-03        -2.90194         1.17693     66.5400E-03     284.762E-03    -16.6993E-03    -268.062E-03    -65.2441E-03     81.9434E-03    -16.6993E-03     532.868E-03     207.095E+06     123.947E+06    -8.61249E+06    -8.58791E+06     207.071E+06     123.947E+06    -2.18101E+06         70.8143
             141     17.7168E-03     49.6739E-03         1.36929     647.363E-03        -2.84040     646.258E-03        -2.83929         1.36929     113.198E-03     290.926E-03    -16.7803E-03    -274.146E-03    -63.3804E-03     80.1606E-03    -16.7803E-03     546.473E-03     211.184E+06     121.065E+06    -3.55930E+06    -3.53962E+06     211.165E+06     121.065E+06     543.508E+03         71.0001
             142     17.7165E-03     50.6925E-03         1.54786     555.225E-03        -2.79706     553.985E-03        -2.79583         1.54786     123.897E-03     290.292E-03    -16.8598E-03    -273.432E-03    -59.6971E-03     76.5568E-03    -16.8598E-03     547.008E-03     211.945E+06     118.264E+06    -2.07809E+06    -2.04966E+06     211.917E+06     118.264E+06     58.9464E+03         71.2354
             143     17.7163E-03     51.7264E-03         1.70966     486.155E-03        -2.79225     485.847E-03        -2.79194         1.70966     56.3032E-03     290.592E-03    -16.8300E-03    -273.762E-03    -61.5336E-03     78.3636E-03    -16.8300E-03     546.734E-03     209.979E+06     119.616E+06    -4.51908E+06    -4.50239E+06     209.962E+06     119.616E+06    -623.048E+03         71.4729
             144     17.7169E-03     52.7727E-03         1.85082     476.036E-03        -2.80958     475.778E-03        -2.80932         1.85082     52.3586E-03     295.878E-03    -16.8657E-03    -279.012E-03    -62.9380E-03     79.8038E-03    -16.8657E-03     556.882E-03     212.878E+06     124.509E+06    -2.60253E+06    -2.59923E+06     212.875E+06     124.509E+06     447.994E+03         71.6775
             145     17.7161E-03     53.8081E-03         1.96415     454.027E-03        -2.83066     453.761E-03        -2.83040         1.96415     54.2996E-03     298.799E-03    -16.9456E-03    -281.854E-03    -60.9402E-03     77.8858E-03    -16.9456E-03     563.803E-03     212.929E+06     120.991E+06    -2.26301E+06    -2.26136E+06     212.928E+06     120.991E+06     266.995E+03         71.8576
             146     17.7166E-03     54.8265E-03         2.04790     407.975E-03        -2.83055     407.912E-03        -2.83049         2.04790     28.5681E-03     296.574E-03    -16.9671E-03    -279.606E-03    -59.3366E-03     76.3037E-03    -16.9671E-03     559.986E-03     211.120E+06     119.062E+06    -4.28984E+06    -4.28542E+06     211.116E+06     119.062E+06    -162.965E+03         72.0145
             147     17.7162E-03     55.8562E-03         2.10672     368.277E-03        -2.77142     368.109E-03        -2.77125         2.10672     42.6464E-03     297.269E-03    -16.9204E-03    -280.349E-03    -62.9828E-03     79.9032E-03    -16.9204E-03     559.635E-03     211.525E+06     125.039E+06    -5.60672E+06    -5.59975E+06     211.518E+06     125.039E+06    -1.22649E+06         72.1398
             148     17.7154E-03     56.9054E-03         2.14153     297.700E-03        -2.62373     296.222E-03        -2.62225         2.14153     115.405E-03     297.473E-03    -16.9216E-03    -280.551E-03    -62.1633E-03     79.0849E-03    -16.9216E-03     560.447E-03     212.080E+06     119.215E+06    -3.36183E+06    -3.35736E+06     212.076E+06     119.215E+06    -453.732E+03         72.2413
             149     17.7164E-03     58.9332E-03         2.13769     93.0578E-03        -2.24940     89.8320E-03        -2.24617         2.13769     168.552E-03     291.813E-03    -16.8472E-03    -274.966E-03    -62.1998E-03     79.0470E-03    -16.8472E-03     548.720E-03     213.696E+06     122.381E+06    -2.68835E+06    -2.68455E+06     213.692E+06     122.381E+06     677.170E+03         72.4796
             150     17.7157E-03     60.0024E-03         2.10645     44.3407E-03        -2.04735     42.6413E-03        -2.04565         2.10645     118.872E-03     297.585E-03    -16.7651E-03    -280.820E-03    -68.4749E-03     85.2400E-03    -16.7651E-03     557.590E-03     212.540E+06     124.400E+06    -5.27876E+06    -5.27707E+06     212.539E+06     124.400E+06     466.364E+03         72.6007
             151     17.7166E-03     61.0321E-03         2.05155     14.3842E-03        -1.81681     10.0923E-03        -1.81252         2.05155     166.713E-03     296.659E-03    -16.9027E-03    -279.756E-03    -61.4944E-03     78.3971E-03    -16.9027E-03     559.097E-03     213.761E+06     116.996E+06    -2.87192E+06    -2.86972E+06     213.759E+06     116.996E+06     185.963E+03         72.7401
             152     17.7165E-03     62.0340E-03         1.96729    -86.6150E-03        -1.52280    -95.2648E-03        -1.51415         1.96729     217.931E-03     287.625E-03    -16.9289E-03    -270.696E-03    -57.2511E-03     74.1800E-03    -16.9289E-03     542.603E-03     216.506E+06     120.763E+06    -985.939E+03    -979.425E+03     216.499E+06     120.763E+06     569.194E+03         72.9212
             153     17.7165E-03     63.0698E-03         1.85705    -217.857E-03        -1.16340    -232.821E-03        -1.14843         1.85705     226.291E-03     286.599E-03    -16.7779E-03    -269.821E-03    -63.8993E-03     80.6772E-03    -16.7779E-03     537.244E-03     214.733E+06     125.445E+06    -4.90419E+06    -4.89126E+06     214.720E+06     125.445E+06    -66.1609E+03         73.1061
             154     17.7152E-03     64.1347E-03         1.72609    -294.182E-03    -793.943E-03    -347.327E-03    -740.798E-03         1.72609     252.097E-03     292.298E-03    -16.7737E-03    -275.524E-03    -65.0021E-03     81.7758E-03    -16.7737E-03     548.446E-03     211.767E+06     115.691E+06    -5.87513E+06    -5.85894E+06     211.751E+06     115.691E+06     121.200E+03         73.2917
             155     17.7174E-03     65.1546E-03         1.57123    -233.214E-03    -562.371E-03    -434.546E-03    -361.039E-03         1.57123     246.092E-03     291.091E-03    -16.8996E-03    -274.192E-03    -57.2756E-03     74.1753E-03    -16.8996E-03     549.752E-03     213.924E+06     108.117E+06    -554.004E+03    -538.852E+03     213.909E+06     108.117E+06     200.736E+03         73.5153
             156     17.7170E-03     66.1652E-03         1.38585    -32.9221E-03    -510.651E-03    -489.055E-03    -54.5178E-03         1.38585     168.448E-03     287.368E-03    -16.8417E-03    -270.526E-03    -58.8184E-03     75.6602E-03    -16.8417E-03     541.331E-03     216.149E+06     117.344E+06    -1.19724E+06    -1.18801E+06     216.139E+06     117.344E+06    -190.440E+03         73.7600
             157     17.7167E-03     67.2215E-03         1.17165     250.315E-03    -519.627E-03    -512.725E-03     243.413E-03         1.17165     144.962E-03     291.203E-03    -16.7347E-03    -274.468E-03    -66.3048E-03     83.0395E-03    -16.7347E-03     545.596E-03     213.526E+06     122.918E+06    -7.55843E+06    -7.55378E+06     213.522E+06     122.918E+06     221.754E+03         73.9683
             158     17.7160E-03     68.2714E-03     933.419E-03     578.145E-03    -544.999E-03    -537.774E-03     570.919E-03     933.419E-03     178.323E-03     297.782E-03    -16.8728E-03    -280.909E-03    -64.8147E-03     81.6876E-03    -16.8728E-03     559.773E-03     214.652E+06     121.439E+06    -6.12441E+06    -6.12050E+06     214.648E+06     121.439E+06     149.062E+03         74.1466
             159     17.7159E-03     69.2928E-03     929.557E-03     639.849E-03    -591.420E-03    -586.466E-03     892.715E-03     671.736E-03     166.428E-03     295.564E-03    -17.0334E-03    -278.530E-03    -58.2300E-03     75.2634E-03    -17.0334E-03     558.345E-03     220.177E+06     121.173E+06     222.571E+03     234.434E+03     220.165E+06     121.173E+06     1.54289E+06         74.3283
             160     17.7162E-03     70.3012E-03         1.21229     391.308E-03    -631.498E-03    -627.756E-03         1.20855     391.308E-03     165.914E-03     285.320E-03    -16.9550E-03    -268.365E-03    -56.7520E-03     73.7070E-03    -16.9550E-03     538.066E-03     218.728E+06     118.122E+06    -1.82003E+06    -1.78795E+06     218.696E+06     118.122E+06    -576.888E+03         74.4939
             161     17.7154E-03     71.3294E-03         1.55826     101.943E-03    -663.876E-03    -659.151E-03         1.55354     101.943E-03     204.719E-03     278.178E-03    -16.7692E-03    -261.409E-03    -59.8412E-03     76.6104E-03    -16.7692E-03     522.034E-03     214.672E+06     111.533E+06    -5.78386E+06    -5.75966E+06     214.648E+06     111.533E+06    -1.19487E+06         74.6416
             162     17.7165E-03     72.3755E-03         1.90362    -190.974E-03    -696.313E-03    -692.299E-03         1.89960    -190.974E-03     200.922E-03     280.064E-03    -16.6838E-03    -263.381E-03    -61.6138E-03     78.2977E-03    -16.6838E-03     525.124E-03     215.900E+06     107.394E+06    -3.24506E+06    -3.23048E+06     215.886E+06     107.394E+06     1.59164E+06         74.8430
             163     17.7174E-03     73.4186E-03         2.23271    -484.268E-03    -721.434E-03    -718.920E-03         2.23020    -484.268E-03     171.358E-03     286.403E-03    -16.7130E-03    -269.690E-03    -62.6129E-03     79.3259E-03    -16.7130E-03     537.674E-03     217.692E+06     110.471E+06    -2.62910E+06    -2.61555E+06     217.678E+06     110.471E+06     995.812E+03         75.1358
             164     17.7163E-03     74.4635E-03         2.60135    -696.047E-03    -823.377E-03    -745.540E-03         2.59924    -771.777E-03     167.829E-03     292.639E-03    -16.8017E-03    -275.837E-03    -63.2861E-03     80.0878E-03    -16.8017E-03     550.095E-03     219.519E+06     114.202E+06    -3.47339E+06    -3.47166E+06     219.517E+06     114.202E+06     186.843E+03         75.4588
             165     17.7163E-03     75.5011E-03         3.02324    -794.778E-03        -1.05153    -792.177E-03         3.02064        -1.05153     198.742E-03     293.870E-03    -16.9220E-03    -276.948E-03    -59.4025E-03     76.3246E-03    -16.9220E-03     554.409E-03     220.115E+06     110.527E+06    -2.97469E+06    -2.96615E+06     220.106E+06     110.527E+06     1.28349E+06         75.7444
             166     17.7166E-03     76.5131E-03         3.48837    -889.934E-03        -1.32542    -886.043E-03         3.48448        -1.32542     260.412E-03     291.574E-03    -16.9457E-03    -274.628E-03    -57.4749E-03     74.4206E-03    -16.9457E-03     550.612E-03     219.552E+06     108.785E+06    -3.91867E+06    -3.91006E+06     219.544E+06     108.785E+06     491.858E+03         75.9793
             167     17.7161E-03     77.5510E-03         3.97124        -1.00986        -1.58987        -1.00623         3.96761        -1.58987     264.695E-03     290.530E-03    -16.8726E-03    -273.658E-03    -60.1490E-03     77.0216E-03    -16.8726E-03     547.254E-03     220.368E+06     108.926E+06    -3.57684E+06    -3.57048E+06     220.361E+06     108.926E+06     340.521E+03         76.1602
             168     17.7158E-03     78.5861E-03         4.42864        -1.09303        -1.84098        -1.09036         4.42597        -1.84098     242.670E-03     290.827E-03    -16.8649E-03    -273.962E-03    -60.0827E-03     76.9476E-03    -16.8649E-03     547.908E-03     220.045E+06     102.794E+06    -2.64149E+06    -2.63413E+06     220.038E+06     102.794E+06     222.643E+03         76.3028
             169     17.7158E-03     79.6108E-03         4.85014        -1.15233        -2.08132        -1.14947         4.84729        -2.08132     261.810E-03     284.975E-03    -16.8956E-03    -268.079E-03    -55.8631E-03     72.7586E-03    -16.8956E-03     537.879E-03     218.312E+06      96.668E+06    -3.12570E+06    -3.10092E+06     218.287E+06      96.668E+06    -2.09045E+06         76.4437
             170     17.7164E-03     80.6196E-03         5.21183        -1.22134        -2.31461        -1.21960         5.21009        -2.31461     193.144E-03     276.892E-03    -16.7846E-03    -260.107E-03    -54.9728E-03     71.7574E-03    -16.7846E-03     521.804E-03     218.708E+06     91.8161E+06    -1.04603E+06    -1.00794E+06     218.670E+06     91.8161E+06    -259.652E+03         76.6089
             171     17.7168E-03     81.6604E-03         5.53297        -1.26435        -2.53969        -1.26376         5.53239        -2.53969     125.789E-03     280.613E-03    -16.5825E-03    -264.031E-03    -63.2668E-03     79.8492E-03    -16.5825E-03     525.419E-03     217.299E+06     92.1737E+06    -4.06360E+06    -4.03356E+06     217.269E+06     92.1737E+06     45.3751E+03         76.8363
             172     17.7160E-03     82.7346E-03         5.87335        -1.30599        -2.75162        -1.30504         5.87240        -2.75162     163.410E-03     291.076E-03    -16.6152E-03    -274.461E-03    -66.5331E-03     83.1483E-03    -16.6152E-03     545.305E-03     214.641E+06     89.5136E+06    -6.75607E+06    -6.73822E+06     214.624E+06     89.5136E+06    -1.88813E+06         77.1272
             173     17.7161E-03     83.7630E-03         6.19630        -1.38956        -2.94799        -1.38857         6.19531        -2.94799     171.692E-03     292.091E-03    -16.8310E-03    -275.260E-03    -57.1543E-03     73.9854E-03    -16.8310E-03     551.866E-03     214.552E+06     78.1378E+06    -518.719E+03    -509.741E+03     214.543E+06     78.1378E+06     136.686E+03         77.4448
             174     17.7174E-03     84.7589E-03         6.44477        -1.46251        -3.12423        -1.46183         6.44410        -3.12423     145.127E-03     286.279E-03    -16.7949E-03    -269.484E-03    -54.3812E-03     71.1761E-03    -16.7949E-03     541.327E-03     216.313E+06     74.8734E+06     4.77199E+06     4.81679E+06     216.268E+06     74.8734E+06     2.79927E+06         77.7387
             175     17.7167E-03     85.8085E-03         6.67289        -1.50824        -3.26892        -1.50776         6.67241        -3.26892     124.423E-03     287.644E-03    -16.6511E-03    -270.993E-03    -62.0995E-03     78.7505E-03    -16.6511E-03     540.550E-03     209.024E+06     77.4653E+06    -6.70559E+06    -6.33968E+06     208.658E+06     77.4653E+06    -3.94057E+06         77.9537
             176     17.7147E-03     86.8584E-03         6.89651        -1.53207        -3.37768        -1.53155         6.89599        -3.37768     131.143E-03     287.856E-03    -16.6922E-03    -271.164E-03    -58.4469E-03     75.1392E-03    -16.6922E-03     542.642E-03     199.280E+06     58.8876E+06    -7.69590E+06    -7.36796E+06     198.952E+06     58.8876E+06    -6.34702E+06         78.1197
             177     17.7188E-03     87.8515E-03         7.07149        -1.56786        -3.45609        -1.56737         7.07100        -3.45609     128.195E-03     278.458E-03    -16.6326E-03    -261.826E-03    -49.9566E-03     66.5891E-03    -16.6326E-03     527.563E-03     195.715E+06     35.7687E+06     4.40358E+06     4.42718E+06     195.691E+06     35.7687E+06    -1.81270E+06         78.3243
             178     17.7182E-03     88.8690E-03         7.25882        -1.64649        -3.50333        -1.64608         7.25840        -3.50333     121.249E-03     275.180E-03    -16.3176E-03    -258.862E-03    -58.1284E-03     74.4460E-03    -16.3176E-03     517.049E-03     193.441E+06     36.4125E+06     1.67573E+06     1.71486E+06     193.401E+06     36.4125E+06    -162.873E+03         78.5736
             179     17.7189E-03     89.9509E-03         7.49860        -1.73104        -3.51403        -1.73024         7.49779        -3.51403     169.450E-03     287.544E-03    -16.1379E-03    -271.406E-03    -68.6453E-03     84.7832E-03    -16.1379E-03     537.476E-03     179.656E+06     26.4453E+06    -12.2885E+06    -11.2718E+06     178.639E+06     26.4453E+06    -8.37891E+06         78.8531
             180     17.7182E-03     91.0017E-03         7.72124        -1.82723        -3.49286        -1.82627         7.72027        -3.49286     191.550E-03     292.685E-03    -16.2827E-03    -276.402E-03    -59.4777E-03     75.7603E-03    -16.2827E-03     552.436E-03     167.116E+06     18.4516E+06    -16.5828E+06     1.99316E+06     166.042E+06     949.046E+03    -7.36433E+06         79.1818
             181     17.7228E-03     91.9833E-03         7.84842        -1.90735        -3.44775        -1.90675         7.84782        -3.44775     149.949E-03     283.230E-03    -16.2385E-03    -266.991E-03    -50.5197E-03     66.7582E-03    -16.2385E-03     537.549E-03     155.311E+06     5.83868E+06    -17.8781E+06     6.53147E+06     154.619E+06    -17.8781E+06    -4.60821E+06         79.5319
             182     17.7223E-03     93.0101E-03         7.86947        -1.93213        -3.38077        -1.93193         7.86927        -3.38077     77.9235E-03     277.369E-03    -15.8655E-03    -261.503E-03    -56.9685E-03     72.8340E-03    -15.8655E-03     522.911E-03     143.599E+06    -4.28820E+06    -25.3465E+06    -3.52919E+06     142.840E+06    -25.3465E+06    -3.77582E+06         79.8375
             183     17.7267E-03     94.0746E-03         7.85671        -1.93249        -3.29425        -1.93240         7.85661        -3.29425     57.3834E-03     291.466E-03    -15.6940E-03    -275.772E-03    -65.9478E-03     81.6418E-03    -15.6940E-03     547.701E-03     145.175E+06    -596.546E+03    -18.9573E+06    -388.182E+03     144.967E+06    -18.9573E+06     857.343E+03         80.1387
             184     17.7254E-03     95.1392E-03         7.82433        -1.93748        -3.19549        -1.93737         7.82422        -3.19549     63.7478E-03     302.892E-03    -15.7976E-03    -287.094E-03    -63.2133E-03     79.0109E-03    -15.7976E-03     572.449E-03     137.619E+06    -1.75244E+06    -21.1758E+06    -1.67448E+06     137.541E+06    -21.1758E+06    -3.05105E+06         80.5145
             185     17.7315E-03     96.1296E-03         7.71418        -1.95061        -3.09225        -1.95047         7.71404        -3.09225    -21.5244E-03     284.368E-03    -15.8921E-03    -268.476E-03    -46.4074E-03     62.2995E-03    -15.8921E-03     541.870E-03     135.178E+06     8.67065E+06    -18.3618E+06     9.02929E+06     134.820E+06    -18.3618E+06     3.88800E+06         80.9874
             186     17.7346E-03     97.0854E-03         7.54361        -1.92917        -2.98283        -1.92903         7.54348        -2.98283    -67.7815E-03     261.584E-03    -15.7324E-03    -245.851E-03    -48.0834E-03     63.8158E-03    -15.7324E-03     494.211E-03     149.978E+06     55.1917E+06    -10.3457E+06     1.23299E+06     149.526E+06     44.0659E+06     7.65931E+06         81.6941
             187     17.7348E-03     98.1635E-03         7.34423        -1.88645        -2.86272        -1.88633         7.34411        -2.86272    -64.1465E-03     269.496E-03    -15.4993E-03    -253.997E-03    -68.5001E-03     83.9994E-03    -15.4993E-03     500.705E-03     158.404E+06     109.193E+06    -13.8497E+06    -13.6417E+06     158.196E+06     109.193E+06     6.44625E+03         82.8223
             188     17.7362E-03     99.2789E-03         7.09499        -1.85092        -2.73495        -1.85059         7.09466        -2.73495    -106.150E-03     297.141E-03    -15.8087E-03    -281.333E-03    -70.4309E-03     86.2396E-03    -15.8087E-03     556.465E-03     153.194E+06     131.125E+06     695.842E+03     804.769E+03     153.085E+06     131.125E+06    -3.54872E+06         84.1982
             189     17.7362E-03     100.290E-03         6.80062        -1.78729        -2.59996        -1.78676         6.80010        -2.59996    -134.177E-03     295.410E-03    -16.4082E-03    -279.002E-03    -49.9459E-03     66.3541E-03    -16.4082E-03     562.097E-03     140.621E+06     134.251E+06     730.121E+03     1.20760E+06     140.143E+06     134.251E+06    -6.42238E+06         85.0666
             190     17.7363E-03     101.237E-03         6.48320        -1.70413        -2.45521        -1.70300         6.48206        -2.45521    -185.713E-03     268.355E-03    -16.5562E-03    -251.799E-03    -34.5724E-03     51.1286E-03    -16.5562E-03     513.046E-03     129.730E+06     127.865E+06    -5.77231E+06    -5.27201E+06     128.778E+06     128.316E+06    -4.55563E+06         84.9199
             191     17.7364E-03     102.251E-03         6.13285        -1.61200        -2.30379        -1.61054         6.13140        -2.30379    -212.165E-03     260.105E-03    -16.4162E-03    -243.689E-03    -37.4160E-03     53.8321E-03    -16.4162E-03     495.404E-03     135.224E+06     123.426E+06    -1.80241E+06    -1.66551E+06     123.289E+06     135.224E+06    -1.32371E+06         84.0672
             192     17.7366E-03     103.309E-03         5.80868        -1.54561        -2.14613        -1.54479         5.80786        -2.14613    -150.565E-03     270.352E-03    -16.4570E-03    -253.895E-03    -40.1175E-03     56.5744E-03    -16.4570E-03     515.220E-03     139.609E+06     115.792E+06    -1.57858E+06    -1.46129E+06     115.674E+06     139.609E+06    -3.28340E+06         82.8875
             193     17.7366E-03     104.308E-03         5.53926        -1.51041        -1.97949        -1.50996         5.53882        -1.97949    -111.843E-03     272.898E-03    -16.5402E-03    -256.358E-03    -37.5213E-03     54.0614E-03    -16.5402E-03     521.272E-03     135.462E+06     106.855E+06    -4.72733E+06    -4.15138E+06     106.279E+06     135.462E+06    -6.34225E+06         81.3559
             194     17.7371E-03     105.312E-03         5.22793        -1.45533        -1.81011        -1.45459         5.22718        -1.81011    -138.569E-03     263.497E-03    -16.4885E-03    -247.008E-03    -36.7946E-03     53.2831E-03    -16.4885E-03     502.491E-03     144.208E+06     111.011E+06    -1.50035E+06     392.007E+03     109.118E+06     144.208E+06     2.74203E+06         79.4754
             195     17.7378E-03     106.313E-03         4.80518        -1.36751        -1.64489        -1.36495         4.80263        -1.64489    -236.157E-03     241.559E-03    -16.2441E-03    -225.315E-03    -35.2288E-03     51.4729E-03    -16.2441E-03     458.746E-03     137.670E+06     112.087E+06    -1.99013E+06    -335.923E+03     110.432E+06     137.670E+06     4.02728E+06         77.3909
             196     17.7389E-03     107.277E-03         4.32398        -1.22098        -1.47788        -1.21786         4.32086        -1.47788    -261.077E-03     215.459E-03    -15.5521E-03    -199.907E-03    -48.1444E-03     63.6964E-03    -15.5521E-03     398.464E-03     131.633E+06     105.426E+06    -7.09627E+06    -6.53154E+06     104.861E+06     131.633E+06    -7.93733E+06         74.7350
             197     17.7391E-03     108.333E-03         3.85355        -1.04535        -1.30610        -1.04423         3.85243        -1.30610    -125.973E-03     210.018E-03    -14.6531E-03    -195.365E-03    -77.5149E-03     92.1680E-03    -14.6531E-03     367.131E-03     139.278E+06     96.5670E+06    -17.1770E+06    -16.4772E+06     95.8672E+06     139.278E+06    -8.80969E+06         71.9234
             198     17.7412E-03     109.462E-03         3.36378    -932.325E-03        -1.14292    -931.752E-03         3.36321        -1.14292    -85.1228E-03     213.163E-03    -14.2946E-03    -198.868E-03    -88.2726E-03     102.567E-03    -14.2946E-03     365.098E-03     138.892E+06     84.1953E+06    -2.66751E+06    -1.65971E+06     83.1875E+06     138.892E+06    -1.51776E+06         69.5798
             199     17.7422E-03     110.502E-03         2.76866    -798.802E-03    -996.404E-03    -795.986E-03         2.76585    -996.404E-03    -184.613E-03     201.514E-03    -14.2657E-03    -187.248E-03    -79.0150E-03     93.2808E-03    -14.2657E-03     348.492E-03     93.8006E+06     56.8254E+06    -21.4660E+06    -10.1377E+06     45.4971E+06     93.8006E+06    -17.2601E+06         67.0839
             200     17.7426E-03     111.552E-03         2.09980    -556.491E-03    -858.489E-03    -554.033E-03         2.09734    -858.489E-03    -146.872E-03     172.416E-03    -14.3456E-03    -158.070E-03    -57.8244E-03     72.1700E-03    -14.3456E-03     303.296E-03     14.5036E+06     3.13677E+06    -55.9510E+06    -37.2742E+06    -11.4782E+06     10.4418E+06    -26.2853E+06         62.8321
             201     17.7437E-03     112.564E-03         1.47664    -336.606E-03    -728.132E-03    -331.083E-03         1.47112    -728.132E-03    -151.143E-03     126.092E-03    -16.1760E-03    -109.916E-03    -22.5755E-03     38.7514E-03    -16.1760E-03     226.686E-03     16.7811E+06     9.22472E+06    -37.8003E+06     5.05864E+06    -26.0778E+06     9.22472E+06     11.6713E+06         52.5451
             202     17.6556E-03     113.528E-03     857.233E-03    -123.943E-03    -616.827E-03    -109.498E-03     842.788E-03    -616.827E-03    -219.267E-03     57.0951E-03    -2.84886E-03    -54.2463E-03     4.98750E-03     17.5155E-03    -22.5030E-03     90.8270E-03     30.2431E+06     13.9744E+06    -72.6239E+06     21.7577E+06    -17.2190E+06    -32.9451E+06     18.8085E+06         38.5836
             203     16.4123E-03     114.238E-03     500.156E-03    -923.932E-06    -598.145E-03     17.0669E-03     482.165E-03    -598.145E-03    -186.438E-03     18.9587E-03     8.69354E-03    -27.6522E-03     10.9567E-03     16.6956E-03    -27.6522E-03     8.27691E-03     26.0988E+06     2.08897E+06    -70.2840E+06    -3.26243E+06     5.99670E+06    -44.8305E+06     16.7434E+06         31.2521
             204     15.4344E-03     114.016E-03     519.880E-03    -79.5046E-03    -658.899E-03    -70.5400E-03     510.915E-03    -658.899E-03    -100.747E-03     41.8200E-03    -11.2647E-03    -30.5553E-03    -12.2287E-03     40.1851E-03    -27.9564E-03     6.79817E-03     63.6272E+06     22.1874E+06    -41.6609E+06    -31.5022E+06     23.2643E+06     52.3916E+06     5.31158E+06         29.1875
             205     14.5207E-03     113.793E-03     665.564E-03    -270.657E-03    -713.718E-03    -270.250E-03     665.157E-03    -713.718E-03     18.3602E-03     61.8694E-03    -26.7426E-03    -35.1268E-03    -34.9877E-03     61.7303E-03    -26.7426E-03    -5.34454E-03     67.6057E+06     12.7136E+06    -54.9539E+06    -42.6929E+06     452.566E+03     67.6057E+06    -23.3448E+06         27.0436
             206     13.5948E-03     113.631E-03     856.019E-03    -528.541E-03    -752.845E-03    -526.362E-03     853.840E-03    -752.845E-03    -48.8172E-03     63.9341E-03    -24.8093E-03    -39.1249E-03    -38.7281E-03     63.5374E-03    -24.8093E-03    -12.6408E-03     52.3244E+06    -7.03375E+06    -43.0768E+06    -33.2467E+06    -16.8638E+06     52.3244E+06    -14.6763E+06         25.5759
             207     12.6532E-03     113.511E-03     901.441E-03    -676.502E-03    -775.358E-03    -665.253E-03     890.193E-03    -775.358E-03    -246.314E-03     62.2931E-03    -23.0328E-03    -39.2603E-03    -38.7879E-03     61.8208E-03    -23.0328E-03    -13.8157E-03     64.2463E+06     907.626E+03    -28.7174E+06    -27.5060E+06     -303.87E+03     64.2463E+06    -5.76747E+06         24.6064
             208     11.7114E-03     113.410E-03     806.424E-03    -644.016E-03    -793.165E-03    -630.511E-03     792.918E-03    -793.165E-03    -274.520E-03     57.2408E-03    -21.3659E-03    -35.8749E-03    -35.5342E-03     56.9001E-03    -21.3659E-03    -11.1758E-03     67.6701E+06     9.50288E+06    -29.7908E+06    -21.7398E+06     1.45186E+06     67.6701E+06    -12.9958E+06         23.9744
             209     10.7539E-03     113.340E-03     805.450E-03    -619.053E-03    -814.278E-03    -614.864E-03     801.261E-03    -814.278E-03    -121.787E-03     53.5217E-03    -19.7814E-03    -33.7403E-03    -33.5160E-03     53.2974E-03    -19.7814E-03    -8.82667E-03     60.3877E+06     1.83557E+06    -19.6201E+06    -10.5461E+06    -7.23844E+06     60.3877E+06    -10.5996E+06         23.5244
             210     9.79665E-03     113.277E-03     840.596E-03    -662.770E-03    -836.040E-03    -662.597E-03     840.423E-03    -836.040E-03    -1.08746E-03     49.3897E-03    -18.2423E-03    -31.1474E-03    -30.9761E-03     49.2184E-03    -18.2423E-03    -7.41219E-03     55.0356E+06     1.80666E+06    -7.39693E+06    -3.84819E+06    -1.74207E+06     55.0356E+06    -4.46422E+06         23.1560
             211     8.83181E-03     113.231E-03     830.633E-03    -710.669E-03    -855.814E-03    -709.812E-03     829.777E-03    -855.814E-03    -33.7167E-03     44.1647E-03    -16.8246E-03    -27.3401E-03    -27.2186E-03     44.0432E-03    -16.8246E-03    -5.87639E-03     49.6820E+06     4.04488E+06    -5.79109E+06    -2.76978E+06     1.02357E+06     49.6820E+06    -4.52595E+06         22.8197
             212     7.86308E-03     113.193E-03     879.990E-03    -793.205E-03    -871.367E-03    -790.292E-03     877.076E-03    -871.367E-03    -136.400E-03     39.4996E-03    -15.5883E-03    -23.9113E-03    -23.8324E-03     39.4207E-03    -15.5883E-03    -4.45344E-03     46.6904E+06     3.71101E+06    -5.32667E+06    -1.28890E+06    -326.753E+03     46.6904E+06    -4.05491E+06         22.5121
             213     6.88868E-03     113.165E-03     940.305E-03    -864.835E-03    -899.199E-03    -879.834E-03     934.376E-03    -878.271E-03    -206.049E-03     35.4176E-03    -14.5072E-03    -20.9104E-03    -20.8549E-03     35.3622E-03    -14.5072E-03    -3.53294E-03     44.8599E+06     4.08053E+06    -5.03852E+06    -10.3849E+03    -947.609E+03     44.8599E+06    -4.36669E+06         22.2404
             214     5.91155E-03     113.143E-03     976.792E-03    -876.614E-03    -919.401E-03    -914.927E-03     972.319E-03    -876.614E-03    -67.8207E-03     31.7384E-03    -13.5404E-03    -18.1980E-03    -18.1580E-03     31.6985E-03    -13.5404E-03    -2.80967E-03     37.4367E+06     8.40487E+06    -4.64418E+06     3.15564E+06     605.047E+03     37.4367E+06    -6.15928E+06         22.0067
             215     4.93098E-03     113.126E-03     947.961E-03    -846.995E-03    -897.212E-03    -867.993E-03     947.099E-03    -875.353E-03     26.3351E-03     28.5950E-03    -12.7648E-03    -15.8302E-03    -15.8066E-03     28.5714E-03    -12.7648E-03    -2.03905E-03     35.1716E+06     14.0972E+06    -3.25813E+06     10.7091E+06     130.008E+03     35.1716E+06    -6.66998E+06         21.8124
             216     3.94777E-03     113.115E-03     858.567E-03    -846.376E-03    -916.396E-03    -887.851E-03     858.380E-03    -874.734E-03    -19.7721E-03     26.0966E-03    -12.1758E-03    -13.9207E-03    -13.9024E-03     26.0783E-03    -12.1758E-03    -1.70932E-03     35.5030E+06     22.7426E+06    -2.18325E+06     22.0166E+06        -926.688     34.0467E+06    -7.07061E+06         21.6574
             217     2.96070E-03     113.105E-03     891.870E-03    -844.730E-03        -1.02161        -1.01376     884.012E-03    -844.730E-03    -173.622E-03     24.3728E-03    -11.7737E-03    -12.5990E-03    -12.5796E-03     24.3533E-03    -11.7737E-03    -1.69526E-03     35.0429E+06     31.6261E+06    -2.38759E+06     33.2628E+06    -607.445E+03     31.6261E+06    -7.94863E+06         21.5405
             218     1.97579E-03     113.102E-03     998.981E-03    -761.362E-03        -1.06641    -984.166E-03     916.732E-03    -761.362E-03     357.721E-03     23.4920E-03    -11.5740E-03    -11.9180E-03    -11.9039E-03     23.4779E-03    -11.5740E-03    -1.37747E-03     43.0981E+06     36.6512E+06    -4.62658E+06     42.0032E+06    -3.53167E+06     36.6512E+06    -6.56705E+06         21.4608
             219     986.468E-06     113.096E-03     835.469E-03    -534.413E-03    -977.161E-03    -879.125E-03     737.434E-03    -534.413E-03     270.464E-03     23.1410E-03    -11.2550E-03    -11.8860E-03    -11.8796E-03     23.1346E-03    -11.2550E-03    -938.706E-06     59.8201E+06     46.5011E+06     310.409E+03     49.9991E+06     1.29872E+06     55.3337E+06    -6.59567E+06         21.4156
             220    -3.90056E-06     112.072E-03         1.22569    -703.848E-03        -1.07363        -1.00436         1.15642    -703.848E-03    -786.065E-03     20.6598E-03    -9.72414E-03    -10.9356E-03    -10.3306E-03     20.6530E-03    -10.3225E-03    -895.723E-06     48.8621E+06     26.9149E+06    -12.3653E+06     38.3552E+06    -10.6911E+06     35.7475E+06    -9.21460E+06         21.3105
             221     2.48794E-06     111.057E-03         2.18024        -1.21587        -1.35033        -1.24658         2.11408        -1.25347    -919.706E-03     15.7212E-03    -7.42546E-03    -8.29573E-03    -7.69142E-03     15.7152E-03    -8.02379E-03    -739.115E-06    -8.29432E+06    -27.1136E+06    -44.6577E+06    -16.2115E+06    -42.4453E+06    -21.4089E+06    -6.08441E+06         21.0863
             222    -1.88305E-06     110.041E-03         2.65400        -1.33633        -1.57979        -1.50335         2.61515        -1.37392    -802.254E-03     11.3470E-03    -5.39338E-03    -5.95362E-03    -5.66357E-03     11.3453E-03    -5.68169E-03    -280.479E-06    -45.4304E+06    -54.9479E+06    -63.8889E+06    -55.7102E+06    -52.6741E+06    -55.8829E+06     211.003E+03         20.8216
             223     1.19962E-06     109.034E-03         2.89000        -1.35242        -1.62054        -1.53665         2.86836        -1.41468    -573.997E-03     8.18887E-03    -3.80254E-03    -4.38633E-03    -4.09181E-03     8.18266E-03    -4.09085E-03    -382.647E-06    -52.9406E+06    -71.4225E+06    -88.0156E+06    -79.5091E+06    -54.8073E+06    -78.0623E+06    -4.17233E+06         20.5813
             224    -515.379E-09     108.026E-03         3.32135        -1.55164        -1.61970        -1.54678         3.31648        -1.61970    -299.780E-03     5.45075E-03    -2.47675E-03    -2.97401E-03    -2.76601E-03     5.44453E-03    -2.67852E-03    -382.970E-06    -72.2521E+06    -113.773E+06    -131.963E+06    -121.825E+06    -74.1539E+06    -122.010E+06    -9.47150E+06         20.3917
             225    -13.9328E-09     107.022E-03         3.86358        -1.65558        -1.87504        -1.85979         3.85414        -1.66138    -439.742E-03     3.07939E-03    -1.42788E-03    -1.65151E-03    -1.44669E-03     3.07634E-03    -1.62965E-03     129.434E-06    -92.5912E+06    -159.999E+06    -174.240E+06    -165.401E+06    -93.1937E+06    -168.236E+06    -3.33059E+06         20.2655
             226     130.067E-09     106.020E-03         4.42706        -1.81176        -2.10349        -2.05874         4.38231        -1.81176        -1.02106     2.03227E-03    -1.00219E-03    -1.03008E-03    -1.02288E-03     2.02507E-03    -1.00219E-03     293.178E-06    -96.1068E+06    -168.003E+06    -179.359E+06    -173.953E+06    -96.1612E+06    -173.355E+06     1.82202E+06         20.2112
             227    -202.045E-09     105.018E-03         5.15697        -2.15830        -2.28145        -2.19351         5.06903        -2.15830        -1.60627     2.50311E-03    -1.23178E-03    -1.27133E-03    -1.22538E-03     2.49068E-03    -1.26530E-03     430.574E-06    -50.9706E+06    -99.8418E+06    -119.770E+06    -93.7361E+06    -71.6527E+06    -105.194E+06     16.5882E+06         20.2298
             228     35.6159E-09     104.015E-03         5.96495        -2.37615        -2.72361        -2.55738         5.79872        -2.37615        -2.35033     4.32315E-03    -2.08174E-03    -2.24141E-03    -2.18677E-03     4.30203E-03    -2.11526E-03     741.427E-06     22.3523E+06    -17.4903E+06    -46.7792E+06    -19.6539E+06    -4.77298E+06    -17.4903E+06     29.4625E+06         20.3142
             229     302.367E-09     103.009E-03         6.88223        -2.66266        -3.23988        -2.92714         6.56948        -2.66266        -3.48517     6.61986E-03    -3.23314E-03    -3.38672E-03    -3.34120E-03     6.60177E-03    -3.26057E-03     809.104E-06     73.2488E+06     19.9049E+06     3.91858E+06     10.4657E+06     66.7017E+06     19.9049E+06     15.4414E+06         20.4552
             230    -348.565E-09     102.002E-03         7.92595        -3.14053        -3.60450        -3.11753         7.43898        -3.14053        -4.62743     9.54342E-03    -4.74589E-03    -4.79752E-03    -4.71714E-03     9.51467E-03    -4.79752E-03     1.23886E-03     98.2000E+06     41.5897E+06     39.7028E+06     40.3964E+06     98.1194E+06     40.9766E+06     2.12795E+06         20.6482
             231     246.206E-09     100.988E-03         8.76295        -3.34195        -4.11505        -3.36911         8.01702        -3.34195        -5.99058     12.7624E-03    -6.34025E-03    -6.42218E-03    -6.34967E-03     12.7141E-03    -6.36445E-03     1.91963E-03     102.217E+06     62.9783E+06     61.5976E+06     62.2386E+06     102.189E+06     62.3652E+06     1.03714E+06         20.8856
             232    -170.954E-09     99.9741E-03         9.40865        -3.40205        -4.62967        -3.44189         8.22087        -3.40205        -7.76848     16.1606E-03    -8.02839E-03    -8.13226E-03    -8.07895E-03     16.1073E-03    -8.02839E-03     2.27277E-03     99.6577E+06     85.4270E+06     78.3689E+06     82.0985E+06     95.9282E+06     85.4270E+06    -3.14340E+06         21.1516
             233     242.582E-09     98.9560E-03         10.2079        -3.70547        -5.00113        -3.28235         8.48916        -3.70547        -9.61338     20.5469E-03    -10.1916E-03    -10.3553E-03    -10.3105E-03     20.5021E-03    -10.1916E-03     2.30613E-03     103.557E+06     99.4364E+06     74.7331E+06     99.6778E+06     78.6119E+06     99.4364E+06    -7.38844E+06         21.4253
             234    -78.2379E-09     97.9325E-03         11.0803        -4.02721        -5.49807        -3.33076         8.91303        -4.02721        -11.1734     24.8564E-03    -12.3602E-03    -12.4963E-03    -12.4425E-03     24.8212E-03    -12.3786E-03     2.29414E-03     113.793E+06     108.885E+06     57.5482E+06     111.563E+06     58.4204E+06     110.243E+06    -6.02778E+06         21.6842
             235     24.4417E-09     96.9042E-03         12.0597        -4.47236        -5.98283        -3.41841         9.49527        -4.47236        -12.5973     27.6660E-03    -13.8034E-03    -13.8627E-03    -13.8164E-03     27.6383E-03    -13.8219E-03     2.10131E-03     109.605E+06     106.296E+06     37.6170E+06     107.991E+06     37.8735E+06     107.654E+06    -4.24575E+06         21.9079
             236     15.7274E-09     95.8769E-03         12.9753        -5.13625        -6.14222        -3.33960         10.1727        -5.13625        -13.5239     29.6923E-03    -14.8192E-03    -14.8732E-03    -14.8409E-03     29.6732E-03    -14.8323E-03     1.84369E-03     102.628E+06     100.069E+06     19.2314E+06     101.647E+06     19.6040E+06     100.678E+06    -5.50381E+06         22.0854
             237    -48.0740E-09     94.8445E-03         13.2437        -5.55588        -5.92918        -3.10223         10.4168        -5.55588        -13.5952     31.5665E-03    -15.6912E-03    -15.8753E-03    -15.8483E-03     31.5527E-03    -15.7044E-03     1.56163E-03     96.3641E+06     94.8211E+06     114.049E+03     94.3371E+06     598.010E+03     96.3641E+06    -6.74968E+06         22.2167
             238     395.700E-09     93.8134E-03         13.0747        -5.45650        -5.82784        -2.76193         10.3212        -5.76891        -13.2069     32.7222E-03    -16.2336E-03    -16.4886E-03    -16.4816E-03     32.7151E-03    -16.2336E-03     1.18033E-03     87.1023E+06     84.0835E+06    -18.5655E+06     85.8392E+06    -18.2370E+06     85.0182E+06    -5.65444E+06         22.3075
             239    -262.389E-09     92.7787E-03         12.9420        -4.88677        -6.20180        -2.36894         10.4242        -6.20180        -12.4138     33.1186E-03    -16.4306E-03    -16.6880E-03    -16.5043E-03     33.1081E-03    -16.6038E-03     1.42113E-03     75.0056E+06     72.3097E+06    -34.3627E+06     74.8976E+06    -34.2547E+06     72.3097E+06    -3.21979E+06         22.3667
             240    -99.7656E-09     91.7457E-03         12.6175        -4.04593        -6.66921        -1.99122         10.5628        -6.66921        -10.9401     33.5648E-03    -16.5558E-03    -17.0090E-03    -16.8260E-03     33.5550E-03    -16.7290E-03     1.37138E-03     57.1758E+06     54.2284E+06    -51.9562E+06     54.3952E+06    -51.5111E+06     56.5640E+06    -5.71515E+06         22.4033
             241     683.463E-09     90.7122E-03         12.3079        -3.25805        -7.15414        -1.82004         10.8699        -7.15414        -8.95793     34.0594E-03    -16.8414E-03    -17.2181E-03    -17.2113E-03     34.0527E-03    -16.8414E-03     1.17217E-03     41.7499E+06     37.6848E+06    -70.4900E+06     38.8945E+06    -69.9702E+06     40.0204E+06    -7.02600E+06         22.4235
             242    -522.107E-09     89.6770E-03         12.2394        -2.52464        -7.80391        -1.66149         11.3762        -7.80391        -6.85955     33.9328E-03    -16.8131E-03    -17.1197E-03    -16.9035E-03     33.9266E-03    -17.0230E-03     1.11929E-03     32.4026E+06     28.3744E+06    -81.3207E+06     32.3090E+06    -81.2271E+06     28.3744E+06    -2.18687E+06         22.4322
             243     74.8438E-09     88.6436E-03         11.8483        -1.72156        -8.23039        -1.29909         11.4258        -8.23039        -4.60779     33.7554E-03    -16.6878E-03    -17.0676E-03    -16.8510E-03     33.7488E-03    -16.8977E-03     1.14485E-03     23.8918E+06     18.0812E+06    -90.0834E+06     20.2696E+06    -89.9732E+06     21.5931E+06    -2.31250E+06         22.4358
             244     299.629E-09     87.6097E-03         11.2849        -1.03096        -8.41213    -895.465E-03         11.1494        -8.41213        -2.38652     33.7996E-03    -16.8037E-03    -16.9958E-03    -16.9682E-03     33.7942E-03    -16.8260E-03     987.395E-06     15.3133E+06     8.73315E+06    -103.932E+06     11.5458E+06    -103.676E+06     12.2451E+06    -5.42901E+06         22.4377
             245    -383.507E-09     86.5763E-03         10.8338    -448.889E-03        -8.59373    -429.222E-03         10.8141        -8.59373    -727.411E-03     33.8988E-03    -16.8899E-03    -17.0089E-03    -16.9817E-03     33.8939E-03    -16.9122E-03     959.216E-06     4.66453E+06     235.407E+03    -120.347E+06     3.09654E+06    -120.140E+06     1.59632E+06    -4.94336E+06         22.4383
             246     585.106E-09     85.5416E-03         10.4830     58.6901E-03        -8.78928     75.6142E-03         10.4661        -8.78928     533.643E-03     34.0699E-03    -16.9394E-03    -17.1305E-03    -17.1230E-03     34.0625E-03    -16.9394E-03     1.23379E-03    -7.99202E+06    -10.2677E+06    -137.329E+06    -9.53002E+06    -137.152E+06    -8.90681E+06    -4.71043E+06         22.4370
             247    -417.274E-09     84.5076E-03         10.3028     350.540E-03        -8.96169     394.185E-03         10.2591        -8.96169         1.30511     33.7282E-03    -16.7485E-03    -16.9797E-03    -16.8330E-03     33.7184E-03    -16.8854E-03     1.38841E-03    -9.30199E+06    -11.9462E+06    -148.726E+06    -9.43958E+06    -148.589E+06    -11.9462E+06    -1.48989E+06         22.4343
             248     112.817E-09     83.4739E-03         9.91556     770.804E-03        -9.05109     813.257E-03         9.87311        -9.05109         1.23723     33.4793E-03    -16.5480E-03    -16.9314E-03    -16.7851E-03     33.4700E-03    -16.6849E-03     1.35464E-03    -6.34594E+06    -9.96702E+06    -153.374E+06    -8.27351E+06    -153.338E+06    -8.07541E+06     267.195E+03         22.4316
             249     391.875E-09     82.4418E-03         9.29729         1.40211        -9.11038         1.41967         9.27972        -9.11038     682.439E-03     33.5561E-03    -16.6531E-03    -16.9030E-03    -16.8984E-03     33.5516E-03    -16.6531E-03     940.517E-06    -11.0528E+06    -13.2658E+06    -162.160E+06    -12.9688E+06    -162.136E+06    -11.3742E+06    -1.89510E+06         22.4298
             250    -391.291E-09     81.4078E-03         8.78497         1.86075        -9.13059         1.86983         8.77589        -9.13059    -137.199E-03     33.5290E-03    -16.7239E-03    -16.8051E-03    -16.7235E-03     33.5253E-03    -16.8017E-03     859.447E-06    -15.6038E+06    -15.9877E+06    -170.615E+06    -15.6578E+06    -170.561E+06    -15.9877E+06    -2.73069E+06         22.4299
             251     233.490E-09     80.3747E-03         8.37365         2.18776        -9.07798         2.36141         8.20000        -9.07798        -1.65727     33.7345E-03    -16.7409E-03    -16.9936E-03    -16.9066E-03     33.7253E-03    -16.8187E-03     1.32699E-03    -17.1876E+06    -18.2119E+06    -177.309E+06    -17.2321E+06    -177.264E+06    -18.2119E+06    -1.56391E+06         22.4323
             252     84.0970E-09     79.3401E-03         8.17763         2.20259        -8.92308         2.98614         7.39407        -8.92308        -3.80981     33.8479E-03    -16.8309E-03    -17.0170E-03    -16.9976E-03     33.8396E-03    -16.8421E-03     1.21665E-03    -15.8724E+06    -17.3726E+06    -181.897E+06    -16.4119E+06    -181.896E+06    -16.8342E+06     150.364E+03         22.4351
             253    -101.332E-09     78.3084E-03         8.41598         1.60926        -8.64944         3.66141         6.36383        -8.64944        -6.09688     33.7810E-03    -16.8379E-03    -16.9432E-03    -16.9293E-03     33.7784E-03    -16.8490E-03     735.120E-06    -11.0524E+06    -12.8726E+06    -181.855E+06    -11.5931E+06    -181.852E+06    -12.3342E+06    -556.059E+03         22.4354
             254     267.359E-09     77.2735E-03         9.12532     611.708E-03        -8.42666         4.30945         5.42758        -8.42666        -8.40432     33.8638E-03    -16.8122E-03    -17.0517E-03    -17.0487E-03     33.8609E-03    -16.8122E-03     775.664E-06    -7.88241E+06    -11.7568E+06    -184.119E+06    -10.4822E+06    -184.112E+06    -9.16421E+06    -1.09588E+06         22.4326
             255     50.1042E-09     76.2409E-03         10.0786    -437.216E-03        -8.39401         4.67520         4.96619        -8.39401        -10.5093     33.7599E-03    -16.7328E-03    -17.0271E-03    -16.8723E-03     33.7541E-03    -16.8818E-03     1.06190E-03    -6.82195E+06    -12.5341E+06    -185.412E+06    -9.42587E+06    -185.400E+06    -9.94152E+06     87.1394E+03         22.4280
             256    -392.969E-09     75.2061E-03         10.9457        -1.38576        -8.35580         5.01201         4.54792        -8.35580        -12.3116     33.3948E-03    -16.5887E-03    -16.8061E-03    -16.6487E-03     33.3864E-03    -16.7377E-03     1.29521E-03    -5.81771E+06    -11.6154E+06    -185.148E+06    -8.51024E+06    -185.133E+06    -8.93728E+06     1.59288E+06         22.4228
             257     555.178E-09     74.1740E-03         11.5737        -2.48503        -7.94548         5.61064         3.47801        -7.94548        -13.8604     33.1981E-03    -16.4932E-03    -16.7049E-03    -16.6960E-03     33.1892E-03    -16.4932E-03     1.33473E-03    -9.23095E+06    -12.0988E+06    -186.488E+06    -11.9253E+06    -186.472E+06    -9.42068E+06     2.81487E+03         22.4172
             258    -285.127E-09     73.1417E-03         11.9722        -3.59817        -7.32760         6.43818         1.93589        -7.32760        -14.8631     33.3877E-03    -16.6072E-03    -16.7805E-03    -16.7739E-03     33.3810E-03    -16.6072E-03     1.13028E-03    -9.62325E+06    -11.9322E+06    -186.983E+06    -9.63370E+06    -186.972E+06    -11.9322E+06    -374.957E+03         22.4105
             259     312.138E-09     72.1076E-03         12.1411        -4.30925        -6.86488         7.09227     739.555E-03        -6.86488        -15.1645     33.1858E-03    -16.5774E-03    -16.6083E-03    -16.6000E-03     33.1774E-03    -16.5774E-03     1.23775E-03    -3.03964E+06    -8.91662E+06    -183.125E+06    -6.80082E+06    -183.122E+06    -5.15881E+06     753.161E+03         22.4030
             260    -272.975E-09     71.0748E-03         12.0573        -4.61047        -6.55277         7.40942     37.4421E-03        -6.55277        -14.9409     32.6020E-03    -16.2541E-03    -16.3479E-03    -16.3397E-03     32.5938E-03    -16.2541E-03     1.21613E-03    -783.029E+03    -9.01681E+06    -181.710E+06    -4.54585E+06    -181.705E+06    -5.25899E+06    -317.047E+03         22.3957
             261     392.138E-09     70.0448E-03         11.8337        -4.67445        -6.32366         7.76047    -601.252E-03        -6.32366        -14.2149     32.4443E-03    -16.1301E-03    -16.3142E-03    -16.3116E-03     32.4417E-03    -16.1301E-03     694.996E-06    -1.57320E+06    -9.05693E+06    -182.511E+06    -4.59126E+06    -182.501E+06    -6.04917E+06     133.571E+03         22.3902
             262    -173.456E-09     69.0107E-03         11.3873        -4.67580        -5.98867         8.20732        -1.49584        -5.98867        -12.7431     32.4124E-03    -16.1563E-03    -16.2561E-03    -16.2404E-03     32.4054E-03    -16.1650E-03     1.04783E-03    -1.52884E+06    -6.63677E+06    -181.681E+06    -4.54350E+06    -181.674E+06    -3.62901E+06     981.678E+03         22.3873
             263     115.817E-09     67.9795E-03         10.8873        -4.80106        -5.46638         8.79463        -2.70841        -5.46638        -10.5507     32.3984E-03    -16.1680E-03    -16.2304E-03    -16.1589E-03     32.3892E-03    -16.2304E-03     1.30433E-03    -461.895E+03    -3.83981E+06    -179.986E+06    -1.74488E+06    -179.981E+06    -2.56206E+06    -394.137E+03         22.3873
             264    -209.445E-09     66.9472E-03         10.4362        -4.87620        -5.02443         9.24714        -3.71007        -5.00152        -8.10079     32.4350E-03    -16.0649E-03    -16.3702E-03    -16.3107E-03     32.4293E-03    -16.1186E-03     1.05788E-03    -979.265E+03    -3.30249E+06    -182.106E+06    -2.26161E+06    -182.102E+06    -2.02473E+06    -680.362E+03         22.3905
             265     685.888E-09     65.9151E-03         10.1360        -4.70261        -4.97676         9.56664        -4.40739        -4.70261        -5.58381     32.4169E-03    -16.0742E-03    -16.3427E-03    -16.3338E-03     32.4079E-03    -16.0742E-03     1.30201E-03    -68.2409E+03    -3.65584E+06    -183.128E+06    -2.61076E+06    -183.128E+06    -1.11371E+06     138.182E+03         22.3966
             266    -629.783E-09     64.8832E-03         10.1670        -4.35900        -5.42208         9.98624        -5.24128        -4.35900        -3.03636     32.8143E-03    -16.3627E-03    -16.4516E-03    -16.4445E-03     32.8072E-03    -16.3627E-03     1.08588E-03     1.40239E+06    -3.92432E+06    -181.285E+06    -1.15603E+06    -181.269E+06    -1.38219E+06    -1.02132E+06         22.4053
             267     733.743E-09     63.8513E-03         10.2446        -4.08176        -5.88063         10.2164        -5.85249        -4.08176    -517.973E-03     33.3861E-03    -16.6518E-03    -16.7342E-03    -16.7198E-03     33.3821E-03    -16.6623E-03     860.606E-06    -120.542E+03    -4.66215E+06    -182.730E+06    -1.89528E+06    -182.712E+06    -2.90512E+06    -1.60449E+06         22.4161
             268    -735.663E-09     62.8163E-03         10.4242        -4.08109        -6.11101         10.3432        -6.03007        -4.08109         1.96082     33.2111E-03    -16.5993E-03    -16.6118E-03    -16.5942E-03     33.2059E-03    -16.6118E-03     1.01391E-03    -1.78525E+06    -6.59905E+06    -186.078E+06    -3.55495E+06    -186.066E+06    -4.84202E+06     602.835E+03         22.4283
             269     688.289E-09     61.7849E-03         10.5815        -4.09435        -6.30651         10.2901        -6.01503        -4.09435         4.26478     33.1385E-03    -16.5254E-03    -16.6131E-03    -16.6058E-03     33.1331E-03    -16.5273E-03     1.02753E-03     -941.11E+03    -5.74703E+06    -185.498E+06    -2.70510E+06    -185.483E+06    -3.99788E+06     1.60140E+06         22.4406
             270    -501.110E-09     60.7522E-03         10.6780        -4.06403        -6.51914         10.1516        -5.99278        -4.06403         5.90105     33.6964E-03    -16.7771E-03    -16.9193E-03    -16.8590E-03     33.6926E-03    -16.8335E-03     837.563E-06    -1.27633E+06    -3.09648E+06    -183.532E+06    -3.05431E+06    -183.503E+06    -1.34733E+06    -901.330E+03         22.4519
             271     389.530E-09     59.7176E-03         10.9782        -3.98330        -6.96118         10.2976        -6.28055        -3.98330         6.85191     33.9530E-03    -16.8389E-03    -17.1142E-03    -17.0525E-03     33.9478E-03    -16.8953E-03     955.245E-06    -1.46250E+06    -1.73081E+06    -182.462E+06    -1.68998E+06    -182.432E+06    -1.53350E+06    -806.386E+03         22.4617
             272     35.9216E-09     58.6842E-03         11.1281        -3.85400        -7.32786         10.3332        -6.53299        -3.85400         7.48826     33.8716E-03    -16.7862E-03    -17.0854E-03    -16.9965E-03     33.8630E-03    -16.8665E-03     1.32056E-03     606.107E+03    -639.443E+03    -180.694E+06     385.299E+03    -180.670E+06    -442.126E+03     1.97620E+06         22.4700
             273    -214.822E-09     57.6506E-03         10.8446        -3.95869        -7.01555         10.0597        -6.23061        -3.95869         7.31933     33.9340E-03    -16.9045E-03    -17.0296E-03    -16.9416E-03     33.9263E-03    -16.9847E-03     1.25033E-03    -1.52191E+06    -2.99480E+06    -181.418E+06    -1.96697E+06    -181.398E+06    -2.57015E+06     1.72667E+06         22.4761
             274     16.7333E-03     56.2452E-03         2.18422     494.912E-03        -2.89399     484.413E-03        -2.88349         2.18422    -214.797E-03     250.979E-03    -16.8541E-03    -234.125E-03    -50.1686E-03     67.0227E-03    -16.8541E-03     470.664E-03     197.016E+06     94.4392E+06    -6.10237E+06    -6.08453E+06     196.998E+06     94.4392E+06    -341.521E+03         67.7938
             275     15.7418E-03     55.8407E-03         2.26720     956.358E-03        -3.47857     801.291E-03        -3.32350         2.26720        -1.44404     136.223E-03    -16.5790E-03    -119.644E-03    -27.9558E-03     44.5348E-03    -16.5790E-03     244.295E-03     153.041E+06     29.6516E+06    -15.2570E+06    -9.56829E+06     153.007E+06     23.9963E+06     877.971E+03         57.1516
             276     14.7562E-03     55.7278E-03         2.34844         1.44834        -4.06406         1.06666        -3.68238         2.34844        -2.78906     51.5211E-03    -16.2254E-03    -35.2957E-03    -16.9275E-03     33.1529E-03    -16.2254E-03     65.9990E-03     100.634E+06    -10.3544E+06    -49.7737E+06    -10.3247E+06     100.604E+06    -49.7737E+06     707.339E+03         45.3060
             277     13.7722E-03     55.7041E-03         2.42652         1.65614        -4.35529         1.36817        -4.06732         2.42652        -2.39825     34.5300E-03    -16.1413E-03    -18.3887E-03    -16.0250E-03     32.1663E-03    -16.1413E-03     21.7316E-03     54.3997E+06    -8.92067E+06    -67.6370E+06    -8.88607E+06     54.3651E+06    -67.6370E+06    -950.061E+03         35.7205
             278     12.7882E-03     55.6840E-03         2.49272         1.77386        -4.54218         1.72218        -4.49049         2.49272    -747.733E-03     33.6359E-03    -16.2941E-03    -17.3418E-03    -16.0705E-03     32.3646E-03    -16.2941E-03     15.4720E-03     15.7327E+06    -9.10715E+06    -44.1641E+06    -4.37981E+06     11.0053E+06    -44.1641E+06     75.2666E+03         29.5381
             279     11.8038E-03     55.6728E-03         2.54299         2.08641        -4.90384         2.02268        -4.84012         2.54299    -926.416E-03     33.4242E-03    -16.4307E-03    -16.9935E-03    -16.3448E-03     32.7755E-03    -16.4307E-03     11.3472E-03     1.35826E+06    -17.5353E+06    -41.3030E+06     786.537E+03    -30.6265E+06    -27.6400E+06     1.24005E+06         26.1710
             280     10.8202E-03     55.6607E-03         2.59522         2.42954        -5.29746         2.19906        -5.05275         2.58100        -2.63540     33.6714E-03    -16.5388E-03    -17.1325E-03    -16.4562E-03     32.9951E-03    -16.5388E-03     11.6193E-03     3.35879E+06    -17.1131E+06    -64.8050E+06     3.32844E+06    -64.7747E+06    -17.1131E+06     1.06979E+06         24.5270
             281     9.83614E-03     55.6487E-03         2.62588         2.49111        -5.39098         2.32370        -5.20934         2.61166        -1.76905     33.7204E-03    -16.6444E-03    -17.0760E-03    -16.4509E-03     33.0953E-03    -16.6444E-03     11.1346E-03     3.30632E+06    -6.97229E+06    -88.1717E+06     3.28437E+06    -88.1498E+06    -6.97229E+06     1.01119E+06         23.7443
             282     8.85228E-03     55.6381E-03         2.80089         2.51538        -5.59633         2.43925        -5.35524         2.63593         1.91708     33.6580E-03    -16.7128E-03    -16.9453E-03    -16.4679E-03     33.1807E-03    -16.7128E-03     9.77656E-03     3.71086E+06    -4.88966E+06    -108.119E+06     3.70410E+06    -108.112E+06    -4.88966E+06     499.932E+03         23.3391
             283     7.86836E-03     55.6284E-03         3.01372         2.65192        -5.95740         2.55411        -5.49780         2.65192         3.95365     33.7546E-03    -16.7944E-03    -16.9602E-03    -16.5384E-03     33.3328E-03    -16.7944E-03     9.20007E-03     4.34146E+06    -1.30271E+06    -127.280E+06     4.33963E+06    -127.279E+06    -1.30271E+06     154.674E+03         23.0927
             284     6.88447E-03     55.6191E-03         2.95140         2.65701        -5.91222         2.65577        -5.61658         2.65701         3.08486     33.9235E-03    -16.8726E-03    -17.0509E-03    -16.6844E-03     33.5570E-03    -16.8726E-03     8.60882E-03     4.49625E+06     3.83967E+06    -139.300E+06     4.36081E+06    -139.296E+06     3.97160E+06     576.555E+03         22.9195
             285     5.90103E-03     55.6107E-03         2.77472         2.63108        -5.71398         2.66274        -5.62632         2.65541         1.56457     34.0542E-03    -16.9114E-03    -17.1428E-03    -16.8357E-03     33.7471E-03    -16.9114E-03     7.88678E-03     4.89948E+06     4.07934E+06    -148.291E+06     4.11194E+06    -148.280E+06     4.85589E+06     1.25419E+06         22.7879
             286     4.91732E-03     55.6025E-03         2.88902         2.63261        -5.83190         2.62663        -5.59384         2.65694         2.40801     34.1065E-03    -16.9362E-03    -17.1703E-03    -16.9447E-03     33.8809E-03    -16.9362E-03     6.75993E-03     5.92134E+06     4.26876E+06    -158.888E+06     4.47073E+06    -158.844E+06     5.67607E+06     2.39784E+06         22.6853
             287     3.93412E-03     55.5964E-03         3.20202         2.65623        -6.16393         2.68158        -5.64350         2.65623         4.28436     34.0729E-03    -16.9469E-03    -17.1260E-03    -16.9713E-03     33.9182E-03    -16.9469E-03     5.59145E-03     6.00583E+06     4.72987E+06    -169.346E+06     4.91300E+06    -169.284E+06     5.76056E+06     2.80454E+06         22.6061
             288     2.95065E-03     55.5906E-03         3.49530         2.63032        -6.42894         2.76490        -5.69854         2.63032         5.16018     33.9808E-03    -16.9371E-03    -17.0437E-03    -16.9358E-03     33.8905E-03    -16.9547E-03     4.21390E-03     5.30266E+06     4.29446E+06    -176.587E+06     4.26698E+06    -176.559E+06     5.30266E+06     1.39894E+06         22.5476
             289     1.96675E-03     55.5870E-03         3.51088         2.58798        -6.40074         2.66673        -5.55659         2.58798     194.223E-03     33.9439E-03    -16.9295E-03    -17.0144E-03    -16.9407E-03     33.9033E-03    -16.9626E-03     2.80728E-03     5.42229E+06     3.42408E+06    -179.025E+06     3.42027E+06    -179.021E+06     5.42229E+06     705.315E+03         22.5080
             290     983.539E-06     55.5846E-03         6.63594    -899.191E-03        -6.03582         6.03612        -5.43600    -899.191E-03    -261.041E-03     33.9161E-03    -16.8748E-03    -17.0413E-03    -17.0024E-03     33.9005E-03    -16.8981E-03     1.70677E-03     3.75770E+06     1.76602E+06    -180.645E+06     2.11207E+06    -180.640E+06     3.40668E+06     885.424E+03         22.4853
             291     16.7302E-03     55.2228E-03         2.14015     542.744E-03        -2.99614     533.700E-03        -2.98710         2.14015    -243.457E-03     253.035E-03    -16.8434E-03    -236.191E-03    -50.3910E-03     67.2344E-03    -16.8434E-03     474.825E-03     195.631E+06     96.0932E+06    -8.37819E+06    -8.36539E+06     195.618E+06     96.0932E+06    -1.30002E+06         67.7352
             292     15.7406E-03     54.8051E-03         2.20753     992.124E-03        -3.53888     843.538E-03        -3.39029         2.20753        -1.42715     138.150E-03    -16.5813E-03    -121.568E-03    -28.1475E-03     44.7288E-03    -16.5813E-03     247.960E-03     151.954E+06     27.8715E+06    -15.8635E+06    -11.2255E+06     151.902E+06     23.2850E+06    -893.490E+03         57.1729
             293     14.7575E-03     54.6956E-03         2.27688         1.49610        -4.12866         1.13360        -3.76615         2.27688        -2.75338     51.1103E-03    -16.2568E-03    -34.8536E-03    -17.1226E-03     33.3794E-03    -16.2568E-03     64.9480E-03     100.667E+06    -10.1275E+06    -45.5911E+06    -10.0023E+06     100.542E+06    -45.5911E+06     1.29781E+06         45.3862
             294     13.7724E-03     54.6701E-03         2.34375         1.70720        -4.41784         1.43406        -4.14470         2.34375        -2.36919     34.3222E-03    -16.1806E-03    -18.1416E-03    -15.8937E-03     32.0743E-03    -16.1806E-03     21.0450E-03     55.9822E+06    -8.31981E+06    -60.7364E+06    -8.20719E+06     55.8695E+06    -60.7364E+06     1.58830E+06         35.8162
             295     12.7878E-03     54.6519E-03         2.39990         1.78727        -4.55806         1.73694        -4.50773         2.39990    -759.431E-03     33.6577E-03    -16.2967E-03    -17.3611E-03    -16.1637E-03     32.4604E-03    -16.2967E-03     15.1684E-03     15.1867E+06    -10.4884E+06    -45.4614E+06    -6.84882E+06     11.5471E+06    -45.4614E+06    -1.50079E+06         29.6119
             296     11.8042E-03     54.6384E-03         2.44321         2.04284        -4.85472         1.98082        -4.79270         2.44321    -919.532E-03     33.4683E-03    -16.4133E-03    -17.0549E-03    -16.4164E-03     32.8298E-03    -16.4133E-03     11.2364E-03    -2.51119E+06    -18.9783E+06    -46.7336E+06    -3.29632E+06    -32.5151E+06    -32.4117E+06    -1.02310E+06         26.2155
             297     10.8203E-03     54.6285E-03         2.50231         2.34662        -5.21403         2.12238        -4.96484         2.47735        -2.62168     33.6336E-03    -16.5278E-03    -17.1057E-03    -16.4694E-03     32.9972E-03    -16.5278E-03     11.2469E-03     505.868E+03    -18.7843E+06    -64.9088E+06     469.227E+03    -64.8721E+06    -18.7843E+06     1.45994E+06         24.5493
             298     9.83621E-03     54.6149E-03         2.53038         2.40462        -5.29854         2.24151        -5.11047         2.50542        -1.79422     33.6744E-03    -16.6309E-03    -17.0435E-03    -16.4439E-03     33.0749E-03    -16.6309E-03     10.8752E-03     2.13165E+06    -7.99403E+06    -87.4808E+06     2.10706E+06    -87.4562E+06    -7.99403E+06     1.22965E+06         23.7542
             299     8.85257E-03     54.6053E-03         2.73541         2.42321        -5.52604         2.40534        -5.29677         2.52401         1.84240     33.6488E-03    -16.7053E-03    -16.9435E-03    -16.4954E-03     33.2007E-03    -16.7053E-03     9.47997E-03     2.58837E+06    -4.25897E+06    -107.780E+06     2.58085E+06    -107.772E+06    -4.25897E+06     853.289E+03         23.3433
             300     7.86853E-03     54.5950E-03         2.99335         2.52843        -5.89608         2.54458        -5.44730         2.52843         3.89211     33.7528E-03    -16.7742E-03    -16.9786E-03    -16.5712E-03     33.3453E-03    -16.7742E-03     9.04517E-03     2.96057E+06    -1.94256E+06    -126.905E+06     2.95554E+06    -126.900E+06    -1.94256E+06     593.232E+03         23.0944
             301     6.88478E-03     54.5860E-03         2.87162         2.52301        -5.77614         2.56789        -5.47241         2.52301         3.10457     33.9418E-03    -16.8371E-03    -17.1047E-03    -16.7554E-03     33.5925E-03    -16.8371E-03     8.41198E-03     3.34533E+06     2.18433E+06    -139.920E+06     3.20477E+06    -139.919E+06     2.32388E+06     307.702E+03         22.9201
             302     5.90112E-03     54.5767E-03         2.61919         2.46873        -5.47347         2.45865        -5.36830         2.52411         1.73342     34.0179E-03    -16.8666E-03    -17.1513E-03    -16.8641E-03     33.7306E-03    -16.8666E-03     7.62243E-03     4.18799E+06     3.14902E+06    -148.803E+06     3.17988E+06    -148.790E+06     4.14440E+06     1.17381E+06         22.7876
             303     4.91778E-03     54.5694E-03         2.70127         2.48680        -5.57685         2.40593        -5.33688         2.54218         2.46614     33.9840E-03    -16.8860E-03    -17.0980E-03    -16.8840E-03     33.7701E-03    -16.8860E-03     6.58033E-03     4.91838E+06     3.15337E+06    -159.411E+06     3.13308E+06    -159.391E+06     4.91838E+06     1.76043E+06         22.6841
             304     3.93400E-03     54.5623E-03         3.07303         2.56274        -6.02694         2.50069        -5.45461         2.56274         4.38608     33.9744E-03    -16.8938E-03    -17.0806E-03    -16.9308E-03     33.8245E-03    -16.8938E-03     5.48382E-03     5.09547E+06     3.53863E+06    -168.618E+06     3.50277E+06    -168.582E+06     5.09547E+06     2.12988E+06         22.6040
             305     2.95070E-03     54.5574E-03         3.41083         2.55323        -6.35956         2.65320        -5.60193         2.55323         5.21667     33.9216E-03    -16.8706E-03    -17.0510E-03    -16.9450E-03     33.8332E-03    -16.8882E-03     4.18393E-03     5.58480E+06     3.79968E+06    -175.159E+06     3.76269E+06    -175.122E+06     5.58480E+06     1.96670E+06         22.5446
             306     1.96731E-03     54.5535E-03         3.30553         2.50385        -6.20269         2.63315        -5.53031         2.50385     621.942E-03     33.8319E-03    -16.8410E-03    -16.9909E-03    -16.9328E-03     33.7914E-03    -16.8586E-03     2.76658E-03     5.95211E+06     2.50237E+06    -177.990E+06     2.49111E+06    -177.978E+06     5.95211E+06     1.04127E+06         22.5043
             307     983.711E-06     54.5509E-03         6.30076        -1.00856        -5.68606         5.95155        -5.33685        -1.00856    -645.219E-03     33.6366E-03    -16.7616E-03    -16.8750E-03    -16.8550E-03     33.6244E-03    -16.7694E-03     1.45231E-03     2.90750E+06    -54.7462E+03    -180.758E+06     592.600E+03    -180.756E+06     2.25755E+06     666.453E+03         22.4811
             308     16.7244E-03     54.1893E-03         2.07165     593.844E-03        -3.05100     583.783E-03        -3.04094         2.07165    -270.072E-03     253.154E-03    -16.9200E-03    -236.234E-03    -50.2161E-03     67.1361E-03    -16.9200E-03     475.101E-03     196.812E+06     95.5191E+06    -6.74832E+06    -6.74384E+06     196.807E+06     95.5191E+06    -433.209E+03         67.6378
             309     15.7425E-03     53.7706E-03         2.12099         1.04129        -3.57656     909.318E-03        -3.44458         2.12099        -1.38111     138.386E-03    -16.6248E-03    -121.761E-03    -29.6752E-03     46.3000E-03    -16.6248E-03     247.681E-03     152.197E+06     29.6518E+06    -16.6612E+06    -10.9067E+06     152.164E+06     23.9305E+06    -902.075E+03         57.1612
             310     14.7567E-03     53.6625E-03         2.17590         1.53246        -4.15231         1.18565        -3.80550         2.17590        -2.70265     50.9930E-03    -16.2398E-03    -34.7533E-03    -17.1104E-03     33.3502E-03    -16.2398E-03     64.6728E-03     97.9719E+06    -10.7753E+06    -48.6208E+06    -10.6246E+06     97.8212E+06    -48.6208E+06    -112.883E+03         45.4546
             311     13.7725E-03     53.6372E-03         2.23196         1.72595        -4.41673         1.44720        -4.13799         2.23196        -2.40874     34.4776E-03    -16.1778E-03    -18.2997E-03    -16.0480E-03     32.2259E-03    -16.1778E-03     21.1198E-03     57.6100E+06    -5.05149E+06    -57.6137E+06    -4.90119E+06     57.4597E+06    -57.6137E+06     1.23302E+06         35.9038
             312     12.7885E-03     53.6183E-03         2.28122         1.72365        -4.46834         1.66975        -4.41444         2.28122    -815.691E-03     33.7024E-03    -16.3101E-03    -17.3924E-03    -16.2264E-03     32.5365E-03    -16.3101E-03     14.9445E-03     20.8150E+06    -7.75945E+06    -36.6554E+06    -1.21869E+06     14.2742E+06    -36.6554E+06     627.674E+03         29.6815
             313     11.8041E-03     53.6055E-03         2.32265         1.91389        -4.69774         1.85137        -4.63522         2.32265    -935.588E-03     33.4313E-03    -16.4120E-03    -17.0193E-03    -16.4096E-03     32.8215E-03    -16.4120E-03     10.9787E-03    -1.36014E+06    -20.0671E+06    -44.3024E+06    -2.23454E+06    -34.9702E+06    -28.5249E+06    -271.249E+03         26.2568
             314     10.8205E-03     53.5946E-03         2.40829         2.22015        -5.08349         2.02670        -4.83751         2.35576        -2.57120     33.6114E-03    -16.5069E-03    -17.1045E-03    -16.5107E-03     33.0176E-03    -16.5069E-03     10.8799E-03    -1.58620E+06    -18.0229E+06    -65.2153E+06    -1.59782E+06    -65.2037E+06    -18.0229E+06     223.249E+03         24.5690
             315     9.83684E-03     53.5823E-03         2.43258         2.29499        -5.18020         2.16342        -4.99610         2.38006        -1.73808     33.6034E-03    -16.6015E-03    -17.0019E-03    -16.4352E-03     33.0368E-03    -16.6015E-03     10.5958E-03     748.554E+03    -7.21017E+06    -86.6946E+06     741.153E+03    -86.6872E+06    -7.21017E+06     564.817E+03         23.7619
             316     8.85252E-03     53.5717E-03         2.62141         2.30928        -5.38324         2.30612        -5.15302         2.39435         1.83811     33.5811E-03    -16.6768E-03    -16.9043E-03    -16.4673E-03     33.1441E-03    -16.6768E-03     9.34785E-03     2.58117E+06    -2.79770E+06    -108.321E+06     2.57289E+06    -108.313E+06    -2.79770E+06     835.664E+03         23.3453
             317     7.86896E-03     53.5621E-03         2.89004         2.39587        -5.74331         2.42840        -5.28166         2.39587         3.88240     33.8155E-03    -16.7350E-03    -17.0805E-03    -16.6790E-03     33.4139E-03    -16.7350E-03     9.00106E-03     3.52312E+06     51.1090E+03    -125.979E+06     3.51502E+06    -125.971E+06     51.1090E+03     885.597E+03         23.0940
             318     6.88530E-03     53.5522E-03         2.75363         2.38937        -5.60364         2.43455        -5.28456         2.38937         3.12211     33.9471E-03    -16.7719E-03    -17.1752E-03    -16.8250E-03     33.5969E-03    -16.7719E-03     8.42082E-03     3.51533E+06     2.31815E+06    -140.271E+06     3.25856E+06    -140.268E+06     2.57156E+06     564.512E+03         22.9183
             319     5.90187E-03     53.5436E-03         2.51016         2.35628        -5.32785         2.35948        -5.20821         2.38733         1.86816     33.9120E-03    -16.7859E-03    -17.1261E-03    -16.8555E-03     33.6414E-03    -16.7859E-03     7.38926E-03     4.20116E+06     2.90864E+06    -149.858E+06     2.89829E+06    -149.848E+06     4.20116E+06     990.810E+03         22.7846
             320     4.91801E-03     53.5357E-03         2.61198         2.36309        -5.44247         2.33810        -5.19964         2.39414         2.53664     33.8132E-03    -16.7951E-03    -17.0181E-03    -16.8179E-03     33.6131E-03    -16.7951E-03     6.35169E-03     5.25087E+06     3.14100E+06    -159.039E+06     3.12750E+06    -159.025E+06     5.25087E+06     1.32374E+06         22.6799
             321     3.93467E-03     53.5292E-03         3.02695         2.40263        -5.90015         2.37037        -5.24358         2.40263         4.59062     33.7500E-03    -16.8021E-03    -16.9478E-03    -16.8101E-03     33.6123E-03    -16.8021E-03     5.23094E-03     5.03281E+06     3.18520E+06    -168.442E+06     3.17845E+06    -168.435E+06     5.03281E+06     1.05879E+06         22.5988
             322     2.95076E-03     53.5238E-03         3.27724         2.39694        -6.15325         2.44903        -5.32503         2.39694         5.32948     33.7249E-03    -16.7931E-03    -16.9318E-03    -16.8425E-03     33.6432E-03    -16.8008E-03     4.02962E-03     5.28992E+06     3.39754E+06    -174.780E+06     3.38561E+06    -174.768E+06     5.28992E+06     1.12924E+06         22.5385
             323     1.96742E-03     53.5200E-03         2.93655         2.37379        -5.78889         2.42297        -5.27718         2.37566         1.18015     33.6580E-03    -16.7689E-03    -16.8890E-03    -16.8402E-03     33.6169E-03    -16.7767E-03     2.78692E-03     6.00273E+06     3.03463E+06    -177.148E+06     3.02397E+06    -177.137E+06     6.00273E+06     938.168E+03         22.4975
             324     983.829E-06     53.5181E-03         5.96605        -1.09132        -5.34910         5.81703        -5.20196        -1.08945        -1.09554     33.4869E-03    -16.6742E-03    -16.8127E-03    -16.8002E-03     33.4744E-03    -16.6742E-03     1.46021E-03     3.94995E+06     1.07038E+06    -179.244E+06     1.36526E+06    -179.240E+06     3.65102E+06     762.199E+03         22.4739
             325     16.7267E-03     53.1522E-03         1.97629     631.460E-03        -3.05142     622.647E-03        -3.04260         1.97629    -237.511E-03     253.914E-03    -16.8943E-03    -237.019E-03    -50.3959E-03     67.2901E-03    -16.8943E-03     476.604E-03     196.466E+06     94.5856E+06    -6.76842E+06    -6.76466E+06     196.462E+06     94.5856E+06    -18.2567E+03         67.5210
             326     15.7407E-03     52.7377E-03         2.00583         1.05534        -3.56117     930.102E-03        -3.43593         2.00583        -1.33522     138.041E-03    -16.6191E-03    -121.422E-03    -29.1758E-03     45.7949E-03    -16.6191E-03     247.152E-03     151.865E+06     28.2279E+06    -16.4222E+06    -11.4857E+06     151.852E+06     23.3050E+06    -220.026E+03         57.1334
             327     14.7570E-03     52.6282E-03         2.04781         1.51925        -4.10026         1.17486        -3.75587         2.04781        -2.67242     51.0628E-03    -16.2245E-03    -34.8383E-03    -17.4243E-03     33.6488E-03    -16.2245E-03     64.1667E-03     98.4587E+06    -10.1522E+06    -51.0139E+06    -10.0984E+06     98.4048E+06    -51.0139E+06    -1.25852E+06         45.5040
             328     13.7729E-03     52.6044E-03         2.09683         1.65590        -4.30152         1.36951        -4.01512         2.09683        -2.41949     34.5855E-03    -16.1205E-03    -18.4650E-03    -16.3166E-03     32.4371E-03    -16.1205E-03     20.7674E-03     56.1236E+06    -6.67027E+06    -65.2989E+06    -6.59777E+06     56.0511E+06    -65.2989E+06    -1.26388E+06         35.9811
             329     12.7886E-03     52.5844E-03         2.14251         1.61929        -4.31711         1.56065        -4.25847         2.14251    -812.583E-03     33.7206E-03    -16.2699E-03    -17.4507E-03    -16.3195E-03     32.5894E-03    -16.2699E-03     14.6713E-03     20.1242E+06    -8.91970E+06    -37.7294E+06    -2.26921E+06     13.4737E+06    -37.7294E+06     1.70793E+06         29.7453
             330     11.8052E-03     52.5728E-03         2.18100         1.80748        -4.53950         1.74602        -4.47804         2.18100    -890.050E-03     33.4052E-03    -16.3772E-03    -17.0279E-03    -16.4494E-03     32.8267E-03    -16.3772E-03     10.7267E-03     1.03735E+06    -19.0279E+06    -40.1667E+06     499.483E+03    -33.5089E+06    -25.1479E+06     2.06530E+06         26.2947
             331     10.8211E-03     52.5609E-03         2.29001         2.08685        -4.92126         1.92690        -4.68154         2.21024        -2.49421     33.5072E-03    -16.4567E-03    -17.0504E-03    -16.4897E-03     32.9464E-03    -16.4567E-03     10.5828E-03     1.30530E+06    -17.1196E+06    -65.2135E+06     1.27489E+06    -65.1830E+06    -17.1196E+06    -22.3364E+03         24.5863
             332     9.83715E-03     52.5493E-03         2.30875         2.17474        -5.02298         2.07592        -4.84439         2.22898        -1.59643     33.5173E-03    -16.5504E-03    -16.9669E-03    -16.4349E-03     32.9853E-03    -16.5504E-03     10.2880E-03     2.33203E+06    -6.29279E+06    -86.8589E+06     2.32464E+06    -86.8515E+06    -6.29279E+06    -72.2989E+03         23.7675
             333     8.85340E-03     52.5387E-03         2.43691         2.18650        -5.16295         2.13573        -4.91602         2.24074         1.93317     33.5736E-03    -16.6149E-03    -16.9587E-03    -16.5290E-03     33.1439E-03    -16.6149E-03     9.27167E-03     3.09546E+06    -2.38241E+06    -108.206E+06     3.09089E+06    -108.201E+06    -2.38241E+06     429.491E+03         23.3455
             334     7.86937E-03     52.5286E-03         2.67297         2.25058        -5.46464         2.16136        -4.95303         2.25058         3.94437     33.7417E-03    -16.6644E-03    -17.0774E-03    -16.6912E-03     33.3555E-03    -16.6644E-03     8.82362E-03     3.61449E+06     995.361E+03    -126.110E+06     3.60759E+06    -126.103E+06     995.361E+03     751.215E+03         23.0916
             335     6.88588E-03     52.5189E-03         2.58241         2.25638        -5.38079         2.23424        -5.03263         2.25638         3.13473     33.8134E-03    -16.6922E-03    -17.1212E-03    -16.7768E-03     33.4691E-03    -16.6922E-03     8.33697E-03     3.89377E+06     3.45681E+06    -139.839E+06     3.72327E+06    -139.833E+06     3.62111E+06     904.120E+03         22.9141
             336     5.90226E-03     52.5100E-03         2.43513         2.25162        -5.22762         2.31404        -5.10654         2.25162         1.87574     33.7976E-03    -16.6994E-03    -17.0983E-03    -16.8242E-03     33.5236E-03    -16.6994E-03     7.42955E-03     5.11892E+06     4.14222E+06    -150.698E+06     4.13995E+06    -150.696E+06     5.11892E+06     541.644E+03         22.7790
             337     4.91897E-03     52.5026E-03         2.55138         2.23558        -5.33051         2.33353        -5.11266         2.23558         2.42668     33.7115E-03    -16.6966E-03    -17.0149E-03    -16.8129E-03     33.5095E-03    -16.6966E-03     6.36633E-03     6.83807E+06     4.64000E+06    -159.027E+06     4.63739E+06    -159.025E+06     6.83807E+06     413.310E+03         22.6731
             338     3.93494E-03     52.4959E-03         2.95850         2.21845        -5.72517         2.26916        -5.03582         2.21845         4.55961     33.5617E-03    -16.6924E-03    -16.8693E-03    -16.7328E-03     33.4252E-03    -16.6924E-03     5.20451E-03     7.26683E+06     4.47468E+06    -168.052E+06     4.47139E+06    -168.049E+06     7.26683E+06     405.277E+03         22.5911
             339     2.95154E-03     52.4908E-03         3.04069         2.20901        -5.80783         2.22238        -4.98953         2.20901         5.08784     33.4360E-03    -16.6868E-03    -16.7492E-03    -16.6571E-03     33.3538E-03    -16.6967E-03     4.01804E-03     6.83004E+06     4.31364E+06    -174.873E+06     4.31070E+06    -174.870E+06     6.83004E+06     484.767E+03         22.5301
             340     1.96734E-03     52.4869E-03         2.55489         2.16595        -5.27533         2.13116        -4.91683         2.23118         1.39788     33.3814E-03    -16.6480E-03    -16.7334E-03    -16.6220E-03     33.3420E-03    -16.7199E-03     2.70777E-03     6.34253E+06     3.91852E+06    -176.933E+06     3.91291E+06    -176.927E+06     6.34253E+06    -64.5834E+03         22.4885
             341     983.629E-06     52.4848E-03         5.83516        -1.20146        -5.18632         5.64823        -5.06461        -1.13624        -1.99621     33.4590E-03    -16.6582E-03    -16.8008E-03    -16.7260E-03     33.4463E-03    -16.7202E-03     1.53504E-03     4.66406E+06     1.94804E+06    -178.334E+06     2.60543E+06    -178.318E+06     3.99023E+06     637.403E+03         22.4644
             342     16.7311E-03     52.1281E-03         1.85153     625.361E-03        -3.00380     619.198E-03        -2.99764         1.85153    -191.638E-03     253.962E-03    -16.8029E-03    -237.159E-03    -50.5288E-03     67.3317E-03    -16.8029E-03     476.740E-03     197.469E+06     97.6996E+06    -6.19298E+06    -6.18760E+06     197.463E+06     97.6996E+06     786.405E+03         67.3919
             343     15.7413E-03     51.7020E-03         1.86291         1.00917        -3.46277     881.133E-03        -3.33473         1.86291        -1.29160     139.001E-03    -16.5475E-03    -122.453E-03    -28.4449E-03     44.9924E-03    -16.5475E-03     249.406E-03     152.698E+06     29.7173E+06    -16.0455E+06    -10.6030E+06     152.681E+06     24.2912E+06    -364.777E+03         57.0981
             344     14.7572E-03     51.5951E-03         1.89443         1.44811        -3.96618         1.10895        -3.62701         1.89443        -2.60843     50.3938E-03    -16.1685E-03    -34.2253E-03    -17.5490E-03     33.7174E-03    -16.1685E-03     62.4665E-03     98.0899E+06    -10.9319E+06    -53.6007E+06    -10.9131E+06     98.0711E+06    -53.6007E+06    -1.07080E+06         45.5420
             345     13.7734E-03     51.5700E-03         1.93680         1.55142        -4.12993         1.28318        -3.86170         1.93680        -2.27571     34.3524E-03    -16.0644E-03    -18.2879E-03    -16.2980E-03     32.3624E-03    -16.0644E-03     19.9013E-03     54.9194E+06    -9.41113E+06    -66.8815E+06    -9.36443E+06     54.8727E+06    -66.8815E+06    -56.2765E+03         36.0511
             346     12.7898E-03     51.5519E-03         1.97786         1.48616        -4.10949         1.43442        -4.05775         1.97786    -667.167E-03     33.5529E-03    -16.1985E-03    -17.3544E-03    -16.2971E-03     32.4956E-03    -16.1985E-03     14.2533E-03     16.5587E+06    -11.6210E+06    -42.1155E+06    -6.63322E+06     11.5709E+06    -42.1155E+06     79.2871E+03         29.8049
             347     11.8053E-03     51.5388E-03         2.01268         1.67746        -4.32999         1.62064        -4.27318         2.01268    -761.707E-03     33.2674E-03    -16.2944E-03    -16.9730E-03    -16.4042E-03     32.6986E-03    -16.2944E-03     10.5917E-03    -989.244E+03    -19.3532E+06    -43.5184E+06    -1.53864E+06    -32.7022E+06    -29.6200E+06     634.242E+03         26.3304
             348     10.8220E-03     51.5283E-03         2.13809         1.94023        -4.71018         1.79945        -4.46909         2.03778        -2.42079     33.3601E-03    -16.3921E-03    -16.9680E-03    -16.4256E-03     32.8178E-03    -16.3921E-03     10.3698E-03     2.46937E+06    -16.9432E+06    -64.0915E+06     2.43180E+06    -64.0540E+06    -16.9432E+06     780.250E+03         24.6022
             349     9.83783E-03     51.5161E-03         2.15442         1.98863        -4.77025         1.90347        -4.58478         2.05411        -1.50368     33.4782E-03    -16.4853E-03    -16.9929E-03    -16.4639E-03     32.9493E-03    -16.4853E-03     10.2503E-03     2.77411E+06    -5.99190E+06    -87.2945E+06     2.75540E+06    -87.2758E+06    -5.99190E+06     284.268E+03         23.7718
             350     8.85396E-03     51.5056E-03         2.24122         2.00342        -4.87090         1.90399        -4.59915         2.06889         2.02916     33.5732E-03    -16.5361E-03    -17.0371E-03    -16.6072E-03     33.1433E-03    -16.5361E-03     9.28521E-03     2.20629E+06    -2.32910E+06    -108.241E+06     2.19916E+06    -108.234E+06    -2.32910E+06     447.036E+03         23.3442
             351     7.87053E-03     51.4954E-03         2.46344         2.08873        -5.17912         1.89040        -4.60608         2.08873         4.02102     33.6459E-03    -16.5680E-03    -17.0779E-03    -16.6890E-03     33.2569E-03    -16.5680E-03     8.84550E-03     2.73160E+06     9.54383E+03    -126.488E+06     2.34103E+06    -126.481E+06     392.200E+03     427.436E+03         23.0876
             352     6.88659E-03     51.4857E-03         2.37772         2.10755        -5.11011         1.99586        -4.72825         2.10755         3.13740     33.5989E-03    -16.5906E-03    -17.0083E-03    -16.6790E-03     33.2696E-03    -16.5906E-03     8.11769E-03     3.96226E+06     3.45670E+06    -139.287E+06     3.52497E+06    -139.283E+06     3.88980E+06     392.956E+03         22.9084
             353     5.90277E-03     51.4769E-03         2.26613         2.11216        -4.99802         2.13676        -4.86865         2.11216         1.90106     33.5192E-03    -16.6015E-03    -16.9177E-03    -16.6527E-03     33.2543E-03    -16.6015E-03     7.28154E-03     5.24992E+06     4.54490E+06    -150.096E+06     4.56686E+06    -150.091E+06     5.22357E+06    -45.8174E+03         22.7718
             354     4.91891E-03     51.4692E-03         2.39269         2.09915        -5.11269         2.19853        -4.91853         2.09915         2.30377     33.5146E-03    -16.6045E-03    -16.9101E-03    -16.7060E-03     33.3105E-03    -16.6045E-03     6.37464E-03     5.93629E+06     4.73856E+06    -159.849E+06     4.73499E+06    -159.845E+06     5.93629E+06    -419.843E+03         22.6650
             355     3.93568E-03     51.4631E-03         2.83949         2.08461        -5.54744         2.11574        -4.82369         2.08461         4.48693     33.4040E-03    -16.6002E-03    -16.8038E-03    -16.6650E-03     33.2652E-03    -16.6002E-03     5.24643E-03     6.50993E+06     4.75389E+06    -168.398E+06     4.75369E+06    -168.398E+06     6.50993E+06    -132.295E+03         22.5822
             356     2.95138E-03     51.4579E-03         2.79207         2.09413        -5.51962         2.01102        -4.73857         2.09413         4.71204     33.2420E-03    -16.5831E-03    -16.6589E-03    -16.5452E-03     33.1552E-03    -16.6100E-03     4.11424E-03     6.76364E+06     4.34965E+06    -174.829E+06     4.34747E+06    -174.827E+06     6.76364E+06     112.986E+03         22.5208
             357     1.96786E-03     51.4541E-03         2.30338         2.03551        -4.96692         1.97217        -4.75316         2.15297         1.40211     33.2213E-03    -16.5489E-03    -16.6724E-03    -16.5410E-03     33.1789E-03    -16.6379E-03     2.81321E-03     6.42227E+06     3.09387E+06    -176.827E+06     3.07858E+06    -176.812E+06     6.42227E+06     367.741E+03         22.4788
             358     983.623E-06     51.4519E-03         6.04196        -1.34034        -5.32537         5.61905        -5.01992        -1.22289        -3.17176     33.2788E-03    -16.5682E-03    -16.7106E-03    -16.6035E-03     33.2654E-03    -16.6619E-03     1.50047E-03     3.34788E+06     170.983E+03    -178.776E+06     817.930E+03    -178.749E+06     2.67404E+06     524.960E+03         22.4544
             359     16.7330E-03     51.1063E-03         1.70015     617.207E-03        -2.94542     611.124E-03        -2.93934         1.70015    -184.152E-03     253.954E-03    -16.7493E-03    -237.205E-03    -51.2377E-03     67.9870E-03    -16.7493E-03     476.444E-03     197.453E+06     96.3146E+06    -5.77667E+06    -5.76263E+06     197.439E+06     96.3146E+06    -280.501E+03         67.2325
             360     15.7434E-03     50.6675E-03         1.69373     960.766E-03        -3.34027     841.647E-03        -3.22115         1.69373        -1.22408     141.127E-03    -16.4662E-03    -124.661E-03    -29.6342E-03     46.1004E-03    -16.4662E-03     253.343E-03     154.473E+06     30.2454E+06    -13.9856E+06    -10.2601E+06     154.411E+06     26.5813E+06     884.225E+03         57.0415
             361     14.7596E-03     50.5616E-03         1.71338         1.34996        -3.78706         1.03053        -3.46764         1.71338        -2.46294     49.6479E-03    -16.0824E-03    -33.5655E-03    -17.1588E-03     33.2411E-03    -16.0824E-03     61.4088E-03     98.1055E+06    -12.3585E+06    -52.4219E+06    -12.8411E+06     98.0449E+06    -51.8787E+06     747.673E+03         45.5742
             362     13.7750E-03     50.5370E-03         1.74788         1.43027        -3.91517         1.18605        -3.67095         1.74788        -2.07278     33.9741E-03    -15.9990E-03    -17.9751E-03    -16.0236E-03     32.0226E-03    -15.9990E-03     19.5832E-03     54.0995E+06    -8.71258E+06    -63.5578E+06    -8.64491E+06     54.0318E+06    -63.5578E+06    -170.740E+03         36.1172
             363     12.7903E-03     50.5186E-03         1.78293         1.33722        -3.85680         1.29720        -3.81678         1.78293    -479.638E-03     33.3561E-03    -16.1378E-03    -17.2183E-03    -16.1753E-03     32.3131E-03    -16.1378E-03     14.1077E-03     16.9493E+06    -8.88472E+06    -38.6077E+06    -3.97450E+06     12.0390E+06    -38.6077E+06    -342.293E+03         29.8629
             364     11.8069E-03     50.5059E-03         1.81541         1.47588        -4.01915         1.41752        -3.96078         1.81541    -655.133E-03     33.0662E-03    -16.2233E-03    -16.8428E-03    -16.2880E-03     32.5114E-03    -16.2233E-03     10.4238E-03    -2.15000E+06    -19.4384E+06    -44.5758E+06    -2.52418E+06    -33.4678E+06    -30.1722E+06    -438.641E+03         26.3657
             365     10.8223E-03     50.4952E-03         1.92575         1.73285        -4.37673         1.55722        -4.11799         1.84264        -2.37974     33.2201E-03    -16.3203E-03    -16.8998E-03    -16.3728E-03     32.6931E-03    -16.3203E-03     10.2013E-03    -1.14140E+06    -18.2309E+06    -64.3831E+06    -1.16032E+06    -64.3642E+06    -18.2309E+06     485.490E+03         24.6179
             366     9.83858E-03     50.4832E-03         1.94830         1.74999        -4.41270         1.62978        -4.20937         1.86518        -1.47933     33.3966E-03    -16.4054E-03    -16.9912E-03    -16.4729E-03     32.8782E-03    -16.4054E-03     10.1383E-03     211.264E+03    -7.05524E+06    -86.9439E+06     195.857E+03    -86.9285E+06    -7.05524E+06     791.218E+03         23.7759
             367     8.85488E-03     50.4724E-03         2.07550         1.77210        -4.56122         1.66517        -4.26608         1.88729         2.06919     33.4319E-03    -16.4467E-03    -16.9852E-03    -16.5522E-03     32.9990E-03    -16.4467E-03     9.30306E-03     1.40441E+06    -3.46659E+06    -108.187E+06     1.39619E+06    -108.179E+06    -3.46659E+06     317.846E+03         23.3426
             368     7.87086E-03     50.4624E-03         2.33364         1.91029        -4.95738         1.71029        -4.33402         1.91029         4.07467     33.5400E-03    -16.4731E-03    -17.0668E-03    -16.6660E-03     33.1391E-03    -16.4731E-03     8.96763E-03     2.46197E+06    -902.196E+03    -126.570E+06     2.06958E+06    -126.560E+06    -519.540E+03     341.873E+03         23.0832
             369     6.88754E-03     50.4525E-03         2.19876         1.93156        -4.83728         1.78446        -4.42299         1.93156         3.15826     33.4619E-03    -16.4814E-03    -16.9806E-03    -16.6460E-03     33.1273E-03    -16.4814E-03     8.16860E-03     2.19472E+06     1.20803E+06    -139.353E+06     1.80376E+06    -139.345E+06     1.59068E+06    -70.9219E+03         22.9024
             370     5.90369E-03     50.4444E-03         2.01424         1.94855        -4.66103         1.85200        -4.49879         1.94855         2.04270     33.2724E-03    -16.4819E-03    -16.7905E-03    -16.5233E-03     33.0052E-03    -16.4819E-03     7.28287E-03     1.97864E+06     1.59398E+06    -149.028E+06     1.82996E+06    -149.021E+06     1.73492E+06    -591.750E+03         22.7647
             371     4.91967E-03     50.4362E-03         2.12037         1.96164        -4.77844         1.89858        -4.55665         1.96164         2.39435     33.1648E-03    -16.4864E-03    -16.6784E-03    -16.4593E-03     32.9614E-03    -16.5021E-03     6.32342E-03     2.66540E+06     1.97184E+06    -160.353E+06     2.40875E+06    -160.346E+06     2.22090E+06    -812.259E+03         22.6570
             372     3.93538E-03     50.4302E-03         2.72919         1.98043        -5.40620         1.87362        -4.55063         1.98043         4.71389     33.1680E-03    -16.5080E-03    -16.6600E-03    -16.5067E-03     33.0303E-03    -16.5237E-03     5.20386E-03     3.16840E+06     2.40530E+06    -169.085E+06     2.93743E+06    -169.081E+06     2.63152E+06    -588.404E+03         22.5739
             373     2.95196E-03     50.4252E-03         2.73308         2.01258        -5.45013         1.89661        -4.61366         2.01258         4.62623     33.1587E-03    -16.5193E-03    -16.6393E-03    -16.5285E-03     33.0726E-03    -16.5441E-03     4.09129E-03     4.13289E+06     2.87381E+06    -175.420E+06     2.96383E+06    -175.418E+06     4.04051E+06    -15.8230E+03         22.5122
             374     1.96747E-03     50.4215E-03         2.15962         1.99291        -4.84645         1.93758        -4.69428         2.06279         1.71663     33.1357E-03    -16.5190E-03    -16.6167E-03    -16.5362E-03     33.0905E-03    -16.5543E-03     2.94711E-03     5.41061E+06     2.17032E+06    -177.601E+06     2.15882E+06    -177.589E+06     5.41061E+06     637.298E+03         22.4701
             375     984.268E-06     50.4186E-03         6.36759        -1.46743        -5.58596         5.58504        -4.87329        -1.39755        -4.17407     33.0838E-03    -16.4927E-03    -16.5911E-03    -16.5328E-03     33.0677E-03    -16.5349E-03     1.57821E-03     3.87762E+06     964.381E+03    -178.142E+06     1.27053E+06    -178.128E+06     3.55819E+06     40.5528E+03         22.4456
             376     16.7270E-03     50.0713E-03         1.52715     658.948E-03        -2.92090     651.647E-03        -2.91360         1.52715    -163.157E-03     253.706E-03    -16.7404E-03    -236.965E-03    -52.2192E-03     68.9596E-03    -16.7404E-03     475.454E-03     196.179E+06     92.2568E+06    -6.38825E+06    -6.36414E+06     196.155E+06     92.2568E+06     265.358E+03         67.0400
             377     15.7458E-03     49.6343E-03         1.50106     937.157E-03        -3.24038     829.115E-03        -3.13233         1.50106        -1.16360     140.929E-03    -16.3944E-03    -124.534E-03    -30.9547E-03     47.3491E-03    -16.3944E-03     252.656E-03     153.722E+06     26.7413E+06    -13.3508E+06    -12.2123E+06     153.658E+06     25.6663E+06     1.16244E+06         56.9681
             378     14.7604E-03     49.5282E-03         1.50753         1.25894        -3.59869     946.067E-03        -3.28582         1.50753        -2.35426     49.4329E-03    -16.0137E-03    -33.4192E-03    -16.4656E-03     32.4793E-03    -16.0137E-03     61.8861E-03     101.073E+06    -10.4326E+06    -45.6513E+06    -10.9089E+06     101.006E+06    -45.1081E+06     205.629E+03         45.6050
             379     13.7758E-03     49.5047E-03         1.53523         1.27639        -3.64782         1.02733        -3.39875         1.53523        -2.00161     33.8372E-03    -15.9280E-03    -17.9092E-03    -15.8536E-03     31.7816E-03    -15.9280E-03     20.0903E-03     53.5268E+06    -6.51159E+06    -62.9279E+06    -6.45240E+06     53.4676E+06    -62.9279E+06    -1.55254E+06         36.1818
             380     12.7917E-03     49.4852E-03         1.56643         1.16292        -3.55849         1.12278        -3.51835         1.56643    -429.332E-03     33.2520E-03    -16.0694E-03    -17.1826E-03    -16.0614E-03     32.1308E-03    -16.0694E-03     14.5027E-03     15.1116E+06    -7.77931E+06    -39.3517E+06    -3.54561E+06     10.8779E+06    -39.3517E+06     235.618E+03         29.9210
             381     11.8071E-03     49.4733E-03         1.59759         1.25228        -3.66506         1.18799        -3.60077         1.59759    -624.002E-03     33.0120E-03    -16.1678E-03    -16.8442E-03    -16.2799E-03     32.4477E-03    -16.1678E-03     10.5248E-03    -1.73721E+06    -18.8741E+06    -41.2283E+06    -2.02055E+06    -32.1884E+06    -27.6306E+06     1.08007E+06         26.4020
             382     10.8235E-03     49.4623E-03         1.66656         1.48600        -3.95627         1.23669        -3.67046         1.63006        -2.33858     33.1680E-03    -16.2469E-03    -16.9211E-03    -16.3768E-03     32.6237E-03    -16.2469E-03     10.3715E-03    -1.09600E+06    -18.7067E+06    -65.2879E+06    -1.11276E+06    -65.2712E+06    -18.7067E+06    -71.2383E+03         24.6350
             383     9.83964E-03     49.4501E-03         1.69928         1.50838        -4.00673         1.31827        -3.78012         1.66278        -1.40610     33.2668E-03    -16.3287E-03    -16.9381E-03    -16.4026E-03     32.7313E-03    -16.3287E-03     10.2909E-03     1.12419E+06    -6.88136E+06    -86.6261E+06     1.11661E+06    -86.6185E+06    -6.88136E+06     116.916E+03         23.7811
             384     8.85543E-03     49.4399E-03         1.90148         1.53782        -4.23913         1.43254        -3.92460         1.69223         2.10679     33.3295E-03    -16.3670E-03    -16.9625E-03    -16.5070E-03     32.8740E-03    -16.3670E-03     9.52277E-03     2.42355E+06    -3.55984E+06    -107.859E+06     2.41871E+06    -107.855E+06    -3.55984E+06     216.221E+03         23.3417
             385     7.87186E-03     49.4291E-03         2.22325         1.71510        -4.73531         1.54762        -4.05968         1.71510         4.11595     33.3532E-03    -16.3950E-03    -16.9582E-03    -16.5503E-03     32.9453E-03    -16.3950E-03     9.01780E-03     2.30823E+06    -1.08447E+06    -127.325E+06     2.30214E+06    -127.319E+06    -1.08447E+06     439.709E+03         23.0795
             386     6.88769E-03     49.4200E-03         2.06625         1.73224        -4.58650         1.61233        -4.13259         1.73224         3.19859     33.2888E-03    -16.4096E-03    -16.8792E-03    -16.5328E-03     32.9424E-03    -16.4096E-03     8.29811E-03     2.75584E+06     1.80831E+06    -138.339E+06     2.74852E+06    -138.332E+06     1.80831E+06     55.4613E+03         22.8974
             387     5.90394E-03     49.4113E-03         1.80607         1.75209        -4.33302         1.59602        -4.12297         1.75209         2.21629     33.2008E-03    -16.4122E-03    -16.7886E-03    -16.5093E-03     32.9216E-03    -16.4122E-03     7.43763E-03     3.07183E+06     2.13847E+06    -149.343E+06     3.01324E+06    -149.337E+06     2.19106E+06    -648.852E+03         22.7590
             388     4.92004E-03     49.4042E-03         1.85781         1.78322        -4.41055         1.58685        -4.13959         1.78322         2.53679     33.0253E-03    -16.4105E-03    -16.6148E-03    -16.3890E-03     32.8152E-03    -16.4262E-03     6.42282E-03     2.99188E+06     1.91165E+06    -160.517E+06     2.76134E+06    -160.508E+06     2.13300E+06    -349.706E+03         22.6510
             389     3.93595E-03     49.3975E-03         2.68708         1.82194        -5.27749         1.65910        -4.24951         1.82194         5.04695     32.9629E-03    -16.4374E-03    -16.5255E-03    -16.3688E-03     32.8222E-03    -16.4534E-03     5.22645E-03     2.09969E+06     1.11224E+06    -169.426E+06     1.64061E+06    -169.418E+06     1.56281E+06    -417.303E+03         22.5675
             390     2.95157E-03     49.3926E-03         2.79668         1.84166        -5.41041         1.83894        -4.45267         1.84166         4.72747     33.0484E-03    -16.4731E-03    -16.5754E-03    -16.4916E-03     32.9650E-03    -16.4734E-03     4.02638E-03     2.24883E+06     1.06711E+06    -176.025E+06     1.15257E+06    -176.018E+06     2.15645E+06    -521.818E+03         22.5058
             391     1.96833E-03     49.3888E-03         2.09290         1.82413        -4.66843         1.84483        -4.43614         1.83991         2.32721     32.9797E-03    -16.4319E-03    -16.5477E-03    -16.4569E-03     32.9355E-03    -16.4786E-03     2.90065E-03     3.62313E+06     1.43186E+06    -177.630E+06     1.42555E+06    -177.624E+06     3.62313E+06    -439.176E+03         22.4637
             392     983.570E-06     49.3863E-03         6.82160        -1.73080        -5.83774         5.38986        -4.42177        -1.71502        -5.04924     32.9547E-03    -16.4396E-03    -16.5151E-03    -16.4430E-03     32.9365E-03    -16.4935E-03     1.78631E-03     2.91235E+06     951.876E+03    -178.793E+06     1.27016E+06    -178.792E+06     2.59292E+06    -445.800E+03         22.4392
             393     16.7305E-03     49.0298E-03         1.33702     724.985E-03        -2.93114     719.969E-03        -2.92612         1.33702    -123.275E-03     252.104E-03    -16.6377E-03    -235.467E-03    -52.7012E-03     69.3389E-03    -16.6377E-03     471.981E-03     196.743E+06     96.7829E+06    -7.11846E+06    -7.10133E+06     196.726E+06     96.7829E+06     884.399E+03         66.8733
             394     15.7484E-03     48.6041E-03         1.29219     910.156E-03        -3.13119     798.153E-03        -3.01919         1.29219        -1.11082     139.372E-03    -16.2711E-03    -123.101E-03    -29.2461E-03     45.5173E-03    -16.2711E-03     250.697E-03     153.994E+06     31.8504E+06    -16.3008E+06    -9.69609E+06     153.951E+06     25.2886E+06    -786.450E+03         56.9237
             395     14.7612E-03     48.4955E-03         1.29379         1.14369        -3.38080     811.565E-03        -3.04321         1.28832        -2.34253     49.6950E-03    -15.9382E-03    -33.7568E-03    -15.9947E-03     31.9329E-03    -15.9382E-03     63.2439E-03     100.475E+06    -8.17176E+06    -47.1487E+06    -8.09287E+06     100.396E+06    -47.1487E+06    -1.00716E+06         45.6416
             396     13.7765E-03     48.4718E-03         1.31696         1.11397        -3.36823     840.205E-03        -3.08900         1.31149        -2.04134     33.7103E-03    -15.9050E-03    -17.8052E-03    -15.6582E-03     31.5632E-03    -15.9050E-03     20.4826E-03     53.8345E+06    -7.49590E+06    -60.0108E+06    -7.36025E+06     53.6989E+06    -60.0108E+06     1.08540E+06         36.2490
             397     12.7918E-03     48.4526E-03         1.34055     966.708E-03        -3.22943     915.611E-03        -3.17833         1.34055    -502.862E-03     33.2562E-03    -16.0290E-03    -17.2273E-03    -16.0035E-03     32.0325E-03    -16.0290E-03     15.1912E-03     13.7400E+06    -10.2668E+06    -41.8322E+06    -6.48785E+06     9.96107E+06    -41.8322E+06     601.855E+03         29.9813
             398     11.8080E-03     48.4403E-03         1.36983         1.04745        -3.31950     986.041E-03        -3.25809         1.36983    -596.267E-03     33.0777E-03    -16.1174E-03    -16.9603E-03    -16.3336E-03     32.4510E-03    -16.1174E-03     11.0762E-03    -2.53437E+06    -18.7169E+06    -42.8467E+06    -2.93649E+06    -30.9790E+06    -30.1825E+06    -16.8979E+03         26.4405
             399     10.8240E-03     48.4292E-03         1.43100         1.26919        -3.58690     997.873E-03        -3.28615         1.40158        -2.23955     33.1671E-03    -16.2076E-03    -16.9595E-03    -16.3754E-03     32.5830E-03    -16.2076E-03     10.7410E-03     967.721E+03    -17.5139E+06    -64.9179E+06     953.896E+03    -64.9041E+06    -17.5139E+06    -69.4744E+03         24.6541
             400     9.83971E-03     48.4179E-03         1.46692         1.25274        -3.60032         1.03400        -3.35214         1.43749        -1.27545     33.2524E-03    -16.2836E-03    -16.9687E-03    -16.3777E-03     32.6613E-03    -16.2836E-03     10.8172E-03     1.88485E+06    -7.08582E+06    -87.3138E+06     1.87939E+06    -87.3083E+06    -7.08582E+06    -6.95934E+03         23.7880
             401     8.85613E-03     48.4064E-03         1.68426         1.28797        -3.85194         1.15646        -3.50889         1.47272         2.16445     33.3105E-03    -16.3275E-03    -16.9830E-03    -16.4889E-03     32.8164E-03    -16.3275E-03     9.91067E-03     1.76979E+06    -2.67936E+06    -108.560E+06     1.76389E+06    -108.554E+06    -2.67936E+06     665.232E+03         23.3427
             402     7.87208E-03     48.3969E-03         2.05991         1.50021        -4.43635         1.30520        -3.68164         1.50021         4.15310     33.2663E-03    -16.3508E-03    -16.9155E-03    -16.4826E-03     32.8334E-03    -16.3508E-03     9.27705E-03     2.97257E+06    -229.782E+03    -126.465E+06     2.96064E+06    -126.453E+06    -229.782E+03     139.017E+03         23.0778
             403     6.88822E-03     48.3870E-03         1.90127         1.51942        -4.28471         1.39275        -3.77619         1.51942         3.21421     33.1720E-03    -16.3706E-03    -16.8013E-03    -16.4380E-03     32.8087E-03    -16.3706E-03     8.47084E-03     4.61933E+06     2.97106E+06    -137.236E+06     4.60440E+06    -137.221E+06     2.97106E+06    -925.930E+03         22.8946
             404     5.90414E-03     48.3789E-03         1.62271         1.54063        -4.01104         1.37367        -3.76200         1.54063         2.28945     33.1040E-03    -16.3882E-03    -16.7159E-03    -16.4326E-03     32.8208E-03    -16.3882E-03     7.47783E-03     5.19343E+06     3.79833E+06    -150.819E+06     5.18022E+06    -150.806E+06     3.79833E+06    -460.354E+03         22.7558
             405     4.92015E-03     48.3714E-03         1.66976         1.57106        -4.08089         1.39055        -3.80168         1.57106         2.45590     33.0663E-03    -16.4001E-03    -16.6661E-03    -16.4491E-03     32.8493E-03    -16.4001E-03     6.53470E-03     5.40823E+06     3.40439E+06    -160.987E+06     4.48826E+06    -160.979E+06     4.31563E+06     533.863E+03         22.6477
             406     3.93616E-03     48.3654E-03         2.64557         1.59643        -5.07622         1.52661        -3.95726         1.59643         5.05535     32.9910E-03    -16.4118E-03    -16.5791E-03    -16.4300E-03     32.8421E-03    -16.4122E-03     5.38684E-03     5.62680E+06     3.89353E+06    -169.136E+06     3.88910E+06    -169.132E+06     5.62680E+06     383.218E+03         22.5643
             407     2.95234E-03     48.3599E-03         2.72275         1.58776        -5.14138         1.68455        -4.10318         1.58776         4.56712     32.8939E-03    -16.3878E-03    -16.5062E-03    -16.3900E-03     32.8049E-03    -16.4149E-03     4.14146E-03     4.23159E+06     2.95345E+06    -175.792E+06     2.99334E+06    -175.786E+06     4.18627E+06    -439.469E+03         22.5024
             408     1.96781E-03     48.3563E-03         2.04670         1.55136        -4.40415         1.62830        -3.98576         1.55136         2.77016     32.8729E-03    -16.3511E-03    -16.5217E-03    -16.4147E-03     32.8288E-03    -16.4141E-03     2.87335E-03     3.42608E+06     1.50780E+06    -178.206E+06     1.54613E+06    -178.199E+06     3.38077E+06    -832.105E+03         22.4603
             409     984.279E-06     48.3542E-03         7.53484        -2.14541        -6.16648         5.20883        -3.84047        -2.14541        -5.93191     32.8057E-03    -16.3123E-03    -16.4934E-03    -16.4325E-03     32.7881E-03    -16.3556E-03     1.80049E-03     1.05289E+06    -1.02414E+06    -180.075E+06    -670.832E+03    -180.071E+06     695.336E+03    -312.977E+03         22.4358
             410     16.7431E-03     48.0075E-03         1.13637     764.896E-03        -2.92146     761.414E-03        -2.91798         1.13637    -123.048E-03     251.443E-03    -16.5469E-03    -234.896E-03    -52.1875E-03     68.7344E-03    -16.5469E-03     470.955E-03     196.402E+06     98.8308E+06    -7.96731E+06    -7.95147E+06     196.387E+06     98.8308E+06    -1.47853E+06         66.7479
             411     15.7473E-03     47.5728E-03         1.07754     868.669E-03        -2.99558     752.158E-03        -2.87907         1.07754        -1.07886     142.402E-03    -16.2229E-03    -126.179E-03    -28.5547E-03     44.7776E-03    -16.2229E-03     257.078E-03     154.721E+06     31.8697E+06    -15.8199E+06    -8.60509E+06     154.677E+06     24.6984E+06    -839.022E+03         56.8953
             412     14.7619E-03     47.4636E-03         1.10347         1.00327        -3.15756     676.847E-03        -2.79269         1.06501        -2.32373     50.2008E-03    -15.9218E-03    -34.2790E-03    -16.5512E-03     32.4730E-03    -15.9218E-03     64.2602E-03     97.6121E+06    -9.67534E+06    -50.5771E+06    -9.57802E+06     97.5148E+06    -50.5771E+06     1.06670E+06         45.6821
             413     13.7765E-03     47.4391E-03         1.12162     937.459E-03        -3.09546     667.260E-03        -2.78681         1.08316        -2.04264     33.6539E-03    -15.9002E-03    -17.7537E-03    -15.4631E-03     31.3633E-03    -15.9002E-03     21.0675E-03     53.7169E+06    -8.07619E+06    -58.1649E+06    -7.89709E+06     53.5378E+06    -58.1649E+06     3.08180E+06         36.3233
             414     12.7919E-03     47.4203E-03         1.10845     785.097E-03        -2.90705     725.869E-03        -2.84782         1.10845    -515.182E-03     33.3145E-03    -16.0242E-03    -17.2904E-03    -16.0186E-03     32.0427E-03    -16.0242E-03     15.5128E-03     16.9318E+06    -8.13370E+06    -39.2809E+06    -4.66978E+06     13.4678E+06    -39.2809E+06     495.162E+03         30.0463
             415     11.8077E-03     47.4067E-03         1.13380     861.791E-03        -2.98246     801.791E-03        -2.92246         1.13380    -545.325E-03     32.9893E-03    -16.1036E-03    -16.8857E-03    -16.2369E-03     32.3405E-03    -16.1036E-03     11.2516E-03    -1.65447E+06    -16.6834E+06    -47.1152E+06    -2.02539E+06    -31.9552E+06    -31.4725E+06    -1.49807E+06         26.4825
             416     10.8238E-03     47.3971E-03         1.23792         1.06537        -3.26885     834.483E-03        -2.95978         1.15973        -2.13885     33.1360E-03    -16.2087E-03    -16.9272E-03    -16.3109E-03     32.5196E-03    -16.2087E-03     11.0138E-03    -335.874E+03    -17.7788E+06    -65.6132E+06    -346.739E+03    -65.6024E+06    -17.7788E+06    -63.8326E+03         24.6758
             417     9.84010E-03     47.3846E-03         1.26877     997.096E-03        -3.22138     814.324E-03        -2.96042         1.19058        -1.19766     33.3275E-03    -16.2787E-03    -17.0489E-03    -16.4061E-03     32.6848E-03    -16.2787E-03     11.2916E-03     702.021E+03    -8.52923E+06    -87.4338E+06     696.751E+03    -87.4286E+06    -8.52923E+06     570.931E+03         23.7975
             418     8.85591E-03     47.3741E-03         1.43440         1.03409        -3.42087     851.557E-03        -3.03151         1.22757         2.16531     33.3324E-03    -16.3277E-03    -17.0046E-03    -16.4694E-03     32.7971E-03    -16.3277E-03     10.3134E-03     1.75659E+06    -2.89877E+06    -109.184E+06     1.75194E+06    -109.179E+06    -2.89877E+06     589.043E+03         23.3461
             419     7.87211E-03     47.3638E-03         1.82850         1.26475        -4.04041     964.903E-03        -3.17681         1.26475         4.14344     33.2872E-03    -16.3418E-03    -16.9454E-03    -16.4836E-03     32.8254E-03    -16.3418E-03     9.58383E-03     2.94934E+06    -1.53521E+06    -123.965E+06     2.93266E+06    -123.948E+06    -1.53521E+06    -550.429E+03         23.0787
             420     6.88820E-03     47.3546E-03         1.66356         1.29139        -3.88870         1.07602        -3.30691         1.29714         3.20168     33.1717E-03    -16.3613E-03    -16.8104E-03    -16.4191E-03     32.7804E-03    -16.3613E-03     8.79416E-03     3.04225E+06    -135.857E+03    -138.185E+06     3.02055E+06    -138.163E+06    -135.857E+03    -1.30226E+06         22.8945
             421     5.90416E-03     47.3463E-03         1.43043         1.32156        -3.66866         1.13316        -3.37714         1.32731         2.33103     33.1062E-03    -16.3930E-03    -16.7132E-03    -16.4060E-03     32.7990E-03    -16.3930E-03     7.78077E-03     3.00959E+06     1.40098E+06    -152.560E+06     2.30515E+06    -152.548E+06     2.09353E+06     8.86628E+03         22.7557
             422     4.92005E-03     47.3390E-03         1.49110         1.35515        -3.75151         1.22330        -3.48371         1.35515         2.23692     33.0774E-03    -16.3997E-03    -16.6777E-03    -16.4457E-03     32.8454E-03    -16.3997E-03     6.75693E-03     3.42185E+06     428.490E+03    -160.633E+06     1.98268E+06    -160.629E+06     1.86352E+06     615.557E+03         22.6477
             423     3.93625E-03     47.3326E-03         2.49423         1.37349        -4.76313         1.32201        -3.59091         1.37349         4.81639     33.0297E-03    -16.4063E-03    -16.6234E-03    -16.4598E-03     32.8661E-03    -16.4063E-03     5.65859E-03     3.92056E+06     1.63590E+06    -169.193E+06     2.63663E+06    -169.192E+06     2.91860E+06     269.690E+03         22.5645
             424     2.95212E-03     47.3278E-03         2.53303         1.36951        -4.78946         1.42627        -3.68270         1.36951         4.12300     32.9314E-03    -16.3848E-03    -16.5466E-03    -16.4193E-03     32.8310E-03    -16.4116E-03     4.40108E-03     4.09122E+06     2.57811E+06    -175.659E+06     2.74034E+06    -175.654E+06     3.92405E+06     527.937E+03         22.5026
             425     1.96822E-03     47.3240E-03         2.06319         1.34936        -4.26715         1.38966        -3.59362         1.34936         2.97851     32.8905E-03    -16.3691E-03    -16.5214E-03    -16.4435E-03     32.8394E-03    -16.3959E-03     3.10471E-03     3.43927E+06     812.207E+03    -178.812E+06     850.365E+03    -178.805E+06     3.39395E+06     312.945E+03         22.4604
             426     984.140E-06     47.3212E-03         8.41561        -2.41369        -6.82035         5.09285        -3.49758        -2.41369        -6.90396     32.7427E-03    -16.2896E-03    -16.4531E-03    -16.4351E-03     32.7247E-03    -16.2896E-03     1.69639E-03     1.20145E+06    -1.08111E+06    -180.946E+06    -578.634E+03    -180.942E+06     694.907E+03     35.0634E+03         22.4358
             427     16.7304E-03     46.9839E-03     934.223E-03     787.997E-03        -2.87345     781.905E-03        -2.86735     934.223E-03    -167.374E-03     251.508E-03    -16.7300E-03    -234.778E-03    -51.4243E-03     68.1543E-03    -16.7300E-03     471.175E-03     197.276E+06     96.2664E+06    -5.98643E+06    -5.95969E+06     197.250E+06     96.2664E+06    -581.782E+03         66.6099
             428     15.7433E-03     46.5352E-03     904.130E-03     800.853E-03        -2.86456     727.563E-03        -2.75223     865.083E-03        -1.07779     143.968E-03    -16.3439E-03    -127.624E-03    -31.8171E-03     48.1610E-03    -16.3439E-03     258.322E-03     151.537E+06     24.5385E+06    -16.9851E+06    -12.4385E+06     151.523E+06     20.0062E+06     53.4940E+03         56.8476
             429     14.7619E-03     46.4317E-03         1.00460     832.647E-03        -2.98868     625.643E-03        -2.61898     841.899E-03        -2.25805     49.9585E-03    -15.9733E-03    -33.9852E-03    -16.8264E-03     32.7997E-03    -15.9733E-03     63.4447E-03     95.6281E+06    -12.9905E+06    -49.4186E+06    -12.9563E+06     95.5939E+06    -49.4186E+06     1.50930E+06         45.7306
             430     13.7763E-03     46.4073E-03     974.102E-03     746.665E-03        -2.85028     546.464E-03        -2.52643     850.451E-03        -2.00094     34.1919E-03    -15.9050E-03    -18.2868E-03    -15.8040E-03     31.7090E-03    -15.9050E-03     22.1365E-03     54.5765E+06    -7.50914E+06    -59.8636E+06    -7.43440E+06     54.5018E+06    -59.8636E+06     1.03294E+06         36.4039
             431     12.7922E-03     46.3865E-03     869.119E-03     614.034E-03        -2.58200     550.823E-03        -2.51879     869.119E-03    -489.027E-03     33.3745E-03    -16.0272E-03    -17.3473E-03    -16.0120E-03     32.0392E-03    -16.0272E-03     15.8429E-03     19.7522E+06    -5.92413E+06    -38.3061E+06    -2.22821E+06     16.0562E+06    -38.3061E+06     226.549E+03         30.1173
             432     11.8081E-03     46.3749E-03     890.362E-03     669.515E-03        -2.62530     595.917E-03        -2.55170     890.362E-03    -554.488E-03     32.8703E-03    -16.1302E-03    -16.7401E-03    -16.0698E-03     32.2000E-03    -16.1302E-03     11.4222E-03    -166.729E+03    -17.1048E+06    -45.5318E+06    -384.224E+03    -33.3909E+06    -29.0282E+06     55.2131E+03         26.5289
             433     10.8235E-03     46.3637E-03         1.05881     843.127E-03        -2.93978     631.984E-03        -2.58250     912.676E-03        -2.15403     33.1369E-03    -16.2330E-03    -16.9039E-03    -16.2464E-03     32.4794E-03    -16.2330E-03     11.3733E-03     428.188E+03    -18.1114E+06    -66.2779E+06     413.864E+03    -66.2636E+06    -18.1114E+06     101.897E+03         24.7010
             434     9.83936E-03     46.3522E-03         1.08475     768.999E-03        -2.87606     620.498E-03        -2.58143     938.611E-03        -1.24142     33.3949E-03    -16.3106E-03    -17.0842E-03    -16.4228E-03     32.7334E-03    -16.3106E-03     11.4658E-03     1.87049E+06    -8.02426E+06    -87.1564E+06     1.86506E+06    -87.1509E+06    -8.02426E+06     60.0476E+03         23.8100
             435     8.85560E-03     46.3410E-03         1.18927     802.900E-03        -3.00773     600.603E-03        -2.58868     972.512E-03         2.04856     33.4035E-03    -16.3573E-03    -17.0461E-03    -16.4948E-03     32.8521E-03    -16.3573E-03     10.4809E-03     3.73613E+06    -2.89852E+06    -108.610E+06     3.73166E+06    -108.606E+06    -2.89852E+06    -276.453E+03         23.3524
             436     7.87176E-03     46.3312E-03         1.61844         1.01423        -3.64101     637.829E-03        -2.66039         1.01423         4.08189     33.3176E-03    -16.3868E-03    -16.9308E-03    -16.4651E-03     32.8518E-03    -16.3868E-03     9.62099E-03     4.23032E+06     291.290E+03    -123.239E+06     4.18284E+06    -123.219E+06     319.231E+03    -196.450E+03         23.0823
             437     6.88768E-03     46.3221E-03         1.44518         1.04219        -3.48278     746.652E-03        -2.79978         1.05771         3.20418     33.2492E-03    -16.4132E-03    -16.8360E-03    -16.4418E-03     32.8549E-03    -16.4132E-03     8.84401E-03     3.05764E+06     976.024E+03    -139.715E+06     3.01226E+06    -139.697E+06     1.00396E+06     510.100E+03         22.8973
             438     5.90371E-03     46.3137E-03         1.25124         1.08143        -3.31015     868.577E-03        -2.94301         1.09695         2.43030     33.2274E-03    -16.4376E-03    -16.7898E-03    -16.4749E-03     32.9125E-03    -16.4376E-03     7.88924E-03     2.91932E+06     1.54525E+06    -153.085E+06     2.22280E+06    -153.081E+06     2.23781E+06     676.119E+03         22.7584
             439     4.91997E-03     46.3064E-03         1.29613         1.10422        -3.36558     956.315E-03        -3.05337         1.13181         2.18827     33.1149E-03    -16.4412E-03    -16.6737E-03    -16.4368E-03     32.8780E-03    -16.4412E-03     6.83854E-03     2.92368E+06     484.865E+03    -159.974E+06     2.22887E+06    -159.971E+06     1.17742E+06     304.761E+03         22.6508
             440     3.93569E-03     46.3002E-03         2.36374         1.14173        -4.45849     998.647E-03        -3.12099         1.16933         4.82971     33.0537E-03    -16.4621E-03    -16.5915E-03    -16.4215E-03     32.8836E-03    -16.4621E-03     5.76697E-03     2.39935E+06     532.062E+03    -169.489E+06     2.05582E+06    -169.488E+06     874.391E+03     81.7777E+03         22.5678
             441     2.95186E-03     46.2952E-03         2.42222         1.18301        -4.54822         1.10564        -3.25515         1.20652         3.84604     33.1184E-03    -16.4807E-03    -16.6378E-03    -16.5320E-03     33.0126E-03    -16.4807E-03     4.54369E-03     3.22616E+06     1.54107E+06    -176.257E+06     1.65719E+06    -176.251E+06     3.10432E+06     668.456E+03         22.5062
             442     1.96799E-03     46.2915E-03         2.17961         1.22562        -4.31245         1.14382        -3.30016         1.24912         3.25248     33.0263E-03    -16.4483E-03    -16.5779E-03    -16.5147E-03     32.9724E-03    -16.4577E-03     3.16561E-03     3.85495E+06     1.02156E+06    -178.286E+06     1.01599E+06    -178.281E+06     3.85495E+06     801.046E+03         22.4640
             443     984.029E-06     46.2890E-03         9.46007        -2.54510        -7.80601         5.09427        -3.44021        -2.54510        -7.91921     32.8646E-03    -16.3766E-03    -16.4880E-03    -16.3851E-03     32.8474E-03    -16.4623E-03     1.67990E-03     1.93744E+06     83.1349E+03    -181.038E+06     324.197E+03    -181.037E+06     1.69560E+06     270.420E+03         22.4392
             444     16.7175E-03     45.9288E-03     827.910E-03     721.509E-03        -2.80530     805.210E-03        -2.79896     737.864E-03    -180.310E-03     250.384E-03    -16.8584E-03    -233.525E-03    -51.5177E-03     68.3761E-03    -16.8584E-03     468.676E-03     197.901E+06     96.1851E+06    -5.50074E+06    -5.48271E+06     197.883E+06     96.1851E+06     1.03265E+06         66.4918
             445     15.7490E-03     45.5044E-03     833.041E-03     657.214E-03        -2.74884     711.542E-03        -2.62949     659.369E-03        -1.08629     139.205E-03    -16.4167E-03    -122.789E-03    -31.9316E-03     48.3483E-03    -16.4167E-03     248.727E-03     151.349E+06     25.9253E+06    -17.3179E+06    -12.5156E+06     151.341E+06     21.1306E+06     566.562E+03         56.8296
             446     14.7588E-03     45.3986E-03         1.00208     625.477E-03        -2.86925     609.428E-03        -2.47659     625.477E-03        -2.28259     49.9982E-03    -16.0071E-03    -33.9910E-03    -16.2361E-03     32.2433E-03    -16.0071E-03     63.7237E-03     96.2597E+06    -11.6576E+06    -48.6766E+06    -11.5795E+06     96.1816E+06    -48.6766E+06    -745.426E+03         45.7966
             447     13.7760E-03     45.3737E-03     888.532E-03     581.195E-03        -2.68014     493.128E-03        -2.32502     621.487E-03        -2.05321     34.5210E-03    -15.9368E-03    -18.5842E-03    -16.0990E-03     32.0358E-03    -15.9368E-03     22.3343E-03     54.5682E+06    -6.07742E+06    -62.1927E+06    -5.98300E+06     54.4738E+06    -62.1927E+06    -1.65616E+06         36.4911
             448     12.7916E-03     45.3542E-03     647.501E-03     456.870E-03        -2.27821     396.651E-03        -2.20137     630.872E-03    -575.460E-03     33.4403E-03    -16.0716E-03    -17.3687E-03    -15.9673E-03     32.0389E-03    -16.0716E-03     16.2443E-03     19.7180E+06    -6.33544E+06    -37.8532E+06    -1.08566E+06     14.4682E+06    -37.8532E+06     588.966E+03         30.1934
             449     11.8070E-03     45.3420E-03     648.545E-03     468.919E-03        -2.25130     365.491E-03        -2.14787     648.545E-03    -659.499E-03     33.0069E-03    -16.1880E-03    -16.8189E-03    -16.0963E-03     32.2843E-03    -16.1880E-03     11.8978E-03     833.862E+03    -18.6514E+06    -40.6592E+06     564.381E+03    -32.7631E+06    -26.2781E+06     1.67853E+06         26.5795
             450     10.8231E-03     45.3313E-03     903.951E-03     624.805E-03        -2.62975     384.258E-03        -2.15597     670.722E-03        -2.29668     33.3222E-03    -16.2748E-03    -17.0474E-03    -16.3569E-03     32.6318E-03    -16.2748E-03     11.7098E-03     2.00685E+06    -17.8381E+06    -65.7013E+06     1.99544E+06    -65.6899E+06    -17.8381E+06     292.216E+03         24.7299
             451     9.83918E-03     45.3190E-03     928.235E-03     563.743E-03        -2.57189     417.082E-03        -2.19200     695.006E-03        -1.35489     33.4817E-03    -16.3576E-03    -17.1241E-03    -16.4633E-03     32.8209E-03    -16.3576E-03     11.4756E-03     3.20738E+06    -6.44713E+06    -86.8793E+06     3.20522E+06    -86.8772E+06    -6.44713E+06    -208.399E+03         23.8255
             452     8.85529E-03     45.3083E-03     989.405E-03     591.716E-03        -2.65099     423.793E-03        -2.21664     722.979E-03         1.93265     33.4191E-03    -16.3995E-03    -17.0195E-03    -16.4709E-03     32.8704E-03    -16.3995E-03     10.4541E-03     3.70645E+06    -3.24264E+06    -107.871E+06     3.70034E+06    -107.865E+06    -3.24264E+06    -581.437E+03         23.3611
             453     7.87128E-03     45.2983E-03         1.50572     757.657E-03        -3.32443     430.291E-03        -2.24899     757.657E-03         4.00494     33.3675E-03    -16.4458E-03    -16.9218E-03    -16.4589E-03     32.9047E-03    -16.4458E-03     9.59549E-03     4.15524E+06     872.130E+03    -125.344E+06     4.11043E+06    -125.328E+06     900.071E+03     216.550E+03         23.0883
             454     6.88742E-03     45.2895E-03         1.27881     782.747E-03        -3.10932     498.072E-03        -2.34301     797.166E-03         3.14504     33.3607E-03    -16.4793E-03    -16.8814E-03    -16.4877E-03     32.9670E-03    -16.4793E-03     8.85325E-03     4.28235E+06     2.91477E+06    -139.927E+06     4.22665E+06    -139.899E+06     2.94271E+06     1.81314E+06         22.9024
             455     5.90360E-03     45.2809E-03         1.07761     821.551E-03        -2.93148     600.394E-03        -2.46868     835.971E-03         2.48888     33.3205E-03    -16.4960E-03    -16.8245E-03    -16.5040E-03     33.0000E-03    -16.4960E-03     7.97292E-03     4.01171E+06     2.29847E+06    -152.265E+06     3.98976E+06    -152.243E+06     2.29847E+06     892.669E+03         22.7634
             456     4.91945E-03     45.2739E-03         1.11499     845.168E-03        -2.97941     676.123E-03        -2.56873     873.358E-03         2.29130     33.2449E-03    -16.5203E-03    -16.7246E-03    -16.4881E-03     33.0084E-03    -16.5203E-03     6.83089E-03     4.91630E+06     3.39721E+06    -160.106E+06     4.39316E+06    -160.097E+06     3.91085E+06     224.286E+03         22.6561
             457     3.93565E-03     45.2676E-03         2.34209     892.034E-03        -4.24029     689.296E-03        -2.61569     920.224E-03         5.13026     33.2133E-03    -16.5474E-03    -16.6659E-03    -16.4986E-03     33.0461E-03    -16.5474E-03     5.74410E-03     5.04959E+06     3.59999E+06    -169.297E+06     4.18399E+06    -169.288E+06     4.45596E+06     930.647E+03         22.5735
             458     2.95150E-03     45.2625E-03         2.40959     928.429E-03        -4.32999     747.196E-03        -2.72689     987.722E-03         3.91261     33.2318E-03    -16.5557E-03    -16.6761E-03    -16.5612E-03     33.1251E-03    -16.5638E-03     4.55339E-03     4.23729E+06     3.02827E+06    -176.643E+06     3.09296E+06    -176.638E+06     4.16665E+06     770.130E+03         22.5121
             459     1.96788E-03     45.2584E-03         2.33381         1.02207        -4.31534     862.914E-03        -2.90374         1.08136         3.69433     33.1809E-03    -16.5470E-03    -16.6340E-03    -16.5672E-03     33.1318E-03    -16.5645E-03     3.01169E-03     5.27931E+06     2.99908E+06    -177.805E+06     2.99823E+06    -177.805E+06     5.27931E+06     203.506E+03         22.4701
             460     983.865E-06     45.2570E-03         10.5257        -2.85759        -8.59829         5.12898        -3.20160        -2.85759        -8.70773     33.1045E-03    -16.4270E-03    -16.6775E-03    -16.5762E-03     33.0889E-03    -16.5127E-03     1.69534E-03     2.90920E+06     1.12493E+06    -180.696E+06     1.20605E+06    -180.684E+06     2.81636E+06     867.583E+03         22.4454
             461     16.7372E-03     44.8875E-03     812.153E-03     551.115E-03        -2.71464     806.258E-03        -2.70874     551.115E-03    -175.648E-03     251.542E-03    -16.7171E-03    -234.825E-03    -51.9598E-03     68.6769E-03    -16.7171E-03     471.065E-03     197.209E+06     99.2781E+06    -7.31214E+06    -7.30330E+06     197.201E+06     99.2781E+06     609.534E+03         66.4438
             462     15.7445E-03     44.4756E-03     822.295E-03     466.615E-03        -2.63053     669.860E-03        -2.47810     466.615E-03        -1.17029     137.573E-03    -16.3702E-03    -121.203E-03    -28.5579E-03     44.9280E-03    -16.3702E-03     247.041E-03     153.391E+06     30.0004E+06    -15.2857E+06    -10.4538E+06     153.349E+06     25.2106E+06    -17.5053E+03         56.8637
             463     14.7607E-03     44.3652E-03         1.03670     425.635E-03        -2.77493     564.102E-03        -2.30233     425.635E-03        -2.46431     50.3539E-03    -16.0281E-03    -34.3258E-03    -16.2978E-03     32.3259E-03    -16.0281E-03     64.8484E-03     97.6386E+06    -8.20642E+06    -49.6733E+06    -8.09539E+06     97.5275E+06    -49.6733E+06    -1.94796E+06         45.8756
             464     13.7748E-03     44.3408E-03     885.723E-03     410.932E-03        -2.57304     461.718E-03        -2.14904     410.932E-03        -2.20969     34.2130E-03    -15.9663E-03    -18.2467E-03    -15.7150E-03     31.6812E-03    -15.9663E-03     22.2990E-03     52.6735E+06    -5.55895E+06    -66.7045E+06    -5.47897E+06     52.5935E+06    -66.7045E+06    -1.25995E+06         36.5880
             465     12.7905E-03     44.3213E-03     501.810E-03     314.022E-03        -2.05034     308.097E-03        -1.95188     409.269E-03    -726.889E-03     33.5813E-03    -16.1274E-03    -17.4538E-03    -16.0843E-03     32.2118E-03    -16.1274E-03     16.1121E-03     16.1077E+06    -8.17356E+06    -41.1194E+06    -3.69399E+06     11.6282E+06    -41.1194E+06     761.216E+03         30.2740
             466     11.8064E-03     44.3094E-03     452.665E-03     308.836E-03        -1.95195     190.104E-03        -1.80046     419.905E-03    -818.951E-03     33.2049E-03    -16.2458E-03    -16.9591E-03    -16.2487E-03     32.4945E-03    -16.2458E-03     11.8351E-03    -490.318E+03    -17.7121E+06    -39.8951E+06    -710.215E+03    -31.1978E+06    -26.1894E+06     1.60598E+06         26.6338
             467     10.8224E-03     44.2979E-03     813.737E-03     422.511E-03        -2.38889     188.454E-03        -1.77943     438.333E-03        -2.44883     33.4644E-03    -16.3259E-03    -17.1385E-03    -16.4413E-03     32.7672E-03    -16.3259E-03     11.7854E-03     1.46357E+06    -17.7246E+06    -64.4907E+06     1.44522E+06    -64.4724E+06    -17.7246E+06     679.161E+03         24.7617
             468     9.83870E-03     44.2863E-03     800.616E-03     368.077E-03        -2.29751     240.837E-03        -1.82763     457.971E-03        -1.41861     33.5963E-03    -16.4045E-03    -17.1918E-03    -16.5194E-03     32.9239E-03    -16.4045E-03     11.5824E-03     2.66237E+06    -7.02350E+06    -86.8209E+06     2.66212E+06    -86.8206E+06    -7.02350E+06     103.103E+03         23.8431
             469     8.85473E-03     44.2753E-03     834.894E-03     388.488E-03        -2.33844     261.256E-03        -1.85469     478.383E-03         1.91398     33.4657E-03    -16.4470E-03    -17.0187E-03    -16.4798E-03     32.9268E-03    -16.4470E-03     10.3660E-03     2.87291E+06    -3.98694E+06    -107.436E+06     2.87003E+06    -107.433E+06    -3.98694E+06     16.6014E+03         23.3716
             470     7.87083E-03     44.2658E-03         1.43517     503.060E-03        -3.04381     263.451E-03        -1.87209     503.060E-03         3.92242     33.4383E-03    -16.4938E-03    -16.9446E-03    -16.4827E-03     32.9765E-03    -16.4938E-03     9.59670E-03     2.92696E+06    -1.37124E+06    -127.496E+06     2.92194E+06    -127.491E+06    -1.37124E+06     302.957E+03         23.0957
             471     6.88690E-03     44.2564E-03         1.11845     527.066E-03        -2.73857     308.536E-03        -1.93331     531.722E-03         2.96003     33.4388E-03    -16.5400E-03    -16.8988E-03    -16.5107E-03     33.0507E-03    -16.5400E-03     8.79155E-03     4.70422E+06     2.55327E+06    -140.001E+06     4.09183E+06    -139.983E+06     3.14751E+06     1.25951E+06         22.9087
             472     5.90284E-03     44.2485E-03     898.012E-03     556.406E-03        -2.53323     374.717E-03        -2.01459     561.063E-03         2.37436     33.3784E-03    -16.5699E-03    -16.8084E-03    -16.4940E-03     33.0640E-03    -16.5699E-03     7.90525E-03     5.55549E+06     3.52728E+06    -150.645E+06     4.93670E+06    -150.621E+06     4.12151E+06     990.059E+03         22.7696
             473     4.91918E-03     44.2408E-03     928.949E-03     586.760E-03        -2.58382     459.990E-03        -2.11545     587.354E-03         2.19926     33.3911E-03    -16.5989E-03    -16.7922E-03    -16.5541E-03     33.1530E-03    -16.5989E-03     6.86602E-03     4.62770E+06     3.52890E+06    -161.237E+06     4.10098E+06    -161.224E+06     4.04255E+06     579.147E+03         22.6624
             474     3.93520E-03     44.2352E-03         2.33961     615.243E-03        -4.00887     475.312E-03        -2.14517     615.837E-03         5.27409     33.4217E-03    -16.6185E-03    -16.8032E-03    -16.6344E-03     33.2529E-03    -16.6185E-03     5.79569E-03     5.38247E+06     3.76145E+06    -168.988E+06     4.04610E+06    -168.974E+06     5.08389E+06     1.40354E+06         22.5800
             475     2.95165E-03     44.2294E-03         2.44984     624.528E-03        -4.11381     488.719E-03        -2.18848     660.317E-03         3.90732     33.3253E-03    -16.6056E-03    -16.7197E-03    -16.5831E-03     33.2190E-03    -16.6358E-03     4.53701E-03     5.86369E+06     4.48950E+06    -175.485E+06     4.54837E+06    -175.473E+06     5.79305E+06     586.348E+03         22.5189
             476     1.96741E-03     44.2262E-03         2.50703     692.548E-03        -4.20173     564.785E-03        -2.29528     728.336E-03         3.99319     33.2961E-03    -16.6243E-03    -16.6718E-03    -16.5835E-03     33.2470E-03    -16.6635E-03     3.05624E-03     5.48708E+06     3.60245E+06    -179.024E+06     3.59962E+06    -179.021E+06     5.48708E+06    -174.457E+03         22.4771
             477     983.830E-06     44.2234E-03         11.4361        -3.35975        -9.04632         4.89740        -2.50759        -3.35975        -9.44515     33.3482E-03    -16.5811E-03    -16.7671E-03    -16.7282E-03     33.3305E-03    -16.6023E-03     1.78384E-03     4.27358E+06     1.86774E+06    -179.807E+06     1.85562E+06    -179.795E+06     4.27358E+06     810.269E+03         22.4528
             478     16.7344E-03     43.8697E-03     810.326E-03     379.531E-03        -2.62156     797.538E-03        -2.60877     379.531E-03    -248.011E-03     252.436E-03    -16.6860E-03    -235.749E-03    -51.5337E-03     68.2197E-03    -16.6860E-03     473.185E-03     197.840E+06     101.886E+06    -6.98891E+06    -6.97445E+06     197.825E+06     101.886E+06    -256.299E+03         66.4161
             479     15.7443E-03     43.4380E-03     829.021E-03     293.786E-03        -2.52154     641.634E-03        -2.33415     293.786E-03        -1.32499     139.707E-03    -16.3901E-03    -123.317E-03    -28.0239E-03     44.4140E-03    -16.3901E-03     251.631E-03     152.914E+06     31.7046E+06    -16.7343E+06    -9.81734E+06     152.868E+06     24.8334E+06    -1.41539E+06         56.9016
             480     14.7596E-03     43.3350E-03         1.07474     247.290E-03        -2.68459     522.015E-03        -2.13187     247.290E-03        -2.61764     50.4515E-03    -16.0883E-03    -34.3633E-03    -16.4212E-03     32.5094E-03    -16.0883E-03     65.2947E-03     96.0936E+06    -9.85791E+06    -51.4547E+06    -9.79983E+06     96.0355E+06    -51.4547E+06    -312.540E+03         45.9608
             481     13.7740E-03     43.3075E-03     895.929E-03     224.624E-03        -2.44565     397.086E-03        -1.94681     224.624E-03        -2.33111     34.5177E-03    -16.0478E-03    -18.4698E-03    -15.7285E-03     31.7763E-03    -16.0478E-03     23.2038E-03     52.1476E+06    -9.23355E+06    -64.5048E+06    -9.18244E+06     52.0965E+06    -64.5048E+06     1.37365E+06         36.6898
             482     12.7898E-03     43.2885E-03     417.319E-03     181.365E-03        -1.87885     262.642E-03        -1.75603     213.225E-03    -843.421E-03     33.7230E-03    -16.1922E-03    -17.5308E-03    -16.1669E-03     32.3591E-03    -16.1922E-03     16.1470E-03     14.7862E+06    -10.2388E+06    -41.8583E+06    -6.85724E+06     11.4046E+06    -41.8583E+06    -23.6431E+03         30.3584
             483     11.8060E-03     43.2759E-03     384.318E-03     179.116E-03        -1.79681     159.073E-03        -1.60343     210.975E-03    -967.151E-03     33.4041E-03    -16.2978E-03    -17.1063E-03    -16.3770E-03     32.6748E-03    -16.2978E-03     12.0283E-03    -2.08536E+06    -16.9988E+06    -43.0054E+06    -2.41872E+06    -31.5982E+06    -28.0727E+06    -219.981E+03         26.6903
             484     10.8220E-03     43.2655E-03     833.403E-03     215.187E-03        -2.24266     118.734E-03        -1.52799     215.187E-03        -2.55495     33.5721E-03    -16.3890E-03    -17.1831E-03    -16.4711E-03     32.8601E-03    -16.3890E-03     11.9252E-03     1.00442E+06    -16.3875E+06    -63.8875E+06     969.688E+03    -63.8528E+06    -16.3875E+06     1.00859E+06         24.7948
             485     9.83796E-03     43.2525E-03     693.424E-03     160.987E-03        -2.02191     93.1102E-03        -1.48419     223.588E-03        -1.45693     33.6861E-03    -16.4643E-03    -17.2218E-03    -16.5502E-03     33.0144E-03    -16.4643E-03     11.5805E-03     1.75604E+06    -6.95006E+06    -86.6669E+06     1.73603E+06    -86.6468E+06    -6.95006E+06     675.026E+03         23.8618
             486     8.85441E-03     43.2428E-03     677.211E-03     174.354E-03        -2.00552     69.7913E-03        -1.46070     236.955E-03         1.86258     33.6255E-03    -16.5105E-03    -17.1150E-03    -16.5895E-03     33.1000E-03    -16.5105E-03     10.2657E-03     2.32901E+06    -2.78627E+06    -107.679E+06     2.32343E+06    -107.673E+06    -2.78627E+06     557.032E+03         23.3828
             487     7.87043E-03     43.2326E-03         1.36632     255.847E-03        -2.76574     65.7772E-03        -1.46520     255.847E-03         3.82429     33.5694E-03    -16.5501E-03    -17.0193E-03    -16.5671E-03     33.1172E-03    -16.5501E-03     9.51688E-03     2.62787E+06    -366.786E+03    -127.637E+06     2.62209E+06    -127.631E+06    -366.786E+03     657.384E+03         23.1036
             488     6.88662E-03     43.2238E-03     965.837E-03     278.129E-03        -2.37551     102.500E-03        -1.51217     278.129E-03         2.76251     33.4991E-03    -16.5849E-03    -16.9141E-03    -16.5387E-03     33.1236E-03    -16.5849E-03     8.65402E-03     3.04770E+06     1.13845E+06    -140.507E+06     2.45228E+06    -140.506E+06     1.73268E+06     134.535E+03         22.9153
             489     5.90289E-03     43.2153E-03     717.562E-03     299.711E-03        -2.13652     167.649E-03        -1.58660     299.711E-03         2.16465     33.4408E-03    -16.6185E-03    -16.8223E-03    -16.5245E-03     33.1430E-03    -16.6185E-03     7.70083E-03     4.35673E+06     2.23087E+06    -150.324E+06     3.31990E+06    -150.314E+06     3.25742E+06     886.143E+03         22.7758
             490     4.91859E-03     43.2084E-03     732.522E-03     309.124E-03        -2.14990     241.831E-03        -1.66648     316.397E-03         1.89853     33.4667E-03    -16.6554E-03    -16.8114E-03    -16.5823E-03     33.2376E-03    -16.6554E-03     6.75173E-03     4.65717E+06     3.15410E+06    -161.446E+06     3.58230E+06    -161.428E+06     4.21132E+06     1.51354E+06         22.6684
             491     3.93508E-03     43.2015E-03         2.26918     319.351E-03        -3.68311     291.948E-03        -1.71314     326.624E-03         5.10986     33.4967E-03    -16.6731E-03    -16.8236E-03    -16.6609E-03     33.3340E-03    -16.6731E-03     5.68401E-03     4.74907E+06     2.53978E+06    -168.170E+06     3.29566E+06    -168.150E+06     3.97348E+06     566.955E+03         22.5861
             492     2.95115E-03     43.1970E-03         2.58456     327.405E-03        -3.98877     340.637E-03        -1.74485     327.405E-03         3.53014     33.4500E-03    -16.6745E-03    -16.7755E-03    -16.6532E-03     33.3499E-03    -16.6966E-03     4.42475E-03     5.95297E+06     3.16571E+06    -175.012E+06     3.69919E+06    -174.998E+06     5.40532E+06    -253.365E+03         22.5251
             493     1.96754E-03     43.1929E-03         2.81375     332.310E-03        -4.18029     299.243E-03        -1.66579     332.310E-03         3.97575     33.4244E-03    -16.6802E-03    -16.7442E-03    -16.6449E-03     33.3747E-03    -16.7298E-03     3.08901E-03     6.47837E+06     3.15747E+06    -179.987E+06     3.15179E+06    -179.981E+06     6.47837E+06    -343.989E+03         22.4835
             494     983.589E-06     43.1907E-03         12.3575        -3.92601        -9.43356         4.60517        -1.68126        -3.92601        -10.3305     33.4664E-03    -16.6900E-03    -16.7764E-03    -16.7191E-03     33.4489E-03    -16.7298E-03     1.72490E-03     5.31613E+06     2.07999E+06    -179.240E+06     2.59578E+06    -179.219E+06     4.77880E+06    -1.15589E+06         22.4594
             495     16.7278E-03     42.8321E-03     861.651E-03     229.942E-03        -2.56772     843.000E-03        -2.54907     229.942E-03    -329.560E-03     252.196E-03    -16.8539E-03    -235.342E-03    -50.6971E-03     67.5511E-03    -16.8539E-03     472.952E-03     197.898E+06     100.445E+06    -6.04647E+06    -6.03182E+06     197.883E+06     100.445E+06    -1.01612E+06         66.3661
             496     15.7447E-03     42.4090E-03     878.142E-03     142.139E-03        -2.45108     675.807E-03        -2.24874     142.139E-03        -1.40841     139.902E-03    -16.5439E-03    -123.358E-03    -29.4538E-03     45.9977E-03    -16.5439E-03     251.440E-03     152.636E+06     29.0732E+06    -15.1935E+06    -11.1288E+06     152.600E+06     25.0449E+06     40.1115E+03         56.9169
             497     14.7564E-03     42.3006E-03         1.08926     88.9106E-03        -2.57360     494.212E-03        -1.97855     88.9106E-03        -2.64747     51.5061E-03    -16.1960E-03    -35.3101E-03    -16.4999E-03     32.6959E-03    -16.1960E-03     66.7608E-03     94.9973E+06    -13.2236E+06    -52.5866E+06    -13.5397E+06     94.9323E+06    -52.2055E+06     1.02727E+06         46.0428
             498     13.7734E-03     42.2751E-03     876.444E-03     59.7270E-03        -2.29194     313.752E-03        -1.72925     59.7270E-03        -2.38884     35.2063E-03    -16.1318E-03    -19.0745E-03    -16.3947E-03     32.5265E-03    -16.1318E-03     23.3240E-03     52.6725E+06    -8.55713E+06    -64.7013E+06    -8.47715E+06     52.5925E+06    -64.7013E+06     340.628E+03         36.7886
             499     12.7889E-03     42.2549E-03     394.355E-03     40.0913E-03        -1.74539     237.520E-03        -1.58856     40.0913E-03    -943.991E-03     33.8843E-03    -16.2676E-03    -17.6166E-03    -16.2281E-03     32.4958E-03    -16.2676E-03     16.3161E-03     18.1500E+06    -7.87230E+06    -38.5750E+06    -2.50440E+06     12.7821E+06    -38.5750E+06    -56.1180E+03         30.4422
             500     11.8047E-03     42.2432E-03     428.352E-03     22.5604E-03        -1.71500     206.795E-03        -1.49344     22.5604E-03        -1.07629     33.5543E-03    -16.3669E-03    -17.1874E-03    -16.4536E-03     32.8205E-03    -16.3669E-03     12.0940E-03    -1.07731E+06    -18.4476E+06    -43.1822E+06    -1.44837E+06    -33.2990E+06    -27.9598E+06    -279.005E+03         26.7460
             501     10.8212E-03     42.2317E-03     931.606E-03     8.40431E-03        -2.16490     104.885E-03        -1.33818     8.40431E-03        -2.68240     33.7841E-03    -16.4514E-03    -17.3327E-03    -16.6242E-03     33.0756E-03    -16.4514E-03     11.9425E-03    -675.536E+03    -17.1342E+06    -64.5527E+06    -695.947E+03    -64.5323E+06    -17.1342E+06     584.899E+03         24.8273
             502     9.83756E-03     42.2200E-03     628.666E-03    -36.4925E-03        -1.79125    -32.3840E-03        -1.17028     3.58817E-03        -1.59930     33.8155E-03    -16.5255E-03    -17.2900E-03    -16.6315E-03     33.1570E-03    -16.5255E-03     11.4911E-03     904.160E+03    -5.95746E+06    -85.5032E+06     882.797E+03    -85.4818E+06    -5.95746E+06     777.701E+03         23.8799
             503     8.85356E-03     42.2090E-03     506.006E-03    -30.3405E-03        -1.66099    -107.924E-03        -1.08714     9.74015E-03         1.67357     33.7416E-03    -16.5704E-03    -17.1711E-03    -16.6619E-03     33.2323E-03    -16.5704E-03     10.1209E-03     1.53695E+06    -1.98642E+06    -108.380E+06     1.53086E+06    -108.374E+06    -1.98642E+06     556.760E+03         23.3936
             504     7.87021E-03     42.2000E-03         1.30278     22.0905E-03        -2.50031    -103.930E-03        -1.09361     22.0905E-03         3.66434     33.7076E-03    -16.5992E-03    -17.1083E-03    -16.6669E-03     33.2661E-03    -16.5992E-03     9.42746E-03     2.10828E+06    -322.530E+03    -127.337E+06     2.09685E+06    -127.326E+06    -322.530E+03     892.532E+03         23.1110
             505     6.88633E-03     42.1904E-03     870.290E-03     36.0376E-03        -2.06986    -77.0744E-03        -1.12250     36.0376E-03         2.64359     33.6236E-03    -16.6236E-03    -17.0000E-03    -16.6282E-03     33.2518E-03    -16.6236E-03     8.62648E-03     3.30047E+06     502.921E+03    -139.530E+06     2.36107E+06    -139.523E+06     1.43503E+06     386.151E+03         22.9213
             506     5.90235E-03     42.1827E-03     622.843E-03     52.0847E-03        -1.82589    -66.5194E-03        -1.13652     52.0847E-03         2.11231     33.5843E-03    -16.6542E-03    -16.9301E-03    -16.6400E-03     33.2942E-03    -16.6542E-03     7.61980E-03     4.43306E+06     1.03402E+06    -151.350E+06     1.91084E+06    -151.346E+06     3.55164E+06     220.183E+03         22.7811
             507     4.91897E-03     42.1750E-03     592.820E-03     27.8242E-03        -1.76003    -44.5899E-03        -1.16669     71.8943E-03         1.74273     33.5342E-03    -16.6800E-03    -16.8542E-03    -16.6324E-03     33.3124E-03    -16.6800E-03     6.65210E-03     5.38924E+06     2.96051E+06    -161.220E+06     3.16593E+06    -161.207E+06     5.17093E+06     767.442E+03         22.6733
             508     3.93483E-03     42.1690E-03         2.14662     45.4044E-03        -3.31675     30.7298E-03        -1.24493     89.4745E-03         4.90176     33.4748E-03    -16.6961E-03    -16.7787E-03    -16.6238E-03     33.3199E-03    -16.6961E-03     5.53954E-03     5.27284E+06     3.72067E+06    -167.042E+06     4.47126E+06    -167.026E+06     4.50689E+06    -84.9639E+03         22.5907
             509     2.95118E-03     42.1636E-03         2.70709     86.9617E-03        -3.89712     139.870E-03        -1.32990     86.9617E-03         3.16267     33.5220E-03    -16.7257E-03    -16.7963E-03    -16.7026E-03     33.4283E-03    -16.7257E-03     4.28745E-03     6.08297E+06     3.58238E+06    -175.230E+06     4.12016E+06    -175.220E+06     5.53533E+06    -732.409E+03         22.5296
             510     1.96740E-03     42.1602E-03         3.14053     62.7727E-03        -4.26259     121.382E-03        -1.24344     62.7727E-03         3.98398     33.5255E-03    -16.7173E-03    -16.8082E-03    -16.7431E-03     33.4790E-03    -16.7359E-03     2.99181E-03     7.51819E+06     3.17177E+06    -179.922E+06     3.16547E+06    -179.915E+06     7.51819E+06    -726.042E+03         22.4880
             511     983.784E-06     42.1573E-03         13.1917        -4.42864        -9.78699         4.52437        -1.11967        -4.42864        -11.0247     33.4060E-03    -16.6428E-03    -16.7632E-03    -16.7279E-03     33.3892E-03    -16.6614E-03     1.71099E-03     3.36692E+06    -430.646E+03    -180.932E+06     786.046E+03    -180.905E+06     2.12414E+06    -979.655E+03         22.4639
             512     16.7217E-03     41.7838E-03     942.112E-03     103.807E-03        -2.53837     922.324E-03        -2.51858     103.807E-03    -371.635E-03     252.598E-03    -16.9596E-03    -235.639E-03    -49.7115E-03     66.6711E-03    -16.9596E-03     474.133E-03     196.847E+06     99.2952E+06    -6.85592E+06    -6.84834E+06     196.839E+06     99.2952E+06    -182.122E+03         66.3092
             513     15.7403E-03     41.3794E-03     954.757E-03     12.3279E-03        -2.41340     735.599E-03        -2.19424     12.3279E-03        -1.45676     138.001E-03    -16.6926E-03    -121.308E-03    -29.0854E-03     45.7779E-03    -16.6926E-03     247.279E-03     152.517E+06     28.3863E+06    -14.4676E+06    -12.6448E+06     152.489E+06     26.5910E+06     695.887E+03         56.9202
             514     14.7556E-03     41.2661E-03         1.12561    -47.1089E-03        -2.48677     483.228E-03        -1.84439    -47.1089E-03        -2.70451     52.4623E-03    -16.2935E-03    -36.1688E-03    -17.3819E-03     33.6754E-03    -16.2935E-03     67.3420E-03     97.0890E+06    -11.2557E+06    -52.1001E+06    -11.5943E+06     97.0465E+06    -51.7191E+06     442.165E+03         46.1106
             515     13.7717E-03     41.2408E-03     929.633E-03    -84.0872E-03        -2.21517     301.965E-03        -1.58751    -84.0872E-03        -2.49123     35.1968E-03    -16.1709E-03    -19.0259E-03    -16.6256E-03     32.7966E-03    -16.1709E-03     22.1671E-03     52.5131E+06    -7.18183E+06    -70.6218E+06    -7.12223E+06     52.4535E+06    -70.6218E+06    -1.34459E+06         36.8804
             516     12.7882E-03     41.2222E-03     442.196E-03    -114.124E-03        -1.65599     242.759E-03        -1.45655    -114.124E-03        -1.09740     34.1016E-03    -16.3154E-03    -17.7863E-03    -16.4785E-03     32.7939E-03    -16.3154E-03     15.8998E-03     16.4245E+06    -8.78081E+06    -41.4680E+06    -3.83491E+06     11.4786E+06    -41.4680E+06     158.644E+03         30.5206
             517     11.8043E-03     41.2093E-03     464.569E-03    -143.900E-03        -1.60536     193.781E-03        -1.33457    -143.900E-03        -1.20129     33.6829E-03    -16.4219E-03    -17.2609E-03    -16.5844E-03     33.0063E-03    -16.4219E-03     11.6342E-03    -1.43179E+06    -18.5669E+06    -41.1261E+06    -1.69425E+06    -32.9483E+06    -26.4822E+06     1.28897E+06         26.7987
             518     10.8205E-03     41.1986E-03         1.00984    -170.040E-03        -2.08730     56.3712E-03        -1.13382    -170.040E-03        -2.80477     33.8480E-03    -16.4911E-03    -17.3570E-03    -16.7126E-03     33.2036E-03    -16.4911E-03     11.3991E-03    -353.487E+03    -17.4339E+06    -64.8949E+06    -355.474E+03    -64.8929E+06    -17.4339E+06     242.854E+03         24.8576
             519     9.83698E-03     41.1861E-03     597.662E-03    -197.989E-03        -1.62281    -114.801E-03    -922.633E-03    -185.708E-03        -1.77450     33.8721E-03    -16.5610E-03    -17.3111E-03    -16.7035E-03     33.2645E-03    -16.5610E-03     11.0514E-03     779.030E+03    -6.35526E+06    -85.7234E+06     768.436E+03    -85.7128E+06    -6.35526E+06     702.335E+03         23.8962
             520     8.85362E-03     41.1762E-03     371.325E-03    -202.615E-03        -1.37864    -203.535E-03    -816.065E-03    -190.334E-03         1.42361     33.7537E-03    -16.6068E-03    -17.1469E-03    -16.6663E-03     33.2730E-03    -16.6068E-03     9.83787E-03     969.112E+03    -2.12244E+06    -108.089E+06     958.576E+03    -108.078E+06    -2.12244E+06     656.608E+03         23.4027
             521     7.86954E-03     41.1663E-03         1.25041    -192.002E-03        -2.25843    -182.257E-03    -825.765E-03    -192.002E-03         3.44745     33.7456E-03    -16.6406E-03    -17.1050E-03    -16.6861E-03     33.3267E-03    -16.6406E-03     9.18537E-03     1.74053E+06    -1.00985E+06    -127.541E+06     968.708E+03    -127.533E+06    -246.098E+03     680.740E+03         23.1169
             522     6.88605E-03     41.1577E-03     856.012E-03    -196.892E-03        -1.84611    -162.832E-03    -827.267E-03    -196.892E-03         2.57813     33.7382E-03    -16.6631E-03    -17.0752E-03    -16.7172E-03     33.3803E-03    -16.6631E-03     8.48592E-03     3.11969E+06     145.983E+03    -138.413E+06     1.05403E+06    -138.399E+06     2.19820E+06     1.11945E+06         22.9258
             523     5.90258E-03     41.1492E-03     672.403E-03    -195.524E-03        -1.65067    -263.528E-03    -714.737E-03    -195.524E-03         2.21425     33.6800E-03    -16.6816E-03    -16.9984E-03    -16.7114E-03     33.3929E-03    -16.6816E-03     7.59183E-03     3.68721E+06     715.201E+03    -150.498E+06     701.983E+03    -150.485E+06     3.68721E+06    -183.706E+03         22.7849
             524     4.91861E-03     41.1423E-03     535.966E-03    -225.158E-03        -1.47127    -352.113E-03    -634.549E-03    -173.794E-03         1.77377     33.5940E-03    -16.6860E-03    -16.9079E-03    -16.6822E-03     33.3683E-03    -16.6860E-03     6.72471E-03     2.80807E+06     408.994E+03    -161.956E+06     1.10913E+06    -161.940E+06     2.09255E+06    -1.31049E+06         22.6767
             525     3.93508E-03     41.1358E-03         2.07819    -190.114E-03        -3.03216    -288.735E-03    -716.588E-03    -138.751E-03         4.87902     33.5266E-03    -16.6903E-03    -16.8364E-03    -16.6755E-03     33.3658E-03    -16.6903E-03     5.64014E-03     2.44135E+06     890.113E+03    -167.524E+06     2.27217E+06    -167.516E+06     1.05143E+06    -564.962E+03         22.5936
             526     2.95112E-03     41.1307E-03         2.78057    -118.371E-03        -3.78328    -135.349E-03    -867.361E-03    -118.371E-03         3.13301     33.5055E-03    -16.7138E-03    -16.7917E-03    -16.6956E-03     33.4094E-03    -16.7138E-03     4.34739E-03     3.49741E+06     1.81066E+06    -174.631E+06     2.85718E+06    -174.627E+06     2.44669E+06    -462.531E+03         22.5321
             527     1.96756E-03     41.1267E-03         3.37725    -131.174E-03        -4.32275    -72.0042E-03    -873.501E-03    -131.174E-03         4.26905     33.5258E-03    -16.7193E-03    -16.8065E-03    -16.7569E-03     33.4763E-03    -16.7193E-03     3.08130E-03     3.56440E+06     1.05024E+06    -181.304E+06     1.41817E+06    -181.296E+06     3.18808E+06    -350.700E+03         22.4902
             528     983.919E-06     41.1246E-03         13.7883        -4.78000        -10.0558         4.48700    -754.490E-03        -4.78000        -11.2619     33.3935E-03    -16.6268E-03    -16.7667E-03    -16.6930E-03     33.3763E-03    -16.6833E-03     1.69499E-03     1.74851E+06    -1.91099E+06    -181.562E+06    -1.21527E+06    -181.553E+06     1.04306E+06     510.814E+03         22.4658
             529     16.7312E-03     40.7588E-03     970.435E-03    -243.249E-06        -2.46271     941.520E-03        -2.43380    -243.249E-06    -459.961E-03     254.270E-03    -16.9622E-03    -237.308E-03    -49.8260E-03     66.7882E-03    -16.9622E-03     477.543E-03     197.103E+06     103.159E+06    -7.11449E+06    -7.11029E+06     197.098E+06     103.159E+06     518.579E+03         66.2410
             530     15.7383E-03     40.3440E-03     999.791E-03    -90.7659E-03        -2.34942     759.533E-03        -2.10916    -90.7659E-03        -1.55176     137.699E-03    -16.7212E-03    -120.978E-03    -28.4850E-03     45.2062E-03    -16.7212E-03     246.614E-03     153.049E+06     32.3827E+06    -14.9463E+06    -11.5464E+06     153.048E+06     28.9843E+06     224.615E+03         56.9134
             531     14.7558E-03     40.2317E-03         1.22119    -155.157E-03        -2.46626     541.594E-03        -1.78666    -155.157E-03        -2.80626     51.9789E-03    -16.3094E-03    -35.6695E-03    -17.8700E-03     34.1794E-03    -16.3094E-03     65.4266E-03     97.5769E+06    -11.5595E+06    -52.2967E+06    -11.5549E+06     97.5723E+06    -52.2967E+06     402.640E+03         46.1637
             532     13.7717E-03     40.2075E-03         1.06143    -203.241E-03        -2.22800     377.014E-03        -1.54358    -203.241E-03        -2.65374     34.7660E-03    -16.1965E-03    -18.5695E-03    -16.4758E-03     32.6723E-03    -16.1965E-03     20.5810E-03     53.1092E+06    -10.2253E+06    -67.7435E+06    -10.1394E+06     53.0233E+06    -67.7435E+06     569.887E+03         36.9617
             533     12.7877E-03     40.1880E-03     511.855E-03    -245.523E-03        -1.60085     262.739E-03        -1.35173    -245.523E-03        -1.28604     34.0211E-03    -16.3225E-03    -17.6986E-03    -16.5581E-03     32.8806E-03    -16.3225E-03     14.8268E-03     14.7606E+06    -12.4229E+06    -42.9812E+06    -8.08379E+06     10.4214E+06    -42.9812E+06    -527.321E+03         30.5916
             534     11.8043E-03     40.1761E-03     478.334E-03    -284.713E-03        -1.48999     148.049E-03        -1.15971    -284.713E-03        -1.32995     33.6934E-03    -16.4045E-03    -17.2890E-03    -16.6968E-03     33.1013E-03    -16.4045E-03     10.8948E-03    -2.77160E+06    -19.5343E+06    -44.1358E+06    -3.60394E+06    -32.9247E+06    -29.9131E+06    -318.536E+03         26.8463
             535     10.8209E-03     40.1648E-03         1.03897    -318.843E-03        -1.98332     3.12022E-03    -947.467E-03    -318.843E-03        -2.83095     33.7304E-03    -16.4840E-03    -17.2464E-03    -16.6710E-03     33.1550E-03    -16.4840E-03     10.7581E-03    -170.102E+03    -17.5437E+06    -64.8914E+06    -186.719E+03    -64.8748E+06    -17.5437E+06     875.698E+03         24.8842
             536     9.83715E-03     40.1531E-03     587.770E-03    -344.713E-03        -1.48278    -150.788E-03    -744.224E-03    -344.713E-03        -1.82478     33.7348E-03    -16.5578E-03    -17.1770E-03    -16.6253E-03     33.1831E-03    -16.5578E-03     10.5160E-03     618.311E+03    -7.06191E+06    -86.6342E+06     598.634E+03    -86.6146E+06    -7.06191E+06     1.05119E+06         23.9095
             537     8.85312E-03     40.1426E-03     327.937E-03    -364.079E-03        -1.19052    -218.200E-03    -644.380E-03    -364.079E-03         1.26908     33.7140E-03    -16.6166E-03    -17.0974E-03    -16.6586E-03     33.2752E-03    -16.6166E-03     9.38789E-03     1.73251E+06    -1.76727E+06    -107.500E+06     623.688E+03    -107.450E+06    -707.822E+03     1.62928E+06         23.4093
             538     7.86979E-03     40.1334E-03         1.23550    -384.674E-03        -2.06603    -210.212E-03    -620.320E-03    -384.674E-03         3.27254     33.6986E-03    -16.6521E-03    -17.0465E-03    -16.6674E-03     33.3195E-03    -16.6521E-03     8.73008E-03     1.32871E+06    -1.02794E+06    -127.296E+06    -615.097E+03    -127.254E+06     874.693E+03     1.31477E+06         23.1205
             539     6.88588E-03     40.1241E-03     854.459E-03    -408.812E-03        -1.64714    -246.254E-03    -546.432E-03    -408.812E-03         2.46520     33.6337E-03    -16.6594E-03    -16.9743E-03    -16.6374E-03     33.2968E-03    -16.6594E-03     8.22541E-03     791.061E+03    -1.94570E+06    -137.955E+06    -435.436E+03    -137.928E+06    -746.169E+03    -161.480E+03         22.9282
             540     5.90212E-03     40.1162E-03     731.610E-03    -425.436E-03        -1.49350    -384.381E-03    -377.514E-03    -425.436E-03         2.19647     33.6337E-03    -16.6854E-03    -16.9482E-03    -16.6682E-03     33.3536E-03    -16.6854E-03     7.48714E-03     2.26783E+06    -206.727E+03    -149.455E+06     1.34725E+06    -149.421E+06     679.972E+03    -828.720E+03         22.7868
             541     4.91855E-03     40.1091E-03     601.671E-03    -434.964E-03        -1.33885    -520.498E-03    -231.244E-03    -420.398E-03         1.70794     33.6536E-03    -16.7082E-03    -16.9454E-03    -16.7253E-03     33.4335E-03    -16.7082E-03     6.64877E-03     1.36292E+06    -325.101E+03    -162.729E+06     197.101E+03    -162.704E+06     815.074E+03    -293.102E+03         22.6784
             542     3.93472E-03     40.1027E-03         2.17130    -410.290E-03        -2.91526    -525.258E-03    -233.269E-03    -395.724E-03         4.85377     33.5748E-03    -16.6885E-03    -16.8863E-03    -16.7271E-03     33.4157E-03    -16.6885E-03     5.61550E-03    -1.05625E+06    -4.67549E+06    -167.751E+06    -1.69464E+06    -167.723E+06    -4.06566E+06    -442.428E+03         22.5952
             543     2.95126E-03     40.0977E-03         2.92157    -374.571E-03        -3.67709    -412.711E-03    -342.814E-03    -374.571E-03         3.15697     33.4985E-03    -16.6951E-03    -16.8034E-03    -16.7060E-03     33.4011E-03    -16.6951E-03     4.39015E-03    -1.43040E+06    -4.57432E+06    -174.870E+06    -1.44374E+06    -174.857E+06    -4.57432E+06    -571.608E+03         22.5334
             544     1.96723E-03     40.0938E-03         3.66858    -374.717E-03        -4.38151    -353.206E-03    -359.728E-03    -374.717E-03         4.60913     33.4842E-03    -16.6856E-03    -16.7985E-03    -16.6928E-03     33.4330E-03    -16.7402E-03     3.11266E-03     738.357E+03    -751.863E+03    -182.119E+06    -127.586E+03    -182.112E+06     106.624E+03     151.691E+03         22.4910
             545     983.617E-06     40.0912E-03         14.2915        -5.11077        -10.2442         4.34867    -301.301E-03        -5.11077        -11.2792     33.5179E-03    -16.6576E-03    -16.8603E-03    -16.7321E-03     33.5009E-03    -16.7687E-03     1.69867E-03     2.86697E+06    -129.145E+03    -181.201E+06     706.692E+03    -181.190E+06     2.02027E+06    -493.613E+03         22.4664
             546     16.7232E-03     39.7278E-03     930.502E-03    -83.6613E-03        -2.30807     895.125E-03        -2.27269    -83.6613E-03    -525.197E-03     254.799E-03    -16.9079E-03    -237.891E-03    -50.1761E-03     67.0840E-03    -16.9079E-03     478.527E-03     196.403E+06     102.839E+06    -7.20885E+06    -7.20598E+06     196.400E+06     102.839E+06     446.371E+03         66.1337
             547     15.7418E-03     39.3095E-03     988.370E-03    -169.971E-03        -2.22787     745.593E-03        -1.98509    -169.971E-03        -1.56562     139.063E-03    -16.6670E-03    -122.396E-03    -28.9906E-03     45.6576E-03    -16.6670E-03     249.122E-03     153.542E+06     32.7708E+06    -13.6248E+06    -12.0012E+06     153.522E+06     31.1676E+06     1.18523E+06         56.8796
             548     14.7565E-03     39.1976E-03         1.28786    -238.819E-03        -2.43148     619.324E-03        -1.76294    -238.819E-03        -2.80983     51.1671E-03    -16.2595E-03    -34.9076E-03    -17.7677E-03     34.0272E-03    -16.2595E-03     63.6037E-03     98.0169E+06    -11.8708E+06    -50.2326E+06    -12.9152E+06     97.9944E+06    -49.1656E+06     1.16352E+06         46.2007
             549     13.7729E-03     39.1738E-03         1.15348    -297.808E-03        -2.21624     461.418E-03        -1.52418    -297.808E-03        -2.71292     34.3155E-03    -16.1426E-03    -18.1730E-03    -16.2317E-03     32.3742E-03    -16.1426E-03     19.7230E-03     54.1579E+06    -8.68243E+06    -65.3380E+06    -8.57197E+06     54.0474E+06    -65.3380E+06     223.231E+03         37.0299
             550     12.7889E-03     39.1546E-03     571.396E-03    -351.512E-03        -1.55281     298.263E-03        -1.27968    -351.512E-03        -1.36489     33.7715E-03    -16.2811E-03    -17.4904E-03    -16.4048E-03     32.6860E-03    -16.2811E-03     14.3660E-03     17.7219E+06    -10.2839E+06    -39.4364E+06    -4.02603E+06     11.4640E+06    -39.4364E+06    -665.252E+03         30.6532
             551     11.8051E-03     39.1422E-03     504.678E-03    -400.761E-03        -1.40482     150.212E-03        -1.05035    -400.761E-03        -1.36032     33.4701E-03    -16.3667E-03    -17.1034E-03    -16.5585E-03     32.9252E-03    -16.3667E-03     10.4284E-03    -2.15158E+06    -20.9208E+06    -43.9598E+06     -2.9118E+06    -35.0109E+06    -29.1095E+06    -261.242E+03         26.8870
             552     10.8213E-03     39.1317E-03         1.05846    -445.176E-03        -1.88443     46.4907E-06    -826.018E-03    -445.176E-03        -2.79557     33.5353E-03    -16.4489E-03    -17.0864E-03    -16.5385E-03     32.9874E-03    -16.4489E-03     10.4619E-03    -2.15158E+06    -17.9684E+06    -65.2057E+06    -2.17075E+06    -65.1865E+06    -17.9684E+06     1.05180E+06         24.9058
             553     9.83737E-03     39.1198E-03     621.697E-03    -473.472E-03        -1.39686    -124.140E-03    -639.697E-03    -484.798E-03        -1.78247     33.6014E-03    -16.5287E-03    -17.0727E-03    -16.5348E-03     33.0635E-03    -16.5287E-03     10.3654E-03    -705.225E+03    -7.12581E+06    -86.1368E+06    -718.820E+03    -86.1232E+06    -7.12581E+06     872.183E+03         23.9190
             554     8.85388E-03     39.1095E-03     364.750E-03    -509.519E-03        -1.08873    -222.349E-03    -490.309E-03    -520.845E-03         1.24491     33.6308E-03    -16.5871E-03    -17.0437E-03    -16.6171E-03     33.2042E-03    -16.5871E-03     9.24389E-03     1.90576E+06    -2.59978E+06    -108.609E+06     804.272E+03    -108.567E+06    -1.54033E+06     1.49299E+06         23.4128
             555     7.86994E-03     39.1000E-03         1.25416    -553.759E-03        -1.92028    -314.957E-03    -351.162E-03    -553.759E-03         3.16158     33.6038E-03    -16.6296E-03    -16.9742E-03    -16.6087E-03     33.2383E-03    -16.6296E-03     8.56432E-03     3.78131E+06     1.24196E+06    -125.381E+06     2.60026E+06    -125.339E+06     2.38084E+06     1.51891E+06         23.1216
             556     6.88627E-03     39.0914E-03     868.793E-03    -582.313E-03        -1.49178    -409.917E-03    -213.071E-03    -582.313E-03         2.30336     33.5218E-03    -16.6389E-03    -16.8829E-03    -16.5546E-03     33.1935E-03    -16.6389E-03     8.10451E-03     2.56995E+06    -689.402E+03    -136.091E+06     2.46895E+06    -136.069E+06    -609.974E+03    -588.240E+03         22.9286
             557     5.90220E-03     39.0830E-03     746.437E-03    -605.794E-03        -1.33182    -486.047E-03    -99.3337E-03    -605.794E-03         2.01009     33.5628E-03    -16.6748E-03    -16.8880E-03    -16.6200E-03     33.2948E-03    -16.6748E-03     7.31353E-03     1.78752E+06    -1.49562E+06    -151.038E+06     1.28995E+06    -151.017E+06    -1.01949E+06    -547.276E+03         22.7872
             558     4.91842E-03     39.0759E-03     721.305E-03    -596.386E-03        -1.29998    -543.970E-03    -6.10611E-03    -624.987E-03         1.47194     33.6361E-03    -16.7178E-03    -16.9183E-03    -16.7127E-03     33.4304E-03    -16.7178E-03     6.42446E-03     2.66316E+06     1.31781E+06    -162.918E+06     1.35595E+06    -162.906E+06     2.61254E+06     763.775E+03         22.6789
             559     3.93493E-03     39.0696E-03         2.31401    -609.326E-03        -2.86083    -608.236E-03     90.0205E-03    -637.928E-03         4.62603     33.6070E-03    -16.7171E-03    -16.8899E-03    -16.7417E-03     33.4588E-03    -16.7171E-03     5.42647E-03     4.01342E+06     139.732E+03    -166.823E+06     1.95303E+06    -166.799E+06     2.17562E+06     118.970E+03         22.5958
             560     2.95094E-03     39.0646E-03         3.08739    -642.388E-03        -3.57762    -644.561E-03     154.327E-03    -642.388E-03         2.96824     33.5514E-03    -16.7188E-03    -16.8326E-03    -16.7429E-03     33.4617E-03    -16.7188E-03     4.20457E-03     3.39375E+06    -105.608E+03    -175.390E+06     1.97319E+06    -175.375E+06     1.30054E+06    -214.706E+03         22.5341
             561     1.96763E-03     39.0607E-03         3.93127    -643.129E-03        -4.38386    -642.505E-03     189.914E-03    -643.129E-03         4.61908     33.4842E-03    -16.6887E-03    -16.7955E-03    -16.6947E-03     33.4379E-03    -16.7433E-03     2.97481E-03     3.34814E+06     1.43453E+06    -181.925E+06     1.68101E+06    -181.916E+06     3.09274E+06    -662.030E+03         22.4918
             562     983.495E-06     39.0584E-03         14.6034        -5.48149        -10.1897         4.19426     219.468E-03        -5.48149        -11.3798     33.5018E-03    -16.6644E-03    -16.8374E-03    -16.7656E-03     33.4846E-03    -16.7190E-03     1.74800E-03     2.98783E+06     330.722E+03    -182.673E+06     1.16457E+06    -182.660E+06     2.14113E+06    -1.17307E+06         22.4671
             563     16.7345E-03     38.7072E-03     871.026E-03    -152.387E-03        -2.12089     842.878E-03        -2.09274    -152.387E-03    -459.099E-03     254.361E-03    -16.7934E-03    -237.567E-03    -50.6270E-03     67.4204E-03    -16.7934E-03     477.539E-03     195.526E+06     100.147E+06    -7.43612E+06    -7.41731E+06     195.507E+06     100.147E+06     1.23908E+06         65.9912
             564     15.7403E-03     38.2723E-03     959.917E-03    -237.148E-03        -2.09460     726.128E-03        -1.86081    -237.148E-03        -1.47622     140.625E-03    -16.5499E-03    -124.075E-03    -29.3113E-03     45.8613E-03    -16.5499E-03     252.289E-03     153.944E+06     32.9487E+06    -13.4533E+06    -11.5414E+06     153.895E+06     31.0858E+06     1.11515E+06         56.8225
             565     14.7594E-03     38.1645E-03         1.27536    -309.667E-03        -2.32573     640.385E-03        -1.69075    -309.667E-03        -2.70855     50.2405E-03    -16.1556E-03    -34.0849E-03    -17.4461E-03     33.6017E-03    -16.1556E-03     62.2907E-03     99.7277E+06    -7.89761E+06    -49.5515E+06    -8.93178E+06     99.6949E+06    -48.4845E+06     12.6635E+03         46.2196
             566     13.7738E-03     38.1409E-03         1.15047    -376.042E-03        -2.11990     512.960E-03        -1.48239    -376.042E-03        -2.57863     34.0073E-03    -16.0391E-03    -17.9682E-03    -15.9781E-03     32.0172E-03    -16.0391E-03     19.8257E-03     54.9116E+06    -4.61431E+06    -67.2454E+06    -4.54762E+06     54.8449E+06    -67.2454E+06    -562.018E+03         37.0836
             567     12.7896E-03     38.1210E-03     575.850E-03    -438.863E-03        -1.46112     332.337E-03        -1.21761    -438.863E-03        -1.26734     33.4388E-03    -16.2156E-03    -17.2231E-03    -16.1284E-03     32.3440E-03    -16.2156E-03     14.3807E-03     17.4811E+06    -9.45745E+06    -38.2207E+06    -2.68811E+06     10.7117E+06    -38.2207E+06     857.289E+03         30.7044
             568     11.8057E-03     38.1092E-03     514.827E-03    -497.043E-03        -1.31527     160.601E-03    -961.043E-03    -497.043E-03        -1.30995     33.1844E-03    -16.3273E-03    -16.8571E-03    -16.3045E-03     32.6318E-03    -16.3273E-03     10.4338E-03    -1.58199E+06    -21.1956E+06    -40.6654E+06    -1.85339E+06    -35.5378E+06    -26.0517E+06     1.96400E+06         26.9203
             569     10.8217E-03     38.0984E-03         1.10715    -552.606E-03        -1.82558     44.4190E-03    -762.856E-03    -552.606E-03        -2.79769     33.3678E-03    -16.4084E-03    -16.9594E-03    -16.4179E-03     32.8263E-03    -16.4084E-03     10.3676E-03    -40.3468E+03    -16.7161E+06    -64.3954E+06    -67.1995E+03    -64.3685E+06    -16.7161E+06     703.546E+03         24.9222
             570     9.83787E-03     38.0868E-03     672.100E-03    -518.745E-03        -1.40149    -71.3111E-03    -569.125E-03    -607.701E-03        -1.77974     33.4976E-03    -16.4975E-03    -17.0002E-03    -16.4564E-03     32.9539E-03    -16.4975E-03     10.4069E-03     1.45825E+06    -5.49234E+06    -86.0174E+06     1.45161E+06    -86.0107E+06    -5.49234E+06     350.779E+03         23.9249
             571     8.85381E-03     38.0762E-03     407.426E-03    -568.261E-03        -1.07026    -270.137E-03    -303.744E-03    -657.217E-03         1.23975     33.4932E-03    -16.5521E-03    -16.9412E-03    -16.5038E-03     33.0559E-03    -16.5521E-03     9.33836E-03     2.84969E+06    -2.33832E+06    -109.007E+06     2.83484E+06    -108.992E+06    -2.33832E+06    -75.7228E+03         23.4136
             572     7.87015E-03     38.0671E-03         1.30453    -693.459E-03        -1.82675    -475.717E-03    -46.5062E-03    -693.459E-03         3.09276     33.4931E-03    -16.6121E-03    -16.8811E-03    -16.5065E-03     33.1185E-03    -16.6121E-03     8.65314E-03     5.83744E+06     2.29415E+06    -124.680E+06     4.95549E+06    -124.666E+06     3.16224E+06    -117.098E+03         23.1207
             573     6.88606E-03     38.0583E-03     959.173E-03    -710.512E-03        -1.44880    -576.512E-03     94.6109E-03    -718.235E-03         2.21095     33.5605E-03    -16.6537E-03    -16.9069E-03    -16.5715E-03     33.2251E-03    -16.6537E-03     8.19540E-03     7.22979E+06     3.57769E+06    -135.531E+06     5.19169E+06    -135.503E+06     5.58709E+06     1.31137E+06         22.9276
             574     5.90252E-03     38.0501E-03     837.540E-03    -733.795E-03        -1.29059    -595.119E-03     149.795E-03    -741.519E-03         1.91180     33.6131E-03    -16.6851E-03    -16.9280E-03    -16.6528E-03     33.3379E-03    -16.6851E-03     7.41988E-03     6.25497E+06     2.72873E+06    -151.570E+06     3.91986E+06    -151.542E+06     5.03582E+06     1.10134E+06         22.7864
             575     4.91874E-03     38.0428E-03     853.881E-03    -713.611E-03        -1.31000    -604.619E-03     206.138E-03    -771.245E-03         1.34302     33.6234E-03    -16.7039E-03    -16.9196E-03    -16.7112E-03     33.4150E-03    -16.7039E-03     6.45916E-03     5.36151E+06     3.64786E+06    -162.162E+06     3.63933E+06    -162.153E+06     5.36151E+06    -637.257E+03         22.6786
             576     3.93476E-03     38.0365E-03         2.41560    -747.655E-03        -2.81997    -672.202E-03     325.467E-03    -805.289E-03         4.42736     33.5997E-03    -16.7107E-03    -16.8889E-03    -16.7466E-03     33.4574E-03    -16.7107E-03     5.30885E-03     6.99883E+06     3.91425E+06    -167.046E+06     3.90414E+06    -167.036E+06     6.99883E+06    -394.134E+03         22.5960
             577     2.95149E-03     38.0314E-03         3.22565    -825.163E-03        -3.52628    -809.341E-03     508.712E-03    -825.163E-03         2.73637     33.5223E-03    -16.7188E-03    -16.8035E-03    -16.7204E-03     33.4391E-03    -16.7188E-03     4.04719E-03     8.58192E+06     4.32329E+06    -175.501E+06     4.31847E+06    -175.496E+06     8.58192E+06    -81.3749E+03         22.5347
             578     1.96727E-03     38.0279E-03         4.02932    -816.844E-03        -4.30742    -862.424E-03     584.323E-03    -816.844E-03         4.31657     33.4700E-03    -16.6919E-03    -16.7781E-03    -16.7337E-03     33.4256E-03    -16.6919E-03     2.93930E-03     5.50647E+06     2.31429E+06    -181.527E+06     2.29874E+06    -181.512E+06     5.50647E+06    -392.141E+03         22.4929
             579     984.064E-06     38.0250E-03         14.5995        -5.74045        -9.91990         4.13009     549.520E-03        -5.74045        -11.5008     33.3137E-03    -16.5969E-03    -16.7168E-03    -16.7001E-03     33.2970E-03    -16.5969E-03     1.67739E-03     146.644E+03    -1.72318E+06    -184.955E+06    -1.68503E+06    -184.934E+06     88.1382E+03    -446.826E+03         22.4686
             580     16.7294E-03     37.6820E-03     842.033E-03    -212.940E-03        -1.97876     816.472E-03        -1.95319    -212.940E-03    -392.786E-03     253.557E-03    -16.6970E-03    -236.860E-03    -51.4818E-03     68.1788E-03    -16.6970E-03     475.578E-03     196.388E+06     100.520E+06    -6.41102E+06    -6.39186E+06     196.369E+06     100.520E+06     1.34394E+06         65.8295
             581     15.7466E-03     37.2376E-03     962.221E-03    -298.492E-03        -2.00295     740.407E-03        -1.78114    -298.492E-03        -1.41820     142.655E-03    -16.4141E-03    -126.241E-03    -29.7046E-03     46.1188E-03    -16.4141E-03     256.657E-03     155.345E+06     35.4899E+06    -13.4919E+06    -8.06086E+06     155.313E+06     30.0903E+06     447.513E+03         56.7548
             582     14.7589E-03     37.1320E-03         1.25226    -375.082E-03        -2.21133     652.562E-03        -1.61164    -375.082E-03        -2.58420     49.5183E-03    -16.0364E-03    -33.4819E-03    -16.8039E-03     32.8403E-03    -16.0364E-03     61.7756E-03     98.8804E+06    -8.94393E+06    -53.7080E+06    -8.92857E+06      98.865E+06    -53.7080E+06    -653.472E+03         46.2269
             583     13.7754E-03     37.1073E-03         1.09042    -446.043E-03        -1.97107     505.094E-03        -1.38574    -446.043E-03        -2.39448     33.8321E-03    -15.9804E-03    -17.8517E-03    -15.7680E-03     31.7484E-03    -15.9804E-03     20.2022E-03     54.4443E+06    -7.25784E+06    -65.9236E+06    -7.18306E+06     54.3695E+06    -65.9236E+06     1.22104E+06         37.1257
             584     12.7908E-03     37.0888E-03     523.808E-03    -513.036E-03        -1.31929     312.658E-03        -1.10814    -513.036E-03        -1.12803     33.2316E-03    -16.1706E-03    -17.0609E-03    -15.9212E-03     32.0918E-03    -16.1706E-03     14.6196E-03     16.6479E+06    -11.0091E+06    -35.9751E+06    -4.08145E+06     9.72028E+06    -35.9751E+06     2.17082E+06         30.7476
             585     11.8061E-03     37.0759E-03     521.680E-03    -576.603E-03        -1.23076     164.122E-03    -873.202E-03    -576.603E-03        -1.28016     32.9484E-03    -16.2734E-03    -16.6750E-03    -16.1035E-03     32.3769E-03    -16.2734E-03     10.5542E-03    -676.158E+03    -20.6607E+06    -39.9260E+06    -882.588E+03    -34.0549E+06    -26.3254E+06     1.51150E+06         26.9486
             586     10.8223E-03     37.0656E-03         1.15991    -640.402E-03        -1.78051     65.7686E-03    -686.370E-03    -640.402E-03        -2.81814     33.2074E-03    -16.3685E-03    -16.8388E-03    -16.2755E-03     32.6441E-03    -16.3685E-03     10.5311E-03     2.13256E+06    -16.2463E+06    -63.1983E+06     2.10690E+06    -63.1726E+06    -16.2463E+06     539.805E+03         24.9353
             587     9.83808E-03     37.0536E-03     688.205E-03    -500.161E-03        -1.42653    -98.5307E-03    -436.333E-03    -703.619E-03        -1.81353     33.4136E-03    -16.4741E-03    -16.9395E-03    -16.3785E-03     32.8526E-03    -16.4741E-03     10.5386E-03     3.81897E+06    -3.71801E+06    -86.0087E+06     3.81030E+06    -86.0000E+06    -3.71801E+06     45.4713E+03         23.9284
             588     8.85430E-03     37.0433E-03     422.825E-03    -555.345E-03        -1.08756    -324.871E-03    -136.401E-03    -758.803E-03         1.19698     33.3609E-03    -16.5422E-03    -16.8187E-03    -16.3824E-03     32.9246E-03    -16.5422E-03     9.30664E-03     4.31236E+06     444.288E+03    -107.816E+06     4.29518E+06    -107.798E+06     444.288E+03    -347.523E+03         23.4128
             589     7.87001E-03     37.0341E-03         1.36532    -801.117E-03        -1.76731    -522.457E-03     120.468E-03    -801.117E-03         3.06544     33.4166E-03    -16.6075E-03    -16.8091E-03    -16.4304E-03     33.0379E-03    -16.6075E-03     8.68701E-03     5.27845E+06     1.45257E+06    -126.038E+06     3.20485E+06    -126.024E+06     3.51211E+06    -336.498E+03         23.1187
             590     6.88631E-03     37.0252E-03         1.08582    -802.705E-03        -1.47080    -637.775E-03     283.447E-03    -833.360E-03         2.21923     33.5265E-03    -16.6601E-03    -16.8664E-03    -16.5246E-03     33.1846E-03    -16.6601E-03     8.26789E-03     6.99657E+06     3.71224E+06    -137.070E+06     3.76594E+06    -137.040E+06     6.91309E+06     750.872E+03         22.9258
             591     5.90233E-03     37.0169E-03         1.00461    -832.607E-03        -1.34627    -683.069E-03     372.062E-03    -863.262E-03         1.96668     33.6470E-03    -16.6910E-03    -16.9561E-03    -16.6695E-03     33.3605E-03    -16.6910E-03     7.57754E-03     7.94983E+06     5.19799E+06    -149.805E+06     5.24679E+06    -149.770E+06     7.86635E+06     1.13629E+06         22.7854
             592     4.91867E-03     37.0097E-03         1.07162    -853.340E-03        -1.37661    -749.112E-03     484.382E-03    -893.597E-03         1.47156     33.6632E-03    -16.6978E-03    -16.9654E-03    -16.7485E-03     33.4463E-03    -16.6978E-03     6.59218E-03     6.68152E+06     4.16261E+06    -161.242E+06     4.14938E+06    -161.228E+06     6.68152E+06     52.8699E+03         22.6783
             593     3.93536E-03     37.0032E-03         2.60191    -874.835E-03        -2.86775    -864.249E-03     638.663E-03    -915.093E-03         4.51122     33.5252E-03    -16.6872E-03    -16.8380E-03    -16.6850E-03     33.3722E-03    -16.6872E-03     5.50736E-03     4.94161E+06     1.56127E+06    -167.242E+06     2.60907E+06    -167.221E+06     3.87255E+06    -1.09319E+06         22.5963
             594     2.95115E-03     36.9986E-03         3.32319    -913.675E-03        -3.52623    -962.860E-03     759.819E-03    -913.675E-03         2.72125     33.5363E-03    -16.6936E-03    -16.8427E-03    -16.7474E-03     33.4410E-03    -16.6936E-03     4.31846E-03     5.82798E+06     689.071E+03    -176.243E+06     1.74056E+06    -176.226E+06     4.75892E+06    -792.985E+03         22.5357
             595     1.96788E-03     36.9946E-03         3.99695    -892.383E-03        -4.19294    -945.603E-03     749.617E-03    -892.383E-03         4.08436     33.4645E-03    -16.6483E-03    -16.8163E-03    -16.7587E-03     33.4190E-03    -16.6603E-03     2.92921E-03     5.25496E+06     164.913E+03    -182.258E+06     148.444E+03    -182.241E+06     5.25496E+06     1.02530E+06         22.4945
             596     983.806E-06     36.9923E-03         14.3919        -5.87627        -9.58822         4.11737     686.320E-03        -5.87627        -11.4028     33.2070E-03    -16.5637E-03    -16.6434E-03    -16.6167E-03     33.1924E-03    -16.5757E-03     1.60939E-03     1.11228E+06    -2.51605E+06    -184.607E+06    -1.25186E+06    -184.582E+06    -176.433E+03     981.059E+03         22.4707
             597     16.7369E-03     36.6553E-03     860.810E-03    -266.207E-03        -1.90944     833.272E-03        -1.88190    -266.207E-03    -397.353E-03     252.728E-03    -16.6862E-03    -236.042E-03    -51.9753E-03     68.6615E-03    -16.6862E-03     473.640E-03     196.701E+06     99.8363E+06    -5.34317E+06    -5.33688E+06     196.695E+06     99.8363E+06     419.072E+03         65.6584
             598     15.7443E-03     36.2050E-03     984.410E-03    -353.351E-03        -1.94460     776.798E-03        -1.73699    -353.351E-03        -1.38127     144.261E-03    -16.3491E-03    -127.912E-03    -30.8695E-03     47.2186E-03    -16.3491E-03     259.562E-03     154.322E+06     30.9614E+06    -12.9180E+06    -9.25803E+06     154.305E+06     27.3182E+06     528.861E+03         56.6764
             599     14.7616E-03     36.0991E-03         1.23134    -433.299E-03        -2.11081     646.303E-03        -1.52578    -433.299E-03        -2.48974     49.2788E-03    -15.9775E-03    -33.3013E-03    -16.4605E-03     32.4380E-03    -15.9775E-03     61.9194E-03     98.4107E+06    -10.4632E+06    -52.9180E+06    -10.4409E+06     98.3884E+06    -52.9180E+06     1.18087E+06         46.2290
             600     13.7753E-03     36.0752E-03         1.03381    -505.643E-03        -1.83206     447.196E-03        -1.24544    -505.643E-03        -2.30193     33.6157E-03    -15.9387E-03    -17.6770E-03    -15.5038E-03     31.4424E-03    -15.9387E-03     20.5449E-03     53.0842E+06    -7.31127E+06    -65.0370E+06    -7.23873E+06     53.0116E+06    -65.0370E+06     1.52953E+06         37.1637
             601     12.7908E-03     36.0555E-03     490.183E-03    -573.711E-03        -1.20309     284.747E-03    -997.652E-03    -573.711E-03        -1.04408     33.1461E-03    -16.1307E-03    -17.0154E-03    -15.8001E-03     31.9308E-03    -16.1307E-03     15.0818E-03     16.3037E+06    -9.00208E+06    -36.0323E+06    -2.97785E+06     10.2795E+06    -36.0323E+06     1.77575E+06         30.7875
             602     11.8070E-03     36.0435E-03     533.650E-03    -641.403E-03        -1.15685     172.350E-03    -795.549E-03    -641.403E-03        -1.23641     32.8773E-03    -16.2365E-03    -16.6408E-03    -16.0296E-03     32.2662E-03    -16.2365E-03     10.8916E-03     169.114E+03    -18.4847E+06    -40.7851E+06     24.6678E+03    -32.5245E+06    -26.6008E+06     717.185E+03         26.9750
             603     10.8221E-03     36.0328E-03         1.15159    -708.685E-03        -1.68431     10.8533E-03    -543.571E-03    -708.685E-03        -2.74761     33.0991E-03    -16.3457E-03    -16.7534E-03    -16.1598E-03     32.5055E-03    -16.3457E-03     10.7875E-03     1.93769E+06    -15.5701E+06    -62.6618E+06     1.93410E+06    -62.6582E+06    -15.5701E+06     120.547E+03         24.9474
             604     9.83838E-03     36.0205E-03     704.028E-03    -524.875E-03        -1.39835    -199.281E-03    -249.316E-03    -770.596E-03        -1.74536     33.2899E-03    -16.4596E-03    -16.8302E-03    -16.2546E-03     32.7142E-03    -16.4596E-03     10.6366E-03     3.11933E+06    -3.34247E+06    -85.5232E+06     3.11253E+06    -85.5164E+06    -3.34247E+06     226.409E+03         23.9315
             605     8.85412E-03     36.0107E-03     481.402E-03    -579.720E-03        -1.10291    -362.469E-03    -13.3174E-03    -825.441E-03         1.20969     33.2844E-03    -16.5385E-03    -16.7459E-03    -16.2953E-03     32.8338E-03    -16.5385E-03     9.44966E-03     3.22965E+06     825.363E+03    -107.969E+06     3.22197E+06    -107.961E+06     825.363E+03     482.981E+03         23.4120
             606     7.87033E-03     36.0011E-03         1.39016    -877.491E-03        -1.69659    -464.686E-03     158.262E-03    -877.491E-03         3.02293     33.3959E-03    -16.6048E-03    -16.7911E-03    -16.3837E-03     32.9884E-03    -16.6048E-03     8.99980E-03     4.88758E+06     2.15427E+06    -125.523E+06     3.68807E+06    -125.515E+06     3.34573E+06     27.9303E+03         23.1170
             607     6.88622E-03     35.9923E-03         1.14278    -841.349E-03        -1.47032    -581.621E-03     341.422E-03    -928.695E-03         2.20097     33.5548E-03    -16.6540E-03    -16.9008E-03    -16.5397E-03     33.1937E-03    -16.6540E-03     8.49864E-03     5.81350E+06     3.25097E+06    -138.038E+06     3.96712E+06    -138.030E+06     5.08980E+06    -484.478E+03         22.9245
             608     5.90233E-03     35.9839E-03         1.12288    -887.132E-03        -1.39323    -731.241E-03     548.232E-03    -974.479E-03         1.98027     33.6214E-03    -16.6840E-03    -16.9374E-03    -16.6438E-03     33.3278E-03    -16.6840E-03     7.66226E-03     5.26017E+06     2.84268E+06    -149.793E+06     2.91514E+06    -149.782E+06     5.17670E+06     734.622E+03         22.7849
             609     4.91881E-03     35.9762E-03         1.28582    -993.849E-03        -1.43385    -908.977E-03     772.172E-03        -1.00507         1.58093     33.5498E-03    -16.6971E-03    -16.8527E-03    -16.6215E-03     33.3311E-03    -16.7096E-03     6.60897E-03     5.60826E+06     3.15578E+06    -159.391E+06     3.25411E+06    -159.376E+06     5.49518E+06     441.314E+03         22.6786
             610     3.93456E-03     35.9707E-03         2.77992    -999.058E-03        -2.90478        -1.05020     936.569E-03        -1.01028         4.59266     33.5530E-03    -16.7116E-03    -16.8414E-03    -16.6667E-03     33.3908E-03    -16.7241E-03     5.69011E-03     4.93552E+06     2.60679E+06    -167.308E+06     4.25453E+06    -167.280E+06     3.25955E+06    -498.966E+03         22.5974
             611     2.95112E-03     35.9651E-03         3.30704    -994.301E-03        -3.41158        -1.06311     958.563E-03    -994.301E-03         2.87076     33.6285E-03    -16.7177E-03    -16.9108E-03    -16.7873E-03     33.5237E-03    -16.7364E-03     4.53932E-03     3.67636E+06     679.433E+03    -178.195E+06     2.43612E+06    -178.172E+06     1.89680E+06     47.5104E+03         22.5374
             612     1.96752E-03     35.9616E-03         3.91371    -988.316E-03        -3.99340    -968.025E-03     888.333E-03    -988.316E-03         4.10924     33.5605E-03    -16.7023E-03    -16.8582E-03    -16.7785E-03     33.5116E-03    -16.7331E-03     3.03550E-03     4.91799E+06     1.07807E+06    -182.721E+06     1.28359E+06    -182.710E+06     4.70130E+06     315.954E+03         22.4967
             613     983.875E-06     35.9599E-03         14.1163        -6.08053        -9.08490         4.09405     937.353E-03        -6.08053        -10.9758     33.4104E-03    -16.6468E-03    -16.7637E-03    -16.7359E-03     33.3947E-03    -16.6588E-03     1.68206E-03     4.99798E+06    -260.268E+03    -182.463E+06     952.274E+03    -182.445E+06     3.76777E+06     956.260E+03         22.4733
             614     16.7257E-03     35.6186E-03     886.898E-03    -312.490E-03        -1.86902     862.725E-03        -1.84484    -312.490E-03    -382.964E-03     252.761E-03    -16.7594E-03    -236.002E-03    -52.1587E-03     68.9181E-03    -16.7594E-03     473.500E-03     195.660E+06     99.5498E+06    -6.37471E+06    -6.35290E+06     195.639E+06     99.5498E+06     35.3469E+03         65.4870
             615     15.7478E-03     35.1712E-03     967.338E-03    -400.605E-03        -1.86524     768.806E-03        -1.66671    -400.605E-03        -1.30826     144.189E-03    -16.3761E-03    -127.813E-03    -32.2433E-03     48.6194E-03    -16.3761E-03     258.674E-03     153.863E+06     29.0267E+06    -12.8584E+06    -11.3556E+06     153.837E+06     27.5500E+06     899.616E+03         56.5938
             616     14.7606E-03     35.0671E-03         1.16074    -479.684E-03        -1.97432     577.157E-03        -1.39073    -479.684E-03        -2.38472     49.3642E-03    -15.9789E-03    -33.3853E-03    -16.4743E-03     32.4533E-03    -15.9789E-03     62.2209E-03     98.9492E+06    -10.2362E+06    -47.9004E+06    -10.2151E+06     98.9280E+06    -47.9004E+06     968.882E+03         46.2310
             617     13.7765E-03     35.0427E-03     998.005E-03    -550.797E-03        -1.72541     404.142E-03        -1.13154    -550.797E-03        -2.23722     33.6730E-03    -15.9290E-03    -17.7440E-03    -15.4666E-03     31.3956E-03    -15.9290E-03     21.0390E-03     52.3853E+06    -5.90641E+06     -62.127E+06    -5.82228E+06     52.3012E+06     -62.127E+06     1.43170E+06         37.2031
             618     12.7914E-03     35.0232E-03     506.584E-03    -621.303E-03        -1.14403     304.844E-03    -942.290E-03    -621.303E-03    -999.786E-03     33.0209E-03    -16.1129E-03    -16.9080E-03    -15.6305E-03     31.7434E-03    -16.1129E-03     15.4319E-03     15.6239E+06    -7.28757E+06    -35.8879E+06    -2.69578E+06     11.0321E+06    -35.8879E+06     1.36379E+06         30.8291
             619     11.8063E-03     35.0105E-03     510.805E-03    -693.220E-03        -1.05412     163.024E-03    -706.342E-03    -693.220E-03        -1.11643     32.8524E-03    -16.2301E-03    -16.6224E-03    -15.9746E-03     32.2047E-03    -16.2301E-03     11.1978E-03     136.458E+03    -17.0646E+06    -39.7792E+06     14.4563E+03    -31.0899E+06    -25.6319E+06     111.390E+03         27.0030
             620     10.8230E-03     35.0002E-03         1.07478    -761.082E-03        -1.52709    -64.7385E-03    -387.574E-03    -761.082E-03        -2.55075     33.0995E-03    -16.3379E-03    -16.7617E-03    -16.1340E-03     32.4718E-03    -16.3379E-03     11.0835E-03     2.92243E+06    -15.5390E+06    -62.6902E+06     2.91934E+06    -62.6871E+06    -15.5390E+06    -260.050E+03         24.9612
             621     9.83822E-03     34.9878E-03     743.720E-03    -593.078E-03        -1.34249    -283.977E-03    -87.8190E-03    -820.052E-03        -1.55844     33.2111E-03    -16.4581E-03    -16.7529E-03    -16.1443E-03     32.6024E-03    -16.4581E-03     10.9077E-03     4.55600E+06    -3.50874E+06    -86.1602E+06     4.54955E+06    -86.1537E+06    -3.50874E+06     564.919E+03         23.9361
             622     8.85421E-03     34.9779E-03     593.779E-03    -645.422E-03        -1.12199    -420.896E-03     119.657E-03    -872.397E-03         1.29186     33.2721E-03    -16.5440E-03    -16.7281E-03    -16.2626E-03     32.8067E-03    -16.5440E-03     9.59623E-03     5.04871E+06     648.905E+03    -107.768E+06     5.04014E+06    -107.759E+06     648.905E+03     885.216E+03         23.4125
             623     7.86983E-03     34.9684E-03         1.41345    -926.554E-03        -1.64466    -467.470E-03     236.268E-03    -926.554E-03         2.97297     33.4259E-03    -16.6080E-03    -16.8179E-03    -16.3989E-03     33.0069E-03    -16.6080E-03     9.13517E-03     5.21444E+06     1.92174E+06    -123.933E+06     4.78084E+06    -123.922E+06     2.34428E+06     369.224E+03         23.1166
             624     6.88599E-03     34.9592E-03         1.16462    -853.843E-03        -1.45481    -556.058E-03     398.332E-03    -986.304E-03         2.13117     33.5988E-03    -16.6660E-03    -16.9329E-03    -16.5595E-03     33.2255E-03    -16.6660E-03     8.64776E-03     5.10920E+06     2.60417E+06    -139.282E+06     3.22116E+06    -139.259E+06     4.46898E+06     973.701E+03         22.9245
             625     5.90259E-03     34.9505E-03         1.16092    -906.156E-03        -1.38921    -782.789E-03     686.963E-03        -1.03862         1.85154     33.5747E-03    -16.6916E-03    -16.8831E-03    -16.5812E-03     33.2728E-03    -16.6916E-03     7.76133E-03     5.12005E+06     794.986E+03    -149.645E+06     2.80415E+06    -149.621E+06     3.08649E+06     671.794E+03         22.7856
             626     4.91828E-03     34.9438E-03         1.37851        -1.06515        -1.43387        -1.01485     959.497E-03        -1.06515         1.43422     33.5262E-03    -16.7128E-03    -16.8134E-03    -16.5767E-03     33.3020E-03    -16.7253E-03     6.68281E-03     4.76557E+06     1.46844E+06    -157.678E+06     3.59867E+06    -157.661E+06     2.61893E+06    -803.909E+03         22.6800
             627     3.93467E-03     34.9372E-03         2.77271        -1.07395        -2.80192        -1.04499         1.01578        -1.07395         4.33893     33.6262E-03    -16.7433E-03    -16.8829E-03    -16.6940E-03     33.4665E-03    -16.7724E-03     5.64274E-03     3.90113E+06     2.61426E+06    -169.061E+06     3.20220E+06    -169.042E+06     3.29422E+06     505.849E+03         22.5994
             628     2.95098E-03     34.9321E-03         3.17037        -1.09278        -3.14999        -1.00308         1.02346        -1.09278         2.87965     33.6238E-03    -16.7545E-03    -16.8693E-03    -16.7177E-03     33.5247E-03    -16.8070E-03     4.41359E-03     3.73524E+06     2.21258E+06    -177.649E+06     3.34274E+06    -177.636E+06     2.59129E+06     1.22220E+06         22.5400
             629     1.96697E-03     34.9285E-03         3.81326        -1.14343        -3.71012        -1.00227         1.10541        -1.14343         4.08975     33.6736E-03    -16.7877E-03    -16.8859E-03    -16.7720E-03     33.6255E-03    -16.8536E-03     3.03034E-03     4.47005E+06     2.61414E+06    -181.946E+06     3.25732E+06    -181.939E+06     3.81992E+06    -559.645E+03         22.4996
             630     983.557E-06     34.9262E-03         13.6706        -6.02119        -8.66091         3.99986         1.34526        -6.35659        -10.2861     33.7435E-03    -16.7854E-03    -16.9581E-03    -16.9121E-03     33.7276E-03    -16.8155E-03     1.65754E-03     3.88034E+06     677.867E+03    -182.970E+06     1.03170E+06    -182.949E+06     3.50582E+06    -1.07210E+06         22.4764
             631     16.7303E-03     34.5779E-03     866.139E-03    -353.511E-03        -1.80217     847.109E-03        -1.78314    -353.511E-03    -340.355E-03     252.269E-03    -16.7731E-03    -235.496E-03    -52.0730E-03     68.8460E-03    -16.7731E-03     472.509E-03     195.759E+06     102.050E+06    -7.09043E+06    -7.06369E+06     195.732E+06     102.050E+06    -11.3747E+03         65.3392
             632     15.7446E-03     34.1384E-03     882.341E-03    -439.443E-03        -1.72888     701.654E-03        -1.54820    -439.443E-03        -1.17471     142.316E-03    -16.3841E-03    -125.932E-03    -31.5431E-03     47.9272E-03    -16.3841E-03     255.152E-03     154.405E+06     33.0990E+06    -14.9698E+06    -10.6565E+06     154.382E+06     28.8087E+06    -406.137E+03         56.5284
             633     14.7612E-03     34.0342E-03         1.06361    -515.296E-03        -1.81666     512.519E-03        -1.26557    -515.296E-03        -2.21636     49.2615E-03    -15.9866E-03    -33.2748E-03    -16.4195E-03     32.4062E-03    -15.9866E-03     62.1445E-03     97.4355E+06    -9.02343E+06    -48.4422E+06    -8.98147E+06     97.3936E+06    -48.4422E+06     248.759E+03         46.2376
             634     13.7758E-03     34.0103E-03     952.589E-03    -585.622E-03        -1.61611     384.853E-03        -1.04837    -585.622E-03        -2.12003     33.8683E-03    -15.9346E-03    -17.9336E-03    -15.5562E-03     31.4908E-03    -15.9346E-03     21.5643E-03     52.1346E+06    -6.03746E+06    -63.0871E+06    -5.92597E+06     52.0231E+06    -63.0871E+06     1.85694E+06         37.2456
             635     12.7912E-03     33.9910E-03     479.154E-03    -654.861E-03        -1.05100     286.115E-03    -855.626E-03    -657.196E-03    -940.395E-03     33.1544E-03    -16.0994E-03    -17.0549E-03    -15.7067E-03     31.8062E-03    -16.0994E-03     15.9013E-03     18.5551E+06    -6.27766E+06     -38.292E+06    -1.07877E+06     13.3562E+06     -38.292E+06     464.333E+03         30.8748
             636     11.8070E-03     33.9778E-03     459.711E-03    -727.607E-03    -935.312E-03     134.438E-03    -607.704E-03    -729.942E-03        -1.00654     32.7773E-03    -16.2290E-03    -16.5483E-03    -15.8496E-03     32.0786E-03    -16.2290E-03     11.6147E-03     3.04766E+06    -16.5067E+06    -40.8323E+06     2.96645E+06    -30.6579E+06    -26.5999E+06    -496.950E+03         27.0349
             637     10.8219E-03     33.9673E-03         1.01573    -798.152E-03        -1.39699    -97.6002E-03    -283.667E-03    -798.152E-03        -2.37421     33.0858E-03    -16.3502E-03    -16.7356E-03    -16.0761E-03     32.4263E-03    -16.3502E-03     11.3674E-03     4.63691E+06    -16.6202E+06    -63.4156E+06     4.62843E+06    -63.4071E+06    -16.6202E+06     268.130E+03         24.9781
             638     9.83817E-03     33.9554E-03     786.288E-03    -647.809E-03        -1.29571    -339.234E-03     38.1733E-03    -856.174E-03        -1.42890     33.2943E-03    -16.4743E-03    -16.8199E-03    -16.1869E-03     32.6613E-03    -16.4743E-03     11.1583E-03     5.41769E+06    -4.61099E+06    -86.3992E+06     5.40978E+06    -86.3913E+06    -4.61099E+06     732.836E+03         23.9435
             639     8.85379E-03     33.9449E-03     683.926E-03    -697.200E-03        -1.12580    -486.982E-03     253.475E-03    -905.566E-03         1.30377     33.3603E-03    -16.5649E-03    -16.7954E-03    -16.3071E-03     32.8720E-03    -16.5649E-03     9.83516E-03       6.209E+06     1.05217E+06    -107.258E+06     6.19168E+06    -107.241E+06     1.05217E+06     1.18225E+06         23.4155
             640     7.87009E-03     33.9356E-03         1.45694    -953.756E-03        -1.62689    -558.203E-03     388.255E-03    -953.756E-03         2.93026     33.5344E-03    -16.6319E-03    -16.9025E-03    -16.4711E-03     33.1030E-03    -16.6319E-03     9.28473E-03     5.78547E+06     3.30151E+06    -124.132E+06     5.28834E+06    -124.091E+06     3.75718E+06     2.01285E+06         23.1183
             641     6.88619E-03     33.9259E-03         1.27955    -932.623E-03        -1.45947    -691.070E-03     579.198E-03        -1.00067         2.14597     33.5686E-03    -16.6878E-03    -16.8807E-03    -16.4984E-03     33.1862E-03    -16.6878E-03     8.73453E-03     5.87688E+06     4.00899E+06    -139.229E+06     4.58255E+06    -139.186E+06     5.25956E+06     1.82057E+06         22.9261
             642     5.90181E-03     33.9179E-03         1.22677    -967.336E-03        -1.36469    -882.689E-03     812.823E-03        -1.03538         1.78394     33.5605E-03    -16.7201E-03    -16.8403E-03    -16.5377E-03     33.2578E-03    -16.7201E-03     7.77086E-03     6.21799E+06      2.6839E+06    -147.721E+06     5.39778E+06    -147.696E+06     3.47880E+06     297.052E+03         22.7875
             643     4.91834E-03     33.9104E-03         1.32432        -1.03228        -1.38468    -999.837E-03     960.361E-03        -1.05317         1.27910     33.6787E-03    -16.7575E-03    -16.9212E-03    -16.6916E-03     33.4491E-03    -16.7575E-03     6.78127E-03     4.88480E+06     2.37376E+06    -157.919E+06     4.56882E+06    -157.905E+06     2.67501E+06     160.461E+03         22.6824
             644     3.93462E-03     33.9041E-03         2.58831        -1.05223        -2.60966    -954.167E-03     953.705E-03        -1.07313         3.96406     33.6822E-03    -16.7815E-03    -16.9007E-03    -16.7179E-03     33.5238E-03    -16.8058E-03     5.61186E-03     4.42865E+06     2.98432E+06    -170.407E+06      3.0636E+06    -170.398E+06     4.34074E+06     731.353E+03         22.6024
             645     2.95067E-03     33.8990E-03         2.95545        -1.12324        -2.87449    -910.758E-03     991.722E-03        -1.12324         2.72601     33.6341E-03    -16.7825E-03    -16.8516E-03    -16.6859E-03     33.5376E-03    -16.8516E-03     4.36862E-03     5.24073E+06     2.91712E+06    -175.636E+06     3.34017E+06    -175.626E+06     4.80728E+06     1.03829E+06         22.5433
             646     1.96723E-03     33.8952E-03         3.58927        -1.22212        -3.37274    -967.829E-03         1.18436        -1.22212         3.83041     33.7471E-03    -16.8320E-03    -16.9151E-03    -16.7919E-03     33.6987E-03    -16.9067E-03     3.02961E-03     4.22541E+06     1.89049E+06    -181.227E+06     2.31646E+06    -181.219E+06     3.79196E+06     453.308E+03         22.5032
             647     983.364E-06     33.8928E-03         12.9370        -5.52403        -8.39414         3.89445         1.59071        -6.46633        -9.53764     33.8576E-03    -16.8601E-03    -16.9975E-03    -16.8945E-03     33.8433E-03    -16.9488E-03     1.54059E-03     1.83955E+06     386.779E+03    -184.548E+06     747.252E+03    -184.534E+06     1.46504E+06    -995.891E+03         22.4801
             648     16.7325E-03     33.5474E-03     805.753E-03    -388.572E-03        -1.70268     792.201E-03        -1.68913    -388.572E-03    -286.371E-03     252.981E-03    -16.7282E-03    -236.252E-03    -52.5409E-03     69.2691E-03    -16.7282E-03     473.825E-03     196.349E+06     104.114E+06    -6.63039E+06    -6.60967E+06     196.328E+06     104.114E+06    -1.10823E+06         65.2156
             649     15.7472E-03     33.1048E-03     793.024E-03    -469.910E-03        -1.58610     636.079E-03        -1.42915    -469.910E-03        -1.02972     141.831E-03    -16.3532E-03    -125.478E-03    -30.3040E-03     46.6572E-03    -16.3532E-03     254.945E-03     154.150E+06     32.7670E+06    -15.5104E+06    -10.1348E+06     154.126E+06     27.4150E+06    -665.633E+03         56.4791
             650     14.7603E-03     33.0023E-03         1.00139    -543.380E-03        -1.69652     486.273E-03        -1.18141    -543.380E-03        -2.07065     49.1887E-03    -15.9914E-03    -33.1973E-03    -16.2014E-03     32.1928E-03    -15.9914E-03     62.2310E-03     95.5748E+06    -10.1496E+06    -52.5126E+06    -10.0940E+06     95.5192E+06    -52.5126E+06     632.476E+03         46.2506
             651     13.7753E-03     32.9778E-03     894.234E-03    -612.782E-03        -1.49701     338.802E-03    -941.574E-03    -612.782E-03        -2.01373     34.0146E-03    -15.9273E-03    -18.0872E-03    -15.6969E-03     31.6243E-03    -15.9273E-03     21.6486E-03     53.3736E+06    -4.48435E+06    -68.6826E+06    -4.42864E+06     53.3179E+06    -68.6826E+06     289.764E+03         37.2940
             652     12.7910E-03     32.9578E-03     385.984E-03    -629.014E-03    -947.937E-03     184.678E-03    -695.173E-03    -680.472E-03    -880.918E-03     33.1800E-03    -16.0981E-03    -17.0819E-03    -15.7644E-03     31.8626E-03    -16.0981E-03     15.7686E-03     20.2961E+06    -5.05519E+06    -41.8536E+06     597.637E+03     14.6433E+06    -41.8536E+06    -4.14317E+03         30.9261
             653     11.8061E-03     32.9459E-03     405.479E-03    -695.622E-03    -875.982E-03     47.6528E-03    -466.698E-03    -747.080E-03    -985.201E-03     32.8106E-03    -16.2469E-03    -16.5637E-03    -15.8495E-03     32.0964E-03    -16.2469E-03     11.7567E-03     2.12238E+06    -18.1798E+06    -41.0576E+06     1.88991E+06    -31.2140E+06    -27.7909E+06     895.929E+03         27.0720
             654     10.8220E-03     32.9344E-03         1.01589    -810.885E-03        -1.34641    -137.007E-03    -193.511E-03    -810.885E-03        -2.33728     33.0969E-03    -16.3692E-03    -16.7276E-03    -16.0727E-03     32.4419E-03    -16.3692E-03     11.3428E-03     2.72562E+06    -18.0571E+06    -63.7523E+06     2.70234E+06    -63.7290E+06    -18.0571E+06     1.04930E+06         24.9995
             655     9.83762E-03     32.9226E-03     804.876E-03    -648.392E-03        -1.27386    -352.459E-03     102.318E-03    -867.231E-03        -1.46439     33.3046E-03    -16.4976E-03    -16.8070E-03    -16.1965E-03     32.6941E-03    -16.4976E-03     10.9648E-03     3.63380E+06    -5.27455E+06    -86.3174E+06     3.61785E+06    -86.3015E+06    -5.27455E+06     1.06789E+06         23.9543
             656     8.85369E-03     32.9122E-03     723.704E-03    -696.162E-03        -1.12602    -517.638E-03     334.157E-03    -915.001E-03         1.21857     33.3800E-03    -16.5881E-03    -16.7919E-03    -16.2925E-03     32.8805E-03    -16.5881E-03     9.95495E-03     3.90885E+06    -259.658E+03    -107.508E+06     3.87717E+06    -107.476E+06    -259.658E+03     1.77153E+06         23.4210
             657     7.86956E-03     32.9023E-03         1.48888    -955.121E-03        -1.61728    -665.100E-03     536.705E-03    -955.121E-03         2.86139     33.5710E-03    -16.6589E-03    -16.9121E-03    -16.4548E-03     33.1137E-03    -16.6589E-03     9.56168E-03     5.43099E+06     2.91660E+06    -124.326E+06     5.35256E+06    -124.281E+06     2.94974E+06     1.79802E+06         23.1217
             658     6.88571E-03     32.8932E-03         1.37895    -984.584E-03        -1.46852    -823.491E-03     733.920E-03    -984.584E-03         2.22614     33.6592E-03    -16.7185E-03    -16.9407E-03    -16.5505E-03     33.2691E-03    -16.7185E-03     8.83265E-03     7.65323E+06     6.05407E+06    -137.199E+06     7.52957E+06    -137.166E+06     6.14441E+06     990.054E+03         22.9290
             659     5.90208E-03     32.8847E-03         1.30963        -1.00224        -1.37640    -925.594E-03     858.828E-03        -1.00224         1.92574     33.6777E-03    -16.7637E-03    -16.9139E-03    -16.6059E-03     33.3697E-03    -16.7637E-03     7.85822E-03     7.27685E+06     6.46445E+06    -147.458E+06     7.15121E+06    -147.440E+06     6.57121E+06     1.20331E+06         22.7904
             660     4.91804E-03     32.8772E-03         1.29840    -992.366E-03        -1.36076    -964.598E-03     923.128E-03        -1.01326         1.40806     33.7462E-03    -16.8009E-03    -16.9453E-03    -16.7120E-03     33.5130E-03    -16.8009E-03     6.83074E-03     6.06071E+06     5.70860E+06    -158.299E+06      5.9902E+06    -158.278E+06     5.75817E+06     1.82071E+06         22.6854
             661     3.93444E-03     32.8708E-03         2.44343        -1.00609        -2.47041    -954.019E-03     947.928E-03        -1.02698         3.82689     33.7633E-03    -16.8292E-03    -16.9342E-03    -16.7708E-03     33.6077E-03    -16.8369E-03     5.57140E-03     6.17715E+06     4.88123E+06    -169.117E+06     5.08169E+06    -169.103E+06     5.96294E+06     1.23344E+06         22.6055
             662     2.95091E-03     32.8660E-03         2.73155        -1.05296        -2.67926    -949.685E-03         1.00197        -1.05296         2.72256     33.7653E-03    -16.8329E-03    -16.9324E-03    -16.7999E-03     33.6681E-03    -16.8683E-03     4.40096E-03     6.65540E+06     3.81702E+06    -175.773E+06     3.80833E+06    -175.765E+06     6.65540E+06     890.887E+03         22.5467
             663     1.96689E-03     32.8617E-03         3.20310        -1.10937        -3.05908    -950.518E-03         1.09454        -1.10937         3.57507     33.7716E-03    -16.8394E-03    -16.9321E-03    -16.8329E-03     33.7232E-03    -16.8903E-03     3.00398E-03     6.52187E+06     2.99234E+06    -180.197E+06     2.98363E+06    -180.189E+06     6.52187E+06     1.09116E+06         22.5068
             664     983.738E-06     32.8593E-03         12.0283        -4.95279        -8.01980         3.96200         1.35285        -6.25912        -8.82918     33.7637E-03    -16.8067E-03    -16.9570E-03    -16.8609E-03     33.7496E-03    -16.8887E-03     1.57901E-03     2.04608E+06     92.0139E+03    -184.133E+06     256.960E+03    -184.129E+06     1.87666E+06     477.300E+03         22.4839
             665     16.7307E-03     32.5099E-03     752.641E-03    -413.968E-03        -1.60424     739.921E-03        -1.59152    -413.968E-03    -256.866E-03     253.201E-03    -16.7491E-03    -236.452E-03    -52.2784E-03     69.0274E-03    -16.7491E-03     474.387E-03     196.211E+06     102.840E+06    -6.57978E+06    -6.56748E+06     196.198E+06     102.840E+06    -905.404E+03         65.0894
             666     15.7455E-03     32.0740E-03     767.298E-03    -489.102E-03        -1.50780     602.670E-03        -1.34317    -489.102E-03        -1.02613     141.797E-03    -16.3813E-03    -125.416E-03    -30.5787E-03     46.9600E-03    -16.3813E-03     254.673E-03     152.960E+06     28.7257E+06    -15.0827E+06    -12.2405E+06     152.948E+06     25.8952E+06     205.659E+03         56.4264
             667     14.7595E-03     31.9697E-03     991.960E-03    -559.210E-03        -1.63507     455.414E-03        -1.09852    -559.210E-03        -2.06398     49.4646E-03    -16.0113E-03    -33.4533E-03    -16.4237E-03     32.4350E-03    -16.0113E-03     62.3844E-03     97.6209E+06    -12.0306E+06    -51.5839E+06    -11.9789E+06     97.5692E+06    -51.5839E+06    -644.289E+03         46.2719
             668     13.7756E-03     31.9443E-03     860.465E-03    -624.941E-03        -1.41188     258.765E-03    -810.179E-03    -624.941E-03        -2.00171     33.9460E-03    -15.9336E-03    -18.0124E-03    -15.7420E-03     31.6756E-03    -15.9336E-03     21.0838E-03     53.4247E+06    -6.54113E+06    -69.3784E+06    -6.47848E+06     53.3621E+06    -69.3784E+06    -1.79836E+06         37.3519
             669     12.7905E-03     31.9261E-03     322.494E-03    -569.195E-03    -903.709E-03     69.9074E-03    -534.728E-03    -685.589E-03    -905.986E-03     33.0599E-03    -16.1194E-03    -16.9405E-03    -15.7084E-03     31.8278E-03    -16.1194E-03     15.2194E-03     17.0007E+06    -7.65446E+06    -40.7827E+06    -2.79982E+06     12.1461E+06    -40.7827E+06     910.922E+03         30.9850
             670     11.8062E-03     31.9127E-03     367.026E-03    -625.297E-03    -867.246E-03    -90.3352E-03    -293.491E-03    -741.691E-03        -1.01625     32.8077E-03    -16.2723E-03    -16.5354E-03    -15.8610E-03     32.1333E-03    -16.2723E-03     11.4285E-03     9.10110E+03    -17.7393E+06    -37.8940E+06    -577.694E+03    -30.2935E+06    -24.7530E+06     2.26800E+06         27.1151
             671     10.8219E-03     31.9020E-03         1.02816    -794.707E-03        -1.33252    -220.312E-03    -84.0465E-03    -794.707E-03        -2.34932     33.0736E-03    -16.3828E-03    -16.6907E-03    -16.0421E-03     32.4250E-03    -16.3828E-03     11.2747E-03     1.46328E+06    -16.9511E+06    -62.9877E+06     1.43494E+06    -62.9593E+06    -16.9511E+06     1.19577E+06         25.0255
             672     9.83778E-03     31.8895E-03     802.528E-03    -618.431E-03        -1.25777    -344.693E-03     116.531E-03    -845.511E-03        -1.51404     33.2489E-03    -16.5079E-03    -16.7410E-03    -16.1289E-03     32.6368E-03    -16.5079E-03     10.9553E-03     2.92170E+06    -6.15191E+06    -87.4343E+06     2.89859E+06    -87.4112E+06    -6.15191E+06     1.38646E+06         23.9684
             673     8.85349E-03     31.8795E-03     727.508E-03    -663.118E-03        -1.11695    -529.399E-03     367.034E-03    -890.198E-03         1.15316     33.3611E-03    -16.5980E-03    -16.7631E-03    -16.2614E-03     32.8594E-03    -16.5980E-03     9.97760E-03     4.34716E+06    -1.80382E+06    -107.344E+06     4.32175E+06    -107.319E+06    -1.80382E+06     1.53413E+06         23.4288
             674     7.86933E-03     31.8693E-03         1.47939    -923.483E-03        -1.59427    -704.708E-03     589.830E-03    -923.483E-03         2.78635     33.5762E-03    -16.6711E-03    -16.9051E-03    -16.4539E-03     33.1250E-03    -16.6711E-03     9.49014E-03     5.24122E+06     1.17206E+06    -122.896E+06     5.22779E+06    -122.882E+06     1.17206E+06     760.472E+03         23.1265
             675     6.88549E-03     31.8599E-03         1.34124    -948.015E-03        -1.42413    -790.022E-03     707.137E-03    -948.015E-03         2.23293     33.7024E-03    -16.7345E-03    -16.9679E-03    -16.6014E-03     33.3359E-03    -16.7345E-03     8.56845E-03     5.38859E+06     3.93634E+06    -136.398E+06     4.85078E+06    -136.385E+06     4.46087E+06     898.897E+03         22.9326
             676     5.90161E-03     31.8516E-03         1.27580    -969.685E-03        -1.33179    -841.080E-03     785.088E-03    -969.685E-03         1.98740     33.7362E-03    -16.7770E-03    -16.9592E-03    -16.6604E-03     33.4374E-03    -16.7770E-03     7.74937E-03     5.52233E+06     4.89167E+06    -147.870E+06     4.86773E+06    -147.846E+06     5.52233E+06     1.86840E+06         22.7934
             677     4.91810E-03     31.8439E-03         1.31964    -984.106E-03        -1.34521    -944.960E-03     919.388E-03    -984.106E-03         1.60766     33.7239E-03    -16.8100E-03    -16.9139E-03    -16.6799E-03     33.4957E-03    -16.8158E-03     6.74826E-03     5.81827E+06     5.15151E+06    -157.906E+06     5.24355E+06    -157.871E+06     5.69197E+06     2.34303E+06         22.6881
             678     3.93427E-03     31.8376E-03         2.42872    -982.119E-03        -2.43326        -1.02803         1.02349    -982.119E-03         3.90077     33.8093E-03    -16.8429E-03    -16.9664E-03    -16.8060E-03     33.6547E-03    -16.8487E-03     5.57032E-03     5.95905E+06     4.68249E+06    -167.629E+06     5.09606E+06    -167.606E+06     5.52207E+06     1.82248E+06         22.6081
             679     2.95063E-03     31.8324E-03         2.60547    -951.449E-03        -2.60451        -1.09949         1.10046    -951.449E-03         2.93413     33.9003E-03    -16.8510E-03    -17.0493E-03    -16.9535E-03     33.8045E-03    -16.8510E-03     4.35516E-03     6.51068E+06     4.19819E+06    -175.463E+06     4.50368E+06    -175.458E+06     6.20000E+06     777.380E+03         22.5493
             680     1.96762E-03     31.8284E-03         2.76002    -900.255E-03        -2.78634        -1.00456     978.245E-03    -900.255E-03         3.33282     33.7228E-03    -16.7804E-03    -16.9424E-03    -16.8371E-03     33.6790E-03    -16.8419E-03     2.87994E-03     8.21627E+06     3.92848E+06    -179.609E+06     3.92341E+06    -179.604E+06     8.21627E+06     783.655E+03         22.5095
             681     983.416E-06     31.8261E-03         10.9408        -4.31975        -7.53691         4.13673     831.267E-03        -5.88382        -7.99613     33.6407E-03    -16.7508E-03    -16.8899E-03    -16.8105E-03     33.6228E-03    -16.8123E-03     1.86195E-03     4.87561E+06     1.88508E+06    -182.420E+06     2.16605E+06    -182.401E+06     4.57631E+06     1.39645E+06         22.4866
             682     16.7285E-03     31.4736E-03     718.531E-03    -424.463E-03        -1.52309     698.722E-03        -1.50328    -424.463E-03    -291.802E-03     252.113E-03    -16.7479E-03    -235.365E-03    -51.9374E-03     68.6853E-03    -16.7479E-03     472.317E-03     196.160E+06     103.033E+06    -7.55961E+06    -7.55895E+06     196.159E+06     103.033E+06    -9.18270E+03         64.9741
             683     15.7446E-03     31.0407E-03     759.299E-03    -489.936E-03        -1.45933     547.921E-03        -1.24795    -489.936E-03        -1.15081     140.072E-03    -16.3809E-03    -123.691E-03    -30.2675E-03     46.6484E-03    -16.3809E-03     251.239E-03     153.540E+06     30.2096E+06    -14.9482E+06    -12.0326E+06     153.526E+06     27.3077E+06    -811.144E+03         56.3908
             684     14.7611E-03     30.9364E-03         1.00828    -552.638E-03        -1.61221     395.673E-03    -999.602E-03    -552.638E-03        -2.17480     49.2062E-03    -16.0058E-03    -33.2004E-03    -16.2979E-03     32.3037E-03    -16.0058E-03     62.1340E-03     99.6145E+06    -11.2005E+06    -50.3729E+06    -11.1470E+06     99.5610E+06    -50.3729E+06    -1.37727E+06         46.3072
             685     13.7754E-03     30.9123E-03     872.428E-03    -612.529E-03        -1.38921     201.049E-03    -717.827E-03    -612.529E-03        -2.06579     33.8782E-03    -15.9353E-03    -17.9429E-03    -15.6120E-03     31.5473E-03    -15.9353E-03     21.3046E-03     51.9673E+06    -9.05628E+06    -70.3023E+06    -9.00598E+06     51.9170E+06    -70.3023E+06    -1.07946E+06         37.4190
             686     12.7912E-03     30.8930E-03     305.805E-03    -529.353E-03    -880.577E-03    -9.96939E-03    -427.804E-03    -666.351E-03    -957.222E-03     33.1639E-03    -16.1107E-03    -17.0532E-03    -15.7791E-03     31.8898E-03    -16.1107E-03     15.5120E-03     14.9260E+06    -9.71759E+06    -44.0524E+06    -4.79929E+06     10.0077E+06    -44.0524E+06    -162.228E+03         31.0508
             687     11.8066E-03     30.8807E-03     354.063E-03    -576.632E-03    -855.794E-03    -174.286E-03    -190.447E-03    -713.631E-03        -1.04638     32.8641E-03    -16.2625E-03    -16.6017E-03    -15.8946E-03     32.1570E-03    -16.2625E-03     11.7075E-03     1.33545E+06    -16.4146E+06    -39.7685E+06     765.333E+03    -29.8391E+06    -25.7739E+06     1.02998E+06         27.1637
             688     10.8219E-03     30.8690E-03         1.02845    -757.393E-03        -1.32314    -279.004E-03    -15.6807E-03    -757.393E-03        -2.33554     33.0450E-03    -16.3863E-03    -16.6587E-03    -16.0065E-03     32.3929E-03    -16.3863E-03     11.3038E-03     3.69954E+06    -15.2956E+06    -62.4821E+06     3.65205E+06    -62.4346E+06    -15.2956E+06     1.69233E+06         25.0556
             689     9.83753E-03     30.8571E-03     824.223E-03    -626.612E-03        -1.22227    -396.941E-03     170.970E-03    -798.690E-03        -1.45683     33.2279E-03    -16.5075E-03    -16.7205E-03    -16.1163E-03     32.6237E-03    -16.5075E-03     10.8875E-03     4.39611E+06    -6.07728E+06    -87.1760E+06     4.36391E+06    -87.1438E+06    -6.07728E+06     1.55904E+06         23.9853
             690     8.85329E-03     30.8466E-03     750.289E-03    -661.658E-03        -1.09185    -553.081E-03     383.595E-03    -833.736E-03         1.19084     33.4066E-03    -16.5954E-03    -16.8111E-03    -16.3125E-03     32.9079E-03    -16.5954E-03     9.95590E-03     5.04840E+06    -1.90145E+06    -106.615E+06     5.03722E+06    -106.603E+06    -1.90145E+06     1.03864E+06         23.4381
             691     7.86956E-03     30.8362E-03         1.41776    -861.091E-03        -1.54611    -661.618E-03     533.268E-03    -861.091E-03         2.71015     33.6029E-03    -16.6697E-03    -16.9332E-03    -16.4881E-03     33.1578E-03    -16.6697E-03     9.43461E-03     5.34855E+06     2.02914E+06    -122.530E+06     5.33146E+06    -122.513E+06     2.02914E+06     1.35674E+06         23.1321
             692     6.88571E-03     30.8268E-03         1.22811    -885.166E-03        -1.32587    -712.801E-03     615.035E-03    -885.166E-03         2.09098     33.6718E-03    -16.7324E-03    -16.9394E-03    -16.5766E-03     33.3090E-03    -16.7324E-03     8.52072E-03     5.43538E+06     4.81865E+06    -136.515E+06     4.94606E+06    -136.493E+06     5.28598E+06     1.69305E+06         22.9362
             693     5.90202E-03     30.8183E-03         1.11669    -910.875E-03        -1.18506    -742.076E-03     673.709E-03    -910.875E-03         1.76638     33.6994E-03    -16.7735E-03    -16.9259E-03    -16.6314E-03     33.4050E-03    -16.7735E-03     7.69005E-03     5.46026E+06     4.20575E+06    -147.439E+06     4.18603E+06    -147.412E+06     5.45382E+06     1.93213E+06         22.7960
             694     4.91807E-03     30.8107E-03         1.19952    -932.666E-03        -1.22868    -849.337E-03     820.177E-03    -932.666E-03         1.56500     33.7194E-03    -16.8027E-03    -16.9167E-03    -16.6839E-03     33.4924E-03    -16.8085E-03     6.73265E-03     5.26625E+06     3.49408E+06    -157.267E+06     4.01853E+06    -157.234E+06     4.70914E+06     2.20384E+06         22.6900
             695     3.93432E-03     30.8044E-03         2.31981    -928.129E-03        -2.32706        -1.02708         1.01983    -928.129E-03         3.81072     33.8064E-03    -16.8285E-03    -16.9780E-03    -16.8113E-03     33.6456E-03    -16.8343E-03     5.68825E-03     5.11779E+06     3.65838E+06    -166.556E+06     4.66235E+06    -166.535E+06     4.09271E+06     1.68803E+06         22.6094
             696     2.95103E-03     30.7986E-03         2.42273    -868.915E-03        -2.45096        -1.14768         1.11945    -868.915E-03         3.09185     33.8358E-03    -16.8261E-03    -17.0097E-03    -16.8873E-03     33.7350E-03    -16.8478E-03     4.43816E-03     5.82768E+06     4.64393E+06    -173.776E+06     5.10515E+06    -173.769E+06     5.35971E+06     841.034E+03         22.5503
             697     1.96720E-03     30.7954E-03         2.27860    -775.450E-03        -2.37803    -962.486E-03     863.063E-03    -775.450E-03         2.98110     33.7828E-03    -16.7809E-03    -17.0019E-03    -16.8959E-03     33.7368E-03    -16.8409E-03     2.99559E-03     7.32176E+06     3.93824E+06    -179.783E+06     3.93717E+06    -179.782E+06     7.32176E+06     274.147E+03         22.5103
             698     983.801E-06     30.7931E-03         9.69749        -3.55916        -6.99380         4.15434     600.168E-03        -5.60997        -7.04031     33.6274E-03    -16.7094E-03    -16.9180E-03    -16.8600E-03     33.6076E-03    -16.7476E-03     1.88202E-03     6.13365E+06     3.01439E+06    -180.997E+06     3.12835E+06    -180.981E+06     6.00377E+06     629.984E+03         22.4873
             699     16.7343E-03     30.4415E-03     679.728E-03    -416.252E-03        -1.44724     650.910E-03        -1.41843    -416.252E-03    -353.987E-03     251.525E-03    -16.6879E-03    -234.837E-03    -52.0340E-03     68.7219E-03    -16.6879E-03     471.113E-03     197.678E+06     105.574E+06    -6.93744E+06    -6.93726E+06     197.678E+06     105.574E+06    -130.208E+03         64.8876
             700     15.7486E-03     30.0095E-03     723.104E-03    -469.165E-03        -1.38967     468.425E-03        -1.13500    -469.165E-03        -1.23660     140.275E-03    -16.3418E-03    -123.934E-03    -29.1770E-03     45.5188E-03    -16.3418E-03     252.424E-03     155.122E+06     34.1781E+06    -14.9073E+06    -9.94050E+06     155.105E+06     29.2280E+06    -404.641E+03         56.3808
             701     14.7596E-03     29.9045E-03     997.980E-03    -521.524E-03        -1.57664     313.957E-03    -892.620E-03    -521.524E-03        -2.24464     49.5630E-03    -15.9995E-03    -33.5636E-03    -16.0641E-03     32.0635E-03    -15.9995E-03     63.1901E-03     97.9024E+06    -10.8234E+06    -52.4420E+06    -10.8025E+06     97.8814E+06    -52.4420E+06    -295.664E+03         46.3547
             702     13.7752E-03     29.8793E-03     877.969E-03    -573.834E-03        -1.37792     159.085E-03    -659.034E-03    -573.834E-03        -2.10148     33.8349E-03    -15.9503E-03    -17.8845E-03    -15.5131E-03     31.4635E-03    -15.9503E-03     21.4937E-03      52.681E+06    -7.79845E+06    -70.1412E+06    -7.78676E+06     52.6693E+06    -70.1412E+06    -325.332E+03         37.4941
             703     12.7902E-03     29.8606E-03     307.002E-03    -506.335E-03    -849.158E-03    -26.4426E-03    -400.061E-03    -621.987E-03    -968.845E-03     33.2116E-03    -16.1131E-03    -17.0985E-03    -15.7649E-03     31.8779E-03    -16.1131E-03     15.8696E-03     16.6018E+06    -9.39673E+06    -47.5009E+06    -3.30529E+06     10.5103E+06    -47.5009E+06    -1.71811E+06         31.1225
             704     11.8060E-03     29.8477E-03     373.986E-03    -548.993E-03    -849.503E-03    -172.508E-03    -187.356E-03    -664.646E-03        -1.09164     33.0359E-03    -16.2622E-03    -16.7737E-03    -16.0236E-03     32.2858E-03    -16.2622E-03     12.1086E-03     523.524E+03    -18.3042E+06    -45.0282E+06     207.738E+03    -32.2825E+06    -30.7341E+06    -685.691E+03         27.2165
             705     10.8221E-03     29.8366E-03         1.03201    -702.568E-03        -1.32731    -304.186E-03     8.87996E-03    -702.568E-03        -2.33474     33.2190E-03    -16.3961E-03    -16.8229E-03    -16.1397E-03     32.5358E-03    -16.3961E-03     11.6110E-03     3.12603E+06    -15.9080E+06    -62.9021E+06     3.05397E+06    -62.8300E+06    -15.9080E+06     2.07345E+06         25.0886
             706     9.83777E-03     29.8244E-03     831.823E-03    -629.457E-03        -1.17337    -462.206E-03     224.683E-03    -733.477E-03        -1.41756     33.3789E-03    -16.5071E-03    -16.8718E-03    -16.2482E-03     32.7553E-03    -16.5071E-03     11.0983E-03     4.10888E+06    -5.49900E+06    -85.3867E+06     4.03478E+06    -85.3126E+06    -5.49900E+06     2.34889E+06         24.0041
             707     8.85378E-03     29.8136E-03     771.426E-03    -652.229E-03        -1.06935    -575.429E-03     381.529E-03    -756.249E-03         1.22135     33.4757E-03    -16.5782E-03    -16.8975E-03    -16.3872E-03     32.9654E-03    -16.5782E-03     10.0789E-03     3.85625E+06    -2.69875E+06    -105.592E+06     3.82890E+06    -105.565E+06    -2.69875E+06     1.51598E+06         23.4483
             708     7.86961E-03     29.8032E-03         1.34691    -773.607E-03        -1.50993    -642.135E-03     479.114E-03    -773.607E-03         2.62726     33.5471E-03    -16.6473E-03    -16.8999E-03    -16.4521E-03     33.0994E-03    -16.6473E-03     9.45821E-03     4.45120E+06     609.898E+03    -123.291E+06     4.43193E+06    -123.271E+06     609.898E+03     1.51547E+06         23.1376
             709     6.88567E-03     29.7936E-03         1.11462    -787.278E-03        -1.25902    -697.306E-03     552.904E-03    -787.278E-03         1.92850     33.6009E-03    -16.7184E-03    -16.8825E-03    -16.5101E-03     33.2285E-03    -16.7184E-03     8.62140E-03     5.35487E+06     5.01520E+06    -136.778E+06     5.31702E+06    -136.740E+06     5.01520E+06     2.22306E+06         22.9392
             710     5.90176E-03     29.7852E-03     938.853E-03    -799.604E-03        -1.06865    -716.382E-03     586.583E-03    -799.604E-03         1.48694     33.6630E-03    -16.7677E-03    -16.8952E-03    -16.5948E-03     33.3625E-03    -16.7677E-03     7.76458E-03     5.93063E+06     5.14133E+06    -146.730E+06     5.16299E+06    -146.687E+06     5.86550E+06     2.51503E+06         22.7975
             711     4.91806E-03     29.7776E-03     985.879E-03    -809.507E-03        -1.08867    -768.791E-03     666.004E-03    -809.507E-03         1.39769     33.7669E-03    -16.8002E-03    -16.9667E-03    -16.7307E-03     33.5309E-03    -16.8002E-03     6.87709E-03     5.65386E+06     4.06154E+06    -156.257E+06     4.62690E+06    -156.233E+06     5.06386E+06     1.89490E+06         22.6904
             712     3.93456E-03     29.7709E-03         2.02767    -806.909E-03        -2.10535    -851.676E-03     774.000E-03    -806.909E-03         3.53386     33.7757E-03    -16.8174E-03    -16.9583E-03    -16.7946E-03     33.6120E-03    -16.8174E-03     5.72092E-03     5.20507E+06     3.59795E+06    -164.793E+06     4.91467E+06    -164.781E+06     3.87610E+06     1.37211E+06         22.6090
             713     2.95055E-03     29.7655E-03         2.03419    -770.444E-03        -2.10723    -886.799E-03     826.598E-03    -783.277E-03         3.05080     33.6985E-03    -16.8080E-03    -16.8906E-03    -16.7425E-03     33.6014E-03    -16.8589E-03     4.34897E-03     6.03546E+06     4.77048E+06    -172.513E+06     5.53539E+06    -172.506E+06     5.26360E+06     793.950E+03         22.5491
             714     1.96694E-03     29.7619E-03         1.76837    -749.297E-03        -1.83069    -776.486E-03     726.999E-03    -762.130E-03         2.54905     33.8486E-03    -16.8433E-03    -17.0052E-03    -16.9061E-03     33.8003E-03    -16.8943E-03     3.08909E-03     8.13623E+06     5.01836E+06    -178.951E+06     5.01792E+06    -178.950E+06     8.13623E+06     81.0546E+03         22.5086
             715     983.839E-06     29.7592E-03         8.50920        -2.81932        -6.47159         3.97258     732.877E-03        -5.48717        -6.16963     33.7502E-03    -16.7535E-03    -16.9967E-03    -16.9791E-03     33.7326E-03    -16.7535E-03     1.54099E-03     5.84997E+06     2.76656E+06    -181.178E+06     2.75620E+06    -181.168E+06     5.84997E+06    -911.358E+03         22.4854
             716     16.7337E-03     29.4099E-03     634.945E-03    -388.798E-03        -1.36979     601.321E-03        -1.33617    -388.798E-03    -382.659E-03     251.644E-03    -16.7046E-03    -234.940E-03    -51.7437E-03     68.4483E-03    -16.7046E-03     471.483E-03      197.76E+06     101.950E+06    -6.23317E+06    -6.22754E+06     197.754E+06     101.950E+06     1.81641E+03         64.8153
             717     15.7429E-03     28.9778E-03     685.840E-03    -429.266E-03        -1.32487     412.643E-03        -1.05168    -429.266E-03        -1.25180     141.053E-03    -16.3735E-03    -124.680E-03    -29.6640E-03     46.0375E-03    -16.3735E-03     253.657E-03     154.199E+06     30.1213E+06    -14.8739E+06    -11.6124E+06     154.192E+06     26.8661E+06     32.6368E+03         56.3783
             718     14.7605E-03     28.8711E-03     966.207E-03    -471.578E-03        -1.52760     239.787E-03    -801.184E-03    -471.578E-03        -2.23509     49.6367E-03    -16.0323E-03    -33.6044E-03    -16.1551E-03     32.1873E-03    -16.0323E-03     63.4116E-03     98.7122E+06    -10.6461E+06    -51.7673E+06    -10.6303E+06     98.6964E+06    -51.7673E+06    -217.564E+03         46.4139
             719     13.7751E-03     28.8476E-03     854.204E-03    -514.316E-03        -1.34681     86.5130E-03    -579.116E-03    -514.316E-03        -2.09600     33.9317E-03    -15.9768E-03    -17.9548E-03    -15.4769E-03     31.4537E-03    -15.9768E-03     21.9596E-03     53.5453E+06    -5.44473E+06    -70.2697E+06    -5.42545E+06     53.5261E+06    -70.2697E+06    -1.00973E+06         37.5785
             720     12.7902E-03     28.8276E-03     330.238E-03    -505.074E-03    -809.076E-03    -23.8068E-03    -405.191E-03    -554.914E-03        -1.01587     33.3429E-03    -16.1501E-03    -17.1928E-03    -15.8315E-03     31.9816E-03    -16.1501E-03     16.0237E-03     16.8105E+06    -8.41869E+06    -46.5675E+06    -2.31143E+06     10.7033E+06    -46.5675E+06    -332.260E+03         31.1998
             721     11.8057E-03     28.8152E-03     426.087E-03    -542.698E-03    -844.653E-03    -153.922E-03    -214.804E-03    -592.539E-03        -1.18543     33.0878E-03    -16.2931E-03    -16.7947E-03    -16.0509E-03     32.3440E-03    -16.2931E-03     12.0748E-03    -1.53442E+06    -21.0796E+06    -45.8777E+06    -1.89727E+06    -34.3250E+06    -32.2694E+06     428.117E+03         27.2725
             722     10.8212E-03     28.8034E-03         1.05786    -623.372E-03        -1.37190    -324.607E-03     10.5681E-03    -623.372E-03        -2.40303     33.3955E-03    -16.4139E-03    -16.9817E-03    -16.2831E-03     32.6970E-03    -16.4139E-03     11.7791E-03    -602.250E+03    -18.9040E+06    -63.7982E+06    -645.726E+03    -63.7547E+06    -18.9040E+06     1.46589E+06         25.1233
             723     9.83753E-03     28.7916E-03     811.283E-03    -583.420E-03        -1.14111    -467.646E-03     199.098E-03    -644.699E-03        -1.50474     33.6067E-03    -16.5150E-03    -17.0916E-03    -16.4506E-03     32.9657E-03    -16.5150E-03     11.3010E-03     2.07603E+06    -6.12997E+06    -84.0048E+06     2.01468E+06    -83.9434E+06    -6.12997E+06     2.09658E+06         24.0234
             724     8.85361E-03     28.7804E-03     713.729E-03    -596.112E-03        -1.01114    -567.715E-03     331.583E-03    -657.392E-03         1.11045     33.5846E-03    -16.5693E-03    -17.0154E-03    -16.4935E-03     33.0628E-03    -16.5693E-03     10.2163E-03     3.80883E+06    -2.91584E+06    -104.559E+06     3.77211E+06    -104.522E+06    -2.91584E+06     1.86403E+06         23.4583
             725     7.86991E-03     28.7704E-03         1.25222    -663.992E-03        -1.47029    -619.749E-03     401.682E-03    -663.992E-03         2.52149     33.5780E-03    -16.6267E-03    -16.9513E-03    -16.5011E-03     33.1279E-03    -16.6267E-03     9.48722E-03     4.38856E+06    -57.9410E+03    -123.053E+06     4.36494E+06    -123.029E+06    -57.9410E+03     1.68064E+06         23.1424
             726     6.88587E-03     28.7606E-03         1.03941    -665.144E-03        -1.25276    -671.755E-03     458.400E-03    -665.144E-03         1.92537     33.5685E-03    -16.6923E-03    -16.8762E-03    -16.5123E-03     33.2046E-03    -16.6923E-03     8.51822E-03     4.87797E+06     3.89706E+06    -136.977E+06     4.60318E+06    -136.943E+06     4.13798E+06     2.08185E+06         22.9410
             727     5.90195E-03     28.7522E-03     856.233E-03    -656.634E-03        -1.07599    -739.382E-03     519.625E-03    -656.634E-03         1.45064     33.6222E-03    -16.7374E-03    -16.8847E-03    -16.5979E-03     33.3353E-03    -16.7374E-03     7.58046E-03     5.70995E+06     5.35745E+06    -145.982E+06     5.43568E+06    -145.949E+06     5.59838E+06     2.06983E+06         22.7974
             728     4.91814E-03     28.7442E-03     853.158E-03    -636.872E-03        -1.07741    -753.479E-03     529.223E-03    -636.872E-03         1.41354     33.7057E-03    -16.7740E-03    -16.9317E-03    -16.7049E-03     33.4788E-03    -16.7740E-03     6.74399E-03     6.81354E+06     6.23482E+06    -154.706E+06     6.29805E+06    -154.684E+06     6.72775E+06     1.81427E+06         22.6890
             729     3.93447E-03     28.7375E-03         1.73184    -624.496E-03        -1.94112    -620.604E-03     411.318E-03    -624.496E-03         3.33553     33.6880E-03    -16.8028E-03    -16.8851E-03    -16.7304E-03     33.5332E-03    -16.8028E-03     5.53792E-03     7.18568E+06     5.73332E+06    -163.801E+06     6.33388E+06    -163.787E+06     6.57112E+06     1.36976E+06         22.6064
             730     2.95102E-03     28.7326E-03         1.63417    -617.740E-03        -1.80499    -520.857E-03     376.916E-03    -644.619E-03         2.99526     33.6724E-03    -16.8040E-03    -16.8684E-03    -16.7469E-03     33.5801E-03    -16.8332E-03     4.27404E-03     6.76279E+06     4.73038E+06    -171.488E+06     5.96169E+06    -171.484E+06     5.52748E+06     694.151E+03         22.5455
             731     1.96718E-03     28.7284E-03         1.26348    -685.570E-03        -1.32869    -521.043E-03     482.708E-03    -712.449E-03         2.11566     33.7102E-03    -16.7811E-03    -16.9291E-03    -16.7671E-03     33.6596E-03    -16.8925E-03     3.12743E-03     7.35655E+06     4.37080E+06    -178.050E+06     4.98901E+06    -178.048E+06     6.73580E+06     258.223E+03         22.5041
             732     983.333E-06     28.7257E-03         7.35072        -2.10384        -5.97570         3.83840     792.239E-03        -5.35945        -5.30584     33.8427E-03    -16.7862E-03    -17.0566E-03    -16.8605E-03     33.8266E-03    -16.9660E-03     1.44282E-03     6.11495E+06     3.88542E+06    -181.776E+06     4.04219E+06    -181.753E+06     5.93521E+06    -1.48520E+06         22.4802
             733     16.7256E-03     28.3738E-03     615.786E-03    -342.463E-03        -1.31976     577.208E-03        -1.28118    -342.463E-03    -406.639E-03     250.964E-03    -16.7869E-03    -234.177E-03    -51.3080E-03     68.0950E-03    -16.7869E-03     470.204E-03     197.494E+06     99.6136E+06    -6.54585E+06    -6.53919E+06     197.487E+06     99.6136E+06    -124.611E+03         64.7598
             734     15.7476E-03     27.9438E-03     683.896E-03    -370.983E-03        -1.30182     388.840E-03        -1.00676    -370.983E-03        -1.28865     139.694E-03    -16.4411E-03    -123.253E-03    -30.1006E-03     46.5416E-03    -16.4411E-03     250.712E-03     154.545E+06     30.2252E+06    -15.5805E+06    -10.9598E+06     154.542E+06     25.6077E+06    -154.498E+03         56.3900
             735     14.7590E-03     27.8405E-03     959.848E-03    -403.643E-03        -1.50896     189.433E-03    -738.543E-03    -403.643E-03        -2.25601     50.0109E-03    -16.1003E-03    -33.9107E-03    -15.8708E-03     31.9711E-03    -16.1003E-03     64.6943E-03     100.483E+06    -10.6012E+06    -50.0172E+06    -10.5788E+06     100.461E+06    -50.0172E+06     167.663E+03         46.4829
             736     13.7735E-03     27.8141E-03     867.598E-03    -436.432E-03        -1.36060     21.3389E-03    -514.343E-03    -436.432E-03        -2.16191     34.5135E-03    -16.0448E-03    -18.4687E-03    -15.7902E-03     31.8350E-03    -16.0448E-03     22.9638E-03     53.1753E+06    -8.55802E+06    -70.7084E+06    -8.53094E+06     53.1482E+06    -70.7084E+06    -279.656E+03         37.6664
             737     12.7896E-03     27.7951E-03     373.442E-03    -462.387E-03    -820.792E-03    -70.7937E-03    -372.640E-03    -466.302E-03        -1.14464     33.6706E-03    -16.2025E-03    -17.4681E-03    -16.0814E-03     32.2840E-03    -16.2025E-03     16.3249E-03     14.0842E+06    -10.8564E+06    -47.1585E+06     -5.7415E+06     8.96937E+06    -47.1585E+06     1.10861E+06         31.2797
             738     11.8053E-03     27.7821E-03     454.320E-03    -490.063E-03    -855.282E-03    -160.886E-03    -236.159E-03    -493.979E-03        -1.28058     33.3670E-03    -16.3360E-03    -17.0310E-03    -16.2724E-03     32.6083E-03    -16.3360E-03     12.2324E-03    -2.63693E+06    -21.0576E+06    -42.6842E+06    -3.05007E+06    -33.3207E+06    -30.0080E+06     1.94271E+06         27.3299
             739     10.8214E-03     27.7708E-03         1.06238    -515.946E-03        -1.41837    -308.208E-03    -47.7904E-03    -515.946E-03        -2.46177     33.5769E-03    -16.4259E-03    -17.1510E-03    -16.4815E-03     32.9074E-03    -16.4259E-03     11.5754E-03    -959.314E+03    -19.2538E+06    -63.6706E+06    -976.139E+03    -63.6538E+06    -19.2538E+06     634.939E+03         25.1581
             740     9.83744E-03     27.7578E-03     781.311E-03    -507.862E-03        -1.12493    -453.448E-03     129.641E-03    -527.674E-03        -1.61124     33.6435E-03    -16.5121E-03    -17.1314E-03    -16.5253E-03     33.0374E-03    -16.5121E-03     10.9971E-03     1.02919E+06    -7.20202E+06    -84.1143E+06     1.01499E+06    -84.1001E+06    -7.20202E+06     746.963E+03         24.0419
             741     8.85380E-03     27.7477E-03     594.294E-03    -511.051E-03    -918.880E-03    -514.277E-03     209.504E-03    -530.863E-03     928.677E-03     33.6286E-03    -16.5614E-03    -17.0673E-03    -16.5695E-03     33.1308E-03    -16.5614E-03     9.99512E-03     2.91079E+06    -2.83044E+06    -103.582E+06     2.89084E+06    -103.562E+06    -2.83044E+06     1.39828E+06         23.4670
             742     7.86978E-03     27.7369E-03         1.08394    -532.552E-03        -1.37780    -497.822E-03     203.966E-03    -532.552E-03         2.35068     33.6453E-03    -16.6111E-03    -17.0342E-03    -16.5967E-03     33.2079E-03    -16.6111E-03     9.36340E-03     4.47878E+06     989.645E+03    -122.615E+06     4.37567E+06    -122.592E+06     1.06954E+06     1.64978E+06         23.1456
             743     6.88622E-03     27.7278E-03     947.838E-03    -531.807E-03        -1.23878    -554.425E-03     263.480E-03    -531.807E-03         1.97831     33.6407E-03    -16.6558E-03    -16.9849E-03    -16.6256E-03     33.2814E-03    -16.6558E-03     8.48895E-03     5.63200E+06     4.69783E+06    -136.314E+06     5.29371E+06    -136.296E+06     5.01865E+06     1.49807E+06         22.9410
             744     5.90239E-03     27.7189E-03     797.871E-03    -515.347E-03        -1.10390    -679.600E-03     373.571E-03    -515.347E-03         1.57060     33.6268E-03    -16.6779E-03    -16.9488E-03    -16.6620E-03     33.3400E-03    -16.6779E-03     7.57911E-03     6.18997E+06     5.53841E+06    -145.288E+06     5.67994E+06    -145.277E+06     6.03722E+06     1.24561E+06         22.7953
             745     4.91872E-03     27.7112E-03     786.361E-03    -478.696E-03        -1.11334    -698.055E-03     371.073E-03    -478.696E-03         1.56080     33.5382E-03    -16.7023E-03    -16.8359E-03    -16.6207E-03     33.3230E-03    -16.7023E-03     6.55123E-03     6.71933E+06     5.87258E+06    -154.478E+06     6.22979E+06    -154.461E+06     6.34524E+06     1.56863E+06         22.6853
             746     3.93474E-03     27.7044E-03         1.53220    -447.049E-03        -1.86151    -517.252E-03     187.943E-03    -447.049E-03         3.21536     33.4930E-03    -16.7235E-03    -16.7694E-03    -16.6014E-03     33.3451E-03    -16.7436E-03     5.40840E-03     7.27691E+06     6.28916E+06    -163.273E+06     6.69898E+06    -163.255E+06     6.84881E+06     1.63616E+06         22.6013
             747     2.95078E-03     27.6993E-03         1.45420    -438.751E-03        -1.74619    -360.215E-03     82.2744E-03    -452.797E-03         3.10408     33.5822E-03    -16.7619E-03    -16.8203E-03    -16.7068E-03     33.4888E-03    -16.7820E-03     4.30080E-03     7.27214E+06     5.80983E+06    -169.681E+06     6.52408E+06    -169.668E+06     6.54449E+06     1.45812E+06         22.5392
             748     1.96733E-03     27.6952E-03     878.172E-03    -510.795E-03        -1.06238    -294.897E-03     124.731E-03    -524.841E-03         1.83104     33.5840E-03    -16.7251E-03    -16.8588E-03    -16.7029E-03     33.5351E-03    -16.8322E-03     3.03885E-03     6.34619E+06     4.48462E+06    -177.196E+06     5.41369E+06    -177.189E+06     5.41019E+06     729.777E+03         22.4967
             749     983.428E-06     27.6928E-03         6.09377        -1.37105        -5.39460         3.84531     492.951E-03        -5.01014        -4.21138     33.7423E-03    -16.7476E-03    -16.9947E-03    -16.7718E-03     33.7241E-03    -16.9524E-03     1.77845E-03     4.33115E+06     3.21413E+06    -182.124E+06     3.78035E+06    -182.109E+06     3.74991E+06    -663.413E+03         22.4719
             750     16.7303E-03     27.3303E-03     600.450E-03    -277.057E-03        -1.27585     552.248E-03        -1.22764    -277.057E-03    -470.785E-03     251.542E-03    -16.8324E-03    -234.710E-03    -50.6571E-03     67.4895E-03    -16.8324E-03     471.651E-03     197.659E+06     102.740E+06    -7.13132E+06    -7.12972E+06     197.657E+06     102.740E+06    -372.984E+03         64.7281
             751     15.7427E-03     26.9151E-03     686.459E-03    -292.344E-03        -1.28595     367.370E-03    -966.866E-03    -292.344E-03        -1.33655     138.929E-03    -16.5400E-03    -122.389E-03    -28.6630E-03     45.2030E-03    -16.5400E-03     249.773E-03     155.036E+06     31.8298E+06    -15.7095E+06    -10.6885E+06     155.034E+06     26.8108E+06    -250.956E+03         56.4078
             752     14.7564E-03     26.8071E-03     972.462E-03    -314.445E-03        -1.51889     157.710E-03    -704.142E-03    -314.445E-03        -2.30961     51.5997E-03    -16.2120E-03    -35.3877E-03    -16.6523E-03     32.8643E-03    -16.2120E-03     66.5823E-03     100.258E+06    -11.2432E+06    -49.7744E+06    -11.2163E+06     100.231E+06    -49.7744E+06     858.055E+03         46.5459
             753     13.7731E-03     26.7808E-03     914.229E-03    -337.827E-03        -1.42037    -1.64313E-03    -504.500E-03    -337.827E-03        -2.27944     34.9667E-03    -16.1442E-03    -18.8225E-03    -16.3463E-03     32.4905E-03    -16.1442E-03     22.3127E-03     53.3936E+06    -9.51867E+06    -65.8070E+06    -9.30143E+06     53.1764E+06    -65.8070E+06     2.22649E+06         37.7525
             754     12.7886E-03     26.7621E-03     411.586E-03    -357.852E-03    -883.388E-03    -95.1582E-03    -376.643E-03    -357.852E-03        -1.26183     33.8751E-03    -16.2527E-03    -17.6224E-03    -16.3033E-03     32.5560E-03    -16.2527E-03     16.0310E-03     13.6048E+06    -11.2801E+06    -46.8933E+06    -6.55994E+06     8.88470E+06    -46.8933E+06     1.23780E+06         31.3580
             755     11.8049E-03     26.7488E-03     438.099E-03    -375.523E-03    -880.144E-03    -153.982E-03    -288.063E-03    -375.523E-03        -1.30231     33.7433E-03    -16.3432E-03    -17.4001E-03    -16.6496E-03     32.9929E-03    -16.3432E-03     12.2508E-03    -2.52943E+06    -20.2536E+06    -45.2724E+06    -2.90621E+06    -32.0587E+06    -33.0905E+06     462.214E+03         27.3852
             756     10.8216E-03     26.7371E-03     982.783E-03    -388.605E-03        -1.39735    -270.572E-03    -143.998E-03    -388.605E-03        -2.36962     33.7836E-03    -16.4233E-03    -17.3602E-03    -16.7095E-03     33.1328E-03    -16.4233E-03     11.4616E-03     567.026E+03    -19.2043E+06    -62.8105E+06     539.162E+03    -62.7826E+06    -19.2043E+06     826.966E+03         25.1905
             757     9.83785E-03     26.7252E-03     678.119E-03    -391.028E-03        -1.07561    -418.823E-03     21.3297E-03    -391.028E-03        -1.58347     33.7035E-03    -16.4943E-03    -17.2092E-03    -16.6075E-03     33.1018E-03    -16.4943E-03     10.9821E-03     1.53793E+06    -7.92258E+06    -84.6718E+06     1.51344E+06    -84.6473E+06    -7.92258E+06     878.372E+03         24.0578
             758     8.85385E-03     26.7141E-03     472.329E-03    -384.932E-03    -864.065E-03    -441.660E-03     49.9246E-03    -384.932E-03     819.138E-03     33.6606E-03    -16.5335E-03    -17.1271E-03    -16.6418E-03     33.1754E-03    -16.5335E-03     9.87021E-03     1.79766E+06    -3.68633E+06    -103.212E+06     1.78598E+06    -103.201E+06    -3.68633E+06     1.06216E+06         23.4729
             759     7.87039E-03     26.7042E-03     907.393E-03    -380.214E-03        -1.29677    -380.710E-03    -8.66351E-03    -380.214E-03         2.16844     33.6519E-03    -16.5636E-03    -17.0883E-03    -16.6730E-03     33.2365E-03    -16.5636E-03     9.13741E-03     2.58376E+06    -1.16262E+06    -121.813E+06     2.49276E+06    -121.802E+06    -1.08273E+06     969.580E+03         23.1458
             760     6.88634E-03     26.6944E-03     781.074E-03    -378.062E-03        -1.17132    -386.513E-03    -3.73164E-03    -378.062E-03         1.89225     33.6119E-03    -16.5883E-03    -17.0236E-03    -16.6756E-03     33.2639E-03    -16.5883E-03     8.35187E-03     3.58984E+06     1.97034E+06    -135.622E+06     3.50295E+06    -135.615E+06     2.05023E+06     804.818E+03         22.9380
             761     5.90286E-03     26.6859E-03     608.210E-03    -368.443E-03        -1.00499    -459.972E-03     63.1869E-03    -368.443E-03         1.49859     33.5466E-03    -16.5948E-03    -16.9518E-03    -16.6691E-03     33.2639E-03    -16.5948E-03     7.52488E-03     4.21501E+06     2.50077E+06    -144.986E+06     3.94471E+06    -144.974E+06     2.75865E+06     1.29779E+06         22.7902
             762     4.91901E-03     26.6780E-03     639.432E-03    -339.931E-03        -1.04778    -537.393E-03     129.043E-03    -339.931E-03         1.53189     33.4253E-03    -16.6052E-03    -16.8201E-03    -16.6088E-03     33.2140E-03    -16.6052E-03     6.46591E-03     3.91769E+06     2.55262E+06    -154.630E+06     3.64660E+06    -154.617E+06     2.81051E+06     1.37848E+06         22.6786
             763     3.93516E-03     26.6718E-03         1.33358    -295.633E-03        -1.75554    -484.747E-03     62.7870E-03    -295.633E-03         2.99283     33.3180E-03    -16.6113E-03    -16.7067E-03    -16.5433E-03     33.1747E-03    -16.6314E-03     5.32493E-03     4.27737E+06     3.28137E+06    -162.785E+06     4.26729E+06    -162.775E+06     3.28137E+06     1.18891E+06         22.5933
             764     2.95130E-03     26.6660E-03         1.40233    -257.691E-03        -1.81813    -338.504E-03    -77.2926E-03    -257.691E-03         3.20638     33.3353E-03    -16.6378E-03    -16.6976E-03    -16.5656E-03     33.2438E-03    -16.6783E-03     4.21938E-03     5.81700E+06     4.55427E+06    -168.707E+06     5.41308E+06    -168.693E+06     4.94406E+06     1.48465E+06         22.5299
             765     1.96736E-03     26.6621E-03     668.242E-03    -263.633E-03        -1.04282    -182.686E-03    -191.894E-03    -263.633E-03         1.68947     33.4683E-03    -16.6733E-03    -16.7950E-03    -16.7061E-03     33.4247E-03    -16.7186E-03     2.87575E-03     8.32397E+06     5.31244E+06    -174.868E+06     5.97424E+06    -174.846E+06     7.64006E+06     1.69970E+06         22.4863
             766     983.733E-06     26.6596E-03         4.94657    -873.274E-03        -4.68855         3.80520    -50.6957E-03        -4.36977        -3.07166     33.4331E-03    -16.6244E-03    -16.8087E-03    -16.7655E-03     33.4149E-03    -16.6494E-03     1.85067E-03     5.25455E+06     1.94862E+06    -181.534E+06     3.28577E+06    -181.503E+06     3.88644E+06     1.91069E+06         22.4607
             767     16.7295E-03     26.3001E-03     532.015E-03    -195.352E-03        -1.17122     473.789E-03        -1.11299    -195.352E-03    -508.945E-03     253.108E-03    -16.9300E-03    -236.178E-03    -49.9479E-03     66.8779E-03    -16.9300E-03     475.113E-03     197.695E+06     106.281E+06    -7.60761E+06    -7.60523E+06     197.692E+06     106.281E+06    -538.442E+03         64.6873
             768     15.7395E-03     25.8840E-03     639.031E-03    -195.844E-03        -1.22773     312.030E-03    -900.732E-03    -195.844E-03        -1.33188     139.080E-03    -16.6524E-03    -122.427E-03    -28.9459E-03     45.5983E-03    -16.6524E-03     249.414E-03     153.932E+06     30.2442E+06    -16.6710E+06    -12.8774E+06     153.899E+06     26.4841E+06     357.174E+03         56.4082
             769     14.7558E-03     25.7711E-03     953.731E-03    -207.163E-03        -1.51061     155.135E-03    -712.014E-03    -207.163E-03        -2.28480     51.7791E-03    -16.2783E-03    -35.5008E-03    -17.6183E-03     33.8966E-03    -16.2783E-03     65.3865E-03     99.1017E+06    -13.4356E+06    -51.3855E+06    -13.3896E+06     99.0557E+06    -51.3855E+06     1.23275E+06         46.5985
             770     13.7726E-03     25.7478E-03     905.024E-03    -223.183E-03        -1.43838     26.9301E-03    -560.286E-03    -223.183E-03        -2.26658     34.9301E-03    -16.1761E-03    -18.7539E-03    -16.5566E-03     32.7328E-03    -16.1761E-03     21.1513E-03     53.5722E+06    -9.01138E+06    -65.7238E+06    -8.80680E+06     53.3676E+06    -65.7238E+06     1.81739E+06         37.8320
             771     12.7885E-03     25.7286E-03     409.327E-03    -237.156E-03    -923.524E-03    -47.9541E-03    -466.243E-03    -237.156E-03        -1.25341     34.1736E-03    -16.2667E-03    -17.9069E-03    -16.6639E-03     32.9307E-03    -16.2667E-03     15.5949E-03     16.2882E+06    -8.49811E+06    -45.0243E+06    -3.57577E+06     11.3658E+06    -45.0243E+06     1.73147E+06         31.4300
             772     11.8050E-03     25.7150E-03     405.719E-03    -248.210E-03    -901.786E-03    -115.552E-03    -380.515E-03    -248.210E-03        -1.25551     33.7653E-03    -16.3363E-03    -17.4290E-03    -16.7610E-03     33.0973E-03    -16.3363E-03     11.5742E-03    -1.01796E+06    -18.8405E+06    -46.2671E+06    -1.57824E+06    -31.7033E+06    -32.8440E+06     455.506E+03         27.4350
             773     10.8213E-03     25.7037E-03     869.960E-03    -253.511E-03        -1.35256    -224.538E-03    -258.064E-03    -253.511E-03        -2.21545     33.7574E-03    -16.4100E-03    -17.3473E-03    -16.7527E-03     33.1627E-03    -16.4100E-03     10.9488E-03    -360.617E+03    -19.4313E+06    -62.8707E+06    -380.455E+03    -62.8509E+06    -19.4313E+06     809.615E+03         25.2177
             774     9.83773E-03     25.6919E-03     524.540E-03    -249.251E-03        -1.00092    -329.890E-03    -146.484E-03    -249.251E-03        -1.46740     33.7848E-03    -16.4666E-03    -17.3182E-03    -16.7585E-03     33.2251E-03    -16.4666E-03     10.6091E-03     1.73081E+06    -8.00667E+06    -83.8142E+06     1.70554E+06    -83.7889E+06    -8.00667E+06     1.22101E+06         24.0688
             775     8.85436E-03     25.6809E-03     364.318E-03    -235.253E-03    -845.912E-03    -387.190E-03    -94.4031E-03    -235.253E-03     819.142E-03     33.6919E-03    -16.4887E-03    -17.2032E-03    -16.7418E-03     33.2305E-03    -16.4887E-03     9.63452E-03     3.17079E+06    -3.76220E+06    -103.177E+06     3.15564E+06    -103.162E+06    -3.76220E+06     1.22904E+06         23.4743
             776     7.87052E-03     25.6709E-03     788.630E-03    -215.909E-03        -1.28612    -365.910E-03    -131.576E-03    -215.909E-03         2.05913     33.6532E-03    -16.5031E-03    -17.1501E-03    -16.7570E-03     33.2601E-03    -16.5031E-03     8.89089E-03     3.53023E+06    -996.618E+03    -120.976E+06     3.42392E+06    -120.962E+06    -904.190E+03     1.10695E+06         23.1418
             777     6.88723E-03     25.6614E-03     619.906E-03    -198.609E-03        -1.13489    -287.160E-03    -227.829E-03    -198.609E-03         1.74675     33.5126E-03    -16.5123E-03    -17.0003E-03    -16.6715E-03     33.1838E-03    -16.5123E-03     8.11202E-03     3.16876E+06     1.22637E+06    -135.430E+06      3.0669E+06    -135.421E+06     1.31880E+06     955.474E+03         22.9309
             778     5.90315E-03     25.6529E-03     385.103E-03    -186.029E-03    -910.006E-03    -241.485E-03    -283.418E-03    -186.029E-03         1.27181     33.3752E-03    -16.5102E-03    -16.8651E-03    -16.5940E-03     33.1042E-03    -16.5102E-03     7.34855E-03     3.30679E+06     1.22749E+06    -145.313E+06     3.29461E+06    -145.301E+06     1.22749E+06     1.30313E+06         22.7812
             779     4.91942E-03     25.6451E-03     426.001E-03    -167.382E-03    -951.489E-03    -292.429E-03    -233.060E-03    -167.382E-03         1.32751     33.3085E-03    -16.5202E-03    -16.7884E-03    -16.5850E-03     33.1051E-03    -16.5202E-03     6.33722E-03     4.41356E+06     3.24537E+06    -153.207E+06     4.33427E+06    -153.197E+06     3.31499E+06     1.13766E+06         22.6682
             780     3.93568E-03     25.6389E-03         1.08265    -130.398E-03        -1.61409    -316.202E-03    -215.236E-03    -130.398E-03         2.65922     33.2211E-03    -16.5280E-03    -16.6932E-03    -16.5504E-03     33.0783E-03    -16.5280E-03     5.31690E-03     4.62513E+06     3.76482E+06    -161.918E+06     4.54794E+06    -161.911E+06     3.83444E+06     1.02459E+06         22.5818
             781     2.95167E-03     25.6334E-03         1.31022    -75.4507E-03        -1.85280    -259.907E-03    -282.666E-03    -75.4507E-03         3.15581     33.1682E-03    -16.5141E-03    -16.6541E-03    -16.5388E-03     33.0733E-03    -16.5345E-03     4.29708E-03     4.36754E+06     3.37654E+06    -168.975E+06     4.35693E+06    -168.964E+06     3.37654E+06     1.28031E+06         22.5173
             782     1.96771E-03     25.6291E-03     580.941E-03    -30.7968E-03        -1.13823    -110.583E-03    -455.820E-03    -21.6831E-03         1.46040     33.2094E-03    -16.5001E-03    -16.7093E-03    -16.6433E-03     33.1638E-03    -16.5205E-03     2.91744E-03     6.40101E+06     3.61412E+06    -173.771E+06     3.96461E+06    -173.750E+06     6.03018E+06     1.66759E+06         22.4727
             783     984.269E-06     25.6261E-03         4.18774    -639.701E-03        -4.11580         3.72854    -571.615E-03        -3.72468        -2.19592     32.9753E-03    -16.3924E-03    -16.5829E-03    -16.5698E-03     32.9622E-03    -16.3924E-03     1.34806E-03     7.54722E+06     1.90972E+06    -178.363E+06     2.84517E+06    -178.332E+06     6.58063E+06     1.86241E+06         22.4464
             784     16.7209E-03     25.2651E-03     422.070E-03    -103.997E-03        -1.02082     362.666E-03    -961.420E-03    -103.997E-03    -474.356E-03     253.958E-03    -17.0009E-03    -236.957E-03    -49.6562E-03     66.6572E-03    -17.0009E-03     476.915E-03     197.103E+06     103.611E+06    -7.77985E+06    -7.76676E+06     197.090E+06     103.611E+06     116.863E+03         64.6112
             785     15.7409E-03     24.8478E-03     557.479E-03    -91.0211E-03        -1.14115     250.070E-03    -833.744E-03    -91.0211E-03        -1.25013     138.978E-03    -16.7156E-03    -122.263E-03    -30.5037E-03     47.2193E-03    -16.7156E-03     248.060E-03     155.185E+06     31.9664E+06    -16.1415E+06    -13.5493E+06     155.143E+06     29.4164E+06     1.55936E+06         56.3824
             786     14.7574E-03     24.7381E-03     880.350E-03    -93.8817E-03        -1.45863     184.072E-03    -762.353E-03    -93.8817E-03        -2.12522     51.1957E-03    -16.2915E-03    -34.9042E-03    -17.8557E-03     34.1471E-03    -16.2915E-03     63.8093E-03     100.012E+06    -12.3868E+06    -46.9605E+06    -13.3337E+06      99.965E+06    -45.9671E+06     1.61281E+06         46.6361
             787     13.7719E-03     24.7139E-03     825.329E-03    -105.323E-03        -1.39717     92.4471E-03    -664.284E-03    -105.323E-03        -2.08578     34.7631E-03    -16.1536E-03    -18.6095E-03    -16.5594E-03     32.7130E-03    -16.1536E-03     20.3489E-03     53.1836E+06    -10.1531E+06    -65.5155E+06    -10.1261E+06     53.1566E+06    -65.5155E+06     160.356E+03         37.8973
             788     12.7891E-03     24.6942E-03     354.357E-03    -114.064E-03    -919.066E-03    -13.7241E-03    -550.984E-03    -114.064E-03        -1.14368     34.2197E-03    -16.2251E-03    -17.9947E-03    -16.8887E-03     33.1138E-03    -16.2251E-03     14.7034E-03     15.7891E+06    -9.20009E+06    -45.9972E+06    -5.54852E+06     12.1375E+06    -45.9972E+06     487.340E+03         31.4905
             789     11.8058E-03     24.6816E-03     358.064E-03    -117.032E-03    -918.886E-03    -97.0504E-03    -463.772E-03    -117.032E-03        -1.19424     33.6506E-03    -16.2942E-03    -17.3564E-03    -16.7808E-03     33.0751E-03    -16.2942E-03     10.7485E-03    -192.853E+03    -17.8990E+06    -43.9379E+06    -635.341E+03    -31.0304E+06    -30.3639E+06     1.16368E+06         27.4755
             790     10.8220E-03     24.6704E-03     814.769E-03    -114.475E-03        -1.37326    -154.615E-03    -403.879E-03    -114.475E-03        -2.16859     33.6398E-03    -16.3527E-03    -17.2871E-03    -16.7609E-03     33.1136E-03    -16.3527E-03     10.2953E-03     2.13039E+06    -18.3690E+06    -62.6747E+06     2.11615E+06    -62.6604E+06    -18.3690E+06     740.747E+03         25.2371
             791     9.83863E-03     24.6581E-03     473.282E-03    -130.447E-03        -1.00828    -217.282E-03    -342.689E-03    -105.471E-03        -1.43092     33.6703E-03    -16.4008E-03    -17.2695E-03    -16.7794E-03     33.1802E-03    -16.4008E-03     9.92287E-03     3.07622E+06    -7.42569E+06    -83.2444E+06     3.06085E+06    -83.2290E+06    -7.42569E+06     1.11041E+06         24.0730
             792     8.85482E-03     24.6481E-03     324.971E-03    -110.827E-03    -872.830E-03    -310.560E-03    -262.275E-03    -85.8508E-03     854.440E-03     33.6004E-03    -16.4124E-03    -17.1880E-03    -16.7736E-03     33.1860E-03    -16.4124E-03     9.13258E-03     3.67019E+06    -3.51360E+06    -102.900E+06     3.64341E+06    -102.874E+06    -3.51360E+06     1.65583E+06         23.4694
             793     7.87145E-03     24.6373E-03     716.026E-03    -53.6743E-03        -1.32010    -345.044E-03    -259.030E-03    -53.6743E-03         2.02911     33.5089E-03    -16.4200E-03    -17.0889E-03    -16.7302E-03     33.1503E-03    -16.4200E-03     8.47219E-03     4.25320E+06    -60.8069E+03    -120.545E+06     4.13280E+06    -120.518E+06     31.6210E+03     1.82339E+06         23.1321
             794     6.88752E-03     24.6288E-03     539.231E-03    -15.2585E-03        -1.18403    -277.502E-03    -367.299E-03    -15.2585E-03         1.71461     33.3714E-03    -16.4276E-03    -16.9438E-03    -16.6456E-03     33.0732E-03    -16.4276E-03     7.71635E-03     4.83045E+06     3.17269E+06    -134.959E+06     4.23456E+06    -134.936E+06     3.74628E+06     1.72662E+06         22.9185
             795     5.90389E-03     24.6199E-03     291.224E-03     19.7588E-03    -970.066E-03    -157.223E-03    -521.619E-03     19.7588E-03         1.18160     33.1976E-03    -16.4118E-03    -16.7858E-03    -16.5340E-03     32.9457E-03    -16.4118E-03     7.06301E-03     4.63075E+06     2.31579E+06    -144.128E+06     4.13805E+06    -144.117E+06     2.79695E+06     969.215E+03         22.7673
             796     4.91991E-03     24.6125E-03     369.815E-03     46.6681E-03        -1.05921    -59.3855E-03    -630.012E-03     46.6681E-03         1.28578     33.0503E-03    -16.4126E-03    -16.6378E-03    -16.4463E-03     32.8589E-03    -16.4126E-03     6.13327E-03     4.95812E+06     2.88406E+06    -152.391E+06     4.88506E+06    -152.388E+06     2.95367E+06     468.324E+03         22.6533
             797     3.93582E-03     24.6060E-03     959.620E-03     70.7981E-03        -1.64158    -26.2349E-03    -655.722E-03     70.7981E-03         2.48828     33.0658E-03    -16.4279E-03    -16.6379E-03    -16.4987E-03     32.9265E-03    -16.4279E-03     5.23850E-03     6.31249E+06     5.00175E+06    -161.515E+06     5.78834E+06    -161.498E+06     5.50883E+06     1.44631E+06         22.5660
             798     2.95207E-03     24.6009E-03         1.26116     113.207E-03        -1.94267    -61.7852E-03    -619.729E-03     113.207E-03         3.13731     33.0819E-03    -16.4010E-03    -16.6809E-03    -16.5882E-03     32.9892E-03    -16.4010E-03     4.24468E-03     6.25361E+06     4.50289E+06    -168.400E+06     4.70612E+06    -168.378E+06     6.02865E+06     1.84579E+06         22.5008
             799     1.96839E-03     24.5962E-03     743.896E-03     162.603E-03        -1.45032     57.4699E-03    -773.006E-03     171.717E-03         1.09162     32.8303E-03    -16.2765E-03    -16.5538E-03    -16.4405E-03     32.7851E-03    -16.3447E-03     2.89852E-03     5.28594E+06     3.30033E+06    -173.276E+06     3.29364E+06    -173.268E+06     5.28379E+06     1.20471E+06         22.4554
             800     984.140E-06     24.5941E-03         3.83213    -454.545E-03        -3.89860         3.65307    -922.482E-03        -3.25161        -1.52522     32.6328E-03    -16.2263E-03    -16.4064E-03    -16.3246E-03     32.6191E-03    -16.2945E-03     1.37124E-03     6.42948E+06     1.45615E+06    -176.176E+06     3.26611E+06    -176.163E+06     4.60616E+06    -199.054E+03         22.4286
             801     16.7276E-03     24.2354E-03     330.482E-03    -10.1944E-03    -897.274E-03     283.102E-03    -849.895E-03    -10.1944E-03    -394.338E-03     254.416E-03    -16.8851E-03    -237.531E-03    -50.1482E-03     67.0333E-03    -16.8851E-03     477.748E-03     196.904E+06     101.586E+06    -7.29957E+06    -7.27162E+06     196.876E+06     101.586E+06     1.73133E+06         64.5101
             802     15.7395E-03     23.8096E-03     496.736E-03     11.3442E-03        -1.08583     232.055E-03    -821.146E-03     11.3442E-03        -1.12949     138.746E-03    -16.6308E-03    -122.115E-03    -29.5935E-03     46.2243E-03    -16.6308E-03     247.972E-03     156.458E+06     33.5998E+06    -15.0162E+06    -11.5527E+06     156.439E+06     30.1554E+06     1.19449E+06         56.3370
             803     14.7572E-03     23.7051E-03     799.293E-03     14.0667E-03        -1.40865     209.618E-03    -818.971E-03     14.0667E-03        -1.94472     50.5382E-03    -16.2127E-03    -34.3255E-03    -18.1556E-03     34.3683E-03    -16.2127E-03     61.7076E-03     101.424E+06    -9.29105E+06    -47.9270E+06    -10.2664E+06     101.406E+06    -46.9336E+06     394.183E+03         46.6478
             804     13.7743E-03     23.6797E-03     722.778E-03     7.89459E-03        -1.34074     123.025E-03    -740.990E-03     7.89459E-03        -1.87250     34.6779E-03    -16.0420E-03    -18.6359E-03    -16.7403E-03     32.7823E-03    -16.0420E-03     19.5754E-03     54.6998E+06    -5.99836E+06    -67.8524E+06    -5.94329E+06     54.6447E+06    -67.8524E+06     631.604E+03         37.9431
             805     12.7903E-03     23.6604E-03     288.411E-03    -14.4556E-03    -891.962E-03    -18.6604E-03    -606.196E-03     6.84972E-03    -985.515E-03     33.7919E-03    -16.1072E-03    -17.6847E-03    -16.7039E-03     32.8111E-03    -16.1072E-03     13.7454E-03     17.1229E+06    -7.59777E+06    -49.3408E+06    -2.26527E+06     11.7904E+06    -49.3408E+06    -303.693E+03         31.5360
             806     11.8066E-03     23.6483E-03     318.359E-03    -6.86785E-03    -931.998E-03    -104.369E-03    -530.575E-03     14.4375E-03        -1.11744     33.4755E-03    -16.1787E-03    -17.2969E-03    -16.7920E-03     32.9707E-03    -16.1787E-03     10.0490E-03     427.673E+03    -19.8266E+06    -45.6854E+06     348.607E+03    -31.5192E+06    -33.9137E+06     503.448E+03         27.5033
             807     10.8234E-03     23.6367E-03     775.571E-03     27.2909E-03        -1.42039    -112.989E-03    -531.833E-03     27.2909E-03        -2.15387     33.4947E-03    -16.2379E-03    -17.2569E-03    -16.7853E-03     33.0232E-03    -16.2379E-03     9.72673E-03     2.47179E+06    -19.6592E+06    -62.0020E+06     2.41095E+06    -61.9411E+06    -19.6592E+06     1.81934E+06         25.2463
             808     9.83947E-03     23.6254E-03     515.651E-03    -24.7437E-03        -1.10160    -125.388E-03    -529.026E-03     43.7243E-03        -1.43290     33.4550E-03    -16.2837E-03    -17.1713E-03    -16.7305E-03     33.0141E-03    -16.2837E-03     9.38296E-03     3.14971E+06    -7.51666E+06    -83.0084E+06     3.10531E+06     -82.964E+06    -7.51666E+06     1.82249E+06         24.0684
             809     8.85613E-03     23.6144E-03     375.821E-03    -1.72790E-03    -979.409E-03    -166.922E-03    -505.134E-03     66.7401E-03     871.563E-03     33.3552E-03    -16.2890E-03    -17.0662E-03    -16.7011E-03     32.9901E-03    -16.2890E-03     8.54263E-03     3.57148E+06    -3.56710E+06    -102.535E+06     3.53520E+06    -102.499E+06    -3.56710E+06     1.92506E+06         23.4566
             810     7.87223E-03     23.6050E-03     680.614E-03     100.982E-03        -1.38644    -215.913E-03    -489.916E-03     100.982E-03         2.03491     33.2075E-03    -16.2912E-03    -16.9163E-03    -16.5983E-03     32.8894E-03    -16.2912E-03     7.94877E-03     4.07053E+06    -518.192E+03    -120.218E+06     4.03346E+06    -120.181E+06    -518.192E+03     2.12421E+06         23.1150
             811     6.88858E-03     23.5955E-03     521.232E-03     148.272E-03        -1.27902    -218.055E-03    -539.738E-03     148.272E-03         1.75799     33.1146E-03    -16.2978E-03    -16.8168E-03    -16.5452E-03     32.8430E-03    -16.2978E-03     7.34012E-03     4.57749E+06     3.15409E+06    -133.784E+06     4.06214E+06    -133.749E+06     3.63525E+06     2.15024E+06         22.8994
             812     5.90469E-03     23.5877E-03     316.792E-03     196.157E-03        -1.12298    -89.9442E-03    -719.878E-03     199.793E-03         1.24429     32.9635E-03    -16.2758E-03    -16.6877E-03    -16.4632E-03     32.7390E-03    -16.2758E-03     6.64191E-03     4.55179E+06     2.87864E+06    -141.849E+06     4.01154E+06    -141.832E+06     3.40202E+06     1.20822E+06         22.7472
             813     4.92058E-03     23.5799E-03     474.952E-03     238.988E-03        -1.31000     67.1625E-03    -905.844E-03     242.624E-03         1.47985     32.7649E-03    -16.2632E-03    -16.5017E-03    -16.3308E-03     32.5940E-03    -16.2632E-03     5.77257E-03     3.55150E+06     1.55208E+06     -152.13E+06     3.23750E+06    -152.124E+06     1.85964E+06     670.211E+03         22.6326
             814     3.93649E-03     23.5739E-03     982.877E-03     274.856E-03        -1.82534     166.272E-03        -1.00873     274.856E-03         2.53934     32.7682E-03    -16.2671E-03    -16.5011E-03    -16.3706E-03     32.6377E-03    -16.2671E-03     5.05408E-03     3.74545E+06     1.84849E+06    -162.255E+06     2.41485E+06    -162.241E+06     3.16459E+06     1.24484E+06         22.5448
             815     2.95254E-03     23.5677E-03         1.32582     304.248E-03        -2.15809     215.412E-03        -1.04768     304.248E-03         3.22974     32.7155E-03    -16.2244E-03    -16.4911E-03    -16.3777E-03     32.6295E-03    -16.2518E-03     4.05158E-03     6.53774E+06     3.38824E+06    -166.916E+06     3.37257E+06    -166.901E+06     6.53774E+06     1.34487E+06         22.4792
             816     1.96856E-03     23.5645E-03         1.08629     326.714E-03        -1.91469     298.859E-03        -1.12726     326.714E-03     770.992E-03     32.4688E-03    -16.1259E-03    -16.3429E-03    -16.1759E-03     32.4289E-03    -16.2530E-03     2.71166E-03     8.63100E+06     4.10239E+06    -171.135E+06     4.09235E+06    -171.125E+06     8.63100E+06     457.890E+03         22.4335
             817     983.927E-06     23.5621E-03         3.65913    -392.219E-03        -3.75156         3.44093        -1.15204        -2.77355    -998.853E-03     32.4986E-03    -16.1507E-03    -16.3478E-03    -16.1721E-03     32.4816E-03    -16.3095E-03     1.76982E-03     5.46732E+06     1.10831E+06    -175.979E+06     2.86512E+06    -175.912E+06     3.64400E+06     709.438E+03         22.4063
             818     16.7347E-03     23.2159E-03     293.616E-03     80.9831E-03    -854.240E-03     255.791E-03    -816.415E-03     80.9831E-03    -328.211E-03     254.635E-03    -16.7264E-03    -237.909E-03    -51.2862E-03     68.0126E-03    -16.7264E-03     477.834E-03     197.722E+06     104.679E+06    -6.62974E+06    -6.59842E+06     197.691E+06     104.679E+06     1.45529E+06         64.3775
             819     15.7439E-03     22.7758E-03     475.065E-03     106.813E-03        -1.08984     247.122E-03    -861.893E-03     106.813E-03        -1.05304     141.273E-03    -16.4420E-03    -124.831E-03    -29.3632E-03     45.8052E-03    -16.4420E-03     253.463E-03     156.588E+06     34.5703E+06    -15.8065E+06    -9.15124E+06     156.567E+06     27.9354E+06     1.30426E+06         56.2658
             820     14.7594E-03     22.6697E-03     731.971E-03     114.591E-03        -1.38347     208.027E-03    -859.531E-03     114.591E-03        -1.81386     49.5228E-03    -16.0508E-03    -33.4720E-03    -17.9967E-03     34.0476E-03    -16.0508E-03     59.6096E-03     101.046E+06    -9.38888E+06    -51.7025E+06    -9.37565E+06     101.032E+06    -51.7025E+06     400.037E+03         46.6347
             821     13.7761E-03     22.6461E-03     616.933E-03     115.982E-03        -1.29141     105.564E-03    -780.038E-03     115.982E-03        -1.68643     34.2904E-03    -15.8899E-03    -18.4005E-03    -16.6668E-03     32.5567E-03    -15.8899E-03     18.6528E-03     56.1927E+06    -6.72539E+06    -69.9700E+06    -6.68300E+06     56.1503E+06    -69.9700E+06     620.353E+03         37.9671
             822     12.7921E-03     22.6274E-03     264.638E-03     57.0169E-03    -892.421E-03    -4.65075E-03    -689.347E-03     123.232E-03    -799.089E-03     33.4534E-03    -15.9641E-03    -17.4893E-03    -16.5936E-03     32.5577E-03    -15.9641E-03     13.0369E-03     17.7942E+06    -9.13520E+06    -49.3570E+06    -3.42482E+06     12.0839E+06    -49.3570E+06     1.05563E+06         31.5636
             823     11.8086E-03     22.6144E-03     305.102E-03     72.1168E-03    -951.518E-03    -69.4162E-03    -643.214E-03     138.332E-03    -958.198E-03     33.1187E-03    -16.0408E-03    -17.0779E-03    -16.6458E-03     32.6866E-03    -16.0408E-03     9.24351E-03    -826.569E+03    -20.2558E+06    -45.4704E+06    -1.52665E+06    -32.1145E+06    -32.9117E+06     1.70132E+06         27.5170
             824     10.8247E-03     22.6040E-03     656.968E-03     160.007E-03        -1.38822    -97.0247E-03    -634.228E-03     160.007E-03        -1.96613     33.2108E-03    -16.0918E-03    -17.1190E-03    -16.7143E-03     32.8062E-03    -16.0918E-03     8.97488E-03     37.5638E+03    -19.1118E+06    -61.7691E+06    -31.1444E+03    -61.7004E+06    -19.1118E+06     2.01260E+06         25.2434
             825     9.84143E-03     22.5918E-03     517.112E-03     61.1894E-03        -1.14299    -90.1846E-03    -661.421E-03     186.921E-03        -1.28345     33.1666E-03    -16.1238E-03    -17.0428E-03    -16.6562E-03     32.7799E-03    -16.1238E-03     8.75431E-03     2.07462E+06    -7.21592E+06    -82.2071E+06     2.02212E+06    -82.1546E+06    -7.21592E+06     2.00650E+06         24.0534
             826     8.85745E-03     22.5820E-03     452.180E-03     91.6522E-03        -1.10227    -56.2089E-03    -719.613E-03     217.384E-03     927.530E-03     32.9648E-03    -16.1216E-03    -16.8432E-03    -16.5227E-03     32.6443E-03    -16.1216E-03     7.96122E-03     3.19238E+06    -3.63728E+06    -101.846E+06     3.16176E+06    -101.815E+06    -3.63728E+06     1.74994E+06         23.4345
             827     7.87374E-03     22.5719E-03     678.660E-03     251.806E-03        -1.48930    -33.7292E-03    -776.909E-03     251.806E-03         2.02034     32.8436E-03    -16.1256E-03    -16.7180E-03    -16.4332E-03     32.5588E-03    -16.1256E-03     7.48516E-03     4.45715E+06    -180.657E+03    -119.984E+06     4.42535E+06    -119.953E+06    -180.657E+03     1.96907E+06         23.0894
             828     6.88956E-03     22.5635E-03     553.198E-03     292.157E-03        -1.40869    -5.42865E-03    -850.060E-03     292.157E-03         1.73398     32.7690E-03    -16.1292E-03    -16.6398E-03    -16.3913E-03     32.5206E-03    -16.1292E-03     6.98340E-03     5.38940E+06     4.05454E+06    -132.784E+06     5.35517E+06    -132.750E+06     4.05454E+06     2.15565E+06         22.8723
             829     5.90560E-03     22.5546E-03     407.572E-03     287.975E-03        -1.25932     48.8578E-03    -951.219E-03     338.590E-03         1.22574     32.6443E-03    -16.1163E-03    -16.5280E-03    -16.3295E-03     32.4458E-03    -16.1163E-03     6.20643E-03     6.45404E+06     4.46683E+06    -140.975E+06     4.72614E+06    -140.934E+06     6.15427E+06     2.27396E+06         22.7194
             830     4.92163E-03     22.5484E-03     565.191E-03     340.875E-03        -1.45826     112.639E-03        -1.05632     391.490E-03         1.55468     32.5463E-03    -16.0923E-03    -16.4540E-03    -16.3007E-03     32.3930E-03    -16.0923E-03     5.47072E-03     6.34638E+06     3.32873E+06    -150.638E+06      3.2891E+06    -150.598E+06     6.34638E+06     2.25369E+06         22.6046
             831     3.93742E-03     22.5412E-03     975.532E-03     445.324E-03        -1.94785     244.450E-03        -1.21677     445.324E-03         2.52799     32.3837E-03    -16.0547E-03    -16.3290E-03    -16.2098E-03     32.2645E-03    -16.0547E-03     4.78064E-03     4.70903E+06     2.60304E+06    -160.681E+06     2.74730E+06    -160.663E+06     4.54654E+06     749.573E+03         22.5167
             832     2.95319E-03     22.5362E-03         1.37483     483.028E-03        -2.34902     412.296E-03        -1.38649     483.028E-03         3.25552     32.0970E-03    -15.9675E-03    -16.1295E-03    -15.9795E-03     32.0250E-03    -16.0455E-03     3.67022E-03     4.35585E+06     1.83889E+06    -165.929E+06     2.72677E+06    -165.923E+06     3.46262E+06    -365.812E+03         22.4510
             833     1.96838E-03     22.5322E-03         1.35412     490.679E-03        -2.30936     509.938E-03        -1.46518     490.679E-03     550.075E-03     32.1104E-03    -15.9817E-03    -16.1287E-03    -15.9843E-03     32.0756E-03    -16.0913E-03     2.51936E-03     5.78887E+06     828.554E+03    -170.530E+06     1.55401E+06    -170.525E+06     5.05813E+06    -391.163E+03         22.4053
             834     984.421E-06     22.5304E-03         3.58786    -467.695E-03        -3.56570         3.25236        -1.41898        -2.27891    -613.780E-03     32.2143E-03    -15.9988E-03    -16.2155E-03    -16.1094E-03     32.1988E-03    -16.0894E-03     1.68342E-03     4.18700E+06     203.126E+03    -175.654E+06     138.581E+03    -175.590E+06     4.18700E+06     536.344E+03         22.3782
             835     16.7327E-03     22.1939E-03     296.972E-03     166.971E-03    -884.532E-03     266.316E-03    -853.876E-03     166.971E-03    -291.659E-03     253.987E-03    -16.6658E-03    -237.321E-03    -52.4950E-03     69.1608E-03    -16.6658E-03     475.974E-03     197.176E+06     101.814E+06    -6.31347E+06    -6.26919E+06     197.132E+06     101.814E+06     697.472E+03         64.1889
             836     15.7449E-03     21.7390E-03     440.324E-03     194.771E-03        -1.10026     258.658E-03    -918.590E-03     194.771E-03    -938.518E-03     143.535E-03    -16.2946E-03    -127.241E-03    -31.5837E-03     47.8783E-03    -16.2946E-03     257.350E-03     156.518E+06     32.3050E+06    -15.1518E+06    -9.87090E+06     156.500E+06     27.0426E+06     504.562E+03         56.1504
             837     14.7631E-03     21.6371E-03     621.935E-03     207.837E-03        -1.32969     177.943E-03    -885.702E-03     207.837E-03        -1.61641     48.6388E-03    -15.8733E-03    -32.7654E-03    -17.3543E-03     33.2277E-03    -15.8733E-03     59.0059E-03     100.731E+06    -9.66577E+06    -51.9643E+06    -9.62538E+06     100.690E+06    -51.9643E+06     1.58175E+06         46.5953
             838     13.7779E-03     21.6124E-03     513.020E-03     217.140E-03        -1.25344     88.8793E-03    -829.296E-03     217.140E-03        -1.49570     34.0094E-03    -15.7469E-03    -18.2625E-03    -16.5214E-03     32.2683E-03    -15.7469E-03     18.4645E-03     56.4981E+06    -8.36384E+06    -66.4822E+06    -8.10949E+06     56.2438E+06    -66.4822E+06     2.50869E+06         37.9662
             839     12.7949E-03     21.5939E-03     280.233E-03     149.261E-03    -965.230E-03     63.0752E-03    -828.692E-03     229.881E-03    -612.786E-03     33.2505E-03    -15.8175E-03    -17.4330E-03    -16.6236E-03     32.4411E-03    -15.8175E-03     12.4300E-03     17.6610E+06    -10.8564E+06    -44.8292E+06    -6.50304E+06     13.3077E+06    -44.8292E+06     1.87141E+06         31.5710
             840     11.8107E-03     21.5819E-03     304.661E-03     165.511E-03        -1.00988     41.1836E-03    -827.024E-03     246.131E-03    -706.488E-03     32.8013E-03    -15.8564E-03    -16.9449E-03    -16.5387E-03     32.3951E-03    -15.8564E-03     8.92078E-03    -1.92884E+06    -19.9869E+06    -45.5283E+06    -2.70303E+06    -31.8634E+06    -32.8776E+06     1.24655E+06         27.5147
             841     10.8272E-03     21.5706E-03     503.842E-03     269.771E-03        -1.30914    -39.0020E-03    -766.300E-03     269.771E-03        -1.63126     32.8279E-03    -15.9002E-03    -16.9276E-03    -16.5530E-03     32.4532E-03    -15.9002E-03     8.59249E-03     1.23983E+06    -18.8440E+06    -61.6468E+06     1.19398E+06    -61.6009E+06    -18.8440E+06     1.69680E+06         25.2274
             842     9.84317E-03     21.5595E-03     481.210E-03     80.7132E-03        -1.08973    -110.788E-03    -722.685E-03     305.668E-03        -1.02267     32.7747E-03    -15.9306E-03    -16.8440E-03    -16.4863E-03     32.4169E-03    -15.9306E-03     8.37293E-03     2.75572E+06    -6.77772E+06    -81.5770E+06     2.69962E+06    -81.5209E+06    -6.77772E+06     2.09041E+06         24.0268
             843     8.85945E-03     21.5492E-03     515.733E-03     125.835E-03        -1.16302    -67.1752E-03    -805.072E-03     350.789E-03         1.03491     32.5814E-03    -15.9263E-03    -16.6552E-03    -16.3667E-03     32.2930E-03    -15.9263E-03     7.50925E-03     3.18669E+06    -2.92895E+06    -100.664E+06     3.14136E+06    -100.618E+06    -2.92895E+06     2.05292E+06         23.4019
             844     7.87509E-03     21.5401E-03     687.806E-03     394.170E-03        -1.60295     89.9186E-03        -1.00506     394.170E-03         1.99097     32.4702E-03    -15.9194E-03    -16.5509E-03    -16.2927E-03     32.2121E-03    -15.9194E-03     7.09082E-03     3.57241E+06    -1.26311E+06    -119.282E+06     3.01413E+06    -119.253E+06    -733.824E+03     1.86935E+06         23.0539
             845     6.89121E-03     21.5308E-03     601.188E-03     430.396E-03        -1.55531     205.629E-03        -1.15975     430.396E-03         1.65222     32.3462E-03    -15.9165E-03    -16.4297E-03    -16.2123E-03     32.1288E-03    -15.9165E-03     6.48180E-03     4.48060E+06     1.96818E+06    -132.410E+06     3.01059E+06    -132.386E+06     3.41403E+06     1.79411E+06         22.8356
             846     5.90689E-03     21.5232E-03     512.273E-03     357.155E-03        -1.39232     198.354E-03        -1.19142     470.173E-03         1.07930     32.2059E-03    -15.9005E-03    -16.3054E-03    -16.1314E-03     32.0319E-03    -15.9005E-03     5.78856E-03     6.55835E+06     3.38178E+06    -140.898E+06     3.60467E+06    -140.860E+06     6.29735E+06     2.18765E+06         22.6824
             847     4.92251E-03     21.5158E-03     626.998E-03     413.108E-03        -1.55242     202.678E-03        -1.24112     526.126E-03         1.39078     32.1623E-03    -15.8682E-03    -16.2941E-03    -16.1524E-03     32.0206E-03    -15.8682E-03     5.22196E-03     8.15677E+06     4.78302E+06    -148.648E+06     4.74521E+06    -148.610E+06     8.15677E+06     2.05608E+06         22.5674
             848     3.93865E-03     21.5098E-03     905.609E-03     592.253E-03        -1.98562     328.652E-03        -1.40866     592.253E-03         2.29985     31.9240E-03    -15.8115E-03    -16.1125E-03    -16.0098E-03     31.8213E-03    -15.8115E-03     4.40536E-03     6.20458E+06     4.04316E+06    -158.129E+06     4.79588E+06    -158.095E+06     5.41791E+06     1.26511E+06         22.4795
             849     2.95384E-03     21.5048E-03         1.34692     650.265E-03        -2.45112     504.245E-03        -1.60844     650.265E-03         3.14284     31.6248E-03    -15.7264E-03    -15.8984E-03    -15.7871E-03     31.5640E-03    -15.7770E-03     3.35441E-03     3.31065E+06     1.26443E+06    -165.170E+06     3.28364E+06    -165.143E+06     1.26443E+06     659.288E+03         22.4139
             850     1.96921E-03     21.5012E-03         1.53920     670.493E-03        -2.64270     689.465E-03        -1.79297     670.493E-03     423.125E-03     31.6152E-03    -15.7281E-03    -15.8871E-03    -15.8043E-03     31.5831E-03    -15.7787E-03     2.43229E-03     2.36186E+06    -130.830E+03    -170.227E+06     1.14941E+06    -170.221E+06     1.07535E+06     507.125E+03         22.3684
             851     984.626E-06     21.4978E-03         3.61752    -591.342E-03        -3.43110         3.16656        -1.73900        -1.83248    -119.802E-03     31.5560E-03    -15.6495E-03    -15.9064E-03    -15.8942E-03     31.5437E-03    -15.6495E-03     1.29251E-03     887.713E+03    -1.19486E+06    -175.611E+06    -1.00374E+06    -175.584E+06     670.262E+03    -1.11328E+06         22.3415
             852     16.7287E-03     21.1555E-03     302.273E-03     244.567E-03    -943.701E-03     287.516E-03    -928.944E-03     244.567E-03    -207.136E-03     252.729E-03    -16.6323E-03    -236.097E-03    -53.4933E-03     70.1257E-03    -16.6323E-03     472.925E-03     197.296E+06     100.731E+06    -5.50478E+06    -5.45118E+06     197.243E+06     100.731E+06     415.401E+03         63.9547
             853     15.7515E-03     20.7062E-03     366.819E-03     272.198E-03        -1.08868     251.110E-03    -972.976E-03     272.198E-03    -703.961E-03     143.126E-03    -16.1778E-03    -126.949E-03    -32.4610E-03     48.6388E-03    -16.1778E-03     256.521E-03     155.487E+06     30.0433E+06    -15.3151E+06    -10.5042E+06     155.452E+06     25.2675E+06     1.04441E+06         55.9929
             854     14.7637E-03     20.6047E-03     475.573E-03     289.575E-03        -1.24745     144.953E-03    -916.830E-03     289.575E-03        -1.32998     49.2204E-03    -15.7031E-03    -33.5174E-03    -17.3789E-03     33.0820E-03    -15.7031E-03     60.1334E-03     99.9363E+06    -12.0018E+06    -56.3307E+06    -11.9246E+06     99.8591E+06    -56.3307E+06     2.47675E+06         46.5181
             855     13.7809E-03     20.5784E-03     439.942E-03     283.434E-03        -1.22436     100.245E-03    -906.043E-03     304.809E-03        -1.27003     33.9782E-03    -15.5523E-03    -18.4259E-03    -16.7603E-03     32.3126E-03    -15.5523E-03     18.1107E-03     57.2046E+06    -7.36398E+06    -70.7313E+06    -7.09189E+06     56.9325E+06    -70.7313E+06     3.03986E+06         37.9354
             856     12.7966E-03     20.5613E-03     327.241E-03     219.202E-03        -1.05936     136.306E-03    -969.823E-03     320.598E-03    -438.914E-03     32.9048E-03    -15.6196E-03    -17.2852E-03    -16.5151E-03     32.1346E-03    -15.6196E-03     12.0324E-03     20.7814E+06    -6.81949E+06    -45.0077E+06    -1.70800E+06     15.6699E+06    -45.0077E+06     2.11435E+06         31.5556
             857     11.8133E-03     20.5487E-03     343.084E-03     241.810E-03        -1.09994     142.959E-03    -994.808E-03     336.807E-03    -498.191E-03     32.5769E-03    -15.6466E-03    -16.9302E-03    -16.5476E-03     32.1942E-03    -15.6466E-03     8.64046E-03     575.238E+03    -20.2619E+06    -46.6900E+06    -97.5889E+03    -31.6432E+06    -34.6359E+06     1.44795E+06         27.4945
             858     10.8291E-03     20.5385E-03     440.007E-03     345.406E-03        -1.29547     39.2346E-03    -909.676E-03     360.381E-03        -1.39303     32.4705E-03    -15.6778E-03    -16.7927E-03    -16.4390E-03     32.1168E-03    -15.6778E-03     8.30843E-03     830.197E+03    -21.6924E+06    -61.8802E+06     752.691E+03    -61.8027E+06    -21.6924E+06     2.12764E+06         25.1970
             859     9.84530E-03     20.5268E-03     474.034E-03     113.070E-03        -1.08840    -95.9138E-03    -806.066E-03     400.686E-03    -841.808E-03     32.3664E-03    -15.7056E-03    -16.6608E-03    -16.3397E-03     32.0452E-03    -15.7056E-03     7.86438E-03     1.86760E+06    -8.33570E+06    -80.5045E+06     1.77614E+06    -80.4130E+06    -8.33570E+06     2.63687E+06         23.9880
             860     8.86109E-03     20.5173E-03     552.007E-03     168.363E-03        -1.21382    -77.4237E-03    -872.003E-03     455.978E-03         1.09239     32.2118E-03    -15.6959E-03    -16.5160E-03    -16.2678E-03     31.9637E-03    -15.6959E-03     6.92514E-03     2.21110E+06    -3.55750E+06    -100.319E+06     2.13244E+06    -100.240E+06    -3.55750E+06     2.74848E+06         23.3580
             861     7.87727E-03     20.5080E-03     671.061E-03     511.856E-03        -1.67397     105.114E-03        -1.10802     511.856E-03         1.98630     32.0726E-03    -15.6731E-03    -16.3995E-03    -16.1760E-03     31.8491E-03    -15.6731E-03     6.55943E-03     2.05793E+06    -1.65579E+06    -117.908E+06     1.44025E+06    -117.820E+06    -1.12650E+06     3.02016E+06         23.0075
             862     6.89286E-03     20.4992E-03     633.104E-03     552.865E-03        -1.67803     254.141E-03        -1.30621     560.017E-03         1.68365     31.8575E-03    -15.6451E-03    -16.2124E-03    -16.0269E-03     31.6719E-03    -15.6451E-03     5.94155E-03     1.67692E+06    -718.772E+03    -131.107E+06     180.732E+03    -131.057E+06     727.077E+03     1.96373E+06         22.7881
             863     5.90848E-03     20.4917E-03     617.477E-03     474.875E-03        -1.58098     310.490E-03        -1.40668     607.564E-03         1.07527     31.6644E-03    -15.5949E-03    -16.0696E-03    -15.9163E-03     31.5112E-03    -15.5949E-03     5.39658E-03     2.00198E+06    -1.88898E+06    -139.309E+06     721.256E+03    -139.299E+06    -618.628E+03     465.240E+03         22.6343
             864     4.92415E-03     20.4843E-03     699.858E-03     540.622E-03        -1.71755     336.987E-03        -1.48021     666.160E-03         1.29412     31.4984E-03    -15.5566E-03    -15.9418E-03    -15.8157E-03     31.3722E-03    -15.5566E-03     4.86901E-03     3.20604E+06    -1.12536E+06    -148.862E+06     2.53011E+06    -148.850E+06    -461.701E+03     634.136E+03         22.5191
             865     3.93917E-03     20.4785E-03     873.787E-03     735.588E-03        -2.06203     449.985E-03        -1.63823     735.588E-03         2.05171     31.3626E-03    -15.5320E-03    -15.8307E-03    -15.7459E-03     31.2778E-03    -15.5320E-03     3.95383E-03     4.40204E+06     1.11448E+06    -157.599E+06     3.31580E+06    -157.564E+06     2.16587E+06     2.09269E+06         22.4311
             866     2.95473E-03     20.4739E-03         1.38804     792.862E-03        -2.60051     667.209E-03        -1.87968     792.862E-03         3.03306     31.2492E-03    -15.4789E-03    -15.7702E-03    -15.7187E-03     31.1976E-03    -15.4789E-03     3.07724E-03     4.33842E+06     1.87301E+06    -163.051E+06     2.97334E+06    -162.998E+06     3.18544E+06     2.82095E+06         22.3655
             867     1.97009E-03     20.4700E-03         1.67168     806.219E-03        -2.87318     838.284E-03        -2.03978     806.219E-03     418.327E-03     30.9958E-03    -15.4010E-03    -15.5948E-03    -15.5666E-03     30.9677E-03    -15.4010E-03     2.22520E-03     3.35111E+06     1.30563E+06    -168.530E+06     1.83049E+06    -168.499E+06     2.79535E+06     2.04630E+06         22.3200
             868     985.119E-06     20.4675E-03         3.52221    -792.213E-03        -3.10649         2.93715        -1.97328        -1.34037     398.337E-03     30.7097E-03    -15.2179E-03    -15.4919E-03    -15.3638E-03     30.6999E-03    -15.3362E-03     1.13712E-03     608.849E+03    -1.08163E+06    -174.630E+06    -336.718E+03    -174.604E+06    -162.816E+03     425.384E+03         22.2931
             869     16.7369E-03     20.1152E-03     321.269E-03     279.398E-03        -1.00829     286.022E-03        -1.00465     311.011E-03    -104.189E-03     252.431E-03    -16.5683E-03    -235.863E-03    -54.0215E-03     70.5898E-03    -16.5683E-03     472.121E-03     195.778E+06     101.162E+06    -7.56278E+06    -7.53103E+06     195.746E+06     101.162E+06    -450.204E+03         63.6853
             870     15.7480E-03     19.6777E-03     346.896E-03     303.035E-03        -1.10421     247.673E-03        -1.04033     338.378E-03    -492.727E-03     143.170E-03    -16.0843E-03    -127.085E-03    -32.6597E-03     48.7440E-03    -16.0843E-03     256.233E-03     154.691E+06     29.5239E+06    -15.5074E+06    -12.0428E+06     154.634E+06     26.1160E+06     1.80444E+06         55.7910
             871     14.7661E-03     19.5673E-03     413.190E-03     343.338E-03        -1.23319     173.754E-03        -1.00795     357.534E-03        -1.08943     49.6265E-03    -15.5628E-03    -34.0636E-03    -18.3569E-03     33.9197E-03    -15.5628E-03     59.5077E-03     100.701E+06    -11.8917E+06    -54.3555E+06    -11.8218E+06     100.631E+06    -54.3555E+06     2.49790E+06         46.3957
             872     13.7835E-03     19.5469E-03     428.334E-03     302.831E-03        -1.22234     134.898E-03        -1.00085     374.783E-03        -1.06564     33.5779E-03    -15.3433E-03    -18.2346E-03    -16.8500E-03     32.1933E-03    -15.3433E-03     16.5754E-03     58.1510E+06    -7.26303E+06    -72.8361E+06    -7.19666E+06     58.0846E+06    -72.8361E+06     1.40028E+06         37.8722
             873     12.7995E-03     19.5277E-03     394.451E-03     191.294E-03        -1.08479     133.337E-03        -1.02683     394.451E-03    -317.004E-03     32.5634E-03    -15.3998E-03    -17.1637E-03    -16.4790E-03     31.8787E-03    -15.3998E-03     11.1849E-03     20.5293E+06    -7.95027E+06    -46.5196E+06    -3.16212E+06     15.7412E+06    -46.5196E+06     2.74754E+06         31.5153
             874     11.8154E-03     19.5167E-03     416.948E-03     220.032E-03        -1.13676     138.739E-03        -1.05547     416.948E-03    -409.338E-03     32.1862E-03    -15.4265E-03    -16.7597E-03    -16.4604E-03     31.8869E-03    -15.4265E-03     7.58423E-03    -443.030E+03    -21.3763E+06    -44.1694E+06    -1.62937E+06    -30.9309E+06    -33.4285E+06     4.00890E+06         27.4557
             875     10.8318E-03     19.5059E-03     465.496E-03     373.060E-03        -1.33179     86.5847E-03        -1.02551     445.696E-03        -1.28045     32.1425E-03    -15.4271E-03    -16.7154E-03    -16.4332E-03     31.8602E-03    -15.4271E-03     7.36913E-03    -555.557E+03    -22.7586E+06    -61.0094E+06    -782.358E+03    -60.7826E+06    -22.7586E+06     2.97944E+06         25.1519
             876     9.84783E-03     19.4950E-03     506.034E-03     226.211E-03        -1.21568     18.7048E-03    -988.380E-03     486.234E-03    -789.374E-03     31.9450E-03    -15.4312E-03    -16.5138E-03    -16.2643E-03     31.6955E-03    -15.4312E-03     6.87253E-03     278.910E+03    -9.96742E+06    -80.1524E+06     173.816E+03    -80.0473E+06    -9.96742E+06     2.71407E+06         23.9365
             877     8.86375E-03     19.4855E-03     587.518E-03     285.189E-03        -1.34598     35.1816E-03        -1.04674     538.287E-03         1.04942     31.7213E-03    -15.4028E-03    -16.3185E-03    -16.1276E-03     31.5304E-03    -15.4028E-03     6.02660E-03     623.770E+03    -5.12376E+06    -99.9428E+06     500.133E+03    -99.8192E+06    -5.12376E+06     3.44205E+06         23.3021
             878     7.87937E-03     19.4763E-03     666.505E-03     596.419E-03        -1.73146     122.989E-03        -1.18794     596.419E-03         2.00003     31.5232E-03    -15.3590E-03    -16.1642E-03    -15.9932E-03     31.3522E-03    -15.3590E-03     5.66978E-03     1.45023E+06    -2.79343E+06    -116.475E+06     1.33668E+06    -116.362E+06    -2.79343E+06     3.51737E+06         22.9490
             879     6.89503E-03     19.4682E-03     677.009E-03     642.996E-03        -1.78750     241.626E-03        -1.36528     656.154E-03         1.84058     31.2759E-03    -15.3072E-03    -15.9687E-03    -15.8249E-03     31.1322E-03    -15.3072E-03     5.18376E-03     3.16755E+06    -1.27862E+06    -128.347E+06     3.11032E+06    -128.289E+06    -1.27862E+06     2.21887E+06         22.7281
             880     5.91048E-03     19.4603E-03     716.550E-03     568.564E-03        -1.74712     353.596E-03        -1.53215     716.550E-03         1.26125     31.0412E-03    -15.2460E-03    -15.7953E-03    -15.6734E-03     30.9193E-03    -15.2460E-03     4.74864E-03     3.11042E+06    -2.62100E+06    -137.981E+06     3.08844E+06    -137.959E+06    -2.62100E+06     908.789E+03         22.5734
             881     4.92549E-03     19.4540E-03     821.790E-03     645.670E-03        -1.91655     448.927E-03        -1.67851     780.498E-03         1.42494     30.8034E-03    -15.2028E-03    -15.6006E-03    -15.5058E-03     30.7086E-03    -15.2028E-03     4.15037E-03     1.58464E+06    -3.34248E+06    -149.367E+06     1.23853E+06    -149.336E+06    -3.02693E+06     1.46215E+06         22.4575
             882     3.94071E-03     19.4477E-03     972.330E-03     844.359E-03        -2.23932     602.455E-03        -1.86945     844.359E-03         2.04357     30.6580E-03    -15.1703E-03    -15.4877E-03    -15.4239E-03     30.5942E-03    -15.1703E-03     3.38244E-03     1.50725E+06    -1.58453E+06    -157.744E+06     415.269E+03    -157.709E+06    -527.455E+03     2.32579E+06         22.3691
             883     2.95575E-03     19.4433E-03         1.45971     887.514E-03        -2.73532     811.960E-03        -2.08757     887.514E-03         2.98438     30.5380E-03    -15.1116E-03    -15.4264E-03    -15.3881E-03     30.4997E-03    -15.1116E-03     2.62323E-03     3.19442E+06     452.167E+03    -161.271E+06     830.516E+03    -161.226E+06     2.77170E+06     2.61593E+06         22.3031
             884     1.97084E-03     19.4397E-03         1.70548     896.463E-03        -2.95849     911.981E-03        -2.16498     896.463E-03     446.450E-03     30.2311E-03    -15.0247E-03    -15.2064E-03    -15.1758E-03     30.2106E-03    -15.0348E-03     1.86360E-03     4.51292E+06     942.628E+03    -165.754E+06     906.166E+03    -165.718E+06     4.51292E+06     2.33113E+06         22.2573
             885     985.533E-06     19.4381E-03         3.31145    -804.060E-03        -2.84309         2.66991        -2.12122    -884.387E-03     640.189E-03     29.9659E-03    -14.8589E-03    -15.1070E-03    -14.9710E-03     29.9583E-03    -14.9873E-03     1.11980E-03     2.37974E+06    -781.313E+03    -172.091E+06    -242.161E+03    -172.076E+06     1.82552E+06     1.50524E+06         22.2301
             886     16.7327E-03     19.0892E-03     368.766E-03     270.341E-03        -1.07651     269.043E-03        -1.07522     368.766E-03    -54.7199E-03     251.709E-03    -16.5314E-03    -235.178E-03    -54.6792E-03     71.2106E-03    -16.5314E-03     470.312E-03     195.760E+06     102.712E+06    -8.17344E+06    -8.11966E+06     195.706E+06     102.712E+06     664.391E+03         63.3581
             887     15.7516E-03     18.6367E-03     397.465E-03     304.862E-03        -1.17195     261.902E-03        -1.12899     397.465E-03    -411.255E-03     143.612E-03    -15.9599E-03    -127.652E-03    -34.7893E-03     50.7492E-03    -15.9599E-03     255.420E-03     154.848E+06     30.6597E+06    -15.6591E+06    -12.4467E+06     154.764E+06     27.5313E+06     1.06545E+06         55.5290
             888     14.7710E-03     18.5361E-03     446.645E-03     386.306E-03        -1.31719     247.334E-03        -1.14831     416.740E-03    -995.136E-03     48.0990E-03    -15.3449E-03    -32.7541E-03    -18.9125E-03     34.2574E-03    -15.3449E-03     55.9546E-03     100.858E+06    -10.5000E+06    -53.4608E+06    -10.4485E+06     100.806E+06    -53.4608E+06     797.527E+03         46.2261
             889     13.7860E-03     18.5120E-03     463.656E-03     320.219E-03        -1.27505     179.707E-03        -1.10464     433.751E-03    -974.469E-03     33.0256E-03    -15.1104E-03    -17.9152E-03    -16.6861E-03     31.7964E-03    -15.1104E-03     15.3126E-03     57.8078E+06    -7.57177E+06    -69.0081E+06    -7.31249E+06     57.5485E+06    -69.0081E+06     2.80871E+06         37.7727
             890     12.8032E-03     18.4963E-03     457.402E-03     149.478E-03        -1.10092     102.624E-03        -1.05406     457.402E-03    -246.354E-03     32.2898E-03    -15.1499E-03    -17.1399E-03    -16.6302E-03     31.7801E-03    -15.1499E-03     9.60191E-03     19.0698E+06    -9.94165E+06    -42.7507E+06    -5.90549E+06     15.0336E+06    -42.7507E+06     4.28200E+06         31.4485
             891     11.8191E-03     18.4840E-03     488.750E-03     148.889E-03        -1.12928     81.1852E-03        -1.06158     488.750E-03    -320.665E-03     31.7434E-03    -15.1305E-03    -16.6128E-03    -16.4021E-03     31.5326E-03    -15.1305E-03     6.32274E-03    -1.93711E+06    -20.8714E+06    -42.1071E+06    -3.30313E+06    -29.5358E+06    -32.0766E+06     3.99304E+06         27.3980
             892     10.8353E-03     18.4742E-03     525.250E-03     346.686E-03        -1.35553     110.927E-03        -1.11977     525.250E-03        -1.15232     31.6488E-03    -15.1034E-03    -16.5454E-03    -16.3556E-03     31.4590E-03    -15.1034E-03     5.99363E-03     28.4846E+03    -21.4920E+06    -58.9687E+06    -223.920E+03    -58.7163E+06    -21.4920E+06     3.23885E+06         25.0921
             893     9.85120E-03     18.4633E-03     565.017E-03     331.949E-03        -1.36867     160.101E-03        -1.19682     565.017E-03    -731.821E-03     31.4290E-03    -15.0770E-03    -16.3520E-03    -16.1840E-03     31.2610E-03    -15.0770E-03     5.57814E-03     1.45463E+06    -10.1068E+06    -80.1907E+06     1.33262E+06    -80.0687E+06    -10.1068E+06     2.90793E+06         23.8721
             894     8.86699E-03     18.4543E-03     655.093E-03     408.570E-03        -1.52255     200.392E-03        -1.26782     608.544E-03         1.02604     31.1120E-03    -15.0184E-03    -16.0936E-03    -15.9701E-03     30.9885E-03    -15.0184E-03     4.76855E-03     2.96974E+06    -5.67672E+06    -99.4994E+06     2.84632E+06    -99.3760E+06    -5.67672E+06     3.47525E+06         23.2337
             895     7.88254E-03     18.4455E-03     711.816E-03     655.730E-03        -1.81971     237.594E-03        -1.34773     657.970E-03         1.96128     30.7817E-03    -14.9489E-03    -15.8329E-03    -15.7244E-03     30.6733E-03    -14.9489E-03     4.44493E-03     4.04269E+06    -3.95657E+06    -114.290E+06     3.95972E+06    -114.207E+06    -3.95657E+06     2.97685E+06         22.8777
             896     6.89783E-03     18.4374E-03     721.918E-03     689.874E-03        -1.86038     294.380E-03        -1.45759     714.621E-03         1.85511     30.5197E-03    -14.8878E-03    -15.6319E-03    -15.5381E-03     30.4259E-03    -14.8878E-03     4.11588E-03     4.65559E+06    -1.44673E+06    -126.366E+06     4.61193E+06    -126.323E+06    -1.44673E+06     2.36818E+06         22.6547
             897     5.91277E-03     18.4303E-03     776.662E-03     623.172E-03        -1.84217     395.536E-03        -1.61454     776.662E-03         1.34193     30.2995E-03    -14.8270E-03    -15.4725E-03    -15.3969E-03     30.2239E-03    -14.8270E-03     3.65434E-03     4.63694E+06     835.175E+03    -138.074E+06     4.43263E+06    -137.984E+06     949.761E+03     3.31519E+06         22.4982
             898     4.92796E-03     18.4235E-03     932.118E-03     705.592E-03        -2.06636     556.820E-03        -1.82205     836.576E-03         1.53444     30.0163E-03    -14.7624E-03    -15.2540E-03    -15.2000E-03     29.9624E-03    -14.7624E-03     3.06869E-03     3.53070E+06     2.06347E+06    -148.361E+06     2.89976E+06    -148.253E+06     2.58688E+06     3.79811E+06         22.3809
             899     3.94259E-03     18.4183E-03         1.06532     888.461E-03        -2.35312     697.922E-03        -1.98573     888.461E-03         2.11318     29.6921E-03    -14.6897E-03    -15.0024E-03    -14.9625E-03     29.6522E-03    -14.6897E-03     2.63337E-03     1.48992E+06     654.722E+03    -156.296E+06     1.01610E+06    -156.235E+06     1.06719E+06      2.9902E+06         22.2913
             900     2.95718E-03     18.4132E-03         1.42831     936.397E-03        -2.72661     792.098E-03        -2.09040     936.397E-03         2.93680     29.4273E-03    -14.6328E-03    -14.7945E-03    -14.7685E-03     29.4013E-03    -14.6328E-03     2.09046E-03     1.91710E+06    -938.808E+03    -160.240E+06     880.439E+03    -160.214E+06     71.9463E+03     1.69359E+06         22.2244
             901     1.97145E-03     18.4107E-03         1.67586     976.044E-03        -2.98390     914.148E-03        -2.22218     976.044E-03     422.461E-03     29.2996E-03    -14.5987E-03    -14.7009E-03    -14.6787E-03     29.2875E-03    -14.6088E-03     1.39559E-03     5.13150E+06     906.615E+03    -162.898E+06     2.31851E+06    -162.887E+06     3.70907E+06     905.059E+03         22.1780
             902     985.594E-06     18.4085E-03         3.13501    -518.246E-03        -2.91305         2.50227        -2.28031    -518.246E-03     681.394E-03     29.1747E-03    -14.4923E-03    -14.6824E-03    -14.6674E-03     29.1699E-03    -14.5024E-03     847.154E-06     3.22402E+06     251.266E+03    -169.536E+06     245.342E+03    -169.530E+06     3.22402E+06     848.792E+03         22.1505
             903     16.7349E-03     18.0554E-03     422.858E-03     269.182E-03        -1.16378     267.944E-03        -1.16254     422.858E-03    -35.7387E-03     251.537E-03    -16.4854E-03    -235.052E-03    -56.8904E-03     73.3757E-03    -16.4854E-03     468.760E-03     197.058E+06     104.849E+06    -6.48378E+06    -6.43268E+06     197.007E+06     104.849E+06     1.52107E+06         62.9424
             904     15.7552E-03     17.5968E-03     453.899E-03     319.238E-03        -1.26817     273.425E-03        -1.22235     453.899E-03    -437.177E-03     142.525E-03    -15.7570E-03    -126.768E-03    -37.0180E-03     52.7750E-03    -15.7570E-03     252.026E-03     155.448E+06     31.5305E+06    -14.6004E+06    -10.9688E+06     155.377E+06     27.9692E+06     1.48569E+06         55.1905
             905     14.7743E-03     17.5034E-03     489.871E-03     430.911E-03        -1.42253     289.415E-03        -1.26593     474.775E-03        -1.01394     46.5006E-03    -15.0479E-03    -31.4527E-03    -18.8182E-03     33.8661E-03    -15.0479E-03     52.5426E-03     99.5999E+06    -12.0117E+06    -55.6419E+06    -11.9589E+06     99.5471E+06    -55.6419E+06     1.04598E+06         45.9995
             906     13.7913E-03     17.4798E-03     507.181E-03     373.216E-03        -1.37979     243.306E-03        -1.23479     492.085E-03    -938.490E-03     32.7994E-03    -14.7798E-03    -18.0195E-03    -16.9342E-03     31.7141E-03    -14.7798E-03     14.2274E-03     55.5580E+06    -8.98907E+06    -71.9415E+06    -8.72688E+06     55.2958E+06    -71.9415E+06     3.12635E+06         37.6305
             907     12.8072E-03     17.4631E-03     515.740E-03     195.536E-03        -1.20798     155.671E-03        -1.16812     515.740E-03    -177.322E-03     31.8391E-03    -14.7948E-03    -17.0444E-03    -16.6942E-03     31.4889E-03    -14.7948E-03     7.76696E-03     20.3498E+06    -7.11994E+06    -41.2042E+06    -3.06421E+06     16.2940E+06    -41.2042E+06     4.19027E+06         31.3534
             908     11.8240E-03     17.4530E-03     548.329E-03     159.846E-03        -1.19806     112.899E-03        -1.15111     548.329E-03    -192.652E-03     31.3384E-03    -14.7376E-03    -16.6008E-03    -16.4721E-03     31.2097E-03    -14.7376E-03     4.86836E-03     1.47771E+06    -19.5283E+06    -40.2615E+06     208.517E+03    -27.7916E+06    -30.7290E+06     3.58869E+06         27.3207
             909     10.8397E-03     17.4423E-03     586.430E-03     326.660E-03        -1.39172     157.344E-03        -1.22240     586.430E-03    -991.689E-03     31.0669E-03    -14.6730E-03    -16.3939E-03    -16.2819E-03     30.9549E-03    -14.6730E-03     4.54415E-03     2.28111E+06    -21.1528E+06    -57.7532E+06     2.10297E+06    -57.5751E+06    -21.1528E+06     3.16244E+06         25.0176
             910     9.85575E-03     17.4326E-03     625.880E-03     367.260E-03        -1.45725     235.184E-03        -1.32518     625.880E-03    -583.962E-03     30.7701E-03    -14.6179E-03    -16.1522E-03    -16.0645E-03     30.6824E-03    -14.6179E-03     3.92883E-03     3.74630E+06    -8.93884E+06    -79.0481E+06     3.61870E+06    -78.9205E+06    -8.93884E+06     3.10251E+06         23.7948
             911     8.87132E-03     17.4233E-03     704.207E-03     480.829E-03        -1.63400     288.294E-03        -1.40408     666.827E-03         1.08422     30.3397E-03    -14.5228E-03    -15.8169E-03    -15.7581E-03     30.2809E-03    -14.5228E-03     3.18441E-03     4.97206E+06    -5.69734E+06    -99.5131E+06     4.88289E+06    -99.4240E+06    -5.69734E+06     2.97422E+06         23.1527
             912     7.88664E-03     17.4155E-03     749.661E-03     693.018E-03        -1.88252     327.387E-03        -1.47951     712.281E-03         1.88264     29.9293E-03    -14.4327E-03    -15.4965E-03    -15.4462E-03     29.8789E-03    -14.4327E-03     2.89952E-03     6.23324E+06    -1.47214E+06    -112.630E+06     6.11649E+06    -112.513E+06    -1.47214E+06     3.51283E+06         22.7933
             913     6.90135E-03     17.4077E-03     762.725E-03     707.151E-03        -1.90607     398.163E-03        -1.59708     762.725E-03         1.66723     29.5913E-03    -14.3500E-03    -15.2413E-03    -15.1982E-03     29.5482E-03    -14.3500E-03     2.63705E-03     5.02022E+06     1.96889E+06    -125.556E+06     4.70170E+06    -125.411E+06     2.14190E+06     4.10830E+06         22.5671
             914     5.91648E-03     17.4005E-03     812.237E-03     695.011E-03        -1.93548     533.738E-03        -1.77421     812.237E-03         1.15503     29.2438E-03    -14.2519E-03    -14.9919E-03    -14.9599E-03     29.2118E-03    -14.2519E-03     2.27695E-03     3.54744E+06     2.20454E+06    -138.036E+06     3.10505E+06    -137.881E+06     2.49214E+06     4.54220E+06         22.4079
             915     4.93083E-03     17.3946E-03     934.206E-03     775.867E-03        -2.12417     644.753E-03        -1.91563     856.782E-03         1.40860     28.8583E-03    -14.1535E-03    -14.7049E-03    -14.6805E-03     28.8339E-03    -14.1535E-03     2.00178E-03     3.52678E+06     2.71903E+06    -146.916E+06     3.16282E+06    -146.760E+06     2.92688E+06     4.78928E+06         22.2882
             916     3.94522E-03     17.3893E-03         1.03411     903.991E-03        -2.32166     696.457E-03        -1.98401     903.991E-03         2.01670     28.4635E-03    -14.0702E-03    -14.3933E-03    -14.3751E-03     28.4452E-03    -14.0702E-03     1.69986E-03     3.63302E+06     2.81540E+06    -153.472E+06     3.44457E+06    -153.381E+06     2.91232E+06     3.55431E+06         22.1966
             917     2.95886E-03     17.3854E-03         1.36063     963.902E-03        -2.66923     760.491E-03        -2.06909     963.902E-03         2.81550     28.1398E-03    -14.0077E-03    -14.1320E-03    -14.1201E-03     28.1278E-03    -14.0077E-03     1.33996E-03     3.34240E+06     455.472E+03    -157.447E+06     3.29576E+06    -157.404E+06     459.124E+03     2.13014E+06         22.1283
             918     1.97252E-03     17.3820E-03         1.62631         1.03663        -2.97257     881.665E-03        -2.22793         1.03663     303.263E-03     28.0458E-03    -13.9851E-03    -14.0607E-03    -14.0556E-03     28.0407E-03    -13.9851E-03     827.004E-06     3.72075E+06     432.763E+03    -161.573E+06     2.69119E+06    -161.548E+06     1.43721E+06     894.887E+03         22.0809
             919     986.669E-06     17.3805E-03         2.90227    -118.046E-03        -3.06241         2.26914        -2.42928    -118.046E-03     583.790E-03     27.9615E-03    -13.9233E-03    -14.0383E-03    -14.0140E-03     27.9602E-03    -13.9462E-03     441.131E-06     4.29087E+06     1.33821E+06    -167.214E+06     2.72068E+06    -167.211E+06     2.90550E+06     430.849E+03         22.0527
             920     16.7326E-03     17.0049E-03     476.964E-03     295.721E-03        -1.28473     292.795E-03        -1.28181     476.964E-03    -46.7243E-03     251.059E-03    -16.3069E-03    -234.752E-03    -59.9361E-03     76.2430E-03    -16.3069E-03     466.273E-03     196.321E+06     104.711E+06    -6.77779E+06    -6.76959E+06     196.313E+06     104.711E+06     461.653E+03         62.4300
             921     15.7621E-03     16.5623E-03     510.336E-03     343.101E-03        -1.37927     296.182E-03        -1.33235     510.336E-03    -479.892E-03     138.458E-03    -15.4366E-03    -123.022E-03    -36.7891E-03     52.2257E-03    -15.4366E-03     244.321E-03     154.533E+06     29.6984E+06    -14.4894E+06    -11.1915E+06     154.504E+06     26.4294E+06     1.05958E+06         54.7746
             922     14.7788E-03     16.4690E-03     535.438E-03     457.367E-03        -1.51489     313.988E-03        -1.36944     533.372E-03        -1.01330     45.6565E-03    -14.6845E-03    -30.9719E-03    -18.7673E-03     33.4518E-03    -14.6845E-03     49.8102E-03     100.031E+06    -10.4601E+06    -55.2501E+06    -10.3870E+06     99.9575E+06    -55.2501E+06     2.66002E+06         45.7098
             923     13.7964E-03     16.4471E-03     553.605E-03     427.020E-03        -1.49449     307.774E-03        -1.37318     551.538E-03    -879.421E-03     32.5270E-03    -14.3427E-03    -18.1843E-03    -17.4451E-03     31.7879E-03    -14.3427E-03     11.7049E-03     55.7768E+06    -6.84041E+06    -77.1007E+06    -6.76179E+06     55.6982E+06    -77.1007E+06     2.03145E+06         37.4436
             924     12.8135E-03     16.4313E-03     572.533E-03     301.202E-03        -1.37841     275.228E-03        -1.35243     572.533E-03    -129.539E-03     31.1919E-03    -14.3087E-03    -16.8832E-03    -16.6587E-03     30.9674E-03    -14.3087E-03     5.88287E-03     19.8914E+06    -6.69792E+06    -47.1962E+06    -2.47696E+06     15.6705E+06    -47.1962E+06     2.86853E+06         31.2294
             925     11.8293E-03     16.4213E-03     598.279E-03     298.724E-03        -1.39031     267.777E-03        -1.35936     598.279E-03    -162.762E-03     30.7760E-03    -14.2357E-03    -16.5403E-03    -16.4879E-03     30.7236E-03    -14.2357E-03     2.98517E-03     1.70881E+06    -20.2896E+06    -39.0953E+06     412.332E+03    -26.0399E+06    -32.0485E+06     4.20415E+06         27.2240
             926     10.8458E-03     16.4116E-03     628.774E-03     398.237E-03        -1.50459     268.395E-03        -1.37474     628.774E-03    -911.481E-03     30.4498E-03    -14.1290E-03    -16.3208E-03    -16.2736E-03     30.4026E-03    -14.1290E-03     2.79241E-03     2.47302E+06    -21.9164E+06    -56.6074E+06     2.19975E+06    -56.3341E+06    -21.9164E+06     3.78179E+06         24.9291
             927     9.86144E-03     16.4018E-03     665.845E-03     366.342E-03        -1.49174     256.833E-03        -1.38224     665.845E-03    -489.812E-03     29.9570E-03    -14.0372E-03    -15.9198E-03    -15.8893E-03     29.9265E-03    -14.0372E-03     2.07330E-03     3.53553E+06    -8.26475E+06    -78.3002E+06     3.37570E+06    -78.1404E+06    -8.26475E+06     3.55025E+06         23.7059
             928     8.87692E-03     16.3939E-03     719.699E-03     497.708E-03        -1.65994     282.234E-03        -1.43505     710.277E-03         1.11761     29.4117E-03    -13.9018E-03    -15.5099E-03    -15.4944E-03     29.3962E-03    -13.9018E-03     1.35840E-03     3.70758E+06    -4.78913E+06    -98.1852E+06     3.59135E+06    -98.0690E+06    -4.78913E+06     3.34016E+06         23.0604
             929     7.89174E-03     16.3861E-03     769.413E-03     724.856E-03        -1.92673     348.544E-03        -1.54099     759.991E-03         1.86722     28.9277E-03    -13.7615E-03    -15.1663E-03    -15.1545E-03     28.9160E-03    -13.7615E-03     1.18433E-03     3.89105E+06    -2.17569E+06    -113.051E+06     3.75619E+06    -112.916E+06    -2.17569E+06     3.84321E+06         22.6968
             930     6.90684E-03     16.3789E-03     809.219E-03     732.428E-03        -1.96925     483.296E-03        -1.72011     809.219E-03         1.53219     28.3891E-03    -13.6356E-03    -14.7534E-03    -14.7445E-03     28.3801E-03    -13.6356E-03     1.00910E-03     5.32350E+06     2.62878E+06    -124.650E+06     4.94639E+06    -124.446E+06     2.80179E+06     5.10708E+06         22.4664
             931     5.92068E-03     16.3724E-03     849.810E-03     743.358E-03        -2.01290     644.771E-03        -1.91431     849.810E-03     942.114E-03     27.8257E-03    -13.5131E-03    -14.3127E-03    -14.3055E-03     27.8186E-03    -13.5131E-03     879.930E-06     5.63509E+06     3.87666E+06    -137.230E+06     5.25573E+06    -137.024E+06     4.04967E+06     5.35149E+06         22.3032
             932     4.93464E-03     16.3668E-03     935.693E-03     823.240E-03        -2.16310     704.147E-03        -1.99352     885.204E-03         1.24892     27.3634E-03    -13.3890E-03    -13.9744E-03    -13.9678E-03     27.3568E-03    -13.3890E-03     809.135E-06     4.77389E+06     1.79163E+06    -145.019E+06     4.60556E+06    -144.851E+06     1.79163E+06     4.94506E+06         22.1799
             933     3.94794E-03     16.3620E-03         1.00332     931.636E-03        -2.30937     706.300E-03        -2.01236     931.636E-03         1.89111     27.0047E-03    -13.2870E-03    -13.7177E-03    -13.7130E-03     27.0000E-03    -13.2870E-03     664.688E-06     4.83137E+06     1.92174E+06    -150.022E+06     4.72453E+06    -149.915E+06     1.92174E+06     3.87878E+06         22.0854
             934     2.96144E-03     16.3584E-03         1.31202     992.610E-03        -2.63975     796.453E-03        -2.12418     992.610E-03         2.61958     26.6819E-03    -13.2078E-03    -13.4740E-03    -13.4716E-03     26.6795E-03    -13.2078E-03     472.806E-06     5.46671E+06     3.26572E+06    -154.925E+06     4.72699E+06    -154.853E+06     3.93414E+06     3.26865E+06         22.0148
             935     1.97448E-03     16.3553E-03         1.57151         1.06340        -2.93176     911.270E-03        -2.27153         1.06340     204.888E-03     26.3622E-03    -13.1174E-03    -13.2448E-03    -13.2052E-03     26.3611E-03    -13.1559E-03     272.340E-06     4.91260E+06     2.82460E+06    -159.706E+06     3.91927E+06    -159.663E+06     3.77558E+06     2.02145E+06         21.9658
             936     986.899E-06     16.3537E-03         2.58666     176.118E-03        -3.03216         2.02683        -2.47233     176.118E-03     362.086E-03     26.2906E-03    -13.0818E-03    -13.2088E-03    -13.1472E-03     26.2904E-03    -13.1432E-03     161.834E-06     4.99114E+06     1.92579E+06    -164.870E+06     3.57582E+06    -164.859E+06     3.32988E+06     1.01355E+06         21.9366
             937     16.7470E-03     15.9583E-03     533.361E-03     357.819E-03        -1.44583     354.430E-03        -1.44244     533.361E-03    -64.5763E-03     248.720E-03    -15.9632E-03    -232.757E-03    -62.4716E-03     78.4348E-03    -15.9632E-03     460.320E-03     195.480E+06     105.442E+06    -7.93734E+06    -7.93379E+06     195.477E+06     105.442E+06     128.828E+03         61.8311
             938     15.7679E-03     15.5310E-03     566.875E-03     403.744E-03        -1.52585     365.764E-03        -1.48787     566.875E-03    -470.975E-03     135.593E-03    -14.9894E-03    -120.604E-03    -35.7802E-03     50.7696E-03    -14.9894E-03     239.026E-03     154.470E+06     29.6572E+06    -15.0020E+06    -11.9712E+06     154.456E+06     26.6409E+06     446.479E+03         54.2869
             939     14.7857E-03     15.4337E-03     589.823E-03     478.619E-03        -1.61206     357.410E-03        -1.49085     589.823E-03    -952.523E-03     44.5804E-03    -14.2092E-03    -30.3711E-03    -19.1556E-03     33.3648E-03    -14.2092E-03     46.7483E-03     100.846E+06    -11.0643E+06    -54.3712E+06    -11.0069E+06     100.788E+06    -54.3712E+06     1.91412E+06         45.3603
             940     13.8041E-03     15.4147E-03     609.130E-03     443.814E-03        -1.58223     340.277E-03        -1.47869     609.130E-03    -838.041E-03     31.5623E-03    -13.8410E-03    -17.7213E-03    -17.3065E-03     31.1475E-03    -13.8410E-03     8.56576E-03     57.0088E+06    -7.96858E+06    -72.6927E+06    -7.68830E+06     56.7285E+06    -72.6927E+06     3.09139E+06         37.2163
             941     12.8202E-03     15.4002E-03     629.251E-03     394.974E-03        -1.54035     375.400E-03        -1.52077     629.251E-03    -166.952E-03     30.5895E-03    -13.7641E-03    -16.8254E-03    -16.7215E-03     30.4856E-03    -13.7641E-03     3.59230E-03     18.0030E+06    -7.99393E+06    -44.3315E+06    -5.34443E+06     15.3535E+06    -44.3315E+06     3.42092E+06         31.0779
             942     11.8368E-03     15.3903E-03     648.691E-03     459.654E-03        -1.60790     429.235E-03        -1.57749     648.691E-03    -257.256E-03     30.0176E-03    -13.6333E-03    -16.3842E-03    -16.3731E-03     30.0064E-03    -13.6333E-03     1.02744E-03    -1.28124E+06    -19.0349E+06    -38.3437E+06    -2.60283E+06    -25.1181E+06    -30.9388E+06     3.44871E+06         27.1104
             943     10.8527E-03     15.3813E-03     670.244E-03     530.546E-03        -1.68013     406.027E-03        -1.55561     670.244E-03    -975.584E-03     29.6411E-03    -13.4797E-03    -16.1615E-03    -16.1525E-03     29.6322E-03    -13.4797E-03     770.024E-06     1.00958E+06    -20.2588E+06    -55.5354E+06     740.098E+03    -55.2660E+06    -20.2588E+06     3.74625E+06         24.8292
             944     9.86855E-03     15.3723E-03     701.214E-03     426.353E-03        -1.58621     327.810E-03        -1.48767     701.214E-03    -558.602E-03     29.0120E-03    -13.3336E-03    -15.6783E-03    -15.6695E-03     29.0031E-03    -13.3336E-03     79.1884E-06     2.89374E+06    -7.16564E+06    -77.5630E+06     2.70983E+06    -77.3791E+06    -7.16564E+06     3.79982E+06         23.6080
             945     8.88356E-03     15.3651E-03     746.547E-03     528.201E-03        -1.71438     317.234E-03        -1.50062     743.756E-03         1.06075     28.3504E-03    -13.1470E-03    -15.2034E-03    -15.1975E-03     28.3445E-03    -13.1470E-03    -493.266E-06     3.48321E+06    -3.27883E+06    -96.7884E+06     3.31100E+06    -96.6162E+06    -3.27883E+06     4.12069E+06         22.9595
             946     7.89857E-03     15.3578E-03     798.460E-03     772.802E-03        -2.00100     417.013E-03        -1.63766     790.914E-03         1.86141     27.6676E-03    -12.9425E-03    -14.7251E-03    -14.7196E-03     27.6621E-03    -12.9425E-03    -472.437E-06     3.99709E+06    -3.45162E+06    -112.536E+06     3.85966E+06    -112.398E+06    -3.45162E+06     3.84256E+06         22.5911
             947     6.91238E-03     15.3515E-03     839.565E-03     782.385E-03        -2.04596     547.942E-03        -1.80676     834.809E-03         1.55422     26.9237E-03    -12.7687E-03    -14.1551E-03    -14.1486E-03     26.9173E-03    -12.7687E-03    -575.091E-06     5.43951E+06     234.356E+03    -124.911E+06     5.29661E+06    -124.769E+06     234.356E+03     4.20938E+06         22.3552
             948     5.92618E-03     15.3458E-03     875.591E-03     739.931E-03        -2.03048     632.267E-03        -1.92281     875.591E-03         1.00166     26.2370E-03    -12.6202E-03    -13.6167E-03    -13.6107E-03     26.2310E-03    -12.6202E-03    -570.689E-06     6.15276E+06     3.71926E+06    -135.938E+06     5.90163E+06    -135.687E+06     3.71926E+06     5.92989E+06         22.1867
             949     4.93901E-03     15.3406E-03     967.354E-03     818.661E-03        -2.18622     704.557E-03        -2.02194     917.176E-03         1.26891     25.6718E-03    -12.4719E-03    -13.1999E-03    -13.1949E-03     25.6668E-03    -12.4719E-03    -547.095E-06     6.51857E+06     3.06642E+06    -141.961E+06     5.84881E+06    -141.739E+06     3.51405E+06     5.61376E+06         22.0587
             950     3.95185E-03     15.3364E-03         1.05596     962.223E-03        -2.38719     772.564E-03        -2.10380     962.223E-03         1.89223     25.2234E-03    -12.3377E-03    -12.8857E-03    -12.8815E-03     25.2192E-03    -12.3377E-03    -495.192E-06     6.30709E+06     2.75367E+06    -147.132E+06     5.72909E+06    -147.002E+06     3.20130E+06     4.44896E+06         21.9602
             951     2.96425E-03     15.3327E-03         1.33019         1.00813        -2.66991     875.161E-03        -2.21488         1.00813         2.51062     24.8034E-03    -12.2306E-03    -12.5728E-03    -12.5699E-03     24.8005E-03    -12.2306E-03    -418.993E-06     6.58327E+06     4.33201E+06    -152.994E+06     5.83410E+06    -152.913E+06     5.00043E+06     3.43035E+06         21.8865
             952     1.97639E-03     15.3307E-03         1.54771         1.03545        -2.87947         1.01469        -2.34645         1.03545     269.286E-03     24.4346E-03    -12.1165E-03    -12.3181E-03    -12.2783E-03     24.4332E-03    -12.1550E-03    -292.664E-06     8.44481E+06     4.55146E+06    -156.382E+06     5.37039E+06    -156.330E+06     7.57467E+06     2.66528E+06         21.8351
             953     988.318E-06     15.3288E-03         2.27426     247.872E-03        -2.78385         1.83329        -2.34289     247.872E-03     246.751E-03     24.2105E-03    -12.0241E-03    -12.1865E-03    -12.1477E-03     24.2103E-03    -12.0626E-03    -88.4480E-06     6.17221E+06     625.205E+03    -162.737E+06     2.64610E+06    -162.687E+06     4.10151E+06     2.66165E+06         21.8044
             954     16.7539E-03     14.9303E-03     592.945E-03     448.612E-03        -1.63401     445.123E-03        -1.63052     592.945E-03    -86.1857E-03     245.491E-03    -15.6387E-03    -229.852E-03    -65.1591E-03     80.7978E-03    -15.6387E-03     452.289E-03     195.257E+06     103.981E+06    -7.93709E+06    -7.93448E+06     195.255E+06     103.981E+06     562.992E+03         61.1299
             955     15.7738E-03     14.4888E-03     624.804E-03     501.911E-03        -1.70583     468.531E-03        -1.67245     624.804E-03    -481.155E-03     135.111E-03    -14.5125E-03    -120.599E-03    -37.5533E-03     52.0658E-03    -14.5125E-03     236.765E-03     155.151E+06     30.1019E+06    -13.6674E+06    -12.1555E+06     155.139E+06     28.6020E+06     1.01732E+06         53.7159
             956     14.7973E-03     14.4037E-03     646.357E-03     528.543E-03        -1.73604     422.417E-03        -1.62992     646.357E-03    -931.015E-03     42.5738E-03    -13.6456E-03    -28.9283E-03    -19.4363E-03     33.0819E-03    -13.6456E-03     42.9352E-03     100.632E+06    -13.3006E+06    -53.2132E+06    -13.2405E+06     100.572E+06    -53.2132E+06     1.93812E+06         44.9537
             957     13.8116E-03     14.3820E-03     665.898E-03     480.829E-03        -1.69003     382.567E-03        -1.59177     665.898E-03    -867.616E-03     30.6497E-03    -13.2356E-03    -17.4141E-03    -17.0504E-03     30.2860E-03    -13.2356E-03     7.21352E-03     56.6768E+06    -9.69628E+06    -70.6871E+06    -9.41345E+06      56.394E+06    -70.6871E+06     2.97357E+06         36.9502
             958     12.8296E-03     14.3696E-03     686.117E-03     464.655E-03        -1.67768     441.983E-03        -1.65501     686.117E-03    -272.811E-03     29.8624E-03    -13.1216E-03    -16.7409E-03    -16.7106E-03     29.8321E-03    -13.1216E-03     1.59793E-03     19.5894E+06    -6.04502E+06    -40.6042E+06    -3.52678E+06     17.0712E+06    -40.6042E+06     2.83925E+06         30.9020
             959     11.8452E-03     14.3604E-03     703.809E-03     542.804E-03        -1.75383     516.385E-03        -1.72742     703.809E-03    -317.404E-03     29.2303E-03    -12.9373E-03    -16.2931E-03    -16.2915E-03     29.2287E-03    -12.9373E-03    -260.105E-06     1.11572E+06    -15.8033E+06    -37.2187E+06     204.203E+03    -24.3262E+06    -27.7843E+06     2.73891E+06         26.9829
             960     10.8613E-03     14.3517E-03     721.699E-03     624.779E-03        -1.83022     509.051E-03        -1.71449     721.699E-03    -993.081E-03     28.7070E-03    -12.7301E-03    -15.9770E-03    -15.9701E-03     28.7001E-03    -12.7301E-03    -856.412E-06     2.46626E+06    -17.9421E+06    -55.1659E+06     2.28926E+06    -54.9889E+06    -17.9421E+06     3.14966E+06         24.7218
             961     9.87665E-03     14.3440E-03     745.602E-03     557.399E-03        -1.76308     467.526E-03        -1.67321     745.602E-03    -622.697E-03     27.9606E-03    -12.5220E-03    -15.4386E-03    -15.4190E-03     27.9410E-03    -12.5220E-03    -1.63481E-03     4.20966E+06    -6.10173E+06    -76.3640E+06     4.06807E+06    -76.2224E+06    -6.10173E+06     3.32868E+06         23.5054
             962     8.89164E-03     14.3373E-03     799.325E-03     621.269E-03        -1.86203     482.625E-03        -1.70007     776.011E-03     928.496E-03     27.1414E-03    -12.2841E-03    -14.8573E-03    -14.8279E-03     27.1120E-03    -12.2841E-03    -2.08327E-03     5.96181E+06    -1.36055E+06    -96.6145E+06     5.81736E+06    -96.4700E+06    -1.36055E+06     3.75111E+06         22.8546
             963     7.90561E-03     14.3312E-03     868.560E-03     806.823E-03        -2.10635     575.827E-03        -1.81361     806.823E-03         1.75527     26.2597E-03    -12.0340E-03    -14.2257E-03    -14.1925E-03     26.2266E-03    -12.0340E-03    -2.13518E-03     7.23385E+06     242.251E+03    -110.991E+06     7.08854E+06    -110.846E+06     242.251E+03     3.94899E+06         22.4808
             964     6.91939E-03     14.3257E-03     878.962E-03     822.882E-03        -2.12740     637.663E-03        -1.89856     835.347E-03         1.58552     25.3862E-03    -11.8103E-03    -13.5758E-03    -13.5392E-03     25.3495E-03    -11.8103E-03    -2.22377E-03     7.38155E+06     3.04637E+06    -125.158E+06     7.23839E+06    -125.015E+06     3.04637E+06     4.25766E+06         22.2386
             965     5.93207E-03     14.3208E-03     875.888E-03     740.923E-03        -2.03153     614.623E-03        -1.90004     870.696E-03         1.14505     24.5620E-03    -11.6075E-03    -12.9545E-03    -12.9203E-03     24.5278E-03    -11.6075E-03    -2.10592E-03     8.13980E+06     6.40777E+06    -135.216E+06     7.77204E+06    -135.014E+06     6.57349E+06     5.28129E+06         22.0637
             966     4.94459E-03     14.3164E-03     941.240E-03     789.497E-03        -2.12871     636.220E-03        -1.95450     920.312E-03         1.32789     23.7920E-03    -11.4143E-03    -12.3777E-03    -12.3515E-03     23.7658E-03    -11.4143E-03    -1.81725E-03     9.77811E+06     7.95741E+06    -138.806E+06     8.94293E+06    -138.584E+06     8.57076E+06     5.63303E+06         21.9298
             967     3.95636E-03     14.3125E-03         1.09013     956.414E-03        -2.41376     799.593E-03        -2.13673     969.920E-03         1.88460     23.1236E-03    -11.2412E-03    -11.8824E-03    -11.8630E-03     23.1042E-03    -11.2412E-03    -1.55685E-03     9.43858E+06     6.46653E+06    -145.126E+06     8.79363E+06    -144.929E+06     6.91417E+06     5.46538E+06         21.8263
             968     2.96766E-03     14.3099E-03         1.40331     989.663E-03        -2.72291     998.594E-03        -2.31820     989.663E-03         2.43059     22.5897E-03    -11.1055E-03    -11.4842E-03    -11.4703E-03     22.5758E-03    -11.1055E-03    -1.28472E-03     8.38388E+06     5.62927E+06    -150.037E+06     8.01237E+06    -149.887E+06     5.85040E+06     4.59862E+06         21.7485
             969     1.97854E-03     14.3076E-03         1.49168     962.946E-03        -2.75019         1.06351        -2.32202     962.946E-03     385.249E-03     22.2358E-03    -11.0051E-03    -11.2306E-03    -11.2235E-03     22.2286E-03    -11.0051E-03    -884.484E-06     9.03699E+06     5.03522E+06    -153.473E+06     5.53564E+06    -153.379E+06     8.44274E+06     3.63017E+06         21.6942
             970     989.579E-06     14.3064E-03         1.93744     303.775E-03        -2.50434         1.57169        -2.13859     303.775E-03     288.293E-03     21.8568E-03    -10.8672E-03    -10.9896E-03    -10.9695E-03     21.8545E-03    -10.8850E-03    -436.437E-06     7.35503E+06     1.04334E+06    -158.683E+06     2.77593E+06    -158.620E+06     5.56022E+06     3.09695E+06         21.6618
             971     16.7510E-03     13.8820E-03     655.813E-03     517.210E-03        -1.78854     511.026E-03        -1.78235     655.813E-03    -147.364E-03     239.919E-03    -15.4006E-03    -224.519E-03    -67.6117E-03     83.0123E-03    -15.4006E-03     439.310E-03     195.855E+06     101.705E+06    -6.55098E+06    -6.52342E+06     195.827E+06     101.705E+06     1.08526E+06         60.3210
             972     15.7863E-03     13.4512E-03     687.922E-03     575.170E-03        -1.85626     541.364E-03        -1.82245     687.922E-03    -533.352E-03     132.246E-03    -14.0428E-03    -118.203E-03    -39.9993E-03     54.0422E-03    -14.0428E-03     229.675E-03     154.430E+06     29.2181E+06    -13.8481E+06    -10.9653E+06     154.376E+06     26.3896E+06     2.76533E+06         53.0602
             973     14.8026E-03     13.3718E-03     708.802E-03     615.818E-03        -1.89561     512.626E-03        -1.79242     708.802E-03    -967.438E-03     41.0744E-03    -13.0587E-03    -28.0156E-03    -19.4253E-03     32.4840E-03    -13.0587E-03     40.2958E-03     101.632E+06    -11.5524E+06    -53.7058E+06    -11.4802E+06     101.560E+06    -53.7058E+06     2.43322E+06         44.4886
             974     13.8225E-03     13.3509E-03     725.514E-03     600.101E-03        -1.87882     499.281E-03        -1.77800     725.514E-03    -947.247E-03     30.2341E-03    -12.5896E-03    -17.6445E-03    -17.2847E-03     29.8744E-03    -12.5896E-03     6.89847E-03     57.5685E+06    -6.59767E+06    -72.6292E+06    -6.55423E+06     57.5251E+06    -72.6292E+06     1.02347E+06         36.6431
             975     12.8376E-03     13.3397E-03     742.077E-03     565.018E-03        -1.84354     539.636E-03        -1.81816     742.077E-03    -350.877E-03     29.0508E-03    -12.4234E-03    -16.6273E-03    -16.6133E-03     29.0367E-03    -12.4234E-03     917.555E-06     19.2003E+06    -3.99536E+06    -43.5759E+06    -1.60787E+06     16.8128E+06    -43.5759E+06     1.36415E+06         30.7031
             976     11.8544E-03     13.3311E-03     757.082E-03     607.612E-03        -1.87968     593.746E-03        -1.86581     757.082E-03    -262.209E-03     28.4980E-03    -12.2023E-03    -16.2957E-03    -16.2918E-03     28.4941E-03    -12.2023E-03    -721.614E-06     2.72373E+06    -14.9507E+06    -37.1865E+06     1.63855E+06    -23.2273E+06    -27.8247E+06     2.67698E+06         26.8443
             977     10.8700E-03     13.3233E-03     772.061E-03     676.538E-03        -1.93776     599.033E-03        -1.86025     772.061E-03    -817.720E-03     27.8605E-03    -11.9391E-03    -15.9215E-03    -15.9029E-03     27.8420E-03    -11.9391E-03    -1.66674E-03     4.48786E+06    -16.8047E+06    -54.6122E+06     4.36034E+06    -54.4846E+06    -16.8047E+06     2.67964E+06         24.6108
             978     9.88543E-03     13.3166E-03     790.521E-03     646.946E-03        -1.90184     583.029E-03        -1.83792     790.521E-03    -526.769E-03     26.9622E-03    -11.6708E-03    -15.2914E-03    -15.2431E-03     26.9139E-03    -11.6708E-03    -2.75637E-03     6.17010E+06    -3.81101E+06    -75.5616E+06     6.05287E+06    -75.4444E+06    -3.81101E+06     3.06603E+06         23.4029
             979     8.89982E-03     13.3110E-03     864.081E-03     702.742E-03        -2.01233     652.608E-03        -1.90789     809.776E-03     806.935E-03     25.9472E-03    -11.3699E-03    -14.5773E-03    -14.5032E-03     25.8732E-03    -11.3699E-03    -3.39234E-03     6.56027E+06     1.31202E+06    -95.8873E+06     6.45317E+06    -95.7802E+06     1.31202E+06     3.27159E+06         22.7510
             980     7.91384E-03     13.3060E-03     952.958E-03     823.872E-03        -2.21348     739.637E-03        -2.00016     823.872E-03         1.57977     24.8616E-03    -11.0564E-03    -13.8052E-03    -13.7174E-03     24.7739E-03    -11.0564E-03    -3.60446E-03     7.01604E+06     3.10433E+06    -110.598E+06     6.89822E+06    -110.480E+06     3.10433E+06     3.66431E+06         22.3720
             981     6.92662E-03     13.3015E-03     917.039E-03     835.179E-03        -2.18289     726.643E-03        -1.99439     837.067E-03         1.47245     23.7864E-03    -10.7704E-03    -13.0160E-03    -12.9205E-03     23.6909E-03    -10.7704E-03    -3.66860E-03     8.31355E+06     5.67926E+06    -124.662E+06     7.37721E+06    -124.495E+06     6.44861E+06     4.63935E+06         22.1231
             982     5.93912E-03     13.2977E-03     866.595E-03     767.944E-03        -2.05360     663.733E-03        -1.94420     861.404E-03         1.05577     22.7101E-03    -10.4885E-03    -12.2215E-03    -12.1358E-03     22.6243E-03    -10.4885E-03    -3.38822E-03     8.93556E+06     5.69267E+06    -133.397E+06     7.85117E+06    -133.248E+06     6.62774E+06     4.51239E+06         21.9413
             983     4.95041E-03     13.2941E-03     903.990E-03     789.583E-03        -2.09167     642.045E-03        -1.94413     903.990E-03         1.20536     21.6837E-03    -10.2350E-03    -11.4487E-03    -11.3830E-03     21.6180E-03    -10.2350E-03    -2.88038E-03     9.42469E+06     5.63820E+06    -138.034E+06     9.11249E+06    -137.888E+06     5.80392E+06     4.55495E+06         21.8008
             984     3.96111E-03     13.2912E-03         1.02555     930.388E-03        -2.32192     768.040E-03        -2.08724     953.223E-03         1.69790     20.8742E-03    -10.0482E-03    -10.8260E-03    -10.7769E-03     20.8251E-03    -10.0482E-03    -2.42464E-03     11.0378E+06     8.36929E+06    -143.787E+06     10.7943E+06    -143.544E+06     8.36929E+06     6.03592E+06         21.6917
             985     2.97129E-03     13.2889E-03         1.35183     968.280E-03        -2.64941         1.01638        -2.31397     968.280E-03         2.20381     20.2710E-03    -9.89175E-03    -10.3793E-03    -10.3453E-03     20.2371E-03    -9.89175E-03    -1.98321E-03     10.9179E+06     9.45732E+06    -146.643E+06     10.4404E+06    -146.387E+06     9.67845E+06     6.29941E+06         21.6094
             986     1.98128E-03     13.2873E-03         1.37822     930.833E-03        -2.60500         1.04852        -2.27530     930.833E-03     469.157E-03     19.7698E-03    -9.76714E-03    -10.0027E-03    -9.98427E-03     19.7514E-03    -9.76714E-03    -1.40400E-03     10.5876E+06     9.23185E+06    -150.394E+06     9.19753E+06    -150.236E+06     10.4643E+06     4.86639E+06         21.5517
             987     990.608E-06     13.2862E-03         1.61206     451.073E-03        -2.33399         1.35184        -2.07377     451.073E-03     238.713E-03     19.4110E-03    -9.65297E-03    -9.75807E-03    -9.73302E-03     19.4037E-03    -9.67069E-03    -854.194E-06     10.9329E+06     8.01681E+06    -152.233E+06     8.51302E+06    -152.155E+06     10.3586E+06     1.79498E+06         21.5172
             988     16.7601E-03     12.8230E-03     719.558E-03     515.461E-03        -1.85092     509.272E-03        -1.84473     719.558E-03    -170.211E-03     235.537E-03    -15.1612E-03    -220.375E-03    -70.2828E-03     85.4440E-03    -15.1612E-03     428.469E-03     194.339E+06     98.8011E+06    -7.48368E+06    -7.45820E+06     194.314E+06     98.8011E+06     650.195E+03         59.4245
             989     15.7902E-03     12.4155E-03     753.947E-03     579.625E-03        -1.92706     550.300E-03        -1.89774     753.947E-03    -512.659E-03     126.792E-03    -13.6008E-03    -113.192E-03    -40.8478E-03     54.4486E-03    -13.6008E-03     217.911E-03     154.120E+06     28.3383E+06    -14.4677E+06    -10.1595E+06     154.075E+06     24.0752E+06     2.12669E+06         52.3296
             990     14.8132E-03     12.3392E-03     782.157E-03     689.876E-03        -2.04640     605.020E-03        -1.95439     775.005E-03    -957.205E-03     39.9579E-03    -12.5469E-03    -27.4109E-03    -19.4638E-03     32.0107E-03    -12.5469E-03     38.4524E-03     103.800E+06    -8.41778E+06    -49.0415E+06    -8.37827E+06     103.760E+06    -49.0415E+06     1.79023E+06         43.9647
             991     13.8286E-03     12.3203E-03     794.171E-03     748.473E-03        -2.10260     663.824E-03        -2.01080     787.018E-03    -969.944E-03     29.8735E-03    -12.0538E-03    -17.8197E-03    -17.4626E-03     29.5164E-03    -12.0538E-03     6.65579E-03     58.5907E+06    -6.07730E+06    -65.1134E+06    -6.01303E+06     58.5265E+06    -65.1134E+06     1.43679E+06         36.2957
             992     12.8467E-03     12.3105E-03     795.818E-03     720.965E-03        -2.06153     698.010E-03        -2.03858     795.818E-03    -357.585E-03     28.5573E-03    -11.8193E-03    -16.7380E-03    -16.7259E-03     28.5452E-03    -11.8193E-03     966.554E-06     17.4140E+06    -5.06942E+06    -40.0480E+06    -4.41522E+06     16.7598E+06    -40.0480E+06     1.48339E+06         30.4814
             993     11.8622E-03     12.3025E-03     803.410E-03     726.952E-03        -2.05330     720.043E-03        -2.04639     803.410E-03    -198.737E-03     27.9090E-03    -11.5299E-03    -16.3790E-03    -16.3720E-03     27.9019E-03    -11.5299E-03    -548.054E-06     94.3167E+03    -13.2828E+06    -36.0455E+06    -1.15041E+06    -22.4976E+06    -25.5860E+06     1.12541E+06         26.6967
             994     10.8785E-03     12.2955E-03     811.981E-03     749.445E-03        -2.05715     704.869E-03        -2.01258     811.981E-03    -646.290E-03     27.2140E-03    -11.2002E-03    -16.0138E-03    -15.9853E-03     27.1856E-03    -11.2002E-03    -2.05825E-03     3.05493E+06    -13.5330E+06    -54.1143E+06     3.00331E+06    -54.0627E+06    -13.5330E+06     1.22221E+06         24.4993
             995     9.89371E-03     12.2902E-03     824.591E-03     710.227E-03        -2.00532     672.207E-03        -1.96730     824.591E-03    -408.565E-03     26.1571E-03    -10.8522E-03    -15.3049E-03    -15.2301E-03     26.0823E-03    -10.8522E-03    -3.43824E-03     5.60400E+06    -576.182E+03    -75.7331E+06     5.52978E+06    -75.6589E+06    -576.182E+03     2.31843E+06         23.3047
             996     8.90841E-03     12.2859E-03     873.630E-03     755.195E-03        -2.08100     703.395E-03        -1.99542     839.848E-03     750.964E-03     24.9288E-03    -10.4688E-03    -14.4601E-03    -14.3385E-03     24.8073E-03    -10.4688E-03    -4.33170E-03     7.21344E+06     5.16566E+06    -94.3615E+06     6.88854E+06    -94.2730E+06     5.40206E+06     2.90319E+06         22.6543
             997     7.92175E-03     12.2823E-03     937.403E-03     852.089E-03        -2.23345     764.726E-03        -2.06169     853.001E-03         1.43431     23.5529E-03    -10.0736E-03    -13.4793E-03    -13.3291E-03     23.4027E-03    -10.0736E-03    -4.67065E-03     8.18582E+06      6.3447E+06    -110.390E+06     7.86845E+06    -110.309E+06     6.58110E+06     3.06816E+06         22.2713
             998     6.93449E-03     12.2791E-03     922.889E-03     862.879E-03        -2.22518     778.337E-03        -2.08251     864.767E-03         1.29954     22.1817E-03    -9.70953E-03    -12.4722E-03    -12.3107E-03     22.0202E-03    -9.70953E-03    -4.68860E-03     10.3839E+06     8.04403E+06    -124.097E+06     9.50871E+06    -123.991E+06     8.81338E+06     3.49452E+06         22.0164
             999     5.94572E-03     12.2766E-03     888.952E-03     821.581E-03        -2.13618     756.101E-03        -2.06320     881.450E-03     879.665E-03     20.8597E-03    -9.37282E-03    -11.4869E-03    -11.3346E-03     20.7074E-03    -9.37282E-03    -4.37786E-03     13.0686E+06     8.86015E+06    -131.646E+06     11.4599E+06    -131.546E+06     10.3679E+06     3.51043E+06         21.8279
            1000     4.95636E-03     12.2742E-03     922.880E-03     839.186E-03        -2.16425     760.741E-03        -2.06942     906.495E-03     985.052E-03     19.6404E-03    -9.07947E-03    -10.5609E-03    -10.4363E-03     19.5158E-03    -9.07947E-03    -3.81275E-03     13.4041E+06     9.11406E+06    -137.981E+06     12.0280E+06    -137.860E+06     10.3685E+06     4.18343E+06         21.6813
            1001     3.96601E-03     12.2723E-03     984.261E-03     929.410E-03        -2.27854     797.240E-03        -2.10085     938.739E-03         1.46902     18.6362E-03    -8.84763E-03    -9.78858E-03    -9.70004E-03     18.5477E-03    -8.84763E-03    -3.11911E-03     13.1660E+06     10.8535E+06    -143.384E+06     12.4504E+06    -143.184E+06     11.3696E+06     5.41266E+06         21.5667
            1002     2.97516E-03     12.2704E-03         1.17694     970.776E-03        -2.47583     884.487E-03        -2.18338     970.776E-03         1.96590     17.8764E-03    -8.66314E-03    -9.21329E-03    -9.15749E-03     17.8206E-03    -8.66314E-03    -2.42200E-03     14.8923E+06     13.2094E+06    -143.283E+06     14.6940E+06    -143.084E+06     13.2094E+06     5.39277E+06         21.4799
            1003     1.98366E-03     12.2696E-03         1.24416     984.350E-03        -2.52650     987.645E-03        -2.26998     984.350E-03     523.867E-03     17.3512E-03    -8.53401E-03    -8.81719E-03    -8.78613E-03     17.3201E-03    -8.53401E-03    -1.74922E-03     18.1349E+06     16.1595E+06    -144.788E+06     16.8821E+06    -144.657E+06     17.2814E+06      4.3795E+06         21.4191
            1004     991.945E-06     12.2689E-03         1.46293     643.357E-03        -2.38036         1.32385        -2.24128     643.357E-03     105.544E-03     16.9488E-03    -8.40679E-03    -8.54198E-03    -8.52838E-03     16.9352E-03    -8.40679E-03    -1.12402E-03     18.5095E+06     16.5943E+06    -146.739E+06     17.3085E+06    -146.659E+06     17.7162E+06     1.84713E+06         21.3826
            1005     16.7582E-03     11.7569E-03     778.606E-03     472.934E-03        -1.84999     469.452E-03        -1.84651     778.606E-03    -114.427E-03     232.083E-03    -14.9906E-03    -217.093E-03    -72.9465E-03     87.9371E-03    -14.9906E-03     419.316E-03     194.577E+06     102.087E+06    -7.92405E+06    -7.92356E+06     194.577E+06     102.087E+06    -280.661E+03         58.4420
            1006     15.8006E-03     11.3780E-03     813.819E-03     574.429E-03        -1.97127     553.209E-03        -1.95005     813.819E-03    -432.928E-03     119.470E-03    -13.2459E-03    -106.224E-03    -40.8713E-03     54.1172E-03    -13.2459E-03     202.752E-03     153.599E+06     28.7452E+06    -15.6594E+06    -11.3998E+06     153.596E+06     24.4889E+06     274.617E+03         51.5234
            1007     14.8174E-03     11.3088E-03     841.151E-03     744.869E-03        -2.16032     682.103E-03        -2.09041     833.999E-03    -864.748E-03     39.4008E-03    -12.1350E-03    -27.2658E-03    -19.5014E-03     31.6364E-03    -12.1350E-03     37.6268E-03     102.956E+06    -10.9778E+06    -43.9687E+06    -10.9399E+06     102.918E+06    -43.9687E+06     1.68234E+06         43.3814
            1008     13.8368E-03     11.2891E-03     849.949E-03     840.406E-03        -2.25654     778.947E-03        -2.18793     842.797E-03    -872.682E-03     29.5665E-03    -11.6214E-03    -17.9451E-03    -17.6055E-03     29.2269E-03    -11.6214E-03     6.52068E-03     59.2631E+06    -8.10802E+06    -56.2485E+06    -7.98116E+06     59.1362E+06    -56.2485E+06     2.67564E+06         35.9067
            1009     12.8527E-03     11.2822E-03     846.519E-03     838.541E-03        -2.23793     821.915E-03        -2.22130     846.519E-03    -330.658E-03     28.2350E-03    -11.3206E-03    -16.9145E-03    -16.8990E-03     28.2195E-03    -11.3206E-03     1.52834E-03     19.2916E+06    -4.27629E+06    -33.5226E+06    -4.06496E+06     19.0803E+06    -33.5226E+06     1.18755E+06         30.2358
            1010     11.8697E-03     11.2740E-03     852.525E-03     835.435E-03        -2.21932     832.216E-03        -2.21205     848.476E-03    -223.820E-03     27.7016E-03    -10.9635E-03    -16.7381E-03    -16.7294E-03     27.6929E-03    -10.9635E-03     87.1283E-06     466.238E+03    -10.0053E+06    -32.4733E+06    -1.05595E+06    -21.1107E+06    -19.8457E+06    -810.528E+03         26.5396
            1011     10.8858E-03     11.2686E-03     878.722E-03     834.820E-03        -2.21843     821.478E-03        -2.17709     850.726E-03    -664.250E-03     26.8031E-03    -10.5485E-03    -16.2546E-03    -16.2198E-03     26.7683E-03    -10.5485E-03    -2.16366E-03     1.32205E+06    -9.74965E+06    -54.3695E+06     1.28978E+06    -54.3372E+06    -9.74965E+06    -782.787E+03         24.3882
            1012     9.90144E-03     11.2644E-03     879.563E-03     797.392E-03        -2.15592     787.023E-03        -2.12160     855.617E-03    -426.290E-03     25.5191E-03    -10.1089E-03    -15.4101E-03    -15.3175E-03     25.4264E-03    -10.1089E-03    -3.81918E-03     4.26347E+06     1.65351E+06    -76.3166E+06     4.22160E+06    -76.2747E+06     1.65351E+06    -214.680E+03         23.2130
            1013     8.91589E-03     11.2618E-03     867.310E-03     802.681E-03        -2.13074     719.146E-03        -2.04720     867.310E-03     719.153E-03     24.0494E-03    -9.64431E-03    -14.4051E-03    -14.2493E-03     23.8936E-03    -9.64431E-03    -4.84375E-03     9.23125E+06     7.46838E+06    -94.2240E+06     7.81473E+06    -94.1834E+06     8.84433E+06     509.384E+03         22.5681
            1014     7.92949E-03     11.2598E-03     896.675E-03     858.507E-03        -2.20833     700.715E-03        -2.04103     887.168E-03         1.39436     22.4205E-03    -9.18185E-03    -13.2386E-03    -13.0357E-03     22.2176E-03    -9.18185E-03    -5.34462E-03     13.6854E+06     10.7622E+06    -109.430E+06     11.1780E+06    -109.393E+06     13.2325E+06     905.049E+03         22.1844
            1015     6.94127E-03     11.2585E-03     927.304E-03     894.233E-03        -2.26951     782.147E-03        -2.13789     907.775E-03         1.25165     20.7336E-03    -8.74901E-03    -11.9846E-03    -11.7661E-03     20.5151E-03    -8.74901E-03    -5.31390E-03     16.9193E+06     13.0762E+06    -122.862E+06     14.1309E+06    -122.832E+06     15.8343E+06     721.299E+03         21.9260
            1016     5.95237E-03     11.2572E-03     950.804E-03     899.521E-03        -2.28487     865.456E-03        -2.22143     921.425E-03     862.276E-03     19.1918E-03    -8.37097E-03    -10.8208E-03    -10.6142E-03     18.9852E-03    -8.37097E-03    -4.95291E-03     20.2011E+06     15.6634E+06    -132.456E+06     16.2592E+06    -132.420E+06     19.5690E+06     1.86064E+06         21.7333
            1017     4.96195E-03     11.2565E-03     989.672E-03     908.065E-03        -2.30649     891.391E-03        -2.23012     929.969E-03     941.385E-03     17.7991E-03    -8.03492E-03    -9.76422E-03    -9.59292E-03     17.6278E-03    -8.03492E-03    -4.31998E-03     21.1500E+06     17.5317E+06    -137.907E+06     17.4349E+06    -137.810E+06     21.1500E+06     3.67822E+06         21.5822
            1018     3.97078E-03     11.2554E-03         1.02222     944.761E-03        -2.33609     857.363E-03        -2.17123     944.761E-03         1.43637     16.5592E-03    -7.74933E-03    -8.80989E-03    -8.68926E-03     16.4386E-03    -7.74933E-03    -3.46416E-03     20.3272E+06     17.9477E+06    -140.889E+06     18.5807E+06    -140.787E+06     19.5917E+06     3.81385E+06         21.4636
            1019     2.97854E-03     11.2548E-03         1.08542     983.735E-03        -2.39677     815.380E-03        -2.12673     983.735E-03         1.84949     15.6452E-03    -7.54476E-03    -8.10043E-03    -8.03047E-03     15.5752E-03    -7.54476E-03    -2.53913E-03     21.0972E+06     19.1352E+06    -140.901E+06     20.5349E+06    -140.835E+06     19.6315E+06     3.10216E+06         21.3736
            1020     1.98599E-03     11.2539E-03         1.14514         1.00774        -2.44923     895.229E-03        -2.24221         1.05063     508.752E-03     15.1179E-03    -7.41684E-03    -7.70106E-03    -7.66487E-03     15.0817E-03    -7.41684E-03    -1.79483E-03     24.9729E+06     22.1475E+06    -141.152E+06     22.8389E+06    -141.113E+06     24.2427E+06     2.17054E+06         21.3104
            1021     993.338E-06     11.2540E-03         1.43840     817.221E-03        -2.52600         1.31886        -2.44936     860.114E-03     8.89057E-03     14.7146E-03    -7.28591E-03    -7.42871E-03    -7.38065E-03     14.6986E-03    -7.31791E-03    -1.13761E-03     26.1465E+06     24.0310E+06    -142.111E+06     24.2226E+06    -142.083E+06     25.9275E+06     1.10715E+06         21.2725
            1022     16.7632E-03     10.6738E-03     829.205E-03     470.127E-03        -1.87218     465.991E-03        -1.86805     829.205E-03    -79.3968E-03     225.841E-03    -14.7773E-03    -211.064E-03    -73.9589E-03     88.7362E-03    -14.7773E-03     405.431E-03     195.407E+06      107.54E+06    -7.58400E+06     -7.5833E+06     195.406E+06      107.54E+06    -116.199E+03         57.3824
            1023     15.8022E-03     10.3473E-03     861.767E-03     630.280E-03        -2.06482     612.411E-03        -2.04695     861.767E-03    -417.805E-03     109.950E-03    -12.9341E-03    -97.0155E-03    -38.7271E-03     51.6612E-03    -12.9341E-03     184.177E-03     153.494E+06     29.6816E+06    -15.6745E+06    -11.8668E+06     153.491E+06     25.8767E+06    -273.171E+03         50.6424
            1024     14.8236E-03     10.2736E-03     878.652E-03     805.288E-03        -2.26064     753.895E-03        -2.20925     878.652E-03    -768.250E-03     38.6387E-03    -11.7963E-03    -26.8425E-03    -19.4878E-03     31.2840E-03    -11.7963E-03     36.5497E-03     101.028E+06    -10.6826E+06    -44.2303E+06    -10.6620E+06     101.007E+06    -44.2303E+06     402.821E+03         42.7303
            1025     13.8411E-03     10.2613E-03     886.693E-03     852.038E-03        -2.31291     804.769E-03        -2.26565     886.693E-03    -730.504E-03     29.3308E-03    -11.2554E-03    -18.0754E-03    -17.7222E-03     28.9776E-03    -11.2554E-03     6.87840E-03     60.3325E+06    -5.21489E+06    -55.3064E+06    -5.15104E+06     60.2687E+06    -55.3064E+06     1.26980E+06         35.4688
            1026     12.8582E-03     10.2525E-03     892.690E-03     831.436E-03        -2.28623     821.084E-03        -2.27588     892.690E-03    -270.662E-03     28.2692E-03    -10.9252E-03    -17.3439E-03    -17.3135E-03     28.2387E-03    -10.9252E-03     2.30748E-03     22.7292E+06    -1.61345E+06    -28.9085E+06    -856.694E+03     21.9724E+06    -28.9085E+06     320.437E+03         29.9608
            1027     11.8750E-03     10.2464E-03     910.277E-03     865.002E-03        -2.31699     869.699E-03        -2.30825     896.837E-03    -257.815E-03     27.6134E-03    -10.5163E-03    -17.0971E-03    -17.0824E-03     27.5988E-03    -10.5163E-03     725.082E-06     1.56360E+06    -7.01356E+06    -27.9671E+06     519.918E+03    -19.9771E+06    -13.9598E+06    -1.24964E+06         26.3689
            1028     10.8920E-03     10.2413E-03     964.489E-03     897.108E-03        -2.37765     920.870E-03        -2.33403     897.108E-03    -719.842E-03     26.6095E-03    -10.0268E-03    -16.5827E-03    -16.5489E-03     26.5757E-03    -10.0268E-03    -1.98183E-03     2.69513E+06    -5.72280E+06    -53.5911E+06     1.53151E+06    -53.4880E+06    -4.66234E+06    -2.26584E+06         24.2749
            1029     9.90780E-03     10.2397E-03     950.311E-03     873.051E-03        -2.31494     891.970E-03        -2.27992     896.370E-03    -463.356E-03     25.0328E-03    -9.50972E-03    -15.5231E-03    -15.4271E-03     24.9368E-03    -9.50972E-03    -3.87463E-03     6.58983E+06     3.31124E+06    -75.8827E+06     3.67248E+06    -75.7098E+06     6.05562E+06    -3.41738E+06         23.1276
            1030     8.92235E-03     10.2383E-03     921.727E-03     864.148E-03        -2.25858     810.449E-03        -2.18483     901.675E-03     688.155E-03     23.2767E-03    -8.97279E-03    -14.3039E-03    -14.1376E-03     23.1104E-03    -8.97279E-03    -4.93979E-03     12.3330E+06     7.88812E+06    -94.7047E+06     7.65528E+06    -94.4396E+06     12.3007E+06    -4.20719E+06         22.4950
            1031     7.93543E-03     10.2386E-03     941.557E-03     889.347E-03        -2.29366     750.383E-03        -2.13024     917.097E-03         1.40617     21.4304E-03    -8.46125E-03    -12.9692E-03    -12.7467E-03     21.2080E-03    -8.46125E-03    -5.50393E-03     19.1236E+06     12.5343E+06    -109.830E+06     12.3368E+06    -109.632E+06     19.1236E+06    -3.62028E+06         22.1161
            1032     6.94743E-03     10.2391E-03     945.391E-03     912.847E-03        -2.31501     783.946E-03        -2.17918     938.463E-03         1.27754     19.5284E-03    -7.98117E-03    -11.5473E-03    -11.3103E-03     19.2915E-03    -7.98117E-03    -5.40461E-03     22.7856E+06     15.3291E+06    -122.920E+06     15.2746E+06    -122.865E+06     22.7856E+06    -2.32357E+06         21.8595
            1033     5.95734E-03     10.2399E-03     995.252E-03     940.226E-03        -2.37900     918.030E-03        -2.31385     952.301E-03     901.809E-03     17.7551E-03    -7.55442E-03    -10.2006E-03    -9.98499E-03     17.5394E-03    -7.55442E-03    -4.89040E-03     24.5597E+06     17.1435E+06    -134.295E+06     17.0993E+06    -134.251E+06     24.5597E+06    -996.988E+03         21.6670
            1034     4.96657E-03     10.2402E-03         1.04979     954.215E-03        -2.42317     963.493E-03        -2.33687     954.215E-03         1.03207     16.2177E-03    -7.18928E-03    -9.02838E-03    -8.85607E-03     16.0453E-03    -7.18928E-03    -4.15169E-03     27.1652E+06     19.7746E+06    -138.227E+06     19.7339E+06    -138.186E+06     27.1652E+06     317.463E+03         21.5155
            1035     3.97440E-03     10.2410E-03         1.05903     964.275E-03        -2.40269     876.235E-03        -2.21990     964.275E-03         1.53188     14.9282E-03    -6.88839E-03    -8.03984E-03    -7.91802E-03     14.8064E-03    -6.88839E-03    -3.32286E-03     29.4441E+06     22.9603E+06    -138.428E+06     22.9308E+06    -138.399E+06     29.4441E+06     553.219E+03         21.3961
            1036     2.98150E-03     10.2409E-03         1.09024         1.00079        -2.42475     847.567E-03        -2.18208         1.00079         1.77944     13.8949E-03    -6.66162E-03    -7.23333E-03    -7.16317E-03     13.8248E-03    -6.66162E-03    -2.39747E-03     29.6516E+06     25.1527E+06    -139.172E+06     25.1329E+06    -139.152E+06     29.6516E+06     451.151E+03         21.3053
            1037     1.98793E-03     10.2408E-03         1.11652         1.02061        -2.42733     905.159E-03        -2.26204         1.06668     414.391E-03     13.2163E-03    -6.50696E-03    -6.70938E-03    -6.65072E-03     13.1838E-03    -6.53311E-03    -1.57977E-03     29.6193E+06     26.5298E+06    -140.043E+06     26.5054E+06    -140.019E+06     29.6193E+06    -475.389E+03         21.2414
            1038     993.786E-06     10.2409E-03         1.33180     934.600E-03        -2.52506         1.23340        -2.47274     980.671E-03    -177.113E-03     12.9843E-03    -6.41915E-03    -6.56519E-03    -6.49401E-03     12.9713E-03    -6.47730E-03    -958.410E-06     29.5120E+06     27.4708E+06    -140.913E+06     27.4483E+06    -140.890E+06     29.5120E+06    -1.29253E+06         21.2028
            1039     16.7750E-03     9.61723E-03     870.183E-03     523.615E-03        -1.94687     518.061E-03        -1.94131     870.183E-03    -95.7718E-03     219.672E-03    -14.5668E-03    -205.106E-03    -74.3093E-03     88.8761E-03    -14.5668E-03     392.173E-03     195.959E+06     113.003E+06    -6.87944E+06    -6.86928E+06     195.949E+06     113.003E+06     222.479E+03         56.2239
            1040     15.8075E-03     9.30476E-03     897.309E-03     704.443E-03        -2.17584     687.372E-03        -2.15877     897.309E-03    -432.830E-03     102.234E-03    -12.6876E-03    -89.5461E-03    -36.0717E-03     48.7593E-03    -12.6876E-03     169.896E-03     153.751E+06     30.2479E+06    -14.9242E+06    -11.4897E+06     153.741E+06     26.8236E+06     513.452E+03         49.6610
            1041     14.8274E-03     9.24770E-03     911.237E-03     828.991E-03        -2.32876     786.217E-03        -2.28599     911.237E-03    -714.277E-03     37.9834E-03    -11.5664E-03    -26.4170E-03    -19.4955E-03     31.0619E-03    -11.5664E-03     35.8830E-03     101.543E+06    -13.1756E+06    -45.8676E+06    -13.1619E+06     101.529E+06    -45.8676E+06    -631.314E+03         41.9912
            1042     13.8434E-03     9.22823E-03     920.458E-03     832.750E-03        -2.33981     796.495E-03        -2.30356     920.458E-03    -627.963E-03     29.5980E-03    -10.9998E-03    -18.5982E-03    -18.1410E-03     29.1408E-03    -10.9998E-03     7.23264E-03     61.2253E+06    -9.62202E+06    -56.4426E+06    -9.41300E+06     61.0163E+06    -56.4426E+06    -2.13473E+06         34.9689
            1043     12.8624E-03     9.22538E-03     930.079E-03     806.167E-03        -2.31029     799.596E-03        -2.30372     930.079E-03    -145.797E-03     28.3161E-03    -10.6473E-03    -17.6688E-03    -17.6244E-03     28.2717E-03    -10.6473E-03     2.39026E-03     23.3890E+06    -4.82855E+06    -25.2390E+06    -4.01418E+06     22.5747E+06    -25.2390E+06    -1.75607E+06         29.6471
            1044     11.8791E-03     9.21739E-03     947.523E-03     865.000E-03        -2.36621     868.093E-03        -2.35992     938.132E-03    -141.252E-03     27.5065E-03    -10.2096E-03    -17.2969E-03    -17.2590E-03     27.4686E-03    -10.2096E-03     1.47601E-03      2.5204E+06    -3.35197E+06    -23.7235E+06    -148.170E+03    -18.1974E+06    -6.20957E+06    -1.92500E+06         26.1777
            1045     10.8962E-03     9.21513E-03     980.834E-03     925.333E-03        -2.43644     934.636E-03        -2.40636     941.449E-03    -587.177E-03     26.3474E-03    -9.67829E-03    -16.6691E-03    -16.6369E-03     26.3152E-03    -9.67829E-03    -1.91183E-03     6.59341E+06     117.150E+03    -51.8934E+06     2.44957E+06    -51.4602E+06     3.82785E+06    -4.53241E+06         24.1550
            1046     9.91211E-03     9.21456E-03     972.304E-03     926.598E-03        -2.40662     931.633E-03        -2.38166     942.309E-03    -355.722E-03     24.5571E-03    -9.11828E-03    -15.4388E-03    -15.3548E-03     24.4731E-03    -9.11828E-03    -3.61337E-03     14.0499E+06     6.19507E+06    -74.2342E+06     5.47581E+06    -73.5149E+06     14.0499E+06    -7.19473E+06         23.0469
            1047     8.92670E-03     9.21611E-03     984.359E-03     931.777E-03        -2.40439     908.398E-03        -2.34146     944.806E-03     694.282E-03     22.5868E-03    -8.54632E-03    -14.0405E-03    -13.9028E-03     22.4491E-03    -8.54632E-03    -4.42179E-03     18.6673E+06     10.0894E+06    -94.6609E+06     9.12691E+06    -93.6983E+06     18.6673E+06    -9.66415E+06         22.4361
            1048     7.93965E-03     9.21808E-03         1.02291     950.673E-03        -2.44825     887.237E-03        -2.31258     950.673E-03         1.33724     20.5922E-03    -8.01583E-03    -12.5763E-03    -12.3956E-03     20.4114E-03    -8.01583E-03    -4.85068E-03     24.4141E+06     13.9202E+06    -112.789E+06     13.1350E+06    -112.004E+06     24.4141E+06    -9.30952E+06         22.0708
            1049     6.95075E-03     9.22113E-03     997.037E-03     948.416E-03        -2.41010     876.651E-03        -2.30179     960.491E-03         1.16223     18.6476E-03    -7.53108E-03    -11.1166E-03    -10.9314E-03     18.4625E-03    -7.53108E-03    -4.65064E-03     30.1294E+06     17.3085E+06    -125.820E+06     16.9270E+06    -125.439E+06     30.1294E+06    -6.54748E+06         21.8237
            1050     5.96094E-03     9.22354E-03     997.776E-03     923.132E-03        -2.37377     895.196E-03        -2.32089     972.839E-03     813.161E-03     16.8207E-03    -7.09576E-03    -9.72495E-03    -9.56420E-03     16.6600E-03    -7.09576E-03    -4.07529E-03     33.5099E+06     19.6757E+06    -135.537E+06     19.5011E+06    -135.363E+06     33.5099E+06    -4.90396E+06         21.6386
            1051     4.96912E-03     9.22592E-03         1.03826     947.110E-03        -2.41768     918.095E-03        -2.33641     985.999E-03     996.104E-03     15.2251E-03    -6.71589E-03    -8.50926E-03    -8.38793E-03     15.1038E-03    -6.71589E-03    -3.33391E-03     35.3837E+06     21.5702E+06    -138.777E+06     21.3931E+06    -138.600E+06     35.3837E+06    -4.64652E+06         21.4927
            1052     3.97669E-03     9.22733E-03         1.07512         1.00364        -2.47431     907.084E-03        -2.30753         1.00490         1.48552     13.9464E-03    -6.38937E-03    -7.55704E-03    -7.47489E-03     13.8643E-03    -6.38937E-03    -2.60260E-03     35.4616E+06     23.3499E+06    -138.920E+06     23.1932E+06    -138.763E+06     35.4616E+06    -4.21573E+06         21.3774
            1053     2.98341E-03     9.22877E-03         1.12379         1.03477        -2.50361     928.233E-03        -2.30805         1.03477         1.62853     12.8635E-03    -6.12620E-03    -6.73726E-03    -6.68971E-03     12.8159E-03    -6.12620E-03    -1.87010E-03     33.6692E+06     25.2762E+06    -139.522E+06     25.1529E+06    -139.399E+06     33.6692E+06    -3.72292E+06         21.2892
            1054     1.98907E-03     9.22929E-03         1.14411         1.06178        -2.49395         1.01501        -2.36803         1.06496     312.634E-03     12.0864E-03    -5.93343E-03    -6.15295E-03    -6.10553E-03     12.0651E-03    -5.95958E-03    -1.19275E-03     30.9390E+06     26.3483E+06    -140.223E+06     26.2624E+06    -140.137E+06     30.9390E+06    -3.03966E+06         21.2267
            1055     994.570E-06     9.22961E-03         1.24022     951.158E-03        -2.43076         1.20054        -2.39427     954.336E-03    -422.969E-03     11.7818E-03    -5.81134E-03    -5.97044E-03    -5.90040E-03     11.7748E-03    -5.87443E-03    -613.278E-06     26.3393E+06     24.2061E+06    -143.695E+06     24.2376E+06    -143.669E+06     26.2821E+06      -1.787E+06         21.1887
            1056     16.7685E-03     8.53970E-03     897.977E-03     562.858E-03        -2.01747     558.456E-03        -2.01307     897.977E-03    -93.8687E-03     213.533E-03    -14.5938E-03    -198.940E-03    -74.1859E-03     88.7797E-03    -14.5938E-03     378.688E-03     195.300E+06     115.946E+06    -8.26810E+06    -8.25561E+06     195.288E+06     115.946E+06    -178.472E+03         54.8890
            1057     15.8085E-03     8.27554E-03     919.887E-03     714.443E-03        -2.22824     701.329E-03        -2.21512     919.887E-03    -381.869E-03     95.2368E-03    -12.6461E-03    -82.5908E-03    -36.4238E-03     49.0698E-03    -12.6461E-03     154.023E-03     154.314E+06     34.1250E+06    -15.6321E+06    -13.7886E+06     154.296E+06     32.2995E+06     966.044E+03         48.5200
            1058     14.8257E-03     8.21253E-03     933.944E-03     791.371E-03        -2.33538     759.363E-03        -2.30338     933.944E-03    -610.892E-03     38.2583E-03    -11.4257E-03    -26.8326E-03    -20.2939E-03     31.7195E-03    -11.4257E-03     33.5489E-03     106.075E+06    -12.2902E+06    -44.5244E+06    -15.4964E+06     106.001E+06    -41.2441E+06    -884.261E+03         41.1391
            1059     13.8483E-03     8.19964E-03     945.402E-03     821.343E-03        -2.37297     795.849E-03        -2.34747     945.402E-03    -502.793E-03     29.3051E-03    -10.8079E-03    -18.4971E-03    -18.2180E-03     29.0259E-03    -10.8079E-03     5.36676E-03     62.0504E+06    -13.8918E+06    -55.3811E+06    -13.5835E+06     61.7420E+06    -55.3811E+06    -3.97966E+06         34.3903
            1060     12.8639E-03     8.19577E-03     956.573E-03     862.995E-03        -2.40957     860.514E-03        -2.40493     954.418E-03    -17.3105E-03     27.8190E-03    -10.4496E-03    -17.3694E-03    -17.3049E-03     27.7545E-03    -10.4496E-03     2.92167E-03     23.4227E+06    -10.8118E+06    -25.7514E+06    -9.85548E+06     21.9023E+06    -25.1873E+06    -5.10743E+06         29.2826
            1061     11.8820E-03     8.19007E-03     962.938E-03     896.231E-03        -2.42757     895.310E-03        -2.42449     960.782E-03     67.9036E-03     27.2460E-03    -10.0167E-03    -17.2293E-03    -17.1758E-03     27.1925E-03    -10.0167E-03     2.00849E-03     5.73378E+06    -4.17504E+06    -23.9039E+06    -3.94966E+06    -15.0753E+06    -3.32013E+06    -6.48040E+06         25.9578
            1062     10.8986E-03     8.18818E-03     967.839E-03     884.868E-03        -2.39967     872.188E-03        -2.38699     967.839E-03    -309.003E-03     25.6516E-03    -9.50290E-03    -16.1487E-03    -16.1268E-03     25.6296E-03    -9.50290E-03    -1.45823E-03     9.78770E+06     4.17407E+06    -50.8983E+06     2.51213E+06    -48.8630E+06     9.41436E+06    -9.69507E+06         24.0243
            1063     9.91417E-03     8.19101E-03     977.885E-03     875.664E-03        -2.38000     862.102E-03        -2.36644     977.885E-03    -155.102E-03     23.8093E-03    -8.98222E-03    -14.8270E-03    -14.7777E-03     23.7599E-03    -8.98222E-03    -2.64806E-03     21.0943E+06     10.1272E+06    -73.4726E+06     7.99224E+06    -71.3376E+06     21.0943E+06    -12.6481E+06         22.9696
            1064     8.92794E-03     8.19380E-03         1.00867     925.326E-03        -2.44055     887.181E-03        -2.38291     989.168E-03     726.460E-03     21.9041E-03    -8.45962E-03    -13.4445E-03    -13.3730E-03     21.8326E-03    -8.45962E-03    -3.01803E-03     26.3277E+06     13.2158E+06    -94.9084E+06     11.2345E+06    -92.9272E+06     26.3277E+06    -14.3412E+06         22.3929
            1065     7.94041E-03     8.19891E-03         1.06577     988.736E-03        -2.54360     952.118E-03        -2.43863     997.422E-03         1.20767     20.0275E-03    -7.97363E-03    -12.0539E-03    -11.9673E-03     19.9410E-03    -7.97363E-03    -3.13285E-03     30.6684E+06     15.6819E+06    -116.654E+06     13.8750E+06    -114.848E+06     30.6684E+06    -15.0393E+06         22.0521
            1066     6.95152E-03     8.20329E-03         1.05407         1.00001        -2.52828     982.081E-03        -2.45764         1.00136     972.514E-03     18.2667E-03    -7.53404E-03    -10.7326E-03    -10.6524E-03     18.1864E-03    -7.53404E-03    -2.77290E-03     36.8358E+06     18.3665E+06    -131.764E+06     17.1940E+06    -130.592E+06     36.8358E+06    -12.5698E+06         21.8246
            1067     5.96086E-03     8.20813E-03         1.01691     914.738E-03        -2.39346     885.803E-03        -2.36066         1.01305     643.507E-03     16.6569E-03    -7.11759E-03    -9.53928E-03    -9.47537E-03     16.5930E-03    -7.11759E-03    -2.32533E-03     40.5969E+06     20.3157E+06    -137.736E+06     19.6581E+06    -137.078E+06     40.5969E+06    -9.68061E+06         21.6558
            1068     4.96959E-03     8.21170E-03         1.04476     884.464E-03        -2.37670     830.501E-03        -2.32274         1.04476     787.206E-03     15.1495E-03    -6.72526E-03    -8.42424E-03    -8.37976E-03     15.1050E-03    -6.72526E-03    -1.79975E-03     39.3877E+06     20.9292E+06    -139.987E+06     20.3981E+06    -139.456E+06     39.3877E+06    -9.01157E+06         21.5232
            1069     3.97687E-03     8.21476E-03         1.11872         1.02136        -2.55475     934.045E-03        -2.43340         1.08469         1.28386     13.8310E-03    -6.37726E-03    -7.45372E-03    -7.42584E-03     13.8031E-03    -6.37726E-03    -1.30213E-03     34.1069E+06     21.0877E+06    -141.858E+06     20.5817E+06    -141.352E+06     34.1069E+06    -8.82712E+06         21.4179
            1070     2.98334E-03     8.21687E-03         1.21450         1.10766        -2.68281         1.08123        -2.54954         1.10766         1.39086     12.8389E-03    -6.09459E-03    -6.74431E-03    -6.72921E-03     12.8238E-03    -6.09459E-03    -875.527E-06     29.7840E+06     21.5119E+06    -142.596E+06     21.1342E+06    -142.218E+06     29.7840E+06    -7.57049E+06         21.3365
            1071     1.98950E-03     8.21862E-03         1.22737         1.09835        -2.61792         1.15257        -2.54313         1.09835     249.984E-03     12.0723E-03    -5.87516E-03    -6.19719E-03    -6.19061E-03     12.0658E-03    -5.87516E-03    -480.101E-06     27.4383E+06     20.3972E+06    -143.731E+06     20.2390E+06    -143.573E+06     27.4383E+06    -4.62662E+06         21.2779
            1072     994.952E-06     8.21883E-03         1.24233     948.438E-03        -2.41941         1.22102        -2.39810     948.438E-03    -458.259E-03     11.4903E-03    -5.67710E-03    -5.81324E-03    -5.75314E-03     11.4880E-03    -5.73486E-03    -83.1470E-06     21.4838E+06     17.5771E+06    -147.253E+06     17.8402E+06    -147.223E+06     21.1898E+06    -1.64954E+06         21.2416
            1073     16.7636E-03     7.45601E-03     907.306E-03     559.526E-03        -2.05478     557.732E-03        -2.05299     907.306E-03    -19.3833E-03     204.516E-03    -14.6152E-03    -189.901E-03    -74.4336E-03     89.0488E-03    -14.6152E-03     358.246E-03     194.400E+06     116.688E+06     -9.4258E+06    -9.32108E+06     194.295E+06     116.688E+06    -1.27647E+06         53.3329
            1074     15.8074E-03     7.24006E-03     925.536E-03     657.591E-03        -2.21203     652.141E-03        -2.20658     925.536E-03    -201.224E-03     84.2605E-03    -12.5807E-03    -71.6798E-03    -36.4130E-03     48.9937E-03    -12.5807E-03     128.706E-03     156.617E+06     39.0901E+06    -13.9950E+06    -13.9028E+06     156.524E+06     39.0901E+06    -1.81713E+06         47.1865
            1075     14.8337E-03     7.17745E-03     941.385E-03     720.930E-03        -2.30338     706.336E-03        -2.28879     941.385E-03    -384.477E-03     36.8537E-03    -11.2655E-03    -25.5882E-03    -20.1898E-03     31.4553E-03    -11.2655E-03     29.7528E-03     108.370E+06    -7.33074E+06    -44.4247E+06    -13.3351E+06     108.269E+06    -38.3189E+06     354.572E+03         40.1408
            1076     13.8490E-03     7.17217E-03     955.352E-03     790.921E-03        -2.37909     779.550E-03        -2.36771     955.352E-03    -310.127E-03     28.0537E-03    -10.6561E-03    -17.3976E-03    -17.2577E-03     27.9138E-03    -10.6561E-03     4.62734E-03     64.7153E+06    -12.3047E+06    -56.3885E+06    -12.1495E+06     64.5602E+06    -56.3885E+06    -1.44150E+06         33.7088
            1077     12.8660E-03     7.16752E-03     967.064E-03     879.962E-03        -2.45923     878.522E-03        -2.45564     964.908E-03     72.3379E-03     27.2021E-03    -10.3480E-03    -16.8541E-03    -16.7212E-03     27.0691E-03    -10.3480E-03     4.47828E-03     29.1129E+06    -13.7192E+06    -27.8234E+06    -11.8904E+06     26.2756E+06    -26.8149E+06    -7.10861E+06         28.8529
            1078     11.8826E-03     7.16180E-03     972.440E-03     921.385E-03        -2.48126     920.574E-03        -2.47830     970.284E-03     172.276E-03     26.2737E-03    -9.96372E-03    -16.3100E-03    -16.2044E-03     26.1681E-03    -9.96372E-03     3.01863E-03     9.05713E+06    -8.66715E+06    -28.1228E+06    -8.23786E+06    -11.6975E+06    -7.79742E+06    -13.7347E+06         25.7030
            1079     10.8985E-03     7.16376E-03     978.918E-03     838.271E-03        -2.38265     833.340E-03        -2.37772     978.918E-03    -134.966E-03     24.4333E-03    -9.55694E-03    -14.8763E-03    -14.8654E-03     24.4224E-03    -9.55694E-03     75.3008E-06     9.13780E+06     2.26292E+06    -53.0919E+06    -1.55141E+06    -46.4878E+06     6.34803E+06    -17.0602E+06         23.8810
            1080     9.91230E-03     7.16720E-03     999.274E-03     730.159E-03        -2.27620     721.697E-03        -2.26774     999.274E-03    -22.4814E-03     22.7661E-03    -9.17363E-03    -13.5925E-03    -13.5712E-03     22.7449E-03    -9.17363E-03    -87.8423E-06     19.2045E+06     9.03658E+06    -76.0700E+06     4.25964E+06    -71.2931E+06     19.2045E+06    -19.0760E+06         22.8967
            1081     8.92544E-03     7.17316E-03         1.02751     815.784E-03        -2.36983     764.736E-03        -2.31878         1.02751     708.358E-03     21.3684E-03    -8.79570E-03    -12.5727E-03    -12.5466E-03     21.3423E-03    -8.79570E-03    -202.797E-06     27.6033E+06     13.5624E+06    -96.9123E+06     9.42907E+06    -92.7790E+06     27.6033E+06    -20.3469E+06         22.3679
            1082     7.93706E-03     7.17920E-03         1.07082     983.267E-03        -2.55902     914.659E-03        -2.46984         1.05025         1.11108     19.9815E-03    -8.43740E-03    -11.5441E-03    -11.5161E-03     19.9535E-03    -8.43740E-03    -115.110E-06     33.2094E+06     16.0174E+06    -121.354E+06     12.9560E+06    -118.292E+06     33.2094E+06    -19.9560E+06         22.0637
            1083     6.94763E-03     7.18623E-03         1.08526         1.01698        -2.58873     975.532E-03        -2.52671         1.06468     925.609E-03     18.7514E-03    -8.08731E-03    -10.6641E-03    -10.6379E-03     18.7252E-03    -8.08731E-03     234.524E-06     37.7067E+06     15.9535E+06    -138.056E+06     13.8369E+06    -135.939E+06     37.7067E+06    -17.7326E+06         21.8666
            1084     5.95765E-03     7.19171E-03         1.08483     943.099E-03        -2.50084     913.743E-03        -2.47149         1.08483     621.575E-03     17.5295E-03    -7.70946E-03    -9.82001E-03    -9.79699E-03     17.5064E-03    -7.70946E-03     335.564E-06     37.9488E+06     16.3361E+06    -142.398E+06     14.8152E+06    -140.878E+06     37.9488E+06    -15.1881E+06         21.7237
            1085     4.96645E-03     7.19730E-03         1.12703     879.330E-03        -2.46727     842.506E-03        -2.43045         1.12703     672.439E-03     16.2351E-03    -7.33453E-03    -8.90061E-03    -8.88443E-03     16.2190E-03    -7.33453E-03     355.976E-06     34.8090E+06     17.2619E+06    -143.652E+06     16.1438E+06    -142.534E+06     34.8090E+06    -13.1365E+06         21.6124
            1086     3.97447E-03     7.20142E-03         1.19644         1.02041        -2.65024     949.295E-03        -2.56708         1.18440         1.07824     15.0254E-03    -6.99569E-03    -8.02967E-03    -8.01710E-03     15.0128E-03    -6.99569E-03     474.233E-06     28.4768E+06     16.9217E+06    -146.203E+06     15.9938E+06    -145.275E+06     28.4768E+06    -12.1647E+06         21.5235
            1087     2.98159E-03     7.20479E-03         1.32383         1.18949        -2.89188         1.20551        -2.79906         1.21499         1.21805     14.0676E-03    -6.71964E-03    -7.34800E-03    -7.33848E-03     14.0581E-03    -6.71964E-03     495.436E-06     23.6332E+06     15.8253E+06    -147.936E+06     15.2011E+06    -147.312E+06     23.6332E+06    -9.80898E+06         21.4535
            1088     1.98815E-03     7.20664E-03         1.34585         1.18835        -2.83528         1.30016        -2.78958         1.18835     320.961E-03     13.3293E-03    -6.49958E-03    -6.82973E-03    -6.82461E-03     13.3242E-03    -6.49958E-03     445.191E-06     21.0858E+06     14.1168E+06    -149.286E+06     13.8517E+06    -149.021E+06     21.0858E+06    -6.36329E+06         21.4020
            1089     994.276E-06     7.20857E-03         1.29125         1.03847        -2.56366         1.28199        -2.55439         1.03847    -326.914E-03     12.7351E-03    -6.28327E-03    -6.45180E-03    -6.42771E-03     12.7318E-03    -6.30410E-03     446.364E-06     15.7934E+06     11.3673E+06    -152.388E+06     11.5196E+06    -152.303E+06     15.5566E+06    -2.55556E+06         21.3694
            1090     16.7751E-03     6.38577E-03     897.245E-03     564.685E-03        -2.10010     564.034E-03        -2.09945     897.245E-03     66.8932E-03     198.136E-03    -14.5167E-03    -183.619E-03    -76.1310E-03     90.6477E-03    -14.5167E-03     342.559E-03     195.441E+06     113.057E+06    -6.91755E+06    -6.74445E+06     195.268E+06     113.057E+06    -248.893E+03         51.4914
            1091     15.8149E-03     6.19704E-03     910.945E-03     630.784E-03        -2.21186     629.487E-03        -2.21056     910.945E-03     34.9017E-03     75.4426E-03    -12.4579E-03    -62.9847E-03    -34.3596E-03     46.8175E-03    -12.4579E-03     110.708E-03     155.675E+06     37.1271E+06    -13.9261E+06    -13.7762E+06     155.525E+06     37.1271E+06     310.105E+03         45.6023
            1092     14.8318E-03     6.15089E-03     927.290E-03     647.598E-03        -2.25424     644.338E-03        -2.25098     927.290E-03    -105.931E-03     34.9170E-03    -11.2150E-03    -23.7020E-03    -18.9546E-03     30.1696E-03    -11.2150E-03     28.1265E-03     106.877E+06    -12.8863E+06    -47.5128E+06    -19.4729E+06     106.790E+06    -40.8397E+06     2.65734E+06         38.9471
            1093     13.8488E-03     6.14224E-03     945.690E-03     682.672E-03        -2.29506     680.113E-03        -2.29250     945.690E-03    -113.732E-03     27.1405E-03    -10.6600E-03    -16.4804E-03    -16.2070E-03     26.8671E-03    -10.6600E-03     6.60657E-03     70.6587E+06    -18.9057E+06    -61.3971E+06    -18.7513E+06     70.5043E+06    -61.3971E+06     313.109E+03         32.8985
            1094     12.8653E-03     6.14088E-03     963.066E-03     757.392E-03        -2.36077     754.177E-03        -2.35756     963.066E-03     128.803E-03     26.3497E-03    -10.4229E-03    -15.9268E-03    -15.6044E-03     26.0274E-03    -10.4229E-03     6.90892E-03     40.1425E+06    -17.1637E+06    -32.8194E+06    -13.9842E+06     36.5185E+06    -32.3749E+06    -9.48900E+06         28.3499
            1095     11.8801E-03     6.13531E-03     977.088E-03     834.695E-03        -2.42287     831.381E-03        -2.41955     977.088E-03     177.730E-03     24.7050E-03    -10.1800E-03    -14.5250E-03    -14.2685E-03     24.4485E-03    -10.1800E-03     5.37972E-03     14.6407E+06    -13.8030E+06    -32.2355E+06    -9.44605E+06    -7.47560E+06    -14.4762E+06    -19.0478E+06         25.4142
            1096     10.8938E-03     6.14035E-03     992.095E-03     796.368E-03        -2.37535     793.332E-03        -2.37231     992.095E-03    -93.7793E-03     22.9547E-03    -9.97268E-03    -12.9820E-03    -12.8575E-03     22.8302E-03    -9.97268E-03     3.29271E-03     6.96943E+06    -4.25416E+06    -57.1461E+06    -5.95877E+06    -45.7130E+06    -2.75911E+06    -23.2938E+06         23.7299
            1097     9.90586E-03     6.14547E-03         1.01871     669.710E-03        -2.25522     663.719E-03        -2.24923         1.01871     837.259E-06     22.0456E-03    -9.80371E-03    -12.2419E-03    -12.0594E-03     21.8631E-03    -9.80371E-03     4.21817E-03     12.0665E+06     4.70921E+06    -79.8356E+06    -1.14109E+06    -70.9394E+06     9.02050E+06    -26.0214E+06         22.8342
            1098     8.91736E-03     6.15189E-03         1.05800     705.719E-03        -2.30956     666.024E-03        -2.26986         1.05800     610.106E-03     21.4118E-03    -9.64587E-03    -11.7659E-03    -11.5977E-03     21.2435E-03    -9.64587E-03     4.04488E-03     20.3744E+06     9.46566E+06    -102.959E+06     3.71449E+06    -95.8438E+06     19.0105E+06    -27.0548E+06         22.3667
            1099     7.92858E-03     6.16015E-03         1.09716     894.909E-03        -2.51461     813.921E-03        -2.43363         1.09716         1.03719     20.9458E-03    -9.48453E-03    -11.4613E-03    -11.2867E-03     20.7712E-03    -9.48453E-03     4.14971E-03     27.9936E+06     11.6666E+06    -127.947E+06     6.91650E+06    -123.197E+06     27.9936E+06    -24.8175E+06         22.1098
            1100     6.93942E-03     6.16720E-03         1.12905     994.155E-03        -2.62359     924.844E-03        -2.55428         1.12905     980.404E-03     20.4388E-03    -9.26121E-03    -11.1776E-03    -11.0135E-03     20.2747E-03    -9.26121E-03     4.09322E-03     31.7532E+06     11.9836E+06    -144.184E+06     8.71474E+06    -140.916E+06     31.7532E+06    -22.1075E+06         21.9525
            1101     5.94985E-03     6.17439E-03         1.16137     982.912E-03        -2.63049     942.814E-03        -2.59039         1.16137     749.080E-03     19.6437E-03    -8.97048E-03    -10.6732E-03    -10.5416E-03     19.5121E-03    -8.97048E-03     3.66803E-03     29.9017E+06     12.0048E+06    -148.859E+06     9.51997E+06    -146.374E+06     29.9017E+06    -19.7163E+06         21.8439
            1102     4.95983E-03     6.18074E-03         1.20668     969.801E-03        -2.64960     930.813E-03        -2.61061         1.20668     739.998E-03     18.7339E-03    -8.65616E-03    -10.0777E-03    -9.97527E-03     18.6314E-03    -8.65616E-03     3.15327E-03     25.6871E+06     11.9051E+06    -149.958E+06     9.98498E+06    -148.038E+06     25.6871E+06    -17.3671E+06         21.7613
            1103     3.96897E-03     6.18641E-03         1.26585         1.07161        -2.78503         1.00966        -2.72309         1.26585     964.212E-03     17.7532E-03    -8.35405E-03    -9.39917E-03    -9.32969E-03     17.6837E-03    -8.35405E-03     2.58727E-03     21.2802E+06     11.2399E+06    -151.529E+06     9.94169E+06    -150.231E+06     21.2802E+06    -14.2995E+06         21.6951
            1104     2.97755E-03     6.19032E-03         1.36165         1.24737        -3.00283         1.22034        -2.92713         1.31298         1.12934     16.7702E-03    -8.09631E-03    -8.67391E-03    -8.62661E-03     16.7229E-03    -8.09631E-03     2.09644E-03     15.4614E+06     8.80302E+06    -154.717E+06     8.04598E+06    -153.960E+06     15.4614E+06    -10.9755E+06         21.6421
            1105     1.98528E-03     6.19358E-03         1.40371         1.31575        -3.03687         1.36366        -2.99737         1.31630     481.018E-03     16.0804E-03    -7.90992E-03    -8.17050E-03    -8.14216E-03     16.0521E-03    -7.90992E-03     1.56010E-03     11.4245E+06     7.21235E+06    -156.519E+06     6.83248E+06    -156.140E+06     11.4245E+06    -7.63335E+06         21.6020
            1106     992.813E-06     6.19493E-03         1.41143         1.19966        -2.85962         1.40870        -2.85689         1.19966    -175.536E-03     15.6431E-03    -7.72293E-03    -7.92018E-03    -7.84062E-03     15.6319E-03    -7.79129E-03     945.604E-06     8.75791E+06     5.55410E+06    -158.131E+06     6.02622E+06    -157.994E+06     8.14888E+06    -4.16949E+06         21.5760
            1107     16.7665E-03     5.30577E-03     872.268E-03     583.582E-03        -2.14927     582.647E-03        -2.14834     872.268E-03     90.0775E-03     190.592E-03    -14.5908E-03    -176.001E-03    -77.2246E-03     91.8154E-03    -14.5908E-03     323.353E-03     194.579E+06     105.887E+06    -5.32350E+06    -5.16360E+06     194.419E+06     105.887E+06     3.59124E+06         49.2757
            1108     15.8070E-03     5.16094E-03     881.430E-03     640.410E-03        -2.24112     638.687E-03        -2.23939     881.430E-03     140.388E-03     67.1188E-03    -12.5338E-03    -54.5850E-03    -33.1113E-03     45.6451E-03    -12.5338E-03     91.1776E-03     152.277E+06     34.4032E+06    -17.3798E+06    -17.0581E+06     151.955E+06     34.4032E+06     6.27060E+06         43.7167
            1109     14.8303E-03     5.11977E-03     897.194E-03     590.436E-03        -2.20992     589.467E-03        -2.20895     897.194E-03     50.8436E-03     33.1291E-03    -11.4054E-03    -21.7237E-03    -17.9622E-03     29.3675E-03    -11.4054E-03     24.0869E-03     110.340E+06    -13.7601E+06    -43.0188E+06    -25.7401E+06     110.037E+06    -30.7357E+06     5.51223E+06         37.5504
            1110     13.8456E-03     5.11672E-03     920.993E-03     527.344E-03        -2.15305     526.920E-03        -2.15263     920.993E-03     13.4772E-03     25.8080E-03    -10.8835E-03    -14.9245E-03    -14.4841E-03     25.3676E-03    -10.8835E-03     7.95590E-03     82.3848E+06    -23.4045E+06    -62.3903E+06    -22.3834E+06     81.3637E+06    -62.3903E+06    -3.94755E+06         31.9684
            1111     12.8593E-03     5.11291E-03     949.979E-03     563.476E-03        -2.18621     558.595E-03        -2.18133     949.979E-03     190.269E-03     24.6511E-03    -10.7433E-03    -13.9078E-03    -13.2091E-03     23.9525E-03    -10.7433E-03     9.98958E-03     50.0119E+06    -19.1472E+06    -48.9644E+06    -14.4274E+06     45.2921E+06    -48.9644E+06    -14.3982E+06         27.7896
            1112     11.8731E-03     5.11253E-03     979.351E-03     640.109E-03        -2.25810     634.202E-03        -2.25219     979.351E-03     235.012E-03     23.0271E-03    -10.4380E-03    -12.5891E-03    -11.6872E-03     22.4499E-03    -10.7627E-03     8.49995E-03     17.5987E+06    -21.4546E+06    -39.3114E+06    -10.9166E+06    -2.98922E+06    -29.2616E+06    -20.4924E+06         25.1095
            1113     10.8829E-03     5.11850E-03         1.00880     678.943E-03        -2.29725     676.435E-03        -2.29474         1.00880     10.5170E-03     22.0749E-03    -10.4290E-03    -11.6459E-03    -10.6255E-03     21.4586E-03    -10.8331E-03     8.24729E-03     7.75046E+06    -18.3684E+06    -58.8852E+06    -8.23740E+06    -42.8974E+06    -18.3684E+06    -27.5389E+06         23.5891
            1114     9.89359E-03     5.12385E-03         1.04234     675.429E-03        -2.30373     671.816E-03        -2.30011         1.04234     53.0015E-03     22.3981E-03    -10.7616E-03    -11.6364E-03    -10.7623E-03     21.6965E-03    -10.9342E-03     9.23492E-03     8.66408E+06    -7.32722E+06    -84.5963E+06    -4.05947E+06    -71.8728E+06    -7.32722E+06    -31.6178E+06         22.7978
            1115     8.90406E-03     5.13127E-03         1.08494     680.376E-03        -2.32852     648.795E-03        -2.29694         1.08494     538.081E-03     22.5550E-03    -10.9063E-03    -11.6487E-03    -10.9374E-03     21.9763E-03    -11.0389E-03     8.57717E-03     10.8580E+06     2.04606E+06    -109.818E+06    -1.57506E+06    -100.696E+06     5.35698E+06    -30.9665E+06         22.4016
            1116     7.91478E-03     5.13893E-03         1.13529     780.571E-03        -2.45504     713.808E-03        -2.38828         1.13529     916.573E-03     23.0230E-03    -11.0588E-03    -11.9642E-03    -11.3515E-03     22.4497E-03    -11.0982E-03     8.67585E-03     15.3096E+06     5.99043E+06    -135.703E+06    -317.122E+03    -129.268E+06     15.1818E+06    -29.2904E+06         22.1992
            1117     6.92639E-03     5.14647E-03         1.18389     928.764E-03        -2.62960     867.722E-03        -2.56855         1.18389     911.306E-03     23.2330E-03    -11.0450E-03    -12.1881E-03    -11.7121E-03     22.7570E-03    -11.0450E-03     8.02955E-03     18.1251E+06     6.92322E+06    -152.314E+06     2.01445E+06    -147.406E+06     18.1251E+06    -27.2991E+06         22.0878
            1118     5.93787E-03     5.15422E-03         1.22790         1.00393        -2.73100     965.539E-03        -2.69261         1.22790     743.086E-03     22.9898E-03    -10.9031E-03    -12.0867E-03    -11.7103E-03     22.6134E-03    -10.9031E-03     7.12429E-03     17.9017E+06     8.52528E+06    -156.913E+06     4.91406E+06    -153.302E+06     17.9017E+06    -23.9563E+06         22.0193
            1119     4.94906E-03     5.16122E-03         1.27407         1.05815        -2.81748         1.02623        -2.78557         1.27407     689.888E-03     22.5755E-03    -10.7099E-03    -11.8656E-03    -11.5866E-03     22.2965E-03    -10.7099E-03     6.09224E-03     15.8462E+06     7.85540E+06    -157.395E+06     5.38731E+06    -154.927E+06     15.8462E+06    -19.9454E+06         21.9714
            1120     3.96048E-03     5.16743E-03         1.32691         1.14634        -2.92898         1.09897        -2.88160         1.32691     857.692E-03     21.9217E-03    -10.4884E-03    -11.4333E-03    -11.2513E-03     21.7397E-03    -10.4884E-03     4.84434E-03     12.7126E+06     5.29394E+06    -159.042E+06     3.82866E+06    -157.577E+06     12.7126E+06    -15.1831E+06         21.9339
            1121     2.97085E-03     5.17299E-03         1.38738         1.25058        -3.04361         1.19337        -2.98640         1.38738     976.279E-03     21.1171E-03    -10.2697E-03    -10.8474E-03    -10.7378E-03     21.0076E-03    -10.2697E-03     3.68864E-03     7.65288E+06     2.64781E+06    -161.498E+06     1.85879E+06    -160.709E+06     7.65288E+06    -11.3029E+06         21.9033
            1122     1.98088E-03     5.17621E-03         1.44772         1.37151        -3.15375         1.34965        -3.12681         1.44265     499.714E-03     20.4181E-03    -10.0822E-03    -10.3360E-03    -10.2304E-03     20.3567E-03    -10.1262E-03     2.71166E-03     3.28698E+06    -137.784E+03    -163.948E+06    -561.799E+03    -163.524E+06     3.28698E+06    -8.01155E+06         21.8794
            1123     990.458E-06     5.17857E-03         1.55720         1.37501        -3.20299         1.53913        -3.20195         1.39205    -69.1635E-03     20.1602E-03    -9.97902E-03    -10.1812E-03    -10.0411E-03     20.1326E-03    -10.0914E-03     1.71748E-03     859.176E+03    -1.97229E+06    -165.621E+06    -1.51609E+06    -165.469E+06     250.146E+03    -4.90401E+06         21.8635
            1124     16.7663E-03     4.22626E-03     839.194E-03     572.175E-03        -2.16991     571.510E-03        -2.16925     839.194E-03     47.6363E-03     178.164E-03    -14.7825E-03    -163.382E-03    -77.6640E-03     92.4465E-03    -14.7825E-03     292.863E-03     190.583E+06     100.599E+06    -8.77201E+06    -7.89761E+06     189.709E+06     100.599E+06     8.38473E+06         46.7337
            1125     15.8098E-03     4.12334E-03     848.452E-03     579.274E-03        -2.20443     578.226E-03        -2.20338     848.452E-03     89.2952E-03     57.7090E-03    -12.7526E-03    -44.9564E-03    -31.6186E-03     44.3711E-03    -12.7526E-03     68.1206E-03     152.849E+06     44.0763E+06    -20.5492E+06    -19.3820E+06     151.682E+06     44.0763E+06     12.3597E+06         41.6141
            1126     14.8266E-03     4.09041E-03     866.157E-03     542.929E-03        -2.17648     542.392E-03        -2.17594     866.157E-03     27.0376E-03     30.0290E-03    -10.8487E-03    -19.1803E-03    -15.6930E-03     27.4431E-03    -11.7501E-03     18.8427E-03     122.126E+06    -963.752E+03    -32.2941E+06    -20.2535E+06     121.245E+06    -12.1237E+06     2.23903E+06         36.0308
            1127     13.8399E-03     4.09273E-03     891.796E-03     469.291E-03        -2.10311     468.469E-03        -2.10228     891.796E-03     53.7985E-03     23.7431E-03    -10.4695E-03    -13.2736E-03    -10.8527E-03     22.2236E-03    -11.3709E-03     11.1977E-03     92.5386E+06    -15.7028E+06    -61.1957E+06    -14.2566E+06     91.0923E+06    -61.1957E+06    -8.52034E+06         30.9891
            1128     12.8501E-03     4.08907E-03     926.742E-03     421.976E-03        -2.05556     411.142E-03        -2.04472     926.742E-03     278.638E-03     23.5134E-03    -10.7361E-03    -12.7773E-03    -10.1968E-03     21.6255E-03    -11.4287E-03     14.5976E-03     53.4777E+06    -17.7453E+06    -71.0411E+06    -14.0159E+06     49.7483E+06    -71.0411E+06    -13.4024E+06         27.2302
            1129     11.8585E-03     4.09086E-03     968.741E-03     453.808E-03        -2.08923     439.737E-03        -2.07516     968.741E-03     357.064E-03     22.0833E-03    -10.0634E-03    -12.0199E-03    -9.12827E-03     20.8751E-03    -11.7468E-03     11.7289E-03     22.1724E+06    -29.3555E+06    -54.1176E+06    -13.3195E+06     4.03916E+06    -52.0203E+06    -21.2691E+06         24.8384
            1130     10.8674E-03     4.09860E-03         1.01333     526.157E-03        -2.17063     521.582E-03        -2.16605         1.01333     169.205E-03     22.7940E-03    -10.6897E-03    -12.1043E-03    -9.21537E-03     21.3197E-03    -12.1043E-03     13.3446E-03     10.3819E+06    -36.7603E+06    -62.4743E+06    -9.24760E+06    -39.1429E+06    -40.4622E+06    -29.9382E+06         23.5001
            1131     9.87615E-03     4.10102E-03         1.05961     588.312E-03        -2.25052     583.246E-03        -2.24546         1.05961     185.427E-03     23.7198E-03    -11.2638E-03    -12.4560E-03    -10.0869E-03     22.5428E-03    -12.4560E-03     12.5345E-03     6.84647E+06    -30.7192E+06    -89.0587E+06    -7.10627E+06    -75.1059E+06    -30.7192E+06    -33.3535E+06         22.8214
            1132     8.88678E-03     4.10972E-03         1.11131     638.178E-03        -2.32680     609.713E-03        -2.29833         1.11131     534.668E-03     24.5740E-03    -11.7690E-03    -12.8050E-03    -10.7424E-03     23.5474E-03    -12.8050E-03     11.9999E-03     5.27519E+06    -16.0581E+06    -115.921E+06    -4.66268E+06    -105.983E+06    -16.0581E+06    -32.8243E+06         22.5000
            1133     7.89760E-03     4.11538E-03         1.17185     693.273E-03        -2.41903     647.648E-03        -2.37341         1.17185     742.199E-03     25.7819E-03    -12.5257E-03    -13.2562E-03    -11.7569E-03     24.8601E-03    -13.1033E-03     11.7123E-03     7.10945E+06    -3.48398E+06    -142.138E+06    -1.50368E+06    -134.733E+06    -2.27586E+06    -32.1023E+06         22.3539
            1134     6.90962E-03     4.12282E-03         1.23797     802.634E-03        -2.57304     767.610E-03        -2.53801         1.23797     663.204E-03     26.4926E-03    -12.8637E-03    -13.6289E-03    -12.4875E-03     25.7709E-03    -13.2833E-03     10.5941E-03     8.20153E+06     542.441E+03    -160.120E+06    -557.615E+03    -154.200E+06     3.38115E+06    -30.6404E+06         22.2900
            1135     5.92224E-03     4.13025E-03         1.29938     980.161E-03        -2.79327     960.662E-03        -2.77377         1.29938     498.724E-03     27.0323E-03    -13.2306E-03    -13.8018E-03    -13.0984E-03     26.4509E-03    -13.3525E-03     9.62858E-03     5.84264E+06     1.26858E+06    -166.309E+06    -852.072E+03    -162.010E+06     3.66473E+06    -26.5017E+06         22.2638
            1136     4.93567E-03     4.13722E-03         1.35129         1.12289        -2.96746         1.10893        -2.95350         1.35129     448.417E-03     27.1824E-03    -13.3282E-03    -13.8542E-03    -13.4198E-03     26.7602E-03    -13.3404E-03     8.24890E-03     3.52280E+06     484.957E+03    -167.028E+06    -1.16633E+06    -164.423E+06     2.56910E+06    -20.5329E+06         22.2538
            1137     3.94853E-03     4.14408E-03         1.40411         1.19825        -3.06481         1.17069        -3.03726         1.40411     653.218E-03     27.1023E-03    -13.2729E-03    -13.8295E-03    -13.5489E-03     26.8218E-03    -13.2729E-03     6.70116E-03     1.77132E+06    -1.57110E+06    -167.591E+06    -2.62176E+06    -166.182E+06     1.41370E+06    -15.0619E+06         22.2492
            1138     2.96218E-03     4.14964E-03         1.47234         1.26715        -3.15163         1.23459        -3.11907         1.47234     734.217E-03     26.7965E-03    -13.1516E-03    -13.6449E-03    -13.4858E-03     26.6374E-03    -13.1516E-03     4.99666E-03    -990.270E+03    -3.86335E+06    -168.677E+06    -4.60403E+06    -167.937E+06    -990.270E+03    -10.8087E+06         22.2456
            1139     1.97502E-03     4.15446E-03         1.55387         1.39772        -3.30187         1.38430        -3.28845         1.55387     309.271E-03     26.2903E-03    -12.9788E-03    -13.3115E-03    -13.1883E-03     26.2111E-03    -13.0229E-03     3.47238E-03    -3.77092E+06    -7.00719E+06    -170.824E+06    -7.36834E+06    -170.463E+06    -3.77092E+06    -7.50345E+06         22.2419
            1140     987.214E-06     4.15630E-03         1.70577         1.48747        -3.48790         1.65023        -3.48653         1.54165    -105.858E-03     25.9207E-03    -12.8352E-03    -13.0855E-03    -12.9573E-03     25.8861E-03    -12.9288E-03     2.23505E-03    -7.89416E+06    -10.6871E+06    -174.132E+06    -10.4077E+06    -173.968E+06    -8.33782E+06    -5.05417E+06         22.2388
            1141     16.7658E-03     3.15548E-03     805.401E-03     523.729E-03        -2.16853     522.530E-03        -2.16733     805.401E-03     964.120E-06     164.992E-03    -15.0692E-03    -149.923E-03    -78.5033E-03     93.5725E-03    -15.0692E-03     259.343E-03     185.973E+06     96.9734E+06    -13.1763E+06    -11.9922E+06     184.789E+06     96.9734E+06     11.2679E+06         44.0887
            1142     15.7997E-03     3.08264E-03     818.685E-03     478.664E-03        -2.13035     478.035E-03        -2.12972     818.685E-03     43.9737E-03     49.8396E-03    -12.5269E-03    -37.3126E-03    -28.4403E-03     41.5231E-03    -13.0827E-03     47.4894E-03     158.829E+06     55.8697E+06    -14.0321E+06    -12.6725E+06     157.469E+06     55.8697E+06     5.98849E+06         39.5243
            1143     14.8223E-03     3.06415E-03     840.171E-03     491.003E-03        -2.13873     490.957E-03        -2.13868     840.171E-03    -11.6820E-03     26.2196E-03    -10.8361E-03    -15.3835E-03    -10.5897E-03     22.9018E-03    -12.3122E-03     16.1470E-03     130.772E+06     14.0832E+06    -26.8188E+06    -3.30243E+06     129.303E+06    -7.96454E+06    -2.13295E+06         34.5749
            1144     13.8252E-03     3.07751E-03     865.884E-03     473.196E-03        -2.11505     471.388E-03        -2.11324     865.884E-03     90.6972E-03     24.1839E-03    -11.3216E-03    -12.8624E-03    -8.07916E-03     20.3211E-03    -12.2419E-03     19.0790E-03     95.0934E+06    -9.26812E+06    -65.3878E+06    -8.29550E+06     94.1208E+06    -65.3878E+06    -1.03082E+06         30.1060
            1145     12.8325E-03     3.06099E-03     900.563E-03     380.991E-03        -2.01777     368.272E-03        -2.00505     900.563E-03     312.966E-03     23.1458E-03    -10.0098E-03    -13.1360E-03    -8.43515E-03     20.9507E-03    -12.5155E-03     15.7739E-03     61.8825E+06    -14.6939E+06    -80.9499E+06    -11.8473E+06     59.0359E+06    -80.9499E+06    -8.97769E+06         26.7881
            1146     11.8415E-03     3.07650E-03     947.465E-03     335.356E-03        -1.97487     320.476E-03        -1.95999     947.465E-03     353.748E-03     22.3779E-03    -9.39096E-03    -12.9870E-03    -7.75453E-03     20.7415E-03    -12.9870E-03     13.7322E-03     28.7234E+06    -26.2495E+06    -76.9802E+06    -8.37578E+06     10.8496E+06    -76.9802E+06    -21.0812E+06         24.6939
            1147     10.8474E-03     3.07215E-03         1.00296     369.155E-03        -2.02170     364.696E-03        -2.01724         1.00296     172.174E-03     24.3286E-03    -10.7805E-03    -13.5481E-03    -9.08868E-03     22.6368E-03    -13.5481E-03     14.7340E-03     10.5394E+06    -47.5157E+06     -73.652E+06    -6.84564E+06    -36.8773E+06    -66.9054E+06    -27.4637E+06         23.5374
            1148     9.85907E-03     3.08054E-03         1.06481     421.589E-03        -2.10082     414.353E-03        -2.09358         1.06481     225.072E-03     25.1299E-03    -11.0343E-03    -14.0955E-03    -9.84299E-03     23.9385E-03    -14.0955E-03     12.8823E-03     5.75708E+06    -56.3099E+06    -90.1867E+06    -6.38012E+06    -77.2064E+06    -57.1529E+06    -31.1317E+06         22.9676
            1149     8.86740E-03     3.08416E-03         1.13426     498.858E-03        -2.22078     474.177E-03        -2.19610         1.13426     503.522E-03     26.8184E-03    -12.1845E-03    -14.6339E-03    -11.0626E-03     25.6966E-03    -14.6339E-03     12.9493E-03     4.63215E+06    -45.9425E+06    -120.694E+06    -4.73593E+06    -111.326E+06    -45.9425E+06    -32.6691E+06         22.7163
            1150     7.87998E-03     3.08968E-03         1.21135     597.571E-03        -2.37447     566.520E-03        -2.34342         1.21135     600.695E-03     28.2811E-03    -13.1263E-03    -15.1547E-03    -12.2372E-03     27.3920E-03    -15.1547E-03     11.9233E-03     3.78851E+06    -29.6568E+06    -146.939E+06    -3.47724E+06    -139.673E+06    -29.6568E+06    -32.0470E+06         22.6222
            1151     6.89210E-03     3.09606E-03         1.29414     715.848E-03        -2.55572     698.881E-03        -2.53875         1.29414     431.338E-03     29.5745E-03    -13.9667E-03    -15.6079E-03    -13.2488E-03     28.8567E-03    -15.6079E-03     11.0342E-03     1.82681E+06    -17.3290E+06    -167.325E+06    -3.51483E+06    -161.983E+06    -17.3290E+06    -29.3389E+06         22.6021
            1152     5.90584E-03     3.10180E-03         1.37429     925.545E-03        -2.82583     920.352E-03        -2.82064         1.37429     251.623E-03     30.7913E-03    -14.8328E-03    -15.9585E-03    -14.2658E-03     30.2243E-03    -15.9585E-03     10.0360E-03    -1.81241E+06    -11.9882E+06    -175.679E+06    -5.48208E+06    -172.009E+06    -11.9882E+06    -24.7276E+06         22.6159
            1153     4.92021E-03     3.10880E-03         1.44372         1.12950        -3.07405         1.12394        -3.06849         1.44372     294.908E-03     31.7616E-03    -15.5169E-03    -16.2447E-03    -15.1354E-03     31.3413E-03    -16.2059E-03     8.80909E-03    -6.12903E+06    -11.5500E+06    -176.603E+06    -8.38773E+06    -174.344E+06    -11.5500E+06    -19.2056E+06         22.6431
            1154     3.93591E-03     3.11463E-03         1.50969         1.24841        -3.22396         1.23348        -3.20903         1.50969     501.016E-03     32.4801E-03    -15.9755E-03    -16.5046E-03    -15.8187E-03     32.1915E-03    -16.3728E-03     7.39223E-03    -7.63517E+06    -11.5046E+06    -176.180E+06    -9.16436E+06    -174.966E+06    -11.1897E+06    -13.9856E+06         22.6723
            1155     2.95153E-03     3.12049E-03         1.58020         1.37682        -3.37529         1.36079        -3.35926         1.58020     532.829E-03     32.9846E-03    -16.2879E-03    -16.6967E-03    -16.3731E-03     32.8167E-03    -16.4436E-03     5.65103E-03    -9.40695E+06    -11.6322E+06    -176.236E+06    -10.6166E+06    -175.677E+06    -10.9815E+06    -9.29032E+06         22.6974
            1156     1.96801E-03     3.12510E-03         1.65127         1.51767        -3.53159         1.51132        -3.52524         1.65127     120.999E-03     33.1094E-03    -16.3652E-03    -16.7442E-03    -16.6677E-03     33.0329E-03    -16.3652E-03     3.78395E-03    -11.4851E+06    -13.3376E+06    -177.604E+06    -13.5606E+06    -177.381E+06    -11.4851E+06    -5.81499E+06         22.7159
            1157     984.875E-06     3.12788E-03         1.79319         1.58243        -3.69378         1.73672        -3.69006         1.63518    -255.712E-03     32.5483E-03    -16.0652E-03    -16.4831E-03    -16.4071E-03     32.5218E-03    -16.1147E-03     2.11519E-03    -14.3805E+06    -16.9120E+06    -180.478E+06    -16.0014E+06    -180.374E+06    -15.3952E+06    -3.71771E+06         22.7271
            1158     16.7542E-03     2.09375E-03     776.273E-03     516.521E-03        -2.20842     515.215E-03        -2.20711     776.273E-03     16.7739E-03     140.100E-03    -15.3419E-03    -124.758E-03    -77.5953E-03     92.9372E-03    -15.3419E-03     195.000E-03     190.860E+06     106.688E+06    -3.69847E+06    -2.95614E+06     190.118E+06     106.688E+06     455.963E+03         41.8115
            1159     15.8016E-03     2.02819E-03     791.100E-03     457.779E-03        -2.12778     456.878E-03        -2.12688     791.100E-03     72.0787E-03     34.9307E-03    -10.4292E-03    -24.5015E-03    -17.8262E-03     31.2678E-03    -13.4417E-03     22.8193E-03     162.076E+06     55.0930E+06    -4.98480E+06     8.04372E+06     160.481E+06     43.6590E+06    -1.03109E+06         37.8634
            1160     14.8002E-03     2.07039E-03     814.226E-03     428.329E-03        -2.08058     427.786E-03        -2.08004     814.226E-03     43.7881E-03     24.2454E-03    -10.1628E-03    -14.0827E-03    -7.30697E-03     20.5011E-03    -13.1942E-03     17.3722E-03     124.092E+06     6.91638E+06    -31.7787E+06    -2.37015E+06     122.050E+06    -20.4502E+06     7.78807E+06         33.4959
            1161     13.8048E-03     2.03558E-03     843.997E-03     376.048E-03        -2.02088     373.178E-03        -2.01801     843.997E-03     142.022E-03     25.3633E-03    -11.0053E-03    -14.3579E-03    -8.43765E-03     21.8423E-03    -13.4047E-03     19.6055E-03     104.294E+06    -4.92643E+06    -56.9948E+06    -8.21813E+06     103.376E+06    -52.7856E+06     5.38790E+06         29.5561
            1162     12.8204E-03     2.05227E-03     882.607E-03     327.695E-03        -1.96945     320.737E-03        -1.96249     882.607E-03     236.476E-03     22.6847E-03    -8.92460E-03    -13.7601E-03    -7.71639E-03     21.4117E-03    -13.6953E-03     12.2533E-03     71.5780E+06    -4.88402E+06    -82.5750E+06    -2.92279E+06     69.6168E+06    -82.5750E+06    -7.01392E+06         26.6432
            1163     11.8209E-03     2.04762E-03     931.814E-03     283.756E-03        -1.92661     278.060E-03        -1.92091     931.814E-03     167.168E-03     23.9567E-03    -9.75833E-03    -14.1983E-03    -8.41556E-03     22.6139E-03    -14.1983E-03     12.8507E-03     31.0472E+06    -15.1278E+06    -95.5310E+06     -806.07E+03     16.7255E+06    -95.5310E+06    -15.4129E+06         24.8129
            1164     10.8352E-03     2.05176E-03     993.251E-03     251.347E-03        -1.90729     249.670E-03        -1.90561     993.251E-03     9.34120E-03     25.0395E-03    -10.1922E-03    -14.8473E-03    -9.16383E-03     24.0111E-03    -14.8473E-03     11.5062E-03     10.8838E+06    -47.1824E+06    -89.5955E+06    -1.19239E+06    -35.1063E+06    -89.5955E+06    -21.6432E+06         23.8127
            1165     9.83991E-03     2.05465E-03         1.06725     277.000E-03        -1.96658     272.338E-03        -1.96192         1.06725     101.602E-03     26.4790E-03    -10.9402E-03    -15.5388E-03    -10.1012E-03     25.6400E-03    -15.5388E-03     10.8356E-03     6.51902E+06    -72.0786E+06    -93.9003E+06    -1.15606E+06    -78.4511E+06    -79.8528E+06    -24.6981E+06         23.3340
            1166     8.85329E-03     2.05739E-03         1.15186     369.258E-03        -2.11448     352.187E-03        -2.09741         1.15186     388.213E-03     28.4278E-03    -12.2099E-03    -16.2179E-03    -11.4876E-03     27.7054E-03    -16.2179E-03     10.3973E-03     3.73072E+06    -71.6749E+06    -120.180E+06    -2.49657E+06    -113.952E+06    -71.6749E+06    -26.4243E+06         23.1400
            1167     7.86359E-03     2.06171E-03         1.24305     523.677E-03        -2.34025     500.909E-03        -2.31748         1.24305     503.657E-03     30.0509E-03    -13.1420E-03    -16.9089E-03    -12.5799E-03     29.4887E-03    -16.9089E-03     9.59428E-03     424.796E+03    -59.4774E+06    -150.406E+06    -4.63065E+06    -145.351E+06    -59.4774E+06    -26.5342E+06         23.0878
            1168     6.87711E-03     2.06543E-03         1.33473     716.075E-03        -2.60688     704.691E-03        -2.59549         1.33473     347.293E-03     31.9272E-03    -14.3214E-03    -17.6058E-03    -13.8561E-03     31.4618E-03    -17.6058E-03     8.99183E-03    -3.01964E+06     -43.597E+06    -174.046E+06    -6.63319E+06    -170.432E+06     -43.597E+06    -24.0907E+06         23.1031
            1169     5.89113E-03     2.07075E-03         1.42492     887.548E-03        -2.84703     884.981E-03        -2.84446         1.42492     192.925E-03     33.7218E-03    -15.4783E-03    -18.2435E-03    -15.1146E-03     33.3581E-03    -18.2435E-03     8.24273E-03    -6.58795E+06    -30.8232E+06    -183.660E+06    -8.85390E+06    -181.394E+06    -30.8232E+06    -19.4342E+06         23.1499
            1170     4.90671E-03     2.07491E-03         1.51502         1.07069        -3.09261         1.06477        -3.08669         1.51502     297.203E-03     35.4776E-03    -16.6817E-03    -18.7959E-03    -16.4073E-03     35.2032E-03    -18.7959E-03     7.35197E-03    -9.74421E+06     -23.867E+06    -183.611E+06    -11.1099E+06    -182.245E+06     -23.867E+06    -14.9159E+06         23.2092
            1171     3.92344E-03     2.08038E-03         1.60099         1.28610        -3.35565         1.27285        -3.34240         1.60099     491.637E-03     37.1077E-03    -17.8496E-03    -19.2581E-03    -17.6575E-03     36.9156E-03    -19.2581E-03     6.30307E-03    -13.3241E+06    -21.2671E+06    -183.583E+06    -14.0966E+06    -182.810E+06    -21.2671E+06    -10.9687E+06         23.2684
            1172     2.94157E-03     2.08456E-03         1.67477         1.48750        -3.58522         1.47693        -3.57465         1.67477     430.478E-03     38.5059E-03    -18.8389E-03    -19.6670E-03    -18.7755E-03     38.3840E-03    -19.6085E-03     5.12776E-03    -16.1246E+06    -19.6268E+06    -183.429E+06    -16.5057E+06    -183.099E+06    -19.5763E+06    -7.16666E+06         23.3199
            1173     1.96100E-03     2.08836E-03         1.74068         1.64529        -3.75983         1.65893        -3.75649         1.72370     31.7980E-03     39.4764E-03    -19.5039E-03    -19.9725E-03    -19.6288E-03     39.4189E-03    -19.7901E-03     3.50326E-03    -17.4053E+06    -18.7609E+06    -183.331E+06    -18.1810E+06    -183.219E+06    -18.0976E+06    -3.84747E+06         23.3592
            1174     980.357E-06     2.09208E-03         1.85877         1.62499        -3.82053         1.83891        -3.81627         1.64060    -291.771E-03     39.6573E-03    -19.6610E-03    -19.9963E-03    -19.9187E-03     39.6415E-03    -19.7228E-03     1.68687E-03    -19.0801E+06    -20.9397E+06    -185.069E+06    -20.3901E+06    -185.047E+06    -19.6512E+06    -1.07860E+06         23.3839
            1175     16.7893E-03     1.00886E-03     755.449E-03     617.501E-03        -2.34045     616.975E-03        -2.33992     755.449E-03     47.9830E-03     111.086E-03    -15.8378E-03    -95.2482E-03    -72.3813E-03     88.2191E-03    -15.8378E-03     125.013E-03     186.803E+06     85.9090E+06     3.05388E+06     4.09096E+06     185.766E+06     85.9090E+06    -4.94790E+06         40.5758
            1176     15.7773E-03     1.04766E-03     766.867E-03     501.081E-03        -2.17416     500.400E-03        -2.17348     766.867E-03     82.6116E-03     28.5787E-03    -11.7599E-03    -16.8188E-03    -12.0373E-03     26.2539E-03    -14.2166E-03     16.9471E-03     153.171E+06     47.2163E+06    -15.7941E+06    -1.83299E+06     150.644E+06     35.7823E+06     11.8848E+06         37.1301
            1177     14.7800E-03     1.02044E-03     790.228E-03     340.775E-03        -1.98763     340.075E-03        -1.98693     790.228E-03     75.7273E-03     26.3617E-03    -10.0989E-03    -16.2628E-03    -10.1745E-03     24.3530E-03    -14.1784E-03     15.2343E-03     128.512E+06     10.5514E+06    -28.4943E+06    -8.40345E+06     126.172E+06    -7.20000E+06     12.6576E+06         33.1817
            1178     13.8040E-03     1.02663E-03     827.383E-03     212.050E-03        -1.85490     210.293E-03        -1.85314     827.383E-03     107.436E-03     24.2201E-03    -9.01752E-03    -15.2026E-03    -8.85524E-03     23.1694E-03    -14.3141E-03     10.4158E-03     113.877E+06     1.33436E+06    -44.0843E+06    -2.20892E+06     113.211E+06    -39.8750E+06     716.230E+03         29.6304
            1179     12.7966E-03     1.02301E-03     875.653E-03     203.172E-03        -1.85208     201.178E-03        -1.85009     875.653E-03     117.829E-03     23.1719E-03    -8.59588E-03    -14.5760E-03    -7.97961E-03     22.5556E-03    -14.5760E-03     7.55180E-03     75.9465E+06     2.26955E+06    -85.3170E+06     2.68361E+06     75.5324E+06    -85.3170E+06    -3.02283E+06         27.0039
            1180     11.8169E-03     1.02516E-03     930.565E-03     245.623E-03        -1.89913     244.528E-03        -1.89803     930.565E-03     17.6773E-03     24.8209E-03    -9.73622E-03    -15.0847E-03    -9.16406E-03     24.2487E-03    -15.0847E-03     7.40635E-03     32.8895E+06    -6.23214E+06    -105.271E+06     3.87329E+06     22.7841E+06    -105.271E+06    -7.58010E+06         25.3557
            1181     10.8184E-03     1.02702E-03     994.294E-03     231.723E-03        -1.89637     230.470E-03        -1.89512     994.294E-03    -98.0665E-03     25.7276E-03    -9.97351E-03    -15.7541E-03    -9.59381E-03     25.3479E-03    -15.7541E-03     6.63292E-03     9.65594E+06    -38.9551E+06    -104.645E+06     4.48623E+06    -33.7854E+06    -104.645E+06    -11.9055E+06         24.4618
            1182     9.83289E-03     1.02746E-03         1.07261     212.619E-03        -1.91142     211.023E-03        -1.90983         1.07261    -10.9712E-03     27.4692E-03    -10.9748E-03    -16.4943E-03    -10.6488E-03     27.1432E-03    -16.4943E-03     6.15048E-03     5.99980E+06    -77.6479E+06    -102.496E+06     3.16086E+06    -79.0581E+06    -98.2467E+06    -14.1360E+06         24.0441
            1183     8.84084E-03     1.02937E-03         1.16367     317.421E-03        -2.07726     310.133E-03        -2.06997         1.16367     226.370E-03     29.1184E-03    -11.8527E-03    -17.2656E-03    -11.6180E-03     28.8836E-03    -17.2656E-03     5.57514E-03     2.38334E+06    -89.7419E+06    -119.006E+06     122.004E+03    -115.491E+06    -90.9948E+06    -14.9743E+06         23.8882
            1184     7.85409E-03     1.03101E-03         1.25753     534.195E-03        -2.36963     523.380E-03        -2.35882         1.25753     311.230E-03     31.1081E-03    -13.0097E-03    -18.0984E-03    -12.8068E-03     30.9052E-03    -18.0984E-03     5.27608E-03    -1.67548E+06    -78.5880E+06    -151.382E+06    -3.55225E+06    -149.506E+06    -78.5880E+06    -14.9523E+06         23.8636
            1185     6.86649E-03     1.03368E-03         1.34734     745.038E-03        -2.65433     739.202E-03        -2.64850         1.34734     241.765E-03     33.2861E-03    -14.3336E-03    -18.9524E-03    -14.1737E-03     33.1261E-03    -18.9524E-03     4.97607E-03    -6.17460E+06    -64.0925E+06    -177.670E+06    -7.59698E+06    -176.247E+06    -64.0925E+06    -13.8376E+06         23.9025
            1186     5.88118E-03     1.03572E-03         1.43845     874.138E-03        -2.85279     871.654E-03        -2.85030         1.43845     188.367E-03     35.5710E-03    -15.7833E-03    -19.7877E-03    -15.6522E-03     35.4399E-03    -19.7877E-03     4.61579E-03    -10.6694E+06    -49.4939E+06    -189.168E+06    -11.5696E+06    -188.267E+06    -49.4939E+06    -11.6231E+06         23.9719
            1187     4.89721E-03     1.03877E-03         1.54000         1.00493        -3.05465         1.00081        -3.05052         1.54000     235.746E-03     37.8585E-03    -17.2690E-03    -20.5895E-03    -17.1708E-03     37.7603E-03    -20.5895E-03     4.13586E-03    -13.9458E+06    -35.1550E+06    -189.603E+06    -14.4344E+06    -189.115E+06    -35.1550E+06    -8.18479E+06         24.0536
            1188     3.91482E-03     1.04102E-03         1.64435         1.25169        -3.36745         1.24340        -3.35916         1.64435     358.963E-03     40.1400E-03    -18.8273E-03    -21.3127E-03    -18.7586E-03     40.0713E-03    -21.3127E-03     3.61357E-03    -17.6784E+06    -27.9585E+06    -188.188E+06    -17.9161E+06    -187.950E+06    -27.9585E+06    -5.27363E+06         24.1345
            1189     2.93440E-03     1.04381E-03         1.72492         1.54889        -3.69928         1.54318        -3.69357         1.72492     287.667E-03     42.2265E-03    -20.2742E-03    -21.9523E-03    -20.2265E-03     42.1788E-03    -21.9523E-03     3.09654E-03    -20.3244E+06    -24.3094E+06    -187.451E+06    -20.4797E+06    -187.325E+06    -24.2798E+06    -3.90948E+06         24.2055
            1190     1.95462E-03     1.04592E-03         1.78641         1.72345        -3.89198         1.75238        -3.89067         1.75616     7.31462E-03     44.0332E-03    -21.5192E-03    -22.5140E-03    -21.4942E-03     44.0081E-03    -22.5140E-03     2.19685E-03    -20.1114E+06    -23.2171E+06    -186.782E+06    -22.5803E+06    -186.726E+06    -20.8036E+06    -2.75750E+06         24.2605
            1191     977.206E-06     1.04823E-03         1.89189         1.62354        -3.86459         1.89051        -3.86321         1.62354    -163.521E-03     45.5257E-03    -22.5838E-03    -22.9419E-03    -22.5774E-03     45.5193E-03    -22.9419E-03     693.622E-06    -23.5499E+06    -26.6860E+06    -189.811E+06    -26.6447E+06    -189.776E+06    -23.6266E+06    -92.0051E+03         24.2957
            1192     983.530E-06     57.6520E-03         7.31842    -481.100E-03        -6.96300         6.47333        -6.11792    -481.100E-03     682.038E-03     34.0013E-03    -16.9374E-03    -17.0639E-03    -16.9867E-03     33.9868E-03    -17.0002E-03     1.66324E-03     688.269E+03    -1.97891E+06    -181.853E+06    -1.47006E+06    -181.838E+06     164.152E+03     380.218E+03         22.4834
            1193     1.96678E-03     57.6538E-03         3.85825         2.96857        -6.94411         2.85518        -5.94105         2.96857     307.116E-03     34.0856E-03    -16.9907E-03    -17.0949E-03    -17.0231E-03     34.0378E-03    -17.0147E-03     2.98619E-03     3.02881E+06     232.409E+03    -180.538E+06     743.736E+03    -180.513E+06     2.49255E+06     514.916E+03         22.5057
            1194     2.95054E-03     57.6584E-03         3.68599         2.92533        -6.72739         2.83039        -5.87179         2.92533         5.66716     34.1293E-03    -17.0093E-03    -17.1200E-03    -17.0197E-03     34.0303E-03    -17.0107E-03     4.46188E-03     2.96919E+06     1.68756E+06    -175.843E+06     2.51161E+06    -175.817E+06     2.11941E+06     1.08093E+06         22.5445
            1195     3.93344E-03     57.6632E-03         3.44825         2.90732        -6.48374         2.88147        -5.91696         2.90732         4.60164     34.0846E-03    -16.9734E-03    -17.1112E-03    -16.9316E-03     33.9251E-03    -16.9935E-03     5.66545E-03     2.15920E+06     1.09735E+06    -171.871E+06     2.00849E+06    -171.864E+06     1.24171E+06     164.390E+03         22.6018
            1196     4.91721E-03     57.6697E-03         3.20012         2.87364        -6.21643         2.89824        -5.94540         2.90448         2.62551     33.9083E-03    -16.8958E-03    -17.0124E-03    -16.7327E-03     33.6681E-03    -16.9353E-03     6.94171E-03     3.02403E+06    -177.215E+03    -159.984E+06     2.95709E+06    -159.959E+06    -135.278E+03     508.550E+03         22.6796
            1197     5.90121E-03     57.6777E-03         2.93458         2.86702        -5.95022         2.81503        -5.86151         2.89786         1.58213     33.8328E-03    -16.8657E-03    -16.9670E-03    -16.6396E-03     33.5247E-03    -16.8851E-03     7.88035E-03     5.66462E+06     2.13828E+06    -146.683E+06     4.65454E+06    -146.644E+06     3.10928E+06     1.19513E+06         22.7812
            1198     6.88472E-03     57.6854E-03         2.98213         2.87833        -5.99986         2.69055        -5.70828         2.87833         3.09337     33.7707E-03    -16.8471E-03    -16.9236E-03    -16.5574E-03     33.4050E-03    -16.8476E-03     8.57050E-03     5.63970E+06     3.63973E+06    -140.050E+06     3.68995E+06    -140.014E+06     5.55349E+06     1.93931E+06         22.9120
            1199     7.86883E-03     57.6951E-03         3.04036         2.84921        -6.01035         2.58662        -5.55661         2.84921         3.94691     33.6420E-03    -16.7660E-03    -16.8760E-03    -16.4495E-03     33.2160E-03    -16.7665E-03     9.23524E-03     3.02164E+06     216.999E+03    -126.724E+06     2.03693E+06    -126.682E+06     1.15976E+06     2.11059E+06         23.0835
            1200     8.85286E-03     57.7040E-03         2.91664         2.64531        -5.66446         2.50349        -5.42210         2.81610         1.91300     33.6734E-03    -16.6838E-03    -16.9896E-03    -16.4847E-03     33.1686E-03    -16.6838E-03     10.0510E-03     815.626E+03    -3.64493E+06    -109.057E+06     788.583E+03    -109.029E+06    -3.64493E+06     1.50743E+06         23.3252
            1201     9.83641E-03     57.7153E-03         2.77766         2.52028        -5.38829         2.34263        -5.21065         2.77766        -1.76145     33.7241E-03    -16.6122E-03    -17.1118E-03    -16.4547E-03     33.0670E-03    -16.6122E-03     11.4503E-03    -1.26907E+06    -7.89456E+06    -88.2634E+06    -1.32641E+06    -88.2060E+06    -7.89456E+06     1.67420E+06         23.7184
            1202     10.8206E-03     57.7274E-03         2.72729         2.32481        -5.13600         2.08437        -4.89556         2.72729        -2.57464     33.4416E-03    -16.5115E-03    -16.9302E-03    -16.2462E-03     32.7577E-03    -16.5115E-03     11.6447E-03    -3.68438E+06    -17.1174E+06    -64.6822E+06    -3.74498E+06    -64.6216E+06    -17.1174E+06     1.58879E+06         24.4758
            1203     11.8046E-03     57.7385E-03         2.66226         1.85708        -4.59862         1.79291        -4.53446         2.66226    -862.305E-03     33.1528E-03    -16.3879E-03    -16.7649E-03    -16.0756E-03     32.4635E-03    -16.3879E-03     11.6308E-03    -4.72267E+06    -17.4490E+06    -42.6543E+06    -5.03641E+06    -31.9308E+06    -27.8587E+06    -71.6077E+03         26.0749
            1204     12.7891E-03     57.7505E-03         2.58601         1.58527        -4.24743         1.53742        -4.19958         2.58601    -659.059E-03     33.5661E-03    -16.2785E-03    -17.2877E-03    -16.0154E-03     32.2939E-03    -16.2785E-03     15.5647E-03     16.1025E+06    -8.78855E+06    -35.5254E+06    -5.79750E+06     13.1115E+06    -35.5254E+06     574.451E+03         29.3807
            1205     13.7726E-03     57.7698E-03         2.50314         1.57418        -4.15082         1.30434        -3.88098         2.50314        -2.26724     34.0869E-03    -16.1290E-03    -17.9579E-03    -15.5905E-03     31.7195E-03    -16.1290E-03     21.4934E-03     55.7893E+06    -7.51123E+06    -55.5008E+06    -7.44171E+06     55.7198E+06    -55.5008E+06     1.23350E+06         35.5180
            1206     14.7595E-03     57.7939E-03         2.41403         1.37740        -3.86197         1.01367        -3.49824         2.41403        -2.65722     51.2380E-03    -16.1646E-03    -35.0734E-03    -16.8312E-03     32.9958E-03    -16.1646E-03     66.0092E-03     99.8187E+06    -10.6352E+06    -45.9357E+06    -10.8438E+06     99.8025E+06    -45.7109E+06     73.5385E+03         45.1303
            1207     15.7421E-03     57.9064E-03         2.31417     772.065E-03        -3.14002     625.591E-03        -2.99355         2.31417        -1.28569     139.701E-03    -16.4788E-03    -123.222E-03    -28.5621E-03     45.0408E-03    -16.4788E-03     251.092E-03     152.741E+06     26.2186E+06    -14.8804E+06    -11.4582E+06     152.732E+06     22.8054E+06    -29.5778E+03         57.1179
            1208     16.7330E-03     58.3281E-03         2.19921     253.906E-03        -2.48211     247.085E-03        -2.47529         2.19921    -85.1063E-03     251.455E-03    -16.7515E-03    -234.703E-03    -50.4234E-03     67.1749E-03    -16.7515E-03     471.512E-03     197.126E+06     93.7568E+06    -6.23881E+06    -6.23573E+06     197.123E+06     93.7568E+06     340.243E+03         67.9478
            1209     983.542E-06     58.6854E-03         7.54636    -334.096E-03        -7.26140         6.70608        -6.42112    -334.096E-03     728.063E-03     34.0128E-03    -16.9013E-03    -17.1115E-03    -17.0538E-03     33.9952E-03    -16.9414E-03     1.82700E-03     1.95364E+06    -434.014E+03    -181.665E+06     73.1902E+03    -181.648E+06     1.42952E+06     444.396E+03         22.4775
            1210     1.96680E-03     58.6880E-03         3.98313         3.15480        -7.17474         3.03002        -6.22163         3.15480     196.329E-03     34.1066E-03    -17.0151E-03    -17.0916E-03    -17.0419E-03     34.0584E-03    -17.0164E-03     3.05407E-03     2.59783E+06     236.097E+03    -181.383E+06     766.952E+03    -181.378E+06     2.06157E+06    -570.599E+03         22.5001
            1211     2.95004E-03     58.6916E-03         3.74886         3.10366        -6.88166         2.98105        -6.11385         3.10366         5.43051     33.9592E-03    -16.9471E-03    -17.0121E-03    -16.8731E-03     33.8581E-03    -16.9851E-03     4.47591E-03     1.50494E+06    -351.032E+03    -176.420E+06     1.43618E+06    -176.412E+06    -290.437E+03     802.291E+03         22.5390
            1212     3.93421E-03     58.6971E-03         3.43200         3.06655        -6.54030         2.92807        -6.03638         3.06655         4.36160     33.9158E-03    -16.9019E-03    -17.0140E-03    -16.8092E-03     33.7477E-03    -16.9384E-03     5.80814E-03     787.713E+03    -616.212E+03    -170.998E+06     737.587E+03    -170.990E+06    -574.274E+03     686.612E+03         22.5962
            1213     4.91740E-03     58.7030E-03         3.19046         2.94019        -6.18861         2.84490        -5.93416         3.03130         2.51866     33.8792E-03    -16.8586E-03    -17.0206E-03    -16.7529E-03     33.6309E-03    -16.8780E-03     7.06220E-03     128.908E+03    -2.85543E+06    -159.670E+06     79.1706E+03    -159.662E+06    -2.81349E+06    -879.228E+03         22.6739
            1214     5.90129E-03     58.7106E-03         2.99567         2.86388        -5.92091         2.77529        -5.83167         2.99502         1.56173     33.7551E-03    -16.8023E-03    -16.9528E-03    -16.6057E-03     33.4384E-03    -16.8328E-03     7.98071E-03     1.23247E+06    -2.63272E+06    -149.041E+06     180.331E+03    -149.014E+06    -1.60706E+06     403.273E+03         22.7752
            1215     6.88523E-03     58.7193E-03         3.00885         2.91670        -5.97884         2.66897        -5.67899         2.95673         3.12856     33.6725E-03    -16.7983E-03    -16.8742E-03    -16.5009E-03     33.3107E-03    -16.8098E-03     8.51511E-03     4.37974E+06     1.07565E+06    -141.077E+06     1.02392E+06    -141.025E+06     4.37974E+06     2.63071E+06         22.9058
            1216     7.86908E-03     58.7274E-03         3.02410         2.91520        -5.97141         2.57135        -5.51866         2.91520         3.93235     33.6342E-03    -16.7396E-03    -16.8946E-03    -16.4631E-03     33.2031E-03    -16.7400E-03     9.27695E-03     3.88878E+06     343.635E+03    -126.465E+06     1.54405E+06    -126.398E+06     2.62207E+06     2.90632E+06         23.0765
            1217     8.85292E-03     58.7379E-03         2.93017         2.66449        -5.60651         2.48681        -5.37139         2.87273         1.86355     33.6654E-03    -16.6614E-03    -17.0041E-03    -16.4861E-03     33.1475E-03    -16.6614E-03     10.1845E-03     914.784E+03    -2.42834E+06    -109.528E+06     842.612E+03    -109.456E+06    -2.42834E+06     2.67356E+06         23.3156
            1218     9.83692E-03     58.7480E-03         2.82444         2.45616        -5.27895         2.28016        -5.10295         2.82444        -1.73524     33.6222E-03    -16.5801E-03    -17.0421E-03    -16.3885E-03     32.9686E-03    -16.5801E-03     11.4011E-03    -132.154E+03    -8.16572E+06    -88.8990E+06    -223.938E+03    -88.8073E+06    -8.16572E+06     2.48070E+06         23.7030
            1219     10.8209E-03     58.7606E-03         2.76131         2.19807        -4.94762         1.96546        -4.71501         2.76131        -2.46954     33.3254E-03    -16.4654E-03    -16.8600E-03    -16.1894E-03     32.6549E-03    -16.4654E-03     11.5050E-03    -506.460E+03    -18.1289E+06    -63.5006E+06    -573.891E+03    -63.4332E+06    -18.1289E+06     1.79279E+06         24.4479
            1220     11.8052E-03     58.7710E-03         2.68408         1.75452        -4.41857         1.69546        -4.35951         2.68408    -736.170E-03     33.1012E-03    -16.3368E-03    -16.7644E-03    -16.0653E-03     32.4021E-03    -16.3368E-03     11.6885E-03    -2.35384E+06    -18.0483E+06    -42.4829E+06    -2.85812E+06    -30.3037E+06    -29.7232E+06     563.304E+03         26.0240
            1221     12.7891E-03     58.7838E-03         2.59969         1.51940        -4.09219         1.47514        -4.04793         2.59969    -551.556E-03     33.4407E-03    -16.2087E-03    -17.2320E-03    -15.9295E-03     32.1382E-03    -16.2087E-03     15.7398E-03     15.5339E+06    -9.99297E+06    -42.1568E+06    -6.32188E+06     11.8628E+06    -42.1568E+06    -315.564E+03         29.2985
            1222     13.7744E-03     58.8025E-03         2.51051         1.48684        -3.96704         1.22609        -3.70628         2.51051        -2.15836     34.2177E-03    -16.0479E-03    -18.1699E-03    -15.8663E-03     31.9142E-03    -16.0479E-03     21.3601E-03     56.3461E+06    -8.74807E+06    -65.5111E+06    -8.61228E+06     56.2104E+06    -65.5111E+06    -369.420E+03         35.4107
            1223     14.7574E-03     58.8263E-03         2.41329         1.24738        -3.62582     893.454E-03        -3.27189         2.41329        -2.52383     51.7211E-03    -16.0914E-03    -35.6296E-03    -16.5826E-03     32.6740E-03    -16.0914E-03     66.9990E-03     100.196E+06    -10.3628E+06    -53.9623E+06    -10.3543E+06     100.187E+06    -53.9623E+06     106.158E+03         45.0384
            1224     15.7437E-03     58.9414E-03         2.30228     648.321E-03        -2.90776     510.549E-03        -2.76999         2.30228        -1.14141     136.407E-03    -16.3713E-03    -120.036E-03    -25.7252E-03     42.0964E-03    -16.3713E-03     246.179E-03     152.810E+06     28.4958E+06    -16.6606E+06    -9.32996E+06     152.805E+06     21.1705E+06    -73.4329E+03         57.1078
            1225     16.7417E-03     59.3450E-03         2.17451     185.642E-03        -2.28463     183.049E-03        -2.28204         2.17451    -40.0262E-03     250.812E-03    -16.6382E-03    -234.174E-03    -51.3327E-03     67.9709E-03    -16.6382E-03     469.895E-03     197.645E+06     96.2228E+06    -6.44781E+06    -6.44627E+06     197.644E+06     96.2228E+06    -7.08156E+03         68.0323
            1226     983.427E-06     59.7192E-03         7.50809    -405.525E-03        -7.07765         6.75060        -6.32016    -405.525E-03     481.036E-03     33.9228E-03    -16.8641E-03    -17.0586E-03    -16.9737E-03     33.9035E-03    -16.9298E-03     1.77699E-03     465.589E+03    -65.2605E+03    -182.909E+06    -45.4442E+03    -182.893E+06     430.089E+03    -317.492E+03         22.4693
            1227     1.96695E-03     59.7216E-03         4.02232         3.17188        -7.15694         3.17069        -6.30531         3.17188     38.3738E-03     33.8879E-03    -16.9064E-03    -16.9815E-03    -16.8879E-03     33.8355E-03    -16.9476E-03     3.20432E-03     1.76109E+06     844.051E+03    -181.706E+06     842.769E+03    -181.705E+06     1.76109E+06     153.636E+03         22.4922
            1228     2.95062E-03     59.7252E-03         3.76283         3.16148        -6.87266         3.10144        -6.21126         3.16148         5.08057     33.8203E-03    -16.8648E-03    -16.9555E-03    -16.8099E-03     33.7150E-03    -16.9052E-03     4.55469E-03     1.33040E+06    -399.485E+03    -176.610E+06     539.527E+03    -176.604E+06     384.802E+03     234.504E+03         22.5314
            1229     3.93404E-03     59.7300E-03         3.45359         3.13692        -6.54943         3.02027        -6.11611         3.13692         4.07025     33.7862E-03    -16.8316E-03    -16.9547E-03    -16.7452E-03     33.6133E-03    -16.8681E-03     5.88333E-03     2.92838E+06     1.22052E+06    -169.783E+06     2.26103E+06    -169.775E+06     1.87991E+06    -207.350E+03         22.5887
            1230     4.91825E-03     59.7367E-03         3.23638         2.99322        -6.20017         2.91297        -5.98701         3.10347         2.31693     33.8295E-03    -16.8345E-03    -16.9950E-03    -16.7553E-03     33.5898E-03    -16.8345E-03     6.94609E-03     3.56673E+06     1.82836E+06    -159.400E+06     2.34209E+06    -159.382E+06     3.03484E+06     70.2570E+03         22.6664
            1231     5.90147E-03     59.7439E-03         3.06038         2.85702        -5.89248         2.76840        -5.80386         3.06038         1.52645     33.7055E-03    -16.7822E-03    -16.9233E-03    -16.6045E-03     33.3978E-03    -16.7933E-03     7.85339E-03     1.93593E+06     143.053E+03    -151.208E+06     550.307E+03    -151.187E+06     1.50690E+06     1.06554E+06         22.7677
            1232     6.88549E-03     59.7519E-03         3.05409         2.91805        -5.93554         2.65803        -5.63260         3.01117         3.13750     33.6067E-03    -16.7413E-03    -16.8654E-03    -16.4805E-03     33.2329E-03    -16.7524E-03     8.64128E-03     2.75275E+06     734.971E+03    -142.680E+06     710.082E+03    -142.655E+06     2.75275E+06     1.67316E+06         22.8981
            1233     7.86942E-03     59.7609E-03         3.01996         2.95278        -5.91563         2.54865        -5.45205         2.96052         3.95900     33.6686E-03    -16.7009E-03    -16.9676E-03    -16.5259E-03     33.2268E-03    -16.7009E-03     9.40238E-03     3.73193E+06     1.85861E+06    -126.866E+06     2.05584E+06    -126.803E+06     3.47197E+06     2.64770E+06         23.0679
            1234     8.85331E-03     59.7706E-03         2.92124         2.58668        -5.42959         2.35971        -5.18611         2.90473         1.88254     33.5982E-03    -16.6314E-03    -16.9668E-03    -16.4424E-03     33.0738E-03    -16.6314E-03     10.2317E-03     3.14824E+06    -453.134E+03    -109.328E+06     2.92095E+06    -109.249E+06    -304.729E+03     2.68309E+06         23.3049
            1235     9.83720E-03     59.7814E-03         2.83989         2.31853        -5.06453         2.14720        -4.89320         2.83989        -1.67990     33.4984E-03    -16.5415E-03    -16.9569E-03    -16.2967E-03     32.8382E-03    -16.5415E-03     11.4382E-03     3.89818E+06    -6.18772E+06    -88.2871E+06     3.85915E+06    -88.2481E+06    -6.18772E+06     1.36755E+06         23.6869
            1236     10.8213E-03     59.7932E-03         2.76569         2.12217        -4.78075         1.89735        -4.55594         2.76569        -2.38223     33.3115E-03    -16.4219E-03    -16.8896E-03    -16.2081E-03     32.6300E-03    -16.4219E-03     11.6023E-03     3.93848E+06    -16.7630E+06    -63.2288E+06     3.91390E+06    -63.2042E+06    -16.7630E+06     1.02724E+06         24.4197
            1237     11.8055E-03     59.8041E-03         2.68203         1.68175        -4.24481         1.62592        -4.18899         2.68203    -706.140E-03     33.0333E-03    -16.3155E-03    -16.7178E-03    -16.0044E-03     32.3199E-03    -16.3155E-03     11.7949E-03     2.50916E+06    -17.1062E+06    -36.8278E+06     2.24376E+06    -29.7852E+06    -23.8835E+06     1.81223E+06         25.9732
            1238     12.7901E-03     59.8165E-03         2.59072         1.41543        -3.87664         1.36951        -3.83072         2.59072    -547.477E-03     33.3702E-03    -16.1757E-03    -17.1945E-03    -15.8599E-03     32.0356E-03    -16.1757E-03     15.8973E-03     19.6360E+06    -6.48216E+06    -37.3046E+06    -827.955E+03     13.9818E+06    -37.3046E+06     207.074E+03         29.2167
            1239     13.7740E-03     59.8352E-03         2.49250         1.36501        -3.72063         1.07455        -3.43017         2.49250        -2.16825     34.4213E-03    -15.9965E-03    -18.4248E-03    -15.9921E-03     31.9886E-03    -15.9965E-03     22.0015E-03     55.7615E+06    -5.15978E+06    -66.0963E+06    -5.05195E+06     55.6537E+06    -66.0963E+06    -1.21871E+06         35.3056
            1240     14.7591E-03     59.8608E-03         2.38485         1.11967        -3.36562     736.691E-03        -2.98264         2.38485        -2.49456     50.8010E-03    -16.0480E-03    -34.7530E-03    -15.8756E-03     31.9236E-03    -16.0480E-03     65.8469E-03     99.7085E+06    -8.93496E+06    -50.9809E+06    -8.91586E+06     99.6895E+06    -50.9809E+06    -276.231E+03         44.9537
            1241     15.7473E-03     59.9690E-03         2.26427     584.089E-03        -2.69885     441.821E-03        -2.55658         2.26427        -1.14727     135.729E-03    -16.4139E-03    -119.315E-03    -28.9231E-03     45.3370E-03    -16.4139E-03     243.345E-03     153.251E+06     28.1268E+06    -15.1269E+06    -9.96224E+06     153.241E+06     22.9723E+06     583.976E+03         57.0752
            1242     16.7230E-03     60.3745E-03         2.12593     172.348E-03        -2.09367     165.049E-03        -2.08637         2.12593    -72.4872E-03     250.776E-03    -16.7776E-03    -233.998E-03    -51.8478E-03     68.6254E-03    -16.7776E-03     469.452E-03     197.380E+06     91.9065E+06    -6.12660E+06    -6.11848E+06     197.372E+06     91.9065E+06     592.766E+03         68.0983
            1243     983.464E-06     60.7523E-03         7.30184    -483.527E-03        -6.72341         6.67744        -6.09901    -483.527E-03     247.674E-03     33.6398E-03    -16.7629E-03    -16.8769E-03    -16.7855E-03     33.6196E-03    -16.8340E-03     1.77617E-03     1.11665E+06    -2.15169E+06    -183.592E+06    -2.13451E+06    -183.574E+06     1.08115E+06     92.7758E+03         22.4595
            1244     1.96735E-03     60.7550E-03         3.96416         3.11703        -6.96851         3.19747        -6.20182         3.11703     173.285E-03     33.6080E-03    -16.7741E-03    -16.8338E-03    -16.7336E-03     33.5544E-03    -16.8208E-03     3.24230E-03     4.33307E+06    -21.6265E+03    -181.534E+06    -26.0454E+03    -181.530E+06     4.33307E+06     702.446E+03         22.4825
            1245     2.95101E-03     60.7584E-03         3.84072         3.14429        -6.85505         3.18773        -6.20206         3.14429         5.08693     33.7017E-03    -16.7959E-03    -16.9058E-03    -16.8000E-03     33.5997E-03    -16.7997E-03     4.48247E-03     4.33883E+06     1.70372E+06    -175.805E+06     1.70008E+06    -175.801E+06     4.33883E+06    -362.563E+03         22.5218
            1246     3.93479E-03     60.7635E-03         3.55195         3.14585        -6.57290         3.10055        -6.12149         3.14585         4.17378     33.7548E-03    -16.7902E-03    -16.9646E-03    -16.7927E-03     33.5828E-03    -16.7902E-03     5.85655E-03     3.36759E+06     1.58464E+06    -169.649E+06     1.57768E+06    -169.642E+06     3.36759E+06    -518.240E+03         22.5793
            1247     4.91792E-03     60.7698E-03         3.26531         3.01724        -6.16609         2.94940        -5.95579         3.12286         2.29765     33.6476E-03    -16.7651E-03    -16.8825E-03    -16.6406E-03     33.4057E-03    -16.7651E-03     6.95696E-03     3.39452E+06     1.01206E+06    -161.106E+06     1.42147E+06    -161.088E+06     2.96736E+06     807.888E+03         22.6572
            1248     5.90221E-03     60.7771E-03         3.08351         2.90152        -5.86997         2.81959        -5.78804         3.08351         1.47356     33.5456E-03    -16.7186E-03    -16.8270E-03    -16.5230E-03     33.2416E-03    -16.7186E-03     7.78985E-03     3.11642E+06     1.42778E+06    -151.971E+06     2.14678E+06    -151.944E+06     2.36965E+06     1.71071E+06         22.7588
            1249     6.88603E-03     60.7847E-03         3.05376         2.94752        -5.87398         2.66569        -5.57353         3.03515         3.09059     33.5893E-03    -16.6727E-03    -16.9166E-03    -16.5232E-03     33.1959E-03    -16.6727E-03     8.85536E-03     2.25985E+06     1.19231E+06    -143.020E+06     1.96900E+06    -142.989E+06     1.45243E+06     1.91248E+06         22.8891
            1250     7.86986E-03     60.7942E-03         2.99475         2.91448        -5.76123         2.45425        -5.28238         2.97614         3.96206     33.6353E-03    -16.6254E-03    -17.0099E-03    -16.5440E-03     33.1694E-03    -16.6254E-03     9.66720E-03     2.35155E+06    -49.0355E+03    -127.547E+06     2.02243E+06    -127.496E+06     228.650E+03     1.55708E+06         23.0585
            1251     8.85357E-03     60.8036E-03         2.90501         2.46915        -5.20528         2.21411        -4.95024         2.90501         1.88592     33.5152E-03    -16.5690E-03    -16.9461E-03    -16.4192E-03     32.9882E-03    -16.5690E-03     10.2450E-03     3.52499E+06    -1.77406E+06    -108.589E+06     3.34109E+06    -108.554E+06    -1.62565E+06     751.531E+03         23.2938
            1252     9.83790E-03     60.8141E-03         2.82436         2.16407        -4.80248         1.98491        -4.62332         2.82436        -1.66692     33.3567E-03    -16.4869E-03    -16.8698E-03    -16.2043E-03     32.6912E-03    -16.4869E-03     11.4574E-03     4.11364E+06    -5.93074E+06    -87.2738E+06     4.11176E+06    -87.2719E+06    -5.93074E+06     74.6445E+03         23.6711
            1253     10.8222E-03     60.8261E-03         2.73823         2.01198        -4.54919         1.77658        -4.31378         2.73823        -2.36834     33.2020E-03    -16.3642E-03    -16.8378E-03    -16.1376E-03     32.5018E-03    -16.3642E-03     11.7462E-03     3.71128E+06    -17.3702E+06    -64.5783E+06     3.70018E+06    -64.5672E+06    -17.3702E+06     300.631E+03         24.3927
            1254     11.8062E-03     60.8370E-03         2.64737         1.58780        -4.01842         1.52973        -3.96035         2.64737    -741.341E-03     32.9820E-03    -16.2668E-03    -16.7152E-03    -16.0054E-03     32.2722E-03    -16.2668E-03     11.7788E-03     2.70652E+06    -17.1676E+06    -36.9758E+06     2.30513E+06    -30.8651E+06    -22.8769E+06     1.56579E+06         25.9247
            1255     12.7907E-03     60.8487E-03         2.54889         1.27359        -3.59112         1.22072        -3.53825         2.54889    -597.454E-03     33.3136E-03    -16.1524E-03    -17.1612E-03    -15.7961E-03     31.9485E-03    -16.1524E-03     15.9834E-03     21.3753E+06    -5.82192E+06    -30.8767E+06    -844.226E+03     16.3976E+06    -30.8767E+06     2.00753E+06         29.1383
            1256     13.7755E-03     60.8690E-03         2.44109         1.21223        -3.41134     889.441E-03        -3.08855         2.44109        -2.17410     34.1918E-03    -15.9798E-03    -18.2120E-03    -15.6640E-03     31.6438E-03    -15.9798E-03     22.3944E-03     56.7193E+06    -6.45343E+06    -57.4842E+06    -6.38831E+06     56.6542E+06    -57.4842E+06     595.710E+03         35.2081
            1257     14.7597E-03     60.8928E-03         2.32513         1.04042        -3.11747     608.876E-03        -2.68593         2.32513        -2.52498     49.8439E-03    -16.0140E-03    -33.8299E-03    -16.0397E-03     32.0537E-03    -16.0140E-03     63.9842E-03     97.9876E+06    -11.7153E+06    -47.4007E+06    -11.6880E+06     97.9604E+06    -47.4007E+06     497.286E+03         44.8769
            1258     15.7459E-03     60.9983E-03         2.19777     550.306E-03        -2.47639     381.633E-03        -2.30771         2.19777        -1.22507     140.027E-03    -16.3911E-03    -123.636E-03    -31.2598E-03     47.6509E-03    -16.3911E-03     250.787E-03     151.503E+06     24.9504E+06    -16.0387E+06    -12.0170E+06     151.481E+06     20.9503E+06     848.247E+03         57.0812
            1259     16.7257E-03     61.4285E-03         2.04873     97.3012E-03        -1.82062     85.2291E-03        -1.80855         2.04873    -83.2349E-03     251.309E-03    -16.7897E-03    -234.519E-03    -51.6398E-03     68.4295E-03    -16.7897E-03     470.664E-03     198.117E+06     92.0988E+06    -5.76485E+06    -5.74955E+06     198.102E+06     92.0988E+06     362.765E+03         68.2212
            1260     984.004E-06     61.7856E-03         7.16446    -479.217E-03        -6.51572         6.75180        -6.10306    -479.217E-03    -158.130E-03     33.3014E-03    -16.5936E-03    -16.7077E-03    -16.6835E-03     33.2836E-03    -16.6001E-03     1.73886E-03     1.96418E+06    -3.59065E+06    -184.080E+06    -2.07310E+06    -184.069E+06     435.798E+03     1.16525E+06         22.4483
            1261     1.96756E-03     61.7878E-03         3.85424         3.14832        -6.81857         3.19737        -6.16171         3.14832     514.433E-03     33.4790E-03    -16.6858E-03    -16.7933E-03    -16.7376E-03     33.4288E-03    -16.6913E-03     3.10165E-03     5.05375E+06    -161.248E+03    -180.968E+06    -169.688E+03    -180.960E+06     5.05375E+06     846.207E+03         22.4713
            1262     2.95129E-03     61.7917E-03         3.87810         3.16413        -6.83182         3.18387        -6.13759         3.16413         5.25901     33.5510E-03    -16.7077E-03    -16.8433E-03    -16.7428E-03     33.4505E-03    -16.7077E-03     4.44360E-03     3.63049E+06     150.818E+03    -176.060E+06     122.322E+03    -176.031E+06     3.63049E+06     1.19212E+06         22.5107
            1263     3.93468E-03     61.7967E-03         3.56804         3.15424        -6.51464         3.04771        -5.99430         3.15424         4.44635     33.5446E-03    -16.6977E-03    -16.8469E-03    -16.6811E-03     33.3788E-03    -16.6977E-03     5.73515E-03     1.22722E+06    -1.29095E+06    -169.872E+06    -1.31642E+06    -169.846E+06     1.22722E+06     974.551E+03         22.5686
            1264     4.91894E-03     61.8028E-03         3.21497         2.98008        -5.99100         2.85573        -5.76664         3.11496         2.36729     33.3877E-03    -16.6554E-03    -16.7322E-03    -16.4933E-03     33.1487E-03    -16.6554E-03     6.87944E-03     115.192E+03    -2.18239E+06    -161.418E+06    -990.898E+03    -161.414E+06    -1.08076E+06     29.4222E+03         22.6470
            1265     5.90266E-03     61.8098E-03         3.06360         2.83210        -5.68810         2.76110        -5.61710         3.06360         1.40017     33.3865E-03    -16.6065E-03    -16.7800E-03    -16.4661E-03     33.0726E-03    -16.6065E-03     7.89644E-03     172.436E+03    -2.06457E+06    -153.465E+06     155.672E+03    -153.448E+06    -2.06457E+06     708.251E+03         22.7491
            1266     6.88662E-03     61.8179E-03         3.00917         2.89640        -5.68579         2.60583        -5.39521         3.00917         2.95737     33.5199E-03    -16.5739E-03    -16.9460E-03    -16.5458E-03     33.1197E-03    -16.5739E-03     8.93384E-03     1.25696E+06    -1.64874E+06    -142.944E+06     1.22840E+06    -142.915E+06    -1.64874E+06     1.63650E+06         22.8797
            1267     7.87049E-03     61.8270E-03         2.94287         2.83007        -5.53197         2.35152        -5.05342         2.94287         3.88092     33.4907E-03    -16.5324E-03    -16.9584E-03    -16.4835E-03     33.0158E-03    -16.5324E-03     9.73936E-03     2.07042E+06    -2.81834E+06    -126.415E+06     2.05091E+06    -126.395E+06    -2.81834E+06     242.590E+03         23.0490
            1268     8.85450E-03     61.8368E-03         2.86229         2.34008        -4.94119         2.08836        -4.68947         2.86229         1.83144     33.3940E-03    -16.4865E-03    -16.9075E-03    -16.3736E-03     32.8601E-03    -16.4865E-03     10.3038E-03     1.89537E+06    -4.00788E+06    -109.010E+06     1.88960E+06    -109.004E+06    -4.00788E+06    -294.742E+03         23.2833
            1269     9.83827E-03     61.8467E-03         2.77179         2.04142        -4.53598         1.83650        -4.33106         2.77179        -1.71293     33.3177E-03    -16.4160E-03    -16.9017E-03    -16.2391E-03     32.6551E-03    -16.4160E-03     11.4293E-03     923.243E+03    -7.77574E+06    -86.9049E+06     917.291E+03    -86.8989E+06    -7.77574E+06     301.762E+03         23.6566
            1270     10.8226E-03     61.8588E-03         2.67563         1.87755        -4.25913         1.60809        -3.98967         2.67563        -2.44109     33.1034E-03    -16.3022E-03    -16.8011E-03    -16.1124E-03     32.4146E-03    -16.3022E-03     11.6301E-03    -1.35073E+06    -19.9318E+06    -65.3176E+06    -1.35677E+06    -65.3116E+06    -19.9318E+06     269.799E+03         24.3678
            1271     11.8071E-03     61.8696E-03         2.57616         1.44390        -3.70737         1.37698        -3.64045         2.57616    -738.524E-03     32.9308E-03    -16.2061E-03    -16.7247E-03    -16.0399E-03     32.2460E-03    -16.2061E-03     11.5679E-03    -3.03844E+06    -19.3679E+06    -41.3619E+06    -3.61742E+06    -33.0189E+06    -27.1319E+06     1.43485E+06         25.8794
            1272     12.7911E-03     61.8817E-03         2.47111         1.12715        -3.26712         1.07216        -3.21213         2.47111    -546.981E-03     33.1887E-03    -16.1095E-03    -17.0792E-03    -15.7821E-03     31.8916E-03    -16.1095E-03     15.5619E-03     19.0204E+06    -8.32711E+06    -32.0040E+06    -5.21378E+06     15.9070E+06    -32.0040E+06     3.00148E+06         29.0649
            1273     13.7760E-03     61.9007E-03         2.35817         1.08645        -3.09865     754.162E-03        -2.76637         2.35817        -2.09376     33.7592E-03    -15.9391E-03    -17.8201E-03    -15.4002E-03     31.3393E-03    -15.9391E-03     21.6541E-03     58.0545E+06    -8.49675E+06    -56.0478E+06    -8.31184E+06     57.8696E+06    -56.0478E+06     3.05722E+06         35.1178
            1274     14.7618E-03     61.9260E-03         2.23887     974.761E-03        -2.85269     507.608E-03        -2.38554         2.23887        -2.50098     49.7931E-03    -15.9674E-03    -33.8257E-03    -16.5233E-03     32.4907E-03    -15.9674E-03     63.4704E-03     98.4785E+06    -12.0640E+06    -48.9419E+06    -11.9876E+06     98.4021E+06    -48.9419E+06     1.36122E+06         44.8106
            1275     15.7458E-03     62.0309E-03         2.10596     448.825E-03        -2.16364     255.320E-03        -1.97014         2.10596        -1.19512     141.214E-03    -16.2762E-03    -124.938E-03    -28.9358E-03     45.2120E-03    -16.2762E-03     254.311E-03     151.806E+06     25.3515E+06    -16.2905E+06    -11.0272E+06     151.783E+06     20.1117E+06    -895.410E+03         57.1239
            1276     16.7368E-03     62.4673E-03         1.94551    -51.7171E-03        -1.44941    -64.1630E-03        -1.43697         1.94551    -20.8505E-03     251.752E-03    -16.6149E-03    -235.137E-03    -51.9792E-03     68.5941E-03    -16.6149E-03     471.609E-03     198.155E+06     94.8265E+06    -6.75001E+06    -6.73511E+06     198.140E+06     94.8265E+06    -923.412E+03         68.3768
            1277     983.983E-06     62.8186E-03         7.05039    -443.245E-03        -6.37990         6.83207        -6.16158    -443.245E-03    -894.027E-03     33.2417E-03    -16.5595E-03    -16.6823E-03    -16.6096E-03     33.2272E-03    -16.6176E-03     1.59961E-03    -246.064E+03    -4.11106E+06    -184.169E+06    -2.05267E+06    -184.163E+06    -2.31082E+06     293.201E+03         22.4360
            1278     1.96762E-03     62.8209E-03         3.70024         3.19801        -6.64345         3.21165        -6.15487         3.19801     577.822E-03     33.3227E-03    -16.5795E-03    -16.7432E-03    -16.6450E-03     33.2763E-03    -16.6314E-03     2.94899E-03     1.06849E+06    -1.19750E+06    -181.830E+06    -667.397E+03    -181.823E+06     532.119E+03     701.896E+03         22.4591
            1279     2.95137E-03     62.8246E-03         3.70902         3.17920        -6.60121         3.04642        -5.93861         3.17920         5.04409     33.3283E-03    -16.6078E-03    -16.7205E-03    -16.5952E-03     33.2274E-03    -16.6323E-03     4.42840E-03     1.97808E+06    -189.162E+03    -177.565E+06     99.2674E+03    -177.536E+06     1.66054E+06     1.88088E+06         22.4991
            1280     3.93542E-03     62.8297E-03         3.43740         3.12700        -6.27300         2.88867        -5.72427         3.12700         4.44893     33.2637E-03    -16.5785E-03    -16.6852E-03    -16.4964E-03     33.0994E-03    -16.6030E-03     5.69092E-03     2.98177E+06     902.949E+03    -168.854E+06     1.56129E+06    -168.828E+06     2.29757E+06     1.50096E+06         22.5578
            1281     4.91905E-03     62.8354E-03         3.10457         2.88610        -5.69664         2.72298        -5.49171         3.06276         2.21678     33.2430E-03    -16.5589E-03    -16.6840E-03    -16.4557E-03     33.0146E-03    -16.5589E-03     6.72007E-03     1.75647E+06    -46.6315E+03    -160.857E+06     1.07123E+06    -160.840E+06     621.031E+03     729.242E+03         22.6371
            1282     5.90340E-03     62.8425E-03         2.99306         2.63314        -5.32671         2.57244        -5.26600         2.99306         1.26163     33.3059E-03    -16.5224E-03    -16.7835E-03    -16.4714E-03     32.9939E-03    -16.5224E-03     7.85657E-03     45.8966E+03    -2.01140E+06    -154.227E+06    -286.924E+03    -154.209E+06    -1.69655E+06     400.633E+03         22.7399
            1283     6.88717E-03     62.8508E-03         2.92227         2.72216        -5.32852         2.43428        -5.04064         2.92227         2.81636     33.3863E-03    -16.4870E-03    -16.8993E-03    -16.4983E-03     32.9853E-03    -16.4870E-03     8.93530E-03     83.7267E+03    -3.64839E+06    -142.516E+06     68.9126E+03    -142.501E+06    -3.64839E+06    -635.451E+03         22.8710
            1284     7.87100E-03     62.8599E-03         2.84925         2.73705        -5.25082         2.25553        -4.76930         2.84925         3.79924     33.3251E-03    -16.4521E-03    -16.8730E-03    -16.4138E-03     32.8660E-03    -16.4521E-03     9.55479E-03     596.356E+03    -4.37793E+06    -126.510E+06     577.626E+03    -126.491E+06    -4.37793E+06    -235.709E+03         23.0406
            1285     8.85516E-03     62.8693E-03         2.76734         2.23021        -4.64376         1.98182        -4.39537         2.76734         1.73281     33.2611E-03    -16.4159E-03    -16.8452E-03    -16.3276E-03     32.7436E-03    -16.4159E-03     10.1237E-03    -220.499E+03    -4.48535E+06    -109.282E+06    -228.463E+03    -109.274E+06    -4.48535E+06     582.288E+03         23.2743
            1286     9.83937E-03     62.8797E-03         2.67431         1.94078        -4.24646         1.71144        -4.01713         2.67431        -1.78567     33.2863E-03    -16.3520E-03    -16.9342E-03    -16.2993E-03     32.6513E-03    -16.3520E-03     11.1955E-03    -1.43226E+06    -8.81768E+06    -87.4962E+06    -1.43856E+06    -87.4900E+06    -8.81768E+06     608.722E+03         23.6444
            1287     10.8232E-03     62.8913E-03         2.57411         1.76153        -3.95012         1.45810        -3.64669         2.57411        -2.49946     33.1456E-03    -16.2561E-03    -16.8895E-03    -16.2207E-03     32.4768E-03    -16.2561E-03     11.4812E-03    -2.60282E+06    -19.7987E+06    -65.4376E+06    -2.62332E+06    -65.4171E+06    -19.7987E+06     946.307E+03         24.3459
            1288     11.8071E-03     62.9023E-03         2.46937         1.28428        -3.34767         1.20649        -3.26988         2.46937    -750.263E-03     32.9167E-03    -16.1467E-03    -16.7700E-03    -16.0860E-03     32.2327E-03    -16.1467E-03     11.5663E-03    -4.01342E+06    -20.0951E+06    -46.0725E+06    -4.28792E+06    -34.2128E+06    -31.6803E+06     894.779E+03         25.8379
            1289     12.7917E-03     62.9143E-03         2.36083         1.00099        -2.93348     950.746E-03        -2.88323         2.36083    -476.004E-03     33.2066E-03    -16.0559E-03    -17.1507E-03    -15.9013E-03     31.9573E-03    -16.0559E-03     15.3371E-03     17.4112E+06    -10.0178E+06    -37.4630E+06    -5.87474E+06     13.2682E+06    -37.4630E+06     2.40979E+06         28.9965
            1290     13.7760E-03     62.9332E-03         2.24852         1.02942        -2.82874     686.797E-03        -2.48612         2.24852        -2.01112     33.8572E-03    -15.9114E-03    -17.9457E-03    -15.6849E-03     31.5963E-03    -15.9114E-03     21.0338E-03     58.4561E+06    -7.78016E+06    -58.3264E+06    -7.53378E+06     58.2097E+06    -58.3264E+06     3.54887E+06         35.0319
            1291     14.7607E-03     62.9575E-03         2.12986     906.824E-03        -2.56639     403.151E-03        -2.06272         2.12986        -2.44122     49.9450E-03    -15.9603E-03    -33.9847E-03    -16.6270E-03     32.5873E-03    -15.9603E-03     63.3542E-03     102.277E+06    -8.54936E+06    -48.1387E+06    -8.46050E+06     102.188E+06    -48.1387E+06     288.261E+03         44.7489
            1292     15.7460E-03     63.0659E-03         1.99208     308.443E-03        -1.79661     93.8210E-03        -1.58199         1.99208        -1.12837     137.794E-03    -16.3115E-03    -121.483E-03    -28.3173E-03     44.6288E-03    -16.3115E-03     247.568E-03     154.744E+06     29.4224E+06    -13.3711E+06    -8.44137E+06     154.717E+06     24.5193E+06    -1.76184E+06         57.1390
            1293     16.7392E-03     63.4858E-03         1.82097    -173.283E-03        -1.06592    -204.787E-03        -1.03442         1.82097     19.3173E-03     251.069E-03    -16.6393E-03    -234.429E-03    -51.9768E-03     68.6161E-03    -16.6393E-03     470.165E-03     197.000E+06     91.4382E+06    -7.23551E+06    -7.22371E+06     196.988E+06     91.4382E+06    -474.191E+03         68.5019
            1294     983.333E-06     63.8510E-03         6.81036    -495.882E-03        -6.02382         6.67606        -5.88953    -495.882E-03        -1.75165     33.2593E-03    -16.5744E-03    -16.6849E-03    -16.5936E-03     33.2425E-03    -16.6489E-03     1.63616E-03     804.073E+03    -3.67019E+06    -183.149E+06    -1.75045E+06    -183.140E+06    -1.12459E+06    -733.924E+03         22.4238
            1295     1.96771E-03     63.8538E-03         3.35409         3.07556        -6.10284         3.01946        -5.76821         3.07556     462.195E-03     33.1065E-03    -16.4878E-03    -16.6187E-03    -16.4587E-03     33.0546E-03    -16.5958E-03     3.12092E-03     503.847E+03    -2.77754E+06    -183.672E+06    -1.44604E+06    -183.671E+06    -829.000E+03     359.167E+03         22.4474
            1296     2.95155E-03     63.8574E-03         3.46243         3.03549        -6.13582         2.88491        -5.55830         3.03549         4.52543     33.0382E-03    -16.4565E-03    -16.5817E-03    -16.4150E-03     32.9348E-03    -16.5198E-03     4.47339E-03    -149.885E+03    -3.61538E+06    -177.804E+06    -440.369E+03    -177.795E+06    -3.33393E+06    -37.4823E+03         22.4883
            1297     3.93568E-03     63.8622E-03         3.28919         2.98268        -5.89811         2.76991        -5.37883         2.98268         4.17208     33.0324E-03    -16.4554E-03    -16.5770E-03    -16.3874E-03     32.8674E-03    -16.4799E-03     5.68348E-03     1.18360E+06    -2.23054E+06    -168.857E+06     508.974E+03    -168.842E+06    -1.57063E+06     430.285E+03         22.5481
            1298     4.91998E-03     63.8683E-03         2.93803         2.75225        -5.30885         2.60435        -5.14594         2.92302         1.92164     33.1665E-03    -16.4757E-03    -16.6908E-03    -16.4610E-03     32.9367E-03    -16.4757E-03     6.73782E-03     2.81558E+06     556.026E+03    -161.926E+06     902.691E+03    -161.906E+06     2.44893E+06     1.63652E+06         22.6286
            1299     5.90344E-03     63.8751E-03         2.85463         2.48483        -4.94667         2.43150        -4.89335         2.85463         1.13710     33.2937E-03    -16.4666E-03    -16.8272E-03    -16.5148E-03     32.9813E-03    -16.4666E-03     7.86360E-03     2.98659E+06     1.18815E+06    -153.037E+06     1.42338E+06    -153.020E+06     2.73438E+06     917.849E+03         22.7323
            1300     6.88759E-03     63.8836E-03         2.77963         2.54005        -4.90936         2.24232        -4.61162         2.77963         2.70841     33.2766E-03    -16.4368E-03    -16.8398E-03    -16.4483E-03     32.8851E-03    -16.4368E-03     8.81675E-03     890.392E+03    -1.16890E+06    -141.646E+06     446.953E+03    -141.628E+06    -743.438E+03    -290.421E+03         22.8640
            1301     7.87166E-03     63.8926E-03         2.70014         2.57373        -4.84402         2.06648        -4.33677         2.70014         3.74026     33.2328E-03    -16.3981E-03    -16.8348E-03    -16.3927E-03     32.7908E-03    -16.3981E-03     9.36326E-03    -1.14913E+06    -4.46066E+06    -128.091E+06    -1.28596E+06    -128.066E+06    -4.34844E+06    -189.677E+03         23.0341
            1302     8.85552E-03     63.9020E-03         2.61735         2.12944        -4.30085         1.86949        -4.04091         2.61735         1.64082     33.2281E-03    -16.3669E-03    -16.8613E-03    -16.3579E-03     32.7247E-03    -16.3669E-03     9.98422E-03    -1.30626E+06    -4.28567E+06    -109.167E+06    -1.31762E+06    -109.155E+06    -4.28567E+06     332.821E+03         23.2676
            1303     9.83940E-03     63.9124E-03         2.52856         1.87313        -3.94297         1.61900        -3.68885         2.52856        -1.86027     33.2277E-03    -16.3147E-03    -16.9130E-03    -16.2999E-03     32.6146E-03    -16.3147E-03     11.0021E-03    -802.975E+03    -7.35159E+06    -87.7892E+06    -804.908E+03    -87.7873E+06    -7.35159E+06     349.142E+03         23.6349
            1304     10.8236E-03     63.9241E-03         2.43070         1.65678        -3.61295         1.31833        -3.27450         2.43070        -2.53049     33.1359E-03    -16.2258E-03    -16.9102E-03    -16.2604E-03     32.4862E-03    -16.2258E-03     11.3249E-03    -1.31315E+06    -18.0563E+06    -66.3912E+06    -1.33236E+06    -66.3720E+06    -18.0563E+06     815.816E+03         24.3271
            1305     11.8079E-03     63.9350E-03         2.32513         1.13766        -2.96612         1.04880        -2.87726         2.32513    -818.089E-03     32.9550E-03    -16.1283E-03    -16.8267E-03    -16.1577E-03     32.2860E-03    -16.1283E-03     11.4522E-03    -2.90115E+06    -19.5055E+06    -43.8435E+06    -3.18582E+06    -34.2155E+06    -28.8489E+06     1.22441E+06         25.8002
            1306     12.7918E-03     63.9470E-03         2.21708     906.339E-03        -2.60051     846.773E-03        -2.54094         2.21708    -554.011E-03     33.3271E-03    -16.0309E-03    -17.2961E-03    -16.0548E-03     32.0858E-03    -16.0309E-03     15.3085E-03     16.6829E+06    -10.5802E+06    -38.5586E+06    -5.47146E+06     11.5741E+06    -38.5586E+06     1.15586E+06         28.9325
            1307     13.7763E-03     63.9662E-03         2.10807         1.01607        -2.57545     613.890E-03        -2.17327         2.10807        -2.07270     34.1971E-03    -15.8977E-03    -18.2994E-03    -16.0347E-03     31.9323E-03    -15.8977E-03     21.2071E-03     59.5486E+06    -6.02576E+06    -59.6070E+06    -5.86855E+06     59.3914E+06    -59.6070E+06     305.970E+03         34.9502
            1308     14.7602E-03     63.9907E-03         1.99150     891.717E-03        -2.30803     299.643E-03        -1.71596         1.99150        -2.47591     50.2714E-03    -15.9838E-03    -34.2876E-03    -16.8791E-03     32.8629E-03    -15.9838E-03     63.6183E-03     104.685E+06    -7.14474E+06    -45.8657E+06    -7.08630E+06     104.627E+06    -45.8657E+06    -333.143E+03         44.6901
            1309     15.7459E-03     64.0977E-03         1.85106     251.539E-03        -1.48309    -14.2271E-03        -1.21733         1.85106        -1.17109     138.590E-03    -16.4394E-03    -122.151E-03    -31.4052E-03     47.8446E-03    -16.4394E-03     247.489E-03     154.014E+06     28.6620E+06    -13.9365E+06    -10.1057E+06     153.957E+06     24.8873E+06     955.204E+03         57.1465
            1310     16.7184E-03     64.5172E-03         1.67168    -178.480E-03    -780.577E-03    -296.119E-03    -662.938E-03         1.67168    -30.6859E-03     251.171E-03    -16.8129E-03    -234.358E-03    -51.1788E-03     67.9917E-03    -16.8129E-03     470.589E-03     197.176E+06     87.1911E+06    -5.96804E+06    -5.93280E+06     197.141E+06     87.1911E+06     1.10442E+06         68.6373
            1311     984.313E-06     64.8843E-03         6.53086    -779.164E-03        -5.37915         6.38197        -5.23026    -779.164E-03        -2.44181     32.9232E-03    -16.3992E-03    -16.5240E-03    -16.4877E-03     32.9044E-03    -16.4167E-03     1.77138E-03     2.11863E+06    -2.47109E+06    -182.996E+06    -827.726E+03    -182.988E+06     467.065E+03    -459.745E+03         22.4133
            1312     1.96773E-03     64.8860E-03         2.91113         2.77685        -5.29186         2.68366        -5.06439         2.77685     703.724E-03     32.9395E-03    -16.3998E-03    -16.5397E-03    -16.4307E-03     32.8867E-03    -16.4560E-03     3.14681E-03     2.16941E+06    -677.417E+03    -183.337E+06     494.328E+03    -183.330E+06     989.677E+03    -492.754E+03         22.4376
            1313     2.95225E-03     64.8898E-03         3.23548         2.73865        -5.53368         2.65667        -4.95488         2.73865         4.26540     32.8622E-03    -16.3731E-03    -16.4891E-03    -16.3477E-03     32.7596E-03    -16.4119E-03     4.44970E-03     693.824E+03    -2.45795E+06    -177.385E+06     517.013E+03    -177.370E+06    -2.29666E+06    -891.032E+03         22.4793
            1314     3.93614E-03     64.8946E-03         3.20234         2.71682        -5.46373         2.66377        -4.92516         2.71682         4.04719     32.9187E-03    -16.3891E-03    -16.5296E-03    -16.3667E-03     32.7558E-03    -16.3891E-03     5.63756E-03     728.260E+03    -2.27404E+06    -169.965E+06    -216.421E+03    -169.952E+06    -1.34177E+06    -128.920E+03         22.5404
            1315     4.92001E-03     64.9007E-03         2.76839         2.59349        -4.89204         2.53152        -4.75410         2.69241         1.76774     33.0767E-03    -16.4030E-03    -16.6737E-03    -16.4369E-03     32.8400E-03    -16.4030E-03     6.82146E-03     3.54946E+06     912.702E+03    -162.695E+06     906.728E+03    -162.689E+06     3.54946E+06     515.143E+03         22.6220
            1316     5.90428E-03     64.9081E-03         2.64762         2.37663        -4.53979         2.32432        -4.48748         2.64762         1.11253     33.2884E-03    -16.4162E-03    -16.8722E-03    -16.5609E-03     32.9771E-03    -16.4162E-03     7.86381E-03     5.54963E+06     1.89549E+06    -153.165E+06     1.88947E+06    -153.159E+06     5.54963E+06     900.448E+03         22.7267
            1317     6.88786E-03     64.9162E-03         2.58118         2.37574        -4.45437         2.05392        -4.13255         2.58118         2.64308     33.2814E-03    -16.4106E-03    -16.8708E-03    -16.5036E-03     32.9142E-03    -16.4106E-03     8.54279E-03     3.77464E+06     1.79512E+06    -141.591E+06     1.77963E+06    -141.575E+06     3.77464E+06     1.42886E+06         22.8593
            1318     7.87185E-03     64.9252E-03         2.50035         2.37483        -4.35436         1.84115        -3.82069         2.50035         3.63330     33.2049E-03    -16.3717E-03    -16.8332E-03    -16.4045E-03     32.7763E-03    -16.3717E-03     9.21260E-03     1.56655E+06    -1.41936E+06    -127.465E+06     1.36138E+06    -127.451E+06    -1.22820E+06     501.954E+03         23.0299
            1319     8.85589E-03     64.9348E-03         2.41736         1.96330        -3.84606         1.70281        -3.58557         2.41736         1.50799     33.1834E-03    -16.3307E-03    -16.8526E-03    -16.3621E-03     32.6928E-03    -16.3307E-03     9.85377E-03     646.994E+03    -4.35513E+06    -109.733E+06     640.939E+03    -109.727E+06    -4.35513E+06     24.7044E+03         23.2632
            1320     9.83998E-03     64.9451E-03         2.33321         1.78348        -3.57121         1.48937        -3.27710         2.33321        -1.92946     33.2132E-03    -16.2871E-03    -16.9261E-03    -16.3183E-03     32.6054E-03    -16.2871E-03     10.9375E-03    -886.119E+03    -7.08588E+06    -88.1924E+06    -894.728E+03    -88.1838E+06    -7.08588E+06     682.325E+03         23.6275
            1321     10.8240E-03     64.9567E-03         2.24066         1.58052        -3.26047         1.18483        -2.86478         2.24066        -2.60416     33.1971E-03    -16.2068E-03    -16.9903E-03    -16.3609E-03     32.5677E-03    -16.2068E-03     11.1489E-03    -2.62993E+06    -18.0557E+06    -66.7748E+06    -2.64195E+06    -66.7628E+06    -18.0557E+06     733.772E+03         24.3105
            1322     11.8077E-03     64.9678E-03         2.13927         1.02150        -2.57639     913.834E-03        -2.46872         2.13927    -939.161E-03     33.0289E-03    -16.1272E-03    -16.9017E-03    -16.2854E-03     32.4126E-03    -16.1272E-03     11.0089E-03    -3.51778E+06    -19.5433E+06    -42.7475E+06    -3.78337E+06    -34.5767E+06    -27.4485E+06     1.03393E+06         25.7644
            1323     12.7922E-03     64.9797E-03         2.03412     797.805E-03        -2.21931     698.830E-03        -2.12033         2.03412    -750.444E-03     33.4031E-03    -16.0267E-03    -17.3764E-03    -16.1748E-03     32.2015E-03    -16.0267E-03     15.0564E-03     17.9915E+06    -8.30241E+06    -38.3846E+06    -3.88251E+06     13.5716E+06    -38.3846E+06    -709.547E+03         28.8692
            1324     13.7760E-03     64.9994E-03         1.92746         1.00478        -2.28847     484.082E-03        -1.76777         1.92746        -2.25216     34.1564E-03    -15.8913E-03    -18.2652E-03    -16.0407E-03     31.9319E-03    -15.8913E-03     21.0021E-03     59.9213E+06    -6.48084E+06    -61.7523E+06    -6.37051E+06     59.8109E+06    -61.7523E+06    -2.16457E+06         34.8693
            1325     14.7608E-03     65.0236E-03         1.81443     965.539E-03        -2.10413     227.974E-03        -1.36656         1.81443        -2.61360     50.4671E-03    -15.9971E-03    -34.4700E-03    -17.1188E-03     33.1160E-03    -15.9971E-03     63.7843E-03     102.145E+06    -11.3161E+06    -47.7051E+06    -11.2589E+06     102.087E+06    -47.7051E+06     699.509E+03         44.6353
            1326     15.7443E-03     65.1316E-03         1.67509     302.874E-03        -1.24922    -60.1570E-03    -886.186E-03         1.67509        -1.28752     141.996E-03    -16.3934E-03    -125.602E-03    -30.8661E-03     47.2594E-03    -16.3934E-03     254.719E-03     152.255E+06     24.6603E+06    -14.6982E+06    -11.3423E+06     152.193E+06     21.3658E+06     2.60940E+06         57.2053
            1327     16.7308E-03     65.5673E-03         1.49045    -74.0853E-03    -612.175E-03    -349.906E-03    -336.354E-03         1.49045    -119.711E-03     252.443E-03    -16.7307E-03    -235.712E-03    -51.1121E-03     67.8429E-03    -16.7307E-03     473.308E-03     198.272E+06     90.0356E+06    -5.29927E+06    -5.26733E+06      198.24E+06     90.0356E+06     994.275E+03         68.8314
            1328     984.142E-06     65.9165E-03         6.34786        -1.11866        -4.77878         6.05084        -4.48176        -1.11866        -2.94684     32.5460E-03    -16.1728E-03    -16.3732E-03    -16.3525E-03     32.5286E-03    -16.1762E-03     1.77472E-03     1.42252E+06    -1.76683E+06    -182.623E+06    -988.046E+03    -182.619E+06     640.508E+03    -298.766E+03         22.4050
            1329     1.96851E-03     65.9187E-03         2.57024         2.45438        -4.55046         2.41243        -4.39264         2.45438         1.25241     32.7609E-03    -16.3027E-03    -16.4582E-03    -16.4076E-03     32.7137E-03    -16.3061E-03     2.96343E-03     2.88020E+06     522.686E+03    -180.983E+06     890.725E+03    -180.968E+06     2.49694E+06    -1.40766E+06         22.4300
            1330     2.95208E-03     65.9219E-03         3.04701         2.43105        -4.96048         2.36002        -4.27348         2.43105         4.30480     32.8237E-03    -16.3420E-03    -16.4817E-03    -16.3854E-03     32.7274E-03    -16.3420E-03     4.30615E-03     3.05217E+06     1.46737E+06    -178.383E+06     1.57542E+06    -178.367E+06     2.92819E+06    -490.746E+03         22.4727
            1331     3.93642E-03     65.9271E-03         3.08444         2.41738        -4.96105         2.41387        -4.29048         2.41738         4.23129     32.8674E-03    -16.3377E-03    -16.5297E-03    -16.3702E-03     32.7079E-03    -16.3377E-03     5.56988E-03     2.27748E+06     1.12406E+06    -170.531E+06     1.53803E+06    -170.525E+06     1.85797E+06     557.639E+03         22.5347
            1332     4.92058E-03     65.9330E-03         2.52743         2.35754        -4.32789         2.33327        -4.18387         2.40769         1.76623     33.0756E-03    -16.3456E-03    -16.7300E-03    -16.4947E-03     32.8404E-03    -16.3456E-03     6.80417E-03     2.04667E+06     127.780E+03    -162.732E+06     545.119E+03    -162.730E+06     1.62716E+06     152.232E+03         22.6173
            1333     5.90421E-03     65.9408E-03         2.37662         2.17323        -3.97549         2.11927        -3.92153         2.37662         1.10416     33.2082E-03    -16.3737E-03    -16.8345E-03    -16.5335E-03     32.9072E-03    -16.3737E-03     7.72940E-03     3.73434E+06     680.503E+03    -154.234E+06     676.666E+03    -154.230E+06     3.73434E+06     632.801E+03         22.7229
            1334     6.88808E-03     65.9491E-03         2.35801         2.16164        -3.92883         1.85554        -3.58438         2.31965         2.54969     33.2214E-03    -16.3710E-03    -16.8505E-03    -16.4920E-03     32.8630E-03    -16.3710E-03     8.43380E-03     4.41193E+06     1.30306E+06    -141.452E+06     2.64809E+06    -141.433E+06     3.04751E+06     497.263E+03         22.8562
            1335     7.87201E-03     65.9576E-03         2.28503         2.16437        -3.84340         1.64912        -3.28979         2.24667         3.48353     33.2325E-03    -16.3397E-03    -16.8928E-03    -16.4592E-03     32.7989E-03    -16.3397E-03     9.27118E-03     3.95745E+06    -1.17606E+06    -127.208E+06     3.83785E+06    -127.167E+06    -1.09713E+06     877.514E+03         23.0272
            1336     8.85594E-03     65.9677E-03         2.16840         1.73835        -3.28876         1.47840        -3.02881         2.16840         1.29890     33.1892E-03    -16.3073E-03    -16.8819E-03    -16.4030E-03     32.7103E-03    -16.3073E-03     9.74580E-03     2.25650E+06    -4.62951E+06    -110.868E+06     2.22671E+06    -110.838E+06    -4.62951E+06     1.37948E+06         23.2600
            1337     9.84004E-03     65.9773E-03         2.08763         1.64512        -3.10493         1.29472        -2.75454         2.08763        -2.04202     33.3101E-03    -16.2705E-03    -17.0396E-03    -16.4465E-03     32.7170E-03    -16.2705E-03     10.8175E-03     241.566E+03    -7.93972E+06    -89.1332E+06     211.714E+03    -89.1033E+06    -7.93972E+06     1.44433E+06         23.6208
            1338     10.8238E-03     65.9901E-03         2.00193         1.52563        -2.88309         1.05303        -2.41049         2.00193        -2.68606     33.3531E-03    -16.2059E-03    -17.1472E-03    -16.5393E-03     32.7452E-03    -16.2059E-03     10.9790E-03    -1.46704E+06    -18.0882E+06    -65.8122E+06    -1.49432E+06    -65.7849E+06    -18.0882E+06     1.14373E+06         24.2938
            1339     11.8077E-03     66.0004E-03         1.90889     916.257E-03        -2.15762     779.611E-03        -2.02097         1.90889        -1.05688     33.1880E-03    -16.1263E-03    -17.0617E-03    -16.4710E-03     32.5973E-03    -16.1263E-03     10.8052E-03    -2.50792E+06    -18.6621E+06    -45.5165E+06    -2.70728E+06    -33.7096E+06    -30.2695E+06    -620.024E+03         25.7271
            1340     12.7913E-03     66.0130E-03         1.80947     684.823E-03        -1.79621     533.442E-03        -1.64483         1.80947    -905.879E-03     33.4636E-03    -16.0343E-03    -17.4293E-03    -16.2565E-03     32.2908E-03    -16.0343E-03     14.9077E-03     19.9689E+06    -8.84036E+06    -41.3688E+06    -4.45138E+06     15.5799E+06    -41.3688E+06    -1.91509E+06         28.8026
            1341     13.7758E-03     66.0322E-03         1.70703     998.374E-03        -1.97486     336.800E-03        -1.31329         1.70703        -2.37354     34.0686E-03    -15.9165E-03    -18.1521E-03    -16.0028E-03     31.9193E-03    -15.9165E-03     20.6224E-03     58.6265E+06    -8.83074E+06    -62.8932E+06    -8.75797E+06     58.5538E+06    -62.8932E+06    -908.072E+03         34.7827
            1342     14.7600E-03     66.0565E-03         1.59929         1.05664        -1.88849     140.130E-03    -971.974E-03         1.59929        -2.71134     50.5607E-03    -15.9984E-03    -34.5623E-03    -16.8184E-03     32.8169E-03    -15.9984E-03     64.1852E-03     99.0054E+06    -11.2062E+06    -50.7176E+06    -11.1752E+06     98.9744E+06    -50.7176E+06     635.279E+03         44.5771
            1343     15.7452E-03     66.1661E-03         1.46398     398.621E-03        -1.05026    -102.578E-03    -549.062E-03         1.46398        -1.35703     140.034E-03    -16.3011E-03    -123.733E-03    -27.4818E-03     43.7829E-03    -16.3011E-03     252.674E-03     153.635E+06     28.6388E+06    -14.7889E+06    -8.39278E+06     153.609E+06     22.2689E+06     253.737E+03         57.2635
            1344     16.7403E-03     66.5926E-03         1.27829     104.582E-03    -513.739E-03    -374.469E-03    -34.6881E-03         1.27829    -147.007E-03     252.246E-03    -16.5953E-03    -235.651E-03    -51.7499E-03     68.3453E-03    -16.5953E-03     472.765E-03     198.877E+06     95.6214E+06    -6.67459E+06    -6.67173E+06     198.874E+06     95.6214E+06    -93.1428E+03         69.0067
            1345     984.292E-06     66.9485E-03         6.34873        -1.36139        -4.45622         5.73214        -3.77697        -1.42405        -3.59652     32.4665E-03    -16.1546E-03    -16.3119E-03    -16.2659E-03     32.4507E-03    -16.1849E-03     1.64980E-03     1.87229E+06    -1.56742E+06    -181.703E+06    -1.05062E+06    -181.697E+06     1.34956E+06    -876.782E+03         22.3991
            1346     1.96836E-03     66.9508E-03         2.28787         2.15441        -3.88181         2.16023        -3.75417         2.15441         1.57328     32.5634E-03    -16.2356E-03    -16.3278E-03    -16.2596E-03     32.5177E-03    -16.2580E-03     2.91147E-03     4.31292E+06    -298.393E+03    -180.406E+06    -316.255E+03    -180.388E+06     4.31292E+06    -311.470E+03         22.4248
            1347     2.95265E-03     66.9546E-03         2.88418         2.14583        -4.42851         2.09206        -3.63639         2.14583         4.22498     32.7269E-03    -16.2548E-03    -16.4722E-03    -16.3572E-03     32.6311E-03    -16.2739E-03     4.28275E-03     2.69979E+06    -147.106E+03    -178.988E+06    -118.221E+03    -178.965E+06     2.64766E+06     69.3995E+03         22.4683
            1348     3.93652E-03     66.9590E-03         2.83171         2.10274        -4.31052         1.99749        -3.49361         2.12005         4.30699     32.9525E-03    -16.2904E-03    -16.6621E-03    -16.4972E-03     32.7876E-03    -16.2904E-03     5.67154E-03     1.04712E+06    -364.240E+03    -171.392E+06     570.758E+03    -171.378E+06     97.3182E+03     490.636E+03         22.5310
            1349     4.92036E-03     66.9659E-03         2.13618         1.98793        -3.47849         1.89028        -3.32799         2.08333         1.65543     33.1168E-03    -16.3209E-03    -16.7959E-03    -16.5627E-03     32.8836E-03    -16.3209E-03     6.79297E-03     1.33482E+06    -1.00746E+06    -162.409E+06     888.284E+03    -162.403E+06    -566.787E+03     620.877E+03         22.6141
            1350     5.90418E-03     66.9733E-03         2.04079         1.84752        -3.22831         1.79322        -3.17401         2.04079         1.03018     33.0939E-03    -16.3397E-03    -16.7542E-03    -16.4601E-03     32.7998E-03    -16.3397E-03     7.62305E-03     2.66780E+06    -654.130E+03    -153.331E+06     2.01629E+06    -153.311E+06    -23.0591E+03    -704.427E+03         22.7202
            1351     6.88851E-03     66.9814E-03         2.12190         1.87753        -3.32492         1.64875        -2.96694         1.99270         2.38891     33.1089E-03    -16.3346E-03    -16.7743E-03    -16.4163E-03     32.7509E-03    -16.3346E-03     8.41273E-03     3.03766E+06    -446.551E+03    -141.933E+06     2.56764E+06    -141.895E+06    -13.6855E+03    -641.386E+03         22.8541
            1352     7.87230E-03     66.9906E-03         2.08213         1.90582        -3.30300         1.46510        -2.71585         1.93569         3.33987     33.1777E-03    -16.3101E-03    -16.8676E-03    -16.4421E-03     32.7522E-03    -16.3101E-03     9.18111E-03     2.23517E+06    -3.42034E+06    -129.271E+06     1.95079E+06    -129.230E+06    -3.17787E+06     804.601E+03         23.0253
            1353     8.85628E-03     67.0000E-03         1.88628         1.52223        -2.71323         1.25471        -2.42847         1.86904         1.14547     33.2875E-03    -16.2849E-03    -17.0026E-03    -16.5102E-03     32.7951E-03    -16.2849E-03     9.89509E-03     2.01483E+06    -5.74282E+06    -110.984E+06     1.98313E+06    -110.952E+06    -5.74282E+06     1.34930E+06         23.2568
            1354     9.83989E-03     67.0106E-03         1.84509         1.46326        -2.60129         1.07669        -2.16529         1.79566        -2.16295     33.5265E-03    -16.2648E-03    -17.2617E-03    -16.6468E-03     32.9116E-03    -16.2648E-03     11.0770E-03     2.22847E+06    -8.45964E+06    -89.7554E+06     2.19928E+06    -89.7262E+06    -8.45964E+06     1.46899E+06         23.6129
            1355     10.8236E-03     67.0229E-03         1.76777         1.42115        -2.46533     883.522E-03        -1.87826         1.71834        -2.76202     33.5068E-03    -16.2183E-03    -17.2885E-03    -16.6686E-03     32.8869E-03    -16.2183E-03     11.1254E-03     1.42861E+06    -17.1064E+06    -64.9560E+06     1.40276E+06    -64.9301E+06    -17.1064E+06     1.11777E+06         24.2746
            1356     11.8072E-03     67.0339E-03         1.63618     832.184E-03        -1.72035     654.370E-03        -1.54254         1.63618        -1.12191     33.2775E-03    -16.1462E-03    -17.1313E-03    -16.5257E-03     32.6719E-03    -16.1462E-03     10.9603E-03    -216.229E+03    -16.7342E+06    -43.2175E+06    -624.531E+03    -30.9187E+06    -28.6247E+06    -1.12184E+06         25.6862
            1357     12.7912E-03     67.0459E-03         1.54841     619.073E-03        -1.39078     427.284E-03        -1.19899         1.54841    -936.733E-03     33.6132E-03    -16.0481E-03    -17.5652E-03    -16.3423E-03     32.3904E-03    -16.0481E-03     15.2252E-03     19.3153E+06    -8.02692E+06    -42.8280E+06    -3.46169E+06     14.7501E+06    -42.8280E+06    -1.78093E+06         28.7311
            1358     13.7750E-03     67.0653E-03         1.48812     988.586E-03        -1.66841     203.949E-03    -851.335E-03         1.45568        -2.38618     34.1469E-03    -15.9372E-03    -18.2098E-03    -16.0404E-03     31.9776E-03    -15.9372E-03     20.7736E-03     56.5669E+06    -6.43018E+06    -63.2986E+06    -6.41634E+06     56.5530E+06    -63.2986E+06    -270.391E+03         34.6895
            1359     14.7597E-03     67.0893E-03         1.38713         1.11252        -1.65829     3.08242E-03    -516.409E-03         1.35469        -2.73277     50.4745E-03    -16.0322E-03    -34.4423E-03    -16.8596E-03     32.8918E-03    -16.0322E-03     63.8474E-03     99.3801E+06    -8.90407E+06    -48.1326E+06    -8.89104E+06     99.3671E+06    -48.1326E+06    -541.220E+03         44.5048
            1360     15.7461E-03     67.1977E-03         1.22480     547.077E-03    -895.847E-03    -176.885E-03    -171.885E-03         1.22480        -1.37310     136.527E-03    -16.4065E-03    -120.120E-03    -28.3339E-03     44.7404E-03    -16.4065E-03     244.846E-03     153.828E+06     29.7687E+06    -15.0176E+06    -9.73629E+06     153.817E+06     24.4979E+06    -489.249E+03         57.2582
            1361     16.7315E-03     67.6139E-03         1.04091     367.707E-03    -478.513E-03    -402.959E-03     292.153E-03         1.04091    -141.795E-03     252.072E-03    -16.7510E-03    -235.321E-03    -51.7857E-03     68.5366E-03    -16.7510E-03     472.228E-03     198.423E+06     95.4244E+06    -7.87274E+06    -7.86761E+06     198.417E+06     95.4244E+06     284.168E+03         69.1137
            1362     984.110E-06     67.9805E-03         6.46271        -1.52847        -4.30897         5.35046        -2.86406        -1.86112        -4.48502     32.4583E-03    -16.2093E-03    -16.2490E-03    -16.2003E-03     32.4409E-03    -16.2405E-03     1.77166E-03     1.50663E+06    -3.04976E+06    -182.227E+06    -2.01086E+06    -182.216E+06     456.546E+03     235.508E+03         22.3960
            1363     1.96839E-03     67.9829E-03         1.96639         1.76437        -3.07944         1.84821        -2.96126         1.76437         1.48383     32.5112E-03    -16.2298E-03    -16.2814E-03    -16.2183E-03     32.4672E-03    -16.2489E-03     2.86183E-03     4.02736E+06    -669.369E+03    -181.725E+06    -688.350E+03    -181.706E+06     4.02736E+06     1.25003E+06         22.4220
            1364     2.95272E-03     67.9863E-03         2.61867         1.77903        -3.71236         1.75149        -2.84518         1.77903         3.84328     32.6983E-03    -16.2357E-03    -16.4626E-03    -16.3496E-03     32.6044E-03    -16.2548E-03     4.23206E-03     2.70777E+06     405.597E+03    -178.045E+06     434.601E+03    -178.022E+06     2.65564E+06     836.980E+03         22.4658
            1365     3.93671E-03     67.9919E-03         2.53539         1.73085        -3.55797         1.57944        -2.62192         1.75076         4.15045     32.9918E-03    -16.2754E-03    -16.7165E-03    -16.5474E-03     32.8227E-03    -16.2754E-03     5.74026E-03     629.249E+03    -1.89528E+06    -172.080E+06     173.848E+03    -172.045E+06    -1.47454E+06    -378.458E+03         22.5287
            1366     4.92025E-03     67.9984E-03         1.69935         1.57209        -2.54371         1.42633        -2.39795         1.69935         1.42851     33.0667E-03    -16.2978E-03    -16.7689E-03    -16.5293E-03     32.8270E-03    -16.2978E-03     6.88375E-03     1.46255E+06    -3.70578E+06    -161.789E+06     1.42920E+06    -161.755E+06    -3.70578E+06    -1.11022E+06         22.6120
            1367     5.90448E-03     68.0057E-03         1.65028         1.47730        -2.38471         1.42500        -2.33242         1.65028     887.733E-03     33.0832E-03    -16.3184E-03    -16.7648E-03    -16.4706E-03     32.7891E-03    -16.3184E-03     7.62719E-03     2.46137E+06    -2.69199E+06    -152.076E+06     2.08048E+06    -152.045E+06    -2.34222E+06    -1.65364E+06         22.7184
            1368     6.88812E-03     68.0140E-03         1.88311         1.54775        -2.67913         1.40487        -2.26652         1.61338         2.27782     33.1007E-03    -16.3343E-03    -16.7664E-03    -16.4152E-03     32.7495E-03    -16.3343E-03     8.33209E-03     2.27127E+06    -480.642E+03    -143.838E+06     1.64996E+06    -143.809E+06     111.602E+03    -507.907E+03         22.8525
            1369     7.87237E-03     68.0230E-03         1.95313         1.57560        -2.76882         1.26385        -2.07955         1.57560         3.31641     33.1468E-03    -16.3098E-03    -16.8369E-03    -16.4199E-03     32.7297E-03    -16.3098E-03     9.08427E-03     2.07656E+06    -2.61800E+06    -129.932E+06     1.82402E+06    -129.922E+06    -2.37553E+06     222.912E+03         23.0234
            1370     8.85633E-03     68.0328E-03         1.63404         1.27675        -2.14142         1.05226        -1.80913         1.52624         1.11500     33.3302E-03    -16.2799E-03    -17.0503E-03    -16.5553E-03     32.8352E-03    -16.2799E-03     9.92872E-03     2.24974E+06    -5.70868E+06    -110.498E+06     2.24286E+06    -110.491E+06    -5.70868E+06    -158.867E+03         23.2527
            1371     9.84011E-03     68.0438E-03         1.65355         1.21523        -2.08644     836.053E-03        -1.51844         1.46472        -2.22178     33.5506E-03    -16.2643E-03    -17.2863E-03    -16.6536E-03     32.9180E-03    -16.2643E-03     11.2374E-03     2.87099E+06    -8.26585E+06    -90.2407E+06     2.85680E+06    -90.2265E+06    -8.26585E+06     30.6222E+03         23.6031
            1372     10.8235E-03     68.0560E-03         1.58554         1.25888        -2.04353     676.831E-03        -1.27265         1.39671        -2.85084     33.4982E-03    -16.2127E-03    -17.2855E-03    -16.6248E-03     32.8376E-03    -16.2127E-03     11.4921E-03     3.38192E+06    -16.9736E+06    -65.1224E+06     3.37066E+06    -65.1111E+06    -16.9736E+06     161.629E+03         24.2526
            1373     11.8073E-03     68.0671E-03         1.32776     788.369E-03        -1.29215     546.653E-03        -1.05043         1.32776        -1.17974     33.2800E-03    -16.1502E-03    -17.1298E-03    -16.4743E-03     32.6244E-03    -16.1502E-03     11.4041E-03     1.94018E+06    -15.2272E+06    -39.0921E+06     1.54207E+06    -28.8494E+06    -25.0718E+06     20.4804E+03         25.6418
            1374     12.7912E-03     68.0787E-03         1.25588     605.803E-03        -1.01260     341.288E-03    -748.086E-03         1.25588    -963.494E-03     33.6537E-03    -16.0538E-03    -17.6000E-03    -16.2849E-03     32.3387E-03    -16.0538E-03     15.7691E-03     17.5561E+06    -6.62917E+06    -39.4699E+06    -3.04826E+06     13.9752E+06    -39.4699E+06    -511.965E+03         28.6556
            1375     13.7752E-03     68.0991E-03         1.35950     927.955E-03        -1.41119     90.5653E-03    -390.782E-03         1.17648        -2.41159     34.4168E-03    -15.9506E-03    -18.4662E-03    -16.2130E-03     32.1636E-03    -15.9506E-03     21.3040E-03     55.2989E+06    -7.77945E+06    -59.9954E+06    -7.77164E+06     55.2911E+06    -59.9954E+06    -613.768E+03         34.5908
            1376     14.7598E-03     68.1210E-03         1.36257         1.03905        -1.49995    -117.540E-03    -66.0787E-03         1.08529        -2.79344     51.2479E-03    -16.0783E-03    -35.1696E-03    -17.5034E-03     33.5817E-03    -16.0783E-03     64.7207E-03     100.207E+06    -12.0013E+06    -43.6752E+06    -11.9944E+06     100.200E+06    -43.6752E+06    -280.453E+03         44.4225
            1377     15.7414E-03     68.2336E-03         1.05575     734.314E-03    -856.575E-03    -282.516E-03     254.516E-03     961.492E-03        -1.46303     138.185E-03    -16.5238E-03    -121.661E-03    -31.3356E-03     47.8594E-03    -16.5238E-03     246.479E-03     150.967E+06     22.9780E+06    -16.0298E+06    -13.5674E+06     150.959E+06     20.5240E+06     200.858E+03         57.2385
            1378     16.7211E-03     68.6447E-03     908.286E-03     582.490E-03    -524.513E-03    -474.645E-03     661.532E-03     779.376E-03    -201.701E-03     252.092E-03    -16.9212E-03    -235.171E-03    -51.0643E-03     67.9854E-03    -16.9212E-03     472.433E-03     198.786E+06     90.6406E+06    -6.38825E+06    -6.37918E+06     198.777E+06     90.6406E+06     988.713E+03         69.2147
            1379     984.391E-06     69.0128E-03         6.58441        -1.73267        -4.12737         4.81105        -1.69758        -2.38910        -5.29278     32.4376E-03    -16.1861E-03    -16.2515E-03    -16.2223E-03     32.4211E-03    -16.1988E-03     1.64894E-03    -298.028E+03    -4.78092E+06    -184.123E+06    -3.53961E+06    -184.110E+06    -1.55144E+06     1.27134E+06         22.3959
            1380     1.96844E-03     69.0147E-03         1.56828         1.24123        -2.06901         1.36800        -1.86873         1.24123         1.40605     32.6071E-03    -16.2380E-03    -16.3691E-03    -16.3156E-03     32.5620E-03    -16.2463E-03     2.90258E-03     392.520E+03    -1.98921E+06    -182.904E+06    -1.79796E+06    -182.892E+06     189.189E+03     1.29064E+06         22.4218
            1381     2.95241E-03     69.0188E-03         2.35416         1.27844        -2.86537         1.32503        -1.83624         1.27844         3.55004     32.8352E-03    -16.2851E-03    -16.5501E-03    -16.4513E-03     32.7364E-03    -16.2851E-03     4.34236E-03     299.186E+03    -1.01121E+06    -177.435E+06    -585.190E+03    -177.424E+06    -137.670E+03     869.959E+03         22.4655
            1382     3.93626E-03     69.0242E-03         2.39921         1.27647        -2.88649         1.24450        -1.73438         1.27908         4.13796     32.9170E-03    -16.3101E-03    -16.6068E-03    -16.4424E-03     32.7525E-03    -16.3101E-03     5.66830E-03     887.865E+03    -1.62442E+06    -170.107E+06     432.063E+03    -170.072E+06    -1.20368E+06    -1.14356E+06         22.5280
            1383     4.92069E-03     69.0309E-03         1.35462         1.20139        -1.75009         1.11927        -1.57116         1.25782         1.35852     32.9669E-03    -16.3090E-03    -16.6579E-03    -16.4284E-03     32.7374E-03    -16.3090E-03     6.71374E-03     530.103E+03    -3.26228E+06    -160.681E+06     476.953E+03    -160.627E+06    -3.26228E+06    -2.91499E+06         22.6111
            1384     5.90426E-03     69.0384E-03         1.24022         1.14698        -1.56768         1.09250        -1.50234         1.22935     811.484E-03     33.0485E-03    -16.3200E-03    -16.7285E-03    -16.4341E-03     32.7540E-03    -16.3200E-03     7.62364E-03     453.384E+03    -2.72340E+06    -153.206E+06     75.3388E+03    -153.178E+06    -2.37363E+06    -1.80960E+06         22.7175
            1385     6.88841E-03     69.0466E-03         1.65875         1.17819        -2.01105         1.09677        -1.47762         1.20673         2.25243     33.1335E-03    -16.3334E-03    -16.8001E-03    -16.4418E-03     32.7752E-03    -16.3334E-03     8.42037E-03     1.01617E+06    -699.624E+03    -144.763E+06     453.263E+03    -144.754E+06    -145.883E+03    -979.687E+03         22.8514
            1386     7.87228E-03     69.0554E-03         1.89557         1.18382        -2.24741         1.00073        -1.35257         1.18382         3.37742     33.2455E-03    -16.3153E-03    -16.9302E-03    -16.4943E-03     32.8096E-03    -16.3153E-03     9.29990E-03     1.79254E+06    -2.17582E+06    -129.176E+06     1.56899E+06    -129.156E+06    -1.97185E+06    -1.30638E+06         23.0214
            1387     8.85599E-03     69.0660E-03         1.40904     971.765E-03        -1.53873     803.732E-03        -1.11096         1.14931         1.13216     33.3507E-03    -16.2933E-03    -17.0574E-03    -16.5383E-03     32.8316E-03    -16.2933E-03     10.1661E-03     2.72479E+06    -4.40008E+06    -110.479E+06     2.69426E+06    -110.449E+06    -4.40008E+06    -1.60839E+06         23.2480
            1388     9.83981E-03     69.0764E-03         1.49745     923.691E-03        -1.56520     606.237E-03    -851.528E-03         1.10124        -2.22336     33.3919E-03    -16.2643E-03    -17.1276E-03    -16.4740E-03     32.7383E-03    -16.2643E-03     11.3818E-03     3.44496E+06    -7.60025E+06    -90.6086E+06     3.39846E+06    -90.5621E+06    -7.60025E+06    -1.89646E+06         23.5923
            1389     10.8240E-03     69.0894E-03         1.51937         1.01957        -1.66316     475.557E-03    -646.140E-03         1.04637        -2.91460     33.2615E-03    -16.1911E-03    -17.0705E-03    -16.3860E-03     32.5771E-03    -16.1911E-03     11.6462E-03     3.08992E+06    -17.2678E+06    -66.2444E+06     3.06047E+06    -66.2149E+06    -17.2678E+06    -1.09569E+06         24.2295
            1390     11.8080E-03     69.0997E-03         1.06734     673.461E-03    -845.109E-03     369.665E-03    -464.524E-03     990.553E-03        -1.24750     33.1886E-03    -16.1281E-03    -17.0605E-03    -16.3697E-03     32.4978E-03    -16.1281E-03     11.6869E-03     1.63990E+06    -15.7278E+06    -37.9362E+06     1.28140E+06    -30.2608E+06    -23.0446E+06     1.08809E+06         25.5963
            1391     12.7917E-03     69.1124E-03     986.090E-03     566.766E-03    -636.153E-03     207.379E-03    -222.942E-03     932.266E-03        -1.02340     33.5089E-03    -16.0426E-03    -17.4664E-03    -16.1560E-03     32.1986E-03    -16.0426E-03     15.7591E-03     18.6648E+06    -5.76909E+06    -33.1056E+06    -1.83117E+06     14.7269E+06    -33.1056E+06     1.82681E+06         28.5780
            1392     13.7765E-03     69.1309E-03         1.36655     792.043E-03        -1.22301    -2.90503E-03     71.2396E-03     867.247E-03        -2.48258     34.6031E-03    -15.9109E-03    -18.6922E-03    -16.2048E-03     32.1157E-03    -15.9109E-03     22.2897E-03     55.8265E+06    -7.07831E+06    -58.7618E+06    -6.99882E+06     55.7470E+06    -58.7618E+06     847.706E+03         34.4886
            1393     14.7590E-03     69.1571E-03         1.58399     789.330E-03        -1.41806    -207.165E-03     373.096E-03     789.330E-03        -2.91804     51.5915E-03    -15.9931E-03    -35.5984E-03    -16.9352E-03     32.9283E-03    -15.9931E-03     66.6445E-03     99.0753E+06    -12.0594E+06    -48.3791E+06    -12.0391E+06     99.0550E+06    -48.3791E+06     1.13474E+06         44.3451
            1394     15.7458E-03     69.2658E-03         1.19413     673.011E-03    -892.542E-03    -393.245E-03     694.589E-03     673.251E-03        -1.58918     142.586E-03    -16.3944E-03    -126.191E-03    -31.8750E-03     48.2694E-03    -16.3944E-03     255.778E-03     150.994E+06     21.5018E+06    -16.6831E+06    -12.0106E+06     150.977E+06     16.8458E+06     570.988E+03         57.2598
            1395     16.7268E-03     69.6946E-03         1.07811     495.678E-03    -596.553E-03    -556.363E-03         1.03768     495.918E-03    -242.652E-03     251.368E-03    -16.8030E-03    -234.565E-03    -51.5468E-03     68.3498E-03    -16.8030E-03     470.847E-03     198.929E+06     87.5756E+06    -5.92433E+06    -5.90675E+06     198.911E+06     87.5756E+06    -660.272E+03         69.3417
            1396     983.961E-06     70.0440E-03         6.77952        -1.97578        -3.98316         4.24768    -626.725E-03        -2.80039        -5.65136     32.5527E-03    -16.2010E-03    -16.3517E-03    -16.3277E-03     32.5371E-03    -16.2094E-03     1.53428E-03    -1.00694E+06    -6.34233E+06    -184.981E+06    -3.90701E+06    -184.975E+06    -3.44826E+06     330.588E+03         22.3988
            1397     1.96844E-03     70.0473E-03         1.29321     732.622E-03        -1.19980     774.814E-03    -681.406E-03     732.622E-03         1.68266     32.7862E-03    -16.3003E-03    -16.4860E-03    -16.4285E-03     32.7370E-03    -16.3086E-03     3.04132E-03    -900.206E+03    -3.26131E+06    -183.167E+06    -2.41412E+06    -183.162E+06    -1.75239E+06     386.133E+03         22.4242
            1398     2.95215E-03     70.0511E-03         2.23581     757.805E-03        -2.14578     857.393E-03    -767.363E-03     757.805E-03         3.67026     32.9497E-03    -16.3500E-03    -16.5997E-03    -16.4999E-03     32.8499E-03    -16.3500E-03     4.38774E-03    -348.972E+03    -2.07725E+06    -176.186E+06    -494.635E+03    -176.159E+06    -1.95852E+06    -1.03151E+06         22.4673
            1399     3.93628E-03     70.0567E-03         2.46409     783.912E-03        -2.38291     880.568E-03    -799.386E-03     783.912E-03         4.38656     32.9660E-03    -16.3787E-03    -16.5873E-03    -16.4272E-03     32.8058E-03    -16.3787E-03     5.59617E-03     1.56349E+06    -484.317E+03    -168.115E+06     523.345E+03    -168.081E+06     521.606E+03    -2.00202E+06         22.5293
            1400     4.91993E-03     70.0632E-03         1.16178     798.279E-03        -1.07547     850.899E-03    -764.591E-03     798.279E-03         1.45368     32.9332E-03    -16.3739E-03    -16.5593E-03    -16.3369E-03     32.7108E-03    -16.3739E-03     6.60137E-03     1.50888E+06     112.344E+03    -159.750E+06     187.768E+03    -159.719E+06     1.40272E+06    -2.04288E+06         22.6119
            1401     5.90444E-03     70.0709E-03     924.687E-03     791.155E-03    -823.815E-03     782.484E-03    -689.413E-03     798.955E-03     862.899E-03     32.9544E-03    -16.3467E-03    -16.6076E-03    -16.3235E-03     32.6702E-03    -16.3467E-03     7.47334E-03     164.813E+03    -1.39834E+06    -154.020E+06    -167.696E+03    -153.972E+06    -1.11388E+06    -2.50112E+06         22.7176
            1402     6.88844E-03     70.0789E-03         1.45444     780.189E-03        -1.33497     702.209E-03    -590.546E-03     787.989E-03         2.22636     33.1144E-03    -16.3346E-03    -16.7798E-03    -16.4214E-03     32.7560E-03    -16.3346E-03     8.41044E-03     786.724E+03    -1.19831E+06    -144.644E+06     533.646E+03    -144.595E+06    -994.340E+03    -2.46970E+06         22.8508
            1403     7.87219E-03     70.0886E-03         1.87135     769.432E-03        -1.73709     631.628E-03    -497.371E-03     769.432E-03         3.36835     33.2533E-03    -16.3181E-03    -16.9352E-03    -16.4913E-03     32.8094E-03    -16.3181E-03     9.38757E-03     1.62049E+06    -2.22713E+06    -128.596E+06     1.36703E+06    -128.547E+06    -2.02317E+06    -2.48677E+06         23.0195
            1404     8.85624E-03     70.0982E-03         1.22566     674.832E-03    -986.741E-03     529.494E-03    -360.463E-03     744.720E-03         1.13995     33.3062E-03    -16.2917E-03    -17.0146E-03    -16.4745E-03     32.7662E-03    -16.2917E-03     10.3565E-03     1.82790E+06    -4.95542E+06    -110.430E+06     1.75118E+06    -110.353E+06    -4.95542E+06    -2.86164E+06         23.2435
            1405     9.84012E-03     70.1098E-03         1.37922     643.832E-03        -1.09283     419.946E-03    -203.437E-03     713.720E-03        -2.19152     33.2809E-03    -16.2561E-03    -17.0248E-03    -16.3794E-03     32.6354E-03    -16.2561E-03     11.3102E-03     2.07978E+06    -8.15423E+06    -90.6431E+06     1.96710E+06    -90.5304E+06    -8.15423E+06    -3.15397E+06         23.5824
            1406     10.8242E-03     70.1212E-03         1.60030     676.378E-03        -1.32922     273.878E-03    -2.80113E-03     676.378E-03        -2.87656     33.0989E-03    -16.1749E-03    -16.9240E-03    -16.2603E-03     32.4351E-03    -16.1749E-03     11.4409E-03     1.57749E+06    -18.2109E+06    -68.0369E+06     1.49944E+06    -67.9589E+06    -18.2109E+06    -2.10689E+06         24.2079
            1407     11.8083E-03     70.1333E-03     971.984E-03     512.793E-03    -519.266E-03     130.082E-03     202.517E-03     632.913E-03        -1.23542     32.9719E-03    -16.1001E-03    -16.8718E-03    -16.1951E-03     32.2952E-03    -16.1001E-03     11.5276E-03     768.381E+03    -18.3887E+06    -39.9820E+06     500.187E+03    -33.7330E+06    -24.3695E+06     653.704E+03         25.5522
            1408     12.7925E-03     70.1448E-03     895.196E-03     465.392E-03    -381.388E-03     21.4492E-03     372.240E-03     585.511E-03    -985.778E-03     33.3474E-03    -16.0274E-03    -17.3200E-03    -16.0874E-03     32.1148E-03    -16.0274E-03     15.2657E-03     20.3250E+06    -7.05627E+06    -29.2048E+06    -1.21769E+06     14.4865E+06    -29.2048E+06     2.97975E+06         28.5009
            1409     13.7765E-03     70.1641E-03         1.51451     533.973E-03        -1.05770    -123.318E-03     580.132E-03     533.973E-03        -2.44179     34.0533E-03    -15.8803E-03    -18.1730E-03    -15.6508E-03     31.5310E-03    -15.8803E-03     22.1135E-03     56.8735E+06    -5.21310E+06    -53.3912E+06    -4.98000E+06     56.6404E+06    -53.3912E+06     3.33363E+06         34.3854
            1410     14.7626E-03     70.1901E-03         1.84190     470.580E-03        -1.31242    -298.555E-03     828.037E-03     470.580E-03        -2.91247     50.0689E-03    -15.8768E-03    -34.1921E-03    -15.6909E-03     31.5677E-03    -15.8768E-03     65.3229E-03     98.5531E+06    -9.00741E+06    -49.1894E+06    -8.91968E+06     98.4653E+06    -49.1894E+06     2.04319E+06         44.2647
            1411     15.7495E-03     70.2955E-03         1.51058     366.594E-03    -876.521E-03    -471.659E-03         1.10571     366.594E-03        -1.54418     143.711E-03    -16.1868E-03    -127.524E-03    -30.6325E-03     46.8193E-03    -16.1868E-03     259.192E-03     153.716E+06     25.8947E+06    -16.6523E+06    -8.45771E+06     153.693E+06     17.7231E+06    -343.041E+03         57.2810
            1412     16.7356E-03     70.7407E-03         1.43100     200.388E-03    -634.541E-03    -609.247E-03         1.40570     200.388E-03    -181.615E-03     249.917E-03    -16.5864E-03    -233.330E-03    -52.5054E-03     69.0919E-03    -16.5864E-03     467.686E-03     199.212E+06     86.7412E+06    -6.29258E+06    -6.27034E+06     199.190E+06     86.7412E+06    -1.48503E+06         69.4618
            1413     984.456E-06     71.0771E-03         7.09040        -2.11233        -4.07733         3.85675     127.484E-03        -3.08348        -5.62146     32.8174E-03    -16.3405E-03    -16.4769E-03    -16.4594E-03     32.7998E-03    -16.3405E-03     1.75875E-03    -245.321E+03    -6.60490E+06    -184.470E+06    -4.36971E+06    -184.468E+06    -2.48330E+06    -154.751E+03         22.4041
            1414     1.96776E-03     71.0792E-03         1.44793     359.017E-03    -899.359E-03     254.210E-03     294.362E-03     359.017E-03         2.04892     32.9921E-03    -16.4307E-03    -16.5613E-03    -16.5097E-03     32.9404E-03    -16.4307E-03     3.09361E-03    -798.970E+03    -3.91643E+06    -182.291E+06    -3.05929E+06    -182.274E+06    -1.67374E+06    -1.06268E+06         22.4290
            1415     2.95201E-03     71.0840E-03         2.34984     324.711E-03        -1.74982     285.360E-03     314.656E-03     324.711E-03         3.78883     32.9886E-03    -16.4340E-03    -16.5546E-03    -16.4528E-03     32.8868E-03    -16.4340E-03     4.44878E-03    -2.02266E+06    -3.63183E+06    -174.522E+06    -2.27323E+06    -174.482E+06    -3.42126E+06    -2.19959E+06         22.4713
            1416     3.93569E-03     71.0890E-03         2.61236     327.009E-03        -1.99398     415.807E-03     202.566E-03     327.009E-03         4.51033     33.0079E-03    -16.4337E-03    -16.5742E-03    -16.4144E-03     32.8481E-03    -16.4337E-03     5.58813E-03    -729.385E+03    -2.56710E+06    -167.406E+06    -1.99130E+06    -167.360E+06    -1.35061E+06    -2.26203E+06         22.5325
            1417     4.92013E-03     71.0958E-03         1.14985     347.543E-03    -538.537E-03     469.948E-03     141.363E-03     347.543E-03         1.48979     32.9716E-03    -16.4177E-03    -16.5539E-03    -16.3339E-03     32.7516E-03    -16.4177E-03     6.57415E-03     493.688E+03    -1.18845E+06    -159.577E+06    -836.097E+03    -159.538E+06     101.928E+03    -2.24572E+06         22.6142
            1418     5.90393E-03     71.1029E-03     892.336E-03     360.129E-03    -282.873E-03     403.246E-03     206.218E-03     360.129E-03     913.852E-03     33.0105E-03    -16.3881E-03    -16.6224E-03    -16.3427E-03     32.7308E-03    -16.3881E-03     7.41814E-03     10.1824E+03    -1.44695E+06    -153.194E+06    -320.968E+03    -153.148E+06    -1.16249E+06    -2.49093E+06         22.7189
            1419     6.88804E-03     71.1117E-03         1.48818     354.348E-03    -871.713E-03     274.160E-03     342.311E-03     354.348E-03         2.19377     33.0738E-03    -16.3559E-03    -16.7180E-03    -16.3659E-03     32.7218E-03    -16.3559E-03     8.32925E-03    -681.208E+03    -3.74187E+06    -144.012E+06    -766.497E+03    -143.926E+06    -3.74187E+06    -3.25038E+06         22.8509
            1420     7.87226E-03     71.1209E-03         2.01490     338.324E-03        -1.37698     237.586E-03     400.333E-03     338.324E-03         3.33157     33.1626E-03    -16.3223E-03    -16.8403E-03    -16.4078E-03     32.7301E-03    -16.3223E-03     9.25052E-03    -788.449E+03    -6.04059E+06    -128.307E+06    -901.952E+03    -128.194E+06    -6.04059E+06    -3.67962E+06         23.0181
            1421     8.85605E-03     71.1313E-03         1.28567     324.990E-03    -624.163E-03     274.888E-03     386.619E-03     324.990E-03         1.15735     33.2363E-03    -16.2978E-03    -16.9385E-03    -16.4274E-03     32.7252E-03    -16.2978E-03     10.0660E-03    -594.942E+03    -7.01823E+06    -110.287E+06    -712.232E+03    -110.169E+06    -7.01823E+06    -3.52569E+06         23.2403
            1422     9.84007E-03     71.1421E-03         1.44434     313.386E-03    -755.714E-03     225.424E-03     463.204E-03     313.386E-03        -2.10038     33.2111E-03    -16.2593E-03    -16.9518E-03    -16.3490E-03     32.6083E-03    -16.2593E-03     10.9176E-03    -1.10755E+06    -10.1843E+06    -90.2998E+06    -1.25282E+06    -90.1545E+06    -10.1843E+06    -3.54515E+06         23.5748
            1423     10.8240E-03     71.1543E-03         1.78479     294.594E-03        -1.05946     75.3577E-03     649.978E-03     294.594E-03        -2.72797     33.0879E-03    -16.1791E-03    -16.9089E-03    -16.2831E-03     32.4622E-03    -16.1791E-03     11.1097E-03    -2.05002E+06    -20.6803E+06    -69.4034E+06    -2.21627E+06    -69.2371E+06    -20.6803E+06    -3.22069E+06         24.1894
            1424     11.8082E-03     71.1654E-03         1.19088     265.992E-03    -423.817E-03    -78.4643E-03     845.524E-03     265.992E-03        -1.09561     32.8454E-03    -16.1020E-03    -16.7433E-03    -16.1142E-03     32.2162E-03    -16.1020E-03     11.0905E-03    -2.80089E+06    -22.2546E+06    -43.3097E+06    -2.95827E+06    -37.8131E+06    -27.5938E+06    -771.527E+03         25.5117
            1425     12.7925E-03     71.1779E-03         1.17747     230.736E-03    -367.862E-03    -188.040E-03     997.645E-03     230.736E-03    -853.622E-03     33.1012E-03    -16.0237E-03    -17.0774E-03    -15.8905E-03     31.9142E-03    -16.0237E-03     14.8647E-03     18.5721E+06    -10.4785E+06    -30.7659E+06    -3.84340E+06     11.9369E+06    -30.7659E+06     2.55147E+06         28.4275
            1426     13.7768E-03     71.1967E-03         1.77906     191.828E-03    -927.656E-03    -271.001E-03         1.12240     191.828E-03        -2.26516     33.4571E-03    -15.8786E-03    -17.5785E-03    -15.3596E-03     31.2382E-03    -15.8786E-03     20.6422E-03     57.4677E+06    -4.89843E+06    -49.7116E+06    -4.65973E+06     57.2290E+06    -49.7116E+06     3.33882E+06         34.2841
            1427     14.7626E-03     71.2201E-03         2.05762     143.345E-03        -1.16053    -394.008E-03         1.29110     143.345E-03        -2.69826     49.0888E-03    -15.8645E-03    -33.2243E-03    -15.7749E-03     31.6394E-03    -15.8645E-03     62.6279E-03     100.620E+06    -5.08857E+06    -45.5115E+06    -5.01348E+06     100.544E+06    -45.5115E+06     1.05247E+06         44.1732
            1428     15.7489E-03     71.3277E-03         1.81106     54.2685E-03    -831.988E-03    -544.865E-03         1.52393     54.2685E-03        -1.37149     142.824E-03    -16.1549E-03    -126.669E-03    -30.0364E-03     46.1913E-03    -16.1549E-03     257.520E-03     155.168E+06     28.9263E+06    -17.0338E+06    -6.44984E+06     155.142E+06     18.3684E+06    -180.673E+03         57.2729
            1429     16.7352E-03     71.7725E-03         1.78951    -98.7032E-03    -667.506E-03    -653.909E-03         1.77591    -98.7032E-03    -126.390E-03     250.478E-03    -16.5255E-03    -233.952E-03    -52.5227E-03     69.0482E-03    -16.5255E-03     468.912E-03     199.888E+06     85.2392E+06    -5.48249E+06    -5.45142E+06     199.857E+06     85.2392E+06     976.394E+03         69.5907
            1430     983.599E-06     72.1094E-03         7.35670        -2.13393        -4.25220         3.49520     887.122E-03        -3.41175        -5.59244     33.1442E-03    -16.5074E-03    -16.6368E-03    -16.5442E-03     33.1264E-03    -16.5821E-03     1.77827E-03    -1.86679E+06    -6.64906E+06    -184.881E+06    -5.59194E+06    -184.879E+06    -2.92637E+06     467.439E+03         22.4111
            1431     1.96786E-03     72.1123E-03         1.98182    -9.94521E-03    -987.249E-03    -212.092E-03         1.20666    -9.94521E-03         2.09313     33.0928E-03    -16.4839E-03    -16.6089E-03    -16.4824E-03     33.0411E-03    -16.5587E-03     3.10049E-03    -1.68200E+06    -4.87782E+06    -180.571E+06    -4.66984E+06    -180.553E+06    -1.90792E+06    -532.463E+03         22.4356
            1432     2.95158E-03     72.1160E-03         2.75468    -90.7265E-03        -1.66130    -261.051E-03         1.35442    -90.7265E-03         3.54846     33.0354E-03    -16.4949E-03    -16.5405E-03    -16.4219E-03     32.9320E-03    -16.5101E-03     4.47951E-03    -3.17192E+06    -5.14178E+06    -172.878E+06    -4.55427E+06    -172.833E+06    -3.80510E+06    -1.86559E+06         22.4771
            1433     3.93589E-03     72.1220E-03         2.87627    -118.525E-03        -1.73516    -94.5676E-03         1.23568    -118.525E-03         4.26692     33.0008E-03    -16.4494E-03    -16.5515E-03    -16.3747E-03     32.8393E-03    -16.4646E-03     5.62057E-03    -3.63388E+06    -5.54480E+06    -166.152E+06    -3.91905E+06    -166.077E+06    -5.33424E+06    -3.14525E+06         22.5372
            1434     4.91953E-03     72.1279E-03         1.52231    -106.778E-03    -376.909E-03     10.0360E-03         1.13536    -106.778E-03         1.38128     33.0922E-03    -16.4418E-03    -16.6504E-03    -16.4286E-03     32.8705E-03    -16.4418E-03     6.61230E-03    -2.91508E+06    -4.53676E+06    -159.353E+06    -3.00283E+06    -159.265E+06    -4.53676E+06    -3.65191E+06         22.6176
            1435     5.90381E-03     72.1358E-03         1.35931    -92.6808E-03    -222.074E-03    -23.1716E-03         1.16041    -92.6808E-03     933.663E-03     33.1674E-03    -16.4387E-03    -16.7287E-03    -16.4521E-03     32.8908E-03    -16.4387E-03     7.40005E-03    -1.72244E+06    -2.57002E+06    -153.037E+06    -1.78897E+06    -152.970E+06    -2.57002E+06    -3.00223E+06         22.7209
            1436     6.88768E-03     72.1440E-03         1.95524    -90.2883E-03    -818.665E-03    -86.0068E-03         1.22258    -90.2883E-03         2.27600     33.1391E-03    -16.4142E-03    -16.7250E-03    -16.3867E-03     32.8009E-03    -16.4142E-03     8.17203E-03    -1.12498E+06    -3.45554E+06    -142.342E+06    -1.21487E+06    -142.252E+06    -3.45554E+06    -3.32999E+06         22.8515
            1437     7.87165E-03     72.1535E-03         2.39239    -93.1339E-03        -1.25105    -79.8212E-03         1.22117    -93.1339E-03         3.36757     33.2001E-03    -16.3714E-03    -16.8286E-03    -16.4002E-03     32.7717E-03    -16.3714E-03     9.20132E-03    -1.47097E+06    -6.82975E+06    -127.921E+06    -1.61809E+06    -127.774E+06    -6.82975E+06    -4.27244E+06         23.0175
            1438     8.85565E-03     72.1640E-03         1.69551    -59.0163E-03    -578.450E-03    -8.36816E-03         1.15826    -91.8407E-03         1.20730     33.2254E-03    -16.3376E-03    -16.8878E-03    -16.4015E-03     32.7391E-03    -16.3376E-03     9.82383E-03    -1.76679E+06    -8.53290E+06    -110.606E+06    -1.93950E+06    -110.434E+06    -8.53290E+06    -4.27112E+06         23.2382
            1439     9.83958E-03     72.1748E-03         1.79520    -55.1166E-03    -664.868E-03    -16.1038E-03         1.17926    -87.9410E-03        -1.91919     33.1763E-03    -16.2917E-03    -16.8845E-03    -16.3057E-03     32.5975E-03    -16.2917E-03     10.6703E-03    -2.06114E+06    -11.4404E+06    -90.0440E+06    -2.21554E+06    -89.8896E+06    -11.4404E+06    -3.58465E+06         23.5692
            1440     10.8238E-03     72.1869E-03         2.08904    -90.6126E-03    -906.710E-03    -131.575E-03         1.31390    -90.6126E-03        -2.53118     33.1201E-03    -16.2060E-03    -16.9141E-03    -16.3040E-03     32.5100E-03    -16.2060E-03     10.9710E-03    -3.76219E+06    -22.6608E+06     -70.048E+06    -3.92701E+06    -69.8832E+06    -22.6608E+06    -3.17102E+06         24.1743
            1441     11.8075E-03     72.1983E-03         1.67161    -103.504E-03    -467.021E-03    -265.776E-03         1.47037    -103.504E-03    -951.121E-03     32.8637E-03    -16.1103E-03    -16.7534E-03    -16.1557E-03     32.2660E-03    -16.1103E-03     10.8162E-03    -4.65023E+06    -25.2473E+06    -49.3207E+06    -5.14537E+06    -40.3180E+06    -33.7549E+06    -2.81680E+06         25.4759
            1442     12.7919E-03     72.2101E-03         1.68171    -123.757E-03    -455.372E-03    -351.017E-03         1.57736    -123.757E-03    -743.369E-03     32.9507E-03    -16.0100E-03    -16.9407E-03    -15.8069E-03     31.8169E-03    -16.0100E-03     14.5005E-03     16.3579E+06    -11.0756E+06    -39.5970E+06    -3.44493E+06     8.72719E+06    -39.5970E+06    -1.12679E+06         28.3604
            1443     13.7771E-03     72.2292E-03         2.12096    -148.025E-03    -876.733E-03    -411.264E-03         1.65549    -148.025E-03        -2.09613     33.4883E-03    -15.8737E-03    -17.6146E-03    -15.6247E-03     31.4984E-03    -15.8737E-03     19.6884E-03     56.9280E+06    -2.28584E+06    -55.9658E+06    -2.11732E+06     56.7595E+06    -55.9658E+06     249.052E+03         34.1914
            1444     14.7612E-03     72.2522E-03         2.34806    -182.488E-03        -1.08008    -518.769E-03         1.78674    -182.488E-03        -2.49227     49.4958E-03    -15.9180E-03    -33.5778E-03    -16.6099E-03     32.5279E-03    -15.9180E-03     61.9316E-03     102.219E+06    -5.22739E+06    -47.3248E+06    -5.18487E+06     102.176E+06    -47.3248E+06     1.11659E+06         44.0932
            1445     15.7461E-03     72.3597E-03         2.18529    -258.222E-03    -854.691E-03    -649.043E-03         1.97964    -258.222E-03        -1.26116     142.309E-03    -16.2388E-03    -126.070E-03    -29.7520E-03     45.9908E-03    -16.2388E-03     256.280E-03     155.158E+06     25.3252E+06    -16.5560E+06    -8.05096E+06     155.084E+06     16.8939E+06     2.68892E+06         57.2917
            1446     16.7333E-03     72.8018E-03         2.16649    -398.311E-03    -722.304E-03    -713.614E-03         2.15780    -398.311E-03    -116.709E-03     252.890E-03    -16.5731E-03    -236.317E-03    -52.2503E-03     68.8235E-03    -16.5731E-03     473.965E-03     200.223E+06     84.5860E+06    -5.41370E+06    -5.37310E+06     200.182E+06     84.5860E+06     2.29103E+06         69.7854
            1447     983.661E-06     73.1422E-03         7.60938        -2.05857        -4.49466         2.88732         2.09212        -3.92328        -5.49853     33.3342E-03    -16.5722E-03    -16.7620E-03    -16.6687E-03     33.3156E-03    -16.6469E-03     1.79725E-03    -6.04405E+06    -9.54851E+06    -186.860E+06        -8.4E+06    -186.854E+06    -7.19850E+06     40.0026E+03         22.4186
            1448     1.96753E-03     73.1447E-03         2.77627    -531.510E-03        -1.17785    -661.672E-03         2.27695    -548.372E-03         1.94932     33.2150E-03    -16.5349E-03    -16.6801E-03    -16.5181E-03     33.1644E-03    -16.6463E-03     3.10721E-03    -1.92243E+06    -5.80679E+06    -178.178E+06    -5.40889E+06    -178.168E+06    -2.33066E+06    -157.911E+03         22.4426
            1449     2.95155E-03     73.1491E-03         3.35701    -569.896E-03        -1.71020    -633.268E-03         2.29693    -586.758E-03         3.26361     33.1202E-03    -16.5261E-03    -16.5942E-03    -16.4477E-03     33.0256E-03    -16.5779E-03     4.29541E-03    -2.87341E+06    -4.84482E+06    -170.040E+06    -4.04414E+06    -169.995E+06    -3.71870E+06    -2.00813E+06         22.4833
            1450     3.93541E-03     73.1539E-03         3.38313    -589.786E-03        -1.69451    -530.794E-03         2.21942    -589.786E-03         3.98515     33.1066E-03    -16.5062E-03    -16.6004E-03    -16.4320E-03     32.9534E-03    -16.5215E-03     5.47158E-03    -4.41503E+06    -6.52012E+06    -164.590E+06    -4.50393E+06    -164.501E+06    -6.52012E+06    -3.65803E+06         22.5423
            1451     4.91977E-03     73.1610E-03         2.27395    -540.982E-03    -616.429E-03    -415.613E-03         2.10215    -570.001E-03         1.32233     33.2218E-03    -16.4984E-03    -16.7233E-03    -16.5067E-03     33.0052E-03    -16.4984E-03     6.54747E-03    -4.70428E+06    -6.61342E+06    -158.400E+06    -4.83492E+06    -158.269E+06    -6.61342E+06    -4.44312E+06         22.6213
            1452     5.90312E-03     73.1683E-03         2.16532    -487.864E-03    -555.455E-03    -386.885E-03         2.05361    -544.725E-03         1.05305     33.2686E-03    -16.4976E-03    -16.7710E-03    -16.5034E-03     33.0011E-03    -16.4976E-03     7.29035E-03    -4.39598E+06    -5.14980E+06    -153.481E+06    -4.55083E+06    -153.327E+06    -5.14980E+06    -4.71716E+06         22.7232
            1453     6.88714E-03     73.1769E-03         2.63115    -497.330E-03        -1.01270    -386.146E-03         2.03244    -525.173E-03         2.42623     33.2591E-03    -16.4741E-03    -16.7850E-03    -16.4452E-03     32.9193E-03    -16.4741E-03     8.19576E-03    -2.43410E+06    -4.85876E+06    -141.150E+06    -2.60012E+06    -140.984E+06    -4.85876E+06    -4.64551E+06         22.8525
            1454     7.87114E-03     73.1860E-03         2.91205    -509.424E-03        -1.28214    -355.351E-03         1.98527    -509.424E-03         3.44954     33.3218E-03    -16.4310E-03    -16.8908E-03    -16.4544E-03     32.8853E-03    -16.4310E-03     9.30724E-03    -713.983E+03    -7.52381E+06    -126.772E+06    -927.138E+03    -126.559E+06    -7.52381E+06    -5.02483E+06         23.0175
            1455     8.85501E-03     73.1970E-03         2.32325    -410.120E-03    -782.870E-03    -317.770E-03         1.94203    -493.998E-03         1.30274     33.2443E-03    -16.3867E-03    -16.8576E-03    -16.3771E-03     32.7638E-03    -16.3867E-03     9.76534E-03    -461.261E+03    -10.2782E+06    -110.799E+06    -723.361E+03    -110.537E+06    -10.2782E+06    -5.31291E+06         23.2371
            1456     9.83912E-03     73.2072E-03         2.35182    -396.411E-03    -807.561E-03    -318.638E-03         1.94678    -480.290E-03        -1.73323     33.2334E-03    -16.3356E-03    -16.8978E-03    -16.3220E-03     32.6577E-03    -16.3356E-03     10.6449E-03    -479.733E+03    -13.0081E+06    -91.4898E+06    -690.911E+03    -91.2787E+06    -13.0081E+06    -4.30167E+06         23.5652
            1457     10.8231E-03     73.2199E-03         2.54525    -472.965E-03    -908.059E-03    -394.507E-03         2.03170    -472.965E-03        -2.33753     33.1773E-03    -16.2491E-03    -16.9281E-03    -16.3237E-03     32.5729E-03    -16.2491E-03     10.9218E-03    -670.549E+03    -22.6983E+06    -70.2297E+06    -814.089E+03    -70.0861E+06    -22.6983E+06    -3.09326E+06         24.1617
            1458     11.8073E-03     73.2309E-03         2.21851    -439.937E-03    -607.033E-03    -455.480E-03         2.09991    -472.889E-03    -852.793E-03     32.9253E-03    -16.1439E-03    -16.7815E-03    -16.2119E-03     32.3557E-03    -16.1439E-03     10.5710E-03    -1.17776E+06    -25.4709E+06    -49.3983E+06    -2.24771E+06    -39.0093E+06    -34.7899E+06    -4.38083E+06         25.4442
            1459     12.7915E-03     73.2427E-03         2.19232    -443.889E-03    -581.587E-03    -476.555E-03         2.12024    -476.841E-03    -681.018E-03     33.1542E-03    -16.0314E-03    -17.1227E-03    -16.0363E-03     32.0677E-03    -16.0314E-03     14.2413E-03     15.7741E+06    -13.3206E+06    -46.1483E+06    -4.19748E+06     6.65097E+06    -46.1483E+06    -5.12080E+06         28.2991
            1460     13.7754E-03     73.2617E-03         2.54848    -485.608E-03    -908.454E-03    -559.818E-03         2.19984    -485.608E-03        -1.99727     33.7914E-03    -15.9211E-03    -17.8703E-03    -15.9387E-03     31.8598E-03    -15.9211E-03     19.5196E-03     53.8573E+06    -7.59406E+06    -62.1640E+06    -7.33757E+06     53.6008E+06    -62.1640E+06    -1.75350E+06         34.1079
            1461     14.7604E-03     73.2853E-03         2.75063    -507.749E-03        -1.10482    -673.547E-03         2.31936    -507.749E-03        -2.39356     49.9395E-03    -16.0122E-03    -33.9274E-03    -17.1973E-03     33.2095E-03    -16.0122E-03     61.9554E-03     100.329E+06    -10.6753E+06    -49.4344E+06    -10.6048E+06     100.258E+06    -49.4344E+06     2.47483E+06         44.0354
            1462     15.7447E-03     73.3930E-03         2.58894    -570.285E-03    -904.694E-03    -746.103E-03         2.43034    -570.285E-03        -1.18805     140.673E-03    -16.3526E-03    -124.320E-03    -29.3954E-03     45.7480E-03    -16.3526E-03     252.746E-03     154.369E+06     22.5696E+06    -18.0060E+06    -10.2234E+06     154.284E+06     14.8718E+06     3.37840E+06         57.3486
            1463     16.7340E-03     73.8286E-03         2.54838    -656.431E-03    -801.855E-03    -758.335E-03         2.54272    -694.296E-03    -86.1693E-03     254.098E-03    -16.6771E-03    -237.421E-03    -51.8031E-03     68.4802E-03    -16.6771E-03     476.551E-03     201.154E+06     85.4687E+06    -6.24668E+06    -6.22416E+06     201.131E+06     85.4687E+06     1.39931E+06         70.0171
            1464     983.946E-06     74.1753E-03         7.86636        -1.82916        -4.89043         2.21548         3.49068        -4.55939        -5.08288     33.3490E-03    -16.5888E-03    -16.7602E-03    -16.7417E-03     33.3304E-03    -16.5888E-03     1.85577E-03    -6.98748E+06    -9.92228E+06    -185.577E+06    -9.84083E+06    -185.564E+06    -7.08234E+06    -420.566E+03         22.4252
            1465     1.96731E-03     74.1778E-03         3.70418        -1.07628        -1.48579        -1.07689         3.37374        -1.15475         1.95326     33.3726E-03    -16.6244E-03    -16.7482E-03    -16.6621E-03     33.3231E-03    -16.6610E-03     3.06706E-03    -5.87871E+06    -8.71012E+06    -176.941E+06    -7.40711E+06    -176.914E+06    -7.20923E+06    -1.75372E+06         22.4488
            1466     2.95126E-03     74.1816E-03         4.08483        -1.02882        -1.90660    -927.107E-03         3.18381        -1.10729         3.32779     33.2711E-03    -16.5943E-03    -16.6768E-03    -16.5459E-03     33.1769E-03    -16.6310E-03     4.29805E-03    -6.22735E+06    -7.67185E+06    -168.282E+06    -6.38082E+06    -168.213E+06    -7.58768E+06    -3.13369E+06         22.4890
            1467     3.93517E-03     74.1870E-03         4.05049        -1.02372        -1.85360    -843.287E-03         3.06986        -1.05340         4.03143     33.3719E-03    -16.6135E-03    -16.7584E-03    -16.6053E-03     33.2188E-03    -16.6135E-03     5.49295E-03    -5.28602E+06    -5.96111E+06    -162.347E+06    -5.55813E+06    -162.248E+06    -5.78815E+06    -3.78637E+06         22.5471
            1468     4.91862E-03     74.1935E-03         3.12974    -928.755E-03        -1.00883    -788.760E-03         2.98886        -1.00794         1.47522     33.3716E-03    -16.5909E-03    -16.7807E-03    -16.5680E-03     33.1648E-03    -16.5967E-03     6.42007E-03    -4.88666E+06    -6.25302E+06    -156.417E+06    -5.13663E+06    -156.256E+06    -6.16422E+06    -4.84289E+06         22.6249
            1469     5.90293E-03     74.2015E-03         3.01948    -849.072E-03    -970.654E-03    -750.383E-03         2.92079    -970.654E-03         1.20455     33.2826E-03    -16.5673E-03    -16.7153E-03    -16.4539E-03     33.0271E-03    -16.5731E-03     7.11619E-03    -4.26330E+06    -6.45556E+06    -152.401E+06    -4.51465E+06    -152.150E+06    -6.45556E+06    -6.05597E+06         22.7255
            1470     6.88682E-03     74.2091E-03         3.31553    -866.446E-03        -1.25367    -699.212E-03         2.83314    -938.518E-03         2.48633     33.3671E-03    -16.5282E-03    -16.8389E-03    -16.4937E-03     33.0219E-03    -16.5282E-03     8.26697E-03    -3.40319E+06    -8.31899E+06    -140.624E+06    -3.75932E+06    -140.268E+06    -8.31899E+06     -6.8283E+06         22.8538
            1471     7.87057E-03     74.2194E-03         3.49013    -908.435E-03        -1.38768    -642.011E-03         2.74447    -908.435E-03         3.48130     33.3943E-03    -16.4838E-03    -16.9105E-03    -16.4804E-03     32.9642E-03    -16.4838E-03     9.25773E-03    -1.78628E+06    -10.4788E+06    -126.119E+06    -2.25863E+06    -125.646E+06    -10.4788E+06    -7.49459E+06         23.0182
            1472     8.85455E-03     74.2293E-03         3.01603    -768.606E-03        -1.04551    -625.920E-03         2.70926    -881.426E-03         1.38509     33.2720E-03    -16.4408E-03    -16.8312E-03    -16.3550E-03     32.7958E-03    -16.4408E-03     9.71942E-03    -365.253E+03    -11.5705E+06    -111.040E+06    -820.204E+03    -110.585E+06    -11.5705E+06    -6.98919E+06         23.2369
            1473     9.83859E-03     74.2403E-03         3.00927    -748.147E-03        -1.04050    -654.569E-03         2.73616    -860.967E-03        -1.59551     33.3512E-03    -16.3883E-03    -16.9629E-03    -16.3736E-03     32.7619E-03    -16.3883E-03     10.7945E-03     587.233E+03    -13.5679E+06    -92.6955E+06     149.157E+03    -92.2574E+06    -13.5679E+06    -6.19550E+06         23.5622
            1474     10.8225E-03     74.2525E-03         3.09402    -808.203E-03        -1.04882    -668.337E-03         2.75208    -846.747E-03        -2.15458     33.2743E-03    -16.3031E-03    -16.9712E-03    -16.3714E-03     32.6745E-03    -16.3031E-03     10.8898E-03     1.35639E+06    -22.4924E+06    -71.4971E+06     974.523E+03    -71.1152E+06    -22.4924E+06    -5.07142E+06         24.1502
            1475     11.8064E-03     74.2638E-03         2.80220    -701.493E-03    -857.610E-03    -651.481E-03         2.72965    -835.071E-03    -731.900E-03     33.0849E-03    -16.2145E-03    -16.8705E-03    -16.3057E-03     32.5202E-03    -16.2145E-03     10.5501E-03     308.164E+03    -23.3106E+06    -45.4047E+06    -455.661E+03    -37.2312E+06    -30.7203E+06    -3.84141E+06         25.4143
            1476     12.7904E-03     74.2755E-03         2.76801    -698.666E-03    -833.824E-03    -661.153E-03         2.72235    -825.678E-03    -577.204E-03     33.4167E-03    -16.1065E-03    -17.3101E-03    -16.2452E-03     32.3517E-03    -16.1065E-03     14.1978E-03     13.8902E+06    -13.3135E+06    -44.2049E+06    -5.77707E+06     6.35368E+06    -44.2049E+06    -4.12923E+06         28.2399
            1477     13.7748E-03     74.2948E-03         3.02898    -789.961E-03        -1.01892    -724.091E-03         2.76614    -821.940E-03        -1.86502     34.1805E-03    -15.9939E-03    -18.1866E-03    -16.1942E-03     32.1881E-03    -15.9939E-03     19.8964E-03     48.7648E+06    -10.7826E+06    -64.8511E+06    -10.4966E+06     48.4788E+06    -64.8511E+06    -2.08504E+06         34.0259
            1478     14.7583E-03     74.3184E-03         3.16312    -831.213E-03        -1.13300    -798.667E-03         2.82879    -831.213E-03        -2.26468     50.6015E-03    -16.0945E-03    -34.5070E-03    -17.4356E-03     33.5301E-03    -16.0945E-03     63.1532E-03     96.9956E+06    -11.6429E+06    -51.1510E+06    -11.6080E+06     96.9606E+06    -51.1510E+06     1.07151E+06         43.9830
            1479     15.7417E-03     74.4279E-03         2.98365    -812.874E-03    -995.001E-03    -809.647E-03         2.86330    -877.877E-03        -1.11164     139.861E-03    -16.4885E-03    -123.372E-03    -30.5149E-03     47.0034E-03    -16.4885E-03     250.332E-03     155.234E+06     23.8019E+06    -19.0109E+06    -10.0604E+06     155.205E+06     14.8806E+06     1.49210E+06         57.3977
            1480     16.7266E-03     74.8527E-03         2.94920    -790.018E-03    -987.565E-03    -789.440E-03         2.94446    -983.397E-03    -59.4438E-03     253.510E-03    -16.8347E-03    -236.675E-03    -50.8828E-03     67.7175E-03    -16.8347E-03     475.578E-03     202.750E+06     84.9348E+06    -5.70774E+06    -5.69937E+06     202.741E+06     84.9348E+06     1.26645E+06         70.2177
            1481     983.690E-06     75.2085E-03         7.90818        -1.51418        -5.18336         1.71413         4.49572        -4.99920        -4.51547     33.4122E-03    -16.6205E-03    -16.7916E-03    -16.6742E-03     33.3945E-03    -16.7202E-03     1.81095E-03    -6.68464E+06    -10.4446E+06    -183.176E+06    -8.90339E+06    -183.157E+06    -8.24442E+06    -189.633E+03         22.4308
            1482     1.96757E-03     75.2107E-03         4.50402        -1.50156        -1.79012        -1.45729         4.27560        -1.60597         2.02515     33.4284E-03    -16.6640E-03    -16.7644E-03    -16.6940E-03     33.3832E-03    -16.6892E-03     2.94206E-03    -7.76830E+06    -9.65772E+06    -174.947E+06    -8.77675E+06    -174.906E+06    -8.69059E+06    -2.53537E+06         22.4544
            1483     2.95108E-03     75.2146E-03         4.81071        -1.42365        -2.16716        -1.27553         4.02349        -1.52807         3.59110     33.5066E-03    -16.6826E-03    -16.8240E-03    -16.7261E-03     33.4088E-03    -16.6826E-03     4.35933E-03    -7.69906E+06    -9.09050E+06    -166.116E+06    -7.99842E+06    -166.006E+06    -8.90035E+06    -4.03365E+06         22.4940
            1484     3.93477E-03     75.2199E-03         4.76068        -1.41898        -2.09412        -1.19209         3.89469        -1.45503         4.19175     33.6052E-03    -16.6925E-03    -16.9127E-03    -16.7528E-03     33.4452E-03    -16.6925E-03     5.65268E-03    -6.69188E+06    -7.76282E+06    -160.293E+06    -7.06566E+06    -160.092E+06    -7.58985E+06    -5.33867E+06         22.5513
            1485     4.91843E-03     75.2271E-03         4.00317        -1.33035        -1.40376        -1.19610         3.86892        -1.40376         1.62011     33.4956E-03    -16.6776E-03    -16.8180E-03    -16.6079E-03     33.2913E-03    -16.6834E-03     6.39102E-03    -5.22822E+06    -7.00538E+06    -154.635E+06    -5.58340E+06    -154.369E+06    -6.91659E+06    -6.11252E+06         22.6283
            1486     5.90210E-03     75.2335E-03         3.87857        -1.23394        -1.36856        -1.16225         3.80687        -1.36856         1.17978     33.4190E-03    -16.6486E-03    -16.7704E-03    -16.5028E-03     33.1572E-03    -16.6544E-03     7.20542E-03    -3.56495E+06    -6.20136E+06    -149.793E+06    -3.94779E+06    -149.411E+06    -6.20136E+06    -7.35493E+06         22.7282
            1487     6.88615E-03     75.2426E-03         4.03166        -1.23686        -1.52293        -1.04766         3.65362        -1.33411         2.44707     33.4912E-03    -16.6044E-03    -16.8868E-03    -16.5355E-03     33.1399E-03    -16.6044E-03     8.36114E-03    -2.15324E+06    -8.03758E+06    -138.923E+06    -2.72783E+06    -138.349E+06    -8.03758E+06    -8.73259E+06         22.8560
            1488     7.86994E-03     75.2520E-03         4.11190        -1.29618        -1.54842    -959.930E-03         3.52341        -1.29618         3.42545     33.4271E-03    -16.5504E-03    -16.8768E-03    -16.4586E-03     33.0090E-03    -16.5504E-03     9.13213E-03    -1.96483E+06    -11.1402E+06    -125.440E+06    -2.69731E+06    -124.707E+06    -11.1402E+06    -9.44371E+06         23.0199
            1489     8.85402E-03     75.2623E-03         3.69677        -1.09919        -1.32341    -919.692E-03         3.45386        -1.26000         1.42574     33.3627E-03    -16.5020E-03    -16.8607E-03    -16.3886E-03     32.8906E-03    -16.5020E-03     9.68610E-03    -1.67307E+06    -12.6572E+06    -111.702E+06    -2.43614E+06    -110.939E+06    -12.6572E+06    -9.06219E+06         23.2375
            1490     9.83801E-03     75.2729E-03         3.64084        -1.06038        -1.28834    -924.098E-03         3.44599        -1.22978        -1.44814     33.4372E-03    -16.4448E-03    -16.9925E-03    -16.4015E-03     32.8462E-03    -16.4448E-03     10.8273E-03    -771.717E+03    -14.9231E+06    -92.8311E+06    -1.62170E+06    -91.9811E+06    -14.9231E+06    -8.63908E+06         23.5594
            1491     10.8219E-03     75.2858E-03         3.66249        -1.08974        -1.26349    -905.797E-03         3.41998        -1.20493        -1.99977     33.3535E-03    -16.3624E-03    -16.9911E-03    -16.4008E-03     32.7633E-03    -16.3624E-03     10.8116E-03    -384.933E+03    -23.5124E+06    -73.5358E+06    -1.19030E+06    -72.7305E+06    -23.5124E+06    -7.53688E+06         24.1385
            1492     11.8060E-03     75.2963E-03         3.41724    -920.846E-03        -1.18226    -870.916E-03         3.36731        -1.18226    -583.490E-03     33.2166E-03    -16.2764E-03    -16.9402E-03    -16.3576E-03     32.6340E-03    -16.2764E-03     10.7244E-03    -1.29422E+06    -23.5525E+06    -48.0277E+06    -1.72396E+06    -40.0775E+06    -31.0729E+06    -3.96938E+06         25.3834
            1493     12.7898E-03     75.3094E-03         3.36788    -896.637E-03        -1.16253    -872.608E-03         3.34385        -1.16253    -364.583E-03     33.5901E-03    -16.1841E-03    -17.4060E-03    -16.3247E-03     32.5088E-03    -16.1841E-03     14.4081E-03     14.4524E+06    -10.8413E+06    -39.5443E+06    -3.67671E+06     7.28781E+06    -39.5443E+06    -1.96072E+06         28.1783
            1494     13.7736E-03     75.3272E-03         3.52153        -1.02855        -1.19926    -899.737E-03         3.34177        -1.14830        -1.61626     34.3453E-03    -16.0555E-03    -18.2899E-03    -16.2030E-03     32.2584E-03    -16.0555E-03     20.3417E-03     46.0696E+06    -7.36059E+06    -63.4936E+06    -7.18272E+06     45.8917E+06    -63.4936E+06    -2.36292E+06         33.9384
            1495     14.7580E-03     75.3530E-03         3.57355        -1.08379        -1.21507    -907.782E-03         3.32733        -1.14486        -2.07012     51.0428E-03    -16.1332E-03    -34.9096E-03    -17.4034E-03     33.5366E-03    -16.1332E-03     64.4117E-03     94.4805E+06    -10.7018E+06    -53.4876E+06    -10.6392E+06     94.4179E+06    -53.4876E+06    -1.17275E+06         43.9170
            1496     15.7434E-03     75.4610E-03         3.42140    -962.359E-03        -1.19548    -888.696E-03         3.32848        -1.17622        -1.05073     141.362E-03    -16.5340E-03    -124.828E-03    -31.0766E-03     47.6106E-03    -16.5340E-03     253.140E-03     156.128E+06     22.2396E+06    -18.6680E+06    -10.8308E+06     156.126E+06     14.4043E+06     274.029E+03         57.4326
            1497     16.7224E-03     75.8929E-03         3.41881    -886.242E-03        -1.26544    -880.978E-03         3.41354        -1.26544    -36.1603E-03     253.471E-03    -16.8665E-03    -236.604E-03    -50.4473E-03     67.3138E-03    -16.8665E-03     475.680E-03     201.900E+06     82.5169E+06     -6.9073E+06    -6.90142E+06     201.894E+06     82.5169E+06     473.260E+03         70.3882
            1498     983.549E-06     76.2411E-03         7.72918        -1.16575        -5.29590         1.35569         5.05599        -5.14414        -3.97833     33.6321E-03    -16.7087E-03    -16.9234E-03    -16.7662E-03     33.6169E-03    -16.8507E-03     1.64014E-03    -6.12063E+06    -10.2927E+06    -181.884E+06    -8.74466E+06    -181.872E+06    -7.68041E+06    -492.786E+03         22.4360
            1499     1.96720E-03     76.2442E-03         5.16063        -1.84013        -2.03793        -1.85206         5.02081        -1.88617         1.82678     33.5578E-03    -16.7243E-03    -16.8334E-03    -16.7236E-03     33.5155E-03    -16.7918E-03     2.84664E-03    -6.00287E+06    -7.56279E+06    -170.997E+06    -7.61228E+06    -170.947E+06    -6.00287E+06    -2.36101E+06         22.4594
            1500     2.95105E-03     76.2475E-03         5.50167        -1.81181        -2.39696        -1.73182         4.88258        -1.85786         3.57479     33.7024E-03    -16.7681E-03    -16.9344E-03    -16.8376E-03     33.6057E-03    -16.7681E-03     4.33849E-03    -6.41418E+06    -7.56142E+06    -161.891E+06    -6.80519E+06    -161.744E+06    -7.31746E+06    -4.62756E+06         22.4985
            1501     3.93425E-03     76.2538E-03         5.50448        -1.81496        -2.36593        -1.68211         4.82702        -1.82133         4.04758     33.6506E-03    -16.7393E-03    -16.9113E-03    -16.7327E-03     33.4946E-03    -16.7620E-03     5.58851E-03    -6.07850E+06    -8.35592E+06    -158.254E+06    -6.36879E+06    -157.964E+06    -8.35592E+06    -6.54373E+06         22.5550
            1502     4.91805E-03     76.2595E-03         4.85121        -1.70984        -1.79410        -1.61170         4.74757        -1.78861         1.54898     33.5158E-03    -16.7079E-03    -16.8080E-03    -16.5763E-03     33.3069E-03    -16.7306E-03     6.45120E-03    -5.71569E+06    -8.41650E+06    -153.097E+06    -6.11536E+06    -152.698E+06    -8.41650E+06    -7.62766E+06         22.6314
            1503     5.90205E-03     76.2671E-03         4.67298        -1.56475        -1.75418        -1.52034         4.62857        -1.75418         1.03610     33.6066E-03    -16.6978E-03    -16.9089E-03    -16.6223E-03     33.3200E-03    -16.6978E-03     7.56188E-03    -4.86481E+06    -7.83987E+06    -146.853E+06    -5.44784E+06    -146.270E+06    -7.83987E+06    -8.93074E+06         22.7312
            1504     6.88552E-03     76.2753E-03         4.76215        -1.59817        -1.81601        -1.39878         4.46196        -1.71520         2.37161     33.6113E-03    -16.6525E-03    -16.9587E-03    -16.5873E-03     33.2398E-03    -16.6525E-03     8.62412E-03    -3.74728E+06    -10.2255E+06    -136.673E+06    -4.61602E+06    -135.804E+06    -10.2255E+06    -10.5807E+06         22.8589
            1505     7.86956E-03     76.2852E-03         4.77988        -1.65614        -1.78238        -1.28560         4.29880        -1.67184         3.39989     33.5203E-03    -16.5999E-03    -16.9204E-03    -16.4915E-03     33.0913E-03    -16.5999E-03     9.26019E-03    -2.77104E+06    -12.8905E+06    -124.268E+06    -3.73493E+06    -123.304E+06    -12.8905E+06    -10.7269E+06         23.0223
            1506     8.85338E-03     76.2949E-03         4.36655        -1.38334        -1.63673        -1.19002         4.16350        -1.62700         1.49479     33.5438E-03    -16.5558E-03    -16.9880E-03    -16.4984E-03     33.0543E-03    -16.5558E-03     9.88952E-03    -2.11247E+06    -14.0519E+06    -111.536E+06    -3.22927E+06    -110.419E+06    -14.0519E+06    -10.8674E+06         23.2382
            1507     9.83718E-03     76.3063E-03         4.23012        -1.28386        -1.58395        -1.13257         4.07884        -1.58395        -1.32492     33.5670E-03    -16.4980E-03    -17.0690E-03    -16.4724E-03     32.9704E-03    -16.4980E-03     10.9093E-03    -2.23000E+06    -17.5990E+06    -93.4856E+06    -3.42134E+06    -92.2942E+06    -17.5990E+06    -10.2964E+06         23.5558
            1508     10.8212E-03     76.3184E-03         4.22405        -1.30008        -1.54560        -1.11364         4.03761        -1.54560        -1.88309     33.4070E-03    -16.4194E-03    -16.9876E-03    -16.3955E-03     32.8150E-03    -16.4194E-03     10.8401E-03    -3.37597E+06    -25.7763E+06    -75.0410E+06    -4.48316E+06    -73.9338E+06    -25.7763E+06    -8.76418E+06         24.1251
            1509     11.8050E-03     76.3299E-03         4.02359        -1.12514        -1.51200        -1.08769         3.98613        -1.51200    -457.537E-03     33.2299E-03    -16.3113E-03    -16.9186E-03    -16.3173E-03     32.6287E-03    -16.3113E-03     10.8887E-03    -2.80692E+06    -27.5522E+06    -54.5281E+06    -4.52894E+06    -43.5796E+06    -36.7786E+06    -7.21974E+06         25.3495
            1510     12.7892E-03     76.3419E-03         3.93654        -1.07110        -1.48220        -1.05790         3.92334        -1.48220    -184.528E-03     33.5933E-03    -16.2246E-03    -17.3686E-03    -16.2247E-03     32.4494E-03    -16.2246E-03     14.7791E-03     14.9482E+06    -13.1167E+06    -40.8962E+06    -3.17787E+06     5.00938E+06    -40.8962E+06    -3.67008E+06         28.1113
            1511     13.7732E-03     76.3617E-03         4.01647        -1.18487        -1.45729        -1.06280         3.89440        -1.45729        -1.39652     34.3919E-03    -16.1063E-03    -18.2856E-03    -16.1843E-03     32.2906E-03    -16.1063E-03     20.4757E-03     46.3198E+06    -5.62687E+06    -60.1867E+06    -5.53735E+06     46.2303E+06    -60.1867E+06    -1.51999E+06         33.8396
            1512     14.7579E-03     76.3842E-03         4.04004        -1.23261        -1.44280        -1.04893         3.85636        -1.44280        -1.91676     51.4152E-03    -16.1482E-03    -35.2671E-03    -17.4426E-03     33.5908E-03    -16.1482E-03     65.0374E-03     93.1459E+06    -10.3837E+06    -57.2291E+06    -10.3162E+06     93.0784E+06    -57.2291E+06    -1.29798E+06         43.8262
            1513     15.7403E-03     76.4982E-03         3.92314        -1.10052        -1.46220        -1.02624         3.84886        -1.46220    -954.522E-03     140.821E-03    -16.4883E-03    -124.333E-03    -29.3192E-03     45.8074E-03    -16.4883E-03     253.035E-03     153.988E+06     19.7477E+06    -21.7231E+06    -10.8771E+06     153.980E+06     8.90907E+06    -518.484E+03         57.4372
            1514     16.7343E-03     76.9245E-03         3.92479        -1.02120        -1.53749        -1.01785         3.92144        -1.53749     27.1047E-03     252.069E-03    -16.7825E-03    -235.286E-03    -50.0452E-03     66.8277E-03    -16.7825E-03     473.124E-03     201.718E+06     80.3410E+06    -6.54242E+06    -6.53899E+06     201.715E+06     80.3410E+06     25.1491E+03         70.5184
            1515     983.352E-06     77.2752E-03         7.53273    -772.211E-03        -5.42994     980.425E-03         5.64156        -5.29140        -3.43390     33.8325E-03    -16.8238E-03    -17.0087E-03    -16.9537E-03     33.8197E-03    -16.8661E-03     1.45911E-03    -6.42734E+06    -9.53691E+06    -179.580E+06    -8.90597E+06    -179.570E+06    -7.06824E+06    -1.08594E+06         22.4404
            1516     1.96709E-03     77.2767E-03         5.90262        -2.18283        -2.37042        -2.30313         5.83857        -2.18607         1.36222     33.8179E-03    -16.8503E-03    -16.9675E-03    -16.8776E-03     33.7702E-03    -16.8926E-03     2.98829E-03    -6.56428E+06    -8.94228E+06    -166.903E+06    -7.93010E+06    -166.848E+06    -7.63191E+06    -2.45672E+06         22.4635
            1517     2.95029E-03     77.2817E-03         6.28184        -2.21854        -2.69572        -2.25054         5.83990        -2.22178         3.31444     33.7449E-03    -16.8031E-03    -16.9418E-03    -16.7928E-03     33.6478E-03    -16.8550E-03     4.39048E-03    -7.87722E+06    -9.80151E+06    -158.023E+06    -8.20719E+06    -157.831E+06    -9.66353E+06    -5.17804E+06         22.5021
            1518     3.93420E-03     77.2865E-03         6.21778        -2.16600        -2.65004        -2.11808         5.73625        -2.21642         3.69204     33.5552E-03    -16.7097E-03    -16.8455E-03    -16.5953E-03     33.4060E-03    -16.8108E-03     5.44487E-03    -6.96443E+06    -9.24921E+06    -155.159E+06    -7.35236E+06    -154.771E+06    -9.24921E+06    -7.44235E+06         22.5582
            1519     4.91817E-03     77.2929E-03         5.58963        -1.97833        -2.18499        -1.90878         5.51458        -2.17950         1.41374     33.5424E-03    -16.7020E-03    -16.8405E-03    -16.5735E-03     33.3247E-03    -16.7512E-03     6.57727E-03    -5.73635E+06    -9.57426E+06    -150.477E+06    -6.28219E+06    -149.931E+06    -9.57426E+06    -8.79703E+06         22.6346
            1520     5.90173E-03     77.3000E-03         5.38311        -1.82403        -2.12693        -1.78887         5.34796        -2.12693     992.500E-03     33.6670E-03    -16.7147E-03    -16.9523E-03    -16.6562E-03     33.3709E-03    -16.7147E-03     7.70493E-03    -4.71936E+06    -9.12241E+06    -143.973E+06    -5.47612E+06    -143.217E+06    -9.12241E+06    -10.1564E+06         22.7344
            1521     6.88560E-03     77.3089E-03         5.46183        -1.92322        -2.11391        -1.70754         5.20762        -2.07538         2.38381     33.6608E-03    -16.6745E-03    -16.9864E-03    -16.6114E-03     33.2859E-03    -16.6745E-03     8.66889E-03    -4.25456E+06    -10.8898E+06    -133.708E+06    -5.39402E+06    -132.568E+06    -10.8898E+06    -11.9862E+06         22.8620
            1522     7.86922E-03     77.3178E-03         5.45221        -1.97184        -2.06372        -1.59284         5.03467        -2.02519         3.41891     33.6301E-03    -16.6212E-03    -17.0089E-03    -16.5565E-03     33.1777E-03    -16.6212E-03     9.52106E-03    -3.44115E+06    -14.8437E+06    -123.550E+06    -4.86700E+06    -122.124E+06    -14.8437E+06    -12.8882E+06         23.0245
            1523     8.85306E-03     77.3284E-03         5.04294        -1.65184        -1.97336        -1.46698         4.85808        -1.97336         1.55334     33.6726E-03    -16.5788E-03    -17.0938E-03    -16.5620E-03     33.1407E-03    -16.5788E-03     10.3266E-03    -2.07858E+06    -16.1980E+06    -110.774E+06    -3.61982E+06    -109.233E+06    -16.1980E+06    -12.7246E+06         23.2381
            1524     9.83680E-03     77.3391E-03         4.84298        -1.49010        -1.92117        -1.36844         4.72132        -1.92117        -1.25808     33.6733E-03    -16.5253E-03    -17.1480E-03    -16.5031E-03     33.0284E-03    -16.5253E-03     11.3550E-03    -1.63928E+06    -19.4776E+06    -94.7699E+06    -3.12646E+06    -93.2827E+06    -19.4776E+06    -11.6279E+06         23.5509
            1525     10.8205E-03     77.3518E-03         4.78917        -1.47049        -1.87214        -1.32110         4.63978        -1.87214        -1.80215     33.4662E-03    -16.4362E-03    -17.0301E-03    -16.3710E-03     32.8071E-03    -16.4362E-03     11.4443E-03    -1.58600E+06    -28.4510E+06    -76.0172E+06    -3.05309E+06    -74.5501E+06    -28.4510E+06    -10.2344E+06         24.1097
            1526     11.8048E-03     77.3624E-03         4.60946        -1.32386        -1.82842        -1.29434         4.57994        -1.82842    -439.012E-03     33.2474E-03    -16.3119E-03    -16.9355E-03    -16.2452E-03     32.5570E-03    -16.3119E-03     11.6537E-03    -1.14909E+06    -31.4466E+06    -56.3735E+06    -4.04602E+06    -43.7761E+06    -41.1472E+06    -9.91127E+06         25.3125
            1527     12.7885E-03     77.3756E-03         4.50230        -1.25303        -1.78924        -1.24262         4.49189        -1.78924    -176.767E-03     33.5815E-03    -16.2008E-03    -17.3808E-03    -16.1176E-03     32.3184E-03    -16.2008E-03     15.5388E-03     11.9906E+06    -18.0057E+06    -50.3199E+06    -5.60669E+06    -408.345E+03    -50.3199E+06    -7.30511E+06         28.0385
            1528     13.7734E-03     77.3938E-03         4.50592        -1.29375        -1.75356        -1.19138         4.40355        -1.75356        -1.34893     34.6525E-03    -16.1005E-03    -18.5520E-03    -16.2637E-03     32.3642E-03    -16.1005E-03     21.4334E-03     44.4920E+06    -6.93213E+06    -64.1069E+06    -6.46274E+06     44.0226E+06    -64.1069E+06    -2.36360E+06         33.7290
            1529     14.7562E-03     77.4197E-03         4.51326        -1.32979        -1.72745        -1.17649         4.35995        -1.72745        -1.85366     51.7039E-03    -16.1398E-03    -35.5641E-03    -17.1695E-03     33.3093E-03    -16.1398E-03     66.1004E-03     92.8983E+06    -8.51730E+06    -58.6189E+06    -8.50823E+06     92.8893E+06    -58.6189E+06    -512.973E+03         43.7170
            1530     15.7430E-03     77.5300E-03         4.41937        -1.22664        -1.73522        -1.16675         4.35948        -1.73522    -872.036E-03     139.861E-03    -16.4550E-03    -123.406E-03    -29.1346E-03     45.5896E-03    -16.4550E-03     251.402E-03     152.608E+06     19.1568E+06    -24.5349E+06    -8.98195E+06     152.596E+06     3.61628E+06    -1.03617E+06         57.3981
            1531     16.7260E-03     77.9508E-03         4.39673        -1.12226        -1.79655        -1.12067         4.39514        -1.79655     67.9380E-03     251.245E-03    -16.7683E-03    -234.476E-03    -50.2463E-03     67.0146E-03    -16.7683E-03     471.339E-03     201.775E+06     75.6358E+06    -5.23298E+06    -5.22370E+06     201.766E+06     75.6358E+06    -494.930E+03         70.5964
            1532     983.668E-06     78.3080E-03         7.59369    -486.325E-03        -5.70929     453.218E-03         6.56054        -5.61567        -2.73880     33.8831E-03    -16.8854E-03    -16.9976E-03    -16.9774E-03     33.8684E-03    -16.8910E-03     1.53186E-03    -10.5965E+06    -12.2863E+06    -176.679E+06    -11.4690E+06    -176.651E+06    -11.4417E+06    -1.68018E+06         22.4431
            1533     1.96668E-03     78.3111E-03         6.81553        -2.61464        -2.78294        -2.74228         6.77487        -2.61464         1.10466     33.9058E-03    -16.9012E-03    -17.0045E-03    -16.9329E-03     33.8510E-03    -16.9181E-03     3.21164E-03    -9.73607E+06    -11.8578E+06    -162.955E+06     -10.414E+06    -162.853E+06    -11.2824E+06    -3.68525E+06         22.4657
            1534     2.95036E-03     78.3147E-03         7.06846        -2.64686        -2.98204        -2.63818         6.72460        -2.64686         3.25811     33.6897E-03    -16.7884E-03    -16.9014E-03    -16.7151E-03     33.5897E-03    -16.8746E-03     4.47271E-03    -9.31133E+06    -11.9068E+06    -154.203E+06    -9.60406E+06    -153.910E+06    -11.9068E+06    -6.20137E+06         22.5041
            1535     3.93408E-03     78.3198E-03         6.83736        -2.48171        -2.87683        -2.36812         6.46329        -2.61634         3.50923     33.5793E-03    -16.7211E-03    -16.8582E-03    -16.6104E-03     33.4274E-03    -16.8170E-03     5.48442E-03    -8.55413E+06    -10.9440E+06    -150.869E+06    -9.10658E+06    -150.316E+06    -10.9440E+06    -8.74617E+06         22.5606
            1536     4.91785E-03     78.3257E-03         6.25431        -2.20572        -2.54608        -2.13224         6.18082        -2.54608         1.44298     33.6424E-03    -16.7446E-03    -16.8978E-03    -16.6513E-03     33.4224E-03    -16.7711E-03     6.63049E-03    -7.02011E+06    -10.2622E+06    -147.038E+06    -7.88844E+06    -146.169E+06    -10.2622E+06    -10.7980E+06         22.6373
            1537     5.90169E-03     78.3336E-03         6.05643        -2.07539        -2.47113        -2.03970         6.02073        -2.47113         1.04203     33.6490E-03    -16.7389E-03    -16.9101E-03    -16.6168E-03     33.3558E-03    -16.7389E-03     7.66021E-03    -4.46493E+06    -8.96994E+06    -141.157E+06    -5.61045E+06    -140.012E+06    -8.96994E+06    -12.2846E+06         22.7372
            1538     6.88532E-03     78.3416E-03         6.13211        -2.21567        -2.41532        -2.00095         5.91075        -2.40868         2.43627     33.6288E-03    -16.6948E-03    -16.9340E-03    -16.5595E-03     33.2543E-03    -16.6948E-03     8.65754E-03    -1.88896E+06    -8.81731E+06    -130.579E+06    -3.31317E+06    -129.155E+06    -8.81731E+06    -13.3604E+06         22.8645
            1539     7.86930E-03     78.3513E-03         6.10822        -2.25516        -2.36143        -1.91228         5.75870        -2.35479         3.33267     33.6693E-03    -16.6343E-03    -17.0350E-03    -16.5734E-03     33.2077E-03    -16.6343E-03     9.62029E-03    -702.489E+03    -13.4255E+06    -121.790E+06    -2.60510E+06    -119.887E+06    -13.4255E+06    -14.9912E+06         23.0259
            1540     8.85305E-03     78.3612E-03         5.68698        -1.89750        -2.29938        -1.74312         5.53260        -2.29938         1.48868     33.6684E-03    -16.5835E-03    -17.0849E-03    -16.5373E-03     33.1208E-03    -16.5835E-03     10.4787E-03    -366.036E+03    -16.7643E+06    -110.956E+06    -2.43799E+06    -108.884E+06    -16.7643E+06    -14.9616E+06         23.2371
            1541     9.83691E-03     78.3727E-03         5.46704        -1.72567        -2.24120        -1.62825         5.36961        -2.24120        -1.22423     33.5868E-03    -16.5272E-03    -17.0596E-03    -16.4025E-03     32.9297E-03    -16.5272E-03     11.4436E-03     634.884E+03    -19.1148E+06    -95.6336E+06    -1.53212E+06    -93.4666E+06    -19.1148E+06    -14.1411E+06         23.5450
            1542     10.8212E-03     78.3842E-03         5.40221        -1.69993        -2.18637        -1.57855         5.28083        -2.18637        -1.74488     33.3687E-03    -16.4235E-03    -16.9451E-03    -16.2606E-03     32.6841E-03    -16.4235E-03     11.6504E-03     2.20589E+06    -28.4011E+06    -77.2500E+06    -126.236E+03    -74.9179E+06    -28.4011E+06    -13.2983E+06         24.0935
            1543     11.8050E-03     78.3960E-03         5.20718        -1.54349        -2.13644        -1.51841         5.18210        -2.13644    -464.435E-03     33.1645E-03    -16.3052E-03    -16.8593E-03    -16.1290E-03     32.4342E-03    -16.3052E-03     11.9756E-03     1.79894E+06    -31.6752E+06    -53.7762E+06    -930.589E+03    -44.6279E+06    -38.0940E+06    -10.6104E+06         25.2743
            1544     12.7897E-03     78.4077E-03         5.05492        -1.42850        -2.08890        -1.41834         5.04475        -2.08890    -233.582E-03     33.6001E-03    -16.1709E-03    -17.4292E-03    -16.0791E-03     32.2500E-03    -16.1709E-03     16.0585E-03     12.0048E+06    -18.1890E+06    -51.1717E+06    -3.54769E+06    -2.63644E+06    -51.1717E+06    -9.23534E+06         27.9624
            1545     13.7732E-03     78.4279E-03         4.99433        -1.40980        -2.04244        -1.31426         4.89879        -2.04244        -1.38124     34.6077E-03    -16.0428E-03    -18.5649E-03    -16.0130E-03     32.0558E-03    -16.0428E-03     22.5418E-03     40.3823E+06    -7.16644E+06    -69.4451E+06    -5.23573E+06     38.4516E+06    -69.4451E+06    -6.24334E+06         33.6129
            1546     14.7585E-03     78.4526E-03         4.95075        -1.40179        -2.00381        -1.26652         4.81549        -2.00381        -1.81418     51.2213E-03    -16.0684E-03    -35.1529E-03    -16.3566E-03     32.4250E-03    -16.0684E-03     66.5825E-03     90.7319E+06    -6.55422E+06    -58.9038E+06    -6.43213E+06     90.6098E+06    -58.9038E+06    -1.05676E+06         43.6060
            1547     15.7430E-03     78.5621E-03         4.84432        -1.29368        -1.99830        -1.24402         4.79466        -1.99830    -862.341E-03     141.378E-03    -16.4027E-03    -124.975E-03    -31.0659E-03     47.4687E-03    -16.4027E-03     253.795E-03     153.746E+06     19.8215E+06    -23.9102E+06    -7.26419E+06     153.735E+06     3.18656E+06     195.554E+03         57.3550
            1548     16.7285E-03     78.9891E-03         4.82003        -1.18878        -2.04490        -1.18667         4.81792        -2.04490     44.2032E-03     250.216E-03    -16.7807E-03    -233.435E-03    -50.6032E-03     67.3840E-03    -16.7807E-03     468.977E-03     200.974E+06     71.7467E+06    -5.24687E+06    -5.22703E+06     200.955E+06     71.7467E+06    -1.23772E+06         70.6682
            1549     983.350E-06     79.3424E-03         7.93882    -419.821E-03        -6.05533    -100.186E-03         7.54652        -5.98266        -1.86628     33.8622E-03    -16.8567E-03    -17.0054E-03    -16.9635E-03     33.8449E-03    -16.8813E-03     1.76236E-03    -14.0620E+06    -15.4757E+06    -173.464E+06    -14.8721E+06    -173.383E+06    -14.7472E+06    -2.31157E+06         22.4429
            1550     1.96701E-03     79.3442E-03         7.65116        -3.02313        -3.14813        -3.06168         7.58816        -3.04658         1.17659     33.7334E-03    -16.8163E-03    -16.9171E-03    -16.8011E-03     33.6815E-03    -16.8804E-03     3.12377E-03    -12.0415E+06    -14.5761E+06    -158.060E+06    -12.7211E+06     -157.84E+06    -14.1168E+06    -5.47377E+06         22.4660
            1551     2.95055E-03     79.3484E-03         7.68204        -2.99699        -3.17611        -2.83367         7.36305        -3.02044         3.45431     33.6077E-03    -16.7544E-03    -16.8534E-03    -16.6926E-03     33.5095E-03    -16.8169E-03     4.41842E-03    -11.5884E+06    -14.9341E+06    -149.369E+06    -12.0460E+06    -148.911E+06    -14.9341E+06    -7.71091E+06         22.5050
            1552     3.93430E-03     79.3527E-03         7.41640        -2.79465        -3.07341        -2.59375         7.08871        -2.94662         3.48049     33.6893E-03    -16.7695E-03    -16.9198E-03    -16.7432E-03     33.5302E-03    -16.7870E-03     5.62035E-03    -10.5273E+06    -13.3916E+06    -145.854E+06    -11.3620E+06    -145.020E+06    -13.3916E+06    -10.4130E+06         22.5621
            1553     4.91773E-03     79.3596E-03         6.94876        -2.51033        -2.86129        -2.43176         6.87019        -2.86129         1.53164     33.7051E-03    -16.7725E-03    -16.9326E-03    -16.7042E-03     33.4767E-03    -16.7725E-03     6.77113E-03    -9.03755E+06    -11.9484E+06    -143.014E+06    -10.3062E+06    -141.746E+06    -11.9484E+06    -12.8343E+06         22.6393
            1554     5.90130E-03     79.3663E-03         6.78399        -2.41274        -2.78677        -2.38250         6.75374        -2.78677         1.00713     33.6172E-03    -16.7349E-03    -16.8823E-03    -16.5796E-03     33.3145E-03    -16.7349E-03     7.77269E-03    -7.35189E+06    -12.6486E+06    -137.798E+06    -9.19034E+06    -135.960E+06    -12.6486E+06    -15.1599E+06         22.7395
            1555     6.88542E-03     79.3752E-03         6.81077        -2.50611        -2.72683        -2.32402         6.62869        -2.72683         2.34328     33.5861E-03    -16.6819E-03    -16.9042E-03    -16.5191E-03     33.2010E-03    -16.6819E-03     8.77480E-03    -4.19531E+06    -13.3983E+06    -128.663E+06    -6.58012E+06    -126.278E+06    -13.3983E+06    -16.7522E+06         22.8666
            1556     7.86911E-03     79.3841E-03         6.71139        -2.47430        -2.67122        -2.19626         6.43334        -2.67122         3.13174     33.6713E-03    -16.6353E-03    -17.0360E-03    -16.5641E-03     33.1993E-03    -16.6353E-03     9.72456E-03    -1.04549E+06    -14.1418E+06    -119.614E+06    -3.74751E+06    -116.912E+06    -14.1418E+06    -17.4878E+06         23.0271
            1557     8.85292E-03     79.3948E-03         6.29641        -2.12249        -2.61080        -2.00313         6.17705        -2.61080         1.33535     33.6154E-03    -16.5876E-03    -17.0278E-03    -16.4930E-03     33.0807E-03    -16.5876E-03     10.3489E-03     737.550E+03    -16.5322E+06    -111.142E+06    -2.15398E+06    -108.250E+06    -16.5322E+06    -17.6583E+06         23.2361
            1558     9.83696E-03     79.4051E-03         6.07586        -1.95828        -2.54673        -1.87680         5.99438        -2.54673        -1.22527     33.4630E-03    -16.5207E-03    -16.9423E-03    -16.2989E-03     32.8196E-03    -16.5207E-03     11.2796E-03     2.10982E+06    -19.2998E+06    -95.7202E+06    -1.09995E+06    -92.5104E+06    -19.2998E+06    -17.2789E+06         23.5397
            1559     10.8209E-03     79.4176E-03         6.00306        -1.93181        -2.48672        -1.83202         5.90327        -2.48672        -1.66901     33.2178E-03    -16.4149E-03    -16.8029E-03    -16.1445E-03     32.5594E-03    -16.4149E-03     11.3750E-03     2.43704E+06    -27.9009E+06    -78.5835E+06    -1.02580E+06    -75.1206E+06    -27.9009E+06    -16.3134E+06         24.0782
            1560     11.8056E-03     79.4280E-03         5.79804        -1.76543        -2.43160        -1.74562         5.77824        -2.43160    -418.653E-03     33.0021E-03    -16.2864E-03    -16.7157E-03    -16.0030E-03     32.2894E-03    -16.2864E-03     11.7576E-03     4.60183E+06    -32.6040E+06    -56.5856E+06     461.589E+03    -47.2579E+06    -37.7914E+06    -13.9718E+06         25.2370
            1561     12.7895E-03     79.4413E-03         5.58769        -1.59907        -2.37651        -1.58939         5.57802        -2.37651    -230.128E-03     33.3716E-03    -16.1562E-03    -17.2153E-03    -15.8667E-03     32.0230E-03    -16.1562E-03     16.0060E-03     14.9623E+06    -16.9655E+06    -46.1036E+06     1.29134E+06    -3.29453E+06    -46.1036E+06    -10.8176E+06         27.8867
            1562     13.7747E-03     79.4600E-03         5.47981        -1.53622        -2.32036        -1.45537         5.39896        -2.32036        -1.34135     34.0738E-03    -16.0038E-03    -18.0700E-03    -15.5198E-03     31.5236E-03    -16.0038E-03     22.2759E-03     35.5437E+06    -4.65994E+06    -66.3140E+06    -2.42515E+06     33.3089E+06    -66.3140E+06    -7.29497E+06         33.4977
            1563     14.7593E-03     79.4855E-03         5.38866        -1.48778        -2.27080        -1.37248         5.27336        -2.27080        -1.74992     50.1986E-03    -15.9797E-03    -34.2189E-03    -15.8417E-03     31.8214E-03    -15.9797E-03     65.2488E-03     86.2526E+06    -7.02545E+06    -60.5657E+06    -6.75557E+06     85.9827E+06    -60.5657E+06    -2.86601E+06         43.4956
            1564     15.7482E-03     79.5923E-03         5.24902        -1.35289        -2.25307        -1.30889         5.20503        -2.25307    -856.972E-03     144.151E-03    -16.2887E-03    -127.863E-03    -31.6282E-03     47.9169E-03    -16.2887E-03     259.374E-03     154.087E+06     18.7464E+06    -23.5800E+06    -7.72479E+06     154.069E+06     2.90961E+06    -254.773E+03         57.3358
            1565     16.7235E-03     80.0363E-03         5.20419        -1.25262        -2.28575        -1.25095         5.20251        -2.28575    -3.87855E-03     249.607E-03    -16.6593E-03    -232.947E-03    -50.8978E-03     67.5572E-03    -16.6593E-03     467.733E-03     201.288E+06     68.8269E+06    -4.09382E+06    -4.07070E+06     201.265E+06     68.8269E+06    -125.371E+03         70.7762
            1566     983.481E-06     80.3756E-03         8.34405    -577.391E-03        -6.26107    -521.030E-03         8.25244        -6.22582        -1.09510     33.6742E-03    -16.7580E-03    -16.9163E-03    -16.8384E-03     33.6543E-03    -16.8159E-03     1.89391E-03    -16.7167E+06    -18.4448E+06    -167.474E+06    -17.3090E+06    -167.341E+06    -17.9855E+06    -3.56769E+06         22.4407
            1567     1.96688E-03     80.3780E-03         8.22214        -3.30361        -3.38442        -3.24989         8.13317        -3.34917         1.10831     33.5954E-03    -16.7444E-03    -16.8510E-03    -16.7550E-03     33.5466E-03    -16.7916E-03     3.06727E-03    -15.5688E+06    -18.5601E+06    -151.680E+06    -16.5909E+06    -151.296E+06    -17.9221E+06    -6.90095E+06         22.4652
            1568     2.95083E-03     80.3812E-03         8.19797        -3.25611        -3.37285        -3.05179         7.90689        -3.28611         3.52598     33.6085E-03    -16.7377E-03    -16.8707E-03    -16.7475E-03     33.5135E-03    -16.7660E-03     4.32527E-03    -14.0857E+06    -17.2977E+06    -143.929E+06    -15.0259E+06    -143.167E+06    -17.1190E+06    -9.65629E+06         22.5055
            1569     3.93417E-03     80.3867E-03         8.03678        -3.12102        -3.30057        -2.93837         7.76739        -3.21382         3.30080     33.6644E-03    -16.7598E-03    -16.9046E-03    -16.7458E-03     33.5056E-03    -16.7598E-03     5.62262E-03    -12.1362E+06    -15.1657E+06    -140.875E+06    -13.4027E+06    -139.609E+06    -15.1657E+06    -12.5483E+06         22.5634
            1570     4.91786E-03     80.3924E-03         7.69926        -2.90322        -3.14977        -2.83698         7.63303        -3.14977         1.40658     33.6623E-03    -16.7505E-03    -16.9118E-03    -16.6858E-03     33.4363E-03    -16.7505E-03     6.72817E-03    -8.96843E+06    -13.0992E+06    -138.398E+06    -10.8354E+06    -136.531E+06    -13.0992E+06    -15.2690E+06         22.6412
            1571     5.90175E-03     80.4000E-03         7.53959        -2.78853        -3.09340        -2.76707         7.51814        -3.09340     858.029E-03     33.6242E-03    -16.7194E-03    -16.9048E-03    -16.6015E-03     33.3209E-03    -16.7194E-03     7.78099E-03    -6.27249E+06    -12.8233E+06    -133.230E+06    -8.82784E+06    -130.674E+06    -12.8233E+06    -17.6712E+06         22.7418
            1572     6.88519E-03     80.4079E-03         7.45600        -2.76599        -3.03891        -2.62196         7.31196        -3.03891         2.18076     33.6471E-03    -16.6720E-03    -16.9752E-03    -16.5843E-03     33.2562E-03    -16.6720E-03     8.84984E-03    -4.67921E+06    -15.0314E+06    -125.902E+06    -8.03930E+06    -122.542E+06    -15.0314E+06    -19.8342E+06         22.8689
            1573     7.86923E-03     80.4176E-03         7.25422        -2.63705        -2.97645        -2.40979         7.02697        -2.97645         2.95575     33.6925E-03    -16.6304E-03    -17.0621E-03    -16.5872E-03     33.2176E-03    -16.6304E-03     9.76135E-03    -3.16327E+06    -17.0280E+06    -118.170E+06    -7.01701E+06    -114.316E+06    -17.0280E+06    -20.6380E+06         23.0288
            1574     8.85289E-03     80.4278E-03         6.89192        -2.34950        -2.90723        -2.24761         6.79003        -2.90723         1.24640     33.5724E-03    -16.5879E-03    -16.9844E-03    -16.4763E-03     33.0643E-03    -16.5879E-03     10.0831E-03    -791.986E+03    -18.6379E+06    -110.059E+06    -5.14837E+06    -105.703E+06    -18.6379E+06    -21.1772E+06         23.2362
            1575     9.83693E-03     80.4380E-03         6.68047        -2.19974        -2.83808        -2.12900         6.60974        -2.83808        -1.23132     33.3932E-03    -16.5144E-03    -16.8788E-03    -16.2646E-03     32.7790E-03    -16.5144E-03     10.9890E-03     1.68817E+06    -22.4462E+06    -96.5743E+06    -2.92435E+06    -91.9617E+06    -22.4462E+06    -20.6512E+06         23.5360
            1576     10.8213E-03     80.4503E-03         6.54504        -2.11629        -2.77196        -2.03045         6.45919        -2.77196        -1.62167     33.1733E-03    -16.4143E-03    -16.7590E-03    -16.1330E-03     32.5474E-03    -16.4143E-03     11.0694E-03     2.97560E+06    -29.3104E+06    -79.7236E+06    -1.80433E+06    -74.9437E+06    -29.3104E+06    -19.1764E+06         24.0648
            1577     11.8052E-03     80.4605E-03         6.31647        -1.93553        -2.70834        -1.91861         6.29955        -2.70834    -403.211E-03     32.8856E-03    -16.2760E-03    -16.6096E-03    -15.9446E-03     32.2207E-03    -16.2760E-03     11.3146E-03     4.82357E+06    -35.9353E+06    -61.0540E+06    -2.15896E+06    -48.5631E+06    -41.4437E+06    -18.3058E+06         25.2014
            1578     12.7903E-03     80.4737E-03         6.10740        -1.77367        -2.64508        -1.76601         6.09974        -2.64508    -205.337E-03     33.1005E-03    -16.1563E-03    -16.9441E-03    -15.6851E-03     31.8414E-03    -16.1563E-03     15.4061E-03     11.3670E+06    -23.3149E+06    -47.8814E+06    -3.54608E+06    -8.40180E+06    -47.8814E+06    -13.2395E+06         27.8133
            1579     13.7747E-03     80.4924E-03         5.97781        -1.69650        -2.58183        -1.62909         5.91040        -2.58183        -1.27556     33.5483E-03    -16.0093E-03    -17.5390E-03    -15.3012E-03     31.3104E-03    -16.0093E-03     20.7202E-03     31.7506E+06    -7.95946E+06    -63.8817E+06    -5.83115E+06     29.6223E+06    -63.8817E+06    -6.87949E+06         33.3847
            1580     14.7609E-03     80.5168E-03         5.85374        -1.61992        -2.52484        -1.51877         5.75258        -2.52484        -1.71854     49.6751E-03    -15.9526E-03    -33.7225E-03    -16.0555E-03     32.0082E-03    -15.9526E-03     63.4903E-03     83.2848E+06    -8.87058E+06    -64.2508E+06    -8.58807E+06     83.0023E+06    -64.2508E+06    -4.24145E+06         43.3805
            1581     15.7443E-03     80.6243E-03         5.67930        -1.46173        -2.49769        -1.42038         5.63795        -2.49769    -870.228E-03     144.293E-03    -16.1604E-03    -128.133E-03    -28.6348E-03     44.7952E-03    -16.1604E-03     261.108E-03     151.388E+06     16.6341E+06    -27.5056E+06    -8.91941E+06     151.318E+06    -1.88201E+06    -2.86847E+06         57.3350
            1582     16.7409E-03     81.0757E-03         5.56473        -1.31990        -2.51789        -1.31879         5.56362        -2.51789    -42.2361E-03     251.757E-03    -16.4465E-03    -235.311E-03    -51.7153E-03     68.1618E-03    -16.4465E-03     471.891E-03     200.180E+06     67.7039E+06    -6.03833E+06    -6.00877E+06     200.150E+06     67.7039E+06    -1.06095E+06         70.9393
            1583     983.718E-06     81.4090E-03         8.77704    -856.696E-03        -6.37677    -842.566E-03         8.75407        -6.36793    -723.559E-03     33.4861E-03    -16.7123E-03    -16.7737E-03    -16.7099E-03     33.4690E-03    -16.7591E-03     1.65202E-03    -15.5912E+06    -17.0313E+06    -159.464E+06    -16.2700E+06    -159.277E+06    -16.5397E+06    -4.54574E+06         22.4389
            1584     1.96752E-03     81.4112E-03         8.75238        -3.55971        -3.60800        -3.48646         8.65294        -3.58182     745.096E-03     33.5374E-03    -16.7130E-03    -16.8245E-03    -16.7665E-03     33.4873E-03    -16.7209E-03     3.09743E-03    -15.0968E+06    -17.6837E+06    -143.976E+06    -16.3594E+06    -143.384E+06    -17.0135E+06    -8.34151E+06         22.4646
            1585     2.95043E-03     81.4150E-03         8.77978        -3.52807        -3.62466        -3.38843         8.55009        -3.53462         3.28998     33.6349E-03    -16.7298E-03    -16.9051E-03    -16.8063E-03     33.5361E-03    -16.7298E-03     4.41353E-03    -13.8194E+06    -17.3401E+06    -137.369E+06    -15.1615E+06    -136.205E+06    -17.1615E+06    -11.7586E+06         22.5062
            1586     3.93432E-03     81.4196E-03         8.68413        -3.44360        -3.56269        -3.31636         8.48418        -3.48998         2.98949     33.6314E-03    -16.7357E-03    -16.8957E-03    -16.7369E-03     33.4726E-03    -16.7357E-03     5.62865E-03    -12.1886E+06    -16.5754E+06    -135.348E+06    -13.9609E+06    -133.576E+06    -16.5754E+06    -14.5474E+06         22.5650
            1587     4.91792E-03     81.4262E-03         8.42286        -3.26401        -3.44662        -3.21205         8.37090        -3.44662         1.21298     33.6254E-03    -16.7257E-03    -16.8997E-03    -16.6818E-03     33.4075E-03    -16.7257E-03     6.60800E-03    -10.0066E+06    -15.4910E+06    -132.888E+06    -12.7740E+06    -130.121E+06    -15.4910E+06    -17.9496E+06         22.6435
            1588     5.90143E-03     81.4328E-03         8.17045        -3.04928        -3.39501        -3.03231         8.15348        -3.39501     710.199E-03     33.6412E-03    -16.7080E-03    -16.9332E-03    -16.6444E-03     33.3524E-03    -16.7080E-03     7.59961E-03    -6.71091E+06    -14.1286E+06    -128.975E+06    -10.4205E+06    -125.265E+06    -14.1286E+06    -20.7745E+06         22.7445
            1589     6.88553E-03     81.4414E-03         7.99218        -2.94034        -3.33038        -2.81672         7.86857        -3.33038         2.10893     33.7534E-03    -16.6823E-03    -17.0711E-03    -16.6875E-03     33.3698E-03    -16.6823E-03     8.77767E-03    -3.53279E+06    -14.2114E+06    -122.523E+06    -7.82016E+06    -118.236E+06    -14.2114E+06    -22.0154E+06         22.8716
            1590     7.86876E-03     81.4507E-03         7.80711        -2.83754        -3.25716        -2.63361         7.60318        -3.25716         2.91633     33.7605E-03    -16.6484E-03    -17.1121E-03    -16.6620E-03     33.3105E-03    -16.6484E-03     9.52318E-03    -1.10064E+06    -16.7325E+06    -115.757E+06    -6.14535E+06    -110.712E+06    -16.7325E+06    -23.4255E+06         23.0308
            1591     8.85274E-03     81.4610E-03         7.48781        -2.59730        -3.18277        -2.49967         7.39017        -3.18277         1.26093     33.5869E-03    -16.6087E-03    -16.9783E-03    -16.5015E-03     33.1101E-03    -16.6087E-03     9.77028E-03     797.306E+03    -18.8299E+06    -108.243E+06    -5.06041E+06    -102.386E+06    -18.8299E+06    -24.5087E+06         23.2369
            1592     9.83652E-03     81.4709E-03         7.27892        -2.45336        -3.11143        -2.39027         7.21583        -3.11143        -1.23257     33.4358E-03    -16.5354E-03    -16.9004E-03    -16.3385E-03     32.8740E-03    -16.5354E-03     10.5501E-03     2.20299E+06    -24.2341E+06    -97.5515E+06    -4.10357E+06    -91.2449E+06    -24.2341E+06    -24.1969E+06         23.5332
            1593     10.8206E-03     81.4829E-03         7.08512        -2.31449        -3.04151        -2.23501         7.00563        -3.04151        -1.65150     33.1812E-03    -16.4318E-03    -16.7494E-03    -16.1693E-03     32.6011E-03    -16.4318E-03     10.6875E-03     3.49828E+06    -32.6632E+06    -81.9909E+06    -2.94851E+06    -75.5441E+06    -32.6632E+06    -22.4419E+06         24.0525
            1594     11.8051E-03     81.4936E-03         6.78841        -2.07317        -2.96955        -2.05535         6.77059        -2.96955    -488.355E-03     32.9018E-03    -16.3091E-03    -16.5927E-03    -16.0005E-03     32.3096E-03    -16.3091E-03     10.7393E-03     3.04338E+06    -39.8098E+06    -59.9353E+06    -4.63036E+06    -49.4795E+06    -42.5919E+06    -19.4490E+06         25.1673
            1595     12.7891E-03     81.5054E-03         6.58718        -1.92778        -2.89718        -1.92109         6.58048        -2.89718    -251.708E-03     33.1363E-03    -16.1783E-03    -16.9579E-03    -15.7741E-03     31.9525E-03    -16.1783E-03     14.8184E-03     8.27508E+06    -29.5402E+06    -53.4637E+06    -7.07099E+06    -14.1941E+06    -53.4637E+06    -15.5542E+06         27.7414
            1596     13.7741E-03     81.5255E-03         6.48064        -1.87880        -2.82779        -1.81561         6.41745        -2.82779        -1.29118     33.5997E-03    -16.0243E-03    -17.5754E-03    -15.5806E-03     31.6049E-03    -16.0243E-03     19.7570E-03     29.9740E+06    -12.0233E+06     -71.678E+06    -6.80810E+06     24.7589E+06     -71.678E+06    -10.9120E+06         33.2730
            1597     14.7586E-03     81.5475E-03         6.33547        -1.78869        -2.76590        -1.69288         6.23966        -2.76590        -1.74738     49.7933E-03    -15.9900E-03    -33.8034E-03    -16.3036E-03     32.2936E-03    -15.9900E-03     62.6890E-03     81.7597E+06    -7.24117E+06    -68.7199E+06    -6.25719E+06     80.7757E+06    -68.7199E+06    -6.13854E+06         43.2707
            1598     15.7457E-03     81.6586E-03         6.09045        -1.58045        -2.73021        -1.54005         6.05004        -2.73021    -928.084E-03     139.722E-03    -16.1936E-03    -123.528E-03    -27.0496E-03     43.2432E-03    -16.1936E-03     252.447E-03     149.252E+06     15.0969E+06    -30.4493E+06    -7.38983E+06     149.158E+06    -7.86852E+06    -3.64512E+06         57.3224
            1599     16.7400E-03     82.0870E-03         5.91421        -1.38114        -2.73716        -1.37921         5.91227        -2.73716    -64.6475E-03     252.335E-03    -16.4780E-03    -235.857E-03    -51.7736E-03     68.2516E-03    -16.4780E-03     473.008E-03     197.514E+06     63.0208E+06    -7.69486E+06    -7.65323E+06     197.472E+06     63.0208E+06    -2.68854E+06         71.1178
            1600     983.493E-06     82.4419E-03         9.36083        -1.22963        -6.53427        -1.23548         9.31829        -6.48588    -604.556E-03     33.5403E-03    -16.6935E-03    -16.8468E-03    -16.8241E-03     33.5255E-03    -16.7015E-03     1.58872E-03    -10.4138E+06    -12.7783E+06    -151.602E+06    -12.0373E+06    -151.416E+06    -11.3410E+06    -4.27755E+06         22.4390
            1601     1.96699E-03     82.4447E-03         9.42731        -3.85543        -3.93768        -3.82961         9.31924        -3.85543     454.557E-03     33.5106E-03    -16.7180E-03    -16.7927E-03    -16.7345E-03     33.4626E-03    -16.7281E-03     3.00743E-03    -10.9329E+06    -14.5155E+06    -135.621E+06    -12.1137E+06    -134.932E+06    -14.0239E+06    -8.81288E+06         22.4651
            1602     2.95114E-03     82.4483E-03         9.42707        -3.83150        -3.90768        -3.71950         9.23889        -3.83150         3.12590     33.5532E-03    -16.7042E-03    -16.8490E-03    -16.7519E-03     33.4583E-03    -16.7064E-03     4.33023E-03    -11.9442E+06    -17.0572E+06    -128.916E+06    -13.4877E+06    -127.373E+06    -17.0572E+06    -13.1061E+06         22.5072
            1603     3.93421E-03     82.4533E-03         9.27462        -3.70580        -3.83098        -3.58337         9.10987        -3.78865         2.85873     33.6266E-03    -16.7153E-03    -16.9114E-03    -16.7552E-03     33.4704E-03    -16.7153E-03     5.56514E-03    -10.7094E+06    -16.2273E+06    -129.072E+06    -13.0769E+06    -126.705E+06    -16.2273E+06    -16.4998E+06         22.5667
            1604     4.91784E-03     82.4592E-03         8.97144        -3.46456        -3.73270        -3.41334         8.92022        -3.73270         1.22207     33.6575E-03    -16.7126E-03    -16.9450E-03    -16.7232E-03     33.4358E-03    -16.7126E-03     6.67104E-03    -8.76619E+06    -15.5548E+06    -126.349E+06    -12.1900E+06    -122.925E+06    -15.5548E+06    -19.5890E+06         22.6457
            1605     5.90159E-03     82.4665E-03         8.66463        -3.21220        -3.66361        -3.19676         8.64919        -3.66361     679.464E-03     33.7778E-03    -16.7088E-03    -17.0690E-03    -16.7783E-03     33.4871E-03    -16.7088E-03     7.64879E-03    -6.53632E+06    -15.2369E+06    -123.681E+06    -11.3730E+06    -118.844E+06    -15.2369E+06    -23.2387E+06         22.7469
            1606     6.88481E-03     82.4744E-03         8.48743        -3.11409        -3.58469        -2.99752         8.37086        -3.58469         2.11084     33.8862E-03    -16.6973E-03    -17.1889E-03    -16.8071E-03     33.5044E-03    -16.6973E-03     8.77937E-03    -3.72650E+06    -16.9082E+06    -119.742E+06    -9.66719E+06    -113.801E+06    -16.9082E+06    -25.4449E+06         22.8736
            1607     7.86869E-03     82.4847E-03         8.36571        -3.07889        -3.50635        -2.88996         8.17679        -3.50635         2.91176     33.7940E-03    -16.6702E-03    -17.1238E-03    -16.6950E-03     33.3652E-03    -16.6702E-03     9.30563E-03    -618.389E+03    -19.2782E+06    -112.793E+06    -7.41715E+06    -105.994E+06    -19.2782E+06    -26.6369E+06         23.0320
            1608     8.85218E-03     82.4936E-03         8.07668        -2.86438        -3.43353        -2.77621         7.98850        -3.43353         1.26903     33.5971E-03    -16.6369E-03    -16.9602E-03    -16.4983E-03     33.1352E-03    -16.6369E-03     9.61215E-03     1.48794E+06    -20.2338E+06    -106.953E+06    -5.86250E+06    -99.6030E+06    -20.2338E+06    -27.1642E+06         23.2368
            1609     9.83623E-03     82.5045E-03         7.84123        -2.69364        -3.36303        -2.63562         7.78321        -3.36303        -1.21135     33.5191E-03    -16.5697E-03    -16.9494E-03    -16.3851E-03     32.9548E-03    -16.5697E-03     10.5929E-03     3.36565E+06    -24.4466E+06    -97.2928E+06    -4.92488E+06    -89.0023E+06    -24.4466E+06    -27.5128E+06         23.5297
            1610     10.8200E-03     82.5153E-03         7.62274        -2.53267        -3.29126        -2.45727         7.54734        -3.29126        -1.68434     33.2891E-03    -16.4626E-03    -16.8265E-03    -16.2480E-03     32.7106E-03    -16.4626E-03     10.6948E-03     4.40626E+06    -35.1584E+06    -85.4282E+06    -4.02590E+06    -76.9960E+06    -35.1584E+06    -26.1431E+06         24.0397
            1611     11.8043E-03     82.5265E-03         7.29694        -2.26322        -3.21546        -2.24498         7.27870        -3.21546    -547.689E-03     33.0688E-03    -16.3541E-03    -16.7146E-03    -16.1044E-03     32.4586E-03    -16.3541E-03     10.9188E-03     5.08453E+06    -42.6152E+06    -60.8302E+06    -2.93301E+06    -52.6946E+06    -42.7333E+06    -21.2080E+06         25.1333
            1612     12.7886E-03     82.5382E-03         7.05244        -2.08137        -3.13720        -2.07471         7.04577        -3.13720    -294.528E-03     33.3435E-03    -16.2168E-03    -17.1267E-03    -15.9538E-03     32.1706E-03    -16.2168E-03     14.8589E-03     13.5055E+06    -30.6961E+06    -54.2588E+06    -2.14367E+06    -15.0469E+06    -54.2588E+06    -18.8879E+06         27.6705
            1613     13.7731E-03     82.5576E-03         6.93018        -2.02348        -3.06125        -1.96414         6.87084        -3.06125        -1.30638     34.1306E-03    -16.0603E-03    -18.0703E-03    -15.9728E-03     32.0331E-03    -16.0603E-03     20.3798E-03     29.2274E+06    -13.5591E+06    -77.3899E+06    -3.28394E+06     18.9523E+06    -77.3899E+06    -16.0770E+06         33.1645
            1614     14.7574E-03     82.5814E-03         6.76907        -1.93025        -2.99290        -1.83932         6.67815        -2.99290        -1.76400     49.7050E-03    -16.0551E-03    -33.6499E-03    -16.5298E-03     32.5849E-03    -16.0551E-03     62.2242E-03     76.4612E+06    -7.58014E+06    -72.9871E+06    -5.48693E+06     74.3680E+06    -72.9871E+06    -9.12256E+06         43.1755
            1615     15.7427E-03     82.6879E-03         6.47544        -1.68314        -2.94783        -1.64273         6.43503        -2.94783    -988.543E-03     138.947E-03    -16.3810E-03    -122.566E-03    -30.7626E-03     47.1436E-03    -16.3810E-03     248.709E-03     147.969E+06     12.0729E+06    -30.7543E+06    -5.53717E+06     147.773E+06    -12.9479E+06    -2.94083E+06         57.3109
            1616     16.7207E-03     83.1133E-03         6.25515        -1.46107        -2.94113        -1.45829         6.25237        -2.94113    -102.811E-03     252.626E-03    -16.7405E-03    -235.886E-03    -50.8779E-03     67.6184E-03    -16.7405E-03     473.772E-03     197.589E+06     54.5971E+06    -2.53757E+06    -2.49783E+06     197.549E+06     54.5971E+06    -70.6793E+03         71.2983
            1617     983.657E-06     83.4760E-03         9.97719        -1.68202        -6.64300        -1.67570         9.92083        -6.59297    -377.116E-03     33.5993E-03    -16.6600E-03    -16.9393E-03    -16.8534E-03     33.5819E-03    -16.7285E-03     1.81148E-03    -7.55596E+06    -10.4251E+06    -143.272E+06    -9.03008E+06    -143.036E+06    -9.18717E+06    -3.42696E+06         22.4407
            1618     1.96718E-03     83.4777E-03         10.0472        -4.13011        -4.22570        -4.10965         9.93110        -4.13011     514.992E-03     33.6394E-03    -16.7626E-03    -16.8769E-03    -16.8293E-03     33.5941E-03    -16.7648E-03     2.94639E-03    -8.76654E+06    -12.5431E+06    -126.485E+06     -9.8735E+06    -125.671E+06    -12.2510E+06    -9.27873E+06         22.4666
            1619     2.95036E-03     83.4820E-03         10.0019        -4.09581        -4.16025        -3.96168         9.80989        -4.10239         3.26265     33.5087E-03    -16.7033E-03    -16.8054E-03    -16.6757E-03     33.4208E-03    -16.7452E-03     4.16207E-03    -8.87488E+06    -13.8788E+06    -120.341E+06    -10.5246E+06    -118.691E+06    -13.8788E+06    -13.3128E+06         22.5086
            1620     3.93445E-03     83.4865E-03         9.74383        -3.89300        -4.05445        -3.73956         9.57809        -4.04215         2.95101     33.5435E-03    -16.6834E-03    -16.8601E-03    -16.6691E-03     33.3922E-03    -16.7231E-03     5.46068E-03    -8.91607E+06    -13.9690E+06    -121.645E+06    -11.6998E+06    -118.861E+06    -13.9690E+06    -17.3137E+06         22.5680
            1621     4.91798E-03     83.4929E-03         9.36521        -3.57421        -3.96123        -3.51863         9.30963        -3.96123         1.34714     33.7047E-03    -16.7039E-03    -17.0009E-03    -16.7790E-03     33.4829E-03    -16.7039E-03     6.67846E-03    -6.38659E+06    -15.2584E+06    -118.831E+06    -10.9498E+06    -114.267E+06    -15.2584E+06    -21.7986E+06         22.6470
            1622     5.90137E-03     83.4998E-03         9.14093        -3.41592        -3.87854        -3.40122         9.12623        -3.87854     733.973E-03     33.9117E-03    -16.7152E-03    -17.1966E-03    -16.8977E-03     33.6129E-03    -16.7152E-03     7.77004E-03    -3.22429E+06    -14.8631E+06    -117.399E+06    -9.19124E+06    -111.432E+06    -14.8631E+06    -25.2515E+06         22.7479
            1623     6.88480E-03     83.5086E-03         9.05605        -3.40264        -3.80440        -3.30065         8.95406        -3.80440         2.05037     33.9755E-03    -16.7182E-03    -17.2574E-03    -16.8691E-03     33.5872E-03    -16.7182E-03     8.87268E-03    -1.01166E+06    -16.5758E+06    -115.436E+06    -8.38263E+06    -108.065E+06    -16.5758E+06    -27.9368E+06         22.8739
            1624     7.86805E-03     83.5175E-03         8.88519        -3.30460        -3.73325        -3.14021         8.72081        -3.73325         2.80485     33.7944E-03    -16.6871E-03    -17.1072E-03    -16.6671E-03     33.3543E-03    -16.6871E-03     9.42078E-03     526.271E+03    -20.5483E+06    -110.283E+06    -8.03520E+06    -101.722E+06    -20.5483E+06    -29.5504E+06         23.0315
            1625     8.85200E-03     83.5275E-03         8.56726        -3.06153        -3.66065        -2.98486         8.49059        -3.66065         1.23702     33.6163E-03    -16.6494E-03    -16.9669E-03    -16.4932E-03     33.1426E-03    -16.6494E-03     9.73724E-03     2.13350E+06    -22.0433E+06    -105.685E+06    -7.18724E+06    -96.3644E+06    -22.0433E+06    -30.2027E+06         23.2348
            1626     9.83593E-03     83.5368E-03         8.31803        -2.87854        -3.58725        -2.82850         8.26799        -3.58725        -1.14495     33.5152E-03    -16.5783E-03    -16.9369E-03    -16.3535E-03     32.9318E-03    -16.5783E-03     10.7575E-03     4.61084E+06    -26.2677E+06    -96.4827E+06    -5.85671E+06    -86.0151E+06    -26.2677E+06    -30.6989E+06         23.5241
            1627     10.8200E-03     83.5493E-03         8.10693        -2.72709        -3.51280        -2.66262         8.04246        -3.51280        -1.59913     33.3822E-03    -16.4743E-03    -16.9079E-03    -16.3137E-03     32.7880E-03    -16.4743E-03     10.8464E-03     5.45324E+06    -37.3468E+06    -87.9260E+06    -5.27122E+06    -77.2016E+06    -37.3468E+06    -29.6814E+06         24.0250
            1628     11.8041E-03     83.5583E-03         7.81710        -2.49479        -3.43646        -2.47947         7.80178        -3.43646    -472.491E-03     33.2006E-03    -16.3600E-03    -16.8406E-03    -16.1986E-03     32.5585E-03    -16.3600E-03     11.2086E-03     8.55894E+06    -47.3916E+06    -67.9483E+06    -3.42696E+06    -55.8619E+06    -47.4920E+06    -27.1938E+06         25.0978
            1629     12.7882E-03     83.5722E-03         7.53812        -2.27583        -3.35745        -2.27061         7.53291        -3.35745    -213.184E-03     33.5565E-03    -16.2516E-03    -17.3049E-03    -16.1117E-03     32.3633E-03    -16.2516E-03     15.1500E-03     16.8225E+06    -34.5287E+06    -54.2746E+06    -1.99104E+06    -16.0157E+06    -53.9741E+06    -22.7814E+06         27.5994
            1630     13.7725E-03     83.5892E-03         7.32677        -2.13760        -3.27687        -2.08843         7.27760        -3.27687        -1.20271     34.2993E-03    -16.1178E-03    -18.1815E-03    -15.9670E-03     32.0848E-03    -16.1178E-03     20.9080E-03     26.5971E+06    -16.3248E+06    -74.6529E+06    -4.58135E+06     14.8537E+06    -74.6529E+06    -17.8973E+06         33.0585
            1631     14.7567E-03     83.6161E-03         7.11694        -2.00714        -3.20024        -1.92650         7.03631        -3.20024        -1.70428     50.0357E-03    -16.0903E-03    -33.9454E-03    -17.0439E-03     33.1343E-03    -16.0903E-03     62.8522E-03     70.3124E+06    -12.0170E+06    -78.5936E+06    -8.34232E+06     66.6378E+06    -78.5936E+06    -12.1718E+06         43.0858
            1632     15.7421E-03     83.7183E-03         6.86244        -1.81195        -3.14569        -1.77352         6.82401        -3.14569    -988.501E-03     143.122E-03    -16.4015E-03    -126.720E-03    -31.9491E-03     48.3506E-03    -16.4015E-03     256.392E-03     142.156E+06     4.74376E+06    -35.8748E+06    -7.89645E+06     141.771E+06    -22.8498E+06    -5.12647E+06         57.3469
            1633     16.7206E-03     84.1649E-03         6.59202        -1.58609        -3.12583        -1.58360         6.58953        -3.12583    -116.098E-03     253.526E-03    -16.7264E-03    -236.800E-03    -49.9750E-03     66.7013E-03    -16.7264E-03     476.095E-03     195.633E+06     47.3632E+06    -712.557E+03    -610.570E+03     195.531E+06     47.3632E+06     534.693E+03         71.5112
            1634     983.722E-06     84.5090E-03         10.3442        -1.97412        -6.66697        -1.96750         10.3008        -6.63024    -125.359E-03     33.6895E-03    -16.7253E-03    -16.9642E-03    -16.8217E-03     33.6717E-03    -16.8500E-03     1.83643E-03    -9.24819E+06    -11.6957E+06    -134.712E+06    -9.87548E+06    -134.377E+06    -11.4035E+06    -4.57364E+06         22.4432
            1635     1.96679E-03     84.5120E-03         10.4506        -4.29972        -4.40367        -4.30280         10.3498        -4.29972     751.601E-03     33.6424E-03    -16.7469E-03    -16.8955E-03    -16.7945E-03     33.5976E-03    -16.8031E-03     2.93470E-03    -9.00694E+06    -12.1097E+06    -116.282E+06    -10.7332E+06    -115.272E+06    -11.3936E+06    -9.91331E+06         22.4688
            1636     2.95059E-03     84.5149E-03         10.3982        -4.25018        -4.34335        -4.12747         10.2083        -4.27614         3.30506     33.5969E-03    -16.7436E-03    -16.8533E-03    -16.7270E-03     33.5103E-03    -16.7832E-03     4.13672E-03    -7.85858E+06    -11.8530E+06    -112.752E+06    -10.2270E+06    -110.808E+06    -11.4291E+06    -13.9360E+06         22.5101
            1637     3.93412E-03     84.5200E-03         10.0952        -4.03566        -4.20988        -3.87328         9.93285        -4.20988         2.96416     33.5876E-03    -16.7166E-03    -16.8710E-03    -16.6838E-03     33.4400E-03    -16.7563E-03     5.39989E-03    -4.75915E+06    -11.2194E+06    -112.236E+06    -8.23648E+06    -108.758E+06    -11.2194E+06    -18.6830E+06         22.5687
            1638     4.91777E-03     84.5262E-03         9.78670        -3.77698        -4.12825        -3.72427         9.73398        -4.12825         1.34120     33.7340E-03    -16.7276E-03    -17.0065E-03    -16.7836E-03     33.5112E-03    -16.7276E-03     6.68731E-03    -2.01422E+06    -13.4421E+06    -110.505E+06    -7.55989E+06    -104.959E+06    -13.4421E+06    -23.7365E+06         22.6469
            1639     5.90120E-03     84.5337E-03         9.65059        -3.69490        -4.05765        -3.68128         9.63698        -4.05765     733.923E-03     33.9055E-03    -16.7279E-03    -17.1776E-03    -16.8741E-03     33.6020E-03    -16.7279E-03     7.83078E-03    -604.939E+03    -15.0063E+06    -111.407E+06    -7.82979E+06    -104.182E+06    -15.0063E+06    -27.2142E+06         22.7470
            1640     6.88460E-03     84.5420E-03         9.59616        -3.69186        -3.99955        -3.60504         9.50934        -3.99955         1.97330     33.8573E-03    -16.7237E-03    -17.1336E-03    -16.7505E-03     33.4742E-03    -16.7237E-03     8.79533E-03     1.57494E+06    -15.7579E+06    -109.852E+06    -7.16147E+06    -101.115E+06    -15.7579E+06    -29.8043E+06         22.8723
            1641     7.86844E-03     84.5513E-03         9.35753        -3.51288        -3.93752        -3.36994         9.21459        -3.93752         2.69581     33.7058E-03    -16.6809E-03    -17.0248E-03    -16.5778E-03     33.2588E-03    -16.6809E-03     9.47664E-03     4.09872E+06    -19.5309E+06    -106.911E+06    -6.06502E+06    -96.7468E+06    -19.5309E+06    -31.9434E+06         23.0289
            1642     8.85214E-03     84.5602E-03         8.93106        -3.16156        -3.86103        -3.09243         8.86193        -3.86103         1.22117     33.6469E-03    -16.6318E-03    -17.0151E-03    -16.5178E-03     33.1496E-03    -16.6318E-03     9.98569E-03     6.81772E+06    -22.3589E+06    -103.420E+06    -4.67716E+06    -91.9254E+06    -22.3589E+06    -33.5961E+06         23.2306
            1643     9.83583E-03     84.5706E-03         8.65904        -2.96609        -3.77759        -2.92836         8.62131        -3.77759        -1.00567     33.5830E-03    -16.5670E-03    -17.0159E-03    -16.4267E-03     32.9938E-03    -16.5670E-03     10.8349E-03     8.46323E+06    -26.9663E+06    -95.9047E+06    -3.88896E+06    -83.5525E+06    -26.9663E+06    -33.6893E+06         23.5163
            1644     10.8200E-03     84.5812E-03         8.52278        -2.89342        -3.69814        -2.84659         8.47596        -3.69814        -1.37637     33.3602E-03    -16.4653E-03    -16.8950E-03    -16.2807E-03     32.7460E-03    -16.4653E-03     11.0316E-03     9.51134E+06    -38.0661E+06    -88.2738E+06    -3.50655E+06    -75.2559E+06    -38.0661E+06    -33.1852E+06         24.0080
            1645     11.8037E-03     84.5927E-03         8.29060        -2.71527        -3.62294        -2.70508         8.28041        -3.62294    -323.575E-03     33.2318E-03    -16.3321E-03    -16.8998E-03    -16.2174E-03     32.5494E-03    -16.3321E-03     11.5713E-03     11.8982E+06    -52.0078E+06    -73.2514E+06    -3.87364E+06    -56.5803E+06    -52.9071E+06    -32.3951E+06         25.0603
            1646     12.7882E-03     84.6033E-03         7.98606        -2.47038        -3.54541        -2.46731         7.98298        -3.54541    -79.9825E-03     33.6855E-03    -16.2186E-03    -17.4669E-03    -16.1330E-03     32.3517E-03    -16.2186E-03     15.9490E-03     17.1368E+06    -42.5433E+06    -62.6119E+06    -4.45770E+06    -21.2493E+06    -62.3114E+06    -27.2085E+06         27.5264
            1647     13.7719E-03     84.6248E-03         7.69453        -2.25481        -3.46248        -2.21850         7.65822        -3.46248        -1.01761     34.1321E-03    -16.0978E-03    -18.0343E-03    -15.7409E-03     31.8387E-03    -16.0978E-03     21.2798E-03     24.9193E+06    -19.6458E+06    -78.1674E+06    -4.94454E+06     10.2180E+06    -78.1674E+06    -19.6783E+06         32.9509
            1648     14.7580E-03     84.6450E-03         7.45147        -2.10122        -3.38035        -2.03840         7.38865        -3.38035        -1.53488     51.1652E-03    -16.0459E-03    -35.1193E-03    -17.1738E-03     33.2197E-03    -16.0459E-03     65.3340E-03     65.1396E+06    -12.3746E+06    -85.2938E+06     -7.9297E+06     60.6948E+06    -85.2938E+06    -13.5103E+06         42.9888
            1649     15.7396E-03     84.7585E-03         7.20695        -1.94293        -3.31750        -1.91324         7.17726        -3.31750    -840.794E-03     142.809E-03    -16.2400E-03    -126.569E-03    -28.6398E-03     44.8798E-03    -16.2400E-03     257.728E-03     135.469E+06    -226.087E+03    -43.1085E+06    -9.12612E+06     134.753E+06    -33.4924E+06    -9.31446E+06         57.3742
            1650     16.7397E-03     85.1909E-03         6.87638        -1.68140        -3.28148        -1.68026         6.87525        -3.28148    -51.5169E-03     252.548E-03    -16.5273E-03    -236.021E-03    -50.2330E-03     66.7603E-03    -16.5273E-03     474.270E-03     189.279E+06     44.1388E+06    -7.56266E+06    -7.19240E+06     188.908E+06     44.1388E+06    -5.99590E+06         71.6827
            1651     982.875E-06     85.5430E-03         10.5333        -2.16136        -6.61749        -2.17710         10.5169        -6.58534    -193.962E-03     33.8578E-03    -16.8397E-03    -17.0181E-03    -16.9182E-03     33.8408E-03    -16.9226E-03     1.77264E-03    -6.51726E+06    -8.69014E+06    -124.429E+06    -7.85416E+06    -123.974E+06    -7.80787E+06    -6.66245E+06         22.4457
            1652     1.96718E-03     85.5451E-03         10.7021        -4.39341        -4.51088        -4.44087         10.6321        -4.39341     911.206E-03     33.6291E-03    -16.7646E-03    -16.8645E-03    -16.7221E-03     33.5860E-03    -16.8638E-03     2.88970E-03    -3.81766E+06    -6.74087E+06    -105.781E+06    -5.62452E+06    -104.600E+06    -6.11512E+06    -10.5251E+06         22.4706
            1653     2.95046E-03     85.5490E-03         10.7039        -4.36928        -4.47576        -4.29920         10.5485        -4.39044         3.02419     33.7125E-03    -16.8009E-03    -16.9116E-03    -16.8114E-03     33.6286E-03    -16.8172E-03     4.07367E-03    -1.71392E+06    -6.92338E+06    -103.287E+06    -4.73136E+06    -100.693E+06    -6.49944E+06    -15.7101E+06         22.5113
            1654     3.93382E-03     85.5534E-03         10.4294        -4.18897        -4.34046        -4.05745         10.2979        -4.34046         2.68616     33.7782E-03    -16.7981E-03    -16.9800E-03    -16.8342E-03     33.6323E-03    -16.7981E-03     5.38555E-03     708.427E+03    -8.88211E+06    -103.263E+06    -3.97719E+06    -98.5771E+06    -8.88211E+06    -21.2897E+06         22.5690
            1655     4.91747E-03     85.5599E-03         10.1931        -3.99163        -4.27380        -3.95224         10.1537        -4.27380         1.21111     33.7896E-03    -16.7881E-03    -17.0016E-03    -16.7756E-03     33.5637E-03    -16.7881E-03     6.72990E-03     3.48187E+06    -8.74928E+06    -102.270E+06    -2.95382E+06    -95.8341E+06    -8.74928E+06    -25.1693E+06         22.6459
            1656     5.90101E-03     85.5674E-03         10.0688        -3.90902        -4.21588        -3.89417         10.0539        -4.21588     791.772E-03     33.7885E-03    -16.7734E-03    -17.0151E-03    -16.7150E-03     33.4885E-03    -16.7734E-03     7.77402E-03     5.79116E+06    -8.86024E+06    -104.622E+06    -2.34947E+06    -96.4817E+06    -8.86024E+06    -28.7312E+06         22.7447
            1657     6.88459E-03     85.5757E-03         9.97097        -3.85446        -4.16190        -3.76573         9.88223        -4.16190         2.04350     33.6946E-03    -16.7293E-03    -16.9653E-03    -16.5899E-03     33.3191E-03    -16.7293E-03     8.67457E-03     8.24283E+06    -11.8100E+06    -103.828E+06    -1.83701E+06    -93.7478E+06    -11.8100E+06    -32.0096E+06         22.8690
            1658     7.86844E-03     85.5841E-03         9.71724        -3.65972        -4.09855        -3.51941         9.57693        -4.09855         2.72477     33.6101E-03    -16.6691E-03    -16.9410E-03    -16.5020E-03     33.1711E-03    -16.6691E-03     9.37770E-03     10.6682E+06    -16.0344E+06    -102.148E+06    -1.16518E+06    -90.3149E+06    -16.0344E+06    -34.5187E+06         23.0246
            1659     8.85233E-03     85.5940E-03         9.25659        -3.27232        -4.01844        -3.20688         9.19114        -4.01844         1.30671     33.5770E-03    -16.6126E-03    -16.9644E-03    -16.4665E-03     33.0791E-03    -16.6126E-03     9.97569E-03     12.5459E+06    -19.6690E+06    -100.173E+06    -939.243E+03    -86.6883E+06    -19.6690E+06    -36.5389E+06         23.2248
            1660     9.83633E-03     85.6033E-03         8.96725        -3.06302        -3.92991        -3.03620         8.94044        -3.92991    -783.593E-03     33.5475E-03    -16.5482E-03    -16.9993E-03    -16.3974E-03     32.9457E-03    -16.5482E-03     10.9470E-03     14.8696E+06    -24.1408E+06    -95.2428E+06     261.157E+03    -80.6343E+06    -24.1408E+06    -37.3086E+06         23.5072
            1661     10.8198E-03     85.6150E-03         8.87022        -3.03001        -3.84790        -2.99766         8.83788        -3.84790        -1.16166     33.2785E-03    -16.4438E-03    -16.8348E-03    -16.1975E-03     32.6413E-03    -16.4438E-03     11.2264E-03     16.6626E+06    -34.8238E+06    -88.0347E+06     1.42606E+06    -72.7982E+06    -34.8238E+06    -36.8888E+06         23.9903
            1662     11.8049E-03     85.6241E-03         8.66810        -2.87940        -3.77310        -2.87234         8.66103        -3.77310    -197.551E-03     33.1606E-03    -16.3059E-03    -16.8547E-03    -16.0983E-03     32.4042E-03    -16.3059E-03     12.1434E-03     18.3790E+06    -48.5927E+06    -73.9731E+06     1.19373E+06    -55.8885E+06    -49.4920E+06    -35.3934E+06         25.0230
            1663     12.7883E-03     85.6381E-03         8.34574        -2.61595        -3.69562        -2.61352         8.34332        -3.69562     16.3118E-03     33.4772E-03    -16.1551E-03    -17.3221E-03    -15.9051E-03     32.0602E-03    -16.1551E-03     16.4343E-03     23.1549E+06    -45.1616E+06    -68.0065E+06     518.369E+03    -25.5801E+06    -64.9515E+06    -32.2989E+06         27.4544
            1664     13.7740E-03     85.6549E-03         8.02772        -2.37788        -3.61127        -2.35206         8.00189        -3.61127    -858.380E-03     34.1823E-03    -16.0337E-03    -18.1486E-03    -15.7596E-03     31.7933E-03    -16.0337E-03     21.7472E-03     26.5716E+06    -24.4962E+06    -80.5244E+06     299.884E+03     1.77545E+06    -80.5244E+06    -24.2800E+06         32.8406
            1665     14.7577E-03     85.6798E-03         7.78094        -2.23005        -3.52715        -2.18768         7.73856        -3.52715        -1.28575     51.3454E-03    -15.9564E-03    -35.3890E-03    -16.5483E-03     32.5047E-03    -15.9564E-03     66.4826E-03     61.9116E+06    -8.86796E+06    -87.5975E+06    -968.157E+03     54.0119E+06    -87.5975E+06    -14.5764E+06         42.8820
            1666     15.7457E-03     85.7906E-03         7.46598        -2.01709        -3.45661        -1.99923         7.44812        -3.45661    -639.092E-03     139.867E-03    -16.1935E-03    -123.673E-03    -29.8549E-03     46.0484E-03    -16.1935E-03     251.433E-03     133.522E+06     4.42879E+06    -47.2850E+06    -4.81186E+06     132.641E+06    -37.1632E+06    -10.4218E+06         57.3226
            1667     16.7297E-03     86.2098E-03         7.08149        -1.70013        -3.40210        -1.69968         7.08105        -3.40210     7.24167E-03     249.793E-03    -16.5768E-03    -233.217E-03    -50.4562E-03     67.0329E-03    -16.5768E-03     468.266E-03     184.567E+06     35.6865E+06    -7.72706E+06    -7.28312E+06     184.124E+06     35.6865E+06    -8.14283E+06         71.7574
            1668     983.781E-06     86.5767E-03         10.8193        -2.46392        -6.55461        -2.45834         10.8078        -6.54871    -468.639E-03     33.8667E-03    -16.8746E-03    -16.9920E-03    -16.9382E-03     33.8506E-03    -16.9124E-03     1.65153E-03     3.84256E+06     986.381E+03    -110.498E+06     2.37931E+06    -109.917E+06     1.86866E+06    -7.41325E+06         22.4468
            1669     1.96645E-03     86.5790E-03         10.9319        -4.49721        -4.58795        -4.53232         10.8887        -4.50958         1.02509     33.7793E-03    -16.8359E-03    -16.9434E-03    -16.8540E-03     33.7330E-03    -16.8789E-03     2.98717E-03     4.27446E+06    -814.859E+03    -95.8735E+06     2.37719E+06    -94.1780E+06    -613.041E+03    -12.3646E+06         22.4713
            1670     2.95035E-03     86.5825E-03         11.0023        -4.50653        -4.58763        -4.46366         10.8802        -4.50831         2.70005     33.7900E-03    -16.8305E-03    -16.9595E-03    -16.8518E-03     33.6986E-03    -16.8469E-03     4.25298E-03     5.92328E+06    -2.57430E+06    -93.0005E+06     2.70362E+06    -89.7808E+06    -2.57430E+06    -17.2871E+06         22.5117
            1671     3.93380E-03     86.5875E-03         10.7608        -4.33597        -4.47871        -4.23471         10.6526        -4.47185         2.46921     33.9047E-03    -16.8437E-03    -17.0609E-03    -16.9104E-03     33.7541E-03    -16.8437E-03     5.49702E-03     6.85609E+06    -2.87469E+06    -93.0928E+06     1.60852E+06    -87.8453E+06    -2.87469E+06    -22.0955E+06         22.5689
            1672     4.91699E-03     86.5934E-03         10.4358        -4.05917        -4.40524        -4.02842         10.4051        -4.40524         1.19436     33.8584E-03    -16.8340E-03    -17.0243E-03    -16.7941E-03     33.6282E-03    -16.8340E-03     6.79222E-03     8.44304E+06    -3.94466E+06    -94.0101E+06     950.710E+03    -86.5178E+06    -3.94466E+06    -26.6312E+06         22.6444
            1673     5.90069E-03     86.6011E-03         10.2704        -3.95047        -4.33447        -3.92906         10.2490        -4.33447         1.01061     33.6497E-03    -16.7876E-03    -16.8621E-03    -16.5512E-03     33.3512E-03    -16.8000E-03     7.73572E-03     10.9736E+06    -4.65726E+06    -97.6042E+06     1.50258E+06    -88.1332E+06    -4.65726E+06    -30.5406E+06         22.7417
            1674     6.88482E-03     86.6086E-03         10.1845        -3.91960        -4.26908        -3.81812         10.0831        -4.26908         2.23321     33.5459E-03    -16.7178E-03    -16.8280E-03    -16.4398E-03     33.1700E-03    -16.7302E-03     8.64485E-03     14.3473E+06    -7.33999E+06    -97.3172E+06     2.44614E+06    -85.4161E+06    -7.33999E+06    -34.2872E+06         22.8646
            1675     7.86853E-03     86.6180E-03         9.94655        -3.74065        -4.19945        -3.59148         9.79738        -4.19945         2.83845     33.5430E-03    -16.6623E-03    -16.8807E-03    -16.4346E-03     33.0970E-03    -16.6623E-03     9.44152E-03     17.6285E+06    -10.5665E+06    -97.2885E+06     3.64958E+06    -83.3096E+06    -10.5665E+06    -37.5025E+06         23.0193
            1676     8.85249E-03     86.6265E-03         9.59062        -3.45548        -4.12139        -3.38901         9.52415        -4.12139         1.43888     33.4438E-03    -16.6005E-03    -16.8433E-03    -16.3364E-03     32.9368E-03    -16.6005E-03     10.0344E-03     20.0650E+06    -13.4726E+06    -96.3807E+06     4.86613E+06    -81.1819E+06    -13.4726E+06    -39.1934E+06         23.2184
            1677     9.83636E-03     86.6371E-03         9.34047        -3.26974        -4.04191        -3.25065         9.32138        -4.04191    -555.793E-03     33.2891E-03    -16.5167E-03    -16.7724E-03    -16.1558E-03     32.6726E-03    -16.5167E-03     11.0258E-03     21.8134E+06    -19.0184E+06    -92.8840E+06     4.97617E+06    -76.0467E+06    -19.0184E+06    -40.5413E+06         23.4982
            1678     10.8213E-03     86.6469E-03         9.15903        -3.14428        -3.96497        -3.12223         9.13697        -3.96497    -960.961E-03     33.1905E-03    -16.3988E-03    -16.7918E-03    -16.1383E-03     32.5371E-03    -16.3988E-03     11.3509E-03     22.6828E+06    -31.1613E+06    -88.2227E+06     4.99125E+06    -70.5312E+06    -31.1613E+06    -40.5891E+06         23.9743
            1679     11.8046E-03     86.6578E-03         8.91607        -2.95192        -3.88841        -2.94650         8.91065        -3.88841    -78.4686E-03     33.0032E-03    -16.2648E-03    -16.7384E-03    -15.9751E-03     32.2398E-03    -16.2648E-03     12.1694E-03     25.8144E+06    -44.1299E+06    -73.9645E+06     5.66325E+06    -53.8134E+06    -44.1299E+06    -39.6156E+06         24.9889
            1680     12.7903E-03     86.6694E-03         8.61631        -2.71181        -3.80807        -2.70937         8.61387        -3.80807     103.204E-03     33.2317E-03    -16.1148E-03    -17.1170E-03    -15.7477E-03     31.8625E-03    -16.1148E-03     16.1354E-03     29.5324E+06    -44.9343E+06    -66.1107E+06     5.57004E+06    -27.9861E+06    -59.0965E+06    -36.6942E+06         27.3862
            1681     13.7743E-03     86.6883E-03         8.32454        -2.50142        -3.72316        -2.48435         8.30747        -3.72316    -690.490E-03     34.1296E-03    -16.0010E-03    -18.1287E-03    -15.6976E-03     31.6985E-03    -16.0010E-03     21.8578E-03     26.5017E+06    -31.9236E+06    -75.1966E+06     3.12398E+06    -8.54591E+06    -75.1966E+06    -28.3311E+06         32.7316
            1682     14.7594E-03     86.7122E-03         8.04109        -2.32181        -3.63800        -2.29434         8.01362        -3.63800        -1.05425     50.5901E-03    -15.9006E-03    -34.6895E-03    -16.3135E-03     32.2142E-03    -15.9006E-03     65.3980E-03     58.9269E+06    -12.9735E+06    -85.7988E+06    -17.3519E+03     45.9707E+06    -85.7988E+06    -18.0177E+06         42.7702
            1683     15.7455E-03     86.8198E-03         7.67645        -2.05794        -3.55998        -2.04663         7.66513        -3.55998    -547.252E-03     143.665E-03    -16.1636E-03    -127.501E-03    -33.5964E-03     49.7600E-03    -16.1636E-03     257.401E-03     130.986E+06     2.50157E+06    -48.7817E+06    -2.02245E+06     129.840E+06    -43.1119E+06    -9.05255E+06         57.2758
            1684     16.7145E-03     87.2593E-03         7.27073        -1.73110        -3.48994        -1.73051         7.27013        -3.48994    -14.1078E-03     249.625E-03    -16.5652E-03    -233.060E-03    -50.0844E-03     66.6496E-03    -16.5652E-03     468.117E-03     181.274E+06     21.9327E+06    -1.31871E+06     750.839E+03     181.104E+06     20.0336E+06    -3.30872E+06         71.8602
            1685     983.214E-06     87.6107E-03         11.2020        -2.82316        -6.53243        -2.75355         11.1260        -6.52612    -788.974E-03     33.7932E-03    -16.8316E-03    -16.9616E-03    -16.9325E-03     33.7780E-03    -16.8455E-03     1.61634E-03     13.5710E+06     8.27609E+06    -96.9458E+06     11.1917E+06    -96.3225E+06     10.0321E+06    -7.70833E+06         22.4463
            1686     1.96725E-03     87.6129E-03         11.1731        -4.61404        -4.66620        -4.61190         11.1393        -4.63458         1.29982     33.8085E-03    -16.8514E-03    -16.9572E-03    -16.9056E-03     33.7597E-03    -16.8541E-03     3.04089E-03     11.7791E+06     5.85444E+06    -84.5019E+06     9.76554E+06    -82.4883E+06     5.85444E+06    -13.1512E+06         22.4711
            1687     2.95020E-03     87.6163E-03         11.1685        -4.57541        -4.64067        -4.48431         11.0452        -4.60849         2.62775     33.8545E-03    -16.8538E-03    -17.0007E-03    -16.9008E-03     33.7546E-03    -16.8538E-03     4.45945E-03     13.3084E+06     4.90372E+06    -81.8814E+06     9.25565E+06    -77.8287E+06     4.90372E+06    -19.0272E+06         22.5112
            1688     3.93369E-03     87.6214E-03         10.9305        -4.38349        -4.55923        -4.26725         10.8074        -4.55237         2.60351     33.8961E-03    -16.8593E-03    -17.0368E-03    -16.8702E-03     33.7295E-03    -16.8593E-03     5.77134E-03     16.1821E+06     6.17772E+06    -83.3624E+06     10.3094E+06    -77.4897E+06     6.17772E+06    -23.3143E+06         22.5676
            1689     4.91719E-03     87.6275E-03         10.5867        -4.10038        -4.47602        -4.06737         10.5537        -4.47602         1.32924     33.8451E-03    -16.8428E-03    -17.0023E-03    -16.7665E-03     33.6093E-03    -16.8428E-03     6.88895E-03     18.2919E+06     5.83683E+06    -84.5393E+06     10.5500E+06    -76.7974E+06     5.83683E+06    -27.0868E+06         22.6421
            1690     5.90091E-03     87.6341E-03         10.3647        -3.94589        -4.39549        -3.91728         10.3361        -4.39549         1.23022     33.6669E-03    -16.7914E-03    -16.8755E-03    -16.5617E-03     33.3656E-03    -16.8039E-03     7.76224E-03     19.8121E+06     4.26624E+06    -88.6817E+06     9.85956E+06    -78.7292E+06     4.26624E+06    -31.2542E+06         22.7378
            1691     6.88461E-03     87.6422E-03         10.2772        -3.92336        -4.31995        -3.81755         10.1714        -4.31995         2.31295     33.5108E-03    -16.7121E-03    -16.7988E-03    -16.4064E-03     33.1308E-03    -16.7245E-03     8.69437E-03     21.8660E+06    -697.759E+03     -89.239E+06     8.71075E+06    -76.0838E+06    -697.759E+03    -35.7358E+06         22.8595
            1692     7.86894E-03     87.6507E-03         10.1345        -3.84019        -4.24943        -3.69185         9.98619        -4.24943         2.85718     33.4020E-03    -16.6314E-03    -16.7706E-03    -16.3203E-03     32.9593E-03    -16.6389E-03     9.38068E-03     24.1085E+06    -6.77964E+06    -91.5122E+06     8.01151E+06    -75.4152E+06    -6.77964E+06    -40.0098E+06         23.0135
            1693     8.85279E-03     87.6603E-03         9.86583        -3.62720        -4.18053        -3.56224         9.80087        -4.18053         1.50558     33.2280E-03    -16.5567E-03    -16.6713E-03    -16.1709E-03     32.7351E-03    -16.5642E-03     9.85781E-03     25.4591E+06    -10.6891E+06    -93.2226E+06     8.12888E+06    -75.8924E+06    -10.6891E+06    -41.8616E+06         23.2120
            1694     9.83752E-03     87.6689E-03         9.61917        -3.43201        -4.11194        -3.41924         9.60641        -4.11194    -346.301E-03     33.1405E-03    -16.4779E-03    -16.6627E-03    -16.0732E-03     32.5510E-03    -16.4779E-03     10.7495E-03     27.0347E+06    -14.8566E+06    -89.0965E+06     8.34615E+06    -70.4080E+06    -14.8566E+06    -42.6072E+06         23.4901
            1695     10.8213E-03     87.6804E-03         9.38926        -3.24560        -4.04104        -3.23303         9.37669        -4.04104    -689.574E-03     33.0262E-03    -16.3570E-03    -16.6693E-03    -16.0469E-03     32.4039E-03    -16.3570E-03     11.0418E-03     28.4066E+06    -27.4312E+06    -87.0069E+06     7.82169E+06    -66.4220E+06    -27.4312E+06    -44.1150E+06         23.9597
            1696     11.8063E-03     87.6899E-03         9.09537        -2.99794        -3.96435        -2.99338         9.09080        -3.96435     121.855E-03     32.8397E-03    -16.2245E-03    -16.6152E-03    -15.9137E-03     32.1382E-03    -16.2245E-03     11.6495E-03     28.7833E+06    -41.3809E+06    -75.7980E+06     5.99316E+06    -53.0079E+06    -41.3809E+06    -42.8322E+06         24.9571
            1697     12.7901E-03     87.7018E-03         8.80704        -2.76795        -3.88154        -2.76423         8.80331        -3.88154     295.210E-03     33.2068E-03    -16.1022E-03    -17.1046E-03    -15.7836E-03     31.8858E-03    -16.1022E-03     15.7900E-03     26.5184E+06    -46.6478E+06    -63.7822E+06     1.58013E+06    -31.2421E+06    -54.2496E+06    -37.5911E+06         27.3201
            1698     13.7753E-03     87.7207E-03         8.56031        -2.59978        -3.79634        -2.59012         8.55065        -3.79634    -426.225E-03     33.7592E-03    -15.9897E-03    -17.7695E-03    -15.4714E-03     31.4611E-03    -15.9897E-03     21.1489E-03     22.1417E+06    -41.2964E+06    -71.7253E+06    -2.92974E+06    -16.2250E+06    -71.7253E+06    -30.8021E+06         32.6242
            1699     14.7608E-03     87.7436E-03         8.26388        -2.40101        -3.71122        -2.38321         8.24608        -3.71122    -863.464E-03     50.6274E-03    -15.8620E-03    -34.7655E-03    -16.6763E-03     32.5382E-03    -15.8620E-03     65.1031E-03     53.8269E+06    -21.6888E+06    -89.1441E+06    -5.00484E+06     37.1430E+06    -89.1441E+06    -22.1713E+06         42.6573
            1700     15.7448E-03     87.8537E-03         7.88622        -2.12307        -3.62785        -2.11429         7.87744        -3.62785    -481.311E-03     146.961E-03    -15.9385E-03    -131.022E-03    -30.3287E-03     46.2672E-03    -15.9385E-03     265.894E-03     121.965E+06    -5.73550E+06    -56.6238E+06    -3.52968E+06     119.759E+06    -56.6238E+06    -13.2067E+06         57.2980
            1701     16.7393E-03     88.3107E-03         7.47533        -1.81108        -3.54517        -1.81059         7.47484        -3.54517    -2.61495E-03     250.872E-03    -16.2068E-03    -234.665E-03    -50.3092E-03     66.5160E-03    -16.2068E-03     470.964E-03     174.935E+06     16.9600E+06    -6.66838E+06     222.302E+03     174.305E+06     10.7000E+06    -4.67656E+06         72.0567
            1702     983.678E-06     88.6447E-03         11.5344        -3.17387        -6.47133        -2.93421         11.2884        -6.46501        -1.30019     33.8224E-03    -16.7892E-03    -17.0331E-03    -16.9112E-03     33.8082E-03    -16.8970E-03     1.62421E-03     23.5354E+06     17.7643E+06    -83.9901E+06     19.8405E+06    -83.3520E+06     20.8211E+06    -6.47163E+06         22.4446
            1703     1.96671E-03     88.6466E-03         11.2228        -4.61501        -4.68004        -4.57032         11.1718        -4.67373         1.71469     33.8351E-03    -16.8663E-03    -16.9688E-03    -16.9117E-03     33.7906E-03    -16.8789E-03     2.89517E-03     23.1453E+06     16.5847E+06    -70.8011E+06     19.5493E+06    -68.5059E+06     17.8856E+06    -13.7177E+06         22.4695
            1704     2.95054E-03     88.6506E-03         11.1602        -4.55562        -4.61491        -4.41821         11.0228        -4.61491         2.63912     33.7915E-03    -16.8421E-03    -16.9494E-03    -16.8305E-03     33.6967E-03    -16.8662E-03     4.32978E-03     23.6683E+06     16.5830E+06    -69.9733E+06     19.3531E+06    -65.6582E+06     16.5830E+06    -19.4754E+06         22.5089
            1705     3.93391E-03     88.6550E-03         10.9296        -4.36456        -4.54175        -4.22085         10.7859        -4.54175         2.74827     33.7640E-03    -16.8257E-03    -16.9383E-03    -16.7565E-03     33.5965E-03    -16.8400E-03     5.76076E-03     25.2434E+06     15.0796E+06    -74.1165E+06     18.5811E+06    -67.4542E+06     15.0796E+06    -24.5409E+06         22.5642
            1706     4.91764E-03     88.6613E-03         10.6863        -4.17340        -4.46842        -4.13894         10.6518        -4.46842         1.41118     33.7092E-03    -16.8016E-03    -16.9076E-03    -16.6751E-03     33.4767E-03    -16.8016E-03     6.83761E-03     27.7652E+06     13.7955E+06    -75.5236E+06     18.9666E+06    -66.7249E+06     13.7955E+06    -28.7627E+06         22.6376
            1707     5.90114E-03     88.6678E-03         10.5144        -4.05407        -4.40369        -4.02439         10.4847        -4.40369         1.30286     33.6614E-03    -16.7684E-03    -16.8930E-03    -16.5951E-03     33.3635E-03    -16.7684E-03     7.71422E-03     31.1797E+06     13.8815E+06    -79.6531E+06     20.4850E+06    -68.9584E+06     13.8815E+06    -32.6283E+06         22.7323
            1708     6.88522E-03     88.6753E-03         10.3825        -3.97443        -4.33907        -3.87708         10.2852        -4.33907         2.21234     33.5679E-03    -16.7034E-03    -16.8645E-03    -16.4772E-03     33.1807E-03    -16.7034E-03     8.78830E-03     34.4752E+06     10.0828E+06    -79.7744E+06     21.2771E+06    -66.5764E+06     10.0828E+06    -36.3857E+06         22.8530
            1709     7.86872E-03     88.6842E-03         10.2375        -3.88507        -4.27320        -3.74579         10.0982        -4.27320         2.78485     33.3672E-03    -16.6187E-03    -16.7485E-03    -16.3029E-03     32.9292E-03    -16.6263E-03     9.32682E-03     33.9332E+06     3.55935E+06    -82.8734E+06     18.7443E+06    -67.6845E+06     3.55935E+06    -39.1945E+06         23.0062
            1710     8.85339E-03     88.6924E-03         9.96080        -3.65898        -4.20640        -3.59592         9.89773        -4.20640         1.57610     33.2057E-03    -16.5359E-03    -16.6698E-03    -16.1913E-03     32.7348E-03    -16.5435E-03     9.64107E-03     32.1994E+06    -3.72071E+06    -86.4360E+06     14.4425E+06    -68.6791E+06    -3.72071E+06    -42.2006E+06         23.2042
            1711     9.83720E-03     88.7022E-03         9.71326        -3.45881        -4.13806        -3.44915         9.70360        -4.13806    -107.938E-03     33.1387E-03    -16.4533E-03    -16.6854E-03    -16.1243E-03     32.5777E-03    -16.4533E-03     10.4950E-03     32.7526E+06    -11.0183E+06    -85.4039E+06     12.2852E+06    -64.9364E+06    -11.0183E+06    -44.6930E+06         23.4803
            1712     10.8218E-03     88.7126E-03         9.50911        -3.29274        -4.06807        -3.28631         9.50268        -4.06807    -429.994E-03     32.9288E-03    -16.3420E-03    -16.5868E-03    -16.0047E-03     32.3467E-03    -16.3420E-03     10.6671E-03     31.7531E+06    -23.1204E+06    -83.4885E+06     10.1884E+06    -61.9238E+06    -23.1204E+06    -44.9143E+06         23.9431
            1713     11.8060E-03     88.7223E-03         9.23870        -3.05879        -3.99330        -3.05198         9.23188        -3.99330     366.437E-03     32.8051E-03    -16.2141E-03    -16.5910E-03    -15.9463E-03     32.1604E-03    -16.2141E-03     11.1714E-03     28.5357E+06    -38.7500E+06    -76.2091E+06     5.67466E+06    -53.3481E+06    -38.7500E+06    -43.0993E+06         24.9226
            1714     12.7910E-03     88.7344E-03         8.96475        -2.83439        -3.91235        -2.82613         8.95649        -3.91235     574.306E-03     33.1527E-03    -16.1008E-03    -17.0519E-03    -15.8145E-03     31.9153E-03    -16.1008E-03     15.2511E-03     26.9690E+06    -47.3723E+06    -63.1761E+06     2.87624E+06    -35.1856E+06    -51.2701E+06    -38.2839E+06         27.2501
            1715     13.7752E-03     88.7525E-03         8.72016        -2.65935        -3.82871        -2.65319         8.71399        -3.82871    -136.349E-03     33.7330E-03    -15.9775E-03    -17.7554E-03    -15.6410E-03     31.6185E-03    -15.9775E-03     20.3479E-03     24.1977E+06    -44.7618E+06    -71.8251E+06     627.687E+03    -21.1918E+06    -71.8251E+06    -32.2189E+06         32.5105
            1716     14.7603E-03     88.7753E-03         8.44975        -2.47733        -3.74461        -2.46729         8.43971        -3.74461    -647.444E-03     50.7856E-03    -15.8208E-03    -34.9648E-03    -16.5079E-03     32.3287E-03    -15.8208E-03     65.2125E-03     51.8663E+06    -25.7837E+06    -95.8875E+06    -3.18034E+06     29.2629E+06    -95.8875E+06    -25.9951E+06         42.5387
            1717     15.7458E-03     88.8879E-03         8.08817        -2.21544        -3.65800        -2.20992         8.08265        -3.65800    -321.507E-03     141.917E-03    -15.7965E-03    -126.120E-03    -25.8662E-03     41.6627E-03    -15.7965E-03     258.075E-03     115.033E+06     -9.5116E+06    -65.2684E+06    -5.55474E+06     111.076E+06    -65.2684E+06    -19.3505E+06         57.2961
            1718     16.7467E-03     89.3205E-03         7.69026        -1.89663        -3.56381        -1.89615         7.68978        -3.56381     96.7270E-03     251.907E-03    -15.9977E-03    -235.910E-03    -51.4797E-03     67.4774E-03    -15.9977E-03     472.745E-03     163.563E+06     9.09833E+06    -19.0871E+06    -8.87278E+06     162.167E+06     279.806E+03    -12.2994E+06         72.2459
            1719     983.457E-06     89.6786E-03         11.7024        -3.54632        -6.24624        -3.06090         11.1934        -6.22268        -1.89351     33.9176E-03    -16.8353E-03    -17.0823E-03    -16.9190E-03     33.9017E-03    -16.9827E-03     1.69887E-03     33.4658E+06     28.9408E+06    -70.3093E+06     31.4681E+06    -69.6124E+06     30.2416E+06    -6.49732E+06         22.4407
            1720     1.96688E-03     89.6810E-03         11.1137        -4.53161        -4.63080        -4.47098         11.0295        -4.60723         1.95141     33.8393E-03    -16.8638E-03    -16.9755E-03    -16.8784E-03     33.7945E-03    -16.9161E-03     2.93885E-03     34.6514E+06     28.8277E+06    -56.2756E+06     30.8118E+06    -53.7368E+06     30.1285E+06    -14.3102E+06         22.4647
            1721     2.95020E-03     89.6841E-03         11.0630        -4.49262        -4.55500        -4.37012         10.9294        -4.54389         2.38642     33.7579E-03    -16.8564E-03    -16.9016E-03    -16.7854E-03     33.6659E-03    -16.8805E-03     4.26139E-03     35.4204E+06     28.3634E+06    -59.1345E+06     31.0273E+06    -54.7414E+06     28.3634E+06    -19.8352E+06         22.5031
            1722     3.93414E-03     89.6890E-03         10.9056        -4.36337        -4.49424        -4.23140         10.7625        -4.48313         2.66308     33.6524E-03    -16.7858E-03    -16.8666E-03    -16.6685E-03     33.4990E-03    -16.8305E-03     5.51939E-03     37.4037E+06     26.5855E+06    -62.2433E+06     30.7358E+06    -55.5755E+06     26.5855E+06    -24.5678E+06         22.5573
            1723     4.91774E-03     89.6947E-03         10.7063        -4.20824        -4.42662        -4.17916         10.6773        -4.42662         1.30814     33.5251E-03    -16.7259E-03    -16.7992E-03    -16.5432E-03     33.3053E-03    -16.7621E-03     6.61243E-03     38.7189E+06     22.5578E+06    -65.6979E+06     29.3578E+06    -56.3368E+06     22.5578E+06    -29.7777E+06         22.6295
            1724     5.90187E-03     89.7013E-03         10.6206        -4.15459        -4.38057        -4.12772         10.5937        -4.38057         1.25827     33.5117E-03    -16.6979E-03    -16.8138E-03    -16.5122E-03     33.2158E-03    -16.7036E-03     7.67319E-03     41.0792E+06     19.8040E+06    -70.5783E+06     28.6577E+06    -58.1568E+06     19.8040E+06    -34.9593E+06         22.7231
            1725     6.88534E-03     89.7088E-03         10.4930        -4.06270        -4.33310        -3.96635         10.3967        -4.33310         2.17231     33.4529E-03    -16.6503E-03    -16.8026E-03    -16.4227E-03     33.0730E-03    -16.6503E-03     8.69019E-03     42.6820E+06     17.5041E+06    -73.2861E+06     28.6634E+06    -59.2675E+06     17.5041E+06    -37.7650E+06         22.8427
            1726     7.86988E-03     89.7171E-03         10.2237        -3.84052        -4.27091        -3.69814         10.0813        -4.27091         2.80863     33.3831E-03    -16.5899E-03    -16.7932E-03    -16.3512E-03     32.9411E-03    -16.5899E-03     9.37111E-03     42.2749E+06     13.4235E+06    -75.5853E+06     28.3375E+06    -61.6479E+06     13.4235E+06    -38.0453E+06         22.9949
            1727     8.85339E-03     89.7257E-03         9.89466        -3.57212        -4.19648        -3.50542         9.82796        -4.19648         1.69189     33.3013E-03    -16.5186E-03    -16.7828E-03    -16.2966E-03     32.8152E-03    -16.5186E-03     9.81525E-03     42.9573E+06     7.71397E+06    -75.5535E+06     26.4047E+06    -59.0010E+06     7.71397E+06    -40.9630E+06         23.1917
            1728     9.83773E-03     89.7350E-03         9.69079        -3.41690        -4.12201        -3.40693         9.68082        -4.12201     121.078E-03     33.1453E-03    -16.4353E-03    -16.7101E-03    -16.1235E-03     32.5588E-03    -16.4353E-03     10.7224E-03     41.7063E+06    -1.47376E+06    -78.7438E+06     22.3289E+06    -59.3665E+06    -1.47376E+06    -44.1670E+06         23.4654
            1729     10.8220E-03     89.7450E-03         9.53400        -3.29432        -4.05131        -3.29088         9.53057        -4.05131    -254.044E-03     33.0384E-03    -16.3198E-03    -16.7186E-03    -16.0963E-03     32.4161E-03    -16.3198E-03     11.0476E-03     37.9460E+06    -16.8278E+06    -79.1951E+06     18.0238E+06    -59.2728E+06    -16.8278E+06    -43.9341E+06         23.9215
            1730     11.8063E-03     89.7552E-03         9.33086        -3.11659        -3.98007        -3.10851         9.32278        -3.98007     480.285E-03     32.8961E-03    -16.1931E-03    -16.7030E-03    -16.0100E-03     32.2031E-03    -16.1931E-03     11.5877E-03     36.7412E+06    -33.1060E+06    -72.5106E+06     15.2541E+06    -51.0234E+06    -33.1060E+06    -43.1869E+06         24.8826
            1731     12.7902E-03     89.7664E-03         9.07474        -2.89455        -3.90412        -2.88352         9.06371        -3.90412     707.399E-03     33.3346E-03    -16.0685E-03    -17.2660E-03    -15.9489E-03     32.0174E-03    -16.0685E-03     15.7922E-03     37.0243E+06    -47.5745E+06    -63.3190E+06     13.2770E+06    -37.2441E+06    -49.9021E+06    -41.7808E+06         27.1733
            1732     13.7754E-03     89.7850E-03         8.79571        -2.67154        -3.82310        -2.66669         8.79086        -3.82310     71.6044E-03     34.1421E-03    -15.9607E-03    -18.1813E-03    -16.0037E-03     31.9644E-03    -15.9607E-03     20.8273E-03     32.1337E+06    -48.8813E+06    -71.5272E+06     11.6482E+06    -28.3957E+06    -71.5272E+06    -35.0135E+06         32.3883
            1733     14.7596E-03     89.8079E-03         8.54021        -2.49595        -3.73910        -2.49168         8.53593        -3.73910    -420.570E-03     50.3895E-03    -15.7960E-03    -34.5935E-03    -16.1208E-03     31.9168E-03    -15.7960E-03     64.6110E-03     52.4868E+06    -23.7537E+06    -96.9738E+06     6.22942E+06     22.5037E+06    -96.9738E+06    -25.2040E+06         42.4196
            1734     15.7475E-03     89.9170E-03         8.23155        -2.27138        -3.64968        -2.26885         8.22903        -3.64968    -196.253E-03     138.446E-03    -15.9007E-03    -122.545E-03    -29.5114E-03     45.4120E-03    -15.9007E-03     249.138E-03     110.460E+06    -6.21329E+06    -71.0573E+06    -2.34631E+06     106.593E+06    -71.0573E+06    -18.4386E+06         57.2444
            1735     16.7308E-03     90.3370E-03         7.88443        -1.97562        -3.54778        -1.97507         7.88388        -3.54778     126.067E-03     251.607E-03    -16.2043E-03    -235.403E-03    -51.1166E-03     67.3209E-03    -16.2043E-03     472.026E-03     155.508E+06     5.45532E+06    -24.0041E+06    -1.87270E+06     154.070E+06    -15.2382E+06    -11.7070E+06         72.4056
            1736     983.171E-06     90.7126E-03         11.7537        -3.87623        -5.96885        -3.16451         10.8974        -5.82427        -2.41975     33.8746E-03    -16.8201E-03    -17.0545E-03    -16.9910E-03     33.8571E-03    -16.8662E-03     1.77785E-03     42.9548E+06     37.5986E+06    -55.3981E+06     40.7313E+06    -54.3424E+06     38.7664E+06    -9.22258E+06         22.4312
            1737     1.96701E-03     90.7149E-03         11.0964        -4.47044        -4.66402        -4.50044         10.9579        -4.49551         2.08021     33.7019E-03    -16.8211E-03    -16.8808E-03    -16.7823E-03     33.6550E-03    -16.8727E-03     3.01262E-03     44.1539E+06     38.5135E+06    -41.9713E+06     41.4988E+06    -39.3162E+06     38.5135E+06    -14.5397E+06         22.4540
            1738     2.95068E-03     90.7181E-03         11.0153        -4.45528        -4.53692        -4.38322         10.8866        -4.48035         1.99621     33.7172E-03    -16.8316E-03    -16.8856E-03    -16.7835E-03     33.6205E-03    -16.8370E-03     4.35945E-03     45.5773E+06     37.6526E+06    -47.7462E+06     40.3658E+06    -42.5347E+06     37.6526E+06    -21.2141E+06         22.4913
            1739     3.93395E-03     90.7227E-03         10.8696        -4.33546        -4.47097        -4.23279         10.7342        -4.43833         2.44006     33.5788E-03    -16.7485E-03    -16.8304E-03    -16.6358E-03     33.4258E-03    -16.7899E-03     5.52342E-03     48.5735E+06     35.2091E+06    -51.8682E+06     41.1127E+06    -44.4075E+06     35.2091E+06    -26.2489E+06         22.5444
            1740     4.91814E-03     90.7281E-03         10.6230        -4.14884        -4.38624        -4.12428         10.5985        -4.38624         1.15603     33.4217E-03    -16.6869E-03    -16.7348E-03    -16.4681E-03     33.2029E-03    -16.7348E-03     6.57784E-03     52.3819E+06     35.6869E+06    -54.4888E+06     42.6174E+06    -44.7242E+06     35.6869E+06    -30.7052E+06         22.6152
            1741     5.90191E-03     90.7347E-03         10.5132        -4.07206        -4.33513        -4.04027         10.4814        -4.33513         1.35220     33.3401E-03    -16.6318E-03    -16.7082E-03    -16.3750E-03     33.0450E-03    -16.6700E-03     7.64364E-03     54.6633E+06     34.1216E+06    -59.6600E+06     42.3123E+06    -47.3090E+06     34.1216E+06    -35.3439E+06         22.7074
            1742     6.88632E-03     90.7421E-03         10.4243        -4.01946        -4.28379        -3.91618         10.3210        -4.28379         2.24177     33.2998E-03    -16.5728E-03    -16.7270E-03    -16.3235E-03     32.9280E-03    -16.6045E-03     8.57636E-03     53.2742E+06     29.6894E+06    -66.3732E+06     39.9389E+06    -53.0380E+06     29.6894E+06    -37.5204E+06         22.8253
            1743     7.87005E-03     90.7498E-03         10.1794        -3.82123        -4.22245        -3.67087         10.0290        -4.22245         2.87806     33.2669E-03    -16.5253E-03    -16.7415E-03    -16.2858E-03     32.8111E-03    -16.5253E-03     9.49165E-03     53.6395E+06     22.6960E+06    -69.7506E+06     38.7746E+06    -54.8857E+06     22.6960E+06    -40.0824E+06         22.9755
            1744     8.85445E-03     90.7593E-03         9.82561        -3.52240        -4.14859        -3.45076         9.75397        -4.14859         1.79195     33.1185E-03    -16.4498E-03    -16.6687E-03    -16.1582E-03     32.6079E-03    -16.4498E-03     10.0292E-03     54.7987E+06     17.6738E+06    -68.6218E+06     38.9525E+06    -52.7756E+06     17.6738E+06    -41.1752E+06         23.1708
            1745     9.83868E-03     90.7671E-03         9.61581        -3.36338        -4.07316        -3.35197         9.60441        -4.07316     269.863E-03     33.1419E-03    -16.3796E-03    -16.7623E-03    -16.1318E-03     32.5114E-03    -16.3796E-03     11.1059E-03     52.0410E+06     11.5807E+06    -69.4984E+06     35.8982E+06    -53.3556E+06     11.5807E+06    -41.1183E+06         23.4431
            1746     10.8230E-03     90.7783E-03         9.53020        -3.30290        -4.00452        -3.30077         9.52806        -4.00452    -162.656E-03     33.0928E-03    -16.2647E-03    -16.8282E-03    -16.1462E-03     32.4109E-03    -16.2647E-03     11.5790E-03     49.9425E+06    -5.22408E+06    -72.4567E+06     31.6595E+06    -54.1737E+06    -5.22408E+06    -43.5811E+06         23.8939
            1747     11.8072E-03     90.7873E-03         9.36544        -3.15150        -3.93886        -3.14458         9.35852        -3.93886     469.245E-03     32.9054E-03    -16.1528E-03    -16.7526E-03    -16.0140E-03     32.1667E-03    -16.1528E-03     11.9808E-03     48.5213E+06    -20.6357E+06    -68.6669E+06     28.2559E+06    -48.4015E+06    -20.6357E+06    -44.2166E+06         24.8384
            1748     12.7925E-03     90.7989E-03         9.07694        -2.88226        -3.86684        -2.87204         9.06672        -3.86684     690.631E-03     33.4460E-03    -16.0378E-03    -17.4082E-03    -15.9294E-03     31.9673E-03    -16.0378E-03     16.6949E-03     44.6187E+06    -37.0670E+06    -59.6380E+06     22.7689E+06    -37.1257E+06    -37.7295E+06    -42.0123E+06         27.0936
            1749     13.7757E-03     90.8181E-03         8.78765        -2.63650        -3.78645        -2.63241         8.78357        -3.78645     166.372E-03     34.4089E-03    -15.9291E-03    -18.4799E-03    -16.0009E-03     31.9300E-03    -15.9291E-03     22.2860E-03     34.9008E+06    -52.1030E+06    -66.7763E+06     15.7331E+06    -36.0179E+06    -63.6938E+06    -36.6237E+06         32.2675
            1750     14.7609E-03     90.8397E-03         8.55198        -2.46612        -3.70178        -2.46406         8.54992        -3.70178    -292.646E-03     50.2648E-03    -15.7695E-03    -34.4953E-03    -16.6537E-03     32.4232E-03    -15.7695E-03     64.2124E-03     48.1026E+06    -25.6654E+06    -93.0810E+06     10.9344E+06     11.5028E+06    -93.0810E+06    -24.9212E+06         42.3123
            1751     15.7470E-03     90.9464E-03         8.30294        -2.28237        -3.61031        -2.28093         8.30150        -3.61031    -181.559E-03     144.319E-03    -15.9212E-03    -128.398E-03    -33.6313E-03     49.5525E-03    -15.9212E-03     258.941E-03     106.390E+06     4.19321E+06    -71.8374E+06     7.71290E+06     102.870E+06    -71.8374E+06    -15.0492E+06         57.2574
            1752     16.7132E-03     91.3884E-03         8.00750        -2.04215        -3.50476        -2.04183         8.00718        -3.50476     68.9152E-03     253.072E-03    -16.2162E-03    -236.856E-03    -50.2690E-03     66.4852E-03    -16.2162E-03     475.539E-03     149.763E+06     4.99227E+06    -26.4095E+06     6.04276E+06     148.713E+06    -26.4095E+06    -8.68779E+06         72.6316
            1753     983.782E-06     91.7470E-03         11.8749        -4.20379        -5.77383        -3.20776         10.6205        -5.51544        -2.83323     33.5809E-03    -16.6503E-03    -16.9306E-03    -16.8220E-03     33.5626E-03    -16.7406E-03     1.84644E-03     57.6316E+06     53.7887E+06    -39.1433E+06     55.1812E+06    -37.8607E+06     54.9565E+06    -9.45699E+06         22.4112
            1754     1.96713E-03     91.7485E-03         11.0955        -4.39467        -4.75679        -4.52715         10.8659        -4.39467         2.36912     33.5791E-03    -16.7369E-03    -16.8422E-03    -16.7797E-03     33.5258E-03    -16.7461E-03     3.15920E-03     59.0755E+06     51.5013E+06    -27.9544E+06     55.8151E+06    -24.6941E+06     51.5013E+06    -16.2797E+06         22.4336
            1755     2.95080E-03     91.7522E-03         11.0405        -4.43160        -4.59054        -4.45569         10.9056        -4.43160         1.74437     33.5318E-03    -16.7167E-03    -16.8151E-03    -16.6888E-03     33.4302E-03    -16.7414E-03     4.48443E-03     61.7193E+06     51.7620E+06    -33.5943E+06     55.9674E+06    -27.8424E+06     51.7620E+06    -22.5680E+06         22.4699
            1756     3.93480E-03     91.7563E-03         10.7426        -4.22166        -4.45795        -4.14136         10.6071        -4.40274         2.31790     33.4364E-03    -16.6836E-03    -16.7528E-03    -16.5643E-03     33.2782E-03    -16.7139E-03     5.58878E-03     64.0151E+06     51.6436E+06    -41.5992E+06     55.9735E+06    -33.5577E+06     51.6436E+06    -27.9535E+06         22.5213
            1757     4.91842E-03     91.7615E-03         10.3788        -3.95364        -4.32937        -3.92602         10.3512        -4.32937         1.13353     33.3153E-03    -16.6311E-03    -16.6842E-03    -16.4303E-03     33.0732E-03    -16.6428E-03     6.90054E-03     65.6483E+06     47.1866E+06    -44.2100E+06     54.8210E+06    -33.3828E+06     47.1866E+06    -32.5651E+06         22.5902
            1758     5.90264E-03     91.7680E-03         10.2581        -3.88737        -4.25434        -3.84504         10.2157        -4.25434         1.53778     33.1983E-03    -16.5549E-03    -16.6435E-03    -16.3015E-03     32.8888E-03    -16.5873E-03     7.82147E-03     66.4075E+06     45.5547E+06    -50.6546E+06     54.2527E+06    -38.4998E+06     45.5547E+06    -35.6303E+06         22.6802
            1759     6.88677E-03     91.7747E-03         10.2334        -3.90526        -4.19161        -3.80144         10.1296        -4.19161         2.26090     33.1210E-03    -16.4905E-03    -16.6305E-03    -16.1981E-03     32.7204E-03    -16.5223E-03     8.84671E-03     67.8413E+06     42.5463E+06    -58.0984E+06     54.9705E+06    -45.2276E+06     42.5463E+06    -38.0813E+06         22.7957
            1760     7.87112E-03     91.7835E-03         10.0950        -3.80881        -4.13373        -3.66683         9.95304        -4.13373         2.78037     32.9916E-03    -16.4244E-03    -16.5672E-03    -16.0780E-03     32.5024E-03    -16.4244E-03     9.79151E-03     68.9543E+06     34.7344E+06    -60.8484E+06     54.0262E+06    -45.9203E+06     34.7344E+06    -41.2989E+06         22.9438
            1761     8.85561E-03     91.7909E-03         9.77339        -3.53092        -4.07011        -3.46477         9.70725        -4.07011         1.73940     32.8886E-03    -16.3422E-03    -16.5464E-03    -16.0029E-03     32.3451E-03    -16.3422E-03     10.3005E-03     65.1539E+06     27.4297E+06    -65.8678E+06     50.5870E+06    -51.3009E+06     27.4297E+06    -41.0739E+06         23.1380
            1762     9.84024E-03     91.8005E-03         9.54780        -3.34347        -4.00222        -3.33240         9.53673        -4.00222     351.659E-03     33.0323E-03    -16.2711E-03    -16.7612E-03    -16.0793E-03     32.3504E-03    -16.2711E-03     11.5407E-03     62.1368E+06     22.4524E+06    -62.7477E+06     47.7879E+06    -48.3989E+06     22.4524E+06    -39.7311E+06         23.4096
            1763     10.8243E-03     91.8104E-03         9.45276        -3.26877        -3.93750        -3.26718         9.45117        -3.93750    -49.5170E-03     33.0140E-03    -16.1790E-03    -16.8350E-03    -16.1241E-03     32.3032E-03    -16.1790E-03     11.8050E-03     58.5385E+06     9.06478E+06    -63.3516E+06     42.7054E+06    -47.5184E+06     9.06478E+06    -40.9163E+06         23.8571
            1764     11.8090E-03     91.8201E-03         9.29318        -3.11091        -3.87417        -3.10399         9.28626        -3.87417     502.278E-03     32.9425E-03    -16.0842E-03    -16.8583E-03    -16.0948E-03     32.1790E-03    -16.0842E-03     12.1894E-03     52.0328E+06    -8.04697E+06    -63.8296E+06     34.2122E+06    -46.0090E+06    -8.04697E+06    -41.5642E+06         24.7881
            1765     12.7926E-03     91.8311E-03         9.01791        -2.84589        -3.80387        -2.83571         9.00773        -3.80387     689.862E-03     33.2041E-03    -15.9898E-03    -17.2143E-03    -15.7823E-03     31.7721E-03    -15.9898E-03     16.4065E-03     45.6984E+06    -23.7933E+06    -56.1758E+06     26.8309E+06    -37.3083E+06    -23.7933E+06    -39.5279E+06         27.0121
            1766     13.7794E-03     91.8497E-03         8.74033        -2.59782        -3.72490        -2.59374         8.73625        -3.72490     221.161E-03     34.0382E-03    -15.8650E-03    -18.1731E-03    -15.5981E-03     31.4631E-03    -15.8650E-03     22.4596E-03     36.7312E+06    -46.4810E+06    -61.3176E+06     20.3953E+06    -40.0052E+06    -51.4574E+06    -35.2408E+06         32.1510
            1767     14.7631E-03     91.8732E-03         8.52271        -2.42932        -3.64101        -2.42799         8.52138        -3.64101    -224.706E-03     50.8380E-03    -15.7226E-03    -35.1154E-03    -17.3599E-03     33.0825E-03    -15.7226E-03     65.3768E-03     44.3393E+06    -29.8283E+06    -82.9809E+06     14.7858E+06    -274.891E+03    -82.9809E+06    -28.0354E+06         42.2074
            1768     15.7463E-03     91.9788E-03         8.31818        -2.28350        -3.54890        -2.28243         8.31711        -3.54890    -156.069E-03     146.606E-03    -15.7421E-03    -130.864E-03    -30.4365E-03     46.1786E-03    -15.7421E-03     265.209E-03     101.193E+06     5.80544E+06    -65.9863E+06     12.6329E+06     94.3656E+06    -65.9863E+06    -16.1260E+06         57.3126
            1769     16.7508E-03     92.4392E-03         8.03980        -2.06805        -3.44014        -2.06794         8.03968        -3.44014     32.5013E-03     251.797E-03    -15.8506E-03    -235.947E-03    -49.4210E-03     65.2715E-03    -15.8506E-03     473.934E-03     144.363E+06     3.97779E+06    -30.1670E+06     4.67960E+06     143.661E+06    -30.1670E+06    -6.34526E+06         72.8792
            1770     983.950E-06     92.7806E-03         12.0537        -4.59574        -5.59461        -3.35654         10.4732        -5.25325        -3.05368     33.1440E-03    -16.4795E-03    -16.6645E-03    -16.5560E-03     33.1222E-03    -16.5661E-03     1.98526E-03     73.6619E+06     70.2695E+06    -22.0381E+06     72.4327E+06    -20.8089E+06     70.2695E+06    -8.44849E+06         22.3749
            1771     1.96776E-03     92.7825E-03         11.0045        -4.32970        -4.75726        -4.42999         10.6773        -4.32970         2.74125     33.2013E-03    -16.5350E-03    -16.6663E-03    -16.6063E-03     33.1413E-03    -16.5350E-03     3.35396E-03     73.4852E+06     66.4140E+06    -12.1711E+06     69.4355E+06    -8.12138E+06     66.4140E+06    -17.7252E+06         22.3974
            1772     2.95146E-03     92.7857E-03         10.8440        -4.35392        -4.49336        -4.35051         10.7012        -4.35392         1.61856     33.1418E-03    -16.5144E-03    -16.6274E-03    -16.4936E-03     33.0273E-03    -16.5336E-03     4.72161E-03     75.1827E+06     63.8987E+06    -20.1971E+06     68.7882E+06    -13.8026E+06     63.8987E+06    -23.7600E+06         22.4324
            1773     3.93534E-03     92.7897E-03         10.5167        -4.09646        -4.36802        -4.01025         10.3772        -4.31479         2.27674     33.0557E-03    -16.4855E-03    -16.5701E-03    -16.3671E-03     32.8718E-03    -16.5048E-03     5.97357E-03     77.7097E+06     62.9156E+06    -29.7125E+06     68.9305E+06    -20.9333E+06     62.9156E+06    -29.2312E+06         22.4814
            1774     4.91970E-03     92.7948E-03         10.1203        -3.79857        -4.22989        -3.76808         10.0898        -4.22989         1.12804     32.9903E-03    -16.4365E-03    -16.5538E-03    -16.2745E-03     32.7110E-03    -16.4365E-03     7.37416E-03     79.9752E+06     58.2854E+06    -33.4689E+06     68.8473E+06    -22.3411E+06     58.2854E+06    -33.5422E+06         22.5475
            1775     5.90373E-03     92.8009E-03         10.0387        -3.77061        -4.14787        -3.72624         9.99431        -4.14787         1.54543     32.9268E-03    -16.3771E-03    -16.5497E-03    -16.1762E-03     32.5534E-03    -16.3771E-03     8.52939E-03     79.9650E+06      53.666E+06    -42.4087E+06     67.6751E+06    -30.1187E+06      53.666E+06    -36.6748E+06         22.6345
            1776     6.88796E-03     92.8077E-03         10.0503        -3.82439        -4.08661        -3.73108         9.95695        -4.08661         2.12203     32.8285E-03    -16.3092E-03    -16.5192E-03    -16.0367E-03     32.3459E-03    -16.3092E-03     9.66216E-03     80.5160E+06     48.7431E+06    -50.4788E+06     66.4993E+06    -36.4621E+06     48.7431E+06    -40.4366E+06         22.7476
            1777     7.87277E-03     92.8155E-03         9.92890        -3.73532        -4.03433        -3.61634         9.80993        -4.03433         2.50857     32.6911E-03    -16.2249E-03    -16.4662E-03    -15.9030E-03     32.1279E-03    -16.2249E-03     10.4489E-03     77.1832E+06     41.6036E+06    -54.5151E+06     63.5667E+06    -40.8985E+06     41.6036E+06    -39.9653E+06         22.8942
            1778     8.85731E-03     92.8238E-03         9.63034        -3.47467        -3.97668        -3.42366         9.57933        -3.97668         1.53674     32.7301E-03    -16.1556E-03    -16.5745E-03    -15.9433E-03     32.0989E-03    -16.1556E-03     11.0565E-03     71.8429E+06     34.8197E+06    -60.1290E+06     58.8193E+06    -47.1054E+06     34.8197E+06    -39.2820E+06         23.0876
            1779     9.84171E-03     92.8324E-03         9.40466        -3.28086        -3.91299        -3.27133         9.39513        -3.91299     416.074E-03     32.8619E-03    -16.0846E-03    -16.7773E-03    -15.9941E-03     32.0787E-03    -16.0846E-03     12.3348E-03     68.5734E+06     27.1425E+06    -59.1694E+06     54.9405E+06    -45.5365E+06     27.1425E+06    -39.4147E+06         23.3585
            1780     10.8265E-03     92.8435E-03         9.26766        -3.15749        -3.84845        -3.15580         9.26596        -3.84845     112.882E-03     32.9151E-03    -16.0267E-03    -16.8884E-03    -16.0913E-03     32.1180E-03    -16.0267E-03     12.4678E-03     61.0671E+06     17.7481E+06    -57.8539E+06     48.9885E+06    -45.7753E+06     17.7481E+06    -35.7279E+06         23.8030
            1781     11.8104E-03     92.8520E-03         9.12559        -3.01600        -3.78363        -3.00788         9.11747        -3.78363     584.026E-03     32.9798E-03    -15.9603E-03    -17.0196E-03    -16.1652E-03     32.1255E-03    -15.9603E-03     12.9069E-03     51.9272E+06     3.16287E+06    -55.3919E+06     39.2076E+06    -42.6723E+06     3.16287E+06    -34.2535E+06         24.7230
            1782     12.7955E-03     92.8641E-03         8.92281        -2.81237        -3.71494        -2.80144         8.91189        -3.71494     711.737E-03     33.4330E-03    -15.8821E-03    -17.5509E-03    -16.1301E-03     32.0121E-03    -15.8821E-03     16.5966E-03     45.6782E+06    -15.8276E+06    -51.1213E+06     29.8521E+06    -35.2952E+06    -15.8276E+06    -35.6367E+06         26.9205
            1783     13.7787E-03     92.8801E-03         8.67579        -2.58138        -3.64015        -2.57709         8.67151        -3.64015     287.684E-03     33.8904E-03    -15.7807E-03    -18.1097E-03    -15.7070E-03     31.4877E-03    -15.7807E-03     21.6635E-03     36.3165E+06    -44.5979E+06    -58.5098E+06     22.1902E+06    -43.0688E+06    -45.9126E+06    -33.1638E+06         32.0250
            1784     14.7660E-03     92.9056E-03         8.47536        -2.41658        -3.56010        -2.41602         8.47480        -3.56010    -120.400E-03     51.3049E-03    -15.6769E-03    -35.6280E-03    -17.5992E-03     33.2762E-03    -15.6769E-03     66.1965E-03     43.3554E+06    -34.5083E+06    -75.9500E+06     13.7956E+06    -5.93123E+06    -74.9672E+06    -28.5329E+06         42.0770
            1785     15.7501E-03     93.0146E-03         8.26958        -2.26297        -3.46917        -2.26247         8.26908        -3.46917    -101.058E-03     141.228E-03    -15.6015E-03    -125.627E-03    -26.9410E-03     42.5425E-03    -15.6015E-03     255.892E-03     88.7893E+06    -3.73034E+06    -72.8988E+06     4.52998E+06     80.5290E+06    -72.8988E+06    -19.2766E+06         57.2915
            1786     16.7363E-03     93.4434E-03         7.99931        -2.04919        -3.35680        -2.04914         7.99925        -3.35680     24.5857E-03     252.640E-03    -15.6310E-03    -237.009E-03    -49.9612E-03     65.5921E-03    -15.6310E-03     475.604E-03     132.761E+06    -995.684E+03    -40.2003E+06    -292.046E+03     132.057E+06    -40.2003E+06     -5.5197E+06         73.0677
            1787     984.043E-06     93.8131E-03         12.1563        -4.87225        -5.46690        -3.54743         10.3930        -5.02845        -3.13608     32.5817E-03    -16.2128E-03    -16.3689E-03    -16.3222E-03     32.5573E-03    -16.2350E-03     2.01391E-03     86.7082E+06     81.7417E+06    -4.68127E+06     84.7516E+06    -3.19199E+06     82.2091E+06    -9.84084E+06         22.3154
            1788     1.96834E-03     93.8160E-03         10.8107        -4.23150        -4.69566        -4.24970         10.4135        -4.28025         2.91929     32.4181E-03    -16.1669E-03    -16.2513E-03    -16.1335E-03     32.3496E-03    -16.2160E-03     3.56782E-03     86.8362E+06     79.2856E+06     5.27307E+06     82.7512E+06     9.35807E+06     79.2856E+06    -17.4768E+06         22.3373
            1789     2.95261E-03     93.8186E-03         10.4156        -4.18628        -4.26854        -4.06427         10.2676        -4.24258         1.44110     32.4150E-03    -16.1433E-03    -16.2717E-03    -16.1121E-03     32.2823E-03    -16.1701E-03     5.01658E-03     87.0134E+06     74.7840E+06    -7.14691E+06     80.4447E+06    -578.209E+03     74.7840E+06    -23.8900E+06         22.3709
            1790     3.93712E-03     93.8226E-03         10.2384        -4.01231        -4.19647        -3.89369         10.1003        -4.17691         2.04969     32.3762E-03    -16.1071E-03    -16.2691E-03    -16.0445E-03     32.1516E-03    -16.1071E-03     6.53765E-03     88.4283E+06     67.0022E+06    -15.9563E+06     78.2178E+06    -5.74575E+06     67.0022E+06    -30.7215E+06         22.4170
            1791     4.92126E-03     93.8275E-03         9.98738        -3.80184        -4.10741        -3.77279         9.95832        -4.10741     938.139E-03     32.2691E-03    -16.0451E-03    -16.2240E-03    -15.8833E-03     31.9284E-03    -16.0451E-03     8.05021E-03     90.8377E+06     62.0181E+06    -24.4067E+06      77.999E+06    -11.5680E+06     62.0181E+06    -36.1146E+06         22.4794
            1792     5.90609E-03     93.8334E-03         9.91259        -3.75545        -4.04585        -3.71600         9.87314        -4.04585         1.42889     32.2374E-03    -15.9795E-03    -16.2578E-03    -15.7765E-03     31.7560E-03    -15.9795E-03     9.55890E-03     92.0036E+06     57.7233E+06    -34.6061E+06     78.6018E+06    -21.2044E+06     57.7233E+06    -38.8446E+06         22.5631
            1793     6.89087E-03     93.8401E-03         9.84790        -3.72194        -3.99278        -3.64302         9.76899        -3.99278         1.89689     32.3140E-03    -15.9220E-03    -16.3919E-03    -15.7738E-03     31.6959E-03    -15.9220E-03     10.8654E-03     88.5844E+06     53.1483E+06    -42.7545E+06     75.1888E+06    -29.3589E+06     53.1483E+06    -39.6386E+06         22.6739
            1794     7.87523E-03     93.8476E-03         9.65537        -3.56826        -3.93777        -3.46824         9.55535        -3.93777         2.25787     32.3751E-03    -15.8713E-03    -16.5038E-03    -15.7693E-03     31.6406E-03    -15.8713E-03     11.8418E-03     81.6584E+06     46.3381E+06    -51.2385E+06     69.6212E+06    -39.2014E+06     46.3381E+06    -38.0325E+06         22.8193
            1795     8.86014E-03     93.8557E-03         9.35705        -3.31134        -3.87400        -3.26952         9.31523        -3.87400         1.39573     32.4629E-03    -15.8095E-03    -16.6534E-03    -15.7985E-03     31.6081E-03    -15.8095E-03     12.7826E-03     77.1676E+06     38.0515E+06    -52.9836E+06     65.3127E+06    -41.1287E+06     38.0515E+06    -37.3667E+06         23.0119
            1796     9.84474E-03     93.8649E-03         9.15052        -3.13951        -3.80562        -3.13002         9.14103        -3.80562     453.100E-03     32.6939E-03    -15.7635E-03    -16.9304E-03    -15.8968E-03     31.6603E-03    -15.7635E-03     14.0962E-03     70.4815E+06     29.2945E+06    -55.5864E+06     58.9178E+06    -44.0228E+06     29.2945E+06    -36.2604E+06         23.2822
            1797     10.8291E-03     93.8750E-03         9.03685        -3.03794        -3.73878        -3.03634         9.03525        -3.73878     161.437E-03     32.8761E-03    -15.7249E-03    -17.1512E-03    -16.0712E-03     31.7961E-03    -15.7249E-03     14.4637E-03     61.8307E+06     18.0195E+06    -58.0510E+06     52.4711E+06    -48.6913E+06     18.0195E+06    -32.0579E+06         23.7245
            1798     11.8138E-03     93.8852E-03         8.91544        -2.91117        -3.67362        -2.90370         8.90796        -3.67362     562.351E-03     33.0794E-03    -15.6960E-03    -17.3834E-03    -16.2824E-03     31.9784E-03    -15.6960E-03     14.6716E-03     56.5887E+06     8.76405E+06    -48.5215E+06     47.6504E+06    -39.5832E+06     8.76405E+06    -29.0525E+06         24.6351
            1799     12.7974E-03     93.8955E-03         8.74160        -2.73020        -3.60609        -2.72034         8.73174        -3.60609     668.231E-03     33.9343E-03    -15.6625E-03    -18.2718E-03    -16.5028E-03     32.1653E-03    -15.6625E-03     18.5951E-03     50.8397E+06    -7.96602E+06    -42.5301E+06     39.9442E+06    -31.6345E+06    -7.96602E+06    -29.5471E+06         26.8095
            1800     13.7816E-03     93.9148E-03         8.56655        -2.55956        -3.53515        -2.55561         8.56260        -3.53515     310.154E-03     35.0042E-03    -15.6149E-03    -19.3893E-03    -16.7663E-03     32.3812E-03    -15.6149E-03     23.2372E-03     37.4575E+06    -43.6613E+06    -57.3691E+06     28.2748E+06    -48.1864E+06    -43.6613E+06    -26.5787E+06         31.8799
            1801     14.7650E-03     93.9338E-03         8.39490        -2.40974        -3.46043        -2.40956         8.39472        -3.46043    -47.3617E-03     53.1783E-03    -15.5450E-03    -37.6333E-03    -18.0794E-03     33.6244E-03    -15.5450E-03     69.4394E-03     42.4174E+06    -35.1529E+06    -79.7845E+06     12.5764E+06    -7.03646E+06    -78.0599E+06    -20.9846E+06         41.9335
            1802     15.7470E-03     94.0546E-03         8.16607        -2.22244        -3.37216        -2.22219         8.16582        -3.37216    -95.4796E-03     137.404E-03    -15.5473E-03    -121.857E-03    -28.3820E-03     43.9293E-03    -15.5473E-03     247.773E-03     78.2059E+06    -5.90976E+06    -86.6496E+06    -377.538E+03     72.6737E+06    -86.6496E+06    -18.4210E+06         57.2338
            1803     16.7483E-03     94.4548E-03         7.92763        -2.02566        -3.25901        -2.02552         7.92750        -3.25901    -3.80033E-03     253.364E-03    -15.6970E-03    -237.667E-03    -50.3552E-03     66.0522E-03    -15.6970E-03     476.872E-03     118.622E+06    -4.64213E+06    -52.1866E+06    -2.94854E+06     116.928E+06    -52.1866E+06    -10.3005E+06         73.2597
            1804     984.534E-06     94.8466E-03         12.1281        -4.90944        -5.44763        -3.61649         10.2970        -4.90944        -3.24167     31.4890E-03    -15.6658E-03    -15.8232E-03    -15.7604E-03     31.4550E-03    -15.6946E-03     2.36511E-03     95.9244E+06     91.6661E+06     13.4598E+06     93.5882E+06     15.0245E+06     92.4376E+06    -9.98290E+06         22.2243
            1805     1.96925E-03     94.8476E-03         10.5440        -4.14038        -4.57275        -4.05447         10.1065        -4.22122         2.81788     31.3516E-03    -15.6118E-03    -15.7398E-03    -15.6045E-03     31.2655E-03    -15.6610E-03     3.93507E-03     96.0278E+06     86.5625E+06     21.1672E+06     91.7382E+06     25.4568E+06     86.5625E+06    -16.9810E+06         22.2451
            1806     2.95440E-03     94.8511E-03         10.0841        -4.02944        -4.13721        -3.88481         9.93951        -4.13721         1.12281     31.3052E-03    -15.5864E-03    -15.7188E-03    -15.5255E-03     31.1388E-03    -15.6133E-03     5.50192E-03     98.2039E+06     82.7177E+06     7.82545E+06     90.3276E+06     15.7017E+06     82.7177E+06    -25.0409E+06         22.2766
            1807     3.93891E-03     94.8545E-03         9.96225        -3.90834        -4.06016        -3.78301         9.83692        -4.06016         1.74897     31.2358E-03    -15.5292E-03    -15.7066E-03    -15.4213E-03     30.9505E-03    -15.5292E-03     7.20712E-03     100.639E+06     74.0369E+06    -1.89901E+06     89.0780E+06     9.66209E+06     74.0369E+06    -32.1622E+06         22.3198
            1808     4.92430E-03     94.8593E-03         9.83807        -3.78476        -4.00090        -3.75899         9.81230        -4.00090     716.059E-03     31.1579E-03    -15.4420E-03    -15.7159E-03    -15.2742E-03     30.7162E-03    -15.4420E-03     8.98403E-03     100.544E+06     64.8648E+06    -14.4049E+06     86.1431E+06    -3.99867E+03     64.8648E+06    -38.0467E+06         22.3787
            1809     5.90945E-03     94.8645E-03         9.74650        -3.70514        -3.95266        -3.67030         9.71165        -3.95266         1.33121     31.2140E-03    -15.3760E-03    -15.8379E-03    -15.2104E-03     30.5865E-03    -15.3760E-03     10.7269E-03     96.7104E+06     58.4521E+06    -28.4343E+06     81.9926E+06    -13.7165E+06     58.4521E+06    -40.2878E+06         22.4594
            1810     6.89474E-03     94.8717E-03         9.55497        -3.54572        -3.89807        -3.47256         9.48181        -3.89807         1.77950     31.3673E-03    -15.3273E-03    -16.0401E-03    -15.2283E-03     30.5556E-03    -15.3273E-03     12.2450E-03     90.5126E+06     53.5449E+06    -38.2221E+06     77.8824E+06    -25.5918E+06     53.5449E+06    -38.1864E+06         22.5682
            1811     7.88013E-03     94.8789E-03         9.29505        -3.33930        -3.83020        -3.24385         9.19961        -3.83020         2.15988     31.6065E-03    -15.2921E-03    -16.3144E-03    -15.3146E-03     30.6067E-03    -15.2921E-03     13.6329E-03     85.2395E+06     48.4510E+06    -46.8829E+06     74.1381E+06    -35.7816E+06     48.4510E+06    -36.6238E+06         22.7125
            1812     8.86492E-03     94.8873E-03         9.04132        -3.13804        -3.75593        -3.09671         8.99999        -3.75593         1.36059     31.8946E-03    -15.2483E-03    -16.6463E-03    -15.4333E-03     30.6817E-03    -15.2483E-03     15.0761E-03     78.3487E+06     39.5756E+06    -49.1475E+06     68.3003E+06    -39.0990E+06     39.5756E+06    -34.2806E+06         22.9058
            1813     9.85001E-03     94.8962E-03         8.90769        -3.03750        -3.68530        -3.02788         8.89807        -3.68530     422.370E-03     32.3391E-03    -15.2381E-03    -17.1010E-03    -15.6373E-03     30.8754E-03    -15.2381E-03     16.6741E-03     69.7785E+06     32.4776E+06    -52.3107E+06     61.0953E+06    -43.6275E+06     32.4776E+06    -31.3036E+06         23.1784
            1814     10.8348E-03     94.9071E-03         8.80883        -2.94580        -3.62054        -2.94486         8.80789        -3.62054     76.9053E-03     32.7983E-03    -15.2255E-03    -17.5728E-03    -16.0051E-03     31.2306E-03    -15.2255E-03     17.4172E-03     63.2705E+06     19.9277E+06    -57.1788E+06     55.2021E+06    -49.1104E+06     19.9277E+06    -30.0960E+06         23.6224
            1815     11.8188E-03     94.9168E-03         8.66103        -2.78566        -3.55637        -2.78154         8.65691        -3.55637     396.473E-03     33.2315E-03    -15.2399E-03    -17.9917E-03    -16.3674E-03     31.6072E-03    -15.2399E-03     17.8553E-03     58.6971E+06     11.3846E+06    -47.4042E+06     50.7546E+06    -39.4617E+06     11.3846E+06    -27.8610E+06         24.5286
            1816     12.8030E-03     94.9289E-03         8.49121        -2.60486        -3.48843        -2.59840         8.48475        -3.48843     526.412E-03     34.2545E-03    -15.2857E-03    -18.9687E-03    -16.6243E-03     31.9100E-03    -15.2857E-03     21.6151E-03     51.8994E+06     2.35169E+06    -38.5157E+06     44.9663E+06    -31.5826E+06     2.35169E+06    -23.8168E+06         26.6848
            1817     13.7872E-03     94.9460E-03         8.36878        -2.47868        -3.41853        -2.47554         8.36563        -3.41853     268.544E-03     36.4329E-03    -15.3070E-03    -21.1259E-03    -17.6661E-03     32.9731E-03    -15.3070E-03     27.2517E-03     37.8011E+06    -33.8811E+06    -58.8289E+06     33.9217E+06    -54.9495E+06    -33.8811E+06    -17.3632E+06         31.7290
            1818     14.7685E-03     94.9713E-03         8.23638        -2.35732        -3.34677        -2.35694         8.23601        -3.34677    -76.0542E-03     53.9759E-03    -15.2533E-03    -38.7226E-03    -17.7496E-03     33.0029E-03    -15.2533E-03     72.3541E-03     46.9115E+06    -21.4651E+06    -77.7727E+06     23.4230E+06    -6.57432E+06    -69.1750E+06    -12.5561E+06         41.8196
            1819     15.7575E-03     95.0821E-03         8.04599        -2.19337        -3.26165        -2.19244         8.04506        -3.26165    -179.988E-03     142.402E-03    -15.4549E-03    -126.947E-03    -34.7858E-03     50.2407E-03    -15.4549E-03     255.184E-03     75.6948E+06     13.1513E+06    -69.7051E+06     16.1115E+06     72.7346E+06    -69.7051E+06    -11.9821E+06         57.2387
            1820     16.7175E-03     95.4938E-03         7.82720        -2.02624        -3.15285        -2.02562         7.82658        -3.15285    -107.571E-03     249.538E-03    -15.8064E-03    -233.732E-03    -49.5344E-03     65.3408E-03    -15.8064E-03     468.624E-03     110.744E+06     9.19734E+06    -39.4654E+06     10.6800E+06     109.262E+06    -39.4654E+06    -3.98900E+06         73.5332
            1821     985.775E-06     95.8769E-03         11.8803        -4.65677        -5.50897        -3.69817         10.0695        -4.65677        -3.27620     29.7453E-03    -14.8181E-03    -14.9271E-03    -14.8768E-03     29.7015E-03    -14.8247E-03     2.66889E-03     102.609E+06     98.3600E+06     31.5163E+06     100.576E+06     33.2445E+06     98.6641E+06    -9.25068E+06         22.0929
            1822     1.97113E-03     95.8794E-03         10.3195        -4.06048        -4.48620        -3.97614         9.88591        -4.13698         2.67234     29.8011E-03    -14.8170E-03    -14.9841E-03    -14.8712E-03     29.6882E-03    -14.8170E-03     4.38122E-03     104.369E+06     94.0700E+06     37.4376E+06     99.1468E+06     42.6601E+06     94.0700E+06    -17.6607E+06         22.1128
            1823     2.95623E-03     95.8814E-03         9.86162        -3.94307        -4.05542        -3.80865         9.72721        -4.05542     918.244E-03     29.6797E-03    -14.7739E-03    -14.9057E-03    -14.6761E-03     29.4501E-03    -14.7739E-03     6.26484E-03     106.967E+06     86.7562E+06     23.7930E+06     97.2504E+06     33.5096E+06     86.7562E+06    -26.6209E+06         22.1424
            1824     3.94256E-03     95.8854E-03         9.71126        -3.78847        -3.97665        -3.67770         9.60048        -3.97665         1.63466     29.5396E-03    -14.6735E-03    -14.8661E-03    -14.4725E-03     29.1460E-03    -14.6735E-03     8.22563E-03     107.182E+06     76.6894E+06     10.1733E+06     93.9665E+06     23.3892E+06     76.6894E+06    -33.2173E+06         22.1833
            1825     4.92830E-03     95.8892E-03         9.54278        -3.62557        -3.90816        -3.60101         9.51822        -3.90816     697.562E-03     29.6317E-03    -14.5725E-03    -15.0592E-03    -14.4489E-03     29.0214E-03    -14.5725E-03     10.2653E-03     103.395E+06     65.5127E+06    -3.22843E+06     88.4946E+06     11.6715E+06     65.5127E+06    -36.8842E+06         22.2404
            1826     5.91432E-03     95.8951E-03         9.40311        -3.50715        -3.84579        -3.47322         9.36919        -3.84579         1.29232     29.8381E-03    -14.5111E-03    -15.3270E-03    -14.4636E-03     28.9747E-03    -14.5111E-03     12.2720E-03     94.9444E+06     55.0240E+06    -21.8592E+06     80.6680E+06    -7.58274E+06     55.0240E+06    -38.1145E+06         22.3196
            1827     6.90024E-03     95.9013E-03         9.18512        -3.33724        -3.77739        -3.26650         9.11438        -3.77739         1.71965     30.0194E-03    -14.4568E-03    -15.5626E-03    -14.4253E-03     28.8821E-03    -14.4568E-03     14.1092E-03     86.4603E+06     45.2810E+06    -34.9669E+06     73.7261E+06    -22.2328E+06     45.2810E+06    -37.1589E+06         22.4272
            1828     7.88621E-03     95.9092E-03         8.96472        -3.17571        -3.70140        -3.08564         8.87465        -3.70140         2.05115     30.3106E-03    -14.4255E-03    -15.8851E-03    -14.4725E-03     28.8980E-03    -14.4255E-03     15.7994E-03     77.4880E+06     38.9181E+06    -44.7578E+06     66.9176E+06    -34.1874E+06     38.9181E+06    -34.1139E+06         22.5727
            1829     8.87239E-03     95.9172E-03         8.76904        -3.03344        -3.62677        -2.99591         8.73151        -3.62677         1.27208     30.8697E-03    -14.4034E-03    -16.4663E-03    -14.7399E-03     29.1432E-03    -14.4034E-03     17.6359E-03     67.5291E+06     31.1887E+06    -48.3693E+06     59.2472E+06    -40.0874E+06     31.1887E+06    -29.8062E+06         22.7712
            1830     9.85776E-03     95.9270E-03         8.67530        -2.96623        -3.56040        -2.95757         8.66665        -3.56040     366.459E-03     31.6662E-03    -14.4264E-03    -17.2398E-03    -15.1719E-03     29.5983E-03    -14.4264E-03     19.5875E-03     59.4051E+06     25.9577E+06    -50.1533E+06     52.1732E+06    -42.9213E+06     25.9577E+06    -27.1309E+06         23.0532
            1831     10.8428E-03     95.9377E-03         8.56048        -2.84951        -3.49946        -2.84905         8.56003        -3.49946    -17.2531E-03     32.4434E-03    -14.4826E-03    -17.9609E-03    -15.7305E-03     30.2130E-03    -14.4826E-03     20.6450E-03     51.0485E+06     18.2519E+06    -54.2917E+06     44.4402E+06    -47.6835E+06     18.2519E+06    -25.5302E+06         23.5085
            1832     11.8274E-03     95.9490E-03         8.38126        -2.65606        -3.43606        -2.65418         8.37938        -3.43606     249.627E-03     33.1745E-03    -14.5672E-03    -18.6072E-03    -16.3380E-03     30.9052E-03    -14.5672E-03     21.1398E-03     41.6231E+06     10.6012E+06    -47.0660E+06     34.7499E+06    -40.1928E+06     10.6012E+06    -23.6185E+06         24.4221
            1833     12.8114E-03     95.9602E-03         8.21852        -2.47581        -3.36754        -2.47158         8.21429        -3.36754     422.590E-03     34.5868E-03    -14.7165E-03    -19.8703E-03    -16.9287E-03     31.6452E-03    -14.7165E-03     24.4751E-03     30.0078E+06     5.38396E+06    -42.4638E+06     25.0183E+06    -37.4743E+06     5.38396E+06    -17.9747E+06         26.5720
            1834     13.7943E-03     95.9798E-03         8.10444        -2.35352        -3.29717        -2.35095         8.10188        -3.29717     219.791E-03     37.1118E-03    -14.8294E-03    -22.2824E-03    -17.8400E-03     32.6694E-03    -14.8294E-03     31.1121E-03     19.3158E+06    -24.8541E+06    -61.7683E+06     17.4396E+06    -59.8920E+06    -24.8541E+06    -11.4162E+06         31.6024
            1835     14.7773E-03     96.0059E-03         8.02542        -2.27561        -3.22657        -2.27454         8.02435        -3.22657    -155.420E-03     52.5471E-03    -14.8762E-03    -37.6708E-03    -17.9200E-03     32.7962E-03    -14.8762E-03     70.8723E-03     50.0087E+06    -19.6503E+06    -63.0173E+06     14.6960E+06    -411.082E+03    -46.9438E+06    -14.8695E+06         41.7348
            1836     15.7641E-03     96.1069E-03         7.90109        -2.17625        -3.14475        -2.17362         7.89846        -3.14475    -315.996E-03     152.195E-03    -15.0664E-03    -137.128E-03    -35.8217E-03     50.8880E-03    -15.0664E-03     274.998E-03     66.7500E+06     10.8717E+06    -43.6993E+06     13.9507E+06     63.6710E+06    -43.6993E+06    -11.2778E+06         57.3871
            1837     16.7413E-03     96.5834E-03         7.67685        -2.01957        -3.04065        -2.01793         7.67522        -3.04065    -206.753E-03     249.751E-03    -15.4922E-03    -234.259E-03    -51.1673E-03     66.6595E-03    -15.4922E-03     468.607E-03     99.3572E+06     33.8245E+06    -26.2218E+06     7.00355E+06     98.9723E+06     983.999E+03     2.62319E+06         74.0534
            1838     986.472E-06     96.9068E-03         11.2898        -4.23158        -5.41339        -3.75045         9.62683        -4.23158        -2.96420     27.5819E-03    -13.7529E-03    -13.8291E-03    -13.7551E-03     27.5249E-03    -13.7698E-03     2.92230E-03     111.144E+06     103.924E+06     48.6759E+06     107.777E+06     51.3638E+06     104.603E+06    -9.77826E+06         21.9155
            1839     1.97310E-03     96.9081E-03         10.0638        -3.93651        -4.41182        -3.96373         9.66448        -3.98525         2.63092     27.4157E-03    -13.6572E-03    -13.7585E-03    -13.5962E-03     27.2665E-03    -13.6703E-03     4.80449E-03     112.027E+06     96.4272E+06     53.2499E+06     105.015E+06     60.2624E+06     96.4272E+06    -18.5461E+06         21.9353
            1840     2.96023E-03     96.9108E-03         9.62652        -3.88138        -3.94785        -3.75790         9.50304        -3.94785     967.624E-03     27.3182E-03    -13.5622E-03    -13.7561E-03    -13.4393E-03     27.0068E-03    -13.5675E-03     6.99957E-03     109.915E+06     85.1111E+06     39.2844E+06     98.7876E+06     50.4120E+06     85.1111E+06    -25.2415E+06         21.9649
            1841     3.94682E-03     96.9132E-03         9.43030        -3.66793        -3.87658        -3.56295         9.32532        -3.87658         1.61554     27.3459E-03    -13.4618E-03    -13.8842E-03    -13.3384E-03     26.8002E-03    -13.4618E-03     9.30059E-03     104.628E+06     71.4111E+06     22.1815E+06     90.2837E+06     36.5256E+06     71.4111E+06    -31.0457E+06         22.0061
            1842     4.93417E-03     96.9180E-03         9.13669        -3.39449        -3.79418        -3.36784         9.11003        -3.79418     753.063E-03     27.5371E-03    -13.3633E-03    -14.1738E-03    -13.3133E-03     26.6765E-03    -13.3633E-03     11.7281E-03     95.3202E+06     55.3427E+06     5.26219E+06     80.5721E+06     20.0103E+06     55.3427E+06    -33.2805E+06         22.0639
            1843     5.92101E-03     96.9230E-03         8.97836        -3.27582        -3.71157        -3.24103         8.94358        -3.71157         1.25412     27.8680E-03    -13.3021E-03    -14.5659E-03    -13.3502E-03     26.6523E-03    -13.3021E-03     14.0444E-03     83.9906E+06     41.3804E+06    -14.7912E+06     70.5994E+06    -1.39996E+06     41.3804E+06    -33.6761E+06         22.1443
            1844     6.90809E-03     96.9297E-03         8.86033        -3.20832        -3.63668        -3.15008         8.80208        -3.63668         1.53403     28.2218E-03    -13.2603E-03    -14.9615E-03    -13.3596E-03     26.6199E-03    -13.2603E-03     16.2089E-03     70.9718E+06     28.8596E+06    -31.6633E+06     59.5674E+06    -20.2589E+06     28.8596E+06    -32.1154E+06         22.2551
            1845     7.89516E-03     96.9368E-03         8.69573        -3.09639        -3.56709        -3.02561         8.62495        -3.56709         1.77716     28.7557E-03    -13.2519E-03    -15.5038E-03    -13.5007E-03     26.7526E-03    -13.2519E-03     18.2985E-03     57.4943E+06     20.9413E+06    -43.5286E+06     48.5276E+06    -34.5620E+06     20.9413E+06    -28.5146E+06         22.4077
            1846     8.88182E-03     96.9456E-03         8.48169        -2.92425        -3.49870        -2.89601         8.45344        -3.49870         1.09812     29.6077E-03    -13.2806E-03    -16.3271E-03    -13.9101E-03     27.1907E-03    -13.2806E-03     20.4113E-03     45.7751E+06     16.0831E+06    -48.5763E+06     38.9209E+06    -41.7222E+06     16.0831E+06    -24.3421E+06         22.6194
            1847     9.86823E-03     96.9558E-03         8.34204        -2.80936        -3.43244        -2.80169         8.33437        -3.43244     343.934E-03     30.7450E-03    -13.3692E-03    -17.3758E-03    -14.5517E-03     27.9209E-03    -13.3692E-03     22.5416E-03     34.6853E+06     14.3651E+06    -48.1816E+06     28.8910E+06    -42.7109E+06     14.6887E+06    -20.4244E+06         22.9216
            1848     10.8537E-03     96.9676E-03         8.23277        -2.69982        -3.36904        -2.69937         8.23233        -3.36904    -4.32633E-03     31.9829E-03    -13.5199E-03    -18.4630E-03    -15.4945E-03     29.0144E-03    -13.5199E-03     23.6903E-03     23.7884E+06     10.1385E+06    -53.3871E+06     18.2407E+06    -49.1496E+06     11.4487E+06    -17.0965E+06         23.4026
            1849     11.8382E-03     96.9794E-03         8.09767        -2.54537        -3.30534        -2.54328         8.09558        -3.30534     257.902E-03     33.2289E-03    -13.7112E-03    -19.5177E-03    -16.6507E-03     30.3620E-03    -13.7112E-03     23.8869E-03     16.5266E+06    -30.4583E+03    -45.1904E+06     6.81797E+06    -41.4421E+06     5.92987E+06    -13.3907E+06         24.3410
            1850     12.8213E-03     96.9928E-03         7.95388        -2.38063        -3.23868        -2.37598         7.94923        -3.23868     434.864E-03     35.0418E-03    -13.9816E-03    -21.0601E-03    -17.7465E-03     31.7282E-03    -13.9816E-03     26.3857E-03     4.98513E+06    -5.66040E+06    -45.1188E+06    -3.32079E+06    -42.3266E+06    -146.638E+03    -10.2226E+06         26.5024
            1851     13.8044E-03     97.0118E-03         7.85970        -2.26930        -3.17089        -2.26648         7.85688        -3.17089     235.701E-03     37.4412E-03    -14.2057E-03    -23.2355E-03    -18.6420E-03     32.8477E-03    -14.2057E-03     31.9936E-03    -4.84536E+06    -30.2196E+06    -62.8303E+06    -7.76127E+06    -60.2881E+06    -29.8459E+06    -10.3844E+06         31.5312
            1852     14.7866E-03     97.0402E-03         7.80495        -2.20944        -3.10357        -2.20805         7.80357        -3.10357    -167.330E-03     52.7196E-03    -14.5199E-03    -38.1997E-03    -20.6619E-03     35.1818E-03    -14.5199E-03     68.9348E-03     47.0283E+06    -24.1951E+06    -47.6121E+06    -9.37062E+06     13.7276E+06    -29.1359E+06    -18.2995E+06         41.6810
            1853     15.7668E-03     97.1398E-03         7.69411        -2.12815        -3.02481        -2.12487         7.69083        -3.02481    -357.222E-03     147.652E-03    -14.6783E-03    -132.974E-03    -29.0403E-03     43.7186E-03    -14.6783E-03     268.286E-03     53.7041E+06    -8.90188E+06    -42.8908E+06    -12.6894E+06     47.2331E+06    -32.6323E+06    -17.7288E+06         57.5941
            1854     16.7790E-03     97.6132E-03         7.47710        -1.97833        -2.92121        -1.97635         7.47512        -2.92121    -224.515E-03     249.023E-03    -15.0481E-03    -233.975E-03    -52.1481E-03     67.1963E-03    -15.0481E-03     467.279E-03     83.2874E+06     43.5145E+06    -36.9627E+06    -14.3160E+06     79.5967E+06     24.5585E+06    -5.45393E+06         74.8418
            1855     987.834E-06     97.9331E-03         10.5269        -3.88814        -5.05720        -3.61030         9.07999        -3.88814        -2.41333     24.5944E-03    -12.2520E-03    -12.3424E-03    -12.2304E-03     24.5140E-03    -12.2836E-03     3.26409E-03     112.361E+06     101.760E+06     66.2697E+06     107.720E+06     70.2324E+06     102.439E+06    -9.94698E+06         21.6927
            1856     1.97610E-03     97.9347E-03         9.67028        -3.76974        -4.25502        -3.87475         9.29434        -3.77406         2.59501     24.3181E-03    -12.0948E-03    -12.2233E-03    -11.9855E-03     24.1081E-03    -12.1226E-03     5.35830E-03     108.733E+06     88.7993E+06     67.0980E+06     99.6532E+06     76.1782E+06     88.7993E+06    -16.8954E+06         21.7151
            1857     2.96444E-03     97.9362E-03         9.34012        -3.77854        -3.83538        -3.72331         9.23757        -3.78805     940.511E-03     24.3742E-03    -12.0058E-03    -12.3683E-03    -11.9440E-03     23.9552E-03    -12.0112E-03     7.66570E-03     104.228E+06     76.6981E+06     51.6818E+06     91.7475E+06     64.1623E+06     76.6981E+06    -22.2884E+06         21.7479
            1858     3.95309E-03     97.9397E-03         9.04840        -3.50283        -3.73632        -3.41269         8.95826        -3.73632         1.43990     24.6018E-03    -11.9297E-03    -12.6722E-03    -11.9448E-03     23.8744E-03    -11.9297E-03     10.1836E-03     96.2290E+06     61.7578E+06     33.5747E+06     82.3035E+06     47.5002E+06     61.7578E+06    -25.9919E+06         21.7927
            1859     4.94114E-03     97.9430E-03         8.72633        -3.20568        -3.64846        -3.18084         8.70148        -3.64846     680.977E-03     24.9212E-03    -11.8580E-03    -13.0633E-03    -11.9192E-03     23.7772E-03    -11.8580E-03     12.8650E-03     82.5453E+06     43.3650E+06     12.8820E+06     69.9985E+06     25.4288E+06     43.3650E+06    -26.6402E+06         21.8547
            1860     5.92984E-03     97.9490E-03         8.64289        -3.16423        -3.56491        -3.13291         8.61158        -3.56491         1.15827     25.3365E-03    -11.8050E-03    -13.5315E-03    -11.9113E-03     23.7163E-03    -11.8050E-03     15.4324E-03     64.7213E+06     25.9765E+06    -7.62597E+06     54.8374E+06     2.25787E+06     25.9765E+06    -24.6904E+06         21.9414
            1861     6.91804E-03     97.9548E-03         8.58239        -3.14077        -3.49932        -3.09706         8.53869        -3.49932         1.32268     25.9719E-03    -11.7929E-03    -14.1790E-03    -12.0555E-03     23.8484E-03    -11.7929E-03     17.8751E-03     44.9586E+06     12.4321E+06    -27.8497E+06     37.8578E+06    -20.7490E+06     12.4321E+06    -21.3300E+06         22.0626
            1862     7.90622E-03     97.9627E-03         8.38894        -2.98666        -3.43812        -2.93389         8.33616        -3.43812         1.51542     26.9681E-03    -11.8305E-03    -15.1375E-03    -12.4497E-03     24.2803E-03    -11.8305E-03     20.4885E-03     27.5600E+06     4.11209E+06    -40.0635E+06     22.0022E+06    -34.5057E+06     4.11209E+06    -18.5319E+06         22.2317
            1863     8.89377E-03     97.9718E-03         8.09736        -2.73492        -3.36897        -2.71224         8.07468        -3.36897     972.115E-03     28.2520E-03    -11.9468E-03    -16.3052E-03    -13.1125E-03     25.0593E-03    -11.9468E-03     22.9126E-03     15.2196E+06    -266.752E+03    -48.9572E+06     8.68789E+06    -44.6986E+06     2.00631E+06    -15.4493E+06         22.4673
            1864     9.88051E-03     97.9829E-03         7.89912        -2.56619        -3.29429        -2.55923         7.89215        -3.29429     376.060E-03     29.8726E-03    -12.1378E-03    -17.7347E-03    -14.0959E-03     26.2338E-03    -12.1378E-03     25.2455E-03     8.76449E+06    -3.36781E+06    -47.5108E+06    -1.92435E+06    -44.9552E+06     4.76539E+06    -10.5977E+06         22.8023
            1865     10.8663E-03     97.9961E-03         7.83540        -2.50707        -3.22320        -2.50621         7.83454        -3.22320     117.165E-03     31.8059E-03    -12.4154E-03    -19.3905E-03    -15.6873E-03     28.1028E-03    -12.4154E-03     26.4633E-03     5.41705E+06    -8.84620E+06    -52.5997E+06    -10.4946E+06    -50.9513E+06     5.41705E+06    -7.84879E+06         23.3243
            1866     11.8499E-03     98.0102E-03         7.80514        -2.45693        -3.15936        -2.45442         7.80262        -3.15936     310.750E-03     33.7110E-03    -12.7611E-03    -20.9499E-03    -17.5472E-03     30.3082E-03    -12.7611E-03     26.3857E-03     2.94325E+06    -14.3245E+06    -45.6753E+06    -15.4270E+06    -44.5728E+06     2.94325E+06    -5.31079E+06         24.3048
            1867     12.8320E-03     98.0251E-03         7.71602        -2.33759        -3.09848        -2.33275         7.71118        -3.09848     435.890E-03     36.2557E-03    -13.2022E-03    -23.0535E-03    -19.5107E-03     32.7130E-03    -13.2022E-03     28.1061E-03    -1.04692E+06    -15.2449E+06    -41.9327E+06    -16.4187E+06    -40.7589E+06    -1.04692E+06    -5.13128E+06         26.4942
            1868     13.8117E-03     98.0459E-03         7.61851        -2.21480        -3.03697        -2.21162         7.61532        -3.03697     286.066E-03     39.3105E-03    -13.6243E-03    -25.6862E-03    -21.5067E-03     35.1310E-03    -13.6243E-03     31.8298E-03    -7.93417E+06    -36.9293E+06    -60.1213E+06    -16.5566E+06    -55.2191E+06    -33.2092E+06    -11.0758E+06         31.5256
            1869     14.7910E-03     98.0749E-03         7.54264        -2.13167        -2.97364        -2.13088         7.54185        -2.97364    -66.4846E-03     55.1592E-03    -14.2847E-03    -40.8745E-03    -24.3035E-03     38.5882E-03    -14.2847E-03     69.2425E-03     47.8712E+06    -11.6062E+06    -41.4992E+06    -17.2764E+06     25.2615E+06    -13.2193E+06    -17.4189E+06         41.6832
            1870     15.7656E-03     98.1840E-03         7.44250        -2.05326        -2.89777        -2.05082         7.44006        -2.89777    -286.661E-03     136.249E-03    -14.7947E-03    -121.454E-03    -30.4944E-03     45.2890E-03    -14.7947E-03     242.945E-03     50.8020E+06    -1.07628E+06    -44.9400E+06    -18.2927E+06     39.7386E+06    -16.6601E+06    -16.4091E+06         57.7645
            1871     16.7574E-03     98.5871E-03         7.23628        -1.92933        -2.79461        -1.92741         7.23436        -2.79461    -234.483E-03     250.032E-03    -15.3047E-03    -234.727E-03    -52.6089E-03     67.9136E-03    -15.3047E-03     468.854E-03     73.7588E+06     46.6617E+06    -34.1369E+06    -9.04197E+06     64.2477E+06     31.0779E+06    -8.23754E+06         75.6924
            1872     989.888E-06     98.9565E-03         9.85041        -3.63848        -4.69474        -3.50465         8.66031        -3.63848        -1.85173     20.6249E-03    -10.1944E-03    -10.4306E-03    -10.3062E-03     20.5153E-03    -10.2091E-03     3.46309E-03     105.569E+06     96.3955E+06     79.8827E+06     98.5577E+06     86.8939E+06     96.3955E+06    -8.93962E+06         21.4360
            1873     1.98007E-03     98.9572E-03         9.22539        -3.60098        -4.05920        -3.71931         8.88550        -3.60098         2.47407     20.8084E-03    -10.1995E-03    -10.6089E-03    -10.3101E-03     20.5244E-03    -10.2142E-03     5.79932E-03     105.298E+06     85.6444E+06     76.4414E+06      92.673E+06     89.3905E+06     85.3201E+06    -13.1522E+06         21.4634
            1874     2.96986E-03     98.9596E-03         8.90587        -3.58963        -3.67149        -3.57019         8.83663        -3.62169     725.498E-03     21.0525E-03    -10.1760E-03    -10.8765E-03    -10.3169E-03     20.4929E-03    -10.1760E-03     8.23814E-03     96.2257E+06     69.1817E+06     56.3823E+06     81.3462E+06     74.1428E+06     66.3007E+06    -16.7965E+06         21.5020
            1875     3.95965E-03     98.9617E-03         8.61953        -3.32563        -3.57399        -3.26471         8.55861        -3.57399         1.07042     21.3951E-03    -10.1283E-03    -11.2668E-03    -10.3141E-03     20.4424E-03    -10.1283E-03     10.8506E-03     79.1453E+06     50.5220E+06     34.4048E+06     66.1921E+06     53.4718E+06     44.4081E+06    -17.2513E+06         21.5533
            1876     4.94981E-03     98.9662E-03         8.36720        -3.09500        -3.49279        -3.07341         8.34561        -3.49279     551.215E-03     21.8612E-03    -10.0974E-03    -11.7638E-03    -10.3066E-03     20.4040E-03    -10.0974E-03     13.5687E-03     55.5340E+06     28.7753E+06     13.1834E+06     47.3990E+06     26.6955E+06     23.3982E+06    -14.5017E+06         21.6241
            1877     5.93948E-03     98.9707E-03         8.31750        -3.07512        -3.41896        -3.04533         8.28771        -3.41896         1.13561     22.4849E-03    -10.0884E-03    -12.3965E-03    -10.3429E-03     20.4313E-03    -10.0884E-03     16.3117E-03     30.5612E+06     8.07675E+06    -5.35201E+06     26.8800E+06     816.011E+03     5.59000E+06    -9.55041E+06         21.7239
            1878     6.92959E-03     98.9778E-03         8.22621        -3.01483        -3.35921        -2.97191         8.18330        -3.35921         1.31320     23.5058E-03    -10.1374E-03    -13.3684E-03    -10.6794E-03     20.8169E-03    -10.1374E-03     19.0890E-03     10.6998E+06    -4.55954E+06    -24.1612E+06     8.10683E+06    -21.3745E+06    -4.75321E+06    -6.64060E+06         21.8643
            1879     7.91871E-03     98.9853E-03         7.97976        -2.80291        -3.29647        -2.75461         7.93146        -3.29647         1.41303     24.9938E-03    -10.2617E-03    -14.7321E-03    -11.3608E-03     21.6225E-03    -10.2617E-03     22.0718E-03    -1.71329E+06    -12.3259E+06    -37.2248E+06     -7.3763E+06    -35.3824E+06    -8.50536E+06    -5.05199E+06         22.0596
            1880     8.90715E-03     98.9963E-03         7.64301        -2.50935        -3.22034        -2.48696         7.62061        -3.22034     942.141E-03     26.8411E-03    -10.4799E-03    -16.3612E-03    -12.4041E-03     22.8840E-03    -10.4799E-03     24.8790E-03    -5.38919E+06    -19.7266E+06    -47.7035E+06    -19.2913E+06    -46.2878E+06    -7.24022E+06    -4.01450E+06         22.3299
            1881     9.89432E-03     99.0079E-03         7.47210        -2.36954        -3.13885        -2.36115         7.46372        -3.13885     476.328E-03     29.3092E-03    -10.7940E-03    -18.5152E-03    -14.0421E-03     24.8361E-03    -10.7940E-03     27.8160E-03    -2.61014E+06    -24.9623E+06    -48.7331E+06    -25.6023E+06    -48.0930E+06    -2.61014E+06    -3.10314E+06         22.7094
            1882     10.8794E-03     99.0244E-03         7.47981        -2.38025        -3.06657        -2.37898         7.47855        -3.06657     208.533E-03     32.0533E-03    -11.2306E-03    -20.8227E-03    -16.3055E-03     27.5361E-03    -11.2306E-03     29.4898E-03     2.45616E+06    -26.0552E+06    -50.9674E+06    -26.3840E+06    -50.6386E+06     2.45616E+06    -2.67769E+06         23.2846
            1883     11.8621E-03     99.0406E-03         7.49622        -2.37116        -3.00654        -2.36932         7.49439        -3.00654     263.948E-03     34.8307E-03    -11.7720E-03    -23.0587E-03    -19.0104E-03     30.7824E-03    -11.7720E-03     29.4671E-03     4.24160E+06    -20.4796E+06    -46.3808E+06    -22.7524E+06    -44.1081E+06     4.24160E+06    -5.11771E+06         24.3199
            1884     12.8422E-03     99.0590E-03         7.42426        -2.26343        -2.95097        -2.25958         7.42041        -2.95097     370.428E-03     38.3928E-03    -12.4427E-03    -25.9501E-03    -21.9549E-03     34.3975E-03    -12.4427E-03     31.0496E-03     2.91523E+06    -15.5429E+06    -42.5735E+06    -17.9960E+06    -40.1204E+06     2.91523E+06    -5.75148E+06         26.5470
            1885     13.8192E-03     99.0836E-03         7.30573        -2.11732        -2.89346        -2.11395         7.30236        -2.89346     325.913E-03     43.3101E-03    -13.1691E-03    -30.1410E-03    -25.6808E-03     38.8498E-03    -13.1691E-03     35.0811E-03    -313.348E+03    -29.7212E+06    -52.1643E+06    -16.3161E+06    -43.7500E+06    -22.1328E+06    -11.4575E+06         31.5740
            1886     14.7917E-03     99.1156E-03         7.23059        -2.03152        -2.83247        -2.03089         7.22996        -2.83247     58.5696E-03     57.9017E-03    -14.1390E-03    -43.7627E-03    -27.9335E-03     42.0725E-03    -14.1390E-03     69.9783E-03     47.6927E+06     1.44853E+06    -33.5669E+06    -14.3582E+06     29.9308E+06       1.684E+03    -18.6141E+06         41.7278
            1887     15.7686E-03     99.2256E-03         7.16818        -1.99547        -2.75976        -1.99399         7.16669        -2.75976    -192.465E-03     134.307E-03    -15.1020E-03    -119.205E-03    -39.8701E-03     54.9721E-03    -15.1020E-03     232.802E-03     50.7529E+06     6.15911E+06    -37.7036E+06    -7.22570E+06     32.8117E+06    -6.37754E+06    -15.8735E+06         57.9185
            1888     16.7334E-03     99.6150E-03         6.96134        -1.88200        -2.65920        -1.88034         6.95968        -2.65920    -224.790E-03     247.184E-03    -15.9173E-03    -231.267E-03    -50.8525E-03     66.7698E-03    -15.9173E-03     462.646E-03     71.7473E+06     49.8404E+06    -29.4569E+06    -465.238E+03     55.2923E+06     37.3037E+06    -9.52706E+06         76.2521
            1889     992.658E-06     99.9750E-03         9.27486        -3.44451        -4.40629        -3.52953         8.39810        -3.44451        -1.19832     16.4098E-03    -8.07425E-03    -8.33559E-03    -8.20963E-03     16.2839E-03    -8.07425E-03     3.35989E-03     103.057E+06     80.8785E+06     75.5763E+06     79.7021E+06     99.3020E+06     80.5073E+06    -5.49892E+06         21.1645
            1890     1.98394E-03     99.9768E-03         8.77315        -3.44855        -3.84210        -3.51081         8.48497        -3.49167         2.33803     16.8526E-03    -8.13975E-03    -8.71281E-03    -8.38004E-03     16.5198E-03    -8.13975E-03     5.65744E-03     101.193E+06     70.1659E+06     65.2090E+06     72.9624E+06     96.9948E+06     66.6110E+06    -7.61703E+06         21.1972
            1891     2.97587E-03     99.9780E-03         8.36429        -3.35125        -3.47220        -3.31099         8.32156        -3.46974     578.668E-03     17.3249E-03    -8.16970E-03    -9.15522E-03    -8.48153E-03     16.6512E-03    -8.16970E-03     8.21679E-03     82.8040E+06     53.9816E+06     45.6393E+06     58.8954E+06     77.8903E+06     45.6393E+06    -5.97180E+06         21.2428
            1892     3.96748E-03     99.9813E-03         8.17228        -3.14742        -3.40573        -3.10888         8.13374        -3.40573     770.328E-03     17.8571E-03    -8.18448E-03    -9.67266E-03    -8.53698E-03     16.7215E-03    -8.18448E-03     10.8547E-03     58.5340E+06     31.5864E+06     21.8107E+06     38.2483E+06     51.8721E+06     21.8107E+06    -1.46253E+06         21.3040
            1893     4.95890E-03     99.9845E-03         7.97405        -2.97145        -3.32966        -2.94646         7.94905        -3.32966     559.196E-03     18.5358E-03    -8.21819E-03    -10.3176E-03    -8.58443E-03     16.8026E-03    -8.21819E-03     13.6164E-03     31.9246E+06     8.23220E+06    -849.550E+03     15.1767E+06     22.3352E+06     1.79535E+06     4.30199E+06         21.3889
            1894     5.95060E-03     99.9902E-03         7.87185        -2.89696        -3.25729        -2.85936         7.83426        -3.25729         1.25299     19.5764E-03    -8.29107E-03    -11.2853E-03    -8.84460E-03     17.1357E-03    -8.29107E-03     16.5858E-03     7.04286E+06    -8.90956E+06    -18.8981E+06    -5.89196E+06    -3.47656E+06    -11.3963E+06     7.91963E+06         21.5082
            1895     6.94141E-03     99.9964E-03         7.74223        -2.80154        -3.19147        -2.75172         7.69242        -3.19147         1.40154     21.0630E-03    -8.42736E-03    -12.6357E-03    -9.41656E-03     17.8439E-03    -8.42736E-03     19.7496E-03    -9.76240E+06    -16.7009E+06    -32.9232E+06    -21.2008E+06    -21.2911E+06    -16.8946E+06     7.90125E+06         21.6740
            1896     7.93176E-03     100.006E-03         7.48690        -2.58649        -3.12185        -2.53706         7.43748        -3.12185         1.37243     23.0168E-03    -8.65632E-03    -14.3605E-03    -10.3477E-03     19.0041E-03    -8.65632E-03     23.0917E-03    -15.0663E+06    -24.0144E+06    -43.2374E+06    -30.8322E+06    -36.3042E+06    -15.1816E+06     6.23809E+06         21.9024
            1897     8.92090E-03     100.017E-03         7.22296        -2.35943        -3.04390        -2.33602         7.19955        -3.04390     943.765E-03     25.6017E-03    -8.98716E-03    -16.6145E-03    -11.8835E-03     20.8706E-03    -8.98716E-03     26.5966E-03    -8.43938E+06    -31.9554E+06    -46.4441E+06    -34.4797E+06    -43.9198E+06    -8.43938E+06     3.60207E+06         22.2151
            1898     9.90818E-03     100.033E-03         7.15689        -2.31434        -2.96886        -2.30314         7.14569        -2.96886     579.220E-03     28.9610E-03    -9.43707E-03    -19.5239E-03    -14.1512E-03     23.5883E-03    -9.43707E-03     30.4055E-03    -1.23015E+06    -32.2777E+06    -47.7668E+06    -32.9398E+06    -47.1047E+06    -1.23015E+06    -875.453E+03         22.6467
            1899     10.8929E-03     100.051E-03         7.18191        -2.32770        -2.90650        -2.32566         7.17987        -2.90650     273.845E-03     32.5995E-03    -10.0341E-03    -22.5655E-03    -17.0856E-03     27.1197E-03    -10.0341E-03     32.9269E-03     5.58993E+06    -25.8732E+06    -50.0185E+06    -27.1865E+06    -48.7052E+06     5.58993E+06      -4.549E+06         23.2831
            1900     11.8746E-03     100.072E-03         7.13742        -2.25058        -2.85216        -2.24890         7.13574        -2.85216     247.055E-03     36.4322E-03    -10.7824E-03    -25.6498E-03    -20.6339E-03     31.4163E-03    -10.7824E-03     33.7398E-03     10.5639E+06    -18.2338E+06    -44.1172E+06    -21.5752E+06    -40.7758E+06     10.5639E+06    -7.09623E+06         24.3820
            1901     12.8519E-03     100.095E-03         7.01807        -2.09737        -2.79689        -2.09349         7.01419        -2.79689     352.741E-03     41.1584E-03    -11.6958E-03    -29.4627E-03    -24.6435E-03     36.3393E-03    -11.6958E-03     35.5769E-03     8.60083E+06    -14.6475E+06    -45.3108E+06    -18.1448E+06    -41.8136E+06     8.60083E+06    -7.99262E+06         26.6507
            1902     13.8265E-03     100.123E-03         6.92917        -1.98385        -2.73873        -1.97895         6.92428        -2.73873     405.777E-03     47.8907E-03    -12.7123E-03    -35.1784E-03    -29.6007E-03     42.3130E-03    -12.7123E-03     41.5370E-03     8.19038E+06    -19.4415E+06    -41.5709E+06    -14.6823E+06    -28.7210E+06    -9.41874E+06    -13.6617E+06         31.6557
            1903     14.7943E-03     100.166E-03         6.91236        -1.95761        -2.68017        -1.95561         6.91037        -2.68017     208.143E-03     61.3964E-03    -14.0193E-03    -47.3771E-03    -33.5751E-03     47.5945E-03    -14.0193E-03     70.0965E-03     48.5701E+06     9.47932E+06    -22.1108E+06    -8.67517E+06     35.1345E+06     9.47932E+06    -24.0417E+06         41.7256
            1904     15.7648E-03     100.261E-03         6.84550        -1.92332        -2.61085        -1.92220         6.84439        -2.61085    -86.1069E-03     138.645E-03    -15.2716E-03    -123.374E-03    -45.1055E-03     60.3771E-03    -15.2716E-03     235.228E-03     45.5742E+06     1.42913E+06    -36.5136E+06    -3.43895E+06     21.5815E+06    -7.65279E+06    -22.2865E+06         57.8573
            1905     16.7251E-03     100.687E-03         6.62834        -1.79373        -2.51292        -1.79227         6.62689        -2.51292    -216.952E-03     237.401E-03    -16.1415E-03    -221.259E-03    -45.0463E-03     61.1878E-03    -16.1415E-03     444.620E-03     67.1516E+06     43.5561E+06    -32.3447E+06    -3.82380E+06     47.4871E+06     34.6996E+06    -10.4425E+06         76.1444
            1906     993.424E-06     100.990E-03         8.66836        -3.35239        -3.99642        -3.37346         8.04540        -3.35239    -550.826E-03     12.7174E-03    -6.30269E-03    -6.41476E-03    -6.27524E-03     12.5900E-03    -6.31478E-03     2.92533E-03     104.695E+06     57.5375E+06     55.8713E+06     57.5126E+06     104.336E+06     56.2551E+06     157.573E+03         20.8996
            1907     1.98800E-03     100.991E-03         8.22634        -3.26185        -3.60113        -3.26764         7.97464        -3.34364         2.27695     12.9293E-03    -6.25854E-03    -6.67075E-03    -6.32310E-03     12.5816E-03    -6.25854E-03     5.05667E-03     96.8781E+06     44.8753E+06     39.5579E+06     44.5016E+06     95.7695E+06     41.0401E+06     2.67269E+06         20.9361
            1908     2.98139E-03     100.994E-03         7.81831        -3.10337        -3.28834        -3.07307         7.78801        -3.28834     616.403E-03     13.4789E-03    -6.27200E-03    -7.20693E-03    -6.49257E-03     12.7646E-03    -6.27200E-03     7.44595E-03     74.5051E+06     28.0880E+06     17.7457E+06     26.7861E+06     70.9261E+06     22.6266E+06     10.5270E+06         20.9896
            1909     3.97482E-03     100.996E-03         7.62823        -2.92068        -3.21184        -2.89163         7.59918        -3.21184     713.398E-03     14.2248E-03    -6.32643E-03    -7.89833E-03    -6.64885E-03     12.9753E-03    -6.32643E-03     10.1099E-03     50.6867E+06     8.52093E+06    -5.91556E+06     6.36916E+06     42.0637E+06     4.85915E+06     18.6758E+06         21.0638
            1910     4.96818E-03     101.000E-03         7.47581        -2.78731        -3.13347        -2.75857         7.44708        -3.13347     687.878E-03     15.3266E-03    -6.42479E-03    -8.90182E-03    -6.97138E-03     13.3962E-03    -6.42479E-03     13.0431E-03     28.6961E+06     -7.0709E+06    -26.9167E+06    -12.0752E+06     14.9143E+06    -8.13062E+06     23.4871E+06         21.1667
            1911     5.96087E-03     101.005E-03         7.37177        -2.71342        -3.06195        -2.66771         7.32606        -3.06195         1.34493     16.8404E-03    -6.58144E-03    -10.2590E-03    -7.51140E-03     14.0928E-03    -6.58144E-03     16.2972E-03      9.6221E+06    -14.9844E+06    -41.1413E+06    -25.4158E+06    -6.10345E+06    -14.9844E+06     23.4542E+06         21.3082
            1912     6.95311E-03     101.014E-03         7.18289        -2.55839        -2.99300        -2.50971         7.13421        -2.99300         1.35498     18.7411E-03    -6.80311E-03    -11.9379E-03    -8.27820E-03     15.0813E-03    -6.80311E-03     19.8386E-03    -6.85774E+06    -17.0597E+06    -49.1167E+06    -35.0394E+06    -20.9350E+06    -17.0597E+06     19.8969E+06         21.5015
            1913     7.94429E-03     101.023E-03         6.97381        -2.38820        -2.92044        -2.34472         6.93032        -2.92044         1.24156     21.2503E-03    -7.11511E-03    -14.1351E-03    -9.50280E-03     16.6179E-03    -7.11511E-03     23.8359E-03    -12.7463E+06    -23.7420E+06    -50.1245E+06    -39.9553E+06    -32.7625E+06    -13.8951E+06     13.1847E+06         21.7650
            1914     8.93413E-03     101.038E-03         6.86964        -2.30978        -2.85054        -2.28635         6.84621        -2.85054     925.909E-03     24.5511E-03    -7.54031E-03    -17.0108E-03    -11.4168E-03     18.9571E-03    -7.54031E-03     28.3318E-03    -6.81810E+06    -33.5342E+06    -44.4523E+06    -39.1165E+06    -38.8701E+06    -6.81810E+06     5.14397E+06         22.1225
            1915     9.92145E-03     101.055E-03         6.85254        -2.29125        -2.79044        -2.27706         6.83835        -2.79044     676.439E-03     28.7023E-03    -8.10794E-03    -20.5944E-03    -14.1084E-03     22.2163E-03    -8.10794E-03     33.2803E-03     1.61194E+06    -32.1677E+06    -43.1214E+06    -34.2479E+06    -41.0412E+06     1.61194E+06    -2.24419E+06         22.6095
            1916     10.9061E-03     101.078E-03         6.80777        -2.22288        -2.73752        -2.21707         6.80196        -2.73752     437.488E-03     33.2867E-03    -8.84625E-03    -24.4404E-03    -17.6340E-03     26.4803E-03    -8.84625E-03     37.1331E-03     8.91756E+06    -22.5436E+06    -48.2584E+06    -27.4956E+06    -43.3064E+06     8.91756E+06    -9.42693E+06         23.3119
            1917     11.8865E-03     101.104E-03         6.70456        -2.08569        -2.68470        -2.08103         6.69989        -2.68470     385.834E-03     38.2149E-03    -9.77554E-03    -28.4394E-03    -21.9973E-03     31.7728E-03    -9.77554E-03     39.2598E-03     15.2202E+06    -13.8153E+06    -45.5464E+06    -18.7240E+06    -40.6377E+06     15.2202E+06    -11.1995E+06         24.4811
            1918     12.8634E-03     101.132E-03         6.59083        -1.94076        -2.62835        -1.93273         6.58279        -2.62835     486.336E-03     44.4252E-03    -10.9130E-03    -33.5122E-03    -27.2752E-03     38.1882E-03    -10.9130E-03     42.2049E-03     15.6690E+06    -7.38600E+06    -44.5582E+06    -10.7315E+06    -41.2128E+06     15.6690E+06    -10.3725E+06         26.7936
            1919     13.8329E-03     101.168E-03         6.56586        -1.89279        -2.57150        -1.88227         6.55534        -2.57150     579.445E-03     52.8300E-03    -12.2067E-03    -40.6233E-03    -33.4956E-03     45.7023E-03    -12.2067E-03     49.5772E-03     21.6099E+06    -5.89331E+06    -34.0606E+06    -5.91179E+06    -15.1091E+06     2.67688E+06    -17.2117E+06         31.7440
            1920     14.7996E-03     101.218E-03         6.58240        -1.90027        -2.51734        -1.89520         6.57732        -2.51734     374.843E-03     68.6204E-03    -13.9260E-03    -54.6944E-03    -41.3821E-03     55.3081E-03    -13.9260E-03     75.8054E-03     57.7829E+06     21.7535E+06    -16.5030E+06    -3.48831E+06     44.7682E+06     21.7535E+06    -26.4287E+06         41.5638
            1921     15.7533E-03     101.321E-03         6.49278        -1.83306        -2.45285        -1.83069         6.49041        -2.45285    -46.9634E-03     135.603E-03    -15.3615E-03    -120.241E-03    -42.9631E-03     58.3247E-03    -15.3615E-03     225.677E-03     39.8975E+06    -3.81164E+06    -41.5781E+06    -6.96653E+06     10.9152E+06    -9.44088E+06    -23.0142E+06         57.3551
            1922     16.7441E-03     101.716E-03         6.26778        -1.68877        -2.35929        -1.68642         6.26542        -2.35929    -262.790E-03     225.881E-03    -16.0833E-03    -209.798E-03    -38.7079E-03     54.7912E-03    -16.0833E-03     425.028E-03     64.9110E+06     32.3993E+06    -35.8441E+06    -6.41617E+06     35.2134E+06     32.6690E+06       -8.81E+06         75.3901
            1923     995.493E-06     102.001E-03         7.89513        -3.12951        -3.57608        -3.10780         7.42686        -3.12951    -93.7024E-03     9.51766E-03    -4.71185E-03    -4.80581E-03    -4.65158E-03     9.38924E-03    -4.73766E-03     2.40219E-03     98.5601E+06     35.3230E+06     30.7806E+06     33.7723E+06     96.4796E+06     34.4117E+06     8.59712E+06         20.6622
            1924     1.99049E-03     102.003E-03         7.55157        -3.01733        -3.31056        -3.00695         7.32661        -3.09598         2.21372     9.59869E-03    -4.66210E-03    -4.93659E-03    -4.57204E-03     9.23414E-03    -4.66210E-03     4.44042E-03     88.3339E+06     21.1654E+06     8.89231E+06     16.8746E+06     80.9563E+06     20.5607E+06     20.4414E+06         20.7011
            1925     2.98617E-03     102.005E-03         7.18202        -2.85271        -3.03802        -2.82749         7.15681        -3.03802     696.639E-03     10.0342E-03    -4.65560E-03    -5.37862E-03    -4.63510E-03     9.29070E-03    -4.65560E-03     6.49720E-03     68.3652E+06     7.09904E+06    -16.7578E+06    -2.23672E+06     53.8441E+06     7.09904E+06     30.5613E+06         20.7625
            1926     3.98159E-03     102.008E-03         7.03644        -2.71085        -2.96694        -2.68565         7.01125        -2.96694     738.972E-03     10.9851E-03    -4.71883E-03    -6.26628E-03    -4.93657E-03     9.65539E-03    -4.71883E-03     9.12552E-03     49.8948E+06    -1.78387E+06    -38.5926E+06    -17.0090E+06     28.3112E+06    -1.78387E+06     37.4421E+06         20.8502
            1927     4.97632E-03     102.012E-03         6.94469        -2.62793        -2.90068        -2.60094         6.91771        -2.90068     750.556E-03     12.4766E-03    -4.85155E-03    -7.62500E-03    -5.52619E-03     10.3777E-03    -4.85155E-03     12.2332E-03     32.8974E+06    -8.37886E+06    -52.2467E+06    -27.7055E+06     8.35611E+06    -8.37886E+06     38.4649E+06         20.9705
            1928     5.97037E-03     102.018E-03         6.84358        -2.53935        -2.84045        -2.49488         6.79911        -2.84045         1.28292     14.3325E-03    -5.05180E-03    -9.28070E-03    -6.26428E-03     11.3161E-03    -5.05180E-03     15.7116E-03     16.0360E+06    -13.4907E+06    -58.4148E+06    -34.6297E+06    -7.74900E+06    -13.4907E+06     34.6538E+06         21.1324
            1929     6.96356E-03     102.027E-03         6.65892        -2.38116        -2.77850        -2.34078         6.61854        -2.77850         1.20124     16.6261E-03    -5.33083E-03    -11.2953E-03    -7.20890E-03     12.5397E-03    -5.33083E-03     19.6952E-03     1.66121E+06    -12.7618E+06    -56.9930E+06    -37.4264E+06    -17.9054E+06    -12.7618E+06     27.5780E+06         21.3511
            1930     7.95585E-03     102.039E-03         6.51472        -2.26122        -2.71444        -2.22784         6.48133        -2.71444         1.06171     19.7131E-03    -5.70256E-03    -14.0105E-03    -8.67773E-03     14.3803E-03    -5.70256E-03     24.5641E-03    -4.74201E+06    -16.0337E+06    -49.6622E+06    -37.5904E+06    -24.5820E+06    -8.26552E+06     17.3336E+06         21.6473
            1931     8.94599E-03     102.055E-03         6.44123        -2.19903        -2.65434        -2.17441         6.41662        -2.65434     915.382E-03     23.6167E-03    -6.19625E-03    -17.4204E-03    -10.7890E-03     16.9853E-03    -6.19625E-03     30.1633E-03    -1.76166E+06    -25.1745E+06    -40.0974E+06    -35.3575E+06    -29.9145E+06    -1.76166E+06     5.12713E+06         22.0470
            1932     9.93442E-03     102.077E-03         6.40122        -2.14874        -2.60009        -2.12747         6.37995        -2.60009     830.063E-03     28.5297E-03    -6.84397E-03    -21.6858E-03    -13.7462E-03     20.5901E-03    -6.84397E-03     36.5827E-03     6.47286E+06    -25.0605E+06    -38.1579E+06    -30.1405E+06    -33.0778E+06     6.47286E+06    -5.07824E+06         22.5881
            1933     10.9188E-03     102.105E-03         6.32702        -2.04882        -2.54825        -2.03647         6.31468        -2.54825     631.269E-03     34.0003E-03    -7.68088E-03    -26.3194E-03    -17.7209E-03     25.4018E-03    -7.68088E-03     42.0616E-03     14.9849E+06    -13.4433E+06    -43.6680E+06    -23.0185E+06    -34.0928E+06     14.9849E+06    -13.7055E+06         23.3581
            1934     11.8998E-03     102.135E-03         6.23348        -1.92243        -2.49509        -1.91363         6.22469        -2.49509     530.089E-03     40.1785E-03    -8.74247E-03    -31.4360E-03    -22.9337E-03     31.6761E-03    -8.74247E-03     46.1674E-03     19.6846E+06    -2.77526E+06    -51.2543E+06    -13.7627E+06    -40.2669E+06     19.6846E+06    -19.3568E+06         24.6020
            1935     12.8736E-03     102.172E-03         6.20951        -1.86630        -2.44184        -1.85146         6.19466        -2.44184     663.316E-03     47.8646E-03    -10.0507E-03    -37.8139E-03    -29.3517E-03     39.4024E-03    -10.0507E-03     50.9639E-03     19.7486E+06     6.10317E+06    -49.5575E+06    -1.37335E+06    -42.0810E+06     19.7486E+06    -18.3908E+06         26.9564
            1936     13.8431E-03     102.215E-03         6.24781        -1.87575        -2.39240        -1.85698         6.22904        -2.39240     771.305E-03     59.2600E-03    -11.6549E-03    -47.6051E-03    -38.0516E-03     49.7066E-03    -11.6549E-03     60.8924E-03     28.8611E+06     14.8144E+06    -24.2875E+06     6.67709E+06    -5.82862E+06     18.5395E+06    -18.5800E+06         31.8018
            1937     14.8004E-03     102.278E-03         6.23165        -1.84035        -2.34512        -1.83164         6.22295        -2.34512     479.747E-03     76.8149E-03    -13.7231E-03    -63.0918E-03    -47.0544E-03     60.7775E-03    -13.7231E-03     88.4415E-03     59.1758E+06     36.6218E+06    -5.60074E+06     3.66229E+06     49.9128E+06     36.6218E+06    -19.6370E+06         41.2243
            1938     15.7513E-03     102.394E-03         6.13118        -1.74898        -2.28721        -1.74624         6.12844        -2.28721    -28.9094E-03     124.712E-03    -15.3508E-03    -109.361E-03    -42.0248E-03     57.3756E-03    -15.3508E-03     202.947E-03     39.6457E+06    -6.30241E+06    -39.3242E+06    -2.18133E+06     3.46235E+06    -7.26198E+06    -15.8397E+06         56.4715
            1939     16.7372E-03     102.698E-03         5.93713        -1.62191        -2.19965        -1.61981         5.93503        -2.19965    -233.577E-03     216.306E-03    -16.1281E-03    -200.178E-03    -36.6864E-03     52.8145E-03    -16.1281E-03     406.202E-03     69.4601E+06     23.8356E+06    -37.5985E+06    -2.61106E+06     23.5234E+06     34.7848E+06    -8.15677E+06         74.2301
            1940     996.644E-06     103.010E-03         6.98416        -2.73273        -3.22402        -2.87315         6.63329        -2.73273     219.983E-03     6.64034E-03    -3.24515E-03    -3.39519E-03    -3.28379E-03     6.54265E-03    -3.25886E-03     1.72485E-03     76.1038E+06     10.1437E+06    -7.03745E+06     3.69650E+06     65.3698E+06     10.1437E+06     24.7032E+06         20.4687
            1941     1.99359E-03     103.011E-03         6.79277        -2.71936        -2.99016        -2.72724         6.59796        -2.78748         2.03436     6.76673E-03    -3.26670E-03    -3.50003E-03    -3.15536E-03     6.42206E-03    -3.26670E-03     3.57039E-03     73.1987E+06    -377.082E+03    -28.8177E+06    -8.63301E+06     53.0141E+06    -377.082E+03     39.6181E+06         20.5088
            1942     2.99032E-03     103.013E-03         6.49409        -2.61419        -2.74681        -2.59695         6.47686        -2.74681     616.925E-03     7.33795E-03    -3.31383E-03    -4.02413E-03    -3.23771E-03     6.55154E-03    -3.31383E-03     5.68110E-03     61.7635E+06    -32.9564E+03    -48.7963E+06    -18.6951E+06     31.6623E+06    -32.9564E+03     48.7486E+06         20.5765
            1943     3.98679E-03     103.016E-03         6.43746        -2.53268        -2.69809        -2.51557         6.42035        -2.69809     601.449E-03     8.53308E-03    -3.41769E-03    -5.11538E-03    -3.69626E-03     7.11396E-03    -3.41769E-03     8.27104E-03     50.1092E+06    -264.117E+03    -62.5356E+06    -26.7661E+06     14.3398E+06    -264.117E+03     52.2630E+06         20.6742
            1944     4.98289E-03     103.021E-03         6.37431        -2.46021        -2.65211        -2.43363         6.34772        -2.65211     735.383E-03     10.1373E-03    -3.57503E-03    -6.56232E-03    -4.33704E-03     7.91208E-03    -3.57503E-03     11.3058E-03     38.0933E+06    -3.85968E+06    -66.8415E+06    -31.6006E+06     2.85234E+06    -3.85968E+06     49.4266E+06         20.8065
            1945     5.97813E-03     103.028E-03         6.29744        -2.37879        -2.60605        -2.33658         6.25523        -2.60605         1.19790     12.0868E-03    -3.79406E-03    -8.29279E-03    -5.09058E-03     8.88464E-03    -3.79406E-03     14.7984E-03     23.4352E+06    -6.57900E+06    -63.8378E+06    -33.2788E+06    -7.12380E+06    -6.57900E+06     41.5108E+06         20.9833
            1946     6.97266E-03     103.038E-03         6.18388        -2.26960        -2.55820        -2.23417         6.14844        -2.55820         1.09021     14.7402E-03    -4.07965E-03    -10.6606E-03    -6.14421E-03     10.2239E-03    -4.07965E-03     19.3802E-03     10.5424E+06    -6.34410E+06    -54.9409E+06    -32.5654E+06    -11.8330E+06    -6.34410E+06     30.9673E+06         21.2220
            1947     7.96562E-03     103.052E-03         6.04192        -2.13544        -2.50691        -2.10333         6.00981        -2.50691         1.01369     18.2425E-03    -4.46564E-03    -13.7769E-03    -7.67955E-03     12.1452E-03    -4.46564E-03     25.1052E-03     3.54022E+06    -8.12596E+06    -43.3369E+06    -29.9342E+06    -15.5679E+06    -2.42053E+06     19.2280E+06         21.5450
            1948     8.95740E-03     103.071E-03         5.90148        -1.99654        -2.45082        -1.96408         5.86902        -2.45082     995.790E-03     22.6924E-03    -4.98819E-03    -17.7042E-03    -9.87583E-03     14.8640E-03    -4.98819E-03     31.8857E-03     5.67685E+06    -12.4500E+06    -32.0960E+06    -27.1208E+06    -17.4252E+06     5.67685E+06     5.99521E+06         21.9804
            1949     9.94590E-03     103.096E-03         5.84384        -1.93209        -2.39408        -1.90099         5.81274        -2.39408     966.821E-03     28.2901E-03    -5.66650E-03    -22.6236E-03    -12.9555E-03     18.6220E-03    -5.66650E-03     39.8736E-03     13.1722E+06    -12.4704E+06    -33.1603E+06    -23.6025E+06    -22.0281E+06     13.1722E+06    -7.23669E+06         22.5699
            1950     10.9320E-03     103.129E-03         5.81698        -1.88094        -2.34143        -1.86434         5.80038        -2.34143     702.549E-03     34.6428E-03    -6.53711E-03    -28.1057E-03    -17.2313E-03     23.7684E-03    -6.53711E-03     47.3712E-03     18.4881E+06    -7.11897E+06    -39.2420E+06    -19.9403E+06    -26.4207E+06     18.4881E+06    -15.3580E+06         23.4046
            1951     11.9121E-03     103.167E-03         5.80237        -1.83190        -2.29288        -1.82219         5.79265        -2.29288     543.090E-03     42.0446E-03    -7.66318E-03    -34.3814E-03    -23.0608E-03     30.7240E-03    -7.66318E-03     54.1072E-03     21.6089E+06     4.04494E+06    -50.8485E+06    -16.5851E+06    -30.2184E+06     21.6089E+06    -24.8787E+06         24.7210
            1952     12.8874E-03     103.212E-03         5.83334        -1.82297        -2.24820        -1.80569         5.81607        -2.24820     700.858E-03     51.4468E-03    -9.09374E-03    -42.3531E-03    -30.7712E-03     39.8650E-03    -9.09374E-03     61.5062E-03     16.8726E+06     10.3315E+06    -64.7005E+06    -8.73835E+06    -45.2033E+06     16.4453E+06    -30.3869E+06         27.1029
            1953     13.8529E-03     103.266E-03         5.86302        -1.81366        -2.20642        -1.78933         5.83869        -2.20642     859.864E-03     66.0566E-03    -10.9012E-03    -55.1553E-03    -41.1146E-03     52.0158E-03    -10.9012E-03     77.2699E-03     28.5084E+06     16.8004E+06    -35.6252E+06    -134.545E+03    -7.91797E+06     17.7361E+06    -21.9616E+06         31.7897
            1954     14.8067E-03     103.348E-03         5.82607        -1.74735        -2.16358        -1.73369         5.81241        -2.16358     592.031E-03     82.8145E-03    -13.1742E-03    -69.6403E-03    -49.9346E-03     63.1088E-03    -13.1742E-03     101.911E-03     54.5928E+06     38.7812E+06    -887.058E+03     4.51916E+06     49.1300E+06     38.8377E+06    -14.4192E+06         40.7438
            1955     15.7635E-03     103.455E-03         5.73870        -1.65398        -2.11075        -1.65113         5.73585        -2.11075     111.674E-03     116.470E-03    -15.0810E-03    -101.389E-03    -46.0257E-03     61.1067E-03    -15.0810E-03     183.589E-03     31.8183E+06    -5.61561E+06    -32.6170E+06     2.89535E+06    -3.75056E+06    -5.55909E+06    -8.46643E+06         55.3744
            1956     16.7287E-03     103.723E-03         5.61396        -1.55991        -2.02987        -1.55920         5.61325        -2.02987    -123.384E-03     207.798E-03    -16.1358E-03    -191.662E-03    -38.3938E-03     54.5296E-03    -16.1358E-03     386.859E-03     67.6132E+06     21.3426E+06    -36.6415E+06    -2.43703E+06     19.1054E+06     35.6458E+06    -5.05083E+06         72.7666
            1957     997.878E-06     104.015E-03         6.10214        -2.43381        -2.79167        -2.54936         5.85983        -2.43381     496.462E-03     4.32803E-03    -2.10589E-03    -2.22213E-03    -2.14068E-03     4.26333E-03    -2.12265E-03     1.20235E-03     38.5525E+06    -18.2883E+06    -52.7372E+06    -22.8801E+06     8.69546E+06    -18.2883E+06     39.9822E+06         20.3270
            1958     1.99563E-03     104.016E-03         6.06447        -2.46370        -2.68195        -2.49413         5.90480        -2.49185         1.76115     4.52831E-03    -2.16388E-03    -2.36443E-03    -2.09296E-03     4.25684E-03    -2.16388E-03     2.55254E-03     54.1177E+06    -16.6617E+06    -67.4726E+06    -29.8595E+06     16.5046E+06    -16.6617E+06     55.5313E+06         20.3666
            1959     2.99363E-03     104.018E-03         5.87492        -2.41360        -2.48637        -2.41169         5.86703        -2.48040     432.152E-03     5.31524E-03    -2.25935E-03    -3.05589E-03    -2.28732E-03     4.54667E-03    -2.25935E-03     4.75474E-03     51.6094E+06    -10.9628E+06    -81.4795E+06    -36.0775E+06     6.20739E+06    -10.9628E+06     62.8769E+06         20.4359
            1960     3.99114E-03     104.022E-03         5.76598        -2.28455        -2.44677        -2.27706         5.75849        -2.44677     379.274E-03     6.72785E-03    -2.41077E-03    -4.31709E-03    -2.82609E-03     5.23685E-03    -2.41077E-03     7.51532E-03     47.4817E+06    -4.79305E+06    -81.8157E+06    -36.7381E+06     2.40404E+06    -4.79305E+06     61.6041E+06         20.5371
            1961     4.98765E-03     104.028E-03         5.69877        -2.20167        -2.40125        -2.17277         5.66987        -2.40125     710.437E-03     8.33182E-03    -2.60619E-03    -5.72563E-03    -3.42161E-03     6.02780E-03    -2.60619E-03     10.3786E-03     39.6197E+06    -1.19715E+06    -71.8835E+06    -31.6552E+06    -608.566E+03    -1.19715E+06     53.5022E+06         20.6744
            1962     5.98397E-03     104.036E-03         5.72667        -2.22007        -2.36052        -2.17071         5.67732        -2.36052         1.23693     10.3105E-03    -2.82863E-03    -7.48186E-03    -4.06377E-03     6.89240E-03    -2.82863E-03     13.9753E-03     30.2455E+06     185.121E+03    -61.2896E+06    -26.5719E+06    -4.47220E+06     185.121E+03     44.4084E+06         20.8595
            1963     6.97938E-03     104.047E-03         5.65655        -2.13411        -2.32524        -2.09212         5.61456        -2.32524         1.13276     13.1517E-03    -3.09827E-03    -10.0534E-03    -5.08947E-03     8.18773E-03    -3.09827E-03     18.9945E-03     20.0577E+06     1.12887E+06    -49.7385E+06    -24.7442E+06    -4.93660E+06     1.12887E+06     33.4059E+06         21.1109
            1964     7.97401E-03     104.063E-03         5.48880        -1.95858        -2.28231        -1.92168         5.45191        -2.28231         1.04174     16.8570E-03    -3.46624E-03    -13.3908E-03    -6.58070E-03     10.0469E-03    -3.46624E-03     25.2329E-03     10.7537E+06     1.69030E+06    -37.5087E+06    -23.7477E+06    -5.77929E+06     4.46230E+06     20.6041E+06         21.4518
            1965     8.96634E-03     104.085E-03         5.36322        -1.83045        -2.23040        -1.78918         5.32195        -2.23040         1.07548     21.6477E-03    -3.95975E-03    -17.6879E-03    -8.65983E-03     12.6196E-03    -3.95975E-03     33.0370E-03     11.4816E+06    -295.723E+03    -26.2027E+06    -21.9346E+06    -4.39512E+06     11.3129E+06     7.49425E+06         21.9128
            1966     9.95711E-03     104.113E-03         5.32546        -1.78067        -2.17789        -1.74121         5.28601        -2.17789         1.04067     27.7753E-03    -4.60819E-03    -23.1671E-03    -11.6854E-03     16.2936E-03    -4.60819E-03     42.5072E-03     17.2750E+06    -3.85874E+06    -25.9988E+06    -20.8968E+06    -8.96076E+06     17.2750E+06    -5.54960E+06         22.5409
            1967     10.9435E-03     104.151E-03         5.35511        -1.78467        -2.13199        -1.76618         5.33662        -2.13199     701.836E-03     35.0252E-03    -5.45772E-03    -29.5675E-03    -16.0896E-03     21.5474E-03    -5.45772E-03     52.3812E-03     20.4216E+06    -3.18569E+06    -35.4314E+06    -18.8730E+06    -19.7442E+06     20.4216E+06    -15.4519E+06         23.4306
            1968     11.9262E-03     104.197E-03         5.40917        -1.79534        -2.09406        -1.78740         5.40124        -2.09406     473.642E-03     43.5831E-03    -6.58117E-03    -37.0019E-03    -22.3414E-03     28.9226E-03    -6.58117E-03     61.9941E-03     24.2719E+06     4.48422E+06    -40.5431E+06    -18.6155E+06    -17.4433E+06     24.2719E+06    -21.8667E+06         24.8066
            1969     12.9004E-03     104.251E-03         5.39234        -1.72924        -2.05828        -1.71259         5.37569        -2.05828     644.505E-03     55.0219E-03    -8.06816E-03    -46.9537E-03    -31.2962E-03     39.3644E-03    -8.06816E-03     73.2747E-03     16.5758E+06     6.94564E+06    -66.6310E+06    -21.3765E+06    -37.1563E+06     15.4232E+06    -33.5113E+06         27.1879
            1970     13.8661E-03     104.318E-03         5.33996        -1.63236        -2.01797        -1.60229         5.30989        -2.01797     907.710E-03     70.8456E-03    -9.94179E-03    -60.9039E-03    -41.8640E-03     51.8058E-03    -9.94179E-03     92.5234E-03     24.3597E+06     7.07635E+06    -59.4659E+06    -14.4444E+06    -20.6618E+06     7.07635E+06    -33.8396E+06         31.6696
            1971     14.8247E-03     104.415E-03         5.33039        -1.58607        -1.97329        -1.56481         5.30913        -1.97329     726.756E-03     88.1790E-03    -12.3354E-03    -75.8437E-03    -52.4173E-03     64.7527E-03    -12.3354E-03     114.713E-03     50.3450E+06     30.9512E+06    -15.2492E+06    -4.03137E+06     39.0707E+06     31.0077E+06    -16.9354E+06         40.1023
            1972     15.7662E-03     104.530E-03         5.32917        -1.55786        -1.92391        -1.55277         5.32408        -1.92391     201.636E-03     111.508E-03    -14.5502E-03    -96.9575E-03    -50.7471E-03     65.2973E-03    -14.5502E-03     169.026E-03     30.0221E+06    -4.73927E+06    -40.1293E+06    -95.8515E+03    -10.0678E+06    -4.68274E+06    -6.51087E+06         54.0422
            1973     16.7375E-03     104.753E-03         5.27269        -1.49525        -1.85377        -1.49456         5.27200        -1.85377    -122.081E-03     195.045E-03    -15.9453E-03    -179.100E-03    -40.2901E-03     56.2353E-03    -15.9453E-03     358.207E-03     73.1441E+06     25.0474E+06    -39.0104E+06     971.974E+03     16.5632E+06     41.6459E+06    -879.434E+03         70.9873
            1974     998.774E-06     105.018E-03         5.37598        -2.19141        -2.46105        -2.25788         5.17282        -2.19141     780.384E-03     2.62843E-03    -1.28005E-03    -1.34838E-03    -1.28693E-03     2.58374E-03    -1.29681E-03     776.433E-06    -28.0086E+06    -85.3024E+06    -112.504E+06    -83.7650E+06    -54.0721E+06    -87.9784E+06     31.3729E+06         20.2410
            1975     1.99736E-03     105.020E-03         5.45608        -2.24080        -2.46662        -2.30667         5.29614        -2.24080         1.68785     2.97055E-03    -1.39238E-03    -1.57817E-03    -1.39996E-03     2.79234E-03    -1.39238E-03     1.69749E-03     12.5024E+06    -55.0618E+06    -100.407E+06    -61.9364E+06    -25.9681E+06    -55.0618E+06     53.2570E+06         20.2763
            1976     2.99559E-03     105.021E-03         5.22298        -2.15805        -2.26226        -2.17172         5.21889        -2.24450     322.504E-03     4.03517E-03    -1.55470E-03    -2.48046E-03    -1.73659E-03     3.29129E-03    -1.55470E-03     4.01843E-03     34.1311E+06    -27.3025E+06    -92.9001E+06    -40.1417E+06    -18.6273E+06    -27.3025E+06     61.2693E+06         20.3398
            1977     3.99344E-03     105.027E-03         5.04469        -1.98212        -2.20314        -1.97868         5.04125        -2.20314     254.451E-03     5.49427E-03    -1.74443E-03    -3.74984E-03    -2.21279E-03     3.95722E-03    -1.74443E-03     6.86016E-03     45.3508E+06    -6.69010E+06    -79.8956E+06    -24.5782E+06    -9.96671E+06    -6.69010E+06     60.7978E+06         20.4354
            1978     4.99102E-03     105.033E-03         5.00017        -1.93903        -2.14882        -1.90299         4.96412        -2.14882     737.550E-03     6.95083E-03    -1.92711E-03    -5.02372E-03    -2.62721E-03     4.55432E-03    -1.92711E-03     9.54809E-03     45.6290E+06     1.50963E+06    -69.0998E+06    -19.8935E+06    -3.57731E+06     1.50963E+06     56.2041E+06         20.5694
            1979     5.98804E-03     105.042E-03         5.05890        -1.98239        -2.10631        -1.91923         4.99574        -2.10631         1.31785     9.07679E-03    -2.12512E-03    -6.95167E-03    -3.27309E-03     5.39821E-03    -2.12512E-03     13.4557E-03     36.5862E+06     2.79399E+06    -60.7026E+06    -21.3419E+06    -2.77436E+06     2.79399E+06     47.3017E+06         20.7551
            1980     6.98467E-03     105.054E-03         5.04539        -1.94748        -2.07499        -1.90048         4.99838        -2.07499         1.13737     11.9692E-03    -2.38273E-03    -9.58649E-03    -4.24013E-03     6.62287E-03    -2.38273E-03     18.6003E-03     28.5168E+06     7.27772E+06    -43.5232E+06    -18.7692E+06     3.76275E+06     7.27772E+06     34.1396E+06         21.0103
            1981     7.97960E-03     105.072E-03         4.93703        -1.81745        -2.04208        -1.78430         4.90389        -2.04208     938.470E-03     15.7385E-03    -2.72733E-03    -13.0112E-03    -5.56476E-03     8.29209E-03    -2.72733E-03     25.1672E-03     19.2698E+06     11.8300E+06    -28.6411E+06    -14.1123E+06     3.72295E+06     12.8481E+06     21.3264E+06         21.3584
            1982     8.97382E-03     105.096E-03         4.84052        -1.70480        -2.00172        -1.66445         4.80017        -2.00172         1.00764     20.6681E-03    -3.16922E-03    -17.4989E-03    -7.43687E-03     10.6061E-03    -3.16922E-03     33.6063E-03     18.6930E+06     12.6811E+06    -19.4168E+06    -12.9538E+06     6.38689E+06     18.5243E+06     11.0629E+06         21.8325
            1983     9.96525E-03     105.128E-03         4.86140        -1.70613        -1.96110        -1.66146         4.81674        -1.96110         1.07086     27.0698E-03    -3.75112E-03    -23.3187E-03    -10.1941E-03     13.9452E-03    -3.75112E-03     44.1870E-03     23.1848E+06     6.52953E+06    -17.1181E+06    -14.4151E+06     3.82659E+06     23.1848E+06    -401.777E+03         22.4850
            1984     10.9546E-03     105.170E-03         4.94361        -1.75126        -1.92857        -1.72777         4.92011        -1.92857     759.183E-03     34.9703E-03    -4.53115E-03    -30.4392E-03    -14.4008E-03     18.9319E-03    -4.53115E-03     56.1843E-03     25.1017E+06     1.05314E+06    -27.2842E+06    -16.8466E+06    -9.38444E+06     25.1017E+06    -12.1492E+06         23.4131
            1985     11.9378E-03     105.224E-03         4.95321        -1.70998        -1.90109        -1.70093         4.94416        -1.90109     480.799E-03     44.8207E-03    -5.58699E-03    -39.2337E-03    -20.9002E-03     26.4872E-03    -5.58699E-03     69.2418E-03     27.5353E+06     4.59857E+06    -33.4396E+06    -16.3165E+06    -12.5245E+06     27.5353E+06    -17.9861E+06         24.8236
            1986     12.9151E-03     105.289E-03         4.87367        -1.57543        -1.86872        -1.55665         4.85489        -1.86872     644.385E-03     58.1267E-03    -7.04825E-03    -51.0784E-03    -30.5541E-03     37.6024E-03    -7.04825E-03     85.0824E-03     26.1528E+06     8.67526E+06    -44.3452E+06    -17.5325E+06    -17.4122E+06     25.4276E+06    -26.1546E+06         27.1663
            1987     13.8805E-03     105.371E-03         4.81634        -1.46786        -1.82784        -1.43248         4.78096        -1.82784     937.624E-03     74.6957E-03    -8.92395E-03    -65.7718E-03    -41.5884E-03     50.5124E-03    -8.92395E-03     105.891E-03     22.2137E+06     2.43243E+06    -61.5193E+06    -23.4071E+06    -21.9326E+06     8.46643E+06    -38.1963E+06         31.4002
            1988     14.8357E-03     105.477E-03         4.83316        -1.43848        -1.78318        -1.41359         4.80827        -1.78318     747.987E-03     93.2566E-03    -11.2732E-03    -81.9834E-03    -51.5952E-03     62.8684E-03    -11.2732E-03     132.229E-03     36.0297E+06     18.6344E+06    -41.5807E+06    -20.4067E+06     13.6890E+06     19.8011E+06    -26.9140E+06         39.2647
            1989     15.7852E-03     105.616E-03         4.90406        -1.46113        -1.73863        -1.45519         4.89812        -1.73863     148.170E-03     112.887E-03    -13.6044E-03    -99.2827E-03    -55.8609E-03     69.4653E-03    -13.6044E-03     169.996E-03     20.8909E+06    -14.7432E+06    -53.9751E+06    -12.0720E+06    -20.1066E+06    -15.6487E+06    -10.0464E+06         52.4130
            1990     16.7356E-03     105.786E-03         4.87731        -1.42479        -1.68067        -1.42265         4.87517        -1.68067    -222.142E-03     182.179E-03    -15.4273E-03    -166.752E-03    -45.3435E-03     60.7709E-03    -15.4273E-03     326.040E-03     64.6381E+06     20.5855E+06    -45.9239E+06    -4.90662E+06     12.9012E+06     31.3051E+06    -2.47103E+06         68.9202
            1991     998.563E-06     106.020E-03         4.70953        -1.89695        -2.27408        -2.06763         4.50308        -1.89695         1.09974     2.03781E-03    -995.542E-06    -1.04227E-03    -1.00783E-03     2.01761E-03    -1.00978E-03     452.327E-06    -84.1191E+06    -158.609E+06    -170.258E+06    -159.841E+06    -89.5158E+06    -163.629E+06     6.45947E+06         20.2198
            1992     1.99733E-03     106.022E-03         4.78598        -1.97300        -2.23444        -2.02956         4.59949        -1.99139         1.77728     2.28854E-03    -1.06186E-03    -1.22667E-03    -1.11975E-03     2.19585E-03    -1.07610E-03     1.05744E-03    -46.3570E+06    -125.806E+06    -143.179E+06    -123.666E+06    -61.2860E+06    -130.390E+06     18.7052E+06         20.2467
            1993     2.99634E-03     106.024E-03         4.49754        -1.88386        -1.99631        -1.89157         4.49345        -1.98452     307.213E-03     3.17936E-03    -1.19290E-03    -1.98646E-03    -1.46628E-03     2.65918E-03    -1.19290E-03     2.93893E-03    -11.4996E+06    -81.5739E+06    -119.518E+06    -79.7420E+06    -38.1999E+06    -94.6499E+06     29.0735E+06         20.2958
            1994     3.99468E-03     106.030E-03         4.35832        -1.74473        -1.94260        -1.74283         4.35642        -1.94260     190.997E-03     4.12684E-03    -1.32915E-03    -2.79770E-03    -1.64868E-03     2.97783E-03    -1.32915E-03     5.10307E-03     10.0257E+06    -47.0496E+06    -96.7638E+06    -42.4304E+06    -27.0137E+06    -64.3435E+06     37.9053E+06         20.3741
            1995     4.99307E-03     106.037E-03         4.34457        -1.72467        -1.89471        -1.68437         4.30427        -1.89471     748.251E-03     5.42323E-03    -1.50684E-03    -3.91639E-03    -1.88192E-03     3.38875E-03    -1.50684E-03     7.68943E-03     31.8603E+06    -21.9314E+06    -67.9486E+06    -15.0594E+06    -14.5716E+06    -28.3888E+06     46.0943E+06         20.4929
            1996     5.99108E-03     106.047E-03         4.40134        -1.76417        -1.85781        -1.69683         4.33400        -1.85781         1.27555     7.82012E-03    -1.71470E-03    -6.10542E-03    -2.60667E-03     4.32137E-03    -1.71470E-03     12.0715E-03     46.3545E+06     276.690E+03    -47.9993E+06     1.01602E+06    -2.66077E+06     276.690E+03     45.6897E+06         20.6664
            1997     6.98741E-03     106.061E-03         4.42147        -1.75416        -1.83276        -1.71539         4.38270        -1.83276     947.356E-03     10.8485E-03    -1.96182E-03    -8.88667E-03    -3.56320E-03     5.52502E-03    -1.96182E-03     17.5119E-03     45.7544E+06     15.1030E+06    -34.3274E+06     887.025E+03     10.5400E+06     15.1030E+06     38.1959E+06         20.9121
            1998     7.98391E-03     106.079E-03         4.37133        -1.67210        -1.81030        -1.65346         4.35269        -1.81030     650.640E-03     14.6824E-03    -2.27368E-03    -12.4087E-03    -4.76533E-03     7.03901E-03    -2.27368E-03     24.3780E-03     32.8056E+06     19.0328E+06    -26.2237E+06    -6.83777E+06     12.4016E+06     20.0509E+06     26.9438E+06         21.2535
            1999     8.97832E-03     106.105E-03         4.31401        -1.58764        -1.78233        -1.55546         4.28184        -1.78233     821.943E-03     19.6485E-03    -2.66188E-03    -16.9866E-03    -6.37441E-03     9.03629E-03    -2.66188E-03     33.2240E-03     27.4498E+06     22.5030E+06    -16.2524E+06    -8.37722E+06     16.9262E+06     25.1514E+06     13.1906E+06         21.7255
            2000     9.97171E-03     106.140E-03         4.36790        -1.61223        -1.75307        -1.56278         4.31846        -1.75307         1.07915     26.2382E-03    -3.16648E-03    -23.0717E-03    -8.73522E-03     11.9017E-03    -3.16648E-03     44.7582E-03     31.0864E+06     17.3694E+06    -7.66131E+06    -4.25736E+06     13.9655E+06     31.0864E+06     2.27692E+06         22.3836
            2001     10.9616E-03     106.187E-03         4.43690        -1.63928        -1.72871        -1.60519         4.40282        -1.72871     876.097E-03     34.6046E-03    -3.83945E-03    -30.7651E-03    -12.4309E-03     16.2703E-03    -3.83945E-03     58.6671E-03     33.9350E+06     6.07146E+06    -10.0663E+06    -4.10311E+06     108.269E+03     33.9350E+06    -3.87527E+06         23.3253
            2002     11.9487E-03     106.247E-03         4.42260        -1.56988        -1.70507        -1.55605         4.40876        -1.70507     559.063E-03     45.8454E-03    -4.77219E-03    -41.0732E-03    -18.7854E-03     23.5576E-03    -4.77219E-03     75.7507E-03     35.2816E+06     7.15420E+06    -20.7772E+06    -9.00367E+06    -4.61938E+06     35.2816E+06    -12.4448E+06         24.7342
            2003     12.9268E-03     106.324E-03         4.38475        -1.47232        -1.67579        -1.45342         4.36585        -1.67579     633.816E-03     60.4842E-03    -6.09988E-03    -54.3843E-03    -28.1503E-03     34.2502E-03    -6.09988E-03     96.1681E-03     34.2303E+06     9.06755E+06    -29.2217E+06    -12.9673E+06    -7.18689E+06     34.2303E+06    -18.5464E+06         26.9913
            2004     13.8962E-03     106.421E-03         4.38939        -1.41433        -1.64098        -1.38006         4.35512        -1.64098     886.632E-03     77.4838E-03    -7.82009E-03    -69.6637E-03    -38.0732E-03     45.8932E-03    -7.82009E-03     120.446E-03     31.5799E+06     10.2364E+06    -40.4537E+06    -19.5845E+06    -4.16352E+06     25.1106E+06    -26.9769E+06         30.9481
            2005     14.8566E-03     106.540E-03         4.40599        -1.36734        -1.60351        -1.34378         4.38243        -1.60351     689.310E-03     96.2092E-03    -9.88679E-03    -86.3224E-03    -46.7967E-03     56.6835E-03    -9.88679E-03     150.033E-03     26.6311E+06     15.8393E+06    -49.9603E+06    -22.4711E+06    -5.18062E+06     20.1618E+06    -31.9477E+06         38.2458
            2006     15.8161E-03     106.683E-03         4.41517        -1.32171        -1.56347        -1.31698         4.41044        -1.56347     128.310E-03     120.235E-03    -12.0459E-03    -108.189E-03    -57.3392E-03     69.3851E-03    -12.0459E-03     189.766E-03     1.89199E+06    -28.2408E+06    -67.4277E+06    -19.9267E+06    -45.7972E+06    -28.0525E+06    -17.5210E+06         50.6548
            2007     16.7531E-03     106.879E-03         4.37278        -1.26231        -1.51021        -1.26004         4.37052        -1.51021    -217.175E-03     175.031E-03    -14.3161E-03    -160.715E-03    -55.9855E-03     70.3016E-03    -14.3161E-03     306.025E-03     56.1895E+06     15.2137E+06    -46.1600E+06    -13.2584E+06     12.2566E+06     26.2450E+06    -7.12394E+06         66.5260
            2008     998.061E-06     107.023E-03         4.02303        -1.69890        -1.97594        -1.78289         3.83289        -1.70180         1.25685     3.12514E-03    -1.48011E-03    -1.64503E-03    -1.52354E-03     3.11877E-03    -1.59523E-03     89.3628E-06    -84.8708E+06    -157.919E+06    -170.974E+06    -162.539E+06    -86.8442E+06    -164.381E+06    -9.60985E+06         20.2723
            2009     1.99633E-03     107.024E-03         3.96147        -1.68679        -1.89360        -1.66400         3.77137        -1.72629         1.69838     3.30731E-03    -1.57852E-03    -1.72879E-03    -1.67258E-03     3.26534E-03    -1.59275E-03     592.754E-06    -66.3372E+06    -147.912E+06    -158.976E+06    -150.718E+06    -70.0119E+06    -152.496E+06    -14.2908E+06         20.2914
            2010     2.99384E-03     107.027E-03         3.76114        -1.63896        -1.70104        -1.63564         3.75594        -1.69915     249.624E-03     3.42594E-03    -1.55420E-03    -1.87175E-03    -1.66565E-03     3.23760E-03    -1.57195E-03     1.73028E-03    -45.5764E+06    -131.030E+06    -150.567E+06    -130.367E+06    -49.1272E+06    -147.679E+06    -9.52437E+06         20.3240
            2011     3.99210E-03     107.032E-03         3.74532        -1.59427        -1.67884        -1.59543         3.74459        -1.67696     46.8755E-03     3.50117E-03    -1.51513E-03    -1.98604E-03    -1.49217E-03     3.03779E-03    -1.54562E-03     2.83123E-03    -32.1639E+06    -110.620E+06    -135.134E+06    -101.847E+06    -40.9373E+06    -135.134E+06    -2.14905E+06         20.3792
            2012     4.99117E-03     107.040E-03         3.76567        -1.57447        -1.66576        -1.55043         3.73043        -1.65457     632.853E-03     4.23872E-03    -1.55883E-03    -2.67988E-03    -1.53698E-03     3.10856E-03    -1.57157E-03     4.91841E-03    -9.98812E+06    -79.3904E+06    -108.356E+06    -64.2097E+06    -29.5504E+06    -103.974E+06     7.37462E+06         20.4710
            2013     5.98971E-03     107.050E-03         3.84314        -1.61158        -1.65386        -1.57086         3.78498        -1.63642         1.11568     6.02291E-03    -1.62741E-03    -4.39550E-03    -1.98795E-03     3.61536E-03    -1.62741E-03     8.72240E-03     17.1305E+06    -37.0406E+06    -86.7304E+06    -24.4886E+06    -10.6860E+06    -71.4660E+06     17.6532E+06         20.6148
            2014     6.98844E-03     107.065E-03         3.82152        -1.56244        -1.62841        -1.54082         3.79365        -1.62216     722.800E-03     8.85874E-03    -1.85484E-03    -7.00391E-03    -2.79790E-03     4.65273E-03    -1.85484E-03     13.9848E-03     39.2677E+06    -4.66271E+06    -50.0821E+06     6.29967E+06     3.64243E+06    -25.4193E+06     29.1010E+06         20.8292
            2015     7.98448E-03     107.086E-03         3.75628        -1.47093        -1.60357        -1.46364         3.74899        -1.60357     382.174E-03     12.9092E-03    -2.20560E-03    -10.7036E-03    -3.96891E-03     6.17451E-03    -2.20560E-03     21.3155E-03     53.6870E+06     20.2812E+06    -17.7195E+06     19.0755E+06     17.7023E+06     19.4709E+06     31.9905E+06         21.1405
            2016     8.98011E-03     107.113E-03         3.76646        -1.45070        -1.58066        -1.42300         3.73875        -1.58066     672.755E-03     18.0747E-03    -2.56215E-03    -15.5126E-03    -5.45141E-03     8.01357E-03    -2.56215E-03     30.7668E-03     50.8340E+06     37.6097E+06    -10.4626E+06     11.9720E+06     28.1129E+06     37.8962E+06     23.0995E+06         21.5860
            2017     9.97392E-03     107.151E-03         3.81066        -1.46108        -1.55720        -1.40698         3.75657        -1.55720         1.06062     24.6951E-03    -2.97186E-03    -21.7232E-03    -7.41602E-03     10.3879E-03    -2.97186E-03     42.8644E-03     41.3297E+06     27.9148E+06    -13.2531E+06    -4.74556E+06     22.8664E+06     37.8706E+06     12.1317E+06         22.2226
            2018     10.9667E-03     107.201E-03         3.82516        -1.43343        -1.53389        -1.39483         3.78657        -1.53389     865.047E-03     33.2262E-03    -3.50681E-03    -29.7194E-03    -10.3666E-03     13.8734E-03    -3.50681E-03     58.0703E-03     37.6668E+06     15.9452E+06    -15.1883E+06    -9.81651E+06     10.5734E+06     37.6668E+06    -988.646E+03         23.1428
            2019     11.9552E-03     107.266E-03         3.87261        -1.42612        -1.51116        -1.41342         3.85983        -1.51109     496.540E-03     45.7082E-03    -4.26227E-03    -41.4459E-03    -15.8619E-03     20.1242E-03    -4.26227E-03     79.2741E-03     43.0552E+06     15.2501E+06    -13.5855E+06    -2.09738E+06     3.76197E+06     43.0552E+06    -9.76572E+06         24.5015
            2020     12.9379E-03     107.356E-03         3.94916        -1.42594        -1.49660        -1.41941         3.93493        -1.48889     525.810E-03     60.7800E-03    -5.34583E-03    -55.4342E-03    -23.6334E-03     28.9792E-03    -5.34583E-03     103.407E-03     46.2336E+06     12.5822E+06    -16.9854E+06     612.787E+03    -5.01598E+06     46.2336E+06    -11.1198E+06         26.6206
            2021     13.9132E-03     107.462E-03         3.98190        -1.38135        -1.47221        -1.35901         3.95193        -1.46457     792.189E-03     76.3877E-03    -6.71057E-03    -69.6772E-03    -30.9612E-03     37.6718E-03    -6.71057E-03     128.685E-03     48.2344E+06     25.1523E+06    -16.0965E+06    -2.66486E+06     11.7207E+06     48.2344E+06    -14.6713E+06         30.2922
            2022     14.8860E-03     107.591E-03         3.94801        -1.27804        -1.43397        -1.25423         3.92420        -1.43397     668.964E-03     97.4327E-03    -8.40635E-03    -89.0263E-03    -42.3805E-03     50.7868E-03    -8.40635E-03     161.263E-03     35.8483E+06     22.5698E+06    -35.8269E+06    -8.97674E+06    -4.28038E+06     35.8483E+06    -23.4818E+06         37.0747
            2023     15.8434E-03     107.749E-03         3.86008        -1.12811        -1.39378        -1.12299         3.85496        -1.39378     185.047E-03     120.947E-03    -10.3806E-03    -110.566E-03    -54.9472E-03     65.3278E-03    -10.3806E-03     197.801E-03     8.98070E+06    -25.6977E+06    -74.4319E+06    -10.9313E+06    -62.6148E+06    -17.6028E+06    -22.8163E+06         48.7938
            2024     16.8063E-03     107.963E-03         3.82986        -1.04782        -1.33853        -1.04709         3.82914        -1.33853    -100.057E-03     170.865E-03    -13.0233E-03    -157.842E-03    -68.4328E-03     81.4561E-03    -13.0233E-03     291.487E-03     67.8448E+06     19.9058E+06    -53.1927E+06    -12.3310E+06     5.62752E+06     41.2613E+06    -12.8387E+06         64.0098
            2025     997.268E-06     108.027E-03         3.38549        -1.54086        -1.69453        -1.48548         3.21047        -1.57489         1.14688     5.50741E-03    -2.59732E-03    -2.91008E-03    -2.77977E-03     5.50323E-03    -2.72346E-03    -293.045E-06    -63.4718E+06    -114.445E+06    -128.702E+06    -121.477E+06    -66.5787E+06    -118.564E+06    -13.1984E+06         20.3983
            2026     1.99365E-03     108.028E-03         3.23167        -1.44230        -1.62082        -1.38656         3.05630        -1.50118         1.41932     5.56498E-03    -2.72242E-03    -2.84256E-03    -2.77538E-03     5.55528E-03    -2.77990E-03     140.542E-06    -52.5591E+06    -115.474E+06    -127.857E+06    -122.146E+06    -58.2700E+06    -115.474E+06    -19.8331E+06         20.4150
            2027     2.99090E-03     108.031E-03         3.04091        -1.37056        -1.45909        -1.36933         3.03779        -1.45720     70.2895E-03     5.30972E-03    -2.58121E-03    -2.72851E-03    -2.55985E-03     5.26457E-03    -2.70472E-03     712.899E-06    -39.1843E+06    -121.058E+06    -134.126E+06    -123.401E+06    -46.3367E+06    -124.631E+06    -24.2697E+06         20.4397
            2028     3.98834E-03     108.036E-03         3.15112        -1.40669        -1.48646        -1.45010         3.15052        -1.44245    -97.4646E-03     5.09103E-03    -2.49331E-03    -2.59771E-03    -2.37864E-03     4.97635E-03    -2.59771E-03     1.37505E-03    -31.3148E+06    -123.952E+06    -136.209E+06    -120.231E+06    -40.0725E+06    -131.172E+06    -27.4245E+06         20.4794
            2029     4.98543E-03     108.043E-03         3.28578        -1.43919        -1.53681        -1.49961         3.25658        -1.44720     482.980E-03     5.26367E-03    -2.51332E-03    -2.75035E-03    -2.36156E-03     4.88799E-03    -2.52643E-03     2.74178E-03    -23.4340E+06    -109.604E+06    -136.725E+06    -108.390E+06    -33.6424E+06    -127.730E+06    -28.2497E+06         20.5461
            2030     5.98338E-03     108.054E-03         3.28346        -1.41947        -1.50227        -1.42539         3.23564        -1.44854     944.648E-03     5.85245E-03    -2.46925E-03    -3.38320E-03    -2.35084E-03     4.82009E-03    -2.46925E-03     5.23748E-03    -11.7272E+06    -84.0663E+06    -129.478E+06    -86.1137E+06    -20.6665E+06    -118.492E+06    -23.4280E+06         20.6530
            2031     6.98076E-03     108.069E-03         3.18781        -1.33635        -1.44176        -1.31986         3.16508        -1.43551     598.231E-03     7.41151E-03    -2.52362E-03    -4.88789E-03    -2.58580E-03     5.10942E-03    -2.52362E-03     9.27577E-03     7.39039E+06    -65.0256E+06    -93.0858E+06    -49.4241E+06    -12.9662E+06    -88.3307E+06    -11.5839E+06         20.8184
            2032     7.97961E-03     108.091E-03         3.16430        -1.29046        -1.41506        -1.28449         3.15833        -1.41506     318.852E-03     10.4187E-03    -2.67746E-03    -7.74127E-03    -3.28368E-03     5.96115E-03    -2.67746E-03     15.4906E-03     37.3269E+06    -23.3391E+06    -52.4232E+06    -4.57682E+06     8.26598E+06    -42.1244E+06     5.18633E+06         21.0709
            2033     8.97622E-03     108.121E-03         3.21194        -1.30740        -1.39531        -1.28331         3.18784        -1.39531     581.832E-03     15.0947E-03    -2.97466E-03    -12.1200E-03    -4.47968E-03     7.45434E-03    -2.97466E-03     24.4059E-03     57.7025E+06     24.8858E+06    -23.0147E+06     27.2443E+06     22.8700E+06     9.45936E+06     22.5658E+06         21.4526
            2034     9.97126E-03     108.160E-03         3.24749        -1.30542        -1.37629        -1.25890         3.20097        -1.37629     913.747E-03     21.8511E-03    -3.39028E-03    -18.4609E-03    -6.20435E-03     9.59463E-03    -3.39028E-03     37.0652E-03     72.6069E+06     49.6356E+06    -6.05323E+06     34.2464E+06     29.1631E+06     52.7798E+06     28.3761E+06         22.0227
            2035     10.9636E-03     108.212E-03         3.27034        -1.28294        -1.35692        -1.25348         3.24087        -1.35692     675.889E-03     30.5947E-03    -3.80867E-03    -26.7860E-03    -8.67063E-03     12.4793E-03    -3.80867E-03     53.3377E-03     67.9496E+06     49.4812E+06    -5.58361E+06     18.8952E+06     29.8970E+06     63.0551E+06     14.0889E+06         22.8676
            2036     11.9554E-03     108.282E-03         3.33047        -1.28558        -1.33851        -1.27974         3.32457        -1.33844     285.881E-03     43.4573E-03    -4.34841E-03    -39.1089E-03    -12.9262E-03     17.2746E-03    -4.34841E-03     76.8338E-03     54.2571E+06     23.4216E+06    -14.8298E+06    -1.83770E+06     10.4295E+06     54.2571E+06    -2.00603E+06         24.1141
            2037     12.9427E-03     108.380E-03         3.42235        -1.29767        -1.32832        -1.29519         3.41216        -1.32061     374.883E-03     56.9417E-03    -5.10074E-03    -51.8409E-03    -17.6013E-03     22.7021E-03    -5.10074E-03     100.928E-03     54.0494E+06     12.3424E+06    -21.2930E+06    -8.20401E+06    -746.590E+03     54.0494E+06    -7.78622E+06         26.0482
            2038     13.9263E-03     108.494E-03         3.47337        -1.26470        -1.30748        -1.24320         3.44422        -1.29984     726.257E-03     72.0138E-03    -6.05806E-03    -65.9558E-03    -24.3919E-03     30.4499E-03    -6.05806E-03     126.459E-03     58.9142E+06     22.1193E+06    -14.7283E+06    -6.32779E+06     13.7188E+06     58.9142E+06    -8.02459E+06         29.4249
            2039     14.9046E-03     108.628E-03         3.39595        -1.11360        -1.26926        -1.08860         3.37095        -1.26926     638.711E-03     97.0727E-03    -7.47405E-03    -89.5986E-03    -39.3736E-03     46.8476E-03    -7.47405E-03     165.332E-03     53.6327E+06     24.1727E+06    -23.3295E+06    -9.26655E+06     10.1097E+06     53.6327E+06    -13.5569E+06         35.7024
            2040     15.8626E-03     108.825E-03         3.30670    -951.130E-03        -1.22667    -945.679E-03         3.30125        -1.22667     160.948E-03     119.608E-03    -9.48014E-03    -110.128E-03    -57.8010E-03     67.2811E-03    -9.48014E-03     191.819E-03     23.6806E+06    -14.9404E+06    -77.7363E+06    -9.28065E+06    -58.7414E+06     -973.95E+03    -24.0176E+06         46.7185
            2041     16.8081E-03     109.011E-03         3.33059    -919.147E-03        -1.17289    -918.471E-03         3.32991        -1.17289    -89.9672E-03     169.969E-03    -12.4514E-03    -157.517E-03    -77.2190E-03     89.6704E-03    -12.4514E-03     280.338E-03     69.8700E+06     17.8671E+06    -60.7704E+06    -3.98641E+06    -14.2624E+06     45.2154E+06    -14.6761E+06         61.6110
            2042     995.199E-06     109.033E-03         2.89275        -1.37757        -1.57747        -1.39676         2.74318        -1.40870     784.676E-03     8.30704E-03    -3.95580E-03    -4.35124E-03    -4.17862E-03     8.30383E-03    -4.12521E-03    -243.557E-06    -46.7612E+06    -75.3404E+06    -88.3803E+06    -82.8688E+06    -48.9528E+06    -78.6603E+06    -7.41234E+06         20.5895
            2043     1.99150E-03     109.035E-03         2.62732        -1.24272        -1.42183        -1.16970         2.48847        -1.35600         1.09396     8.37438E-03    -4.11759E-03    -4.25679E-03    -4.19291E-03     8.37140E-03    -4.17850E-03    -253.823E-06    -36.7883E+06    -79.0411E+06    -91.7487E+06    -86.3029E+06    -42.2341E+06    -79.0411E+06    -15.6330E+06         20.6101
            2044     2.98692E-03     109.038E-03         2.40425        -1.13528        -1.28410        -1.13484         2.40381        -1.28410    -27.7411E-03     8.31476E-03    -4.07792E-03    -4.23684E-03    -4.12163E-03     8.30873E-03    -4.18710E-03    -402.722E-06    -24.5154E+06    -78.4324E+06    -95.1868E+06    -85.6685E+06    -34.0337E+06    -78.4324E+06    -23.5238E+06         20.6393
            2045     3.98275E-03     109.042E-03         2.57560        -1.22610        -1.32329        -1.28700         2.57485        -1.26164    -106.826E-03     8.38944E-03    -4.10421E-03    -4.28523E-03    -4.19641E-03     8.37453E-03    -4.17812E-03    -113.306E-06    -15.3778E+06    -80.7875E+06    -99.6594E+06    -86.7841E+06    -28.2532E+06    -80.7875E+06    -29.6058E+06         20.6800
            2046     4.97849E-03     109.050E-03         2.73988        -1.27298        -1.39175        -1.36660         2.71472        -1.27298     394.904E-03     8.54231E-03    -4.19428E-03    -4.34803E-03    -4.29570E-03     8.49036E-03    -4.19466E-03     807.677E-06    -8.20336E+06    -83.0106E+06    -105.979E+06    -89.6497E+06    -24.5330E+06    -83.0106E+06    -36.1414E+06         20.7389
            2047     5.97349E-03     109.060E-03         2.68727        -1.22670        -1.33477        -1.24333         2.64677        -1.27764     794.636E-03     8.78147E-03    -4.23218E-03    -4.54929E-03    -4.30550E-03     8.53768E-03    -4.23218E-03     2.57692E-03    -924.345E+03    -81.1665E+06    -108.185E+06    -89.8301E+06    -19.2795E+06    -81.1665E+06    -40.2071E+06         20.8243
            2048     6.96970E-03     109.075E-03         2.57008        -1.13581        -1.26179        -1.11729         2.55157        -1.26179     477.344E-03     9.30158E-03    -4.24814E-03    -5.05345E-03    -4.27370E-03     8.52184E-03    -4.24814E-03     5.37473E-03     2.04359E+06    -79.1388E+06    -107.856E+06    -85.5798E+06    -17.6844E+06    -81.6873E+06    -41.3572E+06         20.9498
            2049     7.96464E-03     109.097E-03         2.59263        -1.13343        -1.24077        -1.12879         2.58799        -1.24077     252.335E-03     10.4114E-03    -4.23439E-03    -6.17699E-03    -4.24836E-03     8.48275E-03    -4.23439E-03     9.65581E-03     8.24013E+06    -62.0753E+06    -104.269E+06    -69.9477E+06    -8.10637E+06    -80.0503E+06    -33.9175E+06         21.1395
            2050     8.96128E-03     109.128E-03         2.70181        -1.18013        -1.25291        -1.18852         2.68403        -1.22673     473.542E-03     13.0099E-03    -4.36963E-03    -8.64031E-03    -4.55539E-03     8.92503E-03    -4.36963E-03     16.3233E-03     25.7006E+06    -29.9403E+06    -75.1685E+06    -34.9030E+06     861.559E+03    -45.3668E+06    -14.7557E+06         21.4328
            2051     9.95791E-03     109.168E-03         2.77346        -1.19051        -1.25981        -1.20238         2.74318        -1.21766     688.725E-03     17.9511E-03    -4.59473E-03    -13.3564E-03    -5.51517E-03     10.1099E-03    -4.59473E-03     26.7684E-03     52.0285E+06     9.77452E+06    -34.4342E+06     9.21898E+06     15.6325E+06     2.51735E+06     8.58899E+06         21.8870
            2052     10.9536E-03     109.224E-03         2.77375        -1.16562        -1.22331        -1.16557         2.75773        -1.20733     442.841E-03     25.7143E-03    -4.94881E-03    -20.7655E-03    -7.40075E-03     12.3496E-03    -4.94881E-03     41.9265E-03     76.3798E+06     52.5103E+06    -2.48209E+06     36.8056E+06     36.0680E+06     53.5343E+06     24.4874E+06         22.5837
            2053     11.9449E-03     109.295E-03         2.77156        -1.12137        -1.19233        -1.11949         2.76968        -1.19233     143.743E-03     38.1616E-03    -5.42622E-03    -32.7354E-03    -10.1179E-03     15.5441E-03    -5.42622E-03     65.9911E-03     85.0638E+06     60.8732E+06    -3.99827E+06     34.1403E+06     22.7346E+06     85.0638E+06     23.2319E+06         23.6396
            2054     12.9332E-03     109.399E-03         2.81156        -1.09340        -1.17268        -1.08461         2.80277        -1.17268     293.070E-03     50.2196E-03    -5.86367E-03    -44.3559E-03    -13.1987E-03     19.0624E-03    -5.86367E-03     88.8616E-03     80.1393E+06     41.6024E+06    -15.8216E+06     14.6754E+06     11.1054E+06     80.1393E+06     9.19223E+06         25.3345
            2055     13.9253E-03     109.509E-03         2.83501        -1.03736        -1.14736        -1.01229         2.80994        -1.14736     611.174E-03     66.5051E-03    -6.51762E-03    -59.9875E-03    -21.1618E-03     27.6794E-03    -6.51762E-03     116.566E-03     73.9624E+06     27.8423E+06    -6.88788E+06     5.69686E+06     15.2576E+06     73.9624E+06    -2.67909E+06         28.3615
            2056     14.9000E-03     109.674E-03         2.79877    -921.291E-03        -1.11280    -902.325E-03         2.77980        -1.11280     480.171E-03     93.4683E-03    -7.73809E-03    -85.7302E-03    -36.3153E-03     44.0533E-03    -7.73809E-03     160.051E-03     73.6096E+06     33.3454E+06    -8.36846E+06     6.67460E+06     18.3024E+06     73.6096E+06    -2.50588E+06         34.0209
            2057     15.8668E-03     109.875E-03         2.80683    -856.965E-03        -1.07082    -853.430E-03         2.80330        -1.07082     40.9947E-03     123.825E-03    -9.70553E-03    -114.120E-03    -60.3961E-03     70.1016E-03    -9.70553E-03     197.899E-03     33.5975E+06     2.46022E+06    -61.7161E+06    -8.45358E+06    -38.9060E+06     21.7012E+06    -11.8777E+06         44.2314
            2058     16.7909E-03     110.121E-03         2.80615    -828.681E-03        -1.02264    -826.212E-03         2.80369        -1.02264    -179.366E-03     170.373E-03    -12.5703E-03    -157.803E-03    -77.3477E-03     89.9180E-03    -12.5703E-03     280.445E-03     41.8389E+06     8.98571E+06    -66.3964E+06    -16.5715E+06    -28.9429E+06     29.9426E+06    -20.7987E+06         58.9167
            2059     995.213E-06     110.044E-03         2.47172        -1.28062        -1.44543        -1.27241         2.35812        -1.34004     390.835E-03     11.4636E-03    -5.53620E-03    -5.92739E-03    -5.74749E-03     11.4606E-03    -5.71313E-03    -372.177E-06    -33.4512E+06    -49.2931E+06    -57.9477E+06    -52.7304E+06    -38.2011E+06    -49.7606E+06    -3.68998E+06         20.8323
            2060     1.98813E-03     110.045E-03         2.04285        -1.05536        -1.23995    -963.527E-03         1.94856        -1.23750     815.744E-03     11.8107E-03    -5.77670E-03    -6.03398E-03    -5.98605E-03     11.7989E-03    -5.81289E-03    -820.058E-06    -16.3168E+06    -41.2324E+06    -55.5214E+06    -47.8129E+06    -24.0254E+06    -41.2324E+06    -14.2083E+06         20.8611
            2061     2.98248E-03     110.048E-03         1.87260    -983.795E-03        -1.14196    -982.401E-03         1.87120        -1.14196     60.1628E-03     12.2518E-03    -5.95563E-03    -6.29618E-03    -6.27032E-03     12.2294E-03    -5.95905E-03    -1.27154E-03    -8.93811E+06    -35.8237E+06    -58.4316E+06    -45.4263E+06    -21.9434E+06    -35.8237E+06    -21.3864E+06         20.9041
            2062     3.97574E-03     110.053E-03         2.02238        -1.09942        -1.14604        -1.12753         2.02051        -1.11607     47.4795E-03     12.6933E-03    -6.10756E-03    -6.58578E-03    -6.55939E-03     12.6669E-03    -6.10756E-03    -1.39615E-03    -2.98435E+06    -32.5965E+06    -59.6356E+06    -45.8894E+06    -16.7306E+06    -32.5965E+06    -24.1665E+06         20.9611
            2063     4.96887E-03     110.060E-03         2.13430        -1.12153        -1.19025        -1.17291         2.11696        -1.12153     341.426E-03     13.1560E-03    -6.23293E-03    -6.92307E-03    -6.89946E-03     13.1324E-03    -6.23293E-03    -1.09529E-03     3.84824E+06    -37.9548E+06    -66.2293E+06    -50.5215E+06    -11.8596E+06    -37.9548E+06    -29.0710E+06         21.0342
            2064     5.96225E-03     110.071E-03         2.11695        -1.08649        -1.16201        -1.10137         2.09308        -1.12326     501.590E-03     13.7032E-03    -6.38021E-03    -7.32299E-03    -7.29631E-03     13.6765E-03    -6.38021E-03    -56.4252E-06     7.82784E+06    -44.9331E+06    -76.5807E+06    -58.8094E+06    -9.94348E+06    -44.9331E+06    -34.2628E+06         21.1278
            2065     6.95383E-03     110.086E-03         2.03029        -1.00289        -1.11102    -995.348E-03         2.02275        -1.11102     213.830E-03     14.2713E-03    -6.58106E-03    -7.69025E-03    -7.58013E-03     14.1612E-03    -6.58106E-03     1.85809E-03     8.96780E+06    -44.7582E+06    -86.5895E+06    -67.2369E+06    -10.3848E+06    -44.7582E+06    -38.3755E+06         21.2497
            2066     7.94661E-03     110.108E-03         2.06110        -1.00447        -1.09421        -1.00343         2.06005        -1.09421     82.3404E-03     14.9595E-03    -6.78136E-03    -8.17818E-03    -7.72000E-03     14.5014E-03    -6.78136E-03     4.79198E-03     7.83394E+06    -44.0339E+06    -95.5500E+06    -76.2691E+06    -11.4470E+06    -44.0339E+06    -40.1045E+06         21.4139
            2067     8.93861E-03     110.137E-03         2.20951        -1.06738        -1.13218        -1.10416         2.19986        -1.08576     282.482E-03     16.1100E-03    -6.96652E-03    -9.14349E-03    -7.84601E-03     14.8125E-03    -6.96652E-03     9.12125E-03     6.58535E+06    -42.5130E+06    -98.4237E+06    -81.0582E+06    -10.7801E+06    -42.5130E+06    -38.6585E+06         21.6446
            2068     9.93038E-03     110.179E-03         2.29472        -1.08403        -1.14815        -1.13039         2.27696        -1.08403     485.945E-03     18.1559E-03    -7.11757E-03    -11.0383E-03    -8.02212E-03     15.1397E-03    -7.11757E-03     15.7230E-03     6.24816E+06    -32.6924E+06    -88.4492E+06    -68.5832E+06    -6.36065E+06    -39.9495E+06    -28.5837E+06         21.9825
            2069     10.9227E-03     110.233E-03         2.24398        -1.02810        -1.09523        -1.03583         2.23403        -1.07754     327.205E-03     22.4172E-03    -7.42042E-03    -14.9968E-03    -8.49418E-03     15.9146E-03    -7.42042E-03     26.7839E-03     29.6150E+06     6.53260E+06    -58.0050E+06    -35.9662E+06     13.0914E+06     1.01744E+06    -5.90251E+06         22.4927
            2070     11.9158E-03     110.310E-03         2.20891    -960.325E-03        -1.06190    -958.904E-03         2.20749        -1.06190     114.132E-03     30.0990E-03    -7.79849E-03    -22.3005E-03    -8.97113E-03     16.7696E-03    -7.79849E-03     44.4916E-03     59.8691E+06     48.3280E+06    -30.7449E+06     3.39540E+06     20.0272E+06     54.0297E+06     14.6175E+06         23.2908
            2071     12.9122E-03     110.408E-03         2.22297    -911.296E-03        -1.04011    -905.975E-03         2.21765        -1.04011     202.541E-03     40.4034E-03    -8.17976E-03    -32.2236E-03    -11.1456E-03     19.3254E-03    -8.17976E-03     65.4630E-03     93.1107E+06     56.3554E+06    -4.83242E+06     30.9826E+06     20.5404E+06     93.1107E+06     19.7384E+06         24.6581
            2072     13.8938E-03     110.534E-03         2.20600    -820.183E-03        -1.01175    -806.219E-03         2.19204        -1.01175     398.864E-03     58.6093E-03    -8.72237E-03    -49.8869E-03    -18.6691E-03     27.3914E-03    -8.72237E-03     98.1711E-03     108.380E+06     50.5975E+06     6.41770E+06     30.9110E+06     26.1042E+06     108.380E+06     13.4870E+06         27.1944
            2073     14.8755E-03     110.699E-03         2.21675    -753.008E-03    -975.969E-03    -743.691E-03         2.20743    -975.969E-03     269.129E-03     87.1351E-03    -9.66097E-03    -77.4741E-03    -32.7545E-03     42.4155E-03    -9.66097E-03     146.369E-03     88.5156E+06     33.4744E+06    -6.97896E+06     12.6954E+06     13.8000E+06     88.5156E+06     11.3387E+06         31.9813
            2074     15.8394E-03     110.929E-03         2.23964    -715.886E-03    -934.655E-03    -713.645E-03         2.23740    -934.655E-03    -56.8652E-03     121.262E-03    -11.3344E-03    -109.928E-03    -53.6136E-03     64.9479E-03    -11.3344E-03     198.178E-03     64.3374E+06     18.2599E+06    -20.0580E+06       7.056E+06    -8.85412E+06     64.3374E+06     2.88312E+06         40.6924
            2075     16.7957E-03     111.212E-03         2.16733    -623.961E-03    -885.655E-03    -620.968E-03         2.16434    -885.655E-03    -172.945E-03     155.966E-03    -13.3546E-03    -142.612E-03    -61.8439E-03     75.1986E-03    -13.3546E-03     263.734E-03     31.4784E+06     9.77196E+06    -42.6041E+06    -13.2325E+06    -17.5687E+06     29.4475E+06    -17.3684E+06         54.5540
            2076     991.320E-06     111.056E-03         1.96069        -1.13804        -1.25244        -1.10538         1.87960        -1.20400     26.7799E-03     15.6369E-03    -7.57139E-03    -8.06551E-03    -7.72243E-03     15.6258E-03    -7.90334E-03    -975.535E-06    -2.04670E+06    -20.8071E+06    -35.1037E+06    -14.0048E+06    -25.9980E+06    -17.9548E+06    -9.15092E+06         21.0991
            2077     1.98528E-03     111.059E-03         1.51030    -903.242E-03        -1.09436    -854.505E-03         1.46157        -1.09436     461.752E-03     15.8636E-03    -7.80606E-03    -8.05757E-03    -8.00515E-03     15.8440E-03    -7.83884E-03    -1.34706E-03     2.90161E+06    -13.2918E+06    -26.1288E+06    -13.5736E+06    -9.65353E+06    -13.2918E+06    -13.0237E+06         21.1362
            2078     2.97608E-03     111.063E-03         1.34509    -839.562E-03        -1.00406    -825.377E-03         1.33091        -1.00406     186.137E-03     16.7064E-03    -8.02926E-03    -8.67717E-03    -8.64573E-03     16.6750E-03    -8.02926E-03    -1.76288E-03     1.83552E+06    -10.2238E+06    -31.5920E+06    -18.2407E+06    -11.6375E+06    -10.1021E+06    -16.0852E+06         21.1964
            2079     3.96753E-03     111.068E-03         1.53193    -958.704E-03        -1.05984        -1.02540         1.51804    -979.252E-03     243.521E-03     17.6975E-03    -8.30150E-03    -9.39602E-03    -9.35001E-03     17.6515E-03    -8.30150E-03    -2.22581E-03     6.37951E+06    -8.54156E+06    -35.4517E+06    -20.6244E+06    -8.56947E+06    -8.41988E+06    -19.4571E+06         21.2789
            2080     4.95792E-03     111.076E-03         1.66975    -996.003E-03        -1.12179        -1.11580         1.66376    -996.003E-03     194.818E-03     18.7594E-03    -8.61893E-03    -10.1405E-03    -10.0913E-03     18.7102E-03    -8.61893E-03    -2.38052E-03     11.3375E+06    -7.55573E+06    -35.9806E+06    -21.4651E+06    -4.10408E+06    -6.62967E+06    -21.2224E+06         21.3835
            2081     5.94689E-03     111.088E-03         1.61874    -966.139E-03        -1.05179        -1.00410         1.61151        -1.00660     120.828E-03     19.9572E-03    -8.97700E-03    -10.9802E-03    -10.9457E-03     19.9227E-03    -8.97700E-03    -1.97301E-03     11.8142E+06    -7.78508E+06    -40.2814E+06    -27.0040E+06    -2.44120E+06    -6.80705E+06    -22.1338E+06         21.5128
            2082     6.93621E-03     111.104E-03         1.54781    -909.330E-03    -998.266E-03    -905.673E-03         1.54416    -998.266E-03    -102.067E-03     21.3796E-03    -9.38177E-03    -11.9979E-03    -11.9733E-03     21.3551E-03    -9.38177E-03    -1.17255E-03     11.5052E+06    -11.5338E+06    -49.5816E+06    -37.4898E+06    -2.68813E+06    -9.43228E+06    -23.7357E+06         21.6709
            2083     7.92342E-03     111.126E-03         1.59937    -930.564E-03    -986.020E-03    -927.861E-03         1.59667    -986.020E-03    -106.852E-03     23.0261E-03    -9.87003E-03    -13.1561E-03    -13.1144E-03     22.9844E-03    -9.87003E-03     51.9881E-06     10.0639E+06    -12.6317E+06    -60.2083E+06    -48.2910E+06    -6.58253E+06    -7.90259E+06    -25.1000E+06         21.8624
            2084     8.90938E-03     111.157E-03         1.68274    -950.445E-03    -999.124E-03    -965.268E-03         1.67731    -978.873E-03     110.874E-03     24.6304E-03    -10.3935E-03    -14.2369E-03    -14.0868E-03     24.4803E-03    -10.3935E-03     2.33875E-03     9.85051E+06    -9.39242E+06    -69.7268E+06    -57.2162E+06    -6.26827E+06    -5.78423E+06    -27.8171E+06         22.0947
            2085     9.89488E-03     111.197E-03         1.68784    -912.086E-03    -993.635E-03    -924.333E-03         1.67812    -971.670E-03     309.910E-03     26.2967E-03    -10.9304E-03    -15.3663E-03    -14.8314E-03     25.7619E-03    -10.9304E-03     6.08596E-03     7.42547E+06    -9.07244E+06    -80.6120E+06    -66.1750E+06    -10.4550E+06    -5.62897E+06    -31.5904E+06         22.3848
            2086     10.8793E-03     111.252E-03         1.66088    -869.142E-03    -960.694E-03    -864.945E-03         1.65496    -958.979E-03     202.491E-03     28.3354E-03    -11.4648E-03    -16.8706E-03    -15.2142E-03     26.6790E-03    -11.4648E-03     12.2419E-03     9.09304E+06    -8.06955E+06    -80.2938E+06    -69.4663E+06    -8.25042E+06    -1.55359E+06    -26.9169E+06         22.7679
            2087     11.8639E-03     111.324E-03         1.66762    -832.751E-03    -941.750E-03    -831.828E-03         1.66670    -941.750E-03     49.9630E-03     30.3124E-03    -11.9759E-03    -18.3365E-03    -14.5512E-03     26.5272E-03    -11.9759E-03     20.9696E-03     21.4005E+06     5.58909E+06    -63.8490E+06    -57.3238E+06     4.90342E+06     15.5610E+06    -17.0537E+06         23.3373
            2088     12.8462E-03     111.422E-03         1.68733    -796.103E-03    -921.420E-03    -794.982E-03         1.68621    -921.420E-03     63.9609E-03     34.8478E-03    -12.5523E-03    -22.2955E-03    -14.0908E-03     26.6431E-03    -12.5523E-03     35.5896E-03     61.1207E+06     23.8036E+06    -41.9049E+06    -29.4722E+06     11.3709E+06     61.1207E+06    -7.75209E+06         24.3286
            2089     13.8402E-03     111.549E-03         1.69297    -726.713E-03    -896.569E-03    -722.611E-03         1.68887    -896.569E-03     149.823E-03     47.5258E-03    -13.1358E-03    -34.3900E-03    -17.3928E-03     30.5286E-03    -13.1358E-03     63.7700E-03     94.8049E+06     36.7179E+06    -23.7221E+06    -1.95474E+06     14.9506E+06     94.8049E+06     13.3675E+06         26.2028
            2090     14.8176E-03     111.728E-03         1.62225    -578.994E-03    -862.680E-03    -575.922E-03         1.61917    -862.680E-03     99.1661E-03     72.9635E-03    -13.9435E-03    -59.0201E-03    -26.8442E-03     40.7876E-03    -13.9435E-03     112.583E-03     109.533E+06     39.3374E+06    -7.31979E+06     13.6081E+06     18.4095E+06     109.533E+06     22.4992E+06         29.7208
            2091     15.7865E-03     111.967E-03         1.51751    -419.870E-03    -815.412E-03    -418.383E-03         1.51602    -815.412E-03    -16.8199E-03     106.135E-03    -15.1469E-03    -90.9881E-03    -40.4330E-03     55.5799E-03    -15.1469E-03     172.080E-03     112.574E+06     37.7141E+06     4.46807E+06     24.1590E+06     18.0231E+06     112.574E+06     5.41261E+06         35.9979
            2092     16.7396E-03     112.265E-03         1.47818    -348.687E-03    -758.139E-03    -344.514E-03         1.47400    -758.139E-03    -105.461E-03     124.461E-03    -15.9888E-03    -108.472E-03    -35.0886E-03     51.0774E-03    -15.9888E-03     213.923E-03     59.3793E+06     24.1954E+06    -15.5107E+06     17.3831E+06    -4.92025E+06     55.6011E+06     3.39607E+06         46.2669
            2093     990.953E-06     112.076E-03         1.25560    -788.109E-03        -1.06446    -976.910E-03         1.17459    -794.653E-03     27.6608E-03     20.5880E-03    -9.97358E-03    -10.6144E-03    -10.3038E-03     20.5766E-03    -10.2727E-03    -1.11300E-03     40.7047E+06     23.1416E+06    -12.0886E+06     32.5959E+06    -8.39616E+06     27.5580E+06    -9.87133E+06         21.3245
            2094     1.97911E-03     112.076E-03         1.12805    -804.821E-03        -1.04184    -906.361E-03         1.07706    -889.316E-03     297.719E-03     20.7808E-03    -10.2665E-03    -10.5144E-03    -10.4965E-03     20.7629E-03    -10.2665E-03    -1.45424E-03     26.8299E+06     16.3894E+06    -9.60184E+06     21.5537E+06    -4.32564E+06     16.3894E+06    -9.23454E+06         21.3675
            2095     2.97006E-03     112.082E-03     978.373E-03    -800.371E-03    -978.443E-03    -871.903E-03     961.463E-03    -890.001E-03     34.5381E-03     21.6962E-03    -10.4615E-03    -11.2347E-03    -11.2099E-03     21.6714E-03    -10.4615E-03    -1.76548E-03     20.4185E+06     15.7177E+06    -10.1974E+06     13.5640E+06    -3.46459E+06     15.8394E+06    -9.85636E+06         21.4418
            2096     3.95755E-03     112.088E-03         1.09182    -867.418E-03    -984.248E-03    -946.007E-03         1.07943    -893.275E-03     142.612E-03     23.2551E-03    -10.8296E-03    -12.4255E-03    -12.3909E-03     23.2205E-03    -10.8296E-03    -2.11276E-03     23.7092E+06     12.6791E+06    -13.4899E+06     7.01211E+06    -2.56653E+06     18.4528E+06    -12.5717E+06         21.5486
            2097     4.94465E-03     112.098E-03         1.21667    -894.415E-03        -1.01694        -1.00167         1.21558    -908.594E-03     51.4907E-03     25.1785E-03    -11.3309E-03    -13.8475E-03    -13.8068E-03     25.1377E-03    -11.3309E-03    -2.41251E-03     24.7971E+06     8.80557E+06    -13.9960E+06     385.314E+03    -1.04747E+06     20.2688E+06    -12.4530E+06         21.6879
            2098     5.93072E-03     112.111E-03         1.18471    -892.787E-03    -967.019E-03    -936.995E-03         1.18025    -918.352E-03    -51.3350E-03     27.5526E-03    -11.9634E-03    -15.5892E-03    -15.5454E-03     27.5088E-03    -11.9634E-03    -2.71245E-03     25.0639E+06     9.56997E+06    -13.8352E+06    -4.52333E+06     258.104E+03     25.0639E+06    -10.8912E+06         21.8615
            2099     6.91411E-03     112.129E-03         1.13173    -868.634E-03    -925.871E-03    -872.588E-03         1.12522    -915.407E-03    -227.414E-03     30.4562E-03    -12.7176E-03    -17.7386E-03    -17.6906E-03     30.4082E-03    -12.7176E-03    -3.04031E-03     29.1828E+06     6.69160E+06    -15.4986E+06    -8.73185E+06    -75.1502E+03     29.1828E+06    -9.71306E+06         22.0707
            2100     7.89513E-03     112.154E-03         1.12858    -848.065E-03    -906.672E-03    -843.929E-03         1.12445    -906.672E-03    -174.829E-03     33.6720E-03    -13.5841E-03    -20.0880E-03    -20.0344E-03     33.6185E-03    -13.5841E-03    -3.30657E-03     30.3540E+06     4.13521E+06    -20.6629E+06    -14.0483E+06    -2.47947E+06     30.3540E+06    -10.5163E+06         22.3153
            2101     8.87433E-03     112.186E-03         1.11912    -795.591E-03    -894.651E-03    -791.812E-03         1.11534    -894.651E-03     19.4264E-03     37.0688E-03    -14.5560E-03    -22.5128E-03    -22.4481E-03     37.0042E-03    -14.5560E-03    -3.36733E-03     31.8464E+06     5.41969E+06    -26.8063E+06    -21.0138E+06    -372.836E+03     31.8464E+06    -11.9291E+06         22.5947
            2102     9.85014E-03     112.229E-03         1.09837    -731.860E-03    -878.078E-03    -728.378E-03         1.09488    -878.078E-03     115.571E-03     40.7456E-03    -15.6367E-03    -25.1088E-03    -25.0170E-03     40.6537E-03    -15.6367E-03    -3.14298E-03     32.2579E+06     2.19991E+06    -36.1444E+06    -29.5175E+06    -4.42701E+06     32.2579E+06    -13.9394E+06         22.9078
            2103     10.8237E-03     112.284E-03         1.08112    -696.856E-03    -858.432E-03    -694.016E-03         1.07828    -858.432E-03    -22.4333E-03     43.8391E-03    -16.8009E-03    -27.0383E-03    -26.8651E-03     43.6660E-03    -16.8009E-03    -2.08983E-03     35.4592E+06    -332.833E+03    -44.9217E+06    -35.3367E+06    -9.91790E+06     35.4592E+06    -17.2693E+06         23.2662
            2104     11.7934E-03     112.359E-03         1.10084    -707.534E-03    -838.834E-03    -700.773E-03         1.09408    -838.834E-03    -142.312E-03     46.0848E-03    -17.9896E-03    -28.0952E-03    -27.6036E-03     45.5932E-03    -17.9896E-03    -70.8859E-06     47.9052E+06     9.61359E+06    -46.8889E+06    -37.6526E+06     377.260E+03     47.9052E+06    -19.2871E+06         23.7317
            2105     12.7681E-03     112.448E-03         1.16935    -718.239E-03    -820.513E-03    -712.559E-03         1.16367    -820.513E-03    -116.990E-03     48.9120E-03    -19.1747E-03    -29.7373E-03    -28.3475E-03     47.5223E-03    -19.1747E-03     3.75745E-03     55.0096E+06     7.13619E+06    -48.5803E+06    -42.6186E+06     1.17451E+06     55.0096E+06    -16.5619E+06         24.4510
            2106     13.7305E-03     112.575E-03         1.16057    -619.138E-03    -798.564E-03    -617.998E-03         1.15943    -798.564E-03    -16.5489E-03     52.6853E-03    -20.3701E-03    -32.3153E-03    -28.3443E-03     48.7144E-03    -20.3701E-03     14.2881E-03     56.2144E+06     2.66377E+06    -48.8374E+06    -36.0608E+06    -10.1128E+06     56.2144E+06    -7.01491E+06         25.6886
            2107     14.7049E-03     112.745E-03     984.802E-03    -372.998E-03    -762.566E-03    -372.718E-03     984.523E-03    -762.566E-03     17.0174E-03     62.1177E-03    -21.7698E-03    -40.3479E-03    -28.8993E-03     50.6691E-03    -21.7698E-03     40.9316E-03     96.3282E+06     32.8009E+06    -27.7196E+06    -7.97351E+06     13.0548E+06     96.3282E+06     1.55663E+06         27.8065
            2108     15.6776E-03     112.991E-03     824.298E-03    -160.299E-03    -708.893E-03    -155.407E-03     819.405E-03    -708.893E-03    -19.2652E-03     68.9008E-03    -14.4907E-03    -54.4101E-03    -22.4675E-03     45.3040E-03    -22.8366E-03     79.9163E-03     99.2614E+06     37.4829E+06    -15.6591E+06     281.423E+03     27.1602E+06     93.6436E+06     5.68762E+06         31.3165
            2109     16.6570E-03     113.290E-03     821.949E-03    -110.605E-03    -647.503E-03    -98.5961E-03     809.941E-03    -647.503E-03    -134.349E-03     62.6981E-03    -4.63212E-03    -58.0659E-03    -4.99998E-03     27.8050E-03    -22.8050E-03     95.4695E-03     47.4021E+06     15.7980E+06    -47.8057E+06     6.23041E+06    -1.02620E+06     10.1902E+06     13.1268E+06         36.0413


