********************************************************************************
Field Output Report, written Tue May  6 15:43:49 2025

Source 1
---------

   ODB: D:/AISI_1020/Vel_40/aisi_1020_2a_8_red_2500_cal_75_vel_40_fric_050.odb
   Step: Step-1
   Frame: Increment   4229646: Step Time =   0.4644

Loc 1 : Nodal values from source 1

Output sorted by column "Node Label".

Field Output reported at nodes for region: DIE_2A_8_D0_36-1.Region_1
   Computation algorithm: EXTRAPOLATE_COMPUTE_AVERAGE
   Averaged at nodes
   Averaging regions: ODB_REGIONS

      Node Label     COORD.COOR1     COORD.COOR2
                          @Loc 1          @Loc 1
-------------------------------------------------
               1     14.4417E-03     215.621E-03


Field Output reported at nodes for region: DIE_2A_8_D0_36-1.Region_2
   Computation algorithm: EXTRAPOLATE_COMPUTE_AVERAGE
   Averaged at nodes
   Averaging regions: ODB_REGIONS

      Node Label     COORD.COOR1     COORD.COOR2
                          @Loc 1          @Loc 1
-------------------------------------------------
               1     14.4417E-03     215.621E-03


Field Output reported at nodes for part: WIRE_1-1
   Computation algorithm: EXTRAPOLATE_COMPUTE_AVERAGE
   Averaged at nodes
   Averaging regions: ODB_REGIONS

      Node Label     COORD.COOR1     COORD.COOR2    ER.Max. Prin    ER.Mid. Prin    ER.Min. Prin         ER.ER11         ER.ER22         ER.ER33         ER.ER12    PE.Max. Prin    PE.Mid. Prin    PE.Min. Prin         PE.PE11         PE.PE22         PE.PE33         PE.PE12     S.Max. Prin     S.Mid. Prin     S.Min. Prin           S.S11           S.S22           S.S33           S.S12            TEMP
                          @Loc 1          @Loc 1          @Loc 1          @Loc 1          @Loc 1          @Loc 1          @Loc 1          @Loc 1          @Loc 1          @Loc 1          @Loc 1          @Loc 1          @Loc 1          @Loc 1          @Loc 1          @Loc 1          @Loc 1          @Loc 1          @Loc 1          @Loc 1          @Loc 1          @Loc 1          @Loc 1          @Loc 1
-----------------------------------------------------------------------------------------------------------------------------------------------------------------------------------------------------------------------------------------------------------------------------------------------------------------------------------------------------------------------------------------------------------------
               1     13.3590E-03     101.436E-03     485.966E-03     34.0931E-03        -1.23194     468.988E-03        -1.21497     34.0931E-03     339.801E-03     599.654E-03    -299.632E-03    -300.021E-03    -298.715E-03     598.347E-03    -299.632E-03     68.5185E-03     118.343E+06     54.2601E+06    -3.54606E+06    -3.54042E+06     54.2545E+06     118.343E+06     505.614E+03         94.8168
               2    -129.995E-09     100.788E-03         4.75508    -430.538E-03        -5.04624    -161.711E-03    -129.451E-03    -430.538E-03         9.76168     598.636E-03    -298.909E-03    -299.727E-03    -299.360E-03     598.636E-03    -299.276E-03    -840.770E-06    -69.6866E+06    -71.4445E+06    -73.6362E+06    -71.5990E+06    -71.1012E+06    -72.0671E+06     1.53487E+06         68.0486
               3    -832.936E-09    -138.778E-18         13.5267        -4.80482        -5.40016        -5.24989         13.3764        -4.80482         3.35951     611.387E-03    -305.460E-03    -305.927E-03    -305.460E-03     611.387E-03    -305.927E-03     1.39675E-03     3.23904E+06     3.15236E+06    -6.67662E+06     3.22254E+06    -6.66011E+06     3.15236E+06     404.188E+03         70.0515
               4     13.1376E-03    -138.778E-18         10.4435        -2.61304        -4.13191        -2.61183         10.4423        -4.13191     251.401E-03     795.307E-03    -309.541E-03    -485.766E-03    -484.212E-03     793.753E-03    -309.541E-03     89.1879E-03     27.7224E+06     6.65828E+06    -806.758E+03     6.06412E+06    -212.600E+03     27.7224E+06    -2.02049E+06         99.1641
               5     13.5096E-03     200.376E-03     562.095E-03     232.535E-03        -1.26437     235.727E-03     558.903E-03        -1.26437    -64.5481E-03     422.508E-03    -129.026E-03    -293.481E-03    -129.007E-03     422.488E-03    -293.481E-03    -6.60685E-03     105.630E+06     47.8881E+06    -38.4655E+06    -34.5437E+06     43.9664E+06     105.630E+06    -17.9799E+06         134.264
               6     5.85185E-06     198.213E-03         2.06986        -2.41999        -2.43965        -2.41726         2.06713        -2.43965    -221.403E-03     728.700E-03    -363.403E-03    -365.297E-03    -364.891E-03     728.295E-03    -363.403E-03    -42.1077E-03     44.3956E+06     43.8319E+06    -31.4281E+06     43.1240E+06    -30.7203E+06     44.3956E+06    -7.26422E+06         74.0131
               7     12.6157E-03     101.315E-03     454.707E-03     8.90496E-03        -1.17757     434.915E-03        -1.15778     8.90496E-03    -15.3751E-03     599.941E-03    -299.608E-03    -300.333E-03    -298.900E-03     598.508E-03    -299.608E-03     71.7190E-03     102.979E+06     42.8283E+06    -6.70600E+06    -6.68606E+06     42.8084E+06     102.979E+06     843.017E+03         93.6285
               8     11.8724E-03     101.182E-03     386.708E-03    -40.9352E-03        -1.06516     364.039E-03        -1.04249    -40.9352E-03    -12.7054E-03     599.673E-03    -299.539E-03    -300.134E-03    -298.926E-03     598.477E-03    -299.550E-03     64.7997E-03     72.3841E+06     19.5033E+06    -12.6364E+06    -12.5321E+06     19.3990E+06     72.3841E+06     1.57978E+06         90.7472
               9     11.1297E-03     101.085E-03     316.791E-03    -88.0604E-03    -952.400E-03     290.753E-03    -926.363E-03    -88.0604E-03    -7.66927E-03     599.071E-03    -299.481E-03    -299.590E-03    -298.847E-03     598.340E-03    -299.493E-03     51.1401E-03     47.7306E+06     688.246E+03    -17.5741E+06    -17.1617E+06     275.852E+03     47.7306E+06     2.42932E+06         87.0826
              10     10.3871E-03     101.001E-03     250.064E-03    -131.676E-03    -841.822E-03     219.090E-03    -810.848E-03    -131.676E-03    -12.6596E-03     598.898E-03    -299.396E-03    -299.502E-03    -298.918E-03     598.376E-03    -299.458E-03     43.0479E-03     34.0140E+06    -9.43683E+06    -21.7920E+06    -20.8833E+06    -10.3455E+06     34.0140E+06     3.15069E+06         83.1190
              11     9.64471E-03     100.933E-03     189.390E-03    -164.199E-03    -745.075E-03     150.847E-03    -698.297E-03    -172.434E-03    -289.120E-06     598.599E-03    -299.149E-03    -299.450E-03    -298.810E-03     598.260E-03    -299.450E-03     34.6555E-03     28.2798E+06    -14.1436E+06    -25.9425E+06    -24.6758E+06    -15.4103E+06     28.2798E+06     3.62416E+06         79.3274
              12     8.90223E-03     100.879E-03     137.150E-03    -160.471E-03    -693.924E-03     81.6534E-03    -588.800E-03    -210.097E-03    -16.0947E-03     598.397E-03    -298.937E-03    -299.459E-03    -298.723E-03     598.182E-03    -299.459E-03     27.5343E-03     25.5825E+06    -16.4762E+06    -30.3208E+06    -28.8980E+06    -17.8991E+06     25.5825E+06     4.16483E+06         76.0501
              13     8.15986E-03     100.837E-03     102.957E-03    -146.804E-03    -675.535E-03     10.6308E-03    -485.598E-03    -244.415E-03     11.0309E-03     598.392E-03    -298.928E-03    -299.464E-03    -298.799E-03     598.264E-03    -299.464E-03     21.2579E-03     21.8935E+06    -17.7260E+06    -34.8878E+06    -33.3988E+06    -19.2150E+06     21.8935E+06     4.81088E+06         73.4529
              14     7.41793E-03     100.805E-03     96.8203E-03    -166.288E-03    -655.302E-03    -62.4360E-03    -387.550E-03    -274.784E-03    -27.5797E-03     598.407E-03    -298.954E-03    -299.452E-03    -298.885E-03     598.338E-03    -299.452E-03     15.4820E-03     15.4235E+06    -19.5014E+06    -39.5980E+06    -38.1420E+06    -20.9574E+06     15.4235E+06     5.20076E+06         71.5443
              15     6.67613E-03     100.783E-03     107.916E-03    -201.276E-03    -634.744E-03    -127.464E-03    -299.723E-03    -300.918E-03     29.1313E-03     598.358E-03    -298.929E-03    -299.429E-03    -298.898E-03     598.327E-03    -299.429E-03     10.3361E-03     6.23372E+06    -23.2751E+06    -44.5921E+06    -43.1237E+06    -24.7436E+06     6.23372E+06     5.39466E+06         70.2299
              16     5.93405E-03     100.769E-03     126.225E-03    -238.127E-03    -613.885E-03    -185.284E-03    -217.483E-03    -323.020E-03    -54.8739E-03     598.262E-03    -298.855E-03    -299.407E-03    -298.844E-03     598.251E-03    -299.407E-03     5.93790E-03    -4.70528E+06    -28.7691E+06    -49.7940E+06    -48.1291E+06    -30.4340E+06    -4.70528E+06     5.66313E+06         69.3724
              17     5.19185E-03     100.762E-03     150.079E-03    -268.489E-03    -602.284E-03    -228.497E-03    -150.405E-03    -341.792E-03     65.8803E-03     598.226E-03    -298.834E-03    -299.392E-03    -298.832E-03     598.224E-03    -299.392E-03     2.28672E-03    -16.6917E+06    -34.4639E+06    -54.9742E+06    -53.1440E+06    -36.2941E+06    -16.6917E+06     5.84528E+06         68.8361
              18     4.44991E-03     100.760E-03     200.363E-03    -301.833E-03    -615.366E-03    -273.183E-03    -86.2399E-03    -357.413E-03    -113.778E-03     598.333E-03    -298.952E-03    -299.381E-03    -298.951E-03     598.332E-03    -299.381E-03    -574.086E-06    -28.5967E+06    -40.3151E+06    -59.7448E+06    -57.8610E+06    -42.1988E+06    -28.5967E+06     5.74494E+06         68.5099
              19     3.70819E-03     100.764E-03     293.095E-03    -333.836E-03    -679.823E-03    -304.744E-03    -45.5422E-03    -370.278E-03     167.952E-03     598.480E-03    -299.118E-03    -299.362E-03    -299.116E-03     598.478E-03    -299.362E-03    -2.55488E-03    -39.7076E+06    -46.8049E+06    -63.8677E+06    -61.9737E+06    -48.6988E+06    -39.7076E+06     5.35527E+06         68.3137
              20     2.96695E-03     100.769E-03     480.312E-03    -361.861E-03    -845.853E-03    -353.419E-03     4.51545E-03    -378.499E-03    -279.261E-03     598.557E-03    -299.215E-03    -299.342E-03    -299.224E-03     598.554E-03    -299.330E-03    -3.50119E-03    -49.5382E+06    -52.8839E+06    -67.2787E+06    -65.4940E+06    -54.6686E+06    -49.5382E+06     4.73995E+06         68.1953
              21     2.22514E-03     100.776E-03     807.847E-03    -383.853E-03        -1.15763    -359.848E-03     10.0660E-03    -383.853E-03     479.014E-03     598.514E-03    -299.205E-03    -299.308E-03    -299.215E-03     598.510E-03    -299.295E-03    -3.49334E-03    -57.4180E+06    -58.9019E+06    -70.2298E+06    -68.4933E+06    -60.0245E+06    -58.0318E+06     4.19539E+06         68.1233
              22     1.48328E-03     100.781E-03         1.48315    -377.322E-03        -1.82573    -412.544E-03     69.9623E-03    -377.322E-03    -945.404E-03     598.465E-03    -299.181E-03    -299.284E-03    -299.179E-03     598.463E-03    -299.284E-03    -2.90709E-03    -62.6903E+06    -65.2802E+06    -72.4747E+06    -70.6680E+06    -64.4969E+06    -65.2802E+06     3.76503E+06         68.0801
              23     741.601E-06     100.786E-03         3.35853    -399.122E-03        -3.67107    -335.038E-03     22.5023E-03    -399.122E-03         2.85871     598.555E-03    -299.048E-03    -299.507E-03    -299.273E-03     598.554E-03    -299.282E-03    -1.68866E-03    -67.0978E+06    -69.9528E+06    -73.4564E+06    -71.5202E+06    -68.7226E+06    -70.2641E+06     2.53137E+06         68.0564
              24    -403.410E-09     98.9671E-03         2.44483    -891.642E-03        -2.28563    -687.678E-03     846.882E-03    -891.642E-03         1.75342     599.000E-03    -299.299E-03    -299.701E-03    -299.299E-03     599.000E-03    -299.701E-03    -1.10041E-03    -62.8891E+06    -63.2198E+06    -65.0157E+06    -64.3011E+06    -63.3769E+06    -63.4466E+06     628.203E+03         68.0801
              25     348.764E-09     97.1448E-03         3.88190        -1.31685        -3.30360        -1.10030         1.67859        -1.31685        -6.50493     599.300E-03    -299.585E-03    -299.715E-03    -299.585E-03     599.300E-03    -299.715E-03    -755.021E-06    -59.8745E+06    -61.0070E+06    -61.6239E+06    -60.5428E+06    -60.6807E+06    -61.2819E+06     505.998E+03         68.1080
              26    -494.301E-09     95.3231E-03         7.42730        -1.70561        -6.47460        -1.35658         2.30927        -1.70561        -13.4024     599.754E-03    -299.738E-03    -300.017E-03    -299.921E-03     599.754E-03    -299.833E-03    -648.837E-06    -53.8516E+06    -55.6719E+06    -57.1093E+06    -55.2627E+06    -56.6686E+06    -54.7015E+06     775.736E+03         68.1338
              27     776.546E-09     93.5004E-03         9.66834        -2.02528        -8.40012        -1.45180         2.72002        -2.02528        -17.5798     600.078E-03    -299.690E-03    -300.388E-03    -300.387E-03     600.078E-03    -299.690E-03    -1.11619E-03    -46.4185E+06    -48.8300E+06    -51.9853E+06    -47.4329E+06    -51.9412E+06    -47.8597E+06     261.087E+03         68.1585
              28    -30.4762E-09     91.6784E-03         10.0614        -2.20376        -8.60514        -1.41599         2.87226        -2.20376        -18.1670     600.049E-03    -299.215E-03    -300.834E-03    -299.729E-03     600.049E-03    -300.320E-03    -873.551E-06    -40.8227E+06    -44.0948E+06    -48.8413E+06    -42.7353E+06    -48.7595E+06     -42.264E+06     506.955E+03         68.1828
              29    -1.58838E-06     89.8546E-03         8.53970        -2.21158        -7.08563        -1.24179         2.69587        -2.21158        -15.1179     600.117E-03    -299.452E-03    -300.665E-03    -299.452E-03     600.117E-03    -300.665E-03    -1.30962E-03    -36.3290E+06    -40.1588E+06    -46.0426E+06    -38.2410E+06    -45.9614E+06    -38.3279E+06     476.630E+03         68.2077
              30     1.40657E-06     88.0307E-03         5.47031        -2.02693        -4.19569    -936.143E-03         2.21077        -2.02693        -9.10568     600.383E-03    -299.821E-03    -300.562E-03    -300.453E-03     600.383E-03    -299.929E-03    -1.02273E-03    -31.6042E+06    -35.5665E+06    -41.9317E+06    -33.5899E+06    -41.9093E+06    -33.6031E+06     281.642E+03         68.2331
              31    -449.190E-09     86.2076E-03         2.77219        -1.57853        -1.92961    -555.816E-03         1.45610        -1.63623        -1.28400     600.770E-03    -299.960E-03    -300.810E-03    -300.810E-03     600.770E-03    -299.960E-03    -838.364E-06    -27.9416E+06    -31.4789E+06    -38.1748E+06    -29.9282E+06    -38.1516E+06    -29.5155E+06     334.321E+03         68.2587
              32     754.832E-09     84.3833E-03         3.61194        -1.01265        -3.34089    -126.289E-03     455.045E-03        -1.07035         6.74201     601.476E-03    -300.462E-03    -301.014E-03    -301.013E-03     601.475E-03    -300.462E-03    -1.31628E-03    -25.1973E+06    -27.5396E+06    -35.0619E+06    -25.9917E+06    -35.0359E+06    -26.7712E+06     385.001E+03         68.2836
              33    -252.111E-09     82.5567E-03         6.48624    -365.636E-03        -6.85151     349.243E-03    -714.517E-03    -365.636E-03         13.2789     601.709E-03    -300.647E-03    -301.062E-03    -300.980E-03     601.708E-03    -300.728E-03    -1.54029E-03    -22.0513E+06    -23.3875E+06    -30.8480E+06    -22.9760E+06    -30.6917E+06    -22.6192E+06     1.03103E+06         68.3073
              34     125.445E-09     80.7300E-03         8.05052     423.219E-03        -9.18747     843.622E-03        -1.98057     423.219E-03         16.9898     601.436E-03    -300.396E-03    -301.040E-03    -300.957E-03     601.435E-03    -300.478E-03    -1.49991E-03    -20.0154E+06    -20.6028E+06    -27.8230E+06    -20.1770E+06    -27.6809E+06    -20.5832E+06     514.386E+03         68.3297
              35     707.201E-09     78.9054E-03         7.91722         1.20428        -9.82573         1.34036        -3.24887         1.20428         17.1056     601.899E-03    -300.527E-03    -301.372E-03    -301.371E-03     601.899E-03    -300.527E-03    -1.00389E-03    -16.8316E+06    -17.0371E+06    -24.9031E+06    -16.8862E+06    -24.8681E+06    -17.0175E+06     120.757E+03         68.3513
              36    -291.257E-09     77.0781E-03         6.24548         1.89143        -8.81999         1.82578        -4.40029         1.89143         13.6000     602.616E-03    -300.951E-03    -301.665E-03    -301.233E-03     602.616E-03    -301.383E-03    -974.523E-06    -15.1644E+06    -15.8867E+06    -23.2004E+06    -15.7258E+06    -23.1753E+06    -15.3503E+06     270.136E+03         68.3735
              37    -343.105E-09     75.2488E-03         3.96491         2.41616        -7.03395         2.27379        -5.34283         2.41616         7.26828     602.900E-03    -301.186E-03    -301.713E-03    -301.281E-03     602.899E-03    -301.618E-03    -1.27495E-03    -13.6823E+06    -14.5608E+06    -21.8018E+06    -14.4890E+06    -21.5314E+06    -14.0244E+06     1.00086E+06         68.3973
              38     481.361E-09     73.4217E-03         3.11716         2.72994        -6.46216         2.66904        -6.01405         2.72994    -493.637E-03     603.142E-03    -301.269E-03    -301.873E-03    -301.363E-03     603.141E-03    -301.779E-03    -1.22305E-03    -10.3970E+06    -11.5461E+06    -18.9684E+06    -10.8394E+06    -18.5261E+06    -11.5461E+06     219.447E+03         68.4230
              39    -1.24223E-06     71.5931E-03         4.59297         2.81268        -7.98156         2.98885        -6.37744         2.81268        -7.99922     603.390E-03    -301.344E-03    -302.046E-03    -301.343E-03     603.389E-03    -302.046E-03    -1.70630E-03    -8.94969E+06    -10.4186E+06    -17.2334E+06    -9.80056E+06    -17.0444E+06    -9.75667E+06    -598.478E+03         68.4498
              40     962.046E-09     69.7625E-03         6.74925         2.67135        -9.94214         3.19100        -6.38389         2.67135        -13.6133     603.341E-03    -301.458E-03    -301.882E-03    -301.690E-03     603.339E-03    -301.650E-03    -1.85633E-03    -8.32399E+06    -9.67606E+06    -16.9217E+06    -9.00931E+06    -16.8983E+06    -9.01416E+06     53.6742E+03         68.4770
              41    -624.636E-09     67.9352E-03         7.89177         2.33413        -10.6901         3.23466        -6.03298         2.33413        -16.1005     603.638E-03    -301.405E-03    -302.232E-03    -301.638E-03     603.637E-03    -301.999E-03    -1.20613E-03    -6.76445E+06    -7.73081E+06    -15.5906E+06    -7.23216E+06    -15.3991E+06    -7.45463E+06     662.350E+03         68.5042
              42    -250.237E-09     66.1025E-03         7.45731         1.84998        -9.71931         3.10321        -5.36521         1.84998        -14.9412     604.312E-03    -301.719E-03    -302.593E-03    -301.999E-03     604.312E-03    -302.313E-03    -1.25619E-03    -5.97205E+06    -6.32722E+06    -14.7841E+06    -6.47579E+06    -14.5565E+06    -6.05104E+06     404.526E+03         68.5320
              43     663.679E-09     64.2709E-03         5.52805         1.29453        -7.16644         2.78485        -4.42324         1.29453        -10.3842     604.566E-03    -301.834E-03    -302.732E-03    -302.732E-03     604.566E-03    -301.834E-03    -956.322E-06    -4.95426E+06    -5.04233E+06    -13.5706E+06    -5.07402E+06    -13.4508E+06    -5.04233E+06     117.432E+03         68.5603
              44     250.281E-09     62.4405E-03         3.10892     727.427E-03        -4.11953         2.27512        -3.28573     727.427E-03        -3.40159     604.674E-03    -301.867E-03    -302.808E-03    -302.484E-03     604.674E-03    -302.190E-03    -907.750E-06    -4.11159E+06    -4.24272E+06    -12.7025E+06    -4.19903E+06    -12.6151E+06    -4.24272E+06     334.992E+03         68.5885
              45    -729.706E-09     60.6088E-03         3.14594     187.097E-03        -3.56217         1.59623        -2.01246     187.097E-03         4.43697     604.861E-03    -302.024E-03    -302.837E-03    -302.024E-03     604.861E-03    -302.837E-03    -1.12478E-03    -2.64059E+06    -2.94367E+06    -12.0090E+06    -2.83798E+06    -11.9927E+06    -2.76264E+06    -380.283E+03         68.6153
              46     6.14395E-09     58.7755E-03         5.86216    -294.742E-03        -5.73125     790.098E-03    -659.187E-03    -294.742E-03         11.3989     605.175E-03    -302.330E-03    -302.846E-03    -302.355E-03     605.175E-03    -302.820E-03    -1.18641E-03    -757.931E+03    -1.73556E+06    -11.1969E+06    -955.810E+03    -11.1800E+06    -1.55452E+06     93.0122E+03         68.6399
              47     23.9234E-09     56.9450E-03         8.30748    -707.087E-03        -7.69953    -79.0562E-03     687.010E-03    -707.087E-03         15.9554     605.610E-03    -302.624E-03    -302.986E-03    -302.985E-03     605.609E-03    -302.624E-03    -1.34605E-03    -1.50643E+06    -3.09056E+06    -12.5043E+06    -2.30602E+06    -12.4922E+06    -2.30302E+06     200.598E+03         68.6621
              48     479.972E-09     55.1091E-03         9.18084        -1.05001        -8.17439    -926.852E-03         1.93330        -1.05001         17.0861     605.647E-03    -302.515E-03    -303.132E-03    -302.851E-03     605.646E-03    -302.796E-03    -1.11982E-03    -664.441E+03    -1.90028E+06    -12.3226E+06    -1.45260E+06    -12.3220E+06    -1.11274E+06    -31.7543E+03         68.6824
              49    -899.603E-09     53.2766E-03         8.40195        -1.34653        -7.02816        -1.67755         3.05133        -1.34653         14.6121     605.435E-03    -302.566E-03    -302.870E-03    -302.565E-03     605.435E-03    -302.870E-03    -1.17390E-03    -198.185E+03    -681.941E+03    -12.1909E+06    -219.041E+03    -12.1701E+06    -681.941E+03     366.155E+03         68.7018
              50     863.694E-09     51.4437E-03         6.56968        -1.62966        -4.83624        -2.27833         4.01176        -1.62966         9.17862     605.505E-03    -302.545E-03    -302.959E-03    -302.935E-03     605.504E-03    -302.569E-03    -1.15187E-03    -720.208E+03    -784.627E+03    -11.7037E+06    -773.258E+03    -11.6796E+06    -755.667E+03     216.278E+03         68.7212
              51    -286.024E-09     49.6099E-03         5.33588        -1.89579        -3.26129        -2.67940         4.75398        -1.89579         2.01875     605.511E-03    -302.468E-03    -303.044E-03    -302.858E-03     605.511E-03    -302.653E-03    -991.516E-06     311.235E+03    -398.031E+03    -10.9201E+06    -416.244E+03    -10.9018E+06     311.235E+03     152.195E+03         68.7412
              52     17.5480E-09     47.7782E-03         6.21521        -2.12214        -3.82227        -2.84040         5.23334        -2.12214        -5.24332     605.415E-03    -302.492E-03    -302.923E-03    -302.737E-03     605.415E-03    -302.678E-03    -1.25772E-03     980.045E+03    -187.127E+03    -11.3183E+06     207.511E+03    -11.2261E+06     493.179E+03    -408.469E+03         68.7623
              53     340.610E-09     45.9442E-03         8.21901        -2.29694        -5.55516        -2.76608         5.42994        -2.29694        -10.9769     605.242E-03    -302.449E-03    -302.794E-03    -302.793E-03     605.242E-03    -302.449E-03    -1.35294E-03    -326.922E+03    -965.997E+03    -12.7732E+06    -404.453E+03    -12.6957E+06    -965.997E+03    -653.892E+03         68.7862
              54    -196.322E-09     44.1138E-03         9.44816        -2.39801        -6.58221        -2.50402         5.36997        -2.39801        -13.9520     605.373E-03    -302.543E-03    -302.831E-03    -302.641E-03     605.373E-03    -302.732E-03    -1.31603E-03     351.323E+03    -578.872E+03    -12.6754E+06    -428.188E+03    -12.6738E+06     199.113E+03    -51.7481E+03         68.8164
              55    -75.6078E-09     42.2791E-03         9.14946        -2.38342        -6.19378        -2.09934         5.05502        -2.38342        -13.5729     605.688E-03    -302.609E-03    -303.078E-03    -302.889E-03     605.687E-03    -302.798E-03    -1.41179E-03     1.14126E+06    -360.756E+03    -11.8732E+06     359.858E+03    -11.8698E+06     417.229E+03     25.5770E+03         68.8568
              56     481.592E-09     40.4445E-03         7.30217        -2.21448        -4.40322        -1.58798         4.48693        -2.21448        -9.97264     605.565E-03    -302.586E-03    -302.979E-03    -302.866E-03     605.565E-03    -302.699E-03    -882.971E-06     745.295E+03    -25.8484E+03    -11.4717E+06     696.056E+03    -11.4696E+06     21.2592E+03     123.357E+03         68.9115
              57    -646.830E-09     38.6127E-03         4.65345        -1.43161        -2.42453        -1.03208         3.70175        -1.87235        -4.01193     605.777E-03    -302.772E-03    -303.006E-03    -302.893E-03     605.777E-03    -302.884E-03    -1.06454E-03     607.764E+03    -101.869E+03    -11.6563E+06    -102.128E+03    -11.6560E+06     607.764E+03    -27.9992E+03         68.9846
              58     831.418E-09     36.7785E-03         3.89135    -934.018E-03        -2.05419    -503.549E-03         2.78145        -1.37476         2.93635     607.253E-03    -303.536E-03    -303.718E-03    -303.717E-03     607.253E-03    -303.536E-03    -909.004E-06     762.116E+03    -448.972E+03    -11.7899E+06     97.4575E+03    -11.7877E+06     213.554E+03     72.2994E+03         69.0795
              59    -746.031E-09     34.9413E-03         5.67137    -764.513E-03        -3.88319    -35.7313E-03         1.82392    -764.513E-03         9.28308     609.627E-03    -304.657E-03    -304.970E-03    -304.717E-03     609.626E-03    -304.909E-03    -627.543E-06     1.40910E+06     738.116E+03    -10.9955E+06     1.26515E+06    -10.9740E+06     860.539E+03    -232.302E+03         69.1987
              60     373.825E-09     33.0957E-03         7.38626    -79.1980E-03        -6.16255     348.675E-03     875.044E-03    -79.1980E-03         13.5208     611.867E-03    -305.384E-03    -306.484E-03    -306.231E-03     611.867E-03    -305.636E-03    -1.28092E-03     1.54020E+06     1.21286E+06    -10.8109E+06     1.39608E+06    -10.7892E+06     1.33528E+06    -228.062E+03         69.3424
              61     872.003E-09     31.2536E-03         7.61101     612.277E-03        -6.96263     637.952E-03     10.4293E-03     612.277E-03         14.5503     615.134E-03    -307.014E-03    -308.121E-03    -307.861E-03     615.134E-03    -307.273E-03    -602.494E-06     356.742E+03    -328.424E+03    -11.7352E+06     -150.65E+03    -11.7081E+06     151.828E+03    -251.697E+03         69.5086
              62    -1.24709E-06     29.3960E-03         6.16260         1.20051        -5.96733     833.042E-03    -637.778E-03         1.20051         12.0259     619.632E-03    -309.408E-03    -310.224E-03    -309.408E-03     619.632E-03    -310.224E-03    -362.424E-06     798.132E+03    -648.016E+03    -11.5950E+06     291.399E+03    -11.5686E+06    -167.764E+03    -269.433E+03         69.6921
              63     421.906E-09     27.5306E-03         3.43467         1.58695        -3.48802     935.158E-03    -988.510E-03         1.58695         6.54042     623.967E-03    -311.467E-03    -312.500E-03    -311.466E-03     623.967E-03    -312.500E-03     246.865E-06     1.43792E+06     441.208E+03    -10.9485E+06     1.40540E+06    -10.9468E+06     472.022E+03     53.7612E+03         69.8837
              64    -1.12071E-06     25.6614E-03         2.04828         1.71687        -2.09029     961.644E-03        -1.00365         1.71687    -442.395E-03     628.075E-03    -313.782E-03    -314.293E-03    -313.814E-03     628.074E-03    -314.260E-03     69.8175E-06     1.15661E+06     891.544E+03    -10.8566E+06     1.12524E+06    -10.8561E+06     922.359E+03    -2.12325E+03         70.0679
              65     1.16511E-06     23.7806E-03         3.68975         1.55159        -3.40191     930.270E-03    -642.432E-03         1.55159        -6.84383     631.792E-03    -315.672E-03    -316.120E-03    -315.703E-03     631.791E-03    -316.088E-03     859.546E-06     1.38269E+06     1.03999E+06    -10.4372E+06     1.27261E+06    -10.4356E+06     1.14844E+06     126.699E+03         70.2238
              66    -1.77449E-06     21.8929E-03         5.79878         1.10687        -4.90882     820.218E-03     69.7416E-03         1.10687        -10.6649     633.675E-03    -316.515E-03    -317.160E-03    -316.514E-03     633.674E-03    -317.160E-03     758.516E-06     1.00579E+06     583.753E+03    -10.4570E+06     873.581E+03    -10.4332E+06     692.207E+03     447.740E+03         70.3260
              67     1.43860E-06     20.0081E-03         6.21536     474.021E-03        -4.51904     589.398E-03         1.10693     474.021E-03        -10.6917     632.257E-03    -315.949E-03    -316.309E-03    -316.080E-03     632.257E-03    -316.178E-03    -70.4288E-06     222.687E+03    -155.713E+03    -11.8375E+06     127.704E+03    -11.8074E+06    -90.8931E+03     142.255E+03         70.3463
              68    -1.24805E-06     18.1274E-03         5.08595    -258.757E-03        -2.48400     197.496E-03         2.40445    -258.757E-03        -7.02235     627.151E-03    -313.376E-03    -313.775E-03    -313.506E-03     627.150E-03    -313.644E-03    -1.22269E-03    -1.17376E+06    -1.29201E+06    -13.7322E+06    -1.24656E+06    -13.7242E+06    -1.22719E+06    -254.819E+03         70.2583
              69     857.467E-09     16.2629E-03         4.53440    -780.592E-03        -1.26192    -366.986E-03         3.85719    -998.325E-03        -1.05521     618.303E-03    -308.889E-03    -309.413E-03    -309.143E-03     618.300E-03    -309.157E-03    -3.25616E-03    -307.175E+03    -454.689E+03    -13.0388E+06    -308.326E+03    -13.0376E+06    -454.689E+03    -113.854E+03         70.0432
              70    -480.351E-09     14.4161E-03         6.43145        -1.45038        -2.31901        -1.06067         5.39084        -1.66811         5.31309     606.376E-03    -302.717E-03    -303.659E-03    -303.653E-03     606.370E-03    -302.717E-03    -4.56969E-03    -1.27193E+06    -1.67308E+06    -14.5625E+06    -1.58211E+06    -14.5594E+06    -1.36602E+06     41.7503E+03         69.6988
              71     1.49579E-06     12.5948E-03         9.40874        -2.28823        -4.31512        -1.82372         6.91734        -2.28823         10.5666     592.462E-03    -295.840E-03    -296.622E-03    -296.614E-03     592.455E-03    -295.840E-03    -5.17149E-03    -239.792E+03    -714.766E+03    -14.6949E+06    -555.928E+03    -14.6859E+06    -407.704E+03    -108.947E+03         69.2485
              72    -1.36017E-06     10.7992E-03         11.8088        -2.89456        -5.99310        -2.59100         8.40667        -2.89456         13.9980     579.929E-03    -289.659E-03    -290.270E-03    -289.749E-03     579.924E-03    -290.175E-03    -4.07862E-03     917.866E+03     434.631E+03    -14.2915E+06     595.564E+03    -14.2845E+06     749.955E+03    -205.807E+03         68.7443
              73     583.124E-09     9.02137E-03         13.4759        -3.46467        -6.97165        -3.30029         9.80450        -3.46467         15.6892     572.366E-03    -285.762E-03    -286.604E-03    -286.086E-03     572.363E-03    -286.278E-03    -2.90431E-03     2.09567E+06     1.75396E+06    -13.1561E+06     1.74750E+06    -13.1233E+06     2.06929E+06     520.522E+03         68.2634
              74    -93.2817E-09     7.25325E-03         14.4553        -3.96155        -7.36094        -3.91808         11.0124        -3.96155         15.8872     572.515E-03    -285.523E-03    -286.993E-03    -286.992E-03     572.515E-03    -285.523E-03    -1.46995E-03     2.63919E+06     2.13194E+06    -12.6324E+06     2.12298E+06    -12.5970E+06     2.61281E+06     361.771E+03         67.9061
              75     1.81822E-06     5.48194E-03         14.7469        -4.34951        -7.19834        -4.42852         11.9770        -4.34951         14.5222     581.841E-03    -290.244E-03    -291.596E-03    -291.386E-03     581.840E-03    -290.453E-03     668.810E-06     3.94435E+06     3.35278E+06    -10.7201E+06     3.43552E+06    -10.6921E+06     3.83364E+06     284.428E+03         67.8076
              76    -2.11479E-06     3.67169E-03         14.4330        -4.59789        -6.55848        -4.84176         12.7163        -4.59789         11.3212     595.197E-03    -296.944E-03    -298.253E-03    -296.943E-03     595.197E-03    -298.253E-03     1.50917E-03      4.2618E+06     3.98697E+06    -8.92621E+06     4.07166E+06    -8.90019E+06     4.15109E+06     359.323E+03         68.1673
              77     489.389E-09     1.84782E-03         13.8366        -4.74411        -5.76849        -5.13962         13.2077        -4.74411         6.28810     606.560E-03    -302.613E-03    -303.947E-03    -302.613E-03     606.560E-03    -303.947E-03     1.06056E-03     2.20131E+06     1.99384E+06    -8.95274E+06     2.02831E+06    -8.94387E+06     2.15796E+06     140.816E+03         69.2716
              78     735.667E-06    -138.778E-18         13.5882        -4.94158        -5.30236        -5.21458         13.5004        -4.94158     989.589E-03     609.776E-03    -304.369E-03    -305.408E-03    -304.368E-03     609.776E-03    -305.408E-03     1.00173E-03     2.67185E+06     2.58191E+06    -7.11899E+06     2.61159E+06    -7.10533E+06     2.62851E+06     362.914E+03         70.0742
              79     1.47537E-03    -138.778E-18         13.5221        -5.02860        -5.14092        -5.07541         13.5058        -5.07780    -323.443E-03     605.815E-03    -301.586E-03    -304.228E-03    -301.586E-03     605.814E-03    -304.228E-03     1.16984E-03     2.30027E+06     2.16537E+06    -7.35800E+06     2.15910E+06    -7.35173E+06     2.30027E+06     224.552E+03         70.1462
              80     2.21469E-03    -138.778E-18         13.3967        -4.98550        -5.06350        -4.98049         13.3917        -5.06350     144.039E-03     600.280E-03    -297.567E-03    -302.713E-03    -297.565E-03     600.277E-03    -302.713E-03     2.77832E-03     2.23715E+06     2.07222E+06    -7.82949E+06     2.06038E+06    -7.81765E+06     2.23715E+06     301.660E+03         70.2864
              81     2.95917E-03    -138.778E-18         13.3110        -4.91668        -5.03474        -4.91489         13.3092        -5.03474    -96.3107E-03     593.527E-03    -292.690E-03    -300.836E-03    -292.685E-03     593.521E-03    -300.836E-03     4.37290E-03     1.78591E+06     1.34061E+06    -9.40427E+06     1.69330E+06    -9.38829E+06     1.41723E+06     410.339E+03         70.5320
              82     3.70729E-03    -138.778E-18         13.1714        -4.80394        -4.99999        -4.80326         13.1707        -4.99999     34.1429E-03     586.498E-03    -287.782E-03    -298.716E-03    -287.774E-03     586.490E-03    -298.716E-03     5.20302E-03     1.25333E+06    -450.619E+03    -11.0409E+06     1.24735E+06    -11.0350E+06    -450.619E+03     251.205E+03         70.9357
              83     4.45959E-03    -138.778E-18         13.0264        -4.69739        -4.95826        -4.69710         13.0261        -4.95826    -53.1187E-03     580.012E-03    -283.489E-03    -296.523E-03    -283.480E-03     580.003E-03    -296.523E-03     5.69687E-03     581.282E+03    -2.73150E+06    -12.5641E+06     580.100E+03    -12.5629E+06    -2.73150E+06     116.009E+03         71.5672
              84     5.21485E-03    -138.778E-18         12.8482        -4.56593        -4.91134        -4.56583         12.8481        -4.91134    -7.25452E-03     574.738E-03    -280.316E-03    -294.422E-03    -280.307E-03     574.729E-03    -294.422E-03     5.48516E-03    -244.579E+03    -4.20792E+06    -14.9168E+06    -261.092E+03    -14.9003E+06    -4.20792E+06     395.158E+03         72.5099
              85     5.97307E-03    -138.778E-18         12.6560        -4.41739        -4.85846        -4.41733         12.6559        -4.85846    -39.1274E-03     570.815E-03    -278.291E-03    -292.524E-03    -278.286E-03     570.810E-03    -292.524E-03     4.09129E-03    -1.13381E+06    -5.63988E+06    -18.0758E+06    -1.15746E+06    -18.0521E+06    -5.63988E+06     100.007E+03         73.8524
              86     6.73192E-03    -138.778E-18         12.4376        -4.24159        -4.79916        -4.24156         12.4375        -4.79916    -24.4721E-03     567.421E-03    -276.580E-03    -290.841E-03    -276.578E-03     567.419E-03    -290.841E-03     1.51783E-03    -1.78289E+06    -7.91802E+06    -20.5377E+06    -1.79245E+06    -20.5281E+06    -7.91802E+06    -404.272E+03         75.6747
              87     7.49284E-03    -138.778E-18         12.2012        -4.05301        -4.73333        -4.05298         12.2012        -4.73333    -38.3175E-03     567.070E-03    -277.607E-03    -289.463E-03    -277.607E-03     567.070E-03    -289.463E-03     500.893E-06    -2.89253E+06    -10.2953E+06    -23.1080E+06    -2.89614E+06    -23.1043E+06    -10.2953E+06    -24.8297E+03         78.0193
              88     8.25238E-03    -138.778E-18         11.9456        -3.85444        -4.66189        -3.85441         11.9456        -4.66189    -36.3439E-03     572.500E-03    -283.823E-03    -288.678E-03    -283.819E-03     572.496E-03    -288.678E-03    -2.01668E-03    -3.89777E+06    -10.7878E+06    -25.4037E+06    -3.89917E+06    -25.4023E+06    -10.7878E+06     127.755E+03         80.8621
              89     9.00417E-03    -138.778E-18         11.6776        -3.64913        -4.58591        -3.64909         11.6775        -4.58591    -43.5000E-03     581.051E-03    -288.462E-03    -292.589E-03    -292.381E-03     581.039E-03    -288.658E-03    -6.25174E-03    -4.30340E+06    -8.76857E+06    -24.7113E+06    -4.30379E+06    -24.7109E+06    -8.76857E+06     66.2376E+03         84.1030
              90     9.74925E-03    -138.778E-18         11.4016        -3.43180        -4.50601        -3.43177         11.4015        -4.50601    -39.9903E-03     593.671E-03    -289.441E-03    -304.230E-03    -304.221E-03     593.662E-03    -289.441E-03    -5.22573E-03    -2.92009E+06    -6.46938E+06    -21.6514E+06    -5.12241E+06    -21.6354E+06    -4.28309E+06     393.316E+03         87.5575
              91     10.4813E-03    -138.778E-18         11.1304        -3.20907        -4.42285        -3.20904         11.1304        -4.42285    -31.0734E-03     615.229E-03    -291.236E-03    -323.993E-03    -323.992E-03     615.228E-03    -291.236E-03    -2.05358E-03     3.18501E+06    -5.28650E+06    -17.1647E+06    -5.43342E+06    -17.0177E+06     3.18501E+06     1.11326E+06         90.9670
              92     11.1987E-03    -138.778E-18         10.8731        -2.99215        -4.33782        -2.99214         10.8730        -4.33782    -24.5857E-03     646.330E-03    -294.332E-03    -351.999E-03    -351.981E-03     646.313E-03    -294.332E-03     5.44564E-03     11.4538E+06    -4.44945E+06    -12.4763E+06    -4.79841E+06    -12.1273E+06     11.4538E+06     1.59395E+06         94.0558
              93     11.8808E-03    -138.778E-18         10.6498        -2.80337        -4.25308        -2.80326         10.6497        -4.25308     29.7191E-03     690.073E-03    -298.985E-03    -391.087E-03    -390.871E-03     689.856E-03    -298.985E-03     27.1745E-03     17.2535E+06    -3.82046E+06    -9.09233E+06    -4.08943E+06    -8.82336E+06     17.2535E+06     1.13095E+06         96.5923
              94     12.5395E-03    -138.778E-18         10.4973        -2.66664        -4.17150        -2.66594         10.4966        -4.17150     175.162E-03     755.724E-03    -305.639E-03    -450.085E-03    -449.109E-03     754.748E-03    -305.639E-03     65.8040E-03     23.4862E+06     1.49817E+06    -4.24475E+06     1.14982E+06    -3.89640E+06     23.4862E+06    -693.319E+03         98.4308
              95     13.1902E-03     2.31478E-03         10.1276        -2.53462        -4.06619        -2.53308         10.1261        -4.06619     276.852E-03     748.639E-03    -308.855E-03    -439.784E-03    -438.314E-03     747.169E-03    -308.855E-03     83.5258E-03     21.8172E+06     1.13058E+06    -4.02842E+06    -592.304E+03    -2.30554E+06     21.8172E+06    -979.216E+03         98.3228
              96     13.2312E-03     4.29355E-03         9.56596        -2.40015        -3.87463        -2.39914         9.56496        -3.87463     192.360E-03     672.139E-03    -307.947E-03    -364.193E-03    -362.827E-03     670.774E-03    -307.947E-03     75.1618E-03     17.9903E+06    -1.63794E+06    -3.51966E+06    -3.51684E+06    -1.64075E+06     17.9903E+06        -104.252         97.0239
              97     13.2423E-03     6.17598E-03         9.06069        -2.29934        -3.57265        -2.29926         9.06061        -3.57265     57.3715E-03     633.797E-03    -307.564E-03    -326.233E-03    -325.222E-03     632.787E-03    -307.564E-03     61.4492E-03     18.0570E+06    -754.227E+03    -1.46701E+06    -1.31842E+06    -902.820E+03     18.0570E+06     96.4151E+03         96.2221
              98     13.2498E-03     8.04171E-03         8.48617        -2.20642        -3.18373        -2.20639         8.48613        -3.18373     38.6275E-03     620.406E-03    -307.371E-03    -313.035E-03    -312.222E-03     619.592E-03    -307.371E-03     54.8545E-03     19.8052E+06    -22.8304E+03    -1.60457E+06    -298.233E+03    -1.32917E+06     19.8052E+06    -309.013E+03         95.5740
              99     13.2521E-03     9.88997E-03         7.81611        -2.10303        -2.73201        -2.10294         7.81603        -2.73201     56.6750E-03     614.192E-03    -306.500E-03    -307.692E-03    -306.026E-03     613.292E-03    -307.266E-03     57.5255E-03     21.1614E+06     177.570E+03    -1.51416E+06     6.94013E+03    -1.34353E+06     21.1614E+06    -484.319E+03         94.9978
             100     13.2545E-03     11.7414E-03         7.07707        -1.98694        -2.24015        -1.98673         7.07686        -2.24015     83.6603E-03     610.356E-03    -303.169E-03    -307.187E-03    -302.193E-03     609.380E-03    -307.187E-03     59.5522E-03     20.4234E+06    -1.01942E+06    -2.10955E+06    -1.11125E+06    -2.01771E+06     20.4234E+06    -281.169E+03         94.4907
             101     13.2568E-03     13.5732E-03         6.29910        -1.70250        -1.89086        -1.85992         6.29873        -1.73307     108.879E-03     606.900E-03    -299.787E-03    -307.113E-03    -298.695E-03     605.808E-03    -307.113E-03     62.8882E-03     23.1145E+06    -68.9456E+03     -1.6405E+06    -182.937E+03    -1.52651E+06     23.1145E+06    -80.5670E+03         94.0645
             102     13.2594E-03     15.4046E-03         5.51669        -1.23583        -1.72874        -1.72820         5.51615        -1.23583     124.064E-03     604.825E-03    -297.868E-03    -306.957E-03    -296.741E-03     603.698E-03    -306.957E-03     63.7512E-03     22.3413E+06    -260.838E+03    -1.60871E+06    -572.906E+03    -1.29665E+06     22.3413E+06     399.960E+03         93.7247
             103     13.2626E-03     17.2318E-03         4.76422    -772.179E-03        -1.59909        -1.59844         4.76357    -772.179E-03     128.338E-03     603.723E-03    -296.961E-03    -306.762E-03    -295.745E-03     602.507E-03    -306.762E-03     66.1336E-03     21.3976E+06    -255.800E+03    -1.05335E+06    -779.744E+03    -529.410E+03     21.3976E+06     128.757E+03         93.4669
             104     13.2649E-03     19.0593E-03         4.07108    -363.233E-03        -1.47215        -1.47149         4.07043    -363.233E-03     120.242E-03     604.586E-03    -298.055E-03    -306.531E-03    -296.768E-03     603.299E-03    -306.531E-03     68.1209E-03     24.3724E+06     67.0549E+03    -452.943E+03    -337.812E+03    -48.0757E+03     24.3724E+06    -21.6498E+03         93.2839
             105     13.2682E-03     20.8876E-03         3.45795    -26.9713E-03        -1.35046        -1.34996         3.45745    -26.9713E-03     97.2593E-03     606.177E-03    -299.919E-03    -306.257E-03    -298.637E-03     604.894E-03    -306.257E-03     68.1291E-03     24.9264E+06     232.182E+03    -479.020E+03    -422.093E+03     175.254E+03     24.9264E+06     90.4452E+03         93.1657
             106     13.2706E-03     22.7186E-03         2.94418     222.082E-03        -1.23757        -1.23735         2.94396     222.082E-03     57.6203E-03     606.818E-03    -300.793E-03    -306.025E-03    -299.596E-03     605.621E-03    -306.025E-03     65.8623E-03     23.8206E+06     358.443E+03    -810.505E+03    -807.688E+03     355.626E+03     23.8206E+06     36.7663E+03         93.0999
             107     13.2726E-03     24.5501E-03         2.54241     373.853E-03        -1.13354        -1.13347         2.54234     373.853E-03     2.62159E-03     606.814E-03    -300.983E-03    -305.831E-03    -299.756E-03     605.587E-03    -305.831E-03     66.6595E-03     23.6063E+06     1.02992E+06    -597.112E+03    -566.503E+03     999.307E+03     23.6063E+06     203.164E+03         93.0772
             108     13.2759E-03     26.3832E-03         2.25627     424.183E-03        -1.03963        -1.03914         2.25578     424.183E-03    -67.9378E-03     608.023E-03    -302.431E-03    -305.592E-03    -301.153E-03     606.745E-03    -305.592E-03     68.1726E-03     24.0503E+06     893.571E+03    -849.333E+03    -751.522E+03      795.76E+03     24.0503E+06    -65.0523E+03         93.0892
             109     13.2778E-03     28.2173E-03         2.08352     375.722E-03    -957.378E-03    -955.252E-03         2.08139     375.722E-03    -152.670E-03     609.108E-03    -303.734E-03    -305.374E-03    -302.537E-03     607.911E-03    -305.374E-03     66.0428E-03     25.9337E+06     812.616E+03    -887.490E+03    -782.288E+03     707.414E+03     25.9337E+06    -50.0509E+03         93.1217
             110     13.2803E-03     30.0530E-03         2.01442     237.314E-03    -884.334E-03    -878.897E-03         2.00898     237.314E-03    -245.503E-03     609.054E-03    -303.866E-03    -305.187E-03    -302.668E-03     607.855E-03    -305.187E-03     66.1002E-03     25.3754E+06     1.47703E+06    -675.508E+03    -635.477E+03     1.43699E+06     25.3754E+06     98.1580E+03         93.1649
             111     13.2826E-03     31.8906E-03         2.03318     23.0593E-03    -818.640E-03    -808.228E-03         2.02276     23.0593E-03    -340.621E-03     610.174E-03    -304.405E-03    -305.769E-03    -303.948E-03     608.931E-03    -304.983E-03     67.4248E-03     25.8441E+06     1.50114E+06    -664.248E+03    -635.583E+03     1.47248E+06     25.8441E+06     69.1896E+03         93.2145
             112     13.2844E-03     33.7283E-03         2.11840    -248.427E-03    -759.588E-03    -743.430E-03         2.10225    -248.427E-03    -428.527E-03     611.107E-03    -304.798E-03    -306.309E-03    -305.140E-03     609.938E-03    -304.798E-03     65.4202E-03     26.4598E+06     1.74340E+06    -1.15087E+06    -1.12480E+06     1.71734E+06     26.4598E+06     211.556E+03         93.2637
             113     13.2864E-03     35.5681E-03         2.24421    -535.734E-03    -722.339E-03    -681.990E-03         2.22275    -554.628E-03    -500.493E-03     610.803E-03    -304.647E-03    -306.156E-03    -304.962E-03     609.608E-03    -304.647E-03     66.0934E-03     26.9446E+06     2.82426E+06    -785.145E+03    -765.659E+03     2.80478E+06     26.9446E+06     232.679E+03         93.3099
             114     13.2889E-03     37.4089E-03         2.38044    -647.041E-03    -870.246E-03    -621.643E-03         2.35504    -870.246E-03    -552.093E-03     610.660E-03    -304.481E-03    -306.179E-03    -304.923E-03     609.405E-03    -304.481E-03     67.8041E-03     27.1166E+06     3.08618E+06    -968.563E+03    -950.515E+03     3.06813E+06     27.1166E+06     125.325E+03         93.3531
             115     13.2907E-03     39.2471E-03         2.49923    -587.496E-03        -1.16930    -560.070E-03         2.47181        -1.16930    -579.315E-03     610.328E-03    -304.323E-03    -306.005E-03    -304.768E-03     609.091E-03    -304.323E-03     67.2874E-03     27.8681E+06     3.59010E+06    -764.503E+03    -763.689E+03     3.58928E+06     27.8681E+06    -54.8992E+03         93.3895
             116     13.2931E-03     41.0815E-03         2.57753    -523.878E-03        -1.42750    -496.498E-03         2.55015        -1.42750    -580.207E-03     610.427E-03    -304.161E-03    -306.266E-03    -305.067E-03     609.228E-03    -304.161E-03     66.2361E-03     29.9866E+06     4.11355E+06    -449.405E+03    -448.479E+03     4.11263E+06     29.9866E+06     34.0437E+03         93.4189
             117     13.2948E-03     42.9197E-03         2.59478    -458.392E-03        -1.62325    -433.080E-03         2.56947        -1.62325    -553.537E-03     610.691E-03    -303.999E-03    -306.692E-03    -305.559E-03     609.558E-03    -303.999E-03     64.4307E-03     29.6601E+06     4.21986E+06    -1.22925E+06    -1.22807E+06     4.21869E+06     29.6601E+06     16.2668E+03         93.4426
             118     13.2965E-03     44.7606E-03         2.53381    -390.412E-03        -1.73839    -368.786E-03         2.51218        -1.73839    -500.775E-03     610.157E-03    -303.870E-03    -306.287E-03    -305.100E-03     608.970E-03    -303.870E-03     65.9011E-03     30.2700E+06     5.04309E+06    -662.225E+03    -657.543E+03     5.03841E+06     30.2700E+06     81.2195E+03         93.4633
             119     13.2990E-03     46.5993E-03         2.38097    -317.628E-03        -1.76024    -300.564E-03         2.36390        -1.76024    -427.383E-03     609.306E-03    -303.740E-03    -305.566E-03    -304.305E-03     608.045E-03    -303.740E-03     67.8953E-03     31.6057E+06     4.99290E+06    -1.01308E+06    -1.00619E+06     4.98600E+06     31.6057E+06     201.033E+03         93.4837
             120     13.3008E-03     48.4344E-03         2.13342    -242.843E-03        -1.68308    -230.609E-03         2.12119        -1.68308    -339.478E-03     609.108E-03    -303.607E-03    -305.500E-03    -304.230E-03     607.838E-03    -303.607E-03     68.1143E-03     34.5249E+06     6.00236E+06    -899.818E+03    -850.108E+03     5.95265E+06     34.5249E+06     508.824E+03         93.5024
             121     13.3023E-03     50.2687E-03         1.79501    -168.955E-03        -1.50773    -161.384E-03         1.78743        -1.50773    -242.388E-03     609.164E-03    -303.461E-03    -305.703E-03    -304.466E-03     607.927E-03    -303.461E-03     67.2218E-03     34.0194E+06     7.53565E+06    -1.01094E+06    -952.678E+03     7.47739E+06     34.0194E+06     649.379E+03         93.5194
             122     13.3044E-03     52.1040E-03         1.37397    -96.0570E-03        -1.24101    -92.4675E-03         1.37038        -1.24101    -143.134E-03     608.763E-03    -303.313E-03    -305.450E-03    -304.226E-03     607.539E-03    -303.313E-03     66.8731E-03     31.8495E+06     8.34328E+06    -1.39349E+06    -1.38149E+06     8.33127E+06     31.8495E+06     162.362E+03         93.5374
             123     13.3061E-03     53.9387E-03     884.239E-03    -24.5138E-03    -895.970E-03    -23.5941E-03     883.320E-03    -895.970E-03    -48.7004E-03     607.980E-03    -303.190E-03    -304.790E-03    -303.556E-03     606.746E-03    -303.190E-03     67.0816E-03     35.3062E+06     9.40072E+06    -485.412E+03    -481.464E+03     9.39677E+06     35.3062E+06     54.8288E+03         93.5586
             124     13.3087E-03     55.7709E-03     366.782E-03     22.6186E-03    -491.562E-03     44.1398E-03     345.261E-03    -491.562E-03     35.4824E-03     607.521E-03    -303.048E-03    -304.473E-03    -303.243E-03     606.291E-03    -303.048E-03     66.9477E-03     36.9989E+06     9.83114E+06    -887.856E+03    -865.556E+03     9.80884E+06     36.9989E+06     455.981E+03         93.5822
             125     13.3100E-03     57.6029E-03     142.297E-03     91.0824E-03    -395.611E-03     109.189E-03    -220.338E-03    -51.0820E-03     104.071E-03     607.574E-03    -302.901E-03    -304.673E-03    -303.472E-03     606.373E-03    -302.901E-03     66.1307E-03     36.5996E+06     11.5273E+06    -1.76392E+06    -1.74413E+06     11.5075E+06     36.5996E+06     396.942E+03         93.6059
             126     13.3119E-03     59.4368E-03     399.897E-03     176.978E-03    -794.898E-03     170.742E-03    -788.663E-03     399.897E-03     151.753E-03     607.205E-03    -302.778E-03    -304.427E-03    -303.213E-03     605.991E-03    -302.778E-03     66.4765E-03     38.3442E+06     14.0555E+06    -993.485E+03    -990.037E+03     14.0521E+06     38.3442E+06     211.585E+03         93.6325
             127     13.3139E-03     61.2682E-03     835.351E-03     233.862E-03        -1.33896     228.873E-03        -1.33397     835.351E-03     174.643E-03     606.788E-03    -302.639E-03    -304.149E-03    -302.912E-03     605.550E-03    -302.639E-03     67.0953E-03     39.5144E+06     15.0309E+06    -992.103E+03    -984.691E+03     15.0235E+06     39.5144E+06    -46.4568E+03         93.6648
             128     13.3159E-03     63.0987E-03         1.22992     287.396E-03        -1.83525     283.831E-03        -1.83168         1.22992     171.335E-03     606.336E-03    -302.502E-03    -303.834E-03    -302.644E-03     605.146E-03    -302.502E-03     65.7824E-03     41.8251E+06     15.0914E+06    -1.31189E+06    -1.30702E+06     15.0865E+06     41.8251E+06    -249.347E+03         93.7006
             129     13.3179E-03     64.9266E-03         1.56023     335.142E-03        -2.26012     333.082E-03        -2.25806         1.56023     142.474E-03     606.085E-03    -302.366E-03    -303.719E-03    -302.543E-03     604.909E-03    -302.366E-03     65.3783E-03     44.1666E+06     16.6884E+06    -1.19785E+06    -1.19519E+06     16.6857E+06     44.1666E+06     96.3673E+03         93.7378
             130     13.3196E-03     66.7599E-03         1.80708     376.932E-03        -2.59515     376.141E-03        -2.59436         1.80708     89.5550E-03     606.213E-03    -302.220E-03    -303.993E-03    -302.786E-03     605.007E-03    -302.220E-03     66.2211E-03     45.2941E+06     19.0294E+06    -1.31052E+06    -1.30775E+06     19.0266E+06     45.2941E+06     221.334E+03         93.7760
             131     13.3216E-03     68.5916E-03         1.95686     414.204E-03        -2.82798     414.054E-03        -2.82783         1.95686     17.2683E-03     605.983E-03    -302.094E-03    -303.889E-03    -302.638E-03     604.732E-03    -302.094E-03     67.4330E-03     47.5643E+06     20.1863E+06    -1.39297E+06    -1.39213E+06     20.1854E+06     47.5643E+06     6.83669E+03         93.8145
             132     13.3234E-03     70.4212E-03         2.00220     447.032E-03        -2.95248     446.548E-03        -2.95200         2.00220    -68.0021E-03     605.565E-03    -301.981E-03    -303.584E-03    -302.328E-03     604.310E-03    -301.981E-03     67.5169E-03     50.5059E+06     20.7297E+06    -1.32190E+06    -1.31763E+06     20.7255E+06     50.5059E+06     142.274E+03         93.8537
             133     13.3249E-03     72.2491E-03         1.94247     474.918E-03        -2.96737     472.944E-03        -2.96540         1.94247    -158.412E-03     605.072E-03    -301.864E-03    -303.208E-03    -301.987E-03     603.852E-03    -301.864E-03     66.5335E-03     52.7244E+06     21.9443E+06    -1.63729E+06    -1.62939E+06     21.9364E+06     52.7244E+06     431.412E+03         93.8950
             134     13.3271E-03     74.0743E-03         1.78380     496.863E-03        -2.87619     492.199E-03        -2.87153         1.78380    -246.191E-03     604.741E-03    -301.734E-03    -303.006E-03    -301.811E-03     603.546E-03    -301.734E-03     65.8257E-03     55.1090E+06     23.9684E+06    -1.62945E+06    -1.62425E+06     23.9632E+06     55.1090E+06     349.864E+03         93.9390
             135     13.3286E-03     75.9047E-03         1.53849     513.514E-03        -2.69108     505.090E-03        -2.68266         1.53849    -324.771E-03     604.568E-03    -301.611E-03    -302.957E-03    -301.752E-03     603.362E-03    -301.611E-03     66.0989E-03     57.6285E+06     25.1900E+06    -1.79868E+06    -1.79748E+06     25.1888E+06     57.6285E+06     128.694E+03         93.9851
             136     13.3305E-03     77.7318E-03         1.22433     525.215E-03        -2.42978     512.232E-03        -2.41680         1.22433    -388.092E-03     604.314E-03    -301.498E-03    -302.815E-03    -301.579E-03     603.077E-03    -301.498E-03     66.9303E-03     61.0328E+06     26.1032E+06    -1.86176E+06    -1.85839E+06     26.0998E+06     61.0328E+06     220.263E+03         94.0340
             137     13.3322E-03     79.5585E-03     863.300E-03     532.479E-03        -2.11365     514.689E-03        -2.09586     863.300E-03    -430.369E-03     603.988E-03    -301.375E-03    -302.613E-03    -301.370E-03     602.745E-03    -301.375E-03     67.0806E-03     64.6160E+06     28.3486E+06    -1.49970E+06    -1.48596E+06     28.3348E+06     64.6160E+06     623.222E+03         94.0873
             138     13.3344E-03     81.3845E-03     605.095E-03     410.461E-03        -1.76564     513.619E-03        -1.74355     479.846E-03    -447.213E-03     603.858E-03    -301.238E-03    -302.620E-03    -301.378E-03     602.616E-03    -301.238E-03     67.0482E-03     66.8309E+06     30.9206E+06    -1.79761E+06    -1.78524E+06     30.9083E+06     66.8309E+06     589.609E+03         94.1427
             139     13.3359E-03     83.2100E-03     533.668E-03     99.4559E-03        -1.40938     508.560E-03        -1.38427     99.4559E-03    -437.852E-03     603.868E-03    -301.111E-03    -302.757E-03    -301.530E-03     602.641E-03    -301.111E-03     66.6630E-03     70.2083E+06     32.7317E+06    -2.24653E+06    -2.24398E+06     32.7291E+06     70.2083E+06     283.642E+03         94.1982
             140     13.3379E-03     85.0368E-03     525.777E-03    -252.643E-03        -1.06874     499.890E-03        -1.04285    -252.643E-03    -402.559E-03     603.419E-03    -301.000E-03    -302.419E-03    -301.184E-03     602.185E-03    -301.000E-03     66.8225E-03     74.7071E+06     34.7626E+06    -2.28466E+06    -2.27418E+06     34.7521E+06     74.7071E+06     533.051E+03         94.2550
             141     13.3397E-03     86.8620E-03     513.385E-03    -523.728E-03    -796.667E-03     489.741E-03    -743.399E-03    -553.352E-03    -344.720E-03     602.947E-03    -300.884E-03    -302.062E-03    -300.802E-03     601.686E-03    -300.884E-03     67.5124E-03     79.4973E+06     36.8973E+06    -2.39161E+06    -2.38119E+06     36.8868E+06     79.4973E+06     330.617E+03         94.3145
             142     13.3419E-03     88.6853E-03     498.025E-03    -524.985E-03    -783.600E-03     480.033E-03    -506.992E-03    -783.600E-03    -268.608E-03     602.535E-03    -300.764E-03    -301.772E-03    -300.515E-03     601.279E-03    -300.764E-03     67.3644E-03     85.1171E+06     37.9381E+06    -2.24951E+06    -2.24545E+06     37.9340E+06     85.1171E+06     163.663E+03         94.3755
             143     13.3439E-03     90.5093E-03     480.822E-03    -358.850E-03    -929.425E-03     470.819E-03    -348.847E-03    -929.425E-03    -179.232E-03     602.138E-03    -300.639E-03    -301.498E-03    -300.241E-03     600.880E-03    -300.639E-03     67.3792E-03     89.6979E+06     39.8050E+06    -2.56450E+06    -2.55552E+06     39.7960E+06     89.6979E+06     615.300E+03         94.4371
             144     13.3457E-03     92.3313E-03     465.608E-03    -282.331E-03    -982.358E-03     462.548E-03    -279.270E-03    -982.358E-03    -83.0472E-03     601.841E-03    -300.507E-03    -301.334E-03    -300.077E-03     600.583E-03    -300.507E-03     67.3549E-03     94.3958E+06     43.1468E+06    -2.68442E+06    -2.67599E+06     43.1384E+06     94.3958E+06     614.368E+03         94.5004
             145     13.3483E-03     94.1531E-03     457.783E-03    -303.988E-03    -939.510E-03     456.955E-03    -303.159E-03    -939.510E-03     14.7126E-03     601.448E-03    -300.360E-03    -301.088E-03    -299.817E-03     600.177E-03    -300.360E-03     67.6980E-03     99.6803E+06     45.1362E+06    -2.86149E+06    -2.85709E+06     45.1318E+06     99.6803E+06     449.564E+03         94.5658
             146     13.3507E-03     95.9759E-03     458.893E-03    -423.469E-03    -804.179E-03     455.109E-03    -419.685E-03    -804.179E-03     109.567E-03     601.232E-03    -300.202E-03    -301.029E-03    -299.742E-03     599.944E-03    -300.202E-03     68.1223E-03     104.837E+06     46.7964E+06    -3.07193E+06    -3.06972E+06     46.7942E+06     104.837E+06     329.221E+03         94.6298
             147     13.3530E-03     97.7962E-03     466.020E-03    -482.483E-03    -733.317E-03     456.890E-03    -620.556E-03    -586.114E-03     198.210E-03     601.043E-03    -300.037E-03    -301.006E-03    -299.718E-03     599.755E-03    -300.037E-03     68.1292E-03     110.087E+06     48.8489E+06     -2.8939E+06    -2.88868E+06     48.8436E+06     110.087E+06     486.319E+03         94.6915
             148     13.3559E-03     99.6165E-03     475.473E-03    -300.419E-03    -905.337E-03     461.550E-03    -891.414E-03    -300.419E-03     275.883E-03     600.493E-03    -299.849E-03    -300.644E-03    -299.362E-03     599.211E-03    -299.849E-03     67.9181E-03     114.294E+06     51.6286E+06    -3.17276E+06    -3.16328E+06     51.6192E+06     114.294E+06     720.749E+03         94.7535
             149     13.3631E-03     103.254E-03     536.258E-03     357.800E-03        -1.58851     479.659E-03        -1.57010     395.985E-03     390.032E-03     598.766E-03    -299.313E-03    -299.453E-03    -298.048E-03     597.422E-03    -299.374E-03     69.4339E-03     122.787E+06     56.5470E+06    -3.42485E+06    -3.41657E+06     56.5387E+06     122.787E+06     611.303E+03         94.8771
             150     13.3673E-03     105.069E-03     762.054E-03     510.940E-03        -1.95117     492.163E-03        -1.93239     762.054E-03     428.077E-03     598.101E-03    -298.993E-03    -299.109E-03    -297.666E-03     596.719E-03    -299.053E-03     70.3713E-03     125.914E+06     59.3586E+06    -3.66719E+06    -3.65817E+06     59.3496E+06     125.914E+06     689.293E+03         94.9317
             151     13.3727E-03     106.885E-03         1.10889     521.872E-03        -2.29448     503.415E-03        -2.27603         1.10889     454.142E-03     597.287E-03    -298.551E-03    -298.736E-03    -297.201E-03     595.881E-03    -298.680E-03     70.9304E-03     128.984E+06     62.0397E+06    -3.49245E+06    -3.48538E+06     62.0326E+06     128.984E+06     640.982E+03         94.9842
             152     13.3785E-03     108.697E-03         1.41483     529.922E-03        -2.59589     512.257E-03        -2.57823         1.41483     468.330E-03     596.188E-03    -297.932E-03    -298.255E-03    -296.506E-03     594.761E-03    -298.255E-03     71.3664E-03     132.128E+06     65.1879E+06    -3.69581E+06    -3.68490E+06     65.1770E+06     132.128E+06     865.652E+03         95.0426
             153     13.3853E-03     110.508E-03         1.66140     536.316E-03        -2.83735     519.620E-03        -2.82065         1.66140     473.266E-03     595.233E-03    -297.452E-03    -297.780E-03    -296.008E-03     593.789E-03    -297.780E-03     71.7495E-03     134.559E+06     68.4062E+06    -3.93411E+06    -3.92295E+06     68.3950E+06     134.559E+06     897.856E+03         95.1149
             154     13.3918E-03     112.319E-03         1.83373     540.669E-03        -3.00500     524.924E-03        -2.98926         1.83373     471.365E-03     594.459E-03    -297.157E-03    -297.302E-03    -295.717E-03     593.008E-03    -297.291E-03     71.8973E-03     136.861E+06     71.3256E+06    -3.93075E+06    -3.92290E+06     71.3178E+06     136.861E+06     733.642E+03         95.2021
             155     13.3983E-03     114.127E-03         1.92127     541.178E-03        -3.08798     526.322E-03        -3.07312         1.92127     463.359E-03     593.859E-03    -296.805E-03    -297.053E-03    -295.602E-03     592.408E-03    -296.805E-03     71.8421E-03     139.076E+06     73.6128E+06    -4.03859E+06    -4.03600E+06     73.6102E+06     139.076E+06     438.756E+03         95.3043
             156     13.4047E-03     115.934E-03         1.91900     537.365E-03        -3.08049     523.412E-03        -3.06654         1.91900     448.447E-03     593.338E-03    -296.324E-03    -297.014E-03    -295.581E-03     591.905E-03    -296.324E-03     71.3916E-03     141.311E+06     75.8584E+06    -3.82920E+06    -3.82284E+06     75.8520E+06     141.311E+06     652.060E+03         95.4261
             157     13.4110E-03     117.741E-03         1.82787     530.978E-03        -2.98570     518.010E-03        -2.97273         1.82787     426.305E-03     592.816E-03    -295.860E-03    -296.956E-03    -295.534E-03     591.394E-03    -295.860E-03     71.0848E-03     143.549E+06     78.8245E+06    -4.18958E+06    -4.18117E+06     78.8161E+06     143.549E+06     823.345E+03         95.5695
             158     13.4168E-03     119.547E-03         1.65397     523.629E-03        -2.81235     511.729E-03        -2.80045         1.65397     397.766E-03     591.883E-03    -295.425E-03    -296.458E-03    -295.053E-03     590.478E-03    -295.425E-03     70.6046E-03     146.099E+06     82.3946E+06    -4.03873E+06    -4.02623E+06     82.3821E+06     146.099E+06     1.00016E+06         95.7317
             159     13.4228E-03     121.350E-03         1.40811     516.086E-03        -2.57368     505.197E-03        -2.56279         1.40811     366.194E-03     590.762E-03    -295.008E-03    -295.755E-03    -294.345E-03     589.353E-03    -295.008E-03     70.6370E-03     148.297E+06     86.7355E+06    -4.33845E+06    -4.31922E+06     86.7163E+06     148.297E+06     1.32328E+06         95.9111
             160     13.4282E-03     123.153E-03         1.10561     509.928E-03        -2.28808     499.958E-03        -2.27811         1.10561     333.430E-03     590.138E-03    -294.609E-03    -295.529E-03    -294.126E-03     588.735E-03    -294.609E-03     70.4456E-03     151.297E+06     91.4650E+06    -4.39990E+06    -4.38805E+06     91.4531E+06     151.297E+06     1.00363E+06         96.1034
             161     13.4331E-03     124.953E-03     765.435E-03     507.521E-03        -1.97809     498.450E-03        -1.96902     765.435E-03     299.760E-03     589.651E-03    -294.227E-03    -295.424E-03    -294.031E-03     588.258E-03    -294.227E-03     70.1799E-03     153.783E+06     94.5854E+06    -4.60501E+06    -4.60057E+06     94.5809E+06     153.783E+06     663.467E+03         96.3114
             162     13.4385E-03     126.754E-03     551.790E-03     368.583E-03        -1.66934     503.154E-03        -1.66116     409.041E-03     266.589E-03     588.992E-03    -293.858E-03    -295.134E-03    -293.752E-03     587.609E-03    -293.858E-03     69.8674E-03     155.984E+06      96.291E+06    -4.41754E+06    -4.41457E+06     96.2880E+06     155.984E+06     532.745E+03         96.5411
             163     13.4430E-03     128.553E-03     524.073E-03     59.1377E-03        -1.38947     516.832E-03        -1.38223     59.1377E-03     234.978E-03     588.265E-03    -293.509E-03    -294.756E-03    -293.386E-03     586.895E-03    -293.509E-03     69.5081E-03     158.782E+06     99.5038E+06    -4.18124E+06    -4.16342E+06     99.4860E+06     158.782E+06     1.15354E+06         96.7906
             164     13.4479E-03     130.350E-03     548.629E-03    -261.620E-03        -1.16465     542.438E-03        -1.15846    -261.620E-03     205.555E-03     587.431E-03    -293.175E-03    -294.257E-03    -292.883E-03     586.058E-03    -293.175E-03     69.5349E-03     161.336E+06     103.734E+06    -4.79022E+06    -4.77246E+06     103.717E+06     161.336E+06     1.15424E+06         97.0596
             165     13.4524E-03     132.147E-03     586.682E-03    -532.012E-03        -1.01920     581.636E-03        -1.01415    -532.012E-03     179.517E-03     586.849E-03    -292.853E-03    -293.996E-03    -292.614E-03     585.467E-03    -292.853E-03     69.7120E-03     164.016E+06     106.942E+06    -4.91933E+06    -4.91654E+06     106.939E+06     164.016E+06     544.328E+03         97.3445
             166     13.4564E-03     133.943E-03     639.263E-03    -733.158E-03    -974.932E-03     635.400E-03    -971.069E-03    -733.158E-03     157.131E-03     586.508E-03    -292.552E-03    -293.957E-03    -292.584E-03     585.136E-03    -292.552E-03     69.4733E-03     167.121E+06     110.819E+06    -4.49535E+06    -4.48754E+06     110.811E+06     167.121E+06     922.265E+03         97.6439
             167     13.4603E-03     135.737E-03     708.617E-03    -849.252E-03        -1.04907     705.887E-03        -1.04634    -849.252E-03     137.262E-03     585.975E-03    -292.261E-03    -293.714E-03    -292.354E-03     584.615E-03    -292.261E-03     69.1334E-03     169.753E+06     115.824E+06    -4.72792E+06    -4.71171E+06     115.807E+06     169.753E+06     1.38474E+06         97.9672
             168     13.4646E-03     137.531E-03     795.939E-03    -868.763E-03        -1.25314     794.134E-03        -1.25133    -868.763E-03     120.158E-03     585.267E-03    -291.979E-03    -293.289E-03    -291.936E-03     583.914E-03    -291.979E-03     68.9021E-03     172.789E+06     121.079E+06    -4.86210E+06    -4.84627E+06     121.063E+06     172.789E+06     1.39090E+06         98.3170
             169     13.4682E-03     139.324E-03     899.658E-03    -785.424E-03        -1.59122     898.498E-03        -1.59006    -785.424E-03     106.009E-03     584.702E-03    -291.713E-03    -292.989E-03    -291.637E-03     583.350E-03    -291.713E-03     68.8348E-03     176.221E+06     126.340E+06    -4.92699E+06    -4.91651E+06     126.329E+06     176.221E+06     1.17252E+06         98.6820
             170     13.4718E-03     141.116E-03         1.01777    -598.435E-03        -2.05961         1.01703        -2.05887    -598.435E-03     94.0255E-03     584.388E-03    -291.461E-03    -292.927E-03    -291.572E-03     583.033E-03    -291.461E-03     68.9068E-03     179.188E+06     130.823E+06    -5.27335E+06    -5.26624E+06     130.816E+06     179.188E+06     957.732E+03         99.0599
             171     13.4750E-03     142.907E-03         1.14789    -312.167E-03        -2.64796         1.14743        -2.64750    -312.167E-03     82.8231E-03     583.942E-03    -291.229E-03    -292.713E-03    -291.374E-03     582.603E-03    -291.229E-03     68.4720E-03     182.412E+06     135.150E+06    -5.19860E+06    -5.19246E+06     135.143E+06     182.412E+06     915.454E+03         99.4619
             172     13.4782E-03     144.698E-03         1.28716     64.0232E-03        -3.34054         1.28688        -3.34026     64.0232E-03     71.2725E-03     583.237E-03    -291.013E-03    -292.224E-03    -290.891E-03     581.904E-03    -291.013E-03     68.2646E-03     185.111E+06     139.045E+06    -5.04824E+06    -5.04247E+06     139.039E+06     185.111E+06     889.245E+03         99.8905
             173     13.4812E-03     146.488E-03         1.43243     515.644E-03        -4.11383         1.43226        -4.11366     515.644E-03     60.9036E-03     582.544E-03    -290.805E-03    -291.739E-03    -290.390E-03     581.195E-03    -290.805E-03     68.6449E-03     187.429E+06     142.816E+06    -5.17209E+06    -5.16549E+06     142.810E+06     187.429E+06     957.053E+03         100.341
             174     13.4843E-03     148.276E-03         1.57850         1.02344        -4.93928         1.57839        -4.93918         1.02344     52.3510E-03     582.015E-03    -290.613E-03    -291.401E-03    -290.052E-03     580.665E-03    -290.613E-03     68.5994E-03     190.381E+06     147.869E+06    -5.41363E+06    -5.40427E+06     147.860E+06     190.381E+06     1.19689E+06         100.810
             175     13.4864E-03     150.063E-03         1.74609         1.53794        -5.78533         1.71896        -5.78526         1.56500     44.2151E-03     581.321E-03    -290.448E-03    -290.873E-03    -289.541E-03     579.989E-03    -290.448E-03     68.1101E-03     193.187E+06     152.909E+06    -5.46213E+06    -5.45548E+06     152.902E+06     193.187E+06     1.00999E+06         101.300
             176     13.4891E-03     151.848E-03         2.11632         1.85084        -6.61787         1.85080        -6.61783         2.11632     35.3237E-03     580.845E-03    -290.288E-03    -290.557E-03    -289.203E-03     579.491E-03    -290.288E-03     68.6570E-03     194.922E+06     156.472E+06    -5.52616E+06    -5.52345E+06     156.469E+06     194.922E+06     623.343E+03         101.815
             177     13.4910E-03     153.636E-03         2.65232         1.97173        -7.40517         1.97171        -7.40515         2.65232     27.0540E-03     580.762E-03    -290.135E-03    -290.627E-03    -289.258E-03     579.393E-03    -290.135E-03     69.0173E-03     197.180E+06     161.369E+06    -5.08959E+06    -5.07358E+06     161.353E+06     197.180E+06     1.34700E+06         102.354
             178     13.4930E-03     155.420E-03         3.14738         2.07490        -8.11294         2.07489        -8.11293         3.14738     19.5127E-03     579.745E-03    -289.442E-03    -290.304E-03    -288.393E-03     578.415E-03    -290.022E-03     67.9619E-03     200.465E+06     168.631E+06    -5.85048E+06    -5.82837E+06     168.609E+06     200.465E+06     1.91500E+06         102.923
             179     13.4950E-03     157.200E-03         3.57720         2.15584        -8.70714         2.15584        -8.70714         3.57720     13.6678E-03     578.420E-03    -288.493E-03    -289.927E-03    -287.178E-03     577.105E-03    -289.927E-03     67.4704E-03     204.500E+06     175.718E+06    -6.00700E+06    -5.99883E+06     175.710E+06     204.500E+06     1.14965E+06         103.534
             180     13.4968E-03     158.983E-03         3.92094         2.21395        -9.16386         2.21395        -9.16385         3.92094     11.5069E-03     578.267E-03    -288.452E-03    -289.815E-03    -287.106E-03     576.921E-03    -289.815E-03     68.2622E-03     207.356E+06     180.173E+06    -5.83079E+06     -5.8272E+06     180.170E+06     207.356E+06     815.426E+03         104.184
             181     13.4980E-03     160.766E-03         4.16177         2.24712        -9.46644         2.24712        -9.46643         4.16177     12.5820E-03     578.467E-03    -288.748E-03    -289.719E-03    -287.389E-03     577.109E-03    -289.719E-03     68.5910E-03     209.110E+06     183.338E+06    -6.38612E+06    -6.38409E+06     183.336E+06     209.110E+06     459.505E+03         104.866
             182     13.4991E-03     162.547E-03         4.28712         2.25419        -9.59884         2.25418        -9.59883         4.28712     16.5066E-03     578.234E-03    -288.582E-03    -289.652E-03    -287.219E-03     576.871E-03    -289.652E-03     68.6979E-03     210.934E+06     185.741E+06    -5.79872E+06    -5.79817E+06     185.740E+06     210.934E+06     251.889E+03         105.603
             183     13.5002E-03     164.329E-03         4.28967         2.23508        -9.55051         2.23506        -9.55049         4.28967     24.6950E-03     577.541E-03    -287.937E-03    -289.604E-03    -286.576E-03     576.180E-03    -289.604E-03     68.5705E-03     212.688E+06     186.584E+06    -6.07746E+06    -6.07656E+06     186.583E+06     212.688E+06     410.932E+03         106.421
             184     13.5013E-03     166.107E-03         4.16836         2.18828        -9.32327         2.18825        -9.32324         4.16836     38.5989E-03     577.554E-03    -288.002E-03    -289.552E-03    -286.622E-03     576.173E-03    -289.552E-03     69.0742E-03     215.421E+06     187.754E+06    -6.58279E+06    -6.58197E+06     187.753E+06     215.421E+06    -34.8728E+03         107.374
             185     13.5021E-03     167.888E-03         3.92837         2.11535        -8.92531         2.11527        -8.92523         3.92837     57.5773E-03     579.082E-03    -288.974E-03    -290.107E-03    -288.210E-03     577.675E-03    -289.465E-03     69.8678E-03     216.741E+06     187.893E+06    -6.10702E+06    -6.10640E+06     187.892E+06     216.741E+06    -99.5516E+03         108.652
             186     13.5028E-03     169.675E-03         3.58047         2.02105        -8.37057         2.02088        -8.37039         3.58047     82.5442E-03     581.025E-03    -289.369E-03    -291.657E-03    -290.230E-03     579.598E-03    -289.369E-03     70.5145E-03     213.729E+06     184.923E+06    -6.59167E+06    -6.58365E+06     184.915E+06     213.729E+06    -748.581E+03         110.376
             187     13.5032E-03     171.462E-03         3.14056         1.90457        -7.67919         1.90421        -7.67883         3.14056     115.039E-03     582.623E-03    -289.289E-03    -293.334E-03    -291.901E-03     581.190E-03    -289.289E-03     70.7955E-03     208.638E+06     179.408E+06    -6.12573E+06    -6.11311E+06     179.395E+06     208.638E+06    -1.52050E+06         112.336
             188     13.5037E-03     173.253E-03         2.62932         1.76737        -6.87545         1.76665        -6.87473         2.62932     154.547E-03     584.957E-03    -289.209E-03    -295.748E-03    -294.284E-03     583.493E-03    -289.209E-03     71.7513E-03     205.989E+06     174.086E+06    -6.20074E+06    -6.19235E+06     174.078E+06     205.989E+06    -1.22803E+06         114.391
             189     13.5041E-03     175.049E-03         2.07100         1.61509        -5.98651         1.61374        -5.98515         2.07100     199.460E-03     588.740E-03    -289.109E-03    -299.631E-03    -298.126E-03     587.235E-03    -289.109E-03     73.0833E-03     208.722E+06     172.162E+06    -4.84656E+06    -4.83079E+06     172.147E+06     208.722E+06     453.536E+03         116.584
             190     13.5047E-03     176.855E-03         1.57196         1.36845        -5.04375         1.44564        -5.04129         1.49231     248.115E-03     592.866E-03    -289.006E-03    -303.860E-03    -302.324E-03     591.331E-03    -289.006E-03     74.1457E-03     211.811E+06     170.891E+06    -7.01643E+06    -6.97977E+06     170.855E+06     211.811E+06    -466.845E+03         118.934
             191     13.5051E-03     178.665E-03         1.26910     920.710E-03        -4.07899         1.26493        -4.07483     920.710E-03     293.790E-03     597.596E-03    -288.873E-03    -308.723E-03    -307.132E-03     596.005E-03    -288.873E-03     75.8639E-03     212.063E+06     164.779E+06    -5.85671E+06    -5.83100E+06     164.754E+06     212.063E+06    -1.79916E+06         121.587
             192     13.5061E-03     180.488E-03         1.08342     382.422E-03        -3.12057         1.07698        -3.11413     382.422E-03     324.405E-03     603.192E-03    -288.689E-03    -314.503E-03    -312.893E-03     601.582E-03    -288.689E-03     76.8084E-03     206.775E+06     155.240E+06    -5.92203E+06    -5.89444E+06     155.212E+06     206.775E+06    -1.77213E+06         124.655
             193     13.5065E-03     182.319E-03     890.964E-03    -98.9762E-03        -2.19810     882.151E-03        -2.18929    -98.9762E-03     325.693E-03     609.392E-03    -288.481E-03    -320.911E-03    -319.279E-03     607.760E-03    -288.481E-03     77.8502E-03     200.167E+06     147.411E+06    -5.41644E+06    -5.38848E+06     147.383E+06     200.167E+06    -1.13450E+06         128.001
             194     13.5075E-03     184.163E-03     693.175E-03    -504.405E-03        -1.33765     682.918E-03        -1.32739    -504.405E-03     284.926E-03     616.214E-03    -288.274E-03    -327.940E-03    -326.312E-03     614.586E-03    -288.274E-03     78.3384E-03     195.910E+06     141.358E+06    -5.67451E+06    -5.63787E+06     141.322E+06     195.910E+06    -1.29684E+06         131.264
             195     13.5073E-03     186.020E-03     497.669E-03    -441.377E-03    -941.065E-03     487.602E-03    -551.081E-03    -821.295E-03     201.350E-03     622.685E-03    -288.084E-03    -334.601E-03    -332.993E-03     621.078E-03    -288.084E-03     78.3944E-03     190.609E+06     133.698E+06    -4.48710E+06    -4.45057E+06     133.661E+06     190.609E+06    -1.32897E+06         133.986
             196     13.5080E-03     187.888E-03     413.447E-03     5.33693E-03        -1.04524     300.415E-03     118.369E-03        -1.04524     92.4943E-03     627.817E-03    -287.940E-03    -339.877E-03    -338.279E-03     626.220E-03    -287.940E-03     78.5668E-03     184.211E+06     121.538E+06    -6.25312E+06    -6.05969E+06     121.344E+06     184.211E+06    -3.23486E+06         135.999
             197     13.5077E-03     189.763E-03     661.577E-03     130.051E-03        -1.18153     131.151E-03     660.476E-03        -1.18153    -8.15936E-03     630.906E-03    -287.855E-03    -343.051E-03    -341.484E-03     629.339E-03    -287.855E-03     78.0665E-03     182.181E+06     107.937E+06    -3.74843E+06    -3.51058E+06     107.699E+06     182.181E+06    -2.07708E+06         137.439
             198     13.5089E-03     191.640E-03         1.05554    -1.88700E-03        -1.24576    -688.113E-06         1.05435        -1.24576    -70.9601E-03     630.011E-03    -287.860E-03    -342.150E-03    -340.674E-03     628.535E-03    -287.860E-03     75.6885E-03     178.716E+06     94.0991E+06    -5.93327E+06    -5.47185E+06     93.6377E+06     178.716E+06    -3.24452E+06         138.159
             199     13.5084E-03     193.509E-03         1.27426    -79.8586E-03        -1.26215    -78.4025E-03         1.27281        -1.26215    -88.4303E-03     621.677E-03    -288.045E-03    -333.632E-03    -332.303E-03     620.348E-03    -288.045E-03     71.1892E-03     178.829E+06     82.8299E+06    -1.97831E+06    -1.40308E+06     82.2546E+06     178.829E+06    -2.47693E+06         138.235
             200     13.5109E-03     195.350E-03         1.29006    -85.3827E-03        -1.25824    -84.1223E-03         1.28880        -1.25824    -83.2320E-03     602.957E-03    -288.454E-03    -314.503E-03    -313.400E-03     601.854E-03    -288.454E-03     63.4889E-03     170.857E+06     70.0262E+06    -6.62601E+06    -5.64008E+06     69.0403E+06     170.857E+06    -3.84803E+06         138.102
             201     13.5109E-03     197.147E-03         1.09749    -3.48179E-03        -1.25556    -1.60459E-03         1.09561        -1.25556    -87.4422E-03     566.444E-03    -270.481E-03    -295.963E-03    -276.372E-03     565.686E-03    -289.314E-03     50.3184E-03     159.322E+06     59.2704E+06     1.34844E+06     3.55484E+06     57.0640E+06     159.322E+06    -2.16448E+06         137.915
             202     13.5147E-03     198.861E-03     756.140E-03     146.585E-03        -1.26044     149.446E-03     753.279E-03        -1.26044    -79.6420E-03     482.333E-03    -190.637E-03    -291.697E-03    -190.344E-03     482.041E-03    -291.697E-03     17.8775E-03     133.732E+06     52.9456E+06    -2.68342E+06      657.59E+03     49.6046E+06     133.732E+06    -5.08090E+06         136.040
             203     12.5620E-03     200.264E-03     605.347E-03     188.902E-03        -1.31540     191.868E-03     602.382E-03        -1.31540    -69.2998E-03     434.273E-03    -136.191E-03    -298.083E-03    -134.276E-03     432.358E-03    -298.083E-03    -50.5406E-03     87.6769E+06     13.0119E+06    -47.5921E+06    -28.4462E+06    -6.13402E+06     87.6769E+06    -11.0300E+06         124.630
             204     11.6585E-03     200.074E-03     692.697E-03     95.5845E-03        -1.41852     101.816E-03     686.465E-03        -1.41852    -118.418E-03     459.087E-03    -152.249E-03    -306.838E-03    -144.435E-03     451.273E-03    -306.838E-03    -132.934E-03     82.1087E+06     7.26511E+06    -39.1064E+06    -21.4180E+06    -10.4233E+06     82.1087E+06    -5.82351E+06         104.863
             205     10.8065E-03     199.856E-03     787.970E-03    -19.6681E-03        -1.52277    -12.1786E-03     780.480E-03        -1.52277    -150.881E-03     485.574E-03    -170.785E-03    -314.789E-03    -155.608E-03     470.396E-03    -314.789E-03    -196.384E-03     91.1285E+06     18.6435E+06    -24.5207E+06    -16.2318E+06     10.3546E+06     91.1285E+06    -10.8613E+06         87.8097
             206     9.98767E-03     199.642E-03     891.099E-03    -162.211E-03        -1.62635    -155.681E-03     884.569E-03        -1.62635    -165.245E-03     513.710E-03    -191.627E-03    -322.083E-03    -170.939E-03     493.021E-03    -322.083E-03    -237.887E-03     94.1076E+06     4.37129E+06    -20.7783E+06    -5.80838E+06    -10.5987E+06     94.1076E+06    -12.2651E+06         77.0235
             207     9.19476E-03     199.440E-03         1.00332    -334.130E-03        -1.72750    -327.875E-03     997.067E-03        -1.72750    -179.408E-03     543.289E-03    -214.559E-03    -328.730E-03    -190.626E-03     519.356E-03    -328.730E-03    -265.060E-03     102.261E+06     6.41503E+06    -13.1326E+06    -379.957E+03    -6.33766E+06     102.261E+06    -9.30813E+06         71.3761
             208     8.42361E-03     199.254E-03         1.12190    -529.649E-03        -1.82445    -524.280E-03         1.11653        -1.82445    -188.011E-03     572.190E-03    -237.525E-03    -334.665E-03    -212.273E-03     546.939E-03    -334.665E-03    -281.469E-03     105.969E+06     8.36398E+06    -12.7125E+06    -550.227E+03    -3.79825E+06     105.969E+06    -10.3394E+06         69.0098
             209     7.67026E-03     199.082E-03         1.24308    -740.968E-03        -1.91587    -735.933E-03         1.23805        -1.91587    -197.559E-03     598.805E-03    -258.929E-03    -339.876E-03    -234.047E-03     573.923E-03    -339.876E-03    -287.816E-03     106.111E+06     12.9098E+06    -14.8383E+06     1.14015E+06    -3.06858E+06     106.111E+06    -13.6628E+06         68.4527
             210     6.93431E-03     198.927E-03         1.36333    -960.408E-03        -2.00099    -955.824E-03         1.35875        -2.00099    -206.157E-03     622.772E-03    -278.360E-03    -344.411E-03    -255.155E-03     599.567E-03    -344.411E-03    -285.280E-03     103.427E+06     16.7549E+06    -17.9075E+06     4.54887E+06    -5.70141E+06     103.427E+06    -16.5197E+06         68.7850
             211     6.20913E-03     198.789E-03         1.48053        -1.18377        -2.07913        -1.17975         1.47651        -2.07913    -203.531E-03     643.736E-03    -295.414E-03    -348.323E-03    -274.676E-03     622.999E-03    -348.323E-03    -275.750E-03     98.5021E+06     20.8527E+06    -19.5145E+06     9.31035E+06    -7.97212E+06     98.5021E+06    -18.1622E+06         69.4986
             212     5.49588E-03     198.662E-03         1.59155        -1.40374        -2.14991        -1.40023         1.58804        -2.14991    -204.322E-03     661.958E-03    -310.278E-03    -351.679E-03    -292.474E-03     644.154E-03    -351.679E-03    -260.351E-03     91.8285E+06     25.7827E+06    -19.3879E+06     15.0383E+06    -8.64348E+06     91.8285E+06    -19.2237E+06         70.3328
             213     4.79117E-03     198.559E-03         1.69584        -1.61277        -2.21344        -1.60997         1.69304        -2.21344    -185.749E-03     678.321E-03    -323.807E-03    -354.515E-03    -309.217E-03     663.731E-03    -354.515E-03    -239.556E-03     85.1034E+06     30.3865E+06    -17.4528E+06     20.8073E+06    -7.87357E+06     85.1034E+06    -19.0723E+06         71.1575
             214     4.09442E-03     198.467E-03         1.78905        -1.80598        -2.26952        -1.80359         1.78665        -2.26952    -182.615E-03     691.563E-03    -334.740E-03    -356.824E-03    -323.346E-03     680.169E-03    -356.824E-03    -214.498E-03     76.2968E+06     32.7701E+06    -16.1197E+06     25.4034E+06    -8.75297E+06     76.2968E+06    -17.4312E+06         71.9073
             215     3.40214E-03     198.389E-03         1.87029        -1.97955        -2.31802        -1.97757         1.86831        -2.31802    -161.678E-03     701.769E-03    -343.045E-03    -358.724E-03    -334.537E-03     693.262E-03    -358.724E-03    -187.121E-03     65.9334E+06     35.2537E+06    -15.8060E+06     29.3031E+06    -9.85536E+06     65.9334E+06    -16.3472E+06         72.5527
             216     2.71412E-03     198.327E-03         1.93946        -2.12973        -2.35874        -2.12853         1.93825        -2.35874    -136.679E-03     710.137E-03    -349.807E-03    -360.330E-03    -343.805E-03     704.134E-03    -360.330E-03    -158.284E-03     57.3233E+06     39.0765E+06    -16.0260E+06     33.9994E+06    -10.9489E+06     57.3233E+06    -15.9074E+06         73.0815
             217     2.02824E-03     198.274E-03         1.99336        -2.25073        -2.39152        -2.24960         1.99224        -2.39152    -131.556E-03     716.676E-03    -355.002E-03    -361.674E-03    -351.037E-03     712.711E-03    -361.674E-03    -129.256E-03     51.6146E+06     42.8151E+06    -15.3544E+06     39.1476E+06    -11.6868E+06     51.6146E+06    -13.9366E+06         73.4891
             218     1.34415E-03     198.237E-03         2.03623        -2.34550        -2.41523        -2.34524         2.03597        -2.41523    -55.5121E-03     721.570E-03    -358.705E-03    -362.865E-03    -356.383E-03     719.248E-03    -362.865E-03    -98.6593E-03     48.6064E+06     42.7651E+06    -15.1814E+06     43.9325E+06    -13.0032E+06     45.2608E+06    -11.2829E+06         73.7764
             219     664.635E-06     198.203E-03         2.06155        -2.40269        -2.43207        -2.40131         2.06018        -2.43207    -120.276E-03     726.147E-03    -361.775E-03    -364.372E-03    -361.736E-03     725.161E-03    -363.425E-03    -62.2367E-03     46.3488E+06     42.7214E+06    -23.9551E+06     44.7855E+06    -22.6737E+06     43.0032E+06    -9.03449E+06         73.9517
             220    -4.36281E-06     196.123E-03         2.00464        -2.20757        -2.22345        -2.20609         2.00317        -2.22345    -80.9783E-03     675.647E-03    -336.687E-03    -338.961E-03    -337.423E-03     675.437E-03    -338.014E-03    -24.7712E-03    -10.4185E+06    -15.9741E+06    -56.4114E+06    -16.0567E+06    -51.0550E+06    -15.6922E+06    -7.55645E+06         72.1581
             221     2.49078E-06     194.261E-03         2.06803        -1.95845        -1.99343        -1.95791         2.06748        -1.99343     89.4304E-03     599.006E-03    -298.597E-03    -300.410E-03    -299.070E-03     598.994E-03    -299.924E-03    -6.81047E-03    -104.125E+06    -134.892E+06    -138.473E+06    -134.448E+06    -108.151E+06    -134.892E+06    -8.82046E+06         68.2760
             222    -1.66196E-06     192.477E-03         2.29879        -1.91473        -1.96684        -1.93629         2.29717        -1.94365     161.567E-03     555.752E-03    -277.477E-03    -278.275E-03    -277.957E-03     555.746E-03    -277.789E-03    -3.10839E-03    -166.563E+06    -232.625E+06    -235.000E+06    -232.428E+06    -167.534E+06    -234.225E+06    -5.90272E+06         64.7718
             223     1.20653E-06     190.772E-03         2.43643        -1.89226        -1.92423        -1.91197         2.43295        -1.90104     242.855E-03     524.127E-03    -261.800E-03    -262.326E-03    -262.015E-03     524.127E-03    -262.112E-03     349.674E-06    -192.697E+06    -233.548E+06    -238.251E+06    -234.096E+06    -195.251E+06    -235.148E+06     463.327E+03         62.3345
             224    -843.657E-09     189.102E-03         2.40081        -1.82506        -1.85190        -1.81869         2.39445        -1.85190     323.756E-03     502.966E-03    -251.272E-03    -251.694E-03    -251.485E-03     502.964E-03    -251.479E-03     2.12883E-03    -154.821E+06    -155.320E+06    -193.587E+06    -155.680E+06    -192.728E+06    -155.320E+06     1.90339E+06         60.8122
             225     518.742E-09     187.465E-03         2.14297        -1.68598        -1.71541        -1.68477         2.13039        -1.70404     428.829E-03     489.156E-03    -244.172E-03    -244.984E-03    -244.769E-03     489.148E-03    -244.379E-03     4.67014E-03    -109.950E+06    -111.373E+06    -185.474E+06    -111.174E+06    -185.455E+06    -110.167E+06    -290.599E+03         60.0005
             226     421.886E-09     185.843E-03         1.66102        -1.46343        -1.49391        -1.45641         1.62352        -1.46343     639.856E-03     483.587E-03    -241.135E-03    -242.452E-03    -242.438E-03     483.573E-03    -241.135E-03     6.40116E-03    -110.008E+06    -112.191E+06    -193.416E+06    -111.326E+06    -193.303E+06    -110.986E+06    -2.79411E+06         59.7567
             227     656.455E-09     184.225E-03         1.02108        -1.16266        -1.24883        -1.09732     869.571E-03        -1.16266         1.01256     484.909E-03    -242.032E-03    -242.877E-03    -242.856E-03     484.888E-03    -242.032E-03     7.82914E-03    -118.701E+06    -120.892E+06    -211.773E+06    -120.059E+06    -211.628E+06    -119.679E+06    -3.56233E+06         59.9650
             228    -477.661E-09     182.598E-03     571.816E-03    -748.548E-03        -1.34107    -649.085E-03    -120.173E-03    -748.548E-03         1.61947     492.306E-03    -245.802E-03    -246.504E-03    -246.479E-03     492.281E-03    -245.802E-03     8.51375E-03    -130.719E+06    -132.553E+06    -232.509E+06    -132.027E+06    -232.413E+06    -131.340E+06    -3.10023E+06         60.5085
             229     1.32143E-06     180.956E-03     772.127E-03    -210.457E-03        -2.21234    -104.585E-03        -1.33562    -210.457E-03         2.64067     503.760E-03    -251.101E-03    -252.659E-03    -252.635E-03     503.736E-03    -251.101E-03     8.47350E-03    -142.202E+06    -143.733E+06    -252.395E+06    -143.206E+06    -252.300E+06    -142.823E+06    -3.21206E+06         61.2660
             230     188.283E-09     179.291E-03         1.59720     384.397E-03        -3.78093     572.201E-03        -2.75593     384.397E-03         4.21279     516.265E-03    -257.407E-03    -258.858E-03    -258.838E-03     516.245E-03    -257.407E-03     7.89914E-03    -151.270E+06    -152.366E+06    -269.337E+06    -152.414E+06    -269.288E+06    -151.270E+06    -2.07263E+06         62.1224
             231     500.664E-09     177.607E-03         2.75894         1.05304        -5.77526         1.31468        -4.33100         1.05304         6.39957     528.598E-03    -263.951E-03    -264.647E-03    -264.632E-03     528.583E-03    -263.951E-03     6.86815E-03    -158.833E+06    -159.412E+06    -278.997E+06    -159.023E+06    -278.992E+06    -159.226E+06    -677.131E+03         62.9872
             232    -161.868E-09     175.902E-03         4.17261         1.81017        -8.09816         2.06884        -5.99438         1.81017         9.24880     540.595E-03    -269.792E-03    -270.804E-03    -270.016E-03     540.584E-03    -270.568E-03     5.96194E-03    -160.919E+06    -163.997E+06    -286.152E+06    -160.938E+06    -286.134E+06    -163.997E+06    -1.27804E+06         63.7982
             233    -1.05841E-06     174.177E-03         5.81871         2.56412        -10.6369         2.84454        -7.66273         2.56412         12.6623     550.741E-03    -274.687E-03    -276.055E-03    -274.681E-03     550.736E-03    -276.055E-03     4.04540E-03    -158.970E+06    -165.264E+06    -292.916E+06    -162.598E+06    -292.897E+06    -161.655E+06    -796.449E+03         64.5126
             234     196.202E-09     172.435E-03         7.51178         3.29651        -13.2189         3.57009        -9.27720         3.29651         16.2682     558.856E-03    -279.043E-03    -279.813E-03    -279.219E-03     558.853E-03    -279.635E-03     3.20649E-03    -158.362E+06    -164.832E+06    -299.615E+06    -161.994E+06    -299.592E+06    -161.222E+06    -969.382E+03         65.1073
             235     39.1474E-09     170.682E-03         9.00027         4.04439        -15.5923         4.16910        -10.7611         4.04439         19.5413     566.143E-03    -282.926E-03    -283.217E-03    -283.214E-03     566.141E-03    -282.926E-03     2.65652E-03    -158.222E+06    -161.260E+06    -303.429E+06    -158.446E+06    -303.382E+06    -161.083E+06     115.610E+03         65.5809
             236     131.293E-09     168.916E-03         10.0623         4.71738        -17.4401         4.66017        -12.0379         4.71738         21.8526     571.470E-03    -285.603E-03    -285.868E-03    -285.714E-03     571.470E-03    -285.755E-03     1.45831E-03    -157.040E+06    -157.465E+06    -305.425E+06    -157.539E+06    -305.351E+06    -157.040E+06    -551.530E+03         65.9405
             237    -358.261E-09     167.142E-03         10.4390         5.24896        -18.4673         5.01160        -13.0399         5.24896         22.5715     575.024E-03    -287.350E-03    -287.674E-03    -287.521E-03     575.024E-03    -287.503E-03     1.21992E-03    -158.638E+06    -158.954E+06    -310.115E+06    -158.948E+06    -310.054E+06    -158.705E+06    -908.520E+03         66.1984
             238     614.480E-09     165.364E-03         9.96491         5.66386        -18.4838         5.16308        -13.6819         5.66386         21.2900     577.496E-03    -288.446E-03    -289.050E-03    -289.050E-03     577.496E-03    -288.446E-03     291.488E-06    -157.660E+06    -158.183E+06    -310.551E+06    -157.673E+06    -310.538E+06    -158.183E+06     1.00228E+06         66.3724
             239     27.9967E-09     163.583E-03         8.72428         5.89412        -17.5234         5.16029        -13.9594         5.89412         17.9085     578.546E-03    -289.016E-03    -289.531E-03    -289.447E-03     578.546E-03    -289.099E-03    -144.283E-06    -153.789E+06    -156.168E+06    -309.866E+06    -155.713E+06    -309.865E+06    -154.245E+06    -309.414E+03         66.4799
             240    -132.963E-09     161.800E-03         7.01556         5.88580        -15.8434         5.03768        -13.8655         5.88580         12.6202     579.653E-03    -289.535E-03    -290.119E-03    -289.535E-03     579.653E-03    -290.119E-03     81.5658E-06    -150.357E+06    -155.545E+06    -311.663E+06    -152.282E+06    -311.662E+06    -153.622E+06    -489.193E+03         66.5373
             241    -649.580E-09     160.014E-03         5.81682         5.23502        -13.9841         4.75158        -13.3699         5.68606         5.95738     580.209E-03    -289.732E-03    -290.477E-03    -289.731E-03     580.209E-03    -290.477E-03    -620.068E-06    -146.331E+06    -153.167E+06    -313.674E+06    -149.903E+06    -313.672E+06    -149.596E+06     150.695E+03         66.5584
             242     318.851E-09     158.229E-03         5.26811         4.55828        -12.7237         4.32616        -12.4916         5.26811        -1.32563     579.956E-03    -289.701E-03    -290.255E-03    -290.010E-03     579.956E-03    -289.946E-03    -652.218E-06    -143.915E+06    -150.524E+06    -313.469E+06    -147.487E+06    -313.467E+06    -146.953E+06     122.759E+03         66.5540
             243     113.632E-09     156.445E-03         5.35829         4.35504        -12.5648         3.82909        -11.2944         4.61383        -8.45165     579.431E-03    -289.299E-03    -290.132E-03    -290.132E-03     579.430E-03    -289.299E-03    -1.30274E-03    -141.093E+06    -146.385E+06    -307.606E+06    -143.375E+06    -307.577E+06    -144.132E+06     1.29818E+06         66.5337
             244     694.766E-09     154.662E-03         6.60831         3.83028        -13.1938         3.25197        -9.83749         3.83028        -14.6191     578.404E-03    -288.796E-03    -289.608E-03    -289.320E-03     578.404E-03    -289.083E-03    -1.19063E-03    -137.855E+06    -142.896E+06    -302.313E+06    -140.146E+06    -302.275E+06    -140.643E+06     629.594E+03         66.5061
             245    -1.15259E-06     152.881E-03         8.22993         2.95470        -13.8399         2.60739        -8.21741         2.95470        -19.1402     578.014E-03    -288.769E-03    -289.244E-03    -288.956E-03     578.013E-03    -289.056E-03    -1.37207E-03    -134.874E+06    -141.021E+06    -299.031E+06    -138.272E+06    -298.992E+06    -137.662E+06     653.236E+03         66.4787
             246     1.46667E-06     151.100E-03         9.34483         1.96639        -13.8450         1.96388        -6.46404         1.96639        -21.5596     578.250E-03    -288.750E-03    -289.500E-03    -289.499E-03     578.249E-03    -288.750E-03    -1.18302E-03    -131.728E+06    -139.082E+06    -295.267E+06    -135.135E+06    -295.219E+06    -135.723E+06     306.327E+03         66.4570
             247    -664.193E-09     149.317E-03         9.52397     969.473E-03        -12.8814         1.31244        -4.66984     969.473E-03        -21.5690     577.979E-03    -288.575E-03    -289.404E-03    -289.136E-03     577.978E-03    -288.842E-03    -685.708E-06    -128.582E+06    -137.064E+06    -291.775E+06    -133.135E+06    -291.710E+06    -132.576E+06     679.236E+03         66.4429
             248     310.461E-09     147.535E-03         8.61502     53.1200E-03        -10.9076     670.379E-03        -2.96293     53.1200E-03        -19.1650     577.272E-03    -288.479E-03    -288.793E-03    -288.525E-03     577.271E-03    -288.746E-03    -695.170E-06    -125.424E+06    -134.180E+06    -288.137E+06    -129.998E+06    -288.050E+06    -129.692E+06     104.993E+03         66.4386
             249    -282.988E-09     145.757E-03         6.73577    -779.842E-03        -8.03471     107.362E-03        -1.40629    -779.842E-03        -14.6757     577.556E-03    -288.481E-03    -289.075E-03    -288.528E-03     577.556E-03    -289.029E-03    -109.589E-06    -124.180E+06    -132.338E+06    -287.187E+06    -128.148E+06    -287.109E+06    -128.449E+06    -70.6581E+03         66.4466
             250    -497.498E-09     143.975E-03         4.11414        -1.48044        -4.55967    -382.958E-03    -62.5694E-03        -1.48044        -8.60268     578.244E-03    -288.760E-03    -289.483E-03    -288.760E-03     578.244E-03    -289.483E-03    -578.146E-06    -123.278E+06    -130.410E+06    -282.770E+06    -127.207E+06    -282.730E+06    -126.521E+06     1.36113E+06         66.4678
             251     202.167E-09     142.192E-03         2.28511        -1.59102        -2.45425    -813.779E-03         1.04255        -1.98893        -1.56309     578.527E-03    -289.114E-03    -289.413E-03    -289.114E-03     578.527E-03    -289.413E-03    -242.335E-06    -121.710E+06    -126.987E+06    -275.098E+06    -123.766E+06    -275.076E+06    -124.953E+06     837.564E+03         66.4996
             252    -367.785E-09     140.409E-03         3.64528        -1.91718        -3.33782        -1.13021         1.83559        -2.31509         5.69109     578.786E-03    -289.307E-03    -289.479E-03    -289.354E-03     578.786E-03    -289.432E-03    -311.852E-06    -119.277E+06    -122.457E+06    -268.795E+06    -121.332E+06    -268.774E+06    -120.423E+06     899.895E+03         66.5375
             253     427.658E-09     138.627E-03         6.89899        -2.43313        -5.93607        -1.31767         2.28059        -2.43313         12.3017     579.095E-03    -289.374E-03    -289.721E-03    -289.721E-03     579.095E-03    -289.374E-03    -359.587E-06    -119.454E+06    -121.551E+06    -265.605E+06    -120.408E+06    -265.603E+06    -120.600E+06    -23.9363E+03         66.5794
             254     30.7946E-09     136.843E-03         9.45178        -2.30919        -8.47360        -1.41322         2.39139        -2.30919         17.5109     580.104E-03    -289.799E-03    -290.305E-03    -290.305E-03     580.104E-03    -289.799E-03    -10.5206E-06    -117.986E+06    -119.865E+06    -260.957E+06    -118.953E+06    -260.941E+06    -118.913E+06     1.30093E+06         66.6262
             255     269.317E-09     135.056E-03         10.8881        -2.01060        -10.0855        -1.39436         2.19696        -2.01060         20.6604     581.186E-03    -290.322E-03    -290.864E-03    -290.864E-03     581.186E-03    -290.322E-03    -457.699E-06    -112.257E+06    -114.194E+06    -252.713E+06    -113.284E+06    -252.696E+06    -113.184E+06     1.41080E+06         66.6776
             256     242.498E-09     133.269E-03         10.9604        -1.56625        -10.5029        -1.25181         1.70928        -1.56625         21.2551     581.583E-03    -290.460E-03    -291.123E-03    -291.123E-03     581.583E-03    -290.460E-03    -791.815E-06    -111.175E+06    -112.883E+06    -247.374E+06    -112.187E+06    -247.372E+06    -111.874E+06     267.917E+03         66.7309
             257     239.675E-09     131.480E-03         9.62914    -967.050E-03        -9.67110        -1.01459     972.631E-03    -967.050E-03         19.1938     582.163E-03    -290.845E-03    -291.318E-03    -291.318E-03     582.163E-03    -290.845E-03    -807.724E-06    -111.206E+06    -112.812E+06    -241.341E+06    -111.213E+06    -241.333E+06    -112.812E+06     574.592E+03         66.7850
             258    -30.7679E-09     129.691E-03         7.07347    -303.425E-03        -7.69403    -672.861E-03     52.3032E-03    -303.425E-03         14.7385     582.934E-03    -291.373E-03    -291.561E-03    -291.518E-03     582.934E-03    -291.415E-03    -1.13373E-03    -108.534E+06    -110.609E+06    -233.757E+06    -109.713E+06    -233.746E+06    -109.442E+06     1.18618E+06         66.8415
             259    -21.2807E-09     127.899E-03         3.64661     357.809E-03        -4.87016    -235.180E-03    -988.370E-03     357.809E-03         8.39872     583.355E-03    -291.572E-03    -291.783E-03    -291.572E-03     583.355E-03    -291.783E-03    -1.12773E-03    -107.506E+06    -110.216E+06    -227.349E+06    -108.678E+06    -227.344E+06    -109.049E+06     701.846E+03         66.9026
             260    -245.975E-09     126.107E-03         1.56044     868.032E-03        -3.22829     251.164E-03        -2.06959         1.01862         1.00761     584.088E-03    -291.749E-03    -292.339E-03    -291.749E-03     584.088E-03    -292.339E-03    -656.490E-06    -106.074E+06    -109.389E+06    -221.207E+06    -107.860E+06    -221.194E+06    -107.617E+06     1.04907E+06         66.9697
             261    -364.906E-09     124.313E-03         2.78781         1.44932        -4.98449     775.225E-03        -3.12249         1.59991        -6.41126     585.680E-03    -292.562E-03    -293.118E-03    -292.697E-03     585.680E-03    -292.983E-03    -664.453E-06    -104.246E+06    -106.834E+06    -213.688E+06    -106.035E+06    -213.672E+06    -105.061E+06     1.24327E+06         67.0434
             262     557.496E-09     122.516E-03         5.59331         2.04021        -8.35211         1.32175        -4.08055         2.04021        -12.8486     587.043E-03    -293.311E-03    -293.732E-03    -293.731E-03     587.043E-03    -293.311E-03    -1.08609E-03    -101.508E+06    -102.638E+06    -206.677E+06    -101.526E+06    -206.659E+06    -102.638E+06     1.28670E+06         67.1236
             263    -135.475E-09     120.717E-03         7.76159         2.37150        -10.8102         1.83432        -4.88290         2.37150        -17.3144     587.910E-03    -293.590E-03    -294.321E-03    -293.875E-03     587.910E-03    -294.035E-03    -784.854E-06    -98.2783E+06    -99.6855E+06    -198.880E+06    -99.3855E+06    -198.866E+06    -98.5931E+06     859.167E+03         67.2100
             264    -517.425E-09     118.916E-03         8.69132         2.56353        -11.9063         2.28540        -5.50040         2.56353        -19.0655     589.294E-03    -294.384E-03    -294.911E-03    -294.384E-03     589.294E-03    -294.911E-03    -783.794E-06    -97.9631E+06    -99.6040E+06    -191.345E+06    -99.0771E+06    -191.324E+06    -98.5117E+06     965.299E+03         67.3026
             265     390.361E-09     117.112E-03         8.26034         2.57833        -11.4841         2.65805        -5.88185         2.57833        -17.7808     590.585E-03    -294.967E-03    -295.618E-03    -295.536E-03     590.584E-03    -295.048E-03    -1.19119E-03    -96.4835E+06    -97.1926E+06    -182.822E+06    -96.6762E+06    -182.789E+06    -97.0321E+06     1.64745E+06         67.4002
             266     460.058E-09     115.306E-03         6.58061         2.46826        -9.67376         2.89109        -5.98423         2.46826        -13.5206     591.532E-03    -295.414E-03    -296.118E-03    -295.984E-03     591.532E-03    -295.548E-03    -719.619E-06    -94.1075E+06    -95.0582E+06    -172.578E+06    -94.2837E+06    -172.562E+06    -94.8977E+06     1.09834E+06         67.5007
             267    -667.964E-09     113.499E-03         4.33974         2.26234        -7.22367         2.95996        -5.84388         2.26234        -6.87558     592.699E-03    -296.264E-03    -296.436E-03    -296.263E-03     592.699E-03    -296.436E-03    -872.774E-06    -92.3513E+06    -94.7258E+06    -163.181E+06    -93.9788E+06    -163.138E+06    -93.1415E+06     1.54040E+06         67.6008
             268     627.900E-09     111.689E-03         3.39455         1.96694        -5.99510         2.88673        -5.48728         1.96694         1.03975     594.235E-03    -296.879E-03    -297.355E-03    -297.318E-03     594.234E-03    -296.916E-03    -789.319E-06    -89.0922E+06    -92.2002E+06    -152.604E+06    -90.7238E+06    -152.557E+06    -90.6159E+06     1.62942E+06         67.6962
             269     9.21612E-09     109.875E-03         4.86679         1.62920        -7.12574         2.64322        -4.90216         1.62920         8.86836     595.609E-03    -297.515E-03    -298.094E-03    -298.093E-03     595.608E-03    -297.515E-03    -867.253E-06    -85.6457E+06    -87.3931E+06    -140.513E+06    -85.9289E+06    -140.454E+06    -87.1695E+06     1.63952E+06         67.7826
             270     199.572E-09     108.061E-03         7.33304         1.25866        -9.23760         2.21874        -4.12331         1.25866         15.2193     596.531E-03    -298.086E-03    -298.445E-03    -298.225E-03     596.530E-03    -298.306E-03    -897.980E-06    -84.2640E+06    -84.7575E+06    -128.347E+06    -84.5475E+06    -128.287E+06    -84.5338E+06     1.54287E+06         67.8567
             271    -528.097E-09     106.243E-03         9.00800     844.524E-03        -10.5217         1.68293        -3.19660     844.524E-03         18.8829     597.184E-03    -298.175E-03    -299.009E-03    -298.175E-03     597.184E-03    -299.009E-03    -935.334E-06    -83.5029E+06    -83.8124E+06    -115.791E+06    -83.7351E+06    -115.598E+06    -83.7727E+06     1.96485E+06         67.9183
             272    -382.414E-09     104.425E-03         9.16945     427.902E-03        -10.2758         1.08442        -2.19072     427.902E-03         19.1552     597.331E-03    -298.226E-03    -299.104E-03    -298.489E-03     597.330E-03    -298.840E-03    -1.44369E-03    -80.3115E+06    -81.0536E+06    -100.112E+06    -81.4527E+06    -99.7127E+06    -80.3115E+06     2.65343E+06         67.9694
             273     782.505E-09     102.608E-03         7.66011     16.5591E-03        -8.37692     447.391E-03        -1.16421     16.5591E-03         15.9446     597.846E-03    -298.566E-03    -299.280E-03    -299.280E-03     597.845E-03    -298.566E-03    -921.916E-06    -76.4315E+06    -78.8436E+06    -85.5342E+06    -78.1216E+06    -83.8758E+06    -78.8120E+06     1.97095E+06         68.0122
             274     12.6130E-03     99.4954E-03     423.031E-03    -333.424E-03    -822.311E-03     406.083E-03    -805.364E-03    -333.424E-03    -9.44015E-03     600.852E-03    -299.808E-03    -301.044E-03    -299.631E-03     599.439E-03    -299.808E-03     71.2675E-03     98.8227E+06     40.9452E+06    -6.46528E+06    -6.43234E+06     40.9122E+06     98.8227E+06     1.07807E+06         93.5777
             275     11.8704E-03     99.3624E-03     314.520E-03    -339.867E-03    -713.375E-03     291.757E-03    -631.867E-03    -398.612E-03    -6.62203E-03     600.441E-03    -299.721E-03    -300.719E-03    -299.536E-03     599.257E-03    -299.721E-03     64.4850E-03     68.3125E+06     17.9612E+06    -12.0564E+06    -11.9599E+06     17.8647E+06     68.3125E+06     1.53764E+06         90.7288
             276     11.1277E-03     99.2657E-03     209.807E-03    -284.232E-03    -669.299E-03     174.162E-03    -457.242E-03    -460.644E-03    -903.409E-06     599.497E-03    -299.647E-03    -299.850E-03    -299.121E-03     598.768E-03    -299.647E-03     51.0917E-03     43.5322E+06    -1.13770E+06    -16.4418E+06    -16.1430E+06    -1.43651E+06     43.5322E+06     1.89828E+06         87.1052
             277     10.3852E-03     99.1812E-03     146.030E-03    -256.618E-03    -632.510E-03     58.9365E-03    -283.329E-03    -518.705E-03    -1.87471E-03     599.177E-03    -299.524E-03    -299.654E-03    -299.043E-03     598.653E-03    -299.610E-03     43.1635E-03     29.5062E+06    -10.9339E+06    -20.5387E+06    -19.6486E+06    -11.8240E+06     29.5062E+06     2.58881E+06         83.1786
             278     9.64295E-03     99.1136E-03     150.906E-03    -282.369E-03    -606.751E-03    -51.3909E-03    -113.556E-03    -573.268E-03     5.15541E-03     598.911E-03    -299.305E-03    -299.606E-03    -298.965E-03     598.571E-03    -299.606E-03     34.7325E-03     23.9876E+06    -15.1034E+06    -24.4200E+06    -22.8367E+06    -16.6867E+06     23.9876E+06     3.43190E+06         79.4122
             279     8.90074E-03     99.0598E-03     204.064E-03    -314.992E-03    -624.043E-03    -161.755E-03     50.8272E-03    -624.043E-03     245.906E-06     598.748E-03    -299.129E-03    -299.619E-03    -298.913E-03     598.532E-03    -299.619E-03     27.6692E-03     21.9419E+06    -16.6897E+06    -28.0246E+06    -26.2560E+06    -18.4583E+06     21.9419E+06     4.06472E+06         76.1457
             280     8.15865E-03     99.0167E-03     281.197E-03    -347.493E-03    -670.718E-03    -271.574E-03     205.278E-03    -670.718E-03     11.7676E-03     598.687E-03    -299.056E-03    -299.631E-03    -298.927E-03     598.559E-03    -299.631E-03     21.2618E-03     19.0491E+06    -17.9470E+06    -31.8980E+06    -30.3258E+06    -19.5192E+06     19.0491E+06     4.38030E+06         73.5469
             281     7.41643E-03     98.9849E-03     385.577E-03    -415.868E-03    -712.619E-03    -380.804E-03     350.513E-03    -712.619E-03    -2.84850E-03     598.737E-03    -299.107E-03    -299.630E-03    -299.039E-03     598.669E-03    -299.630E-03     15.3817E-03     13.5801E+06    -19.5383E+06    -36.2180E+06    -34.8125E+06    -20.9439E+06     13.5801E+06     4.61754E+06         71.6288
             282     6.67452E-03     98.9624E-03     498.175E-03    -495.743E-03    -749.443E-03    -478.002E-03     480.433E-03    -749.443E-03     16.6328E-03     598.831E-03    -299.221E-03    -299.609E-03    -299.191E-03     598.800E-03    -299.609E-03     10.1881E-03     5.51055E+06    -22.6699E+06    -40.9797E+06    -39.5367E+06    -24.1129E+06     5.51055E+06     4.92728E+06         70.3018
             283     5.93303E-03     98.9489E-03     610.187E-03    -572.994E-03    -781.475E-03    -563.578E-03     600.771E-03    -781.475E-03    -11.6914E-03     598.771E-03    -299.194E-03    -299.577E-03    -299.184E-03     598.761E-03    -299.577E-03     5.68999E-03    -4.49154E+06    -27.7552E+06    -45.8429E+06    -44.3531E+06    -29.2450E+06    -4.49154E+06     4.97148E+06         69.4323
             284     5.19135E-03     98.9417E-03     707.423E-03    -635.177E-03    -809.715E-03    -629.798E-03     702.045E-03    -809.715E-03     22.8377E-03     598.647E-03    -299.096E-03    -299.552E-03    -299.094E-03     598.645E-03    -299.552E-03     1.96401E-03    -15.4020E+06    -33.0994E+06    -50.1785E+06    -48.7449E+06    -34.5330E+06    -15.4020E+06     4.73388E+06         68.8860
             285     4.44952E-03     98.9402E-03     804.090E-03    -702.468E-03    -834.478E-03    -697.147E-03     798.770E-03    -834.478E-03    -25.4637E-03     598.660E-03    -299.123E-03    -299.537E-03    -299.122E-03     598.660E-03    -299.537E-03    -876.576E-06    -26.4664E+06    -38.3935E+06    -54.0423E+06    -52.6592E+06    -39.7765E+06    -26.4664E+06     4.43354E+06         68.5524
             286     3.70789E-03     98.9428E-03     881.892E-03    -762.828E-03    -856.036E-03    -749.295E-03     868.359E-03    -856.036E-03     44.1930E-03     598.766E-03    -299.241E-03    -299.525E-03    -299.239E-03     598.764E-03    -299.525E-03    -2.66732E-03    -37.1169E+06    -43.9533E+06    -57.4936E+06    -56.1376E+06    -45.3093E+06    -37.1169E+06     4.05218E+06         68.3513
             287     2.96594E-03     98.9486E-03     985.315E-03    -827.046E-03    -903.064E-03    -820.455E-03     947.560E-03    -871.901E-03    -61.1027E-03     598.858E-03    -299.349E-03    -299.509E-03    -299.345E-03     598.854E-03    -299.509E-03    -3.48176E-03    -46.6214E+06    -49.6423E+06    -60.4940E+06    -59.2007E+06    -50.9356E+06    -46.6214E+06     3.50914E+06         68.2299
             288     2.22444E-03     98.9549E-03         1.08919    -871.589E-03    -971.562E-03    -843.957E-03     973.349E-03    -883.349E-03     101.481E-03     598.911E-03    -299.416E-03    -299.495E-03    -299.416E-03     598.907E-03    -299.491E-03    -3.61960E-03    -53.9927E+06    -54.9728E+06    -62.6780E+06    -61.6679E+06    -55.7560E+06    -54.2195E+06     2.62586E+06         68.1562
             289     1.48305E-03     98.9610E-03         1.34558    -867.648E-03        -1.21444    -915.369E-03         1.05827    -879.408E-03    -186.283E-03     598.906E-03    -299.423E-03    -299.482E-03    -299.425E-03     598.903E-03    -299.478E-03    -3.00509E-03    -58.6253E+06    -59.8472E+06    -63.7250E+06    -63.1216E+06    -59.2452E+06    -59.8308E+06     1.50970E+06         68.1121
             290     741.501E-06     98.9651E-03         2.01389    -880.675E-03        -1.85565    -857.706E-03         1.01594    -880.675E-03     527.288E-03     598.943E-03    -299.355E-03    -299.588E-03    -299.354E-03     598.942E-03    -299.588E-03    -1.78388E-03    -61.5522E+06    -62.6961E+06    -64.4813E+06    -63.9188E+06    -62.0013E+06    -62.8095E+06     779.315E+03         68.0880
             291     12.6105E-03     97.6742E-03     394.625E-03    -441.079E-03    -705.740E-03     382.657E-03    -509.962E-03    -624.889E-03    -4.32989E-03     601.405E-03    -299.992E-03    -301.413E-03    -299.997E-03     599.989E-03    -299.992E-03     71.3864E-03     95.0301E+06     38.9322E+06    -5.85208E+06    -5.82584E+06     38.9060E+06     95.0301E+06     837.822E+03         93.5269
             292     11.8682E-03     97.5412E-03     254.529E-03    -304.419E-03    -708.525E-03     230.399E-03    -287.539E-03    -701.275E-03    -1.32608E-03     600.945E-03    -299.895E-03    -301.050E-03    -299.864E-03     599.760E-03    -299.895E-03     64.5964E-03     64.5036E+06     16.9276E+06    -11.0732E+06    -10.9786E+06     16.8330E+06     64.5036E+06     1.39416E+06         90.7080
             293     11.1260E-03     97.4460E-03     182.790E-03    -172.082E-03    -774.129E-03     75.5809E-03    -64.8727E-03    -774.129E-03     3.43478E-03     599.910E-03    -299.814E-03    -300.096E-03    -299.355E-03     599.169E-03    -299.814E-03     51.5131E-03     39.1907E+06    -2.19322E+06    -15.2642E+06    -14.8856E+06    -2.57178E+06     39.1907E+06     1.83682E+06         87.1232
             294     10.3834E-03     97.3608E-03     243.116E-03    -162.434E-03    -842.822E-03    -75.0167E-03     155.699E-03    -842.822E-03     6.19994E-03     599.528E-03    -299.686E-03    -299.842E-03    -299.213E-03     598.992E-03    -299.778E-03     43.6251E-03     24.9914E+06    -12.2928E+06    -19.3677E+06    -18.0593E+06    -13.6012E+06     24.9914E+06     2.44710E+06         83.2325
             295     9.64106E-03     97.2936E-03     399.297E-03    -247.656E-03    -907.741E-03    -218.658E-03     370.299E-03    -907.741E-03     6.57455E-03     599.328E-03    -299.553E-03    -299.775E-03    -299.209E-03     598.984E-03    -299.775E-03     34.9888E-03     19.4142E+06    -16.0841E+06    -23.1519E+06    -21.0633E+06    -18.1728E+06     19.4142E+06     3.17285E+06         79.4916
             296     8.89895E-03     97.2389E-03     592.364E-03    -375.562E-03    -968.615E-03    -360.618E-03     577.419E-03    -968.615E-03     12.3637E-03     599.254E-03    -299.473E-03    -299.781E-03    -299.255E-03     599.036E-03    -299.781E-03     27.7749E-03     17.5158E+06    -17.0318E+06    -26.2454E+06    -24.2272E+06    -19.0500E+06     17.5158E+06     3.75805E+06         76.2367
             297     8.15697E-03     97.1963E-03     783.206E-03    -512.231E-03        -1.02505    -501.545E-03     772.520E-03        -1.02505     6.78722E-03     599.175E-03    -299.392E-03    -299.784E-03    -299.264E-03     599.048E-03    -299.784E-03     21.2131E-03     15.5108E+06    -17.6092E+06    -29.3438E+06    -27.6435E+06    -19.3095E+06     15.5108E+06     4.08912E+06         73.6374
             298     7.41526E-03     97.1638E-03     964.992E-03    -649.400E-03        -1.07628    -640.767E-03     956.360E-03        -1.07628     17.6556E-03     599.143E-03    -299.365E-03    -299.778E-03    -299.298E-03     599.076E-03    -299.778E-03     15.2071E-03     11.4248E+06    -19.2050E+06    -33.0417E+06    -31.5196E+06    -20.7271E+06     11.4248E+06     4.30309E+06         71.7105
             299     6.67366E-03     97.1413E-03         1.13142    -774.185E-03        -1.12192    -765.929E-03         1.12317        -1.12192    -2.09120E-03     599.153E-03    -299.393E-03    -299.759E-03    -299.364E-03     599.124E-03    -299.759E-03     9.92033E-03     4.67940E+06    -22.1014E+06    -37.0674E+06    -35.6003E+06    -23.5685E+06     4.67940E+06     4.42951E+06         70.3713
             300     5.93201E-03     97.1272E-03         1.28643    -885.402E-03        -1.16216    -876.569E-03         1.27759        -1.16216     27.8644E-03     599.168E-03    -299.442E-03    -299.726E-03    -299.432E-03     599.158E-03    -299.726E-03     5.52632E-03    -4.09786E+06    -25.9601E+06    -40.9425E+06    -39.5863E+06    -27.3162E+06    -4.09786E+06     4.29429E+06         69.4895
             301     5.19056E-03     97.1209E-03         1.42193    -976.752E-03        -1.19799    -965.295E-03         1.41048        -1.19799    -26.5281E-03     599.090E-03    -299.399E-03    -299.691E-03    -299.398E-03     599.088E-03    -299.691E-03     1.98530E-03    -13.9262E+06    -31.0435E+06    -44.7995E+06    -43.5854E+06    -32.2576E+06    -13.9262E+06     3.89605E+06         68.9332
             302     4.44900E-03     97.1193E-03         1.55199        -1.07016        -1.22970        -1.05282         1.53465        -1.22970     60.7804E-03     598.960E-03    -299.291E-03    -299.669E-03    -299.291E-03     598.960E-03    -299.669E-03    -710.902E-06    -24.1944E+06    -36.4535E+06    -48.6387E+06    -47.5190E+06    -37.5732E+06    -24.1944E+06     3.50366E+06         68.5922
             303     3.70716E-03     97.1222E-03         1.65986        -1.15617        -1.25726        -1.12485         1.62854        -1.25726    -87.7676E-03     598.986E-03    -299.318E-03    -299.668E-03    -299.316E-03     598.984E-03    -299.668E-03    -2.58940E-03    -33.9137E+06    -41.7841E+06    -52.2096E+06    -51.0560E+06    -42.9377E+06    -33.9137E+06     3.23379E+06         68.3860
             304     2.96581E-03     97.1272E-03         1.78927        -1.23446        -1.31716        -1.21072         1.72636        -1.27798     160.486E-03     599.120E-03    -299.447E-03    -299.672E-03    -299.444E-03     599.116E-03    -299.672E-03    -3.53067E-03    -42.5142E+06    -46.6518E+06    -55.1248E+06    -54.0071E+06    -47.7694E+06    -42.5142E+06     2.85304E+06         68.2614
             305     2.22438E-03     97.1335E-03         1.92076        -1.28114        -1.40991        -1.24688         1.76949        -1.29290    -292.445E-03     599.240E-03    -299.567E-03    -299.673E-03    -299.568E-03     599.237E-03    -299.669E-03    -3.60111E-03    -49.7488E+06    -50.8269E+06    -57.3000E+06    -56.4062E+06    -51.7207E+06    -49.7488E+06     2.20023E+06         68.1858
             306     1.48288E-03     97.1397E-03         2.24420        -1.27985        -1.71673        -1.32281         1.86203        -1.29161     598.414E-03     599.287E-03    -299.622E-03    -299.665E-03    -299.626E-03     599.284E-03    -299.658E-03    -2.95929E-03    -54.9849E+06    -55.4518E+06    -59.1502E+06    -58.5204E+06    -55.6460E+06    -55.4205E+06     1.31205E+06         68.1407
             307     741.400E-06     97.1442E-03         3.20696        -1.30006        -2.64072        -1.26570         1.83194        -1.30006        -1.87456     599.289E-03    -299.603E-03    -299.686E-03    -299.605E-03     599.288E-03    -299.683E-03    -1.60052E-03    -58.4861E+06    -59.4880E+06    -60.8547E+06    -60.0672E+06    -59.1362E+06    -59.6254E+06     665.406E+03         68.1161
             308     12.6080E-03     95.8520E-03     370.672E-03    -295.508E-03    -846.218E-03     365.258E-03    -290.094E-03    -846.218E-03     198.848E-06     601.455E-03    -300.168E-03    -301.286E-03    -299.866E-03     600.035E-03    -300.168E-03     71.4758E-03     89.9475E+06     36.9738E+06    -5.78957E+06    -5.77600E+06     36.9602E+06     89.9475E+06     602.072E+03         93.4753
             309     11.8655E-03     95.7201E-03     234.237E-03    -82.6809E-03    -928.848E-03     182.418E-03    -30.8617E-03    -928.848E-03     3.79813E-03     601.179E-03    -300.089E-03    -301.090E-03    -299.894E-03     599.983E-03    -300.089E-03     64.9037E-03     59.7309E+06     15.5650E+06    -10.8791E+06    -10.7890E+06     15.4748E+06     59.7309E+06     1.24742E+06         90.6839
             310     11.1230E-03     95.6246E-03     274.496E-03    -48.5410E-03        -1.00773     129.277E-06     225.826E-03        -1.00773     7.54342E-03     600.531E-03    -300.010E-03    -300.521E-03    -299.777E-03     599.788E-03    -300.010E-03     51.6235E-03     34.7735E+06    -3.20224E+06    -15.1278E+06    -14.6290E+06    -3.70103E+06     34.7735E+06     1.91072E+06         87.1364
             311     10.3809E-03     95.5401E-03     485.761E-03    -182.665E-03        -1.08251    -174.527E-03     477.623E-03        -1.08251     13.7547E-03     600.158E-03    -299.930E-03    -300.229E-03    -299.666E-03     599.626E-03    -299.960E-03     43.4904E-03     20.6201E+06    -13.2374E+06    -19.2255E+06    -17.5443E+06    -14.9186E+06     20.6201E+06     2.43127E+06         83.2822
             312     9.63904E-03     95.4721E-03     726.286E-03    -344.906E-03        -1.15362    -340.162E-03     721.542E-03        -1.15362     8.54415E-03     599.880E-03    -299.870E-03    -300.010E-03    -299.600E-03     599.539E-03    -299.939E-03     34.7917E-03     14.8242E+06    -16.7634E+06    -22.5818E+06    -20.1380E+06    -19.2072E+06     14.8242E+06     2.83598E+06         79.5675
             313     8.89736E-03     95.4174E-03     960.524E-03    -506.816E-03        -1.22086    -503.013E-03     956.721E-03        -1.22086     24.0865E-03     599.765E-03    -299.819E-03    -299.946E-03    -299.623E-03     599.552E-03    -299.929E-03     27.4660E-03     13.1703E+06    -17.5077E+06    -24.7635E+06    -22.6196E+06    -19.6516E+06     13.1703E+06     3.23915E+06         76.3250
             314     8.15587E-03     95.3745E-03         1.18343    -669.412E-03        -1.28371    -665.629E-03         1.17964        -1.28371     2.43651E-03     599.641E-03    -299.723E-03    -299.917E-03    -299.598E-03     599.516E-03    -299.917E-03     20.9875E-03     11.6486E+06    -17.5609E+06    -27.1243E+06    -25.4161E+06    -19.2690E+06     11.6486E+06     3.60862E+06         73.7256
             315     7.41433E-03     95.3421E-03         1.39527    -830.897E-03        -1.34128    -826.533E-03         1.39091        -1.34128     35.3789E-03     599.487E-03    -299.584E-03    -299.904E-03    -299.517E-03     599.421E-03    -299.904E-03     15.1805E-03     8.28466E+06    -18.6616E+06    -30.0095E+06    -28.5486E+06    -20.1225E+06     8.28466E+06     3.79621E+06         71.7902
             316     6.67274E-03     95.3196E-03         1.59182    -979.070E-03        -1.39304    -973.118E-03         1.58587        -1.39304    -18.5885E-03     599.392E-03    -299.503E-03    -299.889E-03    -299.473E-03     599.362E-03    -299.889E-03     10.0701E-03     2.63919E+06    -21.3110E+06    -33.2899E+06    -31.9777E+06    -22.6232E+06     2.63919E+06     3.73295E+06         70.4388
             317     5.93121E-03     95.3057E-03         1.77603        -1.11195        -1.43913        -1.10260         1.76668        -1.43913     61.2560E-03     599.411E-03    -299.542E-03    -299.869E-03    -299.532E-03     599.401E-03    -299.869E-03     5.66424E-03    -5.01895E+06    -24.7696E+06    -36.8364E+06    -35.5888E+06    -26.0172E+06    -5.01895E+06     3.66509E+06         69.5451
             318     5.18974E-03     95.2988E-03         1.94161        -1.22753        -1.48029        -1.21095         1.92503        -1.48029    -68.3648E-03     599.433E-03    -299.592E-03    -299.842E-03    -299.590E-03     599.432E-03    -299.842E-03     1.98580E-03    -13.6797E+06    -28.9109E+06    -40.4118E+06    -39.1277E+06    -30.1950E+06    -13.6797E+06     3.61038E+06         68.9787
             319     4.44824E-03     95.2983E-03         2.10168        -1.34695        -1.51658        -1.31440         2.06913        -1.51658     134.515E-03     599.403E-03    -299.585E-03    -299.817E-03    -299.585E-03     599.402E-03    -299.817E-03    -745.331E-06    -22.0380E+06    -34.0185E+06    -43.8335E+06    -42.4556E+06    -35.3965E+06    -22.0380E+06     3.34185E+06         68.6303
             320     3.70689E-03     95.3004E-03         2.25160        -1.47263        -1.54760        -1.40308         2.18205        -1.54760    -198.221E-03     599.362E-03    -299.557E-03    -299.805E-03    -299.555E-03     599.360E-03    -299.805E-03    -2.60849E-03    -30.0838E+06    -39.4122E+06    -47.1994E+06    -45.6960E+06    -40.9156E+06    -30.0838E+06     3.00155E+06         68.4191
             321     2.96524E-03     95.3058E-03         2.44499        -1.55377        -1.66966        -1.49621         2.28855        -1.57078     349.731E-03     599.360E-03    -299.551E-03    -299.809E-03    -299.547E-03     599.356E-03    -299.809E-03    -3.56906E-03    -37.8028E+06    -43.6522E+06    -50.2648E+06    -48.7218E+06    -45.1952E+06    -37.8028E+06     2.66134E+06         68.2912
             322     2.22365E-03     95.3117E-03         2.73409        -1.58685        -1.92981        -1.54193         2.34621        -1.58685    -619.402E-03     599.447E-03    -299.615E-03    -299.832E-03    -299.611E-03     599.443E-03    -299.832E-03    -3.60460E-03    -44.5320E+06    -47.0996E+06    -52.7452E+06    -51.2315E+06    -48.6133E+06    -44.5320E+06     2.34863E+06         68.2136
             323     1.48241E-03     95.3176E-03         3.42125        -1.58914        -2.59676        -1.60701         2.43150        -1.58914         1.25759     599.615E-03    -299.751E-03    -299.864E-03    -299.752E-03     599.612E-03    -299.861E-03    -2.97239E-03    -49.7000E+06    -50.6393E+06    -54.8454E+06    -53.2866E+06    -52.0478E+06    -49.8504E+06     1.88928E+06         68.1673
             324     741.279E-06     95.3222E-03         5.68883        -1.64496        -4.79301        -1.52313         2.41896        -1.64496        -3.88044     599.731E-03    -299.783E-03    -299.948E-03    -299.877E-03     599.730E-03    -299.853E-03    -1.56646E-03    -52.7984E+06    -54.0726E+06    -56.4787E+06    -54.7284E+06    -55.2476E+06    -53.3738E+06     1.17320E+06         68.1421
             325     12.6056E-03     94.0321E-03     359.201E-03    -164.874E-03    -982.109E-03     357.591E-03    -163.264E-03    -982.109E-03     4.36058E-03     601.643E-03    -300.334E-03    -301.309E-03    -299.909E-03     600.243E-03    -300.334E-03     70.9701E-03     85.5406E+06     35.1513E+06    -5.28574E+06    -5.26023E+06     35.1258E+06     85.5406E+06     841.766E+03         93.4214
             326     11.8624E-03     93.8983E-03     259.642E-03     12.7636E-03        -1.06576     157.007E-03     115.398E-03        -1.06576     7.51103E-03     601.415E-03    -300.266E-03    -301.150E-03    -299.976E-03     600.242E-03    -300.266E-03     64.2718E-03     56.1437E+06     14.0640E+06    -10.1329E+06    -9.99691E+06     13.9280E+06     56.1437E+06     1.53819E+06         90.6576
             327     11.1209E-03     93.8014E-03     392.307E-03    -43.6342E-03        -1.14582    -40.8675E-03     389.541E-03        -1.14582     10.9797E-03     600.971E-03    -300.185E-03    -300.787E-03    -300.066E-03     600.251E-03    -300.185E-03     50.8259E-03     31.0992E+06    -4.04057E+06    -14.5077E+06    -13.8402E+06    -4.70809E+06     31.0992E+06     1.98596E+06         87.1471
             328     10.3794E-03     93.7182E-03     658.511E-03    -229.954E-03        -1.22212    -228.977E-03     657.534E-03        -1.22212     20.4775E-03     600.755E-03    -300.120E-03    -300.635E-03    -300.117E-03     600.237E-03    -300.120E-03     42.9432E-03     16.8962E+06    -13.3548E+06    -18.6969E+06    -16.4409E+06    -15.6108E+06     16.8962E+06     2.28368E+06         83.3290
             329     9.63778E-03     93.6495E-03     917.752E-03    -407.918E-03        -1.29502    -407.236E-03     917.070E-03        -1.29502     11.5126E-03     600.418E-03    -300.081E-03    -300.337E-03    -300.001E-03     600.082E-03    -300.081E-03     34.5640E-03     11.3587E+06    -16.4015E+06    -21.8487E+06    -18.5379E+06    -19.7122E+06     11.3587E+06     2.57851E+06         79.6405
             330     8.89624E-03     93.5952E-03         1.16793    -583.830E-03        -1.36435    -583.012E-03         1.16711        -1.36435     33.8374E-03     600.152E-03    -300.024E-03    -300.128E-03    -299.885E-03     599.942E-03    -300.057E-03     27.3144E-03     9.65219E+06    -17.4070E+06    -23.5911E+06    -20.8500E+06    -20.1481E+06     9.65219E+06     2.93030E+06         76.4105
             331     8.15467E-03     93.5519E-03         1.40611    -759.726E-03        -1.42945    -758.658E-03         1.40504        -1.42945     188.190E-06     599.904E-03    -299.863E-03    -300.041E-03    -299.738E-03     599.779E-03    -300.041E-03     20.9377E-03     8.04661E+06    -17.4232E+06    -25.3021E+06    -23.4423E+06    -19.2831E+06     8.04661E+06     3.22341E+06         73.8110
             332     7.41317E-03     93.5202E-03         1.63226    -932.749E-03        -1.48943    -930.722E-03         1.63023        -1.48943     48.5786E-03     599.709E-03    -299.677E-03    -300.032E-03    -299.611E-03     599.643E-03    -300.032E-03     15.1890E-03     4.94480E+06    -18.1945E+06    -27.6771E+06    -26.2322E+06    -19.6394E+06     4.94480E+06     3.38056E+06         71.8675
             333     6.67156E-03     93.4976E-03         1.84329        -1.09180        -1.54379        -1.08793         1.83942        -1.54379    -27.9865E-03     599.650E-03    -299.625E-03    -300.025E-03    -299.594E-03     599.620E-03    -300.025E-03     10.1562E-03    -170.119E+03    -20.2754E+06    -30.6203E+06    -29.2797E+06    -21.6160E+06    -170.119E+03     3.43681E+06         70.5046
             334     5.93013E-03     93.4834E-03         2.04094        -1.23400        -1.59278        -1.22564         2.03257        -1.59278     84.7843E-03     599.694E-03    -299.678E-03    -300.016E-03    -299.667E-03     599.684E-03    -300.016E-03     5.72414E-03    -6.59670E+06    -23.7285E+06    -33.6877E+06    -32.4143E+06    -25.0019E+06    -6.59670E+06     3.30504E+06         69.5993
             335     5.18874E-03     93.4767E-03         2.22279        -1.36250        -1.63697        -1.34452         2.20481        -1.63697    -93.6206E-03     599.791E-03    -299.795E-03    -299.997E-03    -299.793E-03     599.789E-03    -299.997E-03     1.99122E-03    -13.6926E+06    -27.5239E+06    -36.7808E+06    -35.3951E+06    -28.9096E+06    -13.6926E+06     3.28604E+06         69.0233
             336     4.44761E-03     93.4755E-03         2.39925        -1.49698        -1.67627        -1.45628         2.35855        -1.67627     183.110E-03     599.847E-03    -299.883E-03    -299.964E-03    -299.883E-03     599.846E-03    -299.963E-03    -814.982E-06    -21.0672E+06    -31.6321E+06    -39.9705E+06    -38.2421E+06    -33.3605E+06    -21.0672E+06     3.31712E+06         68.6676
             337     3.70636E-03     93.4785E-03         2.57947        -1.64711        -1.71329        -1.55657         2.48544        -1.70981    -265.625E-03     599.774E-03    -299.840E-03    -299.934E-03    -299.842E-03     599.772E-03    -299.930E-03    -2.65360E-03    -28.0046E+06    -36.5133E+06    -42.9492E+06    -40.9531E+06    -38.5094E+06    -28.0046E+06     2.93579E+06         68.4513
             338     2.96514E-03     93.4838E-03         2.81923        -1.73379        -1.87561        -1.65062         2.59594        -1.73549     469.069E-03     599.675E-03    -299.756E-03    -299.919E-03    -299.756E-03     599.672E-03    -299.916E-03    -3.65601E-03    -34.0954E+06    -40.3781E+06    -45.5395E+06    -43.2006E+06    -42.7170E+06    -34.0954E+06     2.43126E+06         68.3202
             339     2.22387E-03     93.4897E-03         3.22619        -1.75293        -2.26518        -1.71007         2.67108        -1.75293    -816.349E-03     599.639E-03    -299.701E-03    -299.938E-03    -299.697E-03     599.635E-03    -299.938E-03    -3.71830E-03    -39.3994E+06    -43.2371E+06    -47.7993E+06    -45.0232E+06    -46.0132E+06    -39.3994E+06     1.98201E+06         68.2404
             340     1.48232E-03     93.4952E-03         4.16480        -1.75989        -3.18068        -1.75942         2.74354        -1.75989         1.65828     599.814E-03    -299.822E-03    -299.993E-03    -299.819E-03     599.812E-03    -299.993E-03    -2.97161E-03    -43.5207E+06    -45.2766E+06    -49.5939E+06    -46.3201E+06    -48.5504E+06    -43.5207E+06     1.58629E+06         68.1929
             341     740.997E-06     93.4991E-03         7.25853        -1.89258        -6.12517        -1.62681         2.76018        -1.89258        -5.10033     600.035E-03    -299.829E-03    -300.206E-03    -300.177E-03     600.034E-03    -299.857E-03    -1.78242E-03    -45.7907E+06    -47.4908E+06    -51.2191E+06    -47.1102E+06    -50.8791E+06    -46.5113E+06     857.479E+03         68.1670
             342     12.6034E-03     92.2096E-03     368.114E-03    -146.168E-03        -1.02280     361.330E-03    -139.384E-03        -1.02280     7.58911E-03     602.227E-03    -300.473E-03    -301.754E-03    -300.368E-03     600.841E-03    -300.473E-03     70.6588E-03     80.5571E+06     33.2100E+06    -5.43547E+06    -5.40646E+06     33.1810E+06     80.5571E+06     931.180E+03         93.3668
             343     11.8620E-03     92.0765E-03     279.519E-03     17.2365E-03        -1.10218     157.543E-03     139.212E-03        -1.10218     9.02292E-03     601.856E-03    -300.395E-03    -301.460E-03    -300.297E-03     600.693E-03    -300.395E-03     64.0247E-03      52.256E+06     12.6255E+06    -9.89972E+06    -9.78653E+06     12.5123E+06      52.256E+06     1.37178E+06         90.6314
             344     11.1193E-03     91.9787E-03     421.358E-03    -50.6960E-03        -1.17845    -42.9838E-03     413.645E-03        -1.17845     11.6410E-03     601.080E-03    -300.317E-03    -300.763E-03    -300.046E-03     600.363E-03    -300.317E-03     50.7396E-03     27.9478E+06    -4.58843E+06    -13.5549E+06    -12.6756E+06    -5.46770E+06     27.9478E+06     1.77973E+06         87.1572
             345     10.3775E-03     91.8945E-03     685.498E-03    -236.994E-03        -1.25158    -233.820E-03     682.324E-03        -1.25158     21.9783E-03     601.002E-03    -300.259E-03    -300.743E-03    -300.226E-03     600.486E-03    -300.259E-03     42.9162E-03     13.6373E+06    -12.8090E+06    -18.0031E+06    -14.8122E+06    -15.9999E+06     13.6373E+06     2.24636E+06         83.3732
             346     9.63622E-03     91.8265E-03     944.443E-03    -417.186E-03        -1.32167    -415.766E-03     943.023E-03        -1.32167     10.2616E-03     600.784E-03    -300.220E-03    -300.565E-03    -300.226E-03     600.446E-03    -300.220E-03     34.7079E-03     7.94972E+06    -15.1934E+06    -21.6277E+06    -16.6393E+06    -20.1818E+06     7.94972E+06     2.64048E+06         79.7098
             347     8.89491E-03     91.7720E-03         1.19472    -596.024E-03        -1.38855    -595.143E-03         1.19384        -1.38855     35.3307E-03     600.503E-03    -300.175E-03    -300.328E-03    -300.096E-03     600.289E-03    -300.193E-03     27.5478E-03     6.53627E+06    -16.1568E+06    -22.6412E+06    -18.5019E+06    -20.2962E+06     6.53627E+06     2.93665E+06         76.4922
             348     8.15355E-03     91.7295E-03         1.43261    -773.957E-03        -1.45151    -773.674E-03         1.43233        -1.45151    -3.86142E-03     600.252E-03    -300.050E-03    -300.201E-03    -299.951E-03     600.127E-03    -300.176E-03     20.9784E-03     5.55172E+06    -16.5245E+06    -23.2869E+06    -20.6580E+06    -19.1533E+06     5.55172E+06     3.12197E+06         73.8935
             349     7.41199E-03     91.6975E-03         1.65723    -946.108E-03        -1.50979    -945.442E-03         1.65657        -1.50979     51.1451E-03     600.065E-03    -299.900E-03    -300.165E-03    -299.835E-03     600.000E-03    -300.165E-03     15.0467E-03     3.27567E+06    -17.3469E+06    -25.0947E+06    -23.0780E+06    -19.3635E+06     3.27567E+06     3.30535E+06         71.9428
             350     6.67067E-03     91.6750E-03         1.86704        -1.10344        -1.56307        -1.10170         1.86530        -1.56307    -33.2881E-03     599.967E-03    -299.808E-03    -300.159E-03    -299.779E-03     599.938E-03    -300.159E-03     9.92988E-03    -728.285E+03    -19.0080E+06    -27.5583E+06    -25.6880E+06    -20.8783E+06    -728.285E+03     3.47335E+06         70.5691
             351     5.92926E-03     91.6606E-03         2.06186        -1.24292        -1.61171        -1.23732         2.05626        -1.61171     89.7508E-03     599.977E-03    -299.824E-03    -300.153E-03    -299.815E-03     599.967E-03    -300.153E-03     5.52929E-03    -6.35029E+06    -21.8518E+06    -30.4759E+06    -28.5607E+06    -23.7670E+06    -6.35029E+06     3.49992E+06         69.6526
             352     5.18808E-03     91.6536E-03         2.24409        -1.37175        -1.65627        -1.35714         2.22949        -1.65627    -102.189E-03     600.076E-03    -299.938E-03    -300.138E-03    -299.936E-03     600.075E-03    -300.138E-03     1.90721E-03    -12.8360E+06    -25.6614E+06    -33.5701E+06    -31.4977E+06    -27.7338E+06    -12.8360E+06     3.37405E+06         69.0671
             353     4.44691E-03     91.6523E-03         2.41970        -1.50548        -1.69663        -1.46808         2.38230        -1.69663     192.268E-03     600.165E-03    -300.044E-03    -300.122E-03    -300.057E-03     600.165E-03    -300.108E-03    -844.938E-06    -19.4728E+06    -29.3759E+06    -36.4165E+06    -34.1100E+06    -31.6824E+06    -19.4728E+06     3.20239E+06         68.7043
             354     3.70589E-03     91.6556E-03         2.60869        -1.66186        -1.73638        -1.57455         2.51643        -1.73143    -282.937E-03     600.153E-03    -300.066E-03    -300.087E-03    -300.085E-03     600.151E-03    -300.066E-03    -2.69655E-03    -25.6302E+06    -32.9120E+06    -38.8405E+06    -36.1646E+06    -35.5880E+06    -25.6302E+06     2.85510E+06         68.4831
             355     2.96477E-03     91.6608E-03         2.85443        -1.75912        -1.89295        -1.66425         2.62574        -1.75912     489.409E-03     600.034E-03    -299.995E-03    -300.039E-03    -299.999E-03     600.030E-03    -300.031E-03    -3.58580E-03    -31.1137E+06    -36.4746E+06    -41.6068E+06    -38.1575E+06    -39.9239E+06    -31.1137E+06     2.26732E+06         68.3486
             356     2.22347E-03     91.6676E-03         3.29125        -1.77802        -2.30986        -1.73677         2.71816        -1.77802    -853.615E-03     599.964E-03    -299.904E-03    -300.059E-03    -299.942E-03     599.960E-03    -300.018E-03    -3.62770E-03    -35.6400E+06    -39.2321E+06    -44.3211E+06    -39.9517E+06    -43.6016E+06    -35.6400E+06     1.71972E+06         68.2669
             357     1.48222E-03     91.6726E-03         4.26709        -1.79020        -3.26097        -1.76954         2.77566        -1.79020         1.71891     599.990E-03    -299.929E-03    -300.060E-03    -299.969E-03     599.987E-03    -300.018E-03    -2.88762E-03    -39.1806E+06    -40.8460E+06    -45.9563E+06    -41.2373E+06    -45.5651E+06    -39.1806E+06     1.32189E+06         68.2181
             358     741.263E-06     91.6754E-03         7.50596        -1.99959        -6.26808        -1.59151         2.82939        -1.99959        -5.27080     600.033E-03    -299.606E-03    -300.427E-03    -299.862E-03     600.032E-03    -300.170E-03    -1.61044E-03    -40.7974E+06    -42.7998E+06    -47.6620E+06    -42.2684E+06    -47.4727E+06    -41.5180E+06     816.746E+03         68.1915
             359     12.6016E-03     90.3860E-03     391.410E-03    -235.396E-03    -965.084E-03     373.656E-03    -217.642E-03    -965.084E-03     9.89773E-03     602.512E-03    -300.605E-03    -301.906E-03    -300.511E-03     601.116E-03    -300.605E-03     70.9157E-03     76.1852E+06     31.7088E+06    -4.69444E+06    -4.66266E+06     31.6770E+06     76.1852E+06     949.493E+03         93.3134
             360     11.8593E-03     90.2527E-03     272.531E-03    -50.2542E-03        -1.03496     178.709E-03     43.5676E-03        -1.03496     9.53014E-03     602.250E-03    -300.526E-03    -301.724E-03    -300.548E-03     601.074E-03    -300.526E-03     64.3970E-03     48.0643E+06     12.1716E+06    -8.87688E+06    -8.74375E+06     12.0384E+06     48.0643E+06     1.36983E+06         90.6044
             361     11.1180E-03     90.1568E-03     346.691E-03    -57.3671E-03        -1.10233    -11.4112E-03     300.735E-03        -1.10233     11.5591E-03     601.424E-03    -300.447E-03    -300.976E-03    -300.248E-03     600.695E-03    -300.447E-03     51.1468E-03     24.0167E+06    -5.20276E+06    -13.0980E+06    -11.8636E+06    -6.43720E+06     24.0167E+06     1.73071E+06         87.1654
             362     10.3761E-03     90.0705E-03     567.509E-03    -207.283E-03        -1.16736    -192.013E-03     552.239E-03        -1.16736     21.0215E-03     601.149E-03    -300.397E-03    -300.752E-03    -300.229E-03     600.626E-03    -300.397E-03     43.1533E-03     10.0654E+06    -12.4804E+06    -18.0548E+06    -13.8968E+06    -16.6385E+06     10.0654E+06     2.19785E+06         83.4149
             363     9.63453E-03     90.0032E-03     803.561E-03    -372.555E-03        -1.22999    -365.086E-03     796.091E-03        -1.22999     9.14851E-03     601.027E-03    -300.367E-03    -300.661E-03    -300.323E-03     600.690E-03    -300.367E-03     34.6829E-03     4.42945E+06    -14.4010E+06    -21.7183E+06    -15.4430E+06    -20.6764E+06     4.42945E+06     2.53990E+06         79.7758
             364     8.89316E-03     89.9481E-03         1.03474    -539.657E-03        -1.29006    -535.060E-03         1.03014        -1.29006     33.4005E-03     600.873E-03    -300.342E-03    -300.531E-03    -300.319E-03     600.660E-03    -300.342E-03     27.4504E-03     3.18497E+06    -15.2542E+06    -22.0386E+06    -16.8916E+06    -20.4013E+06     3.18497E+06     2.76828E+06         76.5707
             365     8.15204E-03     89.9060E-03         1.25524    -706.041E-03        -1.34691    -703.985E-03         1.25319        -1.34691    -4.62621E-03     600.685E-03    -300.302E-03    -300.383E-03    -300.241E-03     600.561E-03    -300.321E-03     20.9349E-03     3.10612E+06    -15.6372E+06    -21.8578E+06    -18.4541E+06    -19.0409E+06     3.10612E+06     3.03515E+06         73.9734
             366     7.41112E-03     89.8739E-03         1.46340    -865.775E-03        -1.39989    -864.720E-03         1.46235        -1.39989     47.3039E-03     600.542E-03    -300.220E-03    -300.322E-03    -300.176E-03     600.477E-03    -300.301E-03     15.0912E-03     1.97399E+06    -16.3249E+06    -23.2445E+06    -20.4816E+06    -19.0878E+06     1.97399E+06     3.34250E+06         72.0164
             367     6.66989E-03     89.8520E-03         1.65856        -1.01131        -1.44877        -1.01081         1.65807        -1.44877    -29.8031E-03     600.388E-03    -300.100E-03    -300.288E-03    -300.078E-03     600.359E-03    -300.281E-03     9.88259E-03    -1.08062E+06    -17.7231E+06    -25.4447E+06    -22.8782E+06    -20.2896E+06    -1.08062E+06     3.61480E+06         70.6324
             368     5.92869E-03     89.8373E-03         1.83853        -1.13910        -1.49397        -1.13683         1.83627        -1.49397     79.8496E-03     600.276E-03    -300.009E-03    -300.267E-03    -299.999E-03     600.267E-03    -300.267E-03     5.44722E-03    -5.57938E+06    -19.9580E+06    -28.0179E+06    -25.3104E+06    -22.6655E+06    -5.57938E+06     3.78944E+06         69.7052
             369     5.18743E-03     89.8303E-03         2.00862        -1.25988        -1.53577        -1.25214         2.00088        -1.53577    -88.7028E-03     600.263E-03    -300.006E-03    -300.257E-03    -300.004E-03     600.262E-03    -300.257E-03     1.79787E-03    -11.0241E+06    -23.0657E+06    -30.5690E+06    -27.7137E+06    -25.9209E+06    -11.0241E+06     3.62538E+06         69.1104
             370     4.44630E-03     89.8288E-03         2.16700        -1.37943        -1.57403        -1.35565         2.14322        -1.57403     164.916E-03     600.325E-03    -300.067E-03    -300.259E-03    -300.079E-03     600.325E-03    -300.246E-03    -872.407E-06    -16.8005E+06    -26.4906E+06    -33.0941E+06    -29.9295E+06    -29.6552E+06    -16.8005E+06     3.25498E+06         68.7405
             371     3.70532E-03     89.8317E-03         2.33915        -1.52384        -1.60858        -1.46090         2.27474        -1.60712    -243.589E-03     600.381E-03    -300.138E-03    -300.243E-03    -300.153E-03     600.379E-03    -300.225E-03    -2.66722E-03    -22.7056E+06    -29.7031E+06    -35.9595E+06    -32.1627E+06    -33.4999E+06    -22.7056E+06     3.01556E+06         68.5145
             372     2.96430E-03     89.8379E-03         2.54349        -1.62843        -1.71590        -1.54076         2.37387        -1.63395     412.532E-03     600.407E-03    -300.169E-03    -300.238E-03    -300.208E-03     600.404E-03    -300.196E-03    -3.49507E-03    -27.8355E+06    -32.3586E+06    -38.7404E+06    -34.0569E+06    -37.0422E+06    -27.8355E+06     2.75911E+06         68.3770
             373     2.22335E-03     89.8440E-03         2.90958        -1.65212        -2.05258        -1.61695         2.47395        -1.65212    -719.641E-03     600.413E-03    -300.144E-03    -300.269E-03    -300.260E-03     600.410E-03    -300.150E-03    -3.46852E-03    -31.8229E+06    -34.7249E+06    -41.2366E+06    -35.6529E+06    -40.3086E+06    -31.8229E+06     2.20310E+06         68.2934
             374     1.48256E-03     89.8494E-03         3.69178        -1.66851        -2.80951        -1.62880         2.51108        -1.66851         1.43583     600.259E-03    -300.084E-03    -300.175E-03    -300.167E-03     600.257E-03    -300.091E-03    -2.70575E-03    -35.0872E+06    -36.6474E+06    -42.8612E+06    -36.9908E+06    -42.5178E+06    -35.0872E+06     1.32708E+06         68.2437
             375     741.099E-06     89.8529E-03         6.37643        -1.94514        -5.20318        -1.41298         2.58623        -1.94514        -4.38842     600.116E-03    -299.750E-03    -300.366E-03    -299.752E-03     600.116E-03    -300.363E-03    -1.72424E-03    -36.4336E+06    -38.7704E+06    -44.6537E+06    -37.8686E+06    -44.5561E+06    -37.4330E+06     640.956E+03         68.2165
             376     12.5996E-03     88.5637E-03     418.616E-03    -418.137E-03    -812.063E-03     392.363E-03    -391.884E-03    -812.063E-03     11.0255E-03     602.777E-03    -300.732E-03    -302.045E-03    -300.659E-03     601.391E-03    -300.732E-03     70.6853E-03     71.9830E+06     29.7825E+06    -4.38845E+06    -4.36282E+06     29.7568E+06     71.9830E+06     652.809E+03         93.2613
             377     11.8576E-03     88.4287E-03     277.525E-03    -223.421E-03    -867.676E-03     217.915E-03    -163.811E-03    -867.676E-03     9.59880E-03     602.442E-03    -300.656E-03    -301.786E-03    -300.628E-03     601.284E-03    -300.656E-03     63.8864E-03     44.4399E+06     11.0119E+06    -8.39808E+06    -8.18938E+06     10.8032E+06     44.4399E+06     1.54485E+06         90.5779
             378     11.1158E-03     88.3323E-03     244.871E-03    -135.627E-03    -921.483E-03     50.3012E-03     58.9427E-03    -921.483E-03     12.4051E-03     601.761E-03    -300.576E-03    -301.185E-03    -300.471E-03     601.047E-03    -300.576E-03     50.6476E-03     20.5876E+06    -5.11041E+06    -12.8013E+06    -10.9462E+06    -6.96544E+06     20.5876E+06     2.03991E+06         87.1727
             379     10.3744E-03     88.2476E-03     346.360E-03    -177.990E-03    -973.940E-03    -107.067E-03     275.437E-03    -973.940E-03     20.0497E-03     601.431E-03    -300.524E-03    -300.907E-03    -300.392E-03     600.916E-03    -300.524E-03     42.8625E-03     6.89909E+06    -11.6691E+06    -18.2431E+06    -12.7183E+06    -17.1939E+06     6.89909E+06     2.23601E+06         83.4552
             380     9.63292E-03     88.1785E-03     515.137E-03    -288.024E-03        -1.02487    -257.494E-03     484.608E-03        -1.02487     9.41509E-03     601.179E-03    -300.497E-03    -300.682E-03    -300.345E-03     600.845E-03    -300.500E-03     34.4687E-03     1.75894E+06    -13.2416E+06    -21.7406E+06    -14.0628E+06    -20.9195E+06     1.75894E+06     2.49224E+06         79.8401
             381     8.89201E-03     88.1239E-03     702.950E-03    -423.255E-03        -1.07425    -405.354E-03     685.049E-03        -1.07425     29.3855E-03     601.081E-03    -300.484E-03    -300.596E-03    -300.384E-03     600.871E-03    -300.487E-03     27.2863E-03     1.09723E+06    -14.0766E+06    -21.7593E+06    -15.3236E+06    -20.5123E+06     1.09723E+06     2.72541E+06         76.6471
             382     8.15087E-03     88.0817E-03     887.157E-03    -562.511E-03        -1.12148    -552.493E-03     877.140E-03        -1.12148    -1.93215E-03     600.971E-03    -300.458E-03    -300.512E-03    -300.372E-03     600.846E-03    -300.474E-03     20.9896E-03     1.26178E+06    -14.6596E+06    -21.5044E+06    -16.8704E+06    -19.2936E+06     1.26178E+06     3.07957E+06         74.0510
             383     7.40970E-03     88.0496E-03         1.06410    -698.090E-03        -1.16596    -691.953E-03         1.05796        -1.16596     38.0348E-03     600.942E-03    -300.439E-03    -300.503E-03    -300.420E-03     600.874E-03    -300.454E-03     15.3117E-03     560.834E+03    -15.2919E+06    -22.3255E+06    -18.6839E+06    -18.9335E+06     560.834E+03     3.45232E+06         72.0879
             384     6.66896E-03     88.0277E-03         1.23247    -823.051E-03        -1.20748    -820.114E-03         1.22954        -1.20748    -18.9056E-03     600.867E-03    -300.396E-03    -300.470E-03    -300.411E-03     600.837E-03    -300.426E-03     10.1019E-03    -1.48330E+06    -16.4084E+06    -23.8055E+06    -20.5813E+06    -19.6326E+06    -1.48330E+06     3.64165E+06         70.6943
             385     5.92805E-03     88.0136E-03         1.38744    -931.941E-03        -1.24634    -930.226E-03         1.38573        -1.24634     57.7744E-03     600.664E-03    -300.256E-03    -300.408E-03    -300.256E-03     600.654E-03    -300.398E-03     5.70882E-03    -5.12418E+06    -18.2515E+06    -25.7958E+06    -22.6274E+06    -21.4199E+06    -5.12418E+06     3.70644E+06         69.7569
             386     5.18702E-03     88.0066E-03         1.53461        -1.03665        -1.28253        -1.03451         1.53247        -1.28253    -56.4330E-03     600.532E-03    -300.148E-03    -300.384E-03    -300.146E-03     600.530E-03    -300.384E-03     2.07104E-03    -9.89117E+06    -20.7235E+06    -28.0779E+06    -24.7340E+06    -24.0674E+06    -9.89117E+06     3.63515E+06         69.1532
             387     4.44588E-03     88.0051E-03         1.66432        -1.13448        -1.31568        -1.12654         1.65638        -1.31568     109.112E-03     600.509E-03    -300.125E-03    -300.384E-03    -300.124E-03     600.508E-03    -300.384E-03    -751.965E-06    -14.9229E+06    -23.7223E+06    -30.9592E+06    -26.8922E+06    -27.7893E+06    -14.9229E+06     3.53766E+06         68.7766
             388     3.70459E-03     88.0081E-03         1.80061        -1.24816        -1.34399        -1.22280         1.77525        -1.34399    -152.974E-03     600.598E-03    -300.209E-03    -300.388E-03    -300.207E-03     600.595E-03    -300.388E-03    -2.67434E-03    -19.6565E+06    -26.5778E+06    -33.6238E+06    -28.8931E+06    -31.3086E+06    -19.6565E+06     3.29246E+06         68.5460
             389     2.96360E-03     88.0136E-03         1.93143        -1.33742        -1.39112        -1.28631         1.85632        -1.36712     257.776E-03     600.738E-03    -300.326E-03    -300.412E-03    -300.360E-03     600.735E-03    -300.375E-03    -3.55403E-03    -24.1047E+06    -28.8509E+06    -35.5887E+06    -30.5082E+06    -33.9314E+06    -24.1047E+06     2.87251E+06         68.4056
             390     2.22282E-03     88.0198E-03         2.15583        -1.37036        -1.57431        -1.35841         1.95189        -1.38231    -438.688E-03     600.748E-03    -300.330E-03    -300.418E-03    -300.408E-03     600.744E-03    -300.336E-03    -3.44208E-03    -28.1749E+06    -30.7856E+06    -37.6850E+06    -31.7895E+06    -36.6811E+06    -28.1749E+06     2.36192E+06         68.3204
             391     1.48178E-03     88.0257E-03         2.56612        -1.39951        -1.95110        -1.35081         1.96583        -1.39951     872.717E-03     600.658E-03    -300.280E-03    -300.378E-03    -300.375E-03     600.656E-03    -300.280E-03    -2.74509E-03    -31.0994E+06    -32.3793E+06    -39.4210E+06    -32.6774E+06    -39.0042E+06    -31.2180E+06     1.57573E+06         68.2697
             392     741.096E-06     88.0299E-03         4.13512        -1.71955        -3.18752        -1.10524         2.05283        -1.71955        -2.65661     600.493E-03    -300.035E-03    -300.458E-03    -300.403E-03     600.492E-03    -300.089E-03    -1.67241E-03    -31.8832E+06    -34.3193E+06    -40.9544E+06    -33.2978E+06    -40.8577E+06    -33.0013E+06     677.872E+03         68.2421
             393     12.5982E-03     86.7386E-03     447.667E-03    -482.134E-03    -772.762E-03     417.734E-03    -652.290E-03    -572.672E-03     11.3921E-03     603.301E-03    -300.853E-03    -302.448E-03    -301.056E-03     601.909E-03    -300.853E-03     70.8836E-03     67.3834E+06     27.9038E+06    -4.54152E+06    -4.51977E+06     27.8820E+06     67.3834E+06     624.856E+03         93.2099
             394     11.8566E-03     86.6056E-03     319.620E-03    -401.741E-03    -725.031E-03     275.767E-03    -472.678E-03    -610.242E-03     8.16131E-03     602.936E-03    -300.771E-03    -302.165E-03    -301.004E-03     601.775E-03    -300.771E-03     63.9604E-03     41.5751E+06     9.17736E+06    -8.22967E+06    -8.09496E+06     9.04266E+06     41.5751E+06     1.14764E+06         90.5523
             395     11.1148E-03     86.5079E-03     224.589E-03    -345.921E-03    -683.213E-03     141.312E-03    -299.001E-03    -646.856E-03     10.6322E-03     602.088E-03    -300.682E-03    -301.406E-03    -300.702E-03     601.384E-03    -300.682E-03     50.3037E-03     18.4097E+06    -5.35867E+06    -12.6494E+06    -10.3854E+06    -7.62264E+06     18.4097E+06     1.74808E+06         87.1810
             396     10.3735E-03     86.4230E-03     191.272E-03    -306.019E-03    -683.185E-03     16.9848E-03    -131.732E-03    -683.185E-03     15.3109E-03     601.716E-03    -300.621E-03    -301.095E-03    -300.594E-03     601.215E-03    -300.621E-03     42.2542E-03     4.76710E+06    -10.8578E+06    -18.4184E+06    -11.7099E+06    -17.5663E+06     4.76710E+06     2.25531E+06         83.4959
             397     9.63211E-03     86.3547E-03     222.268E-03    -293.825E-03    -718.988E-03    -100.870E-03     29.3139E-03    -718.988E-03     6.23377E-03     601.192E-03    -300.454E-03    -300.738E-03    -300.268E-03     600.869E-03    -300.601E-03     33.9495E-03    -227.347E+03    -11.9134E+06    -21.8048E+06    -12.6342E+06    -21.0840E+06    -227.347E+03     2.56084E+06         79.9042
             398     8.89039E-03     86.2992E-03     293.986E-03    -327.393E-03    -754.294E-03    -216.787E-03     183.380E-03    -754.294E-03     18.9913E-03     600.974E-03    -300.360E-03    -300.614E-03    -300.154E-03     600.767E-03    -300.613E-03     27.1205E-03    -576.554E+03    -12.6342E+06    -21.8750E+06    -13.6945E+06    -20.8148E+06    -576.554E+03     2.89103E+06         76.7224
             399     8.14933E-03     86.2571E-03     392.166E-03    -393.155E-03    -788.545E-03    -332.749E-03     331.760E-03    -788.545E-03    -2.39133E-03     601.126E-03    -300.499E-03    -300.627E-03    -300.376E-03     601.002E-03    -300.626E-03     20.9615E-03     337.782E+03    -13.2444E+06    -21.2503E+06    -14.9767E+06    -19.5180E+06     337.782E+03     3.21596E+06         74.1272
             400     7.40846E-03     86.2248E-03     508.516E-03    -478.454E-03    -821.330E-03    -441.864E-03     471.926E-03    -821.330E-03     19.8970E-03     601.200E-03    -300.551E-03    -300.649E-03    -300.512E-03     601.133E-03    -300.621E-03     15.2969E-03     300.289E+03    -13.7883E+06    -21.3060E+06    -16.4678E+06    -18.6266E+06     300.289E+03     3.52408E+06         72.1580
             401     6.66757E-03     86.2023E-03     630.604E-03    -566.408E-03    -852.537E-03    -542.484E-03     606.680E-03    -852.537E-03    -8.87424E-03     601.162E-03    -300.524E-03    -300.638E-03    -300.532E-03     601.132E-03    -300.601E-03     10.1541E-03    -1.58546E+06    -14.8939E+06    -22.2689E+06    -18.2840E+06    -18.8788E+06    -1.58546E+06     3.65028E+06         70.7550
             402     5.92683E-03     86.1892E-03     746.915E-03    -646.387E-03    -882.390E-03    -629.054E-03     729.582E-03    -882.390E-03     23.2406E-03     601.068E-03    -300.482E-03    -300.586E-03    -300.482E-03     601.058E-03    -300.576E-03     5.87563E-03    -4.81533E+06    -16.4752E+06    -23.8538E+06    -20.1541E+06    -20.1749E+06    -4.81533E+06     3.67733E+06         69.8077
             403     5.18590E-03     86.1821E-03     860.735E-03    -726.879E-03    -910.605E-03    -713.547E-03     847.402E-03    -910.605E-03    -18.5904E-03     600.978E-03    -300.422E-03    -300.557E-03    -300.419E-03     600.976E-03    -300.557E-03     2.33722E-03    -8.71709E+06    -18.5415E+06    -26.1455E+06    -22.0795E+06    -22.6075E+06    -8.71709E+06     3.77025E+06         69.1956
             404     4.44502E-03     86.1809E-03     957.584E-03    -799.891E-03    -936.722E-03    -787.039E-03     944.732E-03    -936.722E-03     29.9426E-03     600.962E-03    -300.404E-03    -300.558E-03    -300.418E-03     600.962E-03    -300.543E-03    -642.265E-06    -12.7738E+06    -21.0799E+06    -28.5505E+06    -23.9712E+06    -25.6592E+06    -12.7738E+06     3.62345E+06         68.8126
             405     3.70424E-03     86.1838E-03         1.05894    -883.779E-03    -958.917E-03    -867.304E-03         1.04247    -958.917E-03    -36.6235E-03     600.961E-03    -300.416E-03    -300.545E-03    -300.429E-03     600.959E-03    -300.530E-03    -2.65760E-03    -16.9930E+06    -23.5488E+06    -30.3948E+06    -25.6100E+06    -28.3335E+06    -16.9930E+06     3.12042E+06         68.5775
             406     2.96344E-03     86.1887E-03         1.13494    -944.222E-03    -977.390E-03    -912.468E-03         1.10319    -977.390E-03     50.8447E-03     600.981E-03    -300.465E-03    -300.516E-03    -300.462E-03     600.977E-03    -300.515E-03    -3.64690E-03    -21.3238E+06    -25.8513E+06    -32.3104E+06    -27.1779E+06    -30.9838E+06    -21.3238E+06     2.57959E+06         68.4343
             407     2.22247E-03     86.1956E-03         1.25743    -969.971E-03        -1.06624    -975.808E-03         1.18623    -989.207E-03    -76.3915E-03     601.006E-03    -300.487E-03    -300.519E-03    -300.508E-03     601.002E-03    -300.494E-03    -3.69397E-03    -24.9238E+06    -27.5732E+06    -33.9853E+06    -28.3535E+06    -33.2049E+06    -24.9238E+06     2.06394E+06         68.3474
             408     1.48178E-03     86.2008E-03         1.40044        -1.00516        -1.17330    -955.938E-03         1.18308        -1.00516     140.308E-03     600.979E-03    -300.449E-03    -300.530E-03    -300.521E-03     600.977E-03    -300.455E-03    -3.03479E-03    -27.7250E+06    -29.1179E+06    -35.6050E+06    -29.3795E+06    -35.2247E+06    -27.8437E+06     1.48645E+06         68.2958
             409     740.907E-06     86.2055E-03         2.10167        -1.29832        -1.56497    -709.719E-03         1.27527        -1.32717    -393.050E-03     600.860E-03    -300.189E-03    -300.671E-03    -300.664E-03     600.859E-03    -300.195E-03    -1.71730E-03    -28.4785E+06    -30.7481E+06    -37.3915E+06    -29.9614E+06    -37.2726E+06    -29.3841E+06     762.742E+03         68.2678
             410     12.5958E-03     84.9145E-03     478.652E-03    -261.506E-03        -1.01203     448.960E-03    -982.335E-03    -261.506E-03     10.2423E-03     603.637E-03    -300.967E-03    -302.670E-03    -301.293E-03     602.259E-03    -300.967E-03     70.5044E-03     63.1649E+06     26.6125E+06    -4.10849E+06    -4.07898E+06     26.5829E+06     63.1649E+06     803.124E+03         93.1597
             411     11.8544E-03     84.7789E-03     385.346E-03    -278.459E-03    -900.110E-03     349.328E-03    -864.092E-03    -278.459E-03     4.96057E-03     603.305E-03    -300.884E-03    -302.422E-03    -301.261E-03     602.145E-03    -300.884E-03     64.0078E-03     38.4819E+06     8.30836E+06    -7.75339E+06    -7.59065E+06     8.14563E+06     38.4819E+06     1.17927E+06         90.5272
             412     11.1137E-03     84.6836E-03     302.397E-03    -294.495E-03    -797.432E-03     257.313E-03    -751.434E-03    -295.410E-03     6.60511E-03     602.512E-03    -300.793E-03    -301.719E-03    -301.006E-03     601.799E-03    -300.793E-03     50.6536E-03     16.5904E+06    -6.02528E+06    -12.6601E+06    -10.0660E+06    -8.61939E+06     16.5904E+06     1.51039E+06         87.1892
             413     10.3725E-03     84.5975E-03     231.234E-03    -275.865E-03    -738.721E-03     173.428E-03    -643.586E-03    -313.194E-03     8.43977E-03     601.952E-03    -300.730E-03    -301.222E-03    -300.710E-03     601.439E-03    -300.730E-03     42.7614E-03     3.54052E+06    -10.7746E+06    -18.6900E+06    -11.3383E+06    -18.1263E+06     3.54052E+06     1.96009E+06         83.5360
             414     9.63141E-03     84.5305E-03     174.914E-03    -234.330E-03    -717.898E-03     94.0415E-03    -539.959E-03    -331.397E-03     1.88877E-03     601.442E-03    -300.565E-03    -300.877E-03    -300.404E-03     601.113E-03    -300.709E-03     34.2591E-03    -1.73218E+06    -11.6239E+06    -22.1965E+06    -12.2169E+06    -21.6035E+06    -1.73218E+06     2.41342E+06         79.9676
             415     8.88983E-03     84.4762E-03     141.233E-03    -216.143E-03    -699.603E-03     16.8505E-03    -441.340E-03    -350.024E-03     7.22512E-03     601.172E-03    -300.393E-03    -300.779E-03    -300.244E-03     600.964E-03    -300.720E-03     27.1625E-03    -2.28961E+06    -12.0206E+06    -22.1226E+06    -12.9698E+06    -21.1735E+06    -2.28961E+06     2.88721E+06         76.7977
             416     8.14824E-03     84.4315E-03     133.727E-03    -226.246E-03    -682.729E-03    -60.2350E-03    -346.394E-03    -368.619E-03    -3.24159E-03     601.170E-03    -300.428E-03    -300.743E-03    -300.306E-03     601.049E-03    -300.743E-03     20.7053E-03    -1.37545E+06    -12.3633E+06    -20.9243E+06    -13.8721E+06    -19.4155E+06    -1.37545E+06     3.20799E+06         74.2037
             417     7.40736E-03     84.3998E-03     150.243E-03    -256.710E-03    -669.243E-03    -131.582E-03    -257.047E-03    -387.081E-03     1.44137E-03     601.239E-03    -300.478E-03    -300.761E-03    -300.414E-03     601.175E-03    -300.761E-03     15.0092E-03    -972.376E+03    -12.9131E+06    -20.4999E+06    -15.0615E+06    -18.3515E+06    -972.376E+03     3.38495E+06         72.2282
             418     6.66640E-03     84.3771E-03     180.224E-03    -294.203E-03    -658.563E-03    -196.967E-03    -170.129E-03    -405.447E-03     2.48042E-03     601.294E-03    -300.525E-03    -300.768E-03    -300.496E-03     601.264E-03    -300.768E-03     10.0104E-03    -1.94548E+06    -13.5590E+06    -20.9153E+06    -16.4523E+06    -18.0219E+06    -1.94548E+06     3.56126E+06         70.8155
             419     5.92555E-03     84.3638E-03     219.702E-03    -331.448E-03    -655.701E-03    -252.392E-03    -91.1582E-03    -423.896E-03    -12.6768E-03     601.426E-03    -300.648E-03    -300.778E-03    -300.654E-03     601.416E-03    -300.762E-03     5.63396E-03    -4.07918E+06    -14.8324E+06    -22.2717E+06    -18.0737E+06    -19.0304E+06    -4.07918E+06     3.68159E+06         69.8582
             420     5.18495E-03     84.3569E-03     269.231E-03    -371.183E-03    -662.025E-03    -308.800E-03    -13.0587E-03    -442.119E-03     20.4078E-03     601.475E-03    -300.704E-03    -300.771E-03    -300.734E-03     601.473E-03    -300.739E-03     2.08101E-03    -7.06752E+06    -16.7206E+06    -24.0762E+06    -19.7071E+06    -21.0897E+06    -7.06752E+06     3.60420E+06         69.2376
             421     4.44434E-03     84.3555E-03     330.903E-03    -407.895E-03    -688.519E-03    -356.495E-03     50.7319E-03    -459.748E-03    -52.7562E-03     601.421E-03    -300.686E-03    -300.735E-03    -300.717E-03     601.420E-03    -300.703E-03    -760.198E-06    -11.1247E+06    -18.8333E+06    -25.6508E+06    -21.2547E+06    -23.2293E+06    -11.1247E+06     3.24799E+06         68.8481
             422     3.70376E-03     84.3585E-03     424.727E-03    -450.168E-03    -743.580E-03    -413.458E-03     119.660E-03    -475.223E-03     81.5522E-03     601.342E-03    -300.641E-03    -300.701E-03    -300.672E-03     601.340E-03    -300.668E-03    -2.63664E-03    -15.4833E+06    -21.0248E+06    -27.4023E+06    -22.7782E+06    -25.6489E+06    -15.4833E+06     2.82895E+06         68.6086
             423     2.96290E-03     84.3641E-03     554.397E-03    -479.650E-03    -846.204E-03    -442.265E-03     159.450E-03    -488.642E-03    -164.904E-03     601.283E-03    -300.618E-03    -300.664E-03    -300.637E-03     601.279E-03    -300.642E-03    -3.58474E-03    -18.9527E+06    -22.8316E+06    -29.2546E+06    -23.9757E+06    -28.1105E+06    -18.9527E+06     2.40973E+06         68.4625
             424     2.22233E-03     84.3700E-03     793.492E-03    -490.101E-03        -1.06638    -490.323E-03     224.715E-03    -497.385E-03     293.264E-03     601.206E-03    -300.551E-03    -300.655E-03    -300.572E-03     601.202E-03    -300.630E-03    -3.65183E-03    -21.8938E+06    -24.4417E+06    -30.6907E+06    -25.0719E+06    -30.0604E+06    -21.8938E+06     1.85119E+06         68.3739
             425     1.48154E-03     84.3763E-03         1.20633    -511.886E-03        -1.45699    -465.420E-03     214.764E-03    -511.886E-03    -614.575E-03     601.183E-03    -300.510E-03    -300.673E-03    -300.528E-03     601.181E-03    -300.653E-03    -2.76679E-03    -24.2344E+06    -25.6015E+06    -31.9377E+06    -25.8354E+06    -31.6491E+06    -24.2892E+06     1.26184E+06         68.3214
             426     740.742E-06     84.3805E-03         2.53088    -768.472E-03        -2.51926    -252.279E-03     292.752E-03    -797.322E-03         1.93368     601.351E-03    -300.505E-03    -300.846E-03    -300.780E-03     601.350E-03    -300.570E-03    -1.70918E-03    -25.1332E+06    -26.7414E+06    -33.8801E+06    -25.9892E+06    -33.7905E+06    -25.9749E+06     691.164E+03         68.2929
             427     12.5954E-03     83.0893E-03     509.467E-03     101.674E-03        -1.38589     482.605E-03        -1.35902     101.674E-03     7.71796E-03     603.945E-03    -301.078E-03    -302.867E-03    -301.493E-03     602.571E-03    -301.078E-03     70.4481E-03     59.1828E+06     24.7704E+06    -4.03580E+06    -4.00116E+06     24.7358E+06     59.1828E+06     754.379E+03         93.1119
             428     11.8535E-03     82.9546E-03     462.157E-03     106.569E-03        -1.34025     432.835E-03        -1.31093     106.569E-03     1.50728E-03     603.330E-03    -301.004E-03    -302.326E-03    -301.154E-03     602.159E-03    -301.004E-03     64.3637E-03     35.5841E+06     7.74136E+06    -7.31790E+06    -7.04377E+06     7.46723E+06     35.5841E+06     1.53035E+06         90.5031
             429     11.1117E-03     82.8564E-03     420.937E-03     110.565E-03        -1.29871     389.540E-03        -1.26732     110.565E-03     2.43117E-03     602.584E-03    -300.934E-03    -301.650E-03    -300.923E-03     601.857E-03    -300.934E-03     51.1180E-03     14.5003E+06    -5.48425E+06    -12.5324E+06    -9.22518E+06    -8.79152E+06     14.5003E+06     1.77313E+06         87.1961
             430     10.3707E-03     82.7735E-03     385.222E-03     112.672E-03        -1.25994     351.707E-03        -1.22643     112.672E-03     1.99916E-03     602.304E-03    -300.885E-03    -301.419E-03    -300.897E-03     601.782E-03    -300.885E-03     43.1701E-03     2.23031E+06    -10.1546E+06    -19.2952E+06    -10.5561E+06    -18.8938E+06     2.23031E+06     1.80632E+06         83.5738
             431     9.62906E-03     82.7050E-03     351.873E-03     113.476E-03        -1.22308     316.567E-03        -1.18777     113.476E-03    -2.18208E-03     602.043E-03    -300.857E-03    -301.187E-03    -300.851E-03     601.708E-03    -300.857E-03     34.5839E-03    -2.27870E+06    -10.8031E+06    -22.6522E+06    -11.2047E+06    -22.2506E+06    -2.27870E+06     2.09874E+06         80.0296
             432     8.88866E-03     82.6508E-03     321.400E-03     112.908E-03        -1.18960     283.425E-03        -1.15163     112.908E-03    -2.01269E-03     601.811E-03    -300.765E-03    -301.046E-03    -300.760E-03     601.602E-03    -300.842E-03     27.3238E-03    -2.57551E+06    -10.9617E+06    -22.1859E+06    -11.6543E+06    -21.4932E+06    -2.57551E+06     2.59457E+06         76.8731
             433     8.14788E-03     82.6073E-03     291.959E-03     111.209E-03        -1.15746     251.071E-03        -1.11658     111.209E-03    -3.49934E-03     601.431E-03    -300.537E-03    -300.893E-03    -300.462E-03     601.308E-03    -300.846E-03     20.8159E-03    -1.79890E+06    -11.1716E+06    -20.5897E+06    -12.3663E+06    -19.3950E+06    -1.79890E+06     3.02069E+06         74.2812
             434     7.40643E-03     82.5743E-03     268.793E-03     108.323E-03        -1.13042     222.525E-03        -1.08415     108.323E-03    -13.3802E-03     601.292E-03    -300.421E-03    -300.871E-03    -300.358E-03     601.229E-03    -300.871E-03     14.8328E-03    -1.27071E+06    -11.6045E+06    -19.5191E+06    -13.2823E+06    -17.8413E+06    -1.27071E+06     3.17313E+06         72.2995
             435     6.66543E-03     82.5520E-03     252.106E-03     104.148E-03        -1.10714     196.255E-03        -1.05129     104.148E-03     12.7871E-03     601.438E-03    -300.542E-03    -300.896E-03    -300.514E-03     601.410E-03    -300.896E-03     9.71623E-03    -1.65901E+06    -12.2573E+06    -19.5327E+06    -14.4735E+06    -17.3166E+06    -1.65901E+06     3.28672E+06         70.8767
             436     5.92471E-03     82.5375E-03     248.326E-03     98.5605E-03        -1.09450     175.278E-03        -1.02146     98.5605E-03    -40.8078E-03     601.645E-03    -300.728E-03    -300.917E-03    -300.735E-03     601.636E-03    -300.901E-03     5.36879E-03    -3.52678E+06    -13.2768E+06    -20.3977E+06    -15.8922E+06    -17.7823E+06    -3.52678E+06     3.40717E+06         69.9090
             437     5.18425E-03     82.5307E-03     257.154E-03     91.7444E-03        -1.09449     151.625E-03    -988.965E-03     91.7444E-03     54.6266E-03     601.748E-03    -300.834E-03    -300.914E-03    -300.864E-03     601.746E-03    -300.882E-03     1.86709E-03    -6.56365E+06    -14.8860E+06    -21.6058E+06    -17.2710E+06    -19.2208E+06    -6.56365E+06     3.20687E+06         69.2792
             438     4.44376E-03     82.5295E-03     298.091E-03     83.9762E-03        -1.12852     132.022E-03    -962.451E-03     83.9762E-03    -118.544E-03     601.698E-03    -300.827E-03    -300.870E-03    -300.844E-03     601.697E-03    -300.854E-03    -810.804E-06    -10.0340E+06    -16.8164E+06    -23.0731E+06    -18.6728E+06    -21.2167E+06    -10.0340E+06     2.83934E+06         68.8829
             439     3.70306E-03     82.5329E-03     390.827E-03     76.4093E-03        -1.21522     104.058E-03    -928.447E-03     76.4093E-03     179.704E-03     601.668E-03    -300.812E-03    -300.856E-03    -300.840E-03     601.666E-03    -300.825E-03    -2.60235E-03    -13.3230E+06    -18.4615E+06    -24.7424E+06    -19.9050E+06    -23.2989E+06    -13.3230E+06     2.62264E+06         68.6386
             440     2.96272E-03     82.5381E-03     593.273E-03     69.0637E-03        -1.41148     92.7372E-03    -910.942E-03     69.0637E-03    -339.208E-03     601.623E-03    -300.794E-03    -300.829E-03    -300.825E-03     601.620E-03    -300.795E-03    -3.54000E-03    -16.5925E+06    -20.0680E+06    -26.3738E+06    -21.0519E+06    -25.3899E+06    -16.5925E+06     2.24858E+06         68.4895
             441     2.22195E-03     82.5449E-03         1.00859     63.8266E-03        -1.81448     65.4745E-03    -871.370E-03     63.8266E-03     599.941E-03     601.517E-03    -300.697E-03    -300.820E-03    -300.736E-03     601.513E-03    -300.777E-03    -3.74045E-03    -19.6517E+06    -21.4775E+06    -27.8212E+06    -21.9880E+06    -27.3107E+06    -19.6517E+06     1.67237E+06         68.3992
             442     1.48094E-03     82.5512E-03         1.88056     53.4781E-03        -2.67765     86.1556E-03    -883.247E-03     53.4781E-03        -1.23259     601.497E-03    -300.654E-03    -300.843E-03    -300.704E-03     601.494E-03    -300.791E-03    -3.05420E-03    -21.7153E+06    -22.2778E+06    -28.8196E+06    -22.4278E+06    -28.6148E+06    -21.7701E+06     1.06309E+06         68.3457
             443     740.239E-06     82.5540E-03         4.48487    -160.593E-03        -5.06634     248.392E-03    -829.867E-03    -160.593E-03         3.82597     601.616E-03    -300.669E-03    -300.948E-03    -300.847E-03     601.615E-03    -300.768E-03    -1.99085E-03    -22.2301E+06    -22.9754E+06    -30.0173E+06    -22.7563E+06    -29.8977E+06    -22.5688E+06     884.342E+03         68.3167
             444     12.5922E-03     81.2620E-03     608.593E-03     421.590E-03        -1.77788     514.520E-03        -1.75537     493.152E-03     4.74536E-03     604.123E-03    -301.211E-03    -302.912E-03    -301.535E-03     602.746E-03    -301.211E-03     70.5381E-03     56.3074E+06     23.0063E+06    -3.75527E+06    -3.71647E+06     22.9675E+06     56.3074E+06     876.085E+03         93.0648
             445     11.8513E-03     81.1298E-03     616.237E-03     444.962E-03        -1.80385     518.391E-03        -1.78086     519.816E-03    -1.71726E-03     603.567E-03    -301.146E-03    -302.421E-03    -301.250E-03     602.396E-03    -301.146E-03     64.3911E-03     33.5153E+06     6.72555E+06    -6.90923E+06    -6.69258E+06      6.5089E+06     33.5153E+06     1.32932E+06         90.4789
             446     11.1097E-03     81.0314E-03     625.175E-03     469.379E-03        -1.83272     527.034E-03        -1.81000     544.799E-03    -2.62910E-03     602.703E-03    -301.083E-03    -301.620E-03    -300.895E-03     601.978E-03    -301.083E-03     51.0542E-03     12.5388E+06    -5.21949E+06    -12.2008E+06    -8.47628E+06    -8.94402E+06     12.5388E+06     1.60384E+06         87.2028
             447     10.3684E-03     80.9468E-03     634.681E-03     493.809E-03        -1.86334     538.765E-03        -1.84071     567.094E-03    -4.12625E-03     602.690E-03    -301.037E-03    -301.653E-03    -301.141E-03     602.178E-03    -301.037E-03     42.7941E-03     167.057E+03    -9.13396E+06    -19.2839E+06    -9.46772E+06    -18.9501E+06     167.057E+03     1.74091E+06         83.6114
             448     9.62836E-03     80.8789E-03     643.752E-03     517.784E-03        -1.89376     552.317E-03        -1.87172     587.179E-03    -8.28146E-03     602.563E-03    -301.001E-03    -301.562E-03    -301.232E-03     602.233E-03    -301.001E-03     34.3379E-03    -3.83901E+06    -9.63407E+06    -22.8224E+06    -9.89394E+06    -22.5626E+06    -3.83901E+06     1.82579E+06         80.0914
             449     8.88727E-03     80.8242E-03     652.378E-03     541.947E-03        -1.92438     567.443E-03        -1.90230     604.804E-03    -11.2822E-03     602.251E-03    -300.975E-03    -301.276E-03    -301.069E-03     602.044E-03    -300.975E-03     27.1684E-03    -3.37237E+06    -9.91743E+06    -22.5253E+06    -10.2974E+06    -22.1453E+06    -3.37237E+06     2.07488E+06         76.9482
             450     8.14658E-03     80.7815E-03     659.869E-03     565.539E-03        -1.95298     583.235E-03        -1.93082     620.012E-03    -8.28032E-03     601.928E-03    -300.859E-03    -301.069E-03    -300.841E-03     601.806E-03    -300.964E-03     20.7963E-03    -1.65717E+06    -10.0244E+06    -20.3755E+06    -10.7236E+06    -19.6763E+06    -1.65717E+06     2.48205E+06         74.3587
             451     7.40595E-03     80.7494E-03     667.967E-03     588.186E-03        -1.98116     599.717E-03        -1.95742     632.704E-03    -26.7242E-03     601.684E-03    -300.692E-03    -300.992E-03    -300.651E-03     601.620E-03    -300.969E-03     14.8696E-03    -722.651E+03    -10.2801E+06    -18.9172E+06    -11.5264E+06    -17.6709E+06    -722.651E+03     2.96589E+06         72.3715
             452     6.66505E-03     80.7258E-03     676.001E-03     608.511E-03        -2.00777     614.200E-03        -1.98028     642.816E-03     13.2516E-03     601.642E-03    -300.661E-03    -300.981E-03    -300.633E-03     601.614E-03    -300.981E-03     9.63354E-03    -1.53299E+06    -10.9038E+06    -18.3365E+06    -12.6765E+06    -16.5638E+06    -1.53299E+06     3.13340E+06         70.9389
             453     5.92430E-03     80.7116E-03     686.214E-03     627.126E-03        -2.03580     627.198E-03        -2.00003     650.372E-03    -61.6206E-03     601.712E-03    -300.722E-03    -300.990E-03    -300.713E-03     601.703E-03    -300.990E-03     5.25520E-03    -3.60340E+06    -11.8365E+06    -18.3749E+06    -13.7775E+06    -16.4339E+06    -3.60340E+06     2.96861E+06         69.9603
             454     5.18353E-03     80.7040E-03     698.477E-03     646.048E-03        -2.06647     636.458E-03        -2.01394     655.541E-03     69.8446E-03     601.773E-03    -300.778E-03    -300.995E-03    -300.777E-03     601.772E-03    -300.995E-03     1.68015E-03    -6.16883E+06    -13.0348E+06    -19.4359E+06    -14.9346E+06    -17.5362E+06    -6.16883E+06     2.90667E+06         69.3209
             455     4.44295E-03     80.7034E-03     736.076E-03     657.393E-03        -2.11565     644.785E-03        -2.02556     658.591E-03    -159.993E-03     601.875E-03    -300.880E-03    -300.995E-03    -300.880E-03     601.875E-03    -300.995E-03    -924.348E-06    -8.84901E+06    -14.5340E+06    -20.8750E+06    -16.1491E+06    -19.2600E+06    -8.84901E+06     2.74608E+06         68.9171
             456     3.70257E-03     80.7062E-03     821.746E-03     660.084E-03        -2.20304     648.558E-03        -2.02985     660.084E-03     233.765E-03     601.948E-03    -300.954E-03    -300.994E-03    -300.964E-03     601.946E-03    -300.982E-03    -2.66141E-03    -11.8577E+06    -16.2179E+06    -22.4777E+06    -17.4398E+06    -21.2558E+06    -11.8577E+06     2.47498E+06         68.6677
             457     2.96192E-03     80.7120E-03         1.01711     659.926E-03        -2.39630     656.936E-03        -2.03613     659.926E-03    -440.580E-03     601.934E-03    -300.947E-03    -300.986E-03    -300.971E-03     601.930E-03    -300.959E-03    -3.61445E-03    -14.7440E+06    -17.5743E+06    -23.7898E+06    -18.4197E+06    -22.9444E+06    -14.7440E+06     2.08864E+06         68.5154
             458     2.22155E-03     80.7187E-03         1.44921     659.167E-03        -2.82661     653.465E-03        -2.03087     659.167E-03     774.168E-03     601.964E-03    -300.920E-03    -301.044E-03    -301.039E-03     601.960E-03    -300.922E-03    -3.71311E-03    -16.9232E+06    -18.6185E+06    -24.9784E+06    -19.0325E+06    -24.5643E+06    -16.9232E+06     1.50494E+06         68.4232
             459     1.48160E-03     80.7248E-03         2.45463     656.006E-03        -3.83160     664.501E-03        -2.04147     656.006E-03        -1.58404     601.871E-03    -300.845E-03    -301.026E-03    -301.023E-03     601.869E-03    -300.845E-03    -3.04809E-03    -18.5988E+06    -19.3757E+06    -26.1575E+06    -19.6527E+06    -25.8805E+06    -18.5988E+06     1.26656E+06         68.3687
             460     741.085E-06     80.7288E-03         5.61028     538.096E-03        -6.86738     766.569E-03        -2.02367     538.096E-03         4.90462     601.587E-03    -300.596E-03    -300.991E-03    -300.949E-03     601.585E-03    -300.637E-03    -1.99997E-03    -19.6675E+06    -20.1209E+06    -27.2607E+06    -20.0706E+06    -27.0270E+06    -19.9514E+06     925.146E+03         68.3393
             461     12.5913E-03     79.4363E-03     887.022E-03     559.836E-03        -2.16151     542.331E-03        -2.14400     887.022E-03     1.93813E-03     604.340E-03    -301.348E-03    -302.991E-03    -301.621E-03     602.970E-03    -301.348E-03     70.3837E-03     54.1431E+06     21.6951E+06    -3.37619E+06    -3.34294E+06     21.6618E+06     54.1431E+06     827.155E+03         93.0179
             462     11.8495E-03     79.3029E-03     934.060E-03     616.499E-03        -2.25889     599.460E-03        -2.24185     934.060E-03    -3.28761E-03     603.982E-03    -301.280E-03    -302.702E-03    -301.553E-03     602.833E-03    -301.280E-03     63.7519E-03     31.6401E+06     6.05103E+06    -6.58898E+06    -6.42177E+06     5.88381E+06     31.6401E+06     1.09006E+06         90.4553
             463     11.1086E-03     79.2061E-03     978.657E-03     676.213E-03        -2.35870     660.250E-03        -2.34273     978.657E-03    -7.08046E-03     603.029E-03    -301.211E-03    -301.818E-03    -301.105E-03     602.315E-03    -301.211E-03     50.6998E-03     11.2211E+06    -5.62274E+06    -11.9429E+06    -8.11812E+06    -9.44749E+06     11.2211E+06     1.29593E+06         87.2106
             464     10.3677E-03     79.1199E-03         1.01997     737.251E-03        -2.45941     722.044E-03        -2.44420         1.01997    -7.16571E-03     602.780E-03    -301.167E-03    -301.613E-03    -301.095E-03     602.262E-03    -301.167E-03     43.0249E-03    -1.31343E+06    -8.66571E+06    -19.1444E+06    -8.92203E+06    -18.8881E+06    -1.31343E+06     1.58081E+06         83.6495
             465     9.62639E-03     79.0515E-03         1.05831     798.725E-03        -2.55855     784.557E-03        -2.54438         1.05831    -13.4791E-03     602.756E-03    -301.138E-03    -301.618E-03    -301.282E-03     602.420E-03    -301.138E-03     34.6262E-03    -6.17505E+06    -9.25719E+06    -22.9676E+06    -9.51222E+06    -22.7126E+06    -6.17505E+06     1.84454E+06         80.1523
             466     8.88627E-03     78.9976E-03         1.09317     862.080E-03        -2.65455     848.386E-03        -2.64086         1.09317    -15.5875E-03     602.615E-03    -301.113E-03    -301.502E-03    -301.291E-03     602.404E-03    -301.113E-03     27.4034E-03    -5.88936E+06    -9.60701E+06    -22.5758E+06    -9.91852E+06    -22.2643E+06    -5.88936E+06     1.96680E+06         77.0218
             467     8.14562E-03     78.9549E-03         1.12444     925.603E-03        -2.74557     912.261E-03        -2.73223         1.12444    -13.4749E-03     602.415E-03    -301.092E-03    -301.323E-03    -301.199E-03     602.291E-03    -301.092E-03     20.9589E-03    -4.02827E+06    -9.93307E+06    -20.4745E+06    -10.4054E+06    -20.0022E+06    -4.02827E+06     2.12226E+06         74.4351
             468     7.40509E-03     78.9227E-03         1.15195     986.988E-03        -2.83078     972.984E-03        -2.81678         1.15195    -31.7700E-03     602.230E-03    -301.017E-03    -301.214E-03    -301.093E-03     602.165E-03    -301.073E-03     15.0746E-03    -2.79730E+06    -10.1931E+06    -18.7554E+06    -11.0373E+06    -17.9112E+06    -2.79730E+06     2.47334E+06         72.4430
             469     6.66455E-03     78.9001E-03         1.17568         1.04342        -2.90961         1.02739        -2.89358         1.17568     7.75223E-03     601.998E-03    -300.884E-03    -301.115E-03    -300.909E-03     601.970E-03    -301.061E-03     9.84638E-03    -2.65910E+06    -10.2006E+06    -17.1445E+06    -11.6208E+06    -15.7244E+06    -2.65910E+06     2.70052E+06         71.0011
             470     5.92387E-03     78.8849E-03         1.19589         1.09444        -2.98249         1.07342        -2.96146         1.19589    -67.9539E-03     601.844E-03    -300.777E-03    -301.067E-03    -300.768E-03     601.835E-03    -301.067E-03     5.35088E-03    -3.42529E+06    -10.8187E+06    -16.9103E+06    -12.4059E+06    -15.3232E+06    -3.42529E+06     2.66348E+06         70.0118
             471     5.18324E-03     78.8782E-03         1.21285         1.14562        -3.05236         1.11445        -3.02119         1.21285     65.4318E-03     601.859E-03    -300.774E-03    -301.084E-03    -300.773E-03     601.857E-03    -301.084E-03     1.62420E-03    -5.36770E+06    -11.9613E+06    -17.8971E+06    -13.4606E+06    -16.3978E+06    -5.36770E+06     2.57336E+06         69.3628
             472     4.44249E-03     78.8766E-03         1.24059         1.19207        -3.12516         1.15082        -3.07010         1.22678    -167.220E-03     601.970E-03    -300.870E-03    -301.100E-03    -300.869E-03     601.969E-03    -301.100E-03    -1.09059E-03    -8.20152E+06    -13.1045E+06    -19.0334E+06    -14.5211E+06    -17.6167E+06    -8.20152E+06     2.51479E+06         68.9514
             473     3.70200E-03     78.8793E-03         1.30579         1.22708        -3.22189         1.18682        -3.11329         1.23745     232.326E-03     602.090E-03    -300.980E-03    -301.110E-03    -300.978E-03     602.088E-03    -301.110E-03    -2.83311E-03    -10.7320E+06    -14.3065E+06    -20.3434E+06    -15.3572E+06    -19.2927E+06    -10.7320E+06     2.26289E+06         68.6966
             474     2.96172E-03     78.8853E-03         1.45279         1.24494        -3.38346         1.21276        -3.14343         1.24494    -449.427E-03     602.201E-03    -301.065E-03    -301.136E-03    -301.091E-03     602.197E-03    -301.106E-03    -3.67881E-03    -12.8297E+06    -15.4178E+06    -21.3447E+06    -16.1004E+06    -20.6621E+06    -12.8297E+06     1.85512E+06         68.5409
             475     2.22128E-03     78.8916E-03         1.80246         1.24909        -3.74020         1.23651        -3.17426         1.24909     777.102E-03     602.241E-03    -301.062E-03    -301.179E-03    -301.156E-03     602.237E-03    -301.081E-03    -3.69653E-03    -14.5979E+06    -16.4696E+06    -22.5303E+06    -16.8502E+06    -22.1497E+06    -14.5979E+06     1.43396E+06         68.4466
             476     1.48065E-03     78.8979E-03         2.66109         1.25309        -4.60557         1.23767        -3.18216         1.25309        -1.59927     602.165E-03    -301.005E-03    -301.160E-03    -301.130E-03     602.162E-03    -301.033E-03    -2.93123E-03    -16.1050E+06    -17.0653E+06    -23.6719E+06    -17.3391E+06    -23.3981E+06    -16.1050E+06     1.04306E+06         68.3910
             477     740.314E-06     78.9029E-03         5.59456         1.23015        -7.52161         1.28049        -3.20754         1.23015         4.94544     602.003E-03    -300.756E-03    -301.247E-03    -301.237E-03     602.002E-03    -300.765E-03    -1.66606E-03    -16.8335E+06    -17.1095E+06    -24.5499E+06    -17.1849E+06    -24.3815E+06    -16.9264E+06     498.845E+03         68.3611
             478     12.5887E-03     77.6095E-03         1.25700     577.668E-03        -2.51123     565.248E-03        -2.49881         1.25700    -862.025E-06     604.568E-03    -301.476E-03    -303.092E-03    -301.717E-03     603.193E-03    -301.476E-03     70.5123E-03     51.2794E+06     20.1641E+06    -3.45377E+06    -3.43515E+06     20.1455E+06     51.2794E+06     509.326E+03         92.9729
             479     11.8483E-03     77.4753E-03         1.32155     684.437E-03        -2.67547     672.828E-03        -2.66386         1.32155    -3.61380E-03     604.288E-03    -301.414E-03    -302.874E-03    -301.708E-03     603.122E-03    -301.414E-03     64.2651E-03     29.9751E+06     5.61830E+06    -6.19462E+06    -6.00088E+06     5.42456E+06     29.9751E+06     987.919E+03         90.4328
             480     11.1073E-03     77.3796E-03         1.38297     793.110E-03        -2.84114     782.674E-03        -2.83070         1.38297    -10.3912E-03     603.586E-03    -301.339E-03    -302.247E-03    -301.526E-03     602.865E-03    -301.339E-03     50.9829E-03     10.0028E+06    -5.50112E+06    -11.8805E+06    -7.67047E+06    -9.71118E+06     10.0028E+06     1.40564E+06         87.2188
             481     10.3658E-03     77.2939E-03         1.44055     900.462E-03        -3.00594     890.936E-03        -2.99642         1.44055    -6.63024E-03     603.076E-03    -301.287E-03    -301.789E-03    -301.276E-03     602.563E-03    -301.287E-03     42.8254E-03    -2.24829E+06    -8.34640E+06    -19.7630E+06    -8.63375E+06    -19.4757E+06    -2.24829E+06     1.73466E+06         83.6880
             482     9.62509E-03     77.2244E-03         1.49467         1.00673        -3.16747     998.206E-03        -3.15894         1.49467    -17.0236E-03     602.744E-03    -301.260E-03    -301.485E-03    -301.150E-03     602.416E-03    -301.266E-03     34.2224E-03    -7.01914E+06    -8.72384E+06    -23.3410E+06    -8.99797E+06    -23.0668E+06    -7.01914E+06     1.97557E+06         80.2132
             483     8.88423E-03     77.1696E-03         1.54469         1.11396        -3.32284         1.10609        -3.31496         1.54469    -13.7288E-03     602.799E-03    -301.243E-03    -301.556E-03    -301.344E-03     602.594E-03    -301.250E-03     27.0438E-03    -7.59721E+06    -8.88954E+06    -22.2888E+06    -9.23629E+06    -21.9421E+06    -7.59721E+06     2.11108E+06         77.0947
             484     8.14414E-03     77.1275E-03         1.59023         1.22113        -3.47037         1.21375        -3.46299         1.59023    -17.8498E-03     602.781E-03    -301.226E-03    -301.555E-03    -301.433E-03     602.659E-03    -301.226E-03     20.8136E-03    -6.08091E+06    -9.07842E+06    -20.0966E+06    -9.49086E+06    -19.6842E+06    -6.08091E+06     2.07596E+06         74.5105
             485     7.40392E-03     77.0951E-03         1.63102         1.32237        -3.60772         1.31497        -3.60031         1.63102    -26.3379E-03     602.642E-03    -301.199E-03    -301.443E-03    -301.377E-03     602.577E-03    -301.199E-03     15.1043E-03    -4.17531E+06    -9.32142E+06    -18.1384E+06    -9.82952E+06    -17.6303E+06    -4.17531E+06     2.01950E+06         72.5136
             486     6.66381E-03     77.0728E-03         1.66704         1.41446        -3.73555         1.40629        -3.72737         1.66704    -375.882E-06     602.423E-03    -301.128E-03    -301.295E-03    -301.221E-03     602.394E-03    -301.173E-03     9.95945E-03    -3.48428E+06    -9.58309E+06    -16.1768E+06    -10.4269E+06    -15.3330E+06    -3.48428E+06     2.08494E+06         71.0628
             487     5.92336E-03     77.0587E-03         1.69870         1.49426        -3.85062         1.48381        -3.84017         1.69870    -55.7713E-03     602.163E-03    -300.976E-03    -301.187E-03    -300.991E-03     602.153E-03    -301.163E-03     5.50625E-03    -3.88451E+06    -10.0591E+06    -15.7559E+06    -11.1460E+06    -14.6690E+06    -3.88451E+06     2.19517E+06         70.0635
             488     5.18270E-03     77.0513E-03         1.72634         1.57066        -3.95796         1.55546        -3.94276         1.72634     46.1368E-03     602.087E-03    -300.913E-03    -301.174E-03    -300.911E-03     602.085E-03    -301.174E-03     1.87352E-03    -4.89852E+06    -10.8013E+06    -16.4226E+06    -11.8829E+06    -15.3411E+06    -4.89852E+06     2.18430E+06         69.4053
             489     4.44238E-03     77.0498E-03         1.75004         1.64555        -4.05385         1.61875        -4.02704         1.75004    -135.084E-03     602.148E-03    -300.955E-03    -301.193E-03    -300.955E-03     602.147E-03    -301.193E-03    -934.916E-06    -6.45040E+06    -11.6773E+06    -17.3106E+06    -12.6554E+06    -16.3325E+06    -6.45040E+06     2.07567E+06         68.9865
             490     3.70169E-03     77.0526E-03         1.78340         1.72266        -4.15889         1.68436        -4.10601         1.76883     179.517E-03     602.218E-03    -301.005E-03    -301.213E-03    -301.003E-03     602.215E-03    -301.213E-03    -2.82898E-03    -8.52831E+06    -12.6849E+06    -18.2976E+06    -13.4038E+06    -17.5787E+06    -8.52831E+06     1.83747E+06         68.7264
             491     2.96112E-03     77.0577E-03         1.85117         1.77756        -4.27805         1.72528        -4.15774         1.78316    -360.443E-03     602.328E-03    -301.082E-03    -301.245E-03    -301.094E-03     602.324E-03    -301.230E-03    -3.68557E-03    -10.8167E+06    -13.5324E+06    -19.0986E+06    -14.0274E+06    -18.6036E+06    -10.8167E+06     1.54707E+06         68.5671
             492     2.22095E-03     77.0644E-03         2.06927         1.79154        -4.51477         1.77439        -4.21988         1.79154     614.857E-03     602.411E-03    -301.151E-03    -301.260E-03    -301.162E-03     602.407E-03    -301.245E-03    -3.71343E-03    -12.9829E+06    -14.3895E+06    -20.2276E+06    -14.6731E+06    -19.9441E+06    -12.9829E+06     1.17233E+06         68.4706
             493     1.48076E-03     77.0709E-03         2.58299         1.80153        -5.04211         1.76612        -4.22524         1.80153        -1.27657     602.463E-03    -301.199E-03    -301.264E-03    -301.197E-03     602.461E-03    -301.264E-03    -3.06971E-03    -14.7493E+06    -15.2092E+06    -21.3797E+06    -15.3009E+06    -21.2748E+06    -14.7624E+06      572.13E+03         68.4139
             494     740.349E-06     77.0754E-03         4.58468         1.85050        -7.10412         1.76739        -4.28682         1.85050         3.93376     602.555E-03    -301.084E-03    -301.471E-03    -301.224E-03     602.554E-03    -301.330E-03    -1.78923E-03    -15.3005E+06    -15.7108E+06    -22.5642E+06    -15.6412E+06    -22.5276E+06    -15.4067E+06     242.866E+03         68.3834
             495     12.5880E-03     75.7823E-03         1.57798     588.879E-03        -2.80176     581.068E-03        -2.79395         1.57798    -4.36004E-03     604.666E-03    -301.596E-03    -303.071E-03    -301.715E-03     603.311E-03    -301.596E-03     69.9999E-03     48.5377E+06     18.9056E+06    -3.21935E+06    -3.20451E+06     18.8908E+06     48.5377E+06     411.339E+03         92.9318
             496     11.8455E-03     75.6491E-03         1.65590     740.764E-03        -3.02372     733.747E-03        -3.01671         1.65590    -3.71281E-03     604.406E-03    -301.547E-03    -302.859E-03    -301.698E-03     603.245E-03    -301.547E-03     64.1147E-03     27.9633E+06     4.18322E+06    -6.14835E+06    -5.93985E+06     3.97472E+06     27.9633E+06     887.485E+03         90.4129
             497     11.1048E-03     75.5501E-03         1.73028     891.988E-03        -3.24537     885.950E-03        -3.23933         1.73028    -14.5791E-03     604.004E-03    -301.474E-03    -302.530E-03    -301.816E-03     603.290E-03    -301.474E-03     50.7146E-03     8.43401E+06    -5.96557E+06    -12.2564E+06    -7.64841E+06    -10.5735E+06     8.43401E+06     1.41168E+06         87.2279
             498     10.3656E-03     75.4666E-03         1.80039         1.03883        -3.46356         1.03358        -3.45831         1.80039    -6.35593E-03     603.598E-03    -301.408E-03    -302.190E-03    -301.682E-03     603.089E-03    -301.408E-03     42.6955E-03    -3.31542E+06    -7.92973E+06    -20.0325E+06    -8.13894E+06    -19.7445E+06    -3.39419E+06      1.7848E+06         83.7267
             499     9.62456E-03     75.3978E-03         1.86671         1.18274        -3.67623         1.17830        -3.67179         1.86671    -23.0984E-03     603.028E-03    -301.369E-03    -301.659E-03    -301.319E-03     602.695E-03    -301.376E-03     34.4730E-03    -7.39781E+06    -8.50654E+06    -23.2552E+06    -8.22500E+06    -23.0314E+06    -7.90312E+06     1.82658E+06         80.2745
             500     8.88389E-03     75.3422E-03         1.92874         1.32657        -3.88065         1.32276        -3.87684         1.92874    -11.3836E-03     602.905E-03    -301.360E-03    -301.545E-03    -301.331E-03     602.697E-03    -301.367E-03     27.1602E-03    -7.41028E+06    -8.25236E+06    -21.9387E+06    -8.09221E+06    -21.6723E+06    -7.83682E+06     1.89201E+06         77.1679
             501     8.14328E-03     75.2991E-03         1.98584         1.47042        -4.07545         1.46711        -4.07213         1.98584    -26.2320E-03     602.967E-03    -301.354E-03    -301.614E-03    -301.494E-03     602.848E-03    -301.354E-03     20.5934E-03    -5.98122E+06    -7.73592E+06    -19.6266E+06    -8.09479E+06    -19.2677E+06    -5.98122E+06     2.01255E+06         74.5857
             502     7.40305E-03     75.2674E-03         2.03748         1.60595        -4.25712         1.60297        -4.25414         2.03748    -18.2978E-03     602.821E-03    -301.313E-03    -301.507E-03    -301.423E-03     602.757E-03    -301.334E-03     14.9300E-03    -4.14738E+06    -7.91686E+06    -17.5331E+06    -8.36297E+06    -17.0870E+06    -4.14738E+06     2.00852E+06         72.5839
             503     6.66264E-03     75.2448E-03         2.08364         1.72901        -4.42710         1.72601        -4.42410         2.08364    -16.9794E-03     602.666E-03    -301.283E-03    -301.383E-03    -301.322E-03     602.637E-03    -301.315E-03     10.0216E-03    -3.48893E+06    -8.35323E+06    -15.4533E+06    -8.92488E+06    -14.8816E+06    -3.48893E+06     1.89814E+06         71.1243
             504     5.92254E-03     75.2313E-03         2.12479         1.83500        -4.57956         1.83153        -4.57609         2.12479    -34.4789E-03     602.592E-03    -301.231E-03    -301.361E-03    -301.283E-03     602.582E-03    -301.299E-03     5.69104E-03    -3.84169E+06    -9.00249E+06    -14.8109E+06    -9.64857E+06    -14.1648E+06    -3.84169E+06     1.81701E+06         70.1154
             505     5.18220E-03     75.2244E-03         2.16113         1.93578        -4.72031         1.93107        -4.71560         2.16113     10.3102E-03     602.458E-03    -301.128E-03    -301.330E-03    -301.163E-03     602.456E-03    -301.292E-03     2.06010E-03    -4.65899E+06    -9.60229E+06    -15.1106E+06    -10.2963E+06    -14.4166E+06    -4.65899E+06     1.81486E+06         69.4485
             506     4.44156E-03     75.2223E-03         2.19262         2.02525        -4.83837         2.01730        -4.83041         2.19262    -77.1377E-03     602.395E-03    -301.094E-03    -301.301E-03    -301.093E-03     602.394E-03    -301.301E-03    -733.073E-06    -5.98409E+06    -10.4337E+06    -15.7003E+06    -11.0405E+06    -15.0935E+06    -5.98409E+06     1.66446E+06         69.0228
             507     3.70147E-03     75.2254E-03         2.21792         2.12171        -4.95385         2.10639        -4.93853         2.21792     84.3956E-03     602.432E-03    -301.110E-03    -301.322E-03    -301.108E-03     602.430E-03    -301.322E-03    -2.57762E-03    -7.76838E+06    -11.4323E+06    -16.6857E+06    -11.8698E+06    -16.2482E+06    -7.76838E+06     1.43345E+06         68.7576
             508     2.96115E-03     75.2304E-03         2.24097         2.19370        -5.04350         2.16211        -5.00836         2.23743    -197.281E-03     602.459E-03    -301.102E-03    -301.357E-03    -301.099E-03     602.456E-03    -301.357E-03    -3.50321E-03    -9.80729E+06    -12.2187E+06    -17.4593E+06    -12.5602E+06    -17.1178E+06    -9.80729E+06     1.25959E+06         68.5949
             509     2.22047E-03     75.2368E-03         2.33649         2.22830        -5.18199         2.22758        -5.09389         2.24911     322.574E-03     602.615E-03    -301.207E-03    -301.408E-03    -301.204E-03     602.612E-03    -301.408E-03    -3.56599E-03    -11.6788E+06    -12.8461E+06    -18.4217E+06    -13.0492E+06    -18.2186E+06    -11.6788E+06     1.00515E+06         68.4964
             510     1.48011E-03     75.2427E-03         2.49877         2.24328        -5.36226         2.21425        -5.09820         2.26375    -687.118E-03     602.842E-03    -301.367E-03    -301.475E-03    -301.393E-03     602.840E-03    -301.447E-03    -3.02642E-03    -12.9434E+06    -13.2570E+06    -19.5741E+06    -13.3334E+06    -19.4710E+06    -12.9701E+06     765.179E+03         68.4384
             511     739.997E-06     75.2478E-03         3.27138         2.32535        -6.22920         2.20420        -5.18249         2.34582         2.10396     602.915E-03    -301.301E-03    -301.614E-03    -301.376E-03     602.913E-03    -301.538E-03    -1.97831E-03    -13.5107E+06    -13.9766E+06    -20.9686E+06    -13.9471E+06    -20.8004E+06    -13.7085E+06     830.084E+03         68.4073
             512     12.5856E-03     73.9571E-03         1.82761     590.307E-03        -3.00900     586.151E-03        -3.00484         1.82761    -7.86722E-03     605.180E-03    -301.713E-03    -303.467E-03    -302.110E-03     603.823E-03    -301.713E-03     70.0651E-03     46.2747E+06     17.6619E+06    -3.25452E+06    -3.22956E+06     17.6370E+06     46.2747E+06     597.756E+03         92.8938
             513     11.8453E-03     73.8206E-03         1.91392     777.638E-03        -3.27431     774.093E-03        -3.27077         1.91392    -3.09284E-03     604.877E-03    -301.654E-03    -303.222E-03    -302.064E-03     603.718E-03    -301.654E-03     64.0180E-03     26.7373E+06     3.33425E+06    -6.03535E+06    -5.74709E+06     3.04599E+06     26.7373E+06     906.568E+03         90.3966
             514     11.1045E-03     73.7227E-03         1.99653     962.213E-03        -3.53771     959.358E-03        -3.53486         1.99653    -18.9107E-03     603.919E-03    -301.585E-03    -302.333E-03    -301.630E-03     603.215E-03    -301.585E-03     50.3605E-03     7.83807E+06    -6.12968E+06    -12.2226E+06    -7.21531E+06    -11.1370E+06     7.83807E+06     1.16100E+06         87.2397
             515     10.3626E-03     73.6373E-03         2.07486         1.13977        -3.79593         1.13750        -3.79365         2.07486    -4.60170E-03     603.676E-03    -301.533E-03    -302.143E-03    -301.637E-03     603.171E-03    -301.533E-03     42.5417E-03    -4.10957E+06    -7.92126E+06    -20.2956E+06    -7.88852E+06    -20.1238E+06    -4.31410E+06     1.40386E+06         83.7656
             516     9.62282E-03     73.5702E-03         2.14927         1.31290        -4.04686         1.31115        -4.04510         2.14927    -27.5450E-03     603.481E-03    -301.499E-03    -301.982E-03    -301.651E-03     603.149E-03    -301.499E-03     34.4311E-03    -7.63348E+06    -8.90631E+06    -23.1286E+06    -7.78061E+06    -22.9815E+06    -8.90631E+06     1.48211E+06         80.3349
             517     8.88231E-03     73.5143E-03         2.21931         1.48521        -4.28780         1.48393        -4.28652         2.21931    -5.66300E-03     603.159E-03    -301.447E-03    -301.712E-03    -301.465E-03     602.948E-03    -301.482E-03     27.4094E-03    -7.20980E+06    -8.82174E+06    -21.8580E+06    -7.55014E+06    -21.6797E+06    -8.65972E+06     1.57921E+06         77.2406
             518     8.14223E-03     73.4707E-03         2.28430         1.65646        -4.51787         1.65550        -4.51691         2.28430    -33.7497E-03     603.022E-03    -301.436E-03    -301.586E-03    -301.418E-03     602.898E-03    -301.481E-03     20.9249E-03    -6.17505E+06    -7.66603E+06    -19.6595E+06    -7.54402E+06    -19.3999E+06    -6.55667E+06     1.72198E+06         74.6607
             519     7.40200E-03     73.4392E-03         2.34356         1.81805        -4.73316         1.81738        -4.73250         2.34356    -6.71631E-03     602.984E-03    -301.447E-03    -301.537E-03    -301.442E-03     602.919E-03    -301.477E-03     15.0729E-03    -4.68667E+06    -7.27205E+06    -17.0550E+06    -7.62583E+06    -16.7012E+06    -4.68667E+06     1.77703E+06         72.6541
             520     6.66170E-03     73.4172E-03         2.39699         1.96580        -4.93505         1.96521        -4.93446         2.39699    -35.9919E-03     602.876E-03    -301.393E-03    -301.483E-03    -301.374E-03     602.847E-03    -301.472E-03     10.0651E-03    -3.60414E+06    -7.32663E+06    -14.8170E+06    -7.81772E+06    -14.3259E+06    -3.60414E+06     1.82360E+06         71.1862
             521     5.92127E-03     73.4028E-03         2.44503         2.09335        -5.11673         2.09278        -5.11616         2.44503    -7.46565E-03     602.878E-03    -301.372E-03    -301.506E-03    -301.399E-03     602.868E-03    -301.469E-03     5.83004E-03    -3.36624E+06    -7.71361E+06    -14.0556E+06    -8.31379E+06    -13.4554E+06    -3.36624E+06     1.84809E+06         70.1681
             522     5.18140E-03     73.3962E-03         2.48779         2.21308        -5.28390         2.21222        -5.28304         2.48779    -33.5276E-03     602.877E-03    -301.376E-03    -301.501E-03    -301.416E-03     602.875E-03    -301.459E-03     2.32669E-03    -4.40863E+06    -8.46723E+06    -14.1667E+06    -9.02989E+06    -13.6040E+06    -4.40863E+06     1.67496E+06         69.4928
             523     4.44135E-03     73.3951E-03         2.52514         2.31796        -5.42324         2.31646        -5.42173         2.52514    -6.94693E-03     602.763E-03    -301.303E-03    -301.459E-03    -301.308E-03     602.762E-03    -301.454E-03    -391.248E-06    -6.26032E+06    -9.18649E+06    -14.5645E+06    -9.67197E+06    -14.0790E+06    -6.26032E+06     1.51981E+06         69.0605
             524     3.70067E-03     73.3973E-03         2.55554         2.42547        -5.55429         2.42233        -5.55115         2.55554    -32.1068E-03     602.751E-03    -301.281E-03    -301.470E-03    -301.280E-03     602.749E-03    -301.470E-03    -2.35091E-03    -7.78005E+06    -9.78663E+06    -15.3038E+06    -10.1342E+06    -14.9562E+06    -7.78005E+06     1.31376E+06         68.7906
             525     2.96032E-03     73.4029E-03         2.57923         2.49780        -5.64411         2.49053        -5.63685         2.57923     1.84742E-03     602.849E-03    -301.329E-03    -301.520E-03    -301.350E-03     602.845E-03    -301.495E-03    -3.46133E-03    -8.98839E+06    -10.4254E+06    -16.2697E+06    -10.6490E+06    -16.0460E+06    -8.98839E+06     1.08059E+06         68.6248
             526     2.22022E-03     73.4088E-03         2.62851         2.55095        -5.75575         2.56698        -5.73719         2.59392    -37.0832E-03     602.923E-03    -301.372E-03    -301.552E-03    -301.393E-03     602.920E-03    -301.527E-03    -3.69569E-03    -9.78823E+06    -10.8449E+06    -17.2469E+06    -11.0289E+06    -17.0628E+06    -9.78823E+06     1.01247E+06         68.5242
             527     1.48014E-03     73.4141E-03         2.64576         2.57996        -5.80562         2.55663        -5.74770         2.61117     38.7548E-03     603.050E-03    -301.461E-03    -301.589E-03    -301.487E-03     603.047E-03    -301.560E-03    -3.14122E-03    -10.4966E+06    -11.3563E+06    -18.0408E+06    -11.4529E+06    -17.9307E+06    -10.5101E+06     815.628E+03         68.4650
             528     740.254E-06     73.4186E-03         2.87078         2.64595        -6.10967         2.57101        -5.84112         2.67717    -137.016E-03     603.146E-03    -301.394E-03    -301.752E-03    -301.468E-03     603.145E-03    -301.676E-03    -1.94731E-03    -10.7475E+06    -11.6859E+06    -18.6737E+06    -11.3508E+06    -18.4208E+06    -11.3355E+06     427.806E+03         68.4332
             529     12.5840E-03     72.1264E-03         1.98786     579.952E-03        -3.11342     578.301E-03        -3.11177         1.98786    -11.2698E-03     605.719E-03    -301.838E-03    -303.880E-03    -302.510E-03     604.348E-03    -301.838E-03     70.4562E-03     44.6737E+06     16.5665E+06    -2.90929E+06    -2.88073E+06     16.5379E+06     44.6737E+06     649.731E+03         92.8576
             530     11.8437E-03     71.9919E-03         2.07707     790.168E-03        -3.40467     788.881E-03        -3.40338         2.07707    -1.85745E-03     605.385E-03    -301.769E-03    -303.616E-03    -302.456E-03     604.224E-03    -301.769E-03     64.1172E-03     26.3041E+06     3.10217E+06    -5.52440E+06    -5.08923E+06     2.66700E+06     26.3041E+06     894.607E+03         90.3815
             531     11.1028E-03     71.8950E-03         2.16261     996.957E-03        -3.69317     996.024E-03        -3.69224         2.16261    -21.2886E-03     604.140E-03    -301.695E-03    -302.445E-03    -301.737E-03     603.432E-03    -301.695E-03     50.5389E-03     8.02079E+06    -5.91849E+06    -12.0586E+06    -6.50708E+06    -11.4700E+06     8.02079E+06     999.481E+03         87.2526
             532     10.3628E-03     71.8100E-03         2.24420         1.19523        -3.97567         1.19462        -3.97507         2.24420     336.574E-06     603.852E-03    -301.647E-03    -302.205E-03    -301.699E-03     603.346E-03    -301.647E-03     42.5601E-03    -3.58730E+06    -7.38120E+06    -20.3943E+06    -7.14524E+06    -20.2909E+06    -3.92674E+06     1.14888E+06         83.8058
             533     9.62183E-03     71.7404E-03         2.32195         1.38757        -4.24984         1.38717        -4.24944         2.32195    -27.8697E-03     603.693E-03    -301.613E-03    -302.080E-03    -301.757E-03     603.370E-03    -301.613E-03     33.9574E-03    -7.13500E+06    -8.89965E+06    -23.3180E+06    -7.23804E+06     -23.215E+06    -8.89965E+06     1.28306E+06         80.3961
             534     8.88190E-03     71.6864E-03         2.39546         1.57806        -4.51300         1.57784        -4.51279         2.39546     4.15368E-03     603.288E-03    -301.509E-03    -301.779E-03    -301.487E-03     603.084E-03    -301.598E-03     26.9842E-03    -6.89523E+06    -9.25831E+06    -22.0551E+06    -7.02834E+06    -21.9220E+06    -9.25831E+06     1.40335E+06         77.3135
             535     8.14092E-03     71.6427E-03         2.46402         1.76637        -4.76405         1.76614        -4.76383         2.46402    -36.0942E-03     603.008E-03    -301.398E-03    -301.610E-03    -301.274E-03     602.885E-03    -301.610E-03     20.9386E-03    -6.44124E+06    -7.77396E+06    -19.7029E+06    -6.88639E+06    -19.5427E+06    -7.48902E+06     1.42663E+06         74.7359
             536     7.40054E-03     71.6103E-03         2.52701         1.94411        -4.99929         1.94382        -4.99899         2.52701     9.79973E-03     603.098E-03    -301.457E-03    -301.641E-03    -301.402E-03     603.032E-03    -301.630E-03     15.1505E-03    -5.33560E+06    -6.80231E+06    -16.7328E+06    -6.90220E+06    -16.5230E+06    -5.44551E+06     1.40358E+06         72.7249
             537     6.66056E-03     71.5886E-03         2.58421         2.10674        -5.21942         2.10602        -5.21870         2.58421    -48.0798E-03     603.164E-03    -301.513E-03    -301.651E-03    -301.495E-03     603.134E-03    -301.639E-03     10.1314E-03    -4.22743E+06    -6.75542E+06    -14.6717E+06    -7.10399E+06    -14.3232E+06    -4.22743E+06     1.58139E+06         71.2490
             538     5.92047E-03     71.5746E-03         2.63605         2.24850        -5.41887         2.24706        -5.41744         2.63605     23.9383E-03     603.114E-03    -301.469E-03    -301.645E-03    -301.458E-03     603.103E-03    -301.645E-03     5.91048E-03    -4.12394E+06    -6.83897E+06    -13.3813E+06    -7.35740E+06    -12.8629E+06    -4.12394E+06     1.73488E+06         70.2220
             539     5.17996E-03     71.5673E-03         2.68272         2.37978        -5.60275         2.37673        -5.59970         2.68272    -70.2878E-03     603.190E-03    -301.534E-03    -301.656E-03    -301.537E-03     603.188E-03    -301.651E-03     2.30589E-03    -4.54094E+06    -7.29782E+06    -13.0814E+06    -7.75685E+06    -12.6224E+06    -4.54094E+06     1.53677E+06         69.5386
             540     4.43990E-03     71.5664E-03         2.72404         2.49822        -5.76011         2.49199        -5.75388         2.72404     65.6931E-03     603.294E-03    -301.586E-03    -301.707E-03    -301.646E-03     603.293E-03    -301.647E-03    -474.283E-06    -5.05213E+06    -7.70959E+06    -13.6719E+06    -8.06314E+06    -13.3184E+06    -5.05213E+06     1.39307E+06         69.0998
             541     3.70018E-03     71.5692E-03         2.75835         2.62067        -5.90955         2.60701        -5.89590         2.75835    -139.788E-03     603.288E-03    -301.558E-03    -301.729E-03    -301.655E-03     603.286E-03    -301.631E-03    -2.45787E-03    -6.18711E+06    -8.05578E+06    -14.2238E+06    -8.38056E+06    -13.8990E+06    -6.18711E+06     1.35390E+06         68.8252
             542     2.96023E-03     71.5739E-03         2.78568         2.71704        -6.02796         2.68544        -5.99636         2.78568     196.381E-03     603.244E-03    -301.560E-03    -301.684E-03    -301.625E-03     603.240E-03    -301.615E-03    -3.58946E-03    -7.47472E+06    -8.62829E+06    -15.1742E+06    -8.87090E+06    -14.9316E+06    -7.47472E+06     1.20377E+06         68.6561
             543     2.22033E-03     71.5800E-03         2.87719         2.77528        -6.18402         2.76905        -6.10412         2.80353    -381.008E-03     603.180E-03    -301.541E-03    -301.639E-03    -301.562E-03     603.176E-03    -301.614E-03    -3.61283E-03    -8.39955E+06    -9.16843E+06    -16.1575E+06    -9.33594E+06    -15.9900E+06    -8.39955E+06     1.02590E+06         68.5534
             544     1.48010E-03     71.5859E-03         3.01928         2.81088        -6.36736         2.77063        -6.12945         2.82162     739.600E-03     603.189E-03    -301.552E-03    -301.637E-03    -301.549E-03     603.187E-03    -301.637E-03    -2.86741E-03    -8.96345E+06    -9.96056E+06    -16.4580E+06    -9.71878E+06    -16.3776E+06    -9.28564E+06     580.603E+03         68.4929
             545     739.754E-06     71.5893E-03         3.83758         2.81268        -7.20518         2.84474        -6.22308         2.82343        -2.30508     603.312E-03    -301.461E-03    -301.850E-03    -301.460E-03     603.311E-03    -301.850E-03    -2.05269E-03    -9.00410E+06    -10.4111E+06    -16.7043E+06    -9.80064E+06    -16.5891E+06    -9.72978E+06    -177.658E+03         68.4603
             546     12.5825E-03     70.2967E-03         2.04620     557.196E-03        -3.10271     556.834E-03        -3.10234         2.04620    -13.5553E-03     605.909E-03    -301.959E-03    -303.949E-03    -302.565E-03     604.524E-03    -301.959E-03     70.8468E-03     42.6646E+06     15.2924E+06    -2.61732E+06    -2.60113E+06     15.2762E+06     42.6646E+06     370.855E+03         92.8236
             547     11.8420E-03     70.1623E-03         2.13259     777.162E-03        -3.40155     776.930E-03        -3.40132         2.13259    -280.265E-06     605.477E-03    -301.900E-03    -303.578E-03    -302.424E-03     604.323E-03    -301.900E-03     63.9337E-03     24.7400E+06     2.40424E+06    -5.37924E+06    -4.91061E+06     1.93562E+06     24.7400E+06     749.352E+03         90.3672
             548     11.1017E-03     70.0666E-03         2.21561     992.822E-03        -3.69654     992.650E-03        -3.69637         2.21561    -22.5037E-03     604.555E-03    -301.830E-03    -302.725E-03    -302.009E-03     603.839E-03    -301.830E-03     50.8851E-03     7.07736E+06    -5.92106E+06    -12.2464E+06    -6.41278E+06    -11.7546E+06     7.07736E+06     950.525E+03         87.2652
             549     10.3607E-03     69.9808E-03         2.29517         1.19977        -3.98506         1.19964        -3.98493         2.29517     4.88328E-03     604.240E-03    -301.779E-03    -302.461E-03    -301.932E-03     603.711E-03    -301.779E-03     43.5679E-03    -3.65365E+06    -7.38667E+06    -20.6350E+06    -6.88388E+06    -20.5516E+06    -4.23985E+06     1.04659E+06         83.8457
             550     9.62109E-03     69.9116E-03         2.37124         1.39973        -4.26520         1.39949        -4.26496         2.37124    -28.9098E-03     603.895E-03    -301.747E-03    -302.148E-03    -301.808E-03     603.554E-03    -301.747E-03     34.8762E-03    -6.78548E+06    -9.20390E+06    -23.3340E+06    -6.85663E+06    -23.2629E+06    -9.20390E+06     1.06051E+06         80.4572
             551     8.88032E-03     69.8577E-03         2.44347         1.59621        -4.53436         1.59579        -4.53394         2.44347     11.7657E-03     603.590E-03    -301.681E-03    -301.909E-03    -301.644E-03     603.379E-03    -301.735E-03     27.4677E-03    -6.53049E+06    -9.68673E+06    -22.2575E+06    -6.61737E+06    -22.1706E+06    -9.68673E+06     1.13450E+06         77.3865
             552     8.14029E-03     69.8149E-03         2.51120         1.78960        -4.79029         1.78875        -4.78945         2.51120    -37.0842E-03     603.289E-03    -301.492E-03    -301.797E-03    -301.416E-03     603.163E-03    -301.747E-03     21.1452E-03    -6.10928E+06    -7.86643E+06    -19.7674E+06    -6.24556E+06    -19.6311E+06    -7.86643E+06     1.32806E+06         74.8120
             553     7.39964E-03     69.7818E-03         2.57378         1.97302        -5.03054         1.97154        -5.02906         2.57378     22.5592E-03     603.176E-03    -301.399E-03    -301.777E-03    -301.332E-03     603.109E-03    -301.777E-03     15.2915E-03    -5.65251E+06    -6.45803E+06    -16.7530E+06    -6.22553E+06    -16.5523E+06    -6.08565E+06     1.43539E+06         72.7970
             554     6.65922E-03     69.7593E-03         2.63103         2.14007        -5.25475         2.13735        -5.25203         2.63103    -55.2007E-03     603.383E-03    -301.578E-03    -301.805E-03    -301.548E-03     603.353E-03    -301.805E-03     10.1230E-03    -4.80069E+06    -6.13586E+06    -14.5309E+06    -6.39031E+06    -14.2764E+06    -4.80069E+06     1.42672E+06         71.3132
             555     5.91915E-03     69.7456E-03         2.68331         2.28715        -5.45960         2.28235        -5.45480         2.68331     48.7976E-03     603.545E-03    -301.700E-03    -301.845E-03    -301.722E-03     603.535E-03    -301.813E-03     5.73624E-03    -4.30603E+06    -6.24208E+06    -12.7256E+06    -6.57875E+06    -12.3889E+06    -4.30603E+06     1.40716E+06         70.2773
             556     5.17939E-03     69.7383E-03         2.73088         2.42298        -5.64860         2.41414        -5.63976         2.73088    -94.4209E-03     603.581E-03    -301.729E-03    -301.851E-03    -301.770E-03     603.579E-03    -301.809E-03     1.98538E-03    -4.44411E+06    -6.44906E+06    -12.2265E+06    -6.82781E+06    -11.8478E+06    -4.44411E+06     1.42132E+06         69.5857
             557     4.43950E-03     69.7366E-03         2.77355         2.54955        -5.81699         2.53259        -5.80003         2.77355     120.836E-03     603.630E-03    -301.766E-03    -301.865E-03    -301.831E-03     603.630E-03    -301.799E-03    -851.497E-06    -4.72327E+06    -6.87292E+06    -13.0588E+06    -7.19930E+06    -12.7324E+06    -4.72327E+06     1.37690E+06         69.1403
             558     3.69967E-03     69.7393E-03         2.80993         2.68256        -5.97998         2.64725        -5.94468         2.80993    -216.657E-03     603.638E-03    -301.762E-03    -301.876E-03    -301.858E-03     603.636E-03    -301.778E-03    -2.51285E-03    -5.22031E+06    -7.39301E+06    -13.7404E+06    -7.70341E+06    -13.4300E+06    -5.22031E+06     1.36714E+06         68.8606
             559     2.95991E-03     69.7447E-03         2.85528         2.79870        -6.13535         2.73492        -6.05561         2.83931     341.784E-03     603.563E-03    -301.724E-03    -301.839E-03    -301.810E-03     603.560E-03    -301.751E-03    -3.43587E-03    -6.17941E+06    -7.95336E+06    -14.1832E+06    -8.22200E+06    -13.9145E+06    -6.17941E+06     1.23811E+06         68.6880
             560     2.21966E-03     69.7514E-03         3.02086         2.85363        -6.36074         2.81606        -6.16204         2.85973    -634.947E-03     603.491E-03    -301.679E-03    -301.812E-03    -301.763E-03     603.488E-03    -301.724E-03    -3.59124E-03    -7.58255E+06    -8.47329E+06    -14.6512E+06    -8.61322E+06    -14.5113E+06    -7.58255E+06     826.798E+03         68.5830
             561     1.47981E-03     69.7563E-03         3.40818         2.87740        -6.77927         2.83613        -6.20721         2.87740         1.26033     603.444E-03    -301.670E-03    -301.774E-03    -301.742E-03     603.441E-03    -301.699E-03    -2.97060E-03    -8.16396E+06    -8.71793E+06    -14.9397E+06    -8.46413E+06    -14.8713E+06    -8.48614E+06     476.277E+03         68.5210
             562     740.142E-06     69.7605E-03         5.20411         2.77955        -8.49121         2.99613        -6.28323         2.77955        -3.92670     603.378E-03    -301.562E-03    -301.817E-03    -301.709E-03     603.377E-03    -301.668E-03    -2.18824E-03     -8.1779E+06    -9.23638E+06    -15.9396E+06    -8.61421E+06    -15.8945E+06    -8.84518E+06     210.315E+03         68.4877
             563     12.5810E-03     68.4676E-03         1.99659     522.176E-03        -2.97233     521.973E-03        -2.97213         1.99659    -14.1261E-03     606.010E-03    -302.081E-03    -303.929E-03    -302.545E-03     604.626E-03    -302.081E-03     70.8550E-03     40.3226E+06     13.8217E+06    -2.68243E+06    -2.66310E+06     13.8023E+06     40.3226E+06     300.369E+03         92.7914
             564     11.8402E-03     68.3329E-03         2.07452     737.785E-03        -3.25893     737.525E-03        -3.25867         2.07452     2.15238E-03     605.452E-03    -302.040E-03    -303.413E-03    -302.254E-03     604.293E-03    -302.040E-03     64.0640E-03     23.0441E+06     1.30598E+06    -5.45810E+06    -4.95500E+06     802.876E+03     23.0441E+06     819.486E+03         90.3539
             565     11.0993E-03     68.2373E-03         2.14964     948.754E-03        -3.54094     948.343E-03        -3.54052         2.14964    -21.5212E-03     604.794E-03    -301.983E-03    -302.811E-03    -302.093E-03     604.076E-03    -301.983E-03     50.9685E-03     5.57281E+06    -5.71578E+06    -12.2413E+06    -6.32886E+06    -11.6282E+06     5.57281E+06     1.03111E+06         87.2777
             566     10.3595E-03     68.1513E-03         2.22202         1.15067        -3.81645         1.15001        -3.81580         2.22202     10.4825E-03     604.459E-03    -301.939E-03    -302.520E-03    -301.992E-03     603.930E-03    -301.939E-03     43.5457E-03    -4.37286E+06    -8.09054E+06    -20.5889E+06    -6.80223E+06    -20.5219E+06    -5.72817E+06     908.335E+03         83.8846
             567     9.61842E-03     68.0824E-03         2.29149         1.34452        -4.08352         1.34346        -4.08246         2.29149    -27.3460E-03     604.149E-03    -301.916E-03    -302.233E-03    -301.892E-03     603.807E-03    -301.916E-03     34.9439E-03    -6.65367E+06    -10.4239E+06    -23.4857E+06    -6.69067E+06    -23.4487E+06    -10.4239E+06     784.475E+03         80.5171
             568     8.87873E-03     68.0281E-03         2.35790         1.53398        -4.34041         1.53236        -4.33878         2.35790     18.9382E-03     604.032E-03    -301.906E-03    -302.125E-03    -301.913E-03     603.819E-03    -301.906E-03     27.5339E-03    -6.21948E+06    -10.4381E+06    -22.5577E+06    -6.26363E+06    -22.5136E+06    -10.4381E+06     832.912E+03         77.4591
             569     8.13858E-03     67.9854E-03         2.42065         1.71925        -4.58451         1.71681        -4.58208         2.42065    -33.6479E-03     603.830E-03    -301.818E-03    -302.011E-03    -301.797E-03     603.703E-03    -301.906E-03     21.1822E-03    -5.86989E+06    -8.50912E+06    -20.0414E+06    -5.95127E+06    -19.9600E+06    -8.50912E+06     1.00401E+06         74.8886
             570     7.39853E-03     67.9536E-03         2.47906         1.89645        -4.81470         1.89282        -4.81108         2.47906     31.5584E-03     603.636E-03    -301.688E-03    -301.948E-03    -301.649E-03     603.569E-03    -301.920E-03     15.3188E-03    -5.32632E+06    -6.29613E+06    -16.8439E+06    -5.60220E+06    -16.7022E+06    -6.16190E+06     1.18062E+06         72.8704
             571     6.65829E-03     67.9297E-03         2.53289         2.05876        -5.02967         2.05314        -5.02406         2.53289    -54.5731E-03     603.659E-03    -301.720E-03    -301.940E-03    -301.691E-03     603.630E-03    -301.940E-03     9.95649E-03    -4.38352E+06    -5.19128E+06    -14.0480E+06    -5.37392E+06    -13.8653E+06    -4.38352E+06     1.21619E+06         71.3790
             572     5.91850E-03     67.9154E-03         2.58235         2.20378        -5.22865         2.19488        -5.21975         2.58235     61.2588E-03     603.843E-03    -301.864E-03    -301.979E-03    -301.886E-03     603.834E-03    -301.947E-03     5.50759E-03    -3.60725E+06    -5.26781E+06    -12.5073E+06    -5.51395E+06    -12.2612E+06    -3.60725E+06     1.29117E+06         70.3339
             573     5.17876E-03     67.9080E-03         2.62770         2.33629        -5.41163         2.32138        -5.39672         2.62770    -100.950E-03     603.913E-03    -301.930E-03    -301.983E-03    -301.973E-03     603.911E-03    -301.938E-03     1.97022E-03    -3.48549E+06    -5.48075E+06    -12.1519E+06    -5.85973E+06    -11.7729E+06    -3.48549E+06     1.52265E+06         69.6337
             574     4.43903E-03     67.9070E-03         2.66866         2.46416        -5.58103         2.43737        -5.55424         2.66866     143.997E-03     603.862E-03    -301.907E-03    -301.956E-03    -301.939E-03     603.862E-03    -301.923E-03    -781.785E-06    -3.86711E+06    -5.91555E+06    -12.4081E+06    -6.31683E+06    -12.0068E+06    -3.86711E+06     1.55748E+06         69.1811
             575     3.69906E-03     67.9094E-03         2.70421         2.59673        -5.74449         2.54364        -5.69140         2.70421    -245.381E-03     603.824E-03    -301.893E-03    -301.930E-03    -301.912E-03     603.822E-03    -301.909E-03    -2.67275E-03    -4.58633E+06    -6.45929E+06    -12.9135E+06    -6.72474E+06    -12.6480E+06    -4.58633E+06     1.21495E+06         68.8962
             576     2.95910E-03     67.9149E-03         2.77820         2.70539        -5.92100         2.63455        -5.80503         2.73308     403.842E-03     603.836E-03    -301.892E-03    -301.945E-03    -301.941E-03     603.833E-03    -301.892E-03    -3.59680E-03    -5.37147E+06    -6.73303E+06    -12.9842E+06    -6.85769E+06    -12.8596E+06    -5.37147E+06     773.819E+03         68.7199
             577     2.21985E-03     67.9211E-03         2.98935         2.75419        -6.18276         2.70510        -5.89850         2.75419    -743.992E-03     603.826E-03    -301.859E-03    -301.967E-03    -301.963E-03     603.822E-03    -301.859E-03    -3.55454E-03    -6.23426E+06    -7.15119E+06    -13.3748E+06    -7.20578E+06    -13.3202E+06    -6.23426E+06     537.645E+03         68.6126
             578     1.48008E-03     67.9272E-03         3.53730         2.76878        -6.75401         2.74553        -5.96224         2.76878         1.48872     603.693E-03    -301.781E-03    -301.911E-03    -301.867E-03     603.691E-03    -301.823E-03    -2.74214E-03    -7.12261E+06    -7.71099E+06    -14.1940E+06    -7.76611E+06    -14.1389E+06    -7.12261E+06     500.215E+03         68.5493
             579     739.949E-06     67.9309E-03         5.91180         2.55450        -8.92438         2.99557        -6.00814         2.55450        -4.63915     603.619E-03    -301.565E-03    -302.053E-03    -301.713E-03     603.618E-03    -301.904E-03    -1.68625E-03    -7.12530E+06    -7.80874E+06    -15.0950E+06    -7.59173E+06    -14.9669E+06    -7.47038E+06     587.219E+03         68.5152
             580     12.5794E-03     66.6385E-03         1.83997     476.117E-03        -2.72436     475.168E-03        -2.72341         1.83997    -13.8160E-03     606.114E-03    -302.214E-03    -303.900E-03    -302.530E-03     604.743E-03    -302.214E-03     70.4405E-03     38.4421E+06     12.7131E+06    -2.62720E+06    -2.59598E+06     12.6819E+06     38.4421E+06     501.560E+03         92.7598
             581     11.8382E-03     66.5043E-03         1.90424     673.807E-03        -2.98011     672.674E-03        -2.97897         1.90424     5.09614E-03     605.592E-03    -302.186E-03    -303.406E-03    -302.234E-03     604.420E-03    -302.186E-03     64.4327E-03     21.8871E+06     702.356E+03    -5.63927E+06    -4.79608E+06    -140.841E+03     21.8871E+06     781.531E+03         90.3410
             582     11.0980E-03     66.4066E-03         1.96638     866.405E-03        -3.23018     865.015E-03        -3.22879         1.96638    -17.6291E-03     605.081E-03    -302.137E-03    -302.945E-03    -302.228E-03     604.364E-03    -302.137E-03     50.9099E-03     4.69670E+06    -5.47981E+06    -12.3033E+06    -5.87585E+06    -11.9073E+06     4.69670E+06     849.608E+03         87.2906
             583     10.3573E-03     66.3220E-03         2.02676         1.04946        -3.47367         1.04754        -3.47175         2.02676     18.0023E-03     604.755E-03    -302.093E-03    -302.662E-03    -302.144E-03     604.236E-03    -302.093E-03     43.1607E-03    -4.35818E+06    -8.18706E+06    -20.2750E+06    -6.01115E+06    -20.2105E+06    -6.59861E+06     927.138E+03         83.9240
             584     9.61761E-03     66.2527E-03         2.08509         1.22342        -3.70875         1.22086        -3.70619         2.08509    -20.6910E-03     604.421E-03    -302.073E-03    -302.349E-03    -302.013E-03     604.085E-03    -302.073E-03     34.6846E-03    -5.85395E+06    -11.2569E+06    -23.4902E+06    -5.90056E+06    -23.4435E+06    -11.2569E+06     890.640E+03         80.5776
             585     8.87718E-03     66.1976E-03         2.14142         1.39263        -3.93524         1.38912        -3.93173         2.14142     28.0192E-03     604.323E-03    -302.068E-03    -302.256E-03    -302.047E-03     604.115E-03    -302.068E-03     27.2734E-03    -5.60124E+06    -11.1623E+06    -22.7615E+06    -5.63709E+06    -22.7257E+06    -11.1623E+06     779.903E+03         77.5321
             586     8.13730E-03     66.1557E-03         2.19527         1.55704        -4.15093         1.55243        -4.14632         2.19527    -23.4556E-03     604.336E-03    -302.062E-03    -302.273E-03    -302.151E-03     604.213E-03    -302.062E-03     20.8920E-03    -5.13221E+06    -8.69281E+06    -20.1521E+06    -5.17548E+06    -20.1088E+06    -8.69281E+06      789.89E+03         74.9654
             587     7.39758E-03     66.1227E-03         2.24603         1.71606        -4.35639         1.70992        -4.35025         2.24603     38.3959E-03     604.234E-03    -302.034E-03    -302.200E-03    -302.118E-03     604.169E-03    -302.051E-03     15.0771E-03    -4.71692E+06    -6.22919E+06    -16.8481E+06    -4.88656E+06    -16.7776E+06    -6.13013E+06     902.880E+03         72.9442
             588     6.65799E-03     66.1004E-03         2.29330         1.86355        -4.54880         1.85507        -4.54031         2.29330    -42.3473E-03     604.036E-03    -301.959E-03    -302.077E-03    -301.961E-03     604.007E-03    -302.046E-03     9.97004E-03    -4.18791E+06    -5.10662E+06    -14.1597E+06    -4.97977E+06    -14.0354E+06    -4.43901E+06     1.04042E+06         71.4453
             589     5.91787E-03     66.0848E-03         2.33695         1.99894        -4.73011         1.98682        -4.71799         2.33695     62.0782E-03     603.975E-03    -301.923E-03    -302.052E-03    -301.913E-03     603.965E-03    -302.052E-03     5.54066E-03    -3.21197E+06    -4.93218E+06    -12.9377E+06    -5.11881E+06    -12.7511E+06    -3.21197E+06     1.19832E+06         70.3909
             590     5.17805E-03     66.0779E-03         2.37718         2.11947        -4.89591         2.10111        -4.87755         2.37718    -83.6165E-03     604.027E-03    -301.968E-03    -302.059E-03    -301.968E-03     604.025E-03    -302.057E-03     1.87528E-03    -2.73976E+06    -4.97416E+06    -11.9514E+06    -5.21899E+06    -11.7066E+06    -2.73976E+06     1.21200E+06         69.6818
             591     4.43830E-03     66.0762E-03         2.41366         2.23864        -5.05335         2.20834        -5.02305         2.41366     134.640E-03     604.080E-03    -302.005E-03    -302.074E-03    -302.027E-03     604.079E-03    -302.052E-03    -770.326E-06    -3.15893E+06    -5.07062E+06    -11.4439E+06    -5.31668E+06    -11.1978E+06    -3.15893E+06     1.12990E+06         69.2220
             592     3.69888E-03     66.0793E-03         2.44570         2.35654        -5.19969         2.30060        -5.14374         2.44570    -215.063E-03     604.055E-03    -301.988E-03    -302.067E-03    -302.007E-03     604.053E-03    -302.046E-03    -2.53391E-03    -3.96516E+06    -5.21308E+06    -11.9089E+06    -5.38673E+06    -11.7353E+06    -3.96516E+06     991.090E+03         68.9317
             593     2.95927E-03     66.0845E-03         2.52877         2.44596        -5.36844         2.38698        -5.25239         2.47170     372.156E-03     604.014E-03    -301.956E-03    -302.058E-03    -301.961E-03     604.011E-03    -302.050E-03    -3.31118E-03    -5.00518E+06    -5.60469E+06    -12.4053E+06    -5.75040E+06    -12.2596E+06    -5.00518E+06     899.869E+03         68.7519
             594     2.21897E-03     66.0909E-03         2.71972         2.49154        -5.60150         2.44268        -5.32446         2.49154    -678.259E-03     604.075E-03    -301.992E-03    -302.083E-03    -302.009E-03     604.072E-03    -302.062E-03    -3.29604E-03    -5.54272E+06    -6.15261E+06    -12.8005E+06    -6.08839E+06    -12.6892E+06    -5.71826E+06     784.167E+03         68.6424
             595     1.47921E-03     66.0969E-03         3.25027         2.50098        -6.15042         2.50012        -5.40027         2.50098         1.37529     604.104E-03    -302.009E-03    -302.095E-03    -302.019E-03     604.101E-03    -302.082E-03    -2.69862E-03    -5.78616E+06    -6.57255E+06    -13.0843E+06    -6.22322E+06    -13.0411E+06    -6.17873E+06     490.472E+03         68.5778
             596     739.518E-06     66.1015E-03         5.55769         2.17584        -8.14484         2.82825        -5.41540         2.17584        -4.29727     604.195E-03    -301.851E-03    -302.344E-03    -301.990E-03     604.194E-03    -302.204E-03    -1.75542E-03    -6.00756E+06    -6.54218E+06    -14.0491E+06    -6.41001E+06    -13.9247E+06    -6.26409E+06     363.575E+03         68.5432
             597     12.5773E-03     64.8106E-03         1.58410     419.208E-03        -2.36582     416.913E-03        -2.36352         1.58410    -13.6179E-03     606.381E-03    -302.357E-03    -304.024E-03    -302.669E-03     605.026E-03    -302.357E-03     70.0440E-03     37.2915E+06     11.5772E+06    -2.33936E+06    -2.30736E+06     11.5452E+06     37.2915E+06     435.815E+03         92.7285
             598     11.8365E-03     64.6740E-03         1.63047     585.769E-03        -2.57357     583.206E-03        -2.57100         1.63047     6.27699E-03     605.988E-03    -302.327E-03    -303.661E-03    -302.490E-03     604.817E-03    -302.327E-03     64.4280E-03     21.3005E+06     1.02740E+06    -5.29873E+06    -4.05001E+06    -221.323E+03     21.3005E+06     759.173E+03         90.3285
             599     11.0959E-03     64.5763E-03         1.67552     746.588E-03        -2.77479     743.716E-03        -2.77191         1.67552    -14.8498E-03     605.254E-03    -302.281E-03    -302.973E-03    -302.258E-03     604.539E-03    -302.281E-03     50.8310E-03     4.53225E+06    -5.14484E+06    -12.3989E+06    -5.30461E+06    -12.2391E+06     4.53225E+06     753.276E+03         87.3038
             600     10.3562E-03     64.4914E-03         1.71997     899.346E-03        -2.97024     895.676E-03        -2.96657         1.71997     22.0004E-03     605.073E-03    -302.240E-03    -302.833E-03    -302.316E-03     604.556E-03    -302.240E-03     43.0652E-03    -4.31357E+06    -8.22823E+06    -20.4680E+06    -5.74431E+06    -20.4165E+06    -6.84893E+06     853.307E+03         83.9632
             601     9.61575E-03     64.4222E-03         1.76340         1.04308        -3.15838         1.03853        -3.15383         1.76340    -16.1569E-03     604.756E-03    -302.217E-03    -302.539E-03    -302.204E-03     604.421E-03    -302.217E-03     34.6210E-03    -5.29237E+06    -11.5539E+06    -23.5758E+06    -5.34160E+06    -23.5265E+06    -11.5539E+06     934.107E+03         80.6377
             602     8.87592E-03     64.3676E-03         1.80595         1.18148        -3.34038         1.17568        -3.33458         1.80595     30.8259E-03     604.634E-03    -302.208E-03    -302.426E-03    -302.217E-03     604.425E-03    -302.208E-03     27.3266E-03    -4.79202E+06    -11.6545E+06    -22.6406E+06    -4.84738E+06    -22.5853E+06    -11.6545E+06     962.258E+03         77.6046
             603     8.13621E-03     64.3239E-03         1.84728         1.31514        -3.51381         1.30812        -3.50678         1.84728    -14.5538E-03     604.690E-03    -302.198E-03    -302.492E-03    -302.369E-03     604.567E-03    -302.198E-03     20.9013E-03    -4.37188E+06    -9.24504E+06    -20.1564E+06    -4.43244E+06    -20.0958E+06    -9.24504E+06     951.697E+03         75.0415
             604     7.39672E-03     64.2920E-03         1.88693         1.44577        -3.68072         1.43717        -3.67212         1.88693     36.6689E-03     604.604E-03    -302.181E-03    -302.423E-03    -302.358E-03     604.539E-03    -302.181E-03     15.0921E-03    -4.17389E+06    -6.45206E+06    -17.0946E+06    -4.24144E+06    -17.0271E+06    -6.45206E+06     914.497E+03         73.0170
             605     6.65692E-03     64.2693E-03         1.92448         1.56780        -3.83746         1.55711        -3.82677         1.92448    -25.3811E-03     604.417E-03    -302.151E-03    -302.266E-03    -302.222E-03     604.388E-03    -302.166E-03     10.0783E-03    -3.43150E+06    -4.48839E+06    -14.4614E+06    -4.04500E+06    -14.3634E+06    -3.97289E+06     983.649E+03         71.5107
             606     5.91750E-03     64.2547E-03         1.95952         1.68230        -3.98721         1.66875        -3.97365         1.95952     48.3428E-03     604.209E-03    -302.034E-03    -302.175E-03    -302.034E-03     604.199E-03    -302.165E-03     5.72321E-03    -2.48235E+06    -3.82189E+06    -12.8640E+06    -3.92974E+06    -12.7561E+06    -2.48235E+06     946.147E+03         70.4473
             607     5.17765E-03     64.2471E-03         1.99214         1.78114        -4.12202         1.76321        -4.10408         1.99214    -48.5377E-03     604.124E-03    -301.947E-03    -302.177E-03    -301.945E-03     604.122E-03    -302.177E-03     2.11778E-03    -2.50465E+06    -3.92940E+06    -11.5442E+06    -4.03171E+06    -11.4419E+06    -2.50465E+06     851.249E+03         69.7296
             608     4.43790E-03     64.2456E-03         2.02202         1.87933        -4.25332         1.85359        -4.22757         2.02202     92.0281E-03     604.177E-03    -301.979E-03    -302.199E-03    -301.978E-03     604.177E-03    -302.199E-03    -535.428E-06    -3.22298E+06    -4.25671E+06    -11.3641E+06    -4.38698E+06    -11.2338E+06    -3.22298E+06     933.347E+03         69.2628
             609     3.69789E-03     64.2484E-03         2.04897         1.96723        -4.36663         1.92547        -4.32487         2.04897    -133.449E-03     604.293E-03    -302.071E-03    -302.223E-03    -302.069E-03     604.292E-03    -302.223E-03    -2.32939E-03    -3.80920E+06    -4.66284E+06    -11.6790E+06    -4.83141E+06    -11.5104E+06    -3.80920E+06     1.05588E+06         68.9674
             610     2.95796E-03     64.2543E-03         2.11387         2.03873        -4.49971         2.00335        -4.42148         2.07101     251.129E-03     604.397E-03    -302.142E-03    -302.255E-03    -302.153E-03     604.394E-03    -302.241E-03    -3.33682E-03    -4.14732E+06    -4.82848E+06    -11.7510E+06    -4.99958E+06    -11.5799E+06    -4.14732E+06     1.01559E+06         68.7842
             611     2.21869E-03     64.2600E-03         2.21814         2.08879        -4.64793         2.04191        -4.47171         2.08879    -453.355E-03     604.435E-03    -302.161E-03    -302.274E-03    -302.171E-03     604.431E-03    -302.260E-03    -3.53696E-03    -4.42010E+06    -5.01775E+06    -11.8751E+06    -4.94797E+06    -11.7694E+06    -4.59564E+06     768.354E+03         68.6726
             612     1.47914E-03     64.2659E-03         2.56956         2.09425        -5.01437         2.10948        -4.55430         2.09425     941.826E-03     604.524E-03    -302.220E-03    -302.304E-03    -302.241E-03     604.521E-03    -302.280E-03    -3.00274E-03    -4.58911E+06    -5.24953E+06    -12.0625E+06    -4.89828E+06    -12.0212E+06    -4.98168E+06     535.556E+03         68.6069
             613     739.584E-06     64.2702E-03         4.19840         1.69283        -6.24596         2.49088        -4.53844         1.69283        -2.97184     604.581E-03    -302.047E-03    -302.534E-03    -302.518E-03     604.580E-03    -302.061E-03    -1.75577E-03    -4.80868E+06    -5.17602E+06    -12.8978E+06     -4.9902E+06    -12.8225E+06    -5.06975E+06     292.751E+03         68.5717
             614     12.5751E-03     62.9781E-03         1.24318     350.022E-03        -1.90932     346.124E-03        -1.90543         1.24318    -13.4471E-03     606.781E-03    -302.492E-03    -304.289E-03    -302.945E-03     605.437E-03    -302.492E-03     69.8237E-03     35.5796E+06     10.4256E+06    -2.25870E+06    -2.23972E+06     10.4067E+06     35.5796E+06     72.0486E+03         92.6981
             615     11.8354E-03     62.8442E-03         1.26871     473.422E-03        -2.05400     469.153E-03        -2.04973         1.26871     6.14400E-03     606.386E-03    -302.456E-03    -303.930E-03    -302.773E-03     605.229E-03    -302.456E-03     64.1146E-03     20.4724E+06     703.624E+03    -5.38740E+06    -3.93664E+06    -747.143E+03     20.4724E+06     683.146E+03         90.3170
             616     11.0949E-03     62.7460E-03         1.29395     592.047E-03        -2.19332     587.374E-03        -2.18865         1.29395    -13.9107E-03     605.559E-03    -302.408E-03    -303.151E-03    -302.436E-03     604.844E-03    -302.408E-03     50.8066E-03     4.67069E+06    -4.73352E+06    -12.7086E+06    -4.93258E+06    -12.5096E+06     4.67069E+06     883.356E+03         87.3176
             617     10.3543E-03     62.6600E-03         1.31976     705.680E-03        -2.32917     699.879E-03        -2.32336         1.31976     22.3581E-03     605.344E-03    -302.366E-03    -302.977E-03    -302.474E-03     604.840E-03    -302.366E-03     42.4881E-03    -3.77458E+06    -7.67487E+06    -20.6364E+06    -5.24090E+06    -20.5926E+06    -6.25231E+06     808.260E+03         84.0024
             618     9.61479E-03     62.5915E-03         1.34560     812.324E-03        -2.46028     805.335E-03        -2.45329         1.34560    -14.4391E-03     605.012E-03    -302.339E-03    -302.673E-03    -302.350E-03     604.689E-03    -302.339E-03     34.0385E-03    -5.04594E+06    -11.2299E+06    -23.8383E+06    -5.08633E+06    -23.7979E+06    -11.2299E+06     868.751E+03         80.6972
             619     8.87481E-03     62.5364E-03         1.37157     913.674E-03        -2.58802     905.147E-03        -2.57949         1.37157     27.8820E-03     604.867E-03    -302.327E-03    -302.540E-03    -302.335E-03     604.662E-03    -302.327E-03     27.0962E-03    -4.47242E+06    -11.5792E+06    -22.9258E+06    -4.52815E+06    -22.8701E+06    -11.5792E+06     982.865E+03         77.6761
             620     8.13515E-03     62.4923E-03         1.39749         1.00935        -2.70924     999.651E-03        -2.69955         1.39749    -6.85357E-03     604.784E-03    -302.310E-03    -302.474E-03    -302.341E-03     604.663E-03    -302.322E-03     20.7809E-03    -3.89728E+06    -9.58190E+06    -20.0565E+06    -3.95480E+06    -19.9990E+06    -9.58190E+06     941.341E+03         75.1162
             621     7.39546E-03     62.4605E-03         1.42314         1.10320        -2.82629         1.09222        -2.81531         1.42314     28.9721E-03     604.729E-03    -302.289E-03    -302.440E-03    -302.345E-03     604.664E-03    -302.318E-03     15.1228E-03    -3.35361E+06    -6.80626E+06    -16.9290E+06    -3.40007E+06    -16.8825E+06    -6.80626E+06     784.722E+03         73.0882
             622     6.65623E-03     62.4376E-03         1.44822         1.19016        -2.93512         1.17789        -2.92284         1.44822    -7.00565E-03     604.643E-03    -302.260E-03    -302.383E-03    -302.298E-03     604.612E-03    -302.314E-03     10.2970E-03    -2.78346E+06    -4.90260E+06    -14.5394E+06    -3.03425E+06    -14.4865E+06    -4.70477E+06     764.134E+03         71.5746
             623     5.91644E-03     62.4239E-03         1.47229         1.27264        -3.04043         1.25930        -3.02710         1.47229     24.0449E-03     604.526E-03    -302.200E-03    -302.325E-03    -302.199E-03     604.514E-03    -302.315E-03     6.06586E-03    -2.56201E+06    -3.97788E+06    -12.8291E+06    -2.93449E+06    -12.7513E+06    -3.68318E+06     845.914E+03         70.5026
             624     5.17671E-03     62.4164E-03         1.49538         1.34078        -3.13268         1.32646        -3.11836         1.49538    -3.39442E-03     604.459E-03    -302.128E-03    -302.332E-03    -302.125E-03     604.457E-03    -302.332E-03     2.39248E-03    -2.41533E+06    -3.20149E+06    -11.9284E+06    -2.96265E+06    -11.7988E+06    -2.78377E+06     1.05341E+06         69.7770
             625     4.43683E-03     62.4149E-03         1.51719         1.40805        -3.22529         1.39254        -3.20978         1.51719     22.6045E-03     604.497E-03    -302.137E-03    -302.360E-03    -302.137E-03     604.497E-03    -302.360E-03    -558.178E-06    -1.95387E+06    -2.97437E+06    -11.6007E+06    -3.14019E+06    -11.4349E+06    -1.95387E+06     1.16823E+06         69.3036
             626     3.69727E-03     62.4173E-03         1.53800         1.45863        -3.29764         1.43989        -3.27889         1.53800    -19.4444E-03     604.629E-03    -302.245E-03    -302.384E-03    -302.243E-03     604.627E-03    -302.384E-03    -2.56626E-03    -2.05102E+06    -3.27762E+06    -11.0078E+06    -3.41406E+06    -10.8713E+06    -2.05102E+06     985.928E+03         69.0033
             627     2.95817E-03     62.4221E-03         1.57253         1.51450        -3.38542         1.50391        -3.35803         1.55573     64.1075E-03     604.760E-03    -302.351E-03    -302.408E-03    -302.364E-03     604.756E-03    -302.392E-03    -3.53390E-03    -2.61573E+06    -3.53484E+06    -10.9644E+06    -3.61583E+06    -10.8834E+06    -2.61573E+06     742.611E+03         68.8167
             628     2.21848E-03     62.4288E-03         1.60352         1.54848        -3.44306         1.52666        -3.38921         1.57149    -122.062E-03     604.789E-03    -302.358E-03    -302.431E-03    -302.399E-03     604.786E-03    -302.386E-03    -3.62658E-03    -3.02131E+06    -3.80135E+06    -11.1896E+06    -3.85656E+06    -11.1344E+06    -3.02131E+06     629.647E+03         68.7030
             629     1.47884E-03     62.4342E-03         1.75488         1.55154        -3.60579         1.59921        -3.47313         1.57455     279.209E-03     604.770E-03    -302.344E-03    -302.426E-03    -302.395E-03     604.767E-03    -302.372E-03    -2.98860E-03    -3.43810E+06    -4.02906E+06    -11.2990E+06    -4.06196E+06    -11.2661E+06    -3.43810E+06     356.080E+03         68.6359
             630     739.515E-06     62.4383E-03         2.50416         1.14831        -3.95112         1.99146        -3.43842         1.14831    -939.248E-03     604.726E-03    -302.115E-03    -302.610E-03    -302.448E-03     604.725E-03    -302.277E-03    -1.70212E-03    -3.87714E+06    -4.14577E+06    -12.0518E+06    -4.13031E+06    -12.0017E+06    -3.94271E+06     216.028E+03         68.6001
             631     12.5741E-03     61.1459E-03     837.094E-03     271.209E-03        -1.37645     265.727E-03        -1.37097     837.094E-03    -12.3527E-03     607.202E-03    -302.630E-03    -304.572E-03    -303.205E-03     605.835E-03    -302.630E-03     70.4769E-03     33.5937E+06     9.42743E+06    -2.36574E+06    -2.35973E+06     9.42142E+06     33.5937E+06     41.5824E+03         92.6690
             632     11.8333E-03     61.0136E-03     840.108E-03     343.913E-03        -1.44862     337.762E-03        -1.44247     840.108E-03     6.48238E-03     606.980E-03    -302.586E-03    -304.394E-03    -303.237E-03     605.824E-03    -302.586E-03     64.1711E-03     19.3631E+06     -433.87E+03    -5.80156E+06    -4.28135E+06    -1.95408E+06     19.3631E+06     372.657E+03         90.3063
             633     11.0933E-03     60.9142E-03     843.923E-03     413.728E-03        -1.51741     406.875E-03        -1.51056     843.923E-03    -12.3501E-03     606.082E-03    -302.520E-03    -303.562E-03    -302.847E-03     605.367E-03    -302.520E-03     50.8483E-03     4.18431E+06    -4.94861E+06    -13.0407E+06    -5.04080E+06    -12.9485E+06     4.18431E+06     701.039E+03         87.3323
             634     10.3543E-03     60.8284E-03     849.409E-03     481.641E-03        -1.58582     472.897E-03        -1.57707     849.409E-03     23.8710E-03     605.645E-03    -302.466E-03    -303.180E-03    -302.677E-03     605.142E-03    -302.466E-03     42.4831E-03    -3.96598E+06    -7.69469E+06    -20.8602E+06    -5.26459E+06    -20.8221E+06    -6.43420E+06     733.901E+03         84.0426
             635     9.61387E-03     60.7606E-03     855.947E-03     544.791E-03        -1.65207     534.230E-03        -1.64151     855.947E-03    -10.5605E-03     605.317E-03    -302.431E-03    -302.886E-03    -302.565E-03     604.996E-03    -302.431E-03     33.9239E-03    -4.89890E+06    -11.0017E+06    -23.8916E+06    -4.92618E+06    -23.8643E+06    -11.0017E+06     676.320E+03         80.7573
             636     8.87425E-03     60.7043E-03     863.669E-03     603.486E-03        -1.71725     590.731E-03        -1.70450     863.669E-03     26.5341E-03     604.934E-03    -302.338E-03    -302.596E-03    -302.313E-03     604.733E-03    -302.420E-03     26.8038E-03    -4.09757E+06    -11.2057E+06    -23.1125E+06    -4.12017E+06    -23.0899E+06    -11.2057E+06     590.385E+03         77.7476
             637     8.13436E-03     60.6616E-03     872.544E-03     655.055E-03        -1.77807     641.114E-03        -1.76413     872.544E-03     2.69918E-03     604.620E-03    -302.172E-03    -302.448E-03    -302.065E-03     604.499E-03    -302.434E-03     20.7446E-03    -3.18819E+06    -9.62026E+06    -20.1265E+06    -3.21572E+06    -20.0990E+06    -9.62026E+06     626.706E+03         75.1904
             638     7.39463E-03     60.6283E-03     882.560E-03     705.131E-03        -1.83734     690.347E-03        -1.82255     882.560E-03     22.1366E-03     604.633E-03    -302.169E-03    -302.463E-03    -302.102E-03     604.565E-03    -302.463E-03     15.4247E-03    -2.66786E+06    -7.87022E+06    -17.1265E+06    -2.72805E+06    -17.0664E+06    -7.87022E+06        872.E+03         73.1585
             639     6.65458E-03     60.6067E-03     893.547E-03     751.314E-03        -1.89122     736.542E-03        -1.87644     893.547E-03     13.2360E-03     604.839E-03    -302.338E-03    -302.501E-03    -302.320E-03     604.807E-03    -302.488E-03     10.4797E-03    -2.60052E+06    -6.10441E+06    -14.9993E+06    -2.69757E+06    -14.9022E+06    -6.10441E+06     1.03155E+06         71.6377
             640     5.91511E-03     60.5916E-03     905.114E-03     795.877E-03        -1.94410     783.054E-03        -1.93128     905.114E-03    -1.96631E-03     604.948E-03    -302.434E-03    -302.514E-03    -302.437E-03     604.937E-03    -302.500E-03     5.97706E-03    -2.38715E+06    -4.13573E+06    -13.2480E+06    -2.63759E+06    -13.1176E+06    -4.01572E+06     1.14159E+06         70.5575
             641     5.17581E-03     60.5850E-03     917.205E-03     828.424E-03        -1.98817     818.881E-03        -1.97863     917.205E-03     46.1954E-03     604.974E-03    -302.435E-03    -302.539E-03    -302.467E-03     604.972E-03    -302.505E-03     2.30855E-03    -2.02545E+06    -2.85578E+06    -12.1687E+06    -2.63818E+06    -12.0178E+06    -2.39388E+06     1.19679E+06         69.8241
             642     4.43657E-03     60.5828E-03     929.517E-03     862.682E-03        -2.03740     857.141E-03        -2.03186     929.517E-03    -53.1416E-03     604.996E-03    -302.451E-03    -302.545E-03    -302.495E-03     604.995E-03    -302.500E-03    -555.495E-06    -1.72632E+06    -2.71064E+06    -10.9710E+06    -2.63364E+06    -10.8522E+06    -1.92216E+06     989.734E+03         69.3441
             643     3.69721E-03     60.5855E-03     942.464E-03     887.461E-03        -2.07707     879.963E-03        -2.06957     942.464E-03     106.626E-03     604.955E-03    -302.449E-03    -302.507E-03    -302.457E-03     604.953E-03    -302.496E-03    -2.55984E-03    -1.62589E+06    -2.60497E+06    -10.1073E+06    -2.48258E+06    -10.0339E+06    -1.82173E+06     744.195E+03         69.0388
             644     2.95726E-03     60.5904E-03     979.866E-03     922.100E-03        -2.15033     921.251E-03        -2.12406     954.453E-03    -143.169E-03     604.949E-03    -302.445E-03    -302.505E-03    -302.444E-03     604.946E-03    -302.502E-03    -3.51602E-03    -1.88228E+06    -2.61818E+06    -10.6986E+06    -2.67463E+06    -10.6421E+06    -1.88228E+06     654.369E+03         68.8486
             645     2.21812E-03     60.5963E-03         1.05384     943.783E-03        -2.23776     929.700E-03        -2.13663     966.790E-03     249.440E-03     605.039E-03    -302.475E-03    -302.564E-03    -302.541E-03     605.035E-03    -302.494E-03    -3.60872E-03    -2.08830E+06    -2.93993E+06    -10.7398E+06    -2.75470E+06    -10.6989E+06    -2.31440E+06     518.715E+03         68.7324
             646     1.47904E-03     60.6024E-03         1.31963     944.685E-03        -2.50770     996.791E-03        -2.20787     967.691E-03    -464.127E-03     605.005E-03    -302.462E-03    -302.542E-03    -302.540E-03     605.002E-03    -302.462E-03    -2.99540E-03    -2.28761E+06    -2.99191E+06    -10.6797E+06    -2.63371E+06    -10.6567E+06    -2.66881E+06     288.566E+03         68.6639
             647     739.433E-06     60.6064E-03         2.34395     574.229E-03        -3.16091         1.34949        -2.16645     574.229E-03         1.33949     604.886E-03    -302.233E-03    -302.653E-03    -302.246E-03     604.885E-03    -302.639E-03    -1.83540E-03    -2.56556E+06    -2.96902E+06    -11.5591E+06    -2.76963E+06    -11.5423E+06    -2.78169E+06    -107.072E+03         68.6272
             648     12.5708E-03     59.3142E-03     390.166E-03     187.942E-03    -794.877E-03     180.942E-03    -787.636E-03     389.926E-03    -10.7733E-03     607.617E-03    -302.764E-03    -304.853E-03    -303.502E-03     606.265E-03    -302.764E-03     70.0739E-03     32.4486E+06     8.73282E+06    -2.37774E+06    -2.36060E+06     8.71568E+06     32.4486E+06     328.949E+03         92.6434
             649     11.8320E-03     59.1797E-03     376.347E-03     202.094E-03    -792.274E-03     199.376E-03    -783.130E-03     369.921E-03     7.07176E-03     607.535E-03    -302.707E-03    -304.828E-03    -303.683E-03     606.390E-03    -302.707E-03     63.8505E-03     18.6195E+06    -724.669E+03    -6.02648E+06    -4.34331E+06    -2.40785E+06     18.6195E+06     503.260E+03         90.2991
             650     11.0928E-03     59.0822E-03     369.194E-03     209.696E-03    -788.124E-03     215.370E-03    -776.427E-03     351.824E-03    -11.4436E-03     606.501E-03    -302.625E-03    -303.876E-03    -303.178E-03     605.803E-03    -302.625E-03     50.2747E-03     3.85386E+06    -5.25996E+06    -13.4618E+06    -5.32008E+06    -13.4017E+06     3.85386E+06     548.063E+03         87.3499
             651     10.3520E-03     58.9970E-03     365.003E-03     218.763E-03    -786.632E-03     229.648E-03    -769.016E-03     336.503E-03     24.9564E-03     605.702E-03    -302.536E-03    -303.166E-03    -302.634E-03     605.200E-03    -302.567E-03     42.5004E-03    -4.10904E+06    -8.27318E+06    -21.0404E+06    -5.46581E+06    -21.0247E+06    -6.93212E+06     438.499E+03         84.0844
             652     9.61324E-03     58.9273E-03     361.341E-03     226.916E-03    -785.423E-03     240.558E-03    -760.882E-03     323.157E-03    -8.63412E-03     605.395E-03    -302.510E-03    -302.885E-03    -302.519E-03     605.060E-03    -302.541E-03     34.6339E-03    -4.78070E+06    -12.0855E+06    -23.8014E+06    -4.78822E+06    -23.7939E+06    -12.0855E+06     368.072E+03         80.8178
             653     8.87357E-03     58.8738E-03     358.647E-03     234.629E-03    -788.024E-03     247.433E-03    -754.403E-03     312.222E-03     24.2624E-03     605.148E-03    -302.454E-03    -302.695E-03    -302.401E-03     604.937E-03    -302.535E-03     27.5266E-03    -4.21836E+06    -13.0910E+06    -23.3671E+06    -4.23317E+06    -23.3523E+06    -13.0910E+06     470.859E+03         77.8192
             654     8.13346E-03     58.8302E-03     354.145E-03     240.243E-03    -789.600E-03     249.931E-03    -748.930E-03     303.786E-03     7.22921E-03     604.857E-03    -302.282E-03    -302.575E-03    -302.177E-03     604.732E-03    -302.555E-03     21.0478E-03    -3.67543E+06    -11.3689E+06    -20.9914E+06    -3.70118E+06    -20.9656E+06    -11.3689E+06     619.566E+03         75.2652
             655     7.39299E-03     58.7983E-03     349.853E-03     246.615E-03    -792.256E-03     252.644E-03    -746.267E-03     297.835E-03     13.2855E-03     604.844E-03    -302.249E-03    -302.595E-03    -302.184E-03     604.779E-03    -302.595E-03     15.1370E-03    -2.95738E+06    -8.22473E+06    -18.0698E+06    -3.02314E+06    -18.0041E+06    -8.22473E+06     932.157E+03         73.2301
             656     6.65354E-03     58.7733E-03     343.710E-03     253.712E-03    -790.545E-03     257.591E-03    -745.000E-03     294.285E-03     26.6858E-03     605.043E-03    -302.398E-03    -302.645E-03    -302.383E-03     605.014E-03    -302.631E-03     9.87595E-03    -2.43713E+06    -5.11116E+06    -15.5470E+06    -2.59310E+06    -15.3910E+06    -5.11116E+06     1.37588E+06         71.7019
             657     5.91436E-03     58.7597E-03     331.772E-03     262.058E-03    -781.973E-03     268.725E-03    -749.569E-03     292.701E-03    -27.0661E-03     605.236E-03    -302.553E-03    -302.683E-03    -302.580E-03     605.226E-03    -302.646E-03     5.43972E-03    -2.21552E+06    -3.23182E+06    -13.1625E+06    -2.52445E+06    -12.9736E+06    -3.11182E+06     1.41221E+06         70.6130
             658     5.17491E-03     58.7519E-03     315.497E-03     266.108E-03    -766.828E-03     275.085E-03    -753.039E-03     292.729E-03     86.4849E-03     605.348E-03    -302.622E-03    -302.725E-03    -302.709E-03     605.346E-03    -302.636E-03     1.95275E-03    -2.08592E+06    -2.59681E+06    -11.3150E+06    -2.44253E+06    -11.1975E+06    -2.35776E+06     968.177E+03         69.8710
             659     4.43569E-03     58.7504E-03     337.122E-03     273.113E-03    -797.229E-03     284.406E-03    -765.408E-03     294.008E-03    -119.933E-03     605.335E-03    -302.613E-03    -302.722E-03    -302.721E-03     605.334E-03    -302.613E-03    -856.069E-06    -1.91384E+06    -2.49124E+06    -10.2904E+06    -2.27485E+06    -10.2262E+06    -2.19440E+06     681.954E+03         69.3838
             660     3.69641E-03     58.7529E-03     435.026E-03     280.702E-03    -906.051E-03     281.997E-03    -769.378E-03     297.057E-03     216.818E-03     605.242E-03    -302.587E-03    -302.655E-03    -302.649E-03     605.239E-03    -302.590E-03    -2.75958E-03    -2.04716E+06    -2.60098E+06    -9.88290E+06    -2.34586E+06    -9.83770E+06    -2.34748E+06     540.302E+03         69.0729
             661     2.95764E-03     58.7583E-03     627.302E-03     290.907E-03        -1.11165     295.320E-03    -789.743E-03     300.977E-03    -324.705E-03     605.157E-03    -302.555E-03    -302.602E-03    -302.572E-03     605.153E-03    -302.581E-03    -3.64624E-03    -1.94671E+06    -2.54237E+06    -10.2013E+06    -2.20067E+06    -10.1815E+06    -2.30822E+06     297.717E+03         68.8787
             662     2.21797E-03     58.7639E-03     976.165E-03     306.996E-03        -1.46996     287.734E-03    -781.532E-03     306.996E-03     579.814E-03     605.122E-03    -302.495E-03    -302.627E-03    -302.529E-03     605.118E-03    -302.589E-03    -3.62321E-03    -1.67369E+06    -2.38465E+06    -10.4785E+06    -1.90846E+06    -10.4715E+06    -2.15681E+06     180.980E+03         68.7599
             663     1.47853E-03     58.7696E-03         1.73947     306.034E-03        -2.23178     331.092E-03    -823.400E-03     306.034E-03        -1.12248     605.192E-03    -302.530E-03    -302.662E-03    -302.588E-03     605.190E-03    -302.601E-03    -2.94845E-03    -1.68237E+06    -2.19419E+06    -10.6381E+06    -1.76158E+06    -10.6283E+06    -2.12479E+06     255.744E+03         68.6897
             664     739.405E-06     58.7749E-03         4.07130     3.01732E-03        -4.25348     599.855E-03    -782.036E-03     3.01732E-03         3.36455     605.215E-03    -302.467E-03    -302.748E-03    -302.502E-03     605.214E-03    -302.712E-03    -1.82778E-03    -1.23298E+06    -1.93812E+06    -11.0356E+06    -1.33986E+06    -11.0192E+06    -1.84760E+06     214.708E+03         68.6521
             665     12.5714E-03     57.4825E-03     155.271E-03     83.1955E-03    -399.506E-03     93.0291E-03    -181.915E-03    -72.1547E-03    -8.97552E-03     607.914E-03    -302.889E-03    -305.025E-03    -303.660E-03     606.549E-03    -302.889E-03     70.4010E-03     31.7491E+06     7.74988E+06    -2.39177E+06    -2.32680E+06     7.68491E+06     31.7491E+06     603.775E+03         92.6232
             666     11.8306E-03     57.3461E-03     195.360E-03     51.7285E-03    -405.809E-03     57.4539E-03    -102.184E-03    -113.990E-03     7.16954E-03     607.593E-03    -302.844E-03    -304.748E-03    -303.570E-03     606.414E-03    -302.844E-03     64.7705E-03     18.7952E+06    -246.863E+03    -5.76615E+06    -3.74352E+06    -2.26950E+06     18.7952E+06     733.557E+03         90.2954
             667     11.0911E-03     57.2482E-03     250.348E-03     5.11176E-03    -410.112E-03     18.7281E-03    -20.4606E-03    -152.920E-03    -12.4016E-03     606.687E-03    -302.776E-03    -303.911E-03    -303.186E-03     605.962E-03    -302.776E-03     51.2344E-03     3.62507E+06    -4.76918E+06    -13.3297E+06    -4.83815E+06    -13.2608E+06     3.62507E+06     608.258E+03         87.3687
             668     10.3525E-03     57.1662E-03     308.216E-03    -41.0403E-03    -414.251E-03    -20.0551E-03     60.9730E-03    -187.993E-03     25.0170E-03     606.090E-03    -302.691E-03    -303.400E-03    -302.844E-03     605.565E-03    -302.721E-03     43.4776E-03    -4.25327E+06    -8.49909E+06    -20.7856E+06    -5.09433E+06    -20.7597E+06    -7.68388E+06     569.062E+03         84.1265
             669     9.61085E-03     57.0959E-03     364.527E-03    -85.9731E-03    -417.735E-03    -60.0636E-03     141.135E-03    -220.253E-03    -11.4624E-03     605.641E-03    -302.670E-03    -302.971E-03    -302.595E-03     605.296E-03    -302.701E-03     35.1228E-03    -4.65543E+06    -12.9189E+06    -24.1901E+06    -4.67700E+06    -24.1685E+06    -12.9189E+06     581.673E+03         80.8788
             670     8.87104E-03     57.0409E-03     418.371E-03    -130.498E-03    -423.232E-03    -103.344E-03     217.141E-03    -249.156E-03     21.1783E-03     605.667E-03    -302.695E-03    -302.972E-03    -302.762E-03     605.457E-03    -302.695E-03     27.3769E-03    -4.01766E+06    -13.2120E+06    -23.9730E+06    -4.04605E+06    -23.9446E+06    -13.2120E+06     722.596E+03         77.8918
             671     8.13191E-03     56.9986E-03     464.635E-03    -173.418E-03    -427.136E-03    -148.828E-03     287.268E-03    -274.359E-03     5.46209E-03     605.764E-03    -302.658E-03    -303.106E-03    -302.965E-03     605.645E-03    -302.680E-03     20.5149E-03    -3.66888E+06    -10.7343E+06    -21.5876E+06    -3.72041E+06    -21.5360E+06    -10.7343E+06     930.660E+03         75.3421
             672     7.39326E-03     56.9653E-03     504.515E-03    -211.990E-03    -429.820E-03    -191.572E-03     350.026E-03    -295.749E-03     5.43700E-03     605.496E-03    -302.586E-03    -302.910E-03    -302.771E-03     605.438E-03    -302.667E-03     14.2976E-03    -3.07534E+06    -6.80628E+06    -18.6367E+06    -3.13946E+06    -18.5726E+06    -6.80628E+06     980.382E+03         73.3043
             673     6.65362E-03     56.9418E-03     535.938E-03    -243.699E-03    -427.629E-03    -227.308E-03     405.394E-03    -313.476E-03     30.1953E-03     605.182E-03    -302.491E-03    -302.691E-03    -302.488E-03     605.158E-03    -302.669E-03     9.07494E-03    -2.59690E+06    -4.08706E+06    -15.8114E+06    -2.68863E+06    -15.7197E+06    -4.08706E+06     883.058E+03         71.7683
             674     5.91376E-03     56.9265E-03     554.825E-03    -267.743E-03    -416.850E-03    -252.953E-03     451.287E-03    -328.101E-03    -44.8172E-03     605.229E-03    -302.531E-03    -302.698E-03    -302.547E-03     605.222E-03    -302.675E-03     4.67357E-03    -2.20460E+06    -3.25615E+06    -12.2694E+06    -2.30885E+06    -12.1652E+06    -3.25615E+06     673.801E+03         70.6694
             675     5.17482E-03     56.9189E-03     566.123E-03    -289.115E-03    -401.054E-03    -275.531E-03     491.665E-03    -340.179E-03     108.018E-03     605.324E-03    -302.593E-03    -302.731E-03    -302.647E-03     605.323E-03    -302.677E-03     1.20899E-03    -1.65340E+06    -2.44707E+06    -10.4621E+06    -1.82694E+06    -10.4092E+06    -2.32646E+06     467.402E+03         69.9178
             676     4.43570E-03     56.9172E-03     618.380E-03    -317.729E-03    -425.080E-03    -296.146E-03     521.772E-03    -350.054E-03    -166.485E-03     605.315E-03    -302.572E-03    -302.743E-03    -302.635E-03     605.314E-03    -302.679E-03    -1.22322E-03    -1.23505E+06    -1.66104E+06    -10.4882E+06    -1.55542E+06    -10.4662E+06    -1.36264E+06     321.207E+03         69.4225
             677     3.69662E-03     56.9201E-03     771.869E-03    -347.769E-03    -553.806E-03    -323.345E-03     550.818E-03    -357.179E-03     283.655E-03     605.339E-03    -302.609E-03    -302.730E-03    -302.661E-03     605.337E-03    -302.676E-03    -2.77836E-03    -1.17910E+06    -1.51986E+06    -9.78382E+06    -1.38068E+06    -9.76004E+06    -1.34207E+06     310.572E+03         69.1054
             678     2.95691E-03     56.9254E-03         1.05925    -361.658E-03    -831.074E-03    -339.283E-03     567.464E-03    -361.658E-03    -445.176E-03     605.343E-03    -302.649E-03    -302.694E-03    -302.667E-03     605.340E-03    -302.673E-03    -3.51126E-03    -1.03498E+06    -1.74681E+06    -9.93360E+06    -1.39546E+06    -9.90782E+06    -1.41211E+06     365.196E+03         68.9068
             679     2.21792E-03     56.9316E-03         1.60668    -362.598E-03        -1.37454    -361.195E-03     593.337E-03    -362.598E-03     789.801E-03     605.288E-03    -302.602E-03    -302.686E-03    -302.598E-03     605.284E-03    -302.686E-03    -3.58123E-03    -983.170E+03    -1.75033E+06    -10.4139E+06    -1.50943E+06    -10.3978E+06    -1.24020E+06     227.401E+03         68.7851
             680     1.47838E-03     56.9373E-03         2.72026    -364.535E-03        -2.48083    -349.668E-03     589.092E-03    -364.535E-03        -1.55188     605.334E-03    -302.594E-03    -302.740E-03    -302.602E-03     605.331E-03    -302.729E-03    -2.98258E-03    -1.20681E+06    -1.61287E+06    -10.4804E+06    -1.55539E+06    -10.4766E+06    -1.26804E+06     10.6744E+03         68.7131
             681     739.094E-06     56.9408E-03         5.88868    -537.203E-03        -5.46301    -195.987E-03     621.663E-03    -537.203E-03         4.69589     605.518E-03    -302.635E-03    -302.883E-03    -302.825E-03     605.517E-03    -302.692E-03    -1.92589E-03    -1.32320E+06    -2.34589E+06    -11.4968E+06    -1.89549E+06    -11.4876E+06    -1.78272E+06     62.4456E+03         68.6746
             682     12.5674E-03     55.6485E-03     433.810E-03    -12.2108E-03    -522.348E-03     1.50598E-03     420.093E-03    -522.348E-03    -6.92115E-03     607.987E-03    -303.041E-03    -304.946E-03    -303.554E-03     606.595E-03    -303.041E-03     71.1143E-03     31.6523E+06     6.67107E+06    -1.63497E+06    -1.57008E+06     6.60618E+06     31.6523E+06     602.355E+03         92.6049
             683     11.8284E-03     55.5133E-03     576.708E-03    -92.2511E-03    -583.098E-03    -87.3480E-03     571.804E-03    -583.098E-03     7.24974E-03     607.577E-03    -303.013E-03    -304.564E-03    -303.378E-03     606.391E-03    -303.013E-03     64.9462E-03     18.1303E+06    -161.811E+03    -5.65468E+06    -3.09627E+06    -2.72022E+06     18.1303E+06     694.755E+03         90.2925
             684     11.0879E-03     55.4159E-03     727.444E-03    -181.919E-03    -640.147E-03    -177.865E-03     723.390E-03    -640.147E-03    -14.2969E-03     606.698E-03    -302.970E-03    -303.728E-03    -303.004E-03     605.974E-03    -302.970E-03     51.1627E-03     3.21826E+06    -4.11167E+06    -13.4982E+06    -4.17736E+06    -13.4325E+06     3.21826E+06     724.909E+03         87.3870
             685     10.3473E-03     55.3314E-03     877.664E-03    -271.289E-03    -692.652E-03    -265.915E-03     872.290E-03    -692.652E-03     26.6242E-03     606.775E-03    -302.922E-03    -303.852E-03    -303.332E-03     606.254E-03    -302.922E-03     43.2460E-03    -3.89368E+06    -7.41592E+06    -20.7438E+06    -4.37297E+06    -20.6997E+06    -6.98075E+06     839.948E+03         84.1680
             686     9.61005E-03     55.2639E-03         1.02328    -358.239E-03    -741.590E-03    -351.311E-03         1.01635    -741.590E-03    -15.7938E-03     606.575E-03    -302.875E-03    -303.699E-03    -303.365E-03     606.241E-03    -302.875E-03     34.5974E-03    -4.18527E+06    -10.9467E+06    -24.5913E+06    -4.22375E+06    -24.5528E+06    -10.9467E+06     878.823E+03         80.9407
             687     8.87063E-03     55.2076E-03         1.16223    -446.438E-03    -786.628E-03    -438.213E-03         1.15401    -786.628E-03     21.4521E-03     606.292E-03    -302.835E-03    -303.457E-03    -303.253E-03     606.088E-03    -302.835E-03     27.0358E-03    -3.66048E+06    -10.3736E+06    -24.4724E+06    -3.69245E+06    -24.4404E+06    -10.3736E+06     805.626E+03         77.9664
             688     8.13182E-03     55.1637E-03         1.29138    -535.419E-03    -827.329E-03    -527.014E-03         1.28297    -827.329E-03     1.06243E-03     606.266E-03    -302.788E-03    -303.478E-03    -303.359E-03     606.148E-03    -302.788E-03     20.5371E-03    -2.81946E+06    -8.14081E+06    -21.5276E+06    -2.85880E+06    -21.4883E+06    -8.14081E+06     767.000E+03         75.4202
             689     7.39291E-03     55.1316E-03         1.40964    -620.256E-03    -863.123E-03    -612.655E-03         1.40204    -863.123E-03     6.20675E-03     606.037E-03    -302.732E-03    -303.305E-03    -303.244E-03     605.975E-03    -302.732E-03     14.6620E-03    -2.20764E+06    -5.97977E+06    -18.4351E+06    -2.25035E+06    -18.3924E+06    -5.97977E+06     713.091E+03         73.3789
             690     6.65394E-03     55.1099E-03         1.51549    -693.829E-03    -894.083E-03    -688.057E-03         1.50971    -894.083E-03     27.0910E-03     605.635E-03    -302.648E-03    -302.987E-03    -302.920E-03     605.608E-03    -302.688E-03     9.59771E-03    -1.59168E+06    -3.81097E+06    -15.1942E+06    -1.60873E+06    -15.1771E+06    -3.81097E+06     303.815E+03         71.8350
             691     5.91493E-03     55.0935E-03         1.60887    -754.192E-03    -920.792E-03    -751.766E-03         1.60644    -920.792E-03    -46.5287E-03     605.296E-03    -302.539E-03    -302.758E-03    -302.617E-03     605.288E-03    -302.671E-03     5.11113E-03    -1.04841E+06    -2.27693E+06    -12.1089E+06    -1.14839E+06    -12.1065E+06    -2.17939E+06     43.3612E+03         70.7261
             692     5.17515E-03     55.0866E-03         1.69228    -807.680E-03    -943.729E-03    -806.213E-03         1.69082    -943.729E-03     110.230E-03     605.128E-03    -302.445E-03    -302.683E-03    -302.444E-03     605.127E-03    -302.683E-03     1.41239E-03    -827.211E+03    -1.69046E+06    -10.6144E+06    -1.05770E+06    -10.6020E+06    -1.47231E+06     263.150E+03         69.9645
             693     4.43541E-03     55.0845E-03         1.77666    -871.050E-03    -963.092E-03    -857.159E-03         1.76277    -963.092E-03    -178.584E-03     605.157E-03    -302.441E-03    -302.717E-03    -302.440E-03     605.157E-03    -302.717E-03    -1.12186E-03    -855.909E+03    -1.38963E+06    -10.4112E+06    -1.11892E+06    -10.3952E+06    -1.14266E+06     285.715E+03         69.4607
             694     3.69573E-03     55.0874E-03         1.89103    -947.332E-03        -1.00661    -905.649E-03         1.82132    -978.580E-03     295.466E-03     605.341E-03    -302.590E-03    -302.751E-03    -302.588E-03     605.339E-03    -302.751E-03    -2.80542E-03    -691.500E+03    -1.27786E+06    -10.3530E+06    -1.23802E+06    -10.3343E+06    -749.991E+03     301.547E+03         69.1370
             695     2.95689E-03     55.0922E-03         2.10235    -989.058E-03        -1.18269    -950.196E-03         1.87003    -989.236E-03    -476.629E-03     605.494E-03    -302.727E-03    -302.767E-03    -302.724E-03     605.490E-03    -302.767E-03    -3.70039E-03    -511.827E+03    -1.36065E+06    -9.92893E+06    -1.27691E+06    -9.90005E+06    -624.448E+03     379.019E+03         68.9337
             696     2.21743E-03     55.0987E-03         2.54865    -994.987E-03        -1.62260    -978.252E-03         1.90430    -994.987E-03     837.881E-03     605.535E-03    -302.749E-03    -302.786E-03    -302.766E-03     605.531E-03    -302.765E-03    -3.72962E-03    -839.459E+03    -1.45399E+06    -9.90941E+06    -1.29848E+06    -9.89113E+06    -1.01325E+06     227.429E+03         68.8088
             697     1.47850E-03     55.1042E-03         3.58630    -996.148E-03        -2.64799    -995.330E-03         1.93363    -996.148E-03        -1.66023     605.510E-03    -302.706E-03    -302.804E-03    -302.738E-03     605.507E-03    -302.769E-03    -3.04732E-03    -1.04958E+06    -1.69477E+06    -10.5759E+06    -1.33615E+06    -10.5648E+06    -1.41933E+06     133.085E+03         68.7349
             698     739.097E-06     55.1083E-03         6.75088        -1.02276        -5.77462    -967.083E-03         1.94334        -1.02276         5.02565     605.557E-03    -302.589E-03    -302.968E-03    -302.770E-03     605.556E-03    -302.786E-03    -1.84111E-03    -845.979E+03    -1.92626E+06    -11.6132E+06    -1.41858E+06    -11.6038E+06    -1.36309E+06     37.6858E+03         68.6952
             699     12.5670E-03     53.8156E-03     991.104E-03    -91.2988E-03    -934.424E-03    -90.5418E-03     990.347E-03    -934.424E-03    -4.77508E-03     608.305E-03    -303.183E-03    -305.122E-03    -303.747E-03     606.930E-03    -303.183E-03     70.7164E-03     29.8633E+06     5.49545E+06    -1.76293E+06    -1.73876E+06     5.47128E+06     29.8633E+06     251.143E+03         92.5875
             700     11.8263E-03     53.6794E-03         1.20542    -227.628E-03        -1.01004    -227.137E-03         1.20493        -1.01004     7.05316E-03     607.958E-03    -303.154E-03    -304.805E-03    -303.662E-03     606.815E-03    -303.154E-03     63.6744E-03     17.5930E+06    -968.034E+03    -6.00393E+06    -3.29546E+06    -3.67650E+06     17.5930E+06     527.321E+03         90.2916
             701     11.0871E-03     53.5837E-03         1.41625    -363.059E-03        -1.08140    -362.716E-03         1.41591        -1.08140    -17.7542E-03     607.264E-03    -303.100E-03    -304.164E-03    -303.485E-03     606.585E-03    -303.100E-03     49.6103E-03     4.67995E+06    -4.05791E+06    -13.7977E+06    -4.11272E+06    -13.7429E+06     4.67995E+06     678.385E+03         87.4093
             702     10.3483E-03     53.4972E-03         1.62221    -493.525E-03        -1.14792    -492.948E-03         1.62163        -1.14792     27.7909E-03     607.106E-03    -303.037E-03    -304.069E-03    -303.592E-03     606.629E-03    -303.037E-03     41.4045E-03    -2.74324E+06    -6.10591E+06    -21.0811E+06    -4.36503E+06    -21.0512E+06    -4.51400E+06     650.580E+03         84.2138
             703     9.60798E-03     53.4277E-03         1.82058    -618.208E-03        -1.21038    -617.002E-03         1.81937        -1.21038    -24.0352E-03     606.800E-03    -302.975E-03    -303.825E-03    -303.521E-03     606.496E-03    -302.975E-03     33.0521E-03    -3.95321E+06    -8.87781E+06    -24.6752E+06    -3.97396E+06    -24.6544E+06    -8.87781E+06     552.993E+03         81.0049
             704     8.86973E-03     53.3742E-03         2.01041    -742.695E-03        -1.26855    -740.663E-03         2.00837        -1.26855     22.0450E-03     606.371E-03    -302.927E-03    -303.445E-03    -303.246E-03     606.173E-03    -302.927E-03     26.7381E-03    -3.16275E+06    -9.54289E+06    -24.2820E+06    -3.18039E+06    -24.2644E+06    -9.54289E+06     522.837E+03         78.0410
             705     8.13043E-03     53.3290E-03         2.18972    -868.376E-03        -1.32211    -865.770E-03         2.18711        -1.32211    -10.5478E-03     606.090E-03    -302.898E-03    -303.192E-03    -303.069E-03     605.967E-03    -302.898E-03     20.9223E-03    -2.34203E+06    -8.09431E+06    -21.4263E+06    -2.35039E+06    -21.4179E+06    -8.09431E+06     277.590E+03         75.4968
             706     7.39141E-03     53.2980E-03         2.35818    -991.996E-03        -1.37019    -989.135E-03         2.35532        -1.37019     9.82058E-03     606.172E-03    -302.866E-03    -303.307E-03    -303.241E-03     606.106E-03    -302.866E-03     15.2707E-03    -1.94111E+06    -6.37354E+06    -18.4243E+06    -1.94433E+06    -18.4211E+06    -6.37354E+06     90.6038E+03         73.4513
             707     6.65285E-03     53.2746E-03         2.51204        -1.10310        -1.41249        -1.10054         2.50947        -1.41249     11.3484E-03     606.119E-03    -302.816E-03    -303.303E-03    -303.272E-03     606.088E-03    -302.816E-03     10.3904E-03    -1.33062E+06    -4.41985E+06    -14.8810E+06    -1.34521E+06    -14.8664E+06    -4.41985E+06     265.902E+03         71.8998
             708     5.91375E-03     53.2618E-03         2.65237        -1.19963        -1.44939        -1.19824         2.65098        -1.44939    -36.6168E-03     605.762E-03    -302.706E-03    -303.055E-03    -302.976E-03     605.750E-03    -302.774E-03     5.99523E-03    -958.265E+03    -2.63657E+06    -12.4015E+06    -1.07400E+06    -12.3833E+06    -2.53903E+06     364.622E+03         70.7818
             709     5.17458E-03     53.2535E-03         2.77452        -1.28185        -1.48148        -1.28118         2.77386        -1.48148     88.0861E-03     605.521E-03    -302.602E-03    -302.918E-03    -302.762E-03     605.519E-03    -302.757E-03     1.98752E-03    -582.509E+03    -1.66572E+06    -11.1156E+06    -1.03447E+06    -11.1050E+06    -1.22436E+06     285.225E+03         70.0110
             710     4.43532E-03     53.2528E-03         2.88836        -1.36527        -1.50878        -1.35989         2.88298        -1.50878    -155.375E-03     605.466E-03    -302.585E-03    -302.881E-03    -302.711E-03     605.465E-03    -302.754E-03    -1.17573E-03    -267.559E+03    -1.20014E+06    -10.4091E+06    -977.553E+03    -10.3878E+06    -511.435E+03     391.261E+03         69.4990
             711     3.69613E-03     53.2538E-03         2.99669        -1.45624        -1.53115        -1.42648         2.96693        -1.53115     250.522E-03     605.432E-03    -302.617E-03    -302.815E-03    -302.669E-03     605.430E-03    -302.760E-03    -3.19330E-03    -238.258E+03    -1.11387E+06    -10.3736E+06    -1.00359E+06    -10.3546E+06    -367.480E+03     323.086E+03         69.1688
             712     2.95656E-03     53.2593E-03         3.15176        -1.52540        -1.62498        -1.49497         3.04319        -1.54685    -411.055E-03     605.470E-03    -302.701E-03    -302.769E-03    -302.696E-03     605.465E-03    -302.769E-03    -4.07034E-03    -597.492E+03    -1.32948E+06    -9.90952E+06    -1.00573E+06    -9.90278E+06    -927.979E+03     95.4231E+03         68.9606
             713     2.21762E-03     53.2650E-03         3.42600        -1.55658        -1.87082        -1.52737         3.08254        -1.55658     718.512E-03     605.554E-03    -302.762E-03    -302.791E-03    -302.779E-03     605.549E-03    -302.770E-03    -3.99195E-03    -1.14237E+06    -1.58038E+06    -9.99881E+06    -1.15572E+06    -9.98546E+06    -1.58038E+06     240.882E+03         68.8322
             714     1.47830E-03     53.2711E-03         4.14216        -1.55610        -2.57290        -1.57117         3.14042        -1.55610        -1.42829     605.566E-03    -302.755E-03    -302.811E-03    -302.808E-03     605.563E-03    -302.755E-03    -3.17921E-03    -1.06170E+06    -1.61380E+06    -10.5886E+06    -1.10090E+06    -10.5718E+06    -1.59141E+06     340.070E+03         68.7560
             715     739.356E-06     53.2749E-03         6.54707        -1.44906        -5.07058        -1.65312         3.12962        -1.44906         4.30573     605.494E-03    -302.654E-03    -302.840E-03    -302.687E-03     605.493E-03    -302.806E-03    -1.88230E-03    -539.341E+03    -1.09657E+06    -11.4071E+06    -578.821E+03    -11.3900E+06    -1.07418E+06     318.004E+03         68.7151
             716     12.5643E-03     51.9813E-03         1.50463    -181.053E-03        -1.28461    -177.944E-03         1.50152        -1.28461    -2.54460E-03     608.968E-03    -303.303E-03    -305.664E-03    -304.301E-03     607.604E-03    -303.303E-03     70.4890E-03     28.4848E+06     4.52185E+06    -2.08018E+06    -2.06092E+06     4.50259E+06     28.4848E+06     223.230E+03         92.5726
             717     11.8257E-03     51.8457E-03         1.76587    -353.707E-03        -1.37029    -351.489E-03         1.76365        -1.37029     6.38970E-03     608.594E-03    -303.259E-03    -305.334E-03    -304.195E-03     607.455E-03    -303.259E-03     63.6398E-03     18.5533E+06    -1.86103E+06    -6.14625E+06    -3.59808E+06     -4.4092E+06     18.5533E+06     319.010E+03         90.2939
             718     11.0865E-03     51.7478E-03         2.02157    -524.207E-03        -1.45151    -522.968E-03         2.02033        -1.45151    -23.4615E-03     607.881E-03    -303.180E-03    -304.701E-03    -304.012E-03     607.192E-03    -303.180E-03     50.0157E-03     6.07334E+06    -4.49155E+06    -13.8845E+06    -4.51517E+06    -13.8609E+06     6.07334E+06     339.812E+03         87.4346
             719     10.3477E-03     51.6621E-03         2.27071    -687.798E-03        -1.52774    -687.378E-03         2.27029        -1.52774     28.5913E-03     607.352E-03    -303.092E-03    -304.259E-03    -303.765E-03     606.857E-03    -303.092E-03     42.1851E-03    -2.24774E+06    -6.49410E+06    -20.7538E+06    -4.61636E+06    -20.7455E+06    -4.13374E+06     207.056E+03         84.2618
             720     9.60942E-03     51.5949E-03         2.51111    -844.359E-03        -1.59964    -844.133E-03         2.51088        -1.59964    -35.6005E-03     606.791E-03    -303.025E-03    -303.765E-03    -303.452E-03     606.477E-03    -303.025E-03     33.5017E-03    -4.32344E+06    -9.89533E+06    -24.5119E+06    -4.32493E+06    -24.5104E+06    -9.89533E+06     66.4618E+03         81.0700
             721     8.86926E-03     51.5391E-03         2.74191    -999.807E-03        -1.66695    -999.318E-03         2.74142        -1.66695     23.0931E-03     606.367E-03    -302.984E-03    -303.383E-03    -303.192E-03     606.176E-03    -302.984E-03     26.1453E-03    -3.38799E+06    -11.2355E+06    -24.2654E+06     -3.3923E+06    -24.2611E+06    -11.2355E+06     18.9745E+03         78.1156
             722     8.12979E-03     51.4973E-03         2.96046        -1.15513        -1.72933        -1.15408         2.95941        -1.72933    -28.0485E-03     605.987E-03    -302.924E-03    -303.062E-03    -302.904E-03     605.874E-03    -302.970E-03     20.0186E-03    -2.49229E+06    -9.99558E+06    -21.2825E+06    -2.49792E+06    -21.2768E+06    -9.99558E+06     9.22496E+03         75.5734
             723     7.39031E-03     51.4624E-03         3.16644        -1.30775        -1.78599        -1.30616         3.16485        -1.78599     14.2459E-03     605.995E-03    -302.911E-03    -303.084E-03    -302.962E-03     605.935E-03    -302.973E-03     14.4640E-03    -1.97384E+06    -7.16446E+06    -18.5631E+06    -1.97538E+06    -18.5616E+06    -7.16446E+06    -4.20013E+03         73.5237
             724     6.65112E-03     51.4413E-03         3.35423        -1.44562        -1.83644        -1.44357         3.35218        -1.83644    -16.4770E-03     606.186E-03    -302.942E-03    -303.243E-03    -303.201E-03     606.160E-03    -302.959E-03     9.37775E-03    -1.59139E+06    -4.48296E+06    -15.8405E+06    -1.60526E+06    -15.8266E+06    -4.48296E+06     143.845E+03         71.9643
             725     5.91252E-03     51.4263E-03         3.52682        -1.56721        -1.88093        -1.56529         3.52490        -1.88093    -18.6561E-03     606.203E-03    -302.915E-03    -303.288E-03    -303.279E-03     606.195E-03    -302.915E-03     5.14476E-03    -1.13936E+06    -2.85623E+06    -12.5365E+06    -1.15656E+06    -12.5193E+06    -2.85623E+06     282.678E+03         70.8371
             726     5.17390E-03     51.4207E-03         3.67622        -1.66788        -1.92030        -1.66673         3.67507        -1.92030     43.6982E-03     606.095E-03    -302.861E-03    -303.234E-03    -303.232E-03     606.093E-03    -302.861E-03     1.68869E-03    -589.208E+03    -1.89850E+06    -11.1843E+06    -936.828E+03    -11.1805E+06    -1.55468E+06     168.238E+03         70.0574
             727     4.43522E-03     51.4179E-03         3.81277        -1.76600        -1.95465        -1.76461         3.81139        -1.95465    -106.140E-03     605.890E-03    -302.806E-03    -303.084E-03    -303.083E-03     605.889E-03    -302.806E-03    -1.02204E-03    -267.454E+03    -1.44542E+06    -10.6885E+06    -841.746E+03    -10.6766E+06    -883.083E+03     141.569E+03         69.5376
             728     3.69633E-03     51.4218E-03         3.92381        -1.85382        -1.98376        -1.84650         3.91649        -1.98376     157.089E-03     605.665E-03    -302.711E-03    -302.953E-03    -302.902E-03     605.662E-03    -302.760E-03    -2.87232E-03    -376.004E+03    -1.07130E+06    -10.1177E+06    -613.859E+03    -10.0984E+06    -852.776E+03     207.309E+03         69.2009
             729     2.95714E-03     51.4259E-03         4.05012        -1.94540        -2.02568        -1.93400         4.01846        -2.00541    -267.015E-03     605.531E-03    -302.686E-03    -302.844E-03    -302.791E-03     605.526E-03    -302.736E-03    -3.93778E-03    -359.780E+03    -810.732E+03    -10.3899E+06    -570.131E+03    -10.3739E+06    -616.375E+03     307.429E+03         68.9877
             730     2.21766E-03     51.4322E-03         4.18351        -2.00757        -2.10326        -1.97563         4.06887        -2.02056     457.063E-03     605.457E-03    -302.716E-03    -302.742E-03    -302.726E-03     605.453E-03    -302.726E-03    -4.07398E-03     13.4322E+03    -791.155E+03    -10.2976E+06    -544.569E+03    -10.2799E+06    -250.786E+03     390.314E+03         68.8558
             731     1.47855E-03     51.4376E-03         4.53447        -2.01123        -2.43372        -2.04425         4.15476        -2.02098    -912.507E-03     605.433E-03    -302.683E-03    -302.750E-03    -302.701E-03     605.430E-03    -302.730E-03    -3.21106E-03    -251.015E+03    -849.040E+03    -10.3312E+06    -701.829E+03    -10.3185E+06    -410.969E+03     289.278E+03         68.7773
             732     739.156E-06     51.4420E-03         5.70540        -1.82212        -3.77572        -2.20634         4.13602        -1.82212         2.73403     605.471E-03    -302.604E-03    -302.867E-03    -302.818E-03     605.469E-03    -302.652E-03    -1.87643E-03    -708.433E+03    -832.702E+03    -11.0243E+06    -830.310E+03    -11.0090E+06    -726.162E+03     202.680E+03         68.7349
             733     12.5639E-03     50.1457E-03         1.93987    -265.444E-03        -1.55372    -258.643E-03         1.93306        -1.55372    -658.490E-06     609.560E-03    -303.436E-03    -306.124E-03    -304.754E-03     608.190E-03    -303.436E-03     70.7051E-03     29.5343E+06     3.99888E+06    -2.07836E+06    -2.04031E+06     3.96083E+06     29.5343E+06     448.575E+03         92.5606
             734     11.8242E-03     50.0105E-03         2.22951    -461.634E-03        -1.64403    -456.351E-03         2.22423        -1.64403     6.26811E-03     609.066E-03    -303.368E-03    -305.699E-03    -304.549E-03     607.917E-03    -303.368E-03     64.0365E-03     18.1874E+06    -1.75610E+06    -6.39493E+06    -3.55287E+06    -4.59816E+06     18.1874E+06     193.271E+03         90.2978
             735     11.0854E-03     49.9119E-03         2.51337    -655.413E-03        -1.72998    -652.038E-03         2.51000        -1.72998    -29.0682E-03     607.942E-03    -303.281E-03    -304.661E-03    -303.955E-03     607.237E-03    -303.281E-03     50.6273E-03     4.72672E+06    -4.20251E+06    -13.8027E+06    -4.20514E+06    -13.8001E+06     4.72672E+06     27.1044E+03         87.4594
             736     10.3461E-03     49.8279E-03         2.79088    -842.491E-03        -1.81108    -840.978E-03         2.78936        -1.81108     31.7994E-03     607.534E-03    -303.201E-03    -304.334E-03    -303.827E-03     607.028E-03    -303.201E-03     42.6998E-03    -3.19049E+06    -7.29918E+06    -20.7407E+06    -4.47108E+06    -20.7394E+06    -6.01989E+06    -106.173E+03         84.3076
             737     9.60647E-03     49.7587E-03         3.05958        -1.02232        -1.88775        -1.02188         3.05914        -1.88775    -45.5634E-03     607.247E-03    -303.131E-03    -304.116E-03    -303.790E-03     606.922E-03    -303.131E-03     34.2248E-03    -4.12033E+06    -11.2766E+06    -24.3970E+06    -4.12088E+06    -24.3964E+06    -11.2766E+06    -95.6608E+03         81.1332
             738     8.86877E-03     49.7056E-03         3.31751        -1.19978        -1.95973        -1.19967         3.31741        -1.95973     28.7157E-03     607.043E-03    -303.066E-03    -303.977E-03    -303.778E-03     606.844E-03    -303.066E-03     26.6757E-03    -3.64282E+06    -12.1924E+06    -24.4644E+06    -3.64539E+06    -24.4618E+06    -12.1924E+06    -169.831E+03         78.1901
             739     8.13002E-03     49.6626E-03         3.56086        -1.37540        -2.02656        -1.37492         3.56038        -2.02656    -42.9642E-03     606.621E-03    -302.963E-03    -303.658E-03    -303.502E-03     606.511E-03    -303.009E-03     19.7478E-03    -2.73168E+06    -10.3569E+06    -21.7696E+06    -2.73566E+06    -21.7656E+06    -10.3569E+06    -127.503E+03         75.6517
             740     7.39078E-03     49.6304E-03         3.78943        -1.54594        -2.08761        -1.54480         3.78828        -2.08761     26.2266E-03     606.094E-03    -302.908E-03    -303.186E-03    -303.058E-03     606.040E-03    -302.981E-03     13.7372E-03    -1.72035E+06    -7.42647E+06    -18.7304E+06    -1.72191E+06    -18.7288E+06    -7.42647E+06     4.86557E+03         73.5986
             741     6.65163E-03     49.6056E-03         3.99752        -1.69969        -2.14257        -1.69742         3.99525        -2.14257    -44.1292E-03     605.970E-03    -302.919E-03    -303.050E-03    -302.973E-03     605.948E-03    -302.975E-03     8.50034E-03    -1.39407E+06    -4.88675E+06    -16.1188E+06    -1.39508E+06    -16.1178E+06    -4.88675E+06    -85.5340E+03         72.0310
             742     5.91255E-03     49.5929E-03         4.18893        -1.83608        -2.19169        -1.83279         4.18564        -2.19169     11.1045E-03     606.097E-03    -302.929E-03    -303.168E-03    -303.133E-03     606.091E-03    -302.958E-03     4.40306E-03    -1.07435E+06    -3.08834E+06    -12.9901E+06    -1.08005E+06    -12.9844E+06    -3.08834E+06    -147.039E+03         70.8939
             743     5.17361E-03     49.5848E-03         4.35547        -1.94905        -2.23587        -1.94532         4.35174        -2.23587    -6.86279E-03     606.103E-03    -302.922E-03    -303.181E-03    -303.180E-03     606.102E-03    -302.922E-03     1.19856E-03    -518.360E+03    -2.00690E+06    -11.4598E+06    -524.068E+03    -11.4541E+06    -2.00690E+06    -81.2013E+03         70.1046
             744     4.43468E-03     49.5850E-03         4.50832        -2.05746        -2.27529        -2.05393         4.50478        -2.27529    -37.7579E-03     606.002E-03    -302.878E-03    -303.123E-03    -303.123E-03     606.001E-03    -302.878E-03    -1.25976E-03    -239.898E+03    -1.26769E+06    -11.0510E+06    -245.497E+03    -11.0454E+06    -1.26769E+06     26.3703E+03         69.5765
             745     3.69551E-03     49.5871E-03         4.62928        -2.14967        -2.30978        -2.14598         4.62559        -2.30978     38.2952E-03     605.924E-03    -302.829E-03    -303.095E-03    -303.092E-03     605.921E-03    -302.829E-03    -2.86723E-03    -15.6768E+03    -668.635E+03    -10.6059E+06    -293.576E+03    -10.5937E+06    -403.002E+03     161.132E+03         69.2332
             746     2.95684E-03     49.5929E-03         4.75283        -2.25451        -2.33658        -2.24769         4.74602        -2.33658    -77.6538E-03     605.745E-03    -302.777E-03    -302.968E-03    -302.964E-03     605.741E-03    -302.777E-03    -3.77801E-03     393.035E+03    -177.595E+03    -10.5200E+06    -170.420E+03    -10.5040E+06     369.927E+03     160.991E+03         69.0152
             747     2.21791E-03     49.5991E-03         4.82968        -2.31776        -2.35660        -2.29796         4.80988        -2.35660     113.739E-03     605.513E-03    -302.722E-03    -302.791E-03    -302.764E-03     605.509E-03    -302.745E-03    -3.77255E-03     587.364E+03    -199.959E+03    -10.3614E+06    -51.7831E+03    -10.3501E+06     427.941E+03     30.2803E+03         68.8798
             748     1.47846E-03     49.6050E-03         4.98204        -2.32973        -2.47898        -2.38127         4.91492        -2.36032    -235.589E-03     605.462E-03    -302.685E-03    -302.777E-03    -302.715E-03     605.460E-03    -302.745E-03    -3.01370E-03     432.542E+03    -258.280E+03    -10.2664E+06     9.99013E+03    -10.2595E+06     157.403E+03     36.5829E+03         68.7990
             749     739.190E-06     49.6089E-03         5.23926        -2.12525        -2.92666        -2.58371         4.89630        -2.12525     658.507E-03     605.502E-03    -302.573E-03    -302.929E-03    -302.799E-03     605.501E-03    -302.702E-03    -1.74825E-03     242.128E+03    -297.893E+03    -10.5298E+06    -195.198E+03    -10.5168E+06     126.412E+03     122.631E+03         68.7553
             750     12.5608E-03     48.3083E-03         2.28387    -345.479E-03        -1.72852    -334.242E-03         2.27263        -1.72852     1.21793E-03     609.657E-03    -303.586E-03    -306.070E-03    -304.661E-03     608.247E-03    -303.586E-03     71.7101E-03     29.5568E+06     3.74683E+06    -1.65021E+06    -1.61889E+06     3.71552E+06     29.5568E+06     347.378E+03         92.5486
             751     11.8231E-03     48.1738E-03         2.58423    -553.204E-03        -1.81762    -544.088E-03         2.57511        -1.81762     7.16288E-03     609.483E-03    -303.520E-03    -305.963E-03    -304.786E-03     608.307E-03    -303.520E-03     64.7561E-03     17.2866E+06    -1.11685E+06    -6.19607E+06    -3.06133E+06    -4.25159E+06     17.2866E+06     207.467E+03         90.3002
             752     11.0835E-03     48.0779E-03         2.87766    -757.146E-03        -1.90255    -750.954E-03         2.87147        -1.90255    -34.1929E-03     608.498E-03    -303.425E-03    -305.073E-03    -304.361E-03     607.786E-03    -303.425E-03     50.8889E-03     3.55852E+06    -3.97598E+06    -14.0314E+06    -3.98588E+06    -14.0215E+06     3.55852E+06     183.348E+03         87.4828
             753     10.3446E-03     47.9912E-03         3.16387    -953.554E-03        -1.98310    -950.315E-03         3.16063        -1.98310     35.5515E-03     608.057E-03    -303.330E-03    -304.727E-03    -304.228E-03     607.558E-03    -303.330E-03     42.3872E-03    -3.49756E+06    -7.13547E+06    -20.7182E+06    -4.18311E+06    -20.7124E+06    -6.45571E+06     88.4825E+03         84.3531
             754     9.60649E-03     47.9247E-03         3.44063        -1.14199        -2.05953        -1.14078         3.43941        -2.05953    -55.2528E-03     607.672E-03    -303.245E-03    -304.427E-03    -304.117E-03     607.362E-03    -303.245E-03     33.3732E-03    -3.87955E+06    -11.2279E+06    -24.3601E+06    -3.88229E+06    -24.3573E+06    -11.2279E+06    -102.032E+03         81.1971
             755     8.86688E-03     47.8681E-03         3.70618        -1.32711        -2.13166        -1.32692         3.70599        -2.13166     34.7206E-03     607.408E-03    -303.162E-03    -304.246E-03    -304.054E-03     607.216E-03    -303.162E-03     26.2757E-03    -3.26624E+06    -12.0338E+06    -24.3204E+06    -3.26923E+06    -24.3174E+06    -12.0338E+06    -223.109E+03         78.2652
             756     8.12915E-03     47.8270E-03         3.95728        -1.50984        -2.19902        -1.50958         3.95702        -2.19902    -57.1960E-03     607.200E-03    -303.078E-03    -304.122E-03    -304.010E-03     607.088E-03    -303.078E-03     19.9424E-03    -2.71424E+06    -10.4559E+06    -22.3250E+06    -2.71693E+06    -22.3223E+06    -10.4559E+06    -221.726E+03         75.7305
             757     7.39115E-03     47.7954E-03         4.19362        -1.68725        -2.26094        -1.68628         4.19265        -2.26094     40.2045E-03     606.649E-03    -302.994E-03    -303.655E-03    -303.586E-03     606.591E-03    -303.005E-03     14.2685E-03    -1.89120E+06    -7.72894E+06    -19.5236E+06    -1.89277E+06    -19.5220E+06    -7.72894E+06    -115.129E+03         73.6747
             758     6.65189E-03     47.7733E-03         4.41114        -1.84862        -2.31720        -1.84584         4.40835        -2.31720    -69.4272E-03     606.171E-03    -302.918E-03    -303.252E-03    -303.188E-03     606.146E-03    -302.958E-03     9.05957E-03    -1.14022E+06    -5.62543E+06    -15.8861E+06    -1.14139E+06    -15.8849E+06    -5.62543E+06    -82.0729E+03         72.0997
             759     5.91260E-03     47.7579E-03         4.61295        -1.99354        -2.36797        -1.98831         4.60771        -2.36797     43.3276E-03     606.018E-03    -302.900E-03    -303.118E-03    -303.083E-03     606.012E-03    -302.929E-03     4.21763E-03    -771.017E+03    -4.09423E+06    -12.9620E+06    -777.683E+03    -12.9553E+06    -4.09423E+06    -257.396E+03         70.9529
             760     5.17356E-03     47.7516E-03         4.79105        -2.11778        -2.41386        -2.10962         4.78289        -2.41386    -54.9447E-03     605.910E-03    -302.913E-03    -302.996E-03    -302.995E-03     605.909E-03    -302.913E-03     524.864E-06    -422.307E+03    -2.26890E+06    -12.1935E+06    -591.339E+03    -12.1873E+06    -2.10606E+06    -226.029E+03         70.1538
             761     4.43443E-03     47.7503E-03         4.95496        -2.23616        -2.45484        -2.22483         4.94363        -2.45484     34.0619E-03     605.926E-03    -302.895E-03    -303.031E-03    -303.030E-03     605.925E-03    -302.895E-03    -1.91935E-03    -153.142E+03    -899.550E+03    -11.8018E+06    -492.267E+03    -11.7969E+06    -565.302E+03    -8.12091E+03         69.6171
             762     3.69585E-03     47.7534E-03         5.08895        -2.33879        -2.49075        -2.32187         5.07204        -2.49075    -80.7402E-03     605.856E-03    -302.831E-03    -303.025E-03    -302.988E-03     605.852E-03    -302.865E-03    -3.44554E-03     167.943E+03    -578.648E+03    -10.6347E+06    -273.413E+03    -10.6304E+06    -141.611E+03     24.0521E+03         69.2671
             763     2.95654E-03     47.7589E-03         5.22537        -2.44753        -2.52687        -2.42647         5.19635        -2.51890     114.353E-03     605.736E-03    -302.805E-03    -302.931E-03    -302.893E-03     605.732E-03    -302.839E-03    -4.05265E-03     113.469E+03    -656.448E+03    -10.2956E+06    -242.531E+03    -10.2928E+06    -303.283E+03    -126.355E+03         69.0439
             764     2.21729E-03     47.7661E-03         5.32681        -2.51420        -2.56696        -2.48031         5.26602        -2.54006    -232.941E-03     605.732E-03    -302.796E-03    -302.936E-03    -302.918E-03     605.727E-03    -302.809E-03    -3.93707E-03    -205.975E+03    -672.365E+03    -10.5074E+06    -372.359E+03    -10.5010E+06    -512.370E+03    -239.282E+03         68.9050
             765     1.47827E-03     47.7718E-03         5.52069        -2.52488        -2.73378        -2.56160         5.36935        -2.54572     448.797E-03     605.634E-03    -302.751E-03    -302.883E-03    -302.867E-03     605.631E-03    -302.764E-03    -3.18263E-03    -148.339E+03    -641.862E+03    -10.6996E+06    -377.963E+03    -10.6884E+06    -423.478E+03    -310.563E+03         68.8218
             766     739.317E-06     47.7754E-03         5.95879        -2.33187        -3.35107        -2.75112         5.35884        -2.33187        -1.44974     605.481E-03    -302.615E-03    -302.865E-03    -302.771E-03     605.479E-03    -302.708E-03    -1.93763E-03     504.045E+03    -341.179E+03    -11.0380E+06    -35.7012E+03    -10.9843E+06     144.896E+03    -378.182E+03         68.7769
             767     12.5597E-03     46.4736E-03         2.52882    -420.823E-03        -1.80214    -404.868E-03         2.51287        -1.80214     3.41184E-03     609.568E-03    -303.733E-03    -305.835E-03    -304.423E-03     608.155E-03    -303.733E-03     71.7621E-03     27.3566E+06     3.37575E+06    -1.62003E+06    -1.61602E+06     3.37174E+06     27.3566E+06     133.500E+03         92.5347
             768     11.8190E-03     46.3360E-03         2.82243    -627.997E-03        -1.88413    -614.710E-03         2.80914        -1.88413     9.55967E-03     609.611E-03    -303.693E-03    -305.917E-03    -304.736E-03     608.429E-03    -303.693E-03     64.8360E-03     16.8208E+06    -1.07520E+06    -6.18116E+06    -3.07339E+06    -4.18296E+06     16.8208E+06     165.748E+03         90.3003
             769     11.0818E-03     46.2400E-03         3.10611    -828.323E-03        -1.96238    -818.952E-03         3.09674        -1.96238    -37.3994E-03     609.206E-03    -303.602E-03    -305.604E-03    -304.893E-03     608.495E-03    -303.602E-03     50.8818E-03     4.76873E+06    -4.02456E+06    -14.3483E+06    -4.03614E+06    -14.3367E+06     4.76873E+06     179.967E+03         87.5036
             770     10.3436E-03     46.1552E-03         3.38032        -1.01863        -2.03698        -1.01328         3.37497        -2.03698     40.4585E-03     608.730E-03    -303.483E-03    -305.247E-03    -304.733E-03     608.217E-03    -303.483E-03     43.0537E-03    -2.41933E+06    -6.60357E+06    -20.8611E+06    -3.99780E+06    -20.8543E+06    -5.03184E+06     151.490E+03         84.3967
             771     9.60517E-03     46.0864E-03         3.64431        -1.20055        -2.10816        -1.19825         3.64202        -2.10816    -62.7728E-03     608.264E-03    -303.369E-03    -304.895E-03    -304.569E-03     607.938E-03    -303.369E-03     34.2371E-03    -3.71441E+06    -10.6102E+06    -24.2847E+06    -3.72298E+06    -24.2761E+06    -10.6102E+06     182.847E+03         81.2596
             772     8.86770E-03     46.0342E-03         3.89752        -1.37889        -2.17587        -1.37835         3.89699        -2.17587     39.9006E-03     607.763E-03    -303.266E-03    -304.497E-03    -304.298E-03     607.564E-03    -303.266E-03     26.7130E-03    -3.38018E+06    -12.2074E+06    -24.3806E+06    -3.38902E+06    -24.3718E+06    -12.2074E+06     63.3912E+03         78.3395
             773     8.12813E-03     45.9897E-03         4.13903        -1.55540        -2.23966        -1.55517         4.13880        -2.23966    -70.1238E-03     607.345E-03    -303.177E-03    -304.169E-03    -304.056E-03     607.233E-03    -303.177E-03     19.9566E-03    -2.60332E+06    -10.9543E+06    -22.1610E+06    -2.60632E+06    -22.1580E+06    -10.9543E+06    -28.6554E+03         75.8088
             774     7.38947E-03     45.9604E-03         4.36851        -1.72785        -2.29885        -1.72699         4.36765        -2.29885     50.8389E-03     607.183E-03    -303.086E-03    -304.097E-03    -304.041E-03     607.127E-03    -303.086E-03     14.0134E-03    -2.09650E+06    -8.63234E+06    -19.6499E+06    -2.09913E+06    -19.6472E+06    -8.63234E+06     -77.535E+03         73.7509
             775     6.65140E-03     45.9380E-03         4.58314        -1.88783        -2.35305        -1.88452         4.57983        -2.35305    -92.0409E-03     606.770E-03    -302.993E-03    -303.777E-03    -303.753E-03     606.746E-03    -302.993E-03     9.02645E-03    -1.67644E+06    -6.23666E+06    -16.2780E+06    -1.68089E+06    -16.2735E+06    -6.23666E+06    -202.711E+03         72.1699
             776     5.91323E-03     45.9237E-03         4.78425        -2.03396        -2.40227        -2.02672         4.77701        -2.40227     67.5000E-03     606.234E-03    -302.925E-03    -303.310E-03    -303.303E-03     606.228E-03    -302.925E-03     4.42272E-03    -1.04369E+06    -3.83527E+06    -13.4443E+06    -1.05324E+06    -13.4348E+06    -3.83527E+06    -82.9907E+03         71.0145
             777     5.17417E-03     45.9181E-03         4.96572        -2.16387        -2.44673        -2.15076         4.95260        -2.44673    -95.5539E-03     605.998E-03    -302.882E-03    -303.116E-03    -303.115E-03     605.997E-03    -302.882E-03     732.075E-06    -692.056E+03    -2.35020E+06    -12.3272E+06    -861.144E+03    -12.3209E+06    -2.18736E+06     55.5136E+03         70.2064
             778     4.43515E-03     45.9163E-03         5.13196        -2.28803        -2.48613        -2.26662         5.11055        -2.48613     88.8021E-03     605.828E-03    -302.833E-03    -302.996E-03    -302.977E-03     605.827E-03    -302.850E-03    -1.97150E-03    -462.722E+03    -1.70474E+06    -11.7117E+06    -798.732E+03    -11.7099E+06    -1.37050E+06    -94.1469E+03         69.6614
             779     3.69566E-03     45.9198E-03         5.27596        -2.40273        -2.52000        -2.36497         5.23819        -2.52000    -175.085E-03     605.686E-03    -302.779E-03    -302.907E-03    -302.852E-03     605.682E-03    -302.830E-03    -3.75767E-03    -528.030E+03    -1.36250E+06    -10.9749E+06    -722.731E+03    -10.9723E+06    -1.17045E+06    -150.891E+03         69.3044
             780     2.95649E-03     45.9260E-03         5.42853        -2.50405        -2.57671        -2.45988         5.35412        -2.54646     266.236E-03     605.678E-03    -302.785E-03    -302.893E-03    -302.854E-03     605.673E-03    -302.818E-03    -4.47810E-03    -529.110E+03    -1.04507E+06    -10.4797E+06    -552.250E+03    -10.4772E+06    -1.02443E+06    -136.599E+03         69.0760
             781     2.21753E-03     45.9318E-03         5.59499        -2.56594        -2.68582        -2.51502         5.42419        -2.56594    -506.713E-03     605.702E-03    -302.793E-03    -302.909E-03    -302.903E-03     605.697E-03    -302.794E-03    -4.31098E-03    -312.919E+03    -774.864E+03    -10.6282E+06    -388.928E+03    -10.6247E+06    -702.401E+03    -136.633E+03         68.9333
             782     1.47870E-03     45.9383E-03         5.95847        -2.57264        -3.03026        -2.58045         5.50866        -2.57264     992.002E-03     605.635E-03    -302.735E-03    -302.900E-03    -302.896E-03     605.632E-03    -302.736E-03    -3.39465E-03    -74.1990E+03    -756.238E+03    -11.0268E+06    -305.509E+03    -11.0139E+06    -537.853E+03    -81.0009E+03         68.8477
             783     739.179E-06     45.9429E-03         7.23388        -2.43385        -4.43095        -2.70783         5.51077        -2.43385        -3.11058     605.396E-03    -302.572E-03    -302.824E-03    -302.823E-03     605.395E-03    -302.572E-03    -2.06173E-03    -143.683E+03    -908.851E+03    -12.0061E+06    -339.256E+03    -11.9564E+06    -762.929E+03    -351.010E+03         68.8013
             784     12.5575E-03     44.6390E-03         2.66916    -486.981E-03        -1.77410    -466.388E-03         2.64857        -1.77410     5.95196E-03     610.150E-03    -303.854E-03    -306.296E-03    -304.920E-03     608.774E-03    -303.854E-03     70.7806E-03     26.1560E+06     2.80010E+06    -1.84853E+06    -1.83588E+06     2.78745E+06     26.1560E+06     146.933E+03         92.5202
             785     11.8192E-03     44.4998E-03         2.93608    -678.670E-03        -1.84381    -661.228E-03         2.91864        -1.84381     14.5450E-03     609.623E-03    -303.813E-03    -305.810E-03    -304.642E-03     608.455E-03    -303.813E-03     64.3838E-03     16.6248E+06    -1.27932E+06    -6.21177E+06    -3.07622E+06    -4.41487E+06     16.6248E+06     280.247E+03         90.3009
             786     11.0794E-03     44.4009E-03         3.19195    -861.391E-03        -1.91056    -848.751E-03         3.17931        -1.91056    -36.5649E-03     609.134E-03    -303.739E-03    -305.395E-03    -304.709E-03     608.448E-03    -303.739E-03     49.9726E-03     4.93716E+06    -3.88683E+06    -14.2105E+06    -3.90168E+06    -14.1957E+06     4.93716E+06     186.174E+03         87.5241
             787     10.3413E-03     44.3177E-03         3.43774        -1.03416        -1.97470        -1.02654         3.43012        -1.97470     48.5629E-03     608.910E-03    -303.635E-03    -305.275E-03    -304.780E-03     608.415E-03    -303.635E-03     42.2778E-03    -2.90413E+06    -6.69125E+06    -21.5274E+06    -4.57114E+06    -21.5228E+06    -5.02885E+06     110.837E+03         84.4382
             788     9.60303E-03     44.2491E-03         3.67398        -1.19957        -2.03623        -1.19605         3.67047        -2.03623    -63.4529E-03     608.452E-03    -303.527E-03    -304.925E-03    -304.605E-03     608.132E-03    -303.527E-03     33.9698E-03    -4.22625E+06    -10.5606E+06    -24.4727E+06    -4.23485E+06    -24.4641E+06    -10.5606E+06     176.635E+03         81.3190
             789     8.86466E-03     44.1953E-03         3.90115        -1.36195        -2.09512        -1.36089         3.90009        -2.09512     48.6404E-03     608.111E-03    -303.426E-03    -304.684E-03    -304.481E-03     607.907E-03    -303.426E-03     27.0312E-03    -3.33398E+06    -12.0140E+06    -23.9345E+06    -3.34236E+06    -23.9261E+06    -12.0140E+06     166.171E+03         78.4110
             790     8.12768E-03     44.1550E-03         4.11876        -1.52274        -2.15089        -1.52247         4.11849        -2.15089    -73.9154E-03     607.866E-03    -303.329E-03    -304.538E-03    -304.416E-03     607.745E-03    -303.329E-03     20.7535E-03    -2.64544E+06    -10.6306E+06    -22.4605E+06    -2.64712E+06    -22.4588E+06    -10.6306E+06     180.018E+03         75.8858
             791     7.38943E-03     44.1229E-03         4.32580        -1.67821        -2.20303        -1.67745         4.32505        -2.20303     61.8977E-03     607.679E-03    -303.218E-03    -304.462E-03    -304.400E-03     607.618E-03    -303.218E-03     14.6621E-03    -2.09787E+06    -8.33327E+06    -19.4700E+06    -2.10053E+06    -19.4674E+06    -8.33327E+06     79.9779E+03         73.8275
             792     6.65146E-03     44.1018E-03         4.52142        -1.82416        -2.25127        -1.82058         4.51784        -2.25127    -103.222E-03     607.228E-03    -303.101E-03    -304.127E-03    -304.102E-03     607.203E-03    -303.101E-03     9.24058E-03    -1.43054E+06    -5.69690E+06    -16.1352E+06    -1.43700E+06    -16.1288E+06    -5.69690E+06    -20.8963E+03         72.2415
             793     5.91223E-03     44.0901E-03         4.70456        -1.95836        -2.29556        -1.94972         4.69592        -2.29556     84.5097E-03     606.662E-03    -303.002E-03    -303.660E-03    -303.653E-03     606.654E-03    -303.002E-03     4.85124E-03    -1.15255E+06    -3.65854E+06    -14.2004E+06    -1.16244E+06    -14.1905E+06    -3.65854E+06     73.7367E+03         71.0790
             794     5.17364E-03     44.0827E-03         4.87354        -2.08154        -2.33590        -2.06482         4.85682        -2.33590    -114.672E-03     606.316E-03    -302.920E-03    -303.396E-03    -303.395E-03     606.315E-03    -302.920E-03     1.18947E-03    -772.788E+03    -2.60665E+06    -12.1665E+06    -778.261E+03    -12.1610E+06    -2.60665E+06     69.1107E+03         70.2630
             795     4.43498E-03     44.0832E-03         5.02869        -2.19946        -2.37194        -2.17047         4.99969        -2.37194     119.116E-03     606.031E-03    -302.837E-03    -303.194E-03    -303.176E-03     606.030E-03    -302.854E-03    -1.68726E-03    -360.451E+03    -1.76802E+06    -11.3939E+06    -361.531E+03    -11.3929E+06    -1.76802E+06    -66.2047E+03         69.7107
             796     3.69602E-03     44.0864E-03         5.17365        -2.31759        -2.40297        -2.26372         5.11978        -2.40297    -221.392E-03     605.841E-03    -302.784E-03    -303.057E-03    -303.036E-03     605.837E-03    -302.801E-03    -3.63395E-03    -199.344E+03    -1.06325E+06    -11.2376E+06    -221.784E+03    -11.2359E+06     -1.0426E+06    -112.740E+03         69.3475
             797     2.95711E-03     44.0921E-03         5.33369        -2.40713        -2.47734        -2.34544         5.22240        -2.42775     348.497E-03     605.678E-03    -302.754E-03    -302.924E-03    -302.919E-03     605.672E-03    -302.754E-03    -4.53608E-03    -174.154E+03    -724.288E+03    -10.9904E+06    -200.309E+03    -10.9849E+06    -703.640E+03    -21.4829E+03         69.1142
             798     2.21777E-03     44.0991E-03         5.55706        -2.44598        -2.66287        -2.40229         5.29648        -2.44598    -646.383E-03     605.495E-03    -302.719E-03    -302.777E-03    -302.767E-03     605.490E-03    -302.723E-03    -4.36800E-03    -185.442E+03    -744.290E+03    -11.0691E+06    -194.991E+03    -11.0596E+06    -744.290E+03     166.789E+03         68.9679
             799     1.47816E-03     44.1048E-03         6.05444        -2.45627        -3.14197        -2.44676         5.35924        -2.45627         1.27649     605.443E-03    -302.656E-03    -302.787E-03    -302.730E-03     605.440E-03    -302.710E-03    -3.46272E-03     65.5684E+03    -584.149E+03    -11.1035E+06     44.9241E+03    -11.0942E+06    -572.775E+03     263.050E+03         68.8798
             800     739.581E-06     44.1097E-03         7.93360        -2.42847        -5.03898        -2.48982         5.38444        -2.42847        -3.97048     605.420E-03    -302.574E-03    -302.846E-03    -302.700E-03     605.419E-03    -302.719E-03    -2.09209E-03     344.454E+03    -431.727E+03    -11.8999E+06    -60.9017E+03    -11.8949E+06    -31.3596E+03     109.044E+03         68.8319
             801     12.5571E-03     42.8028E-03         2.70796    -540.987E-03        -1.65070    -516.441E-03         2.68341        -1.65070     8.21999E-03     610.744E-03    -303.971E-03    -306.773E-03    -305.412E-03     609.384E-03    -303.971E-03     70.3580E-03     25.9199E+06     2.51060E+06    -1.72739E+06    -1.70266E+06     2.48586E+06     25.9199E+06     195.137E+03         92.5052
             802     11.8176E-03     42.6619E-03         2.93002    -702.909E-03        -1.70410    -681.694E-03         2.90881        -1.70410     18.9996E-03     609.958E-03    -303.915E-03    -306.043E-03    -304.848E-03     608.763E-03    -303.915E-03     65.1984E-03      15.765E+06    -1.56013E+06    -6.05658E+06    -3.07062E+06    -4.54610E+06      15.765E+06     436.594E+03         90.3010
             803     11.0796E-03     42.5654E-03         3.14196    -855.843E-03        -1.75548    -840.118E-03         3.12624        -1.75548    -35.6645E-03     609.072E-03    -303.851E-03    -305.221E-03    -304.515E-03     608.365E-03    -303.851E-03     50.6770E-03     3.87776E+06    -4.11168E+06    -14.3889E+06    -4.14083E+06    -14.3597E+06     3.87776E+06     483.214E+03         87.5441
             804     10.3408E-03     42.4781E-03         3.34581        -1.00154        -1.80541    -991.710E-03         3.33598        -1.80541     54.7879E-03     608.894E-03    -303.772E-03    -305.122E-03    -304.620E-03     608.392E-03    -303.772E-03     42.5307E-03    -2.99577E+06    -6.61382E+06    -21.4085E+06    -4.35838E+06    -21.3994E+06    -5.26034E+06     340.352E+03         84.4786
             805     9.60273E-03     42.4128E-03         3.54262        -1.14274        -1.85355        -1.13797         3.53785        -1.85355    -62.3331E-03     608.590E-03    -303.688E-03    -304.903E-03    -304.581E-03     608.269E-03    -303.688E-03     34.0219E-03    -3.91638E+06    -10.0015E+06    -24.3412E+06    -3.91988E+06    -24.3377E+06    -10.0015E+06     56.6266E+03         81.3771
             806     8.86401E-03     42.3581E-03         3.73184        -1.28138        -1.89979        -1.27970         3.73016        -1.89979     54.3918E-03     608.311E-03    -303.604E-03    -304.708E-03    -304.510E-03     608.114E-03    -303.604E-03     26.5857E-03    -3.07642E+06    -10.8543E+06    -24.1654E+06    -3.07907E+06    -24.1628E+06    -10.8543E+06     1.13429E+03         78.4814
             807     8.12476E-03     42.3170E-03         3.91282        -1.41710        -1.94373        -1.41674         3.91246        -1.94373    -72.9912E-03     608.136E-03    -303.515E-03    -304.621E-03    -304.505E-03     608.019E-03    -303.515E-03     20.4060E-03    -2.44572E+06    -9.67504E+06    -22.6393E+06    -2.44681E+06    -22.6382E+06    -9.67504E+06     40.4028E+03         75.9623
             808     7.38734E-03     42.2850E-03         4.08342        -1.54540        -1.98511        -1.54478         4.08280        -1.98511     68.8023E-03     607.910E-03    -303.413E-03    -304.497E-03    -304.433E-03     607.846E-03    -303.413E-03     14.9889E-03    -1.85605E+06    -7.72227E+06    -19.3677E+06    -1.85980E+06    -19.3640E+06    -7.72227E+06    -53.7306E+03         73.9042
             809     6.64906E-03     42.2658E-03         4.24493        -1.66541        -2.02399        -1.66197         4.24149        -2.02399    -102.388E-03     607.697E-03    -303.299E-03    -304.398E-03    -304.371E-03     607.669E-03    -303.299E-03     9.61400E-03    -1.09688E+06    -5.50645E+06    -16.3623E+06    -1.10193E+06    -16.3572E+06    -5.50645E+06     15.7203E+03         72.3148
             810     5.91181E-03     42.2534E-03         4.39509        -1.77534        -2.06049        -1.76643         4.38618        -2.06049     90.6345E-03     607.374E-03    -303.171E-03    -304.204E-03    -304.195E-03     607.366E-03    -303.171E-03     5.13294E-03    -390.855E+03    -3.63094E+06    -14.0065E+06    -393.433E+03    -14.0039E+06    -3.63094E+06     35.9868E+03         71.1467
             811     5.17338E-03     42.2487E-03         4.53713        -1.88093        -2.09442        -1.86348         4.51968        -2.09442    -109.279E-03     606.856E-03    -303.047E-03    -303.809E-03    -303.808E-03     606.855E-03    -303.047E-03     1.35576E-03    -116.065E+03    -2.28935E+06    -12.0025E+06    -116.937E+03    -12.0017E+06    -2.28935E+06    -27.9435E+03         70.3246
             812     4.43445E-03     42.2482E-03         4.66721        -1.97993        -2.12551        -1.94957         4.63686        -2.12551     119.382E-03     606.450E-03    -302.944E-03    -303.507E-03    -303.506E-03     606.449E-03    -302.944E-03    -1.56609E-03    -108.561E+03    -1.24119E+06    -11.7706E+06    -109.453E+03    -11.7698E+06    -1.24119E+06     26.8722E+03         69.7664
             813     3.69593E-03     42.2524E-03         4.79932        -2.08705        -2.15297        -2.03102         4.74329        -2.15297    -212.944E-03     606.118E-03    -302.851E-03    -303.267E-03    -303.263E-03     606.114E-03    -302.851E-03    -3.32830E-03     8.92799E+03    -770.809E+03    -11.4784E+06    -1.26970E+03    -11.4682E+06    -770.809E+03     189.305E+03         69.3982
             814     2.95684E-03     42.2588E-03         4.94483        -2.16762        -2.22138        -2.09713         4.82901        -2.17605     342.706E-03     605.823E-03    -302.772E-03    -303.051E-03    -303.046E-03     605.818E-03    -302.772E-03    -4.21517E-03     148.741E+03    -443.588E+03    -11.2046E+06     79.0872E+03    -11.1900E+06    -388.572E+03     323.517E+03         69.1610
             815     2.21787E-03     42.2660E-03         5.17550        -2.19358        -2.42252        -2.15469         4.90768        -2.19358    -626.100E-03     605.569E-03    -302.712E-03    -302.857E-03    -302.849E-03     605.564E-03    -302.715E-03    -4.23927E-03     508.414E+03    -232.275E+03    -11.1414E+06     71.5625E+03    -11.1289E+06     192.075E+03     195.956E+03         69.0118
             816     1.47891E-03     42.2722E-03         5.66337        -2.20859        -2.89265        -2.17890         4.94963        -2.20859         1.24002     605.339E-03    -302.600E-03    -302.739E-03    -302.623E-03     605.335E-03    -302.712E-03    -3.45766E-03     514.849E+03    -135.801E+03    -10.9575E+06     30.5052E+03    -10.9491E+06     340.160E+03     16.4250E+03         68.9217
             817     738.728E-06     42.2769E-03         7.57149        -2.29997        -4.70560        -2.13370         4.99958        -2.29997        -3.85999     605.467E-03    -302.561E-03    -302.905E-03    -302.700E-03     605.465E-03    -302.765E-03    -2.15808E-03     661.674E+03    -195.963E+03    -11.4074E+06     163.498E+03    -11.4049E+06     299.656E+03        -345.117         68.8727
             818     12.5542E-03     40.9627E-03         2.66195    -587.013E-03        -1.44503    -559.910E-03         2.63484        -1.44503     10.4323E-03     611.094E-03    -304.135E-03    -306.959E-03    -305.565E-03     609.700E-03    -304.135E-03     71.3186E-03     25.9831E+06     1.57044E+06    -1.53185E+06    -1.45736E+06     1.49596E+06     25.9831E+06     198.587E+03         92.4864
             819     11.8161E-03     40.8265E-03         2.82638    -709.653E-03        -1.47892    -685.594E-03         2.80232        -1.47892     21.7977E-03     610.582E-03    -304.074E-03    -306.508E-03    -305.306E-03     609.379E-03    -304.074E-03     65.4942E-03     16.4411E+06    -1.90735E+06    -6.00585E+06    -2.67226E+06    -5.24095E+06     16.4411E+06     418.400E+03         90.2964
             820     11.0766E-03     40.7255E-03         2.98160    -823.855E-03        -1.51175    -805.640E-03         2.96339        -1.51175    -35.4788E-03     609.173E-03    -304.010E-03    -305.163E-03    -304.438E-03     608.448E-03    -304.010E-03     51.3597E-03     5.24749E+06    -3.18441E+06    -13.9712E+06    -3.20846E+06    -13.9472E+06     5.24749E+06     397.455E+03         87.5597
             821     10.3382E-03     40.6425E-03         3.12996    -932.059E-03        -1.54418    -920.355E-03         3.11825        -1.54418     57.6689E-03     608.912E-03    -303.952E-03    -304.960E-03    -304.439E-03     608.391E-03    -303.952E-03     43.3622E-03    -1.91844E+06    -5.81173E+06    -20.9370E+06    -3.48489E+06    -20.9301E+06    -4.25217E+06     257.010E+03         84.5149
             822     9.59939E-03     40.5726E-03         3.27272        -1.03783        -1.57575        -1.03196         3.26685        -1.57575    -62.0092E-03     608.918E-03    -303.882E-03    -305.037E-03    -304.703E-03     608.584E-03    -303.882E-03     34.7296E-03    -3.30524E+06    -9.63657E+06    -24.0014E+06    -3.30786E+06    -23.9987E+06    -9.63657E+06     223.735E+03         81.4318
             823     8.86225E-03     40.5209E-03         3.40949        -1.14103        -1.60647        -1.13878         3.40724        -1.60647     55.0113E-03     608.900E-03    -303.793E-03    -305.108E-03    -304.899E-03     608.692E-03    -303.793E-03     27.3528E-03    -2.96205E+06    -10.9775E+06    -24.2467E+06    -2.96433E+06    -24.2444E+06    -10.9775E+06     86.7659E+03         78.5501
             824     8.12518E-03     40.4788E-03         3.54115        -1.24093        -1.63611        -1.24042         3.54063        -1.63611    -69.0826E-03     608.499E-03    -303.697E-03    -304.802E-03    -304.684E-03     608.381E-03    -303.697E-03     20.4625E-03    -2.07062E+06    -9.54625E+06    -22.5413E+06    -2.07190E+06    -22.5400E+06    -9.54625E+06    -117.537E+03         76.0386
             825     7.38602E-03     40.4489E-03         3.66493        -1.33378        -1.66466        -1.33330         3.66445        -1.66466     68.6031E-03     607.971E-03    -303.612E-03    -304.359E-03    -304.299E-03     607.912E-03    -303.612E-03     14.4706E-03    -1.18675E+06    -7.50227E+06    -19.3024E+06    -1.19005E+06    -19.2991E+06    -7.50227E+06    -131.028E+03         73.9822
             826     6.64810E-03     40.4271E-03         3.78397        -1.42193        -1.69216        -1.41899         3.78103        -1.69216    -92.8385E-03     607.839E-03    -303.532E-03    -304.307E-03    -304.280E-03     607.812E-03    -303.532E-03     9.57078E-03    -930.203E+03    -5.56614E+06    -16.6769E+06    -933.126E+03    -16.6740E+06    -5.56614E+06    -63.8513E+03         72.3904
             827     5.90968E-03     40.4166E-03         3.89441        -1.50309        -1.71874        -1.49515         3.88647        -1.71874     82.7616E-03     607.836E-03    -303.426E-03    -304.410E-03    -304.401E-03     607.827E-03    -303.426E-03     5.46200E-03    -699.214E+03    -3.67098E+06    -14.3453E+06    -700.421E+03    -14.3441E+06    -3.67098E+06     55.4468E+03         71.2184
             828     5.17191E-03     40.4118E-03         4.00215        -1.58532        -1.74404        -1.57025         3.98709        -1.74404    -84.9792E-03     607.574E-03    -303.289E-03    -304.285E-03    -304.283E-03     607.572E-03    -303.289E-03     1.92760E-03    -311.760E+03    -2.25911E+06    -12.3023E+06    -314.789E+03    -12.2993E+06    -2.25911E+06     159.570E+03         70.3919
             829     4.43413E-03     40.4134E-03         4.09766        -1.65927        -1.76763        -1.63468         4.07307        -1.76763     86.3967E-03     607.083E-03    -303.150E-03    -303.933E-03    -303.932E-03     607.082E-03    -303.150E-03    -988.514E-06    -69.9732E+03    -1.05527E+06    -11.9192E+06    -74.8322E+03    -11.9143E+06    -1.05527E+06     215.359E+03         69.8298
             830     3.69517E-03     40.4178E-03         4.20022        -1.74085        -1.78972        -1.69955         4.15780        -1.78859    -155.590E-03     606.596E-03    -303.029E-03    -303.566E-03    -303.564E-03     606.593E-03    -303.029E-03    -3.00503E-03     294.138E+03    -314.126E+03    -11.6007E+06    -8.85110E+03    -11.5881E+06    -23.7478E+03     264.095E+03         69.4585
             831     2.95654E-03     40.4250E-03         4.30215        -1.80501        -1.82726        -1.74171         4.21877        -1.80718     248.569E-03     606.228E-03    -302.925E-03    -303.303E-03    -303.298E-03     606.223E-03    -302.925E-03    -4.00971E-03     620.249E+03     55.0149E+03    -10.9771E+06     129.705E+03    -10.9654E+06     533.857E+03     197.640E+03         69.2190
             832     2.21759E-03     40.4322E-03         4.47514        -1.82153        -1.97926        -1.79490         4.29078        -1.82153    -457.358E-03     605.886E-03    -302.837E-03    -303.048E-03    -303.044E-03     605.881E-03    -302.837E-03    -4.07229E-03     712.385E+03    -291.689E+03    -10.7277E+06     146.070E+03    -10.7192E+06     266.110E+03     71.2201E+03         69.0682
             833     1.47821E-03     40.4398E-03         4.79085        -1.83786        -2.28196        -1.79675         4.30563        -1.83786     898.082E-03     605.624E-03    -302.728E-03    -302.897E-03    -302.834E-03     605.621E-03    -302.787E-03    -3.29130E-03     465.254E+03    -703.724E+03    -10.9892E+06    -9.23523E+03    -10.9793E+06    -239.138E+03     64.1355E+03         68.9772
             834     739.570E-06     40.4440E-03         6.13677        -2.03168        -3.43137        -1.66695         4.37234        -2.03168        -2.81063     605.553E-03    -302.621E-03    -302.932E-03    -302.816E-03     605.552E-03    -302.736E-03    -1.76274E-03     436.865E+03    -302.075E+03    -11.3300E+06     313.749E+03    -11.3257E+06    -183.270E+03     109.156E+03         68.9276
             835     12.5512E-03     39.1223E-03         2.55176    -628.901E-03        -1.17574    -601.066E-03         2.52392        -1.17574     13.1072E-03     611.122E-03    -304.313E-03    -306.809E-03    -305.403E-03     609.716E-03    -304.313E-03     71.6493E-03     24.9168E+06     1.19799E+06    -1.61970E+06    -1.52808E+06     1.10637E+06     24.9168E+06    -52.9459E+03         92.4616
             836     11.8139E-03     38.9851E-03         2.65100    -706.333E-03        -1.18792    -680.944E-03         2.62561        -1.18792     25.3401E-03     611.009E-03    -304.266E-03    -306.742E-03    -305.549E-03     609.815E-03    -304.266E-03     65.2884E-03     16.5271E+06    -2.14066E+06    -6.33743E+06    -2.69736E+06    -5.78072E+06     16.5271E+06     45.8618E+03         90.2853
             837     11.0759E-03     38.8914E-03         2.74009    -774.139E-03        -1.20012    -754.380E-03         2.72033        -1.20012    -31.4681E-03     609.724E-03    -304.194E-03    -305.531E-03    -304.806E-03     609.000E-03    -304.194E-03     51.3741E-03     5.34788E+06    -3.46543E+06    -14.0048E+06    -3.48121E+06    -13.9890E+06     5.34788E+06     245.656E+03         87.5691
             838     10.3365E-03     38.8022E-03         2.82124    -835.991E-03        -1.21294    -823.062E-03         2.80831        -1.21294     64.4550E-03     609.160E-03    -304.134E-03    -305.026E-03    -304.510E-03     608.643E-03    -304.134E-03     43.1539E-03    -2.14722E+06    -5.76531E+06    -20.7955E+06    -3.88267E+06    -20.7853E+06    -4.04001E+06     301.687E+03         84.5465
             839     9.59865E-03     38.7362E-03         2.89773    -896.008E-03        -1.22597    -889.455E-03         2.89118        -1.22597    -54.2330E-03     608.842E-03    -304.083E-03    -304.759E-03    -304.430E-03     608.512E-03    -304.083E-03     34.5203E-03    -3.64300E+06    -9.77892E+06    -23.7360E+06    -3.64619E+06    -23.7328E+06    -9.77892E+06     190.364E+03         81.4826
             840     8.85962E-03     38.6798E-03         2.97121    -953.999E-03        -1.23945    -951.308E-03         2.96852        -1.23945     59.6376E-03     608.789E-03    -304.020E-03    -304.769E-03    -304.541E-03     608.571E-03    -304.030E-03     28.0340E-03    -3.04104E+06    -12.1081E+06    -23.4786E+06    -3.04327E+06    -23.4764E+06    -12.1081E+06    -34.0300E+03         78.6146
             841     8.12173E-03     38.6400E-03         3.04422        -1.01044        -1.25334        -1.00984         3.04363        -1.25334    -55.5579E-03     608.921E-03    -303.957E-03    -304.964E-03    -304.819E-03     608.786E-03    -303.967E-03     21.9852E-03    -2.39934E+06    -11.1869E+06    -22.6385E+06    -2.40068E+06    -22.6372E+06    -11.1869E+06    -160.001E+03         76.1117
             842     7.38499E-03     38.6109E-03         3.11494        -1.06251        -1.26779        -1.06210         3.11454        -1.26779     68.5139E-03     608.685E-03    -303.889E-03    -304.796E-03    -304.724E-03     608.614E-03    -303.889E-03     15.9354E-03    -1.45508E+06    -8.14394E+06    -20.0551E+06    -1.45597E+06    -20.0542E+06    -8.14394E+06    -1.00876E+03         74.0596
             843     6.64613E-03     38.5909E-03         3.18654        -1.11529        -1.28265        -1.11302         3.18427        -1.28265    -72.1100E-03     608.271E-03    -303.814E-03    -304.458E-03    -304.426E-03     608.239E-03    -303.814E-03     10.4426E-03    -757.237E+03    -5.23645E+06    -16.7599E+06    -758.108E+03    -16.7590E+06    -5.23645E+06     111.202E+03         72.4685
             844     5.90806E-03     38.5783E-03         3.25376        -1.16618        -1.29773        -1.15994         3.24752        -1.29773     68.3544E-03     608.127E-03    -303.736E-03    -304.391E-03    -304.381E-03     608.117E-03    -303.736E-03     5.65111E-03    -555.774E+03    -3.32405E+06    -14.3635E+06    -557.027E+03    -14.3622E+06    -3.32405E+06     99.2221E+03         71.2948
             845     5.17003E-03     38.5743E-03         3.32214        -1.22155        -1.31241        -1.21090         3.31148        -1.31241    -43.2504E-03     608.027E-03    -303.639E-03    -304.388E-03    -304.386E-03     608.026E-03    -303.639E-03     2.05780E-03    -200.660E+03    -1.62889E+06    -12.8907E+06    -273.876E+03    -12.8878E+06    -1.55859E+06     140.546E+03         70.4663
             846     4.43180E-03     38.5762E-03         3.37690        -1.26603        -1.32617        -1.25151         3.36238        -1.32617     32.5415E-03     607.825E-03    -303.517E-03    -304.308E-03    -304.307E-03     607.824E-03    -303.517E-03    -536.697E-06     190.152E+03    -282.190E+03    -11.9370E+06     65.9031E+03    -11.9326E+06    -162.319E+03     187.940E+03         69.9026
             847     3.69423E-03     38.5823E-03         3.43830        -1.31011        -1.34316        -1.29478         3.41790        -1.33808    -56.0146E-03     607.408E-03    -303.378E-03    -304.030E-03    -304.028E-03     607.406E-03    -303.378E-03    -2.42110E-03     478.635E+03    -299.915E+03    -11.0676E+06     133.055E+03    -11.0620E+06     40.0342E+03     163.250E+03         69.5305
             848     2.95569E-03     38.5898E-03         3.48162        -1.33821        -1.35527        -1.31031         3.44771        -1.34926     94.9097E-03     606.901E-03    -303.257E-03    -303.644E-03    -303.641E-03     606.898E-03    -303.257E-03    -3.36063E-03     367.841E+03    -840.314E+03    -10.8823E+06    -61.8548E+03    -10.8764E+06    -416.488E+03     133.460E+03         69.2908
             849     2.21698E-03     38.5984E-03         3.56641        -1.34673        -1.42629        -1.34897         3.50014        -1.35777    -174.793E-03     606.586E-03    -303.162E-03    -303.424E-03    -303.420E-03     606.582E-03    -303.162E-03    -3.58903E-03     447.660E+03    -703.683E+03    -10.7656E+06     89.7862E+03    -10.7583E+06    -353.106E+03     211.741E+03         69.1403
             850     1.47829E-03     38.6059E-03         3.64989        -1.34002        -1.52455        -1.32833         3.48588        -1.37224     337.126E-03     606.357E-03    -303.059E-03    -303.298E-03    -303.295E-03     606.354E-03    -303.059E-03    -3.00759E-03     551.989E+03    -492.944E+03    -10.7297E+06     203.185E+03    -10.7215E+06    -152.403E+03     280.047E+03         69.0497
             851     738.919E-06     38.6104E-03         4.14970        -1.37566        -1.98906        -1.14119         3.55441        -1.62824        -1.07042     606.003E-03    -302.886E-03    -303.118E-03    -303.061E-03     606.002E-03    -302.942E-03    -1.74976E-03     485.218E+03    -251.127E+03    -11.3067E+06     3.31653E+03    -11.3031E+06     227.101E+03     121.918E+03         69.0005
             852     12.5507E-03     37.2841E-03         2.39757    -664.319E-03    -865.369E-03    -637.809E-03         2.37106    -865.369E-03     15.1007E-03     610.952E-03    -304.486E-03    -306.467E-03    -305.027E-03     609.513E-03    -304.486E-03     72.4768E-03     23.8523E+06     1.40569E+06    -1.54462E+06    -1.41551E+06     1.27658E+06     23.8523E+06     133.406E+03         92.4295
             853     11.8103E-03     37.1465E-03         2.42513    -690.099E-03    -856.202E-03    -666.213E-03         2.40038    -855.341E-03     30.1804E-03     610.956E-03    -304.471E-03    -306.485E-03    -305.263E-03     609.733E-03    -304.471E-03     65.9840E-03     14.9042E+06    -2.18243E+06    -6.79509E+06    -2.99492E+06    -5.98259E+06     14.9042E+06     163.284E+03         90.2661
             854     11.0724E-03     37.0493E-03         2.44283    -703.825E-03    -850.121E-03    -687.637E-03         2.42295    -846.430E-03    -23.8927E-03     610.408E-03    -304.410E-03    -305.998E-03    -305.260E-03     609.671E-03    -304.410E-03     51.9050E-03     4.06662E+06    -4.15499E+06    -14.4218E+06    -4.17478E+06    -14.4021E+06     4.06662E+06     171.942E+03         87.5701
             855     10.3352E-03     36.9660E-03         2.45327    -713.777E-03    -845.305E-03    -706.533E-03         2.44009    -839.368E-03     73.1301E-03     609.560E-03    -304.347E-03    -305.213E-03    -304.670E-03     609.017E-03    -304.347E-03     44.3202E-03    -2.54350E+06    -6.26225E+06    -20.5553E+06    -4.12472E+06    -20.5405E+06    -4.69588E+06     44.9082E+03         84.5707
             856     9.59607E-03     36.8960E-03         2.46121    -723.971E-03    -841.309E-03    -725.240E-03         2.45466    -833.487E-03    -42.3799E-03     608.847E-03    -304.320E-03    -304.526E-03    -304.167E-03     608.488E-03    -304.320E-03     36.0090E-03    -3.62648E+06    -10.1787E+06    -23.4819E+06    -3.63386E+06    -23.4745E+06    -10.1787E+06    -164.563E+03         81.5271
             857     8.85789E-03     36.8445E-03         2.46941    -734.210E-03    -838.111E-03    -740.479E-03         2.46660    -829.026E-03     64.6982E-03     608.683E-03    -304.313E-03    -304.370E-03    -304.128E-03     608.451E-03    -304.323E-03     28.8974E-03    -2.85423E+06    -11.7445E+06    -23.5207E+06    -2.85727E+06    -23.5177E+06    -11.7445E+06    -163.200E+03         78.6744
             858     8.11863E-03     36.7997E-03         2.48042    -745.120E-03    -834.610E-03    -753.057E-03         2.47986    -826.116E-03    -38.2640E-03     608.792E-03    -304.155E-03    -304.637E-03    -304.321E-03     608.652E-03    -304.330E-03     22.3884E-03    -2.23858E+06    -10.5523E+06    -22.8636E+06    -2.23969E+06    -22.8625E+06    -10.5523E+06    -16.5606E+03         76.1816
             859     7.38029E-03     36.7707E-03         2.49364    -756.067E-03    -830.959E-03    -761.432E-03         2.49322    -825.173E-03     67.2471E-03     609.171E-03    -304.141E-03    -305.030E-03    -304.787E-03     609.093E-03    -304.306E-03     16.7572E-03    -1.74281E+06    -8.44072E+06    -20.4944E+06    -1.74370E+06    -20.4936E+06    -8.44072E+06     48.5309E+03         74.1357
             860     6.64388E-03     36.7518E-03         2.51205    -769.994E-03    -831.025E-03    -773.052E-03         2.51028    -826.200E-03    -47.5667E-03     609.187E-03    -304.244E-03    -304.943E-03    -304.903E-03     609.146E-03    -304.244E-03     11.8897E-03    -1.02097E+06    -5.93504E+06    -16.8885E+06    -1.02175E+06    -16.8877E+06    -5.93504E+06     28.5308E+03         72.5482
             861     5.90617E-03     36.7399E-03         2.53008    -785.631E-03    -833.866E-03    -786.073E-03         2.52544    -828.780E-03     50.6516E-03     608.810E-03    -304.179E-03    -304.631E-03    -304.614E-03     608.793E-03    -304.179E-03     7.35223E-03    -386.103E+03    -3.45276E+06    -14.2703E+06    -388.829E+03    -14.2676E+06    -3.45276E+06     78.8738E+03         71.3765
             862     5.16799E-03     36.7367E-03         2.55214    -804.950E-03    -840.433E-03    -807.126E-03         2.54593    -832.039E-03     6.75380E-03     608.629E-03    -304.123E-03    -304.506E-03    -304.501E-03     608.625E-03    -304.123E-03     3.42502E-03    -65.7820E+03    -1.76851E+06    -13.0160E+06    -143.175E+03    -13.0089E+06    -1.69821E+06     214.121E+03         70.5491
             863     4.43013E-03     36.7378E-03         2.56366    -817.868E-03    -842.059E-03    -818.990E-03         2.55831    -835.589E-03    -28.3076E-03     608.542E-03    -304.053E-03    -304.489E-03    -304.488E-03     608.541E-03    -304.053E-03     465.829E-06     78.5100E+03    -1.09764E+06    -11.8561E+06    -46.7128E+03    -11.8508E+06    -977.768E+03     119.937E+03         69.9868
             864     3.69182E-03     36.7447E-03         2.58604    -829.072E-03    -851.185E-03    -836.151E-03         2.58077    -838.835E-03     63.6361E-03     608.378E-03    -303.966E-03    -304.412E-03    -304.411E-03     608.377E-03    -303.966E-03    -1.50463E-03     229.275E+03    -731.734E+03    -11.1579E+06     145.677E+03    -11.1545E+06    -651.553E+03     77.7485E+03         69.6166
             865     2.95379E-03     36.7538E-03         2.59408    -829.687E-03    -855.345E-03    -830.238E-03         2.58228    -842.996E-03    -81.9185E-03     608.097E-03    -303.874E-03    -304.223E-03    -304.221E-03     608.095E-03    -303.874E-03    -2.56774E-03     746.991E+03    -349.598E+03    -10.7896E+06     426.775E+03    -10.7816E+06    -37.3373E+03     255.727E+03         69.3793
             866     2.21545E-03     36.7623E-03         2.65455    -833.246E-03    -904.519E-03    -849.534E-03         2.61287    -846.555E-03     161.714E-03     607.787E-03    -303.767E-03    -304.020E-03    -303.987E-03     607.785E-03    -303.798E-03    -2.82699E-03     1.05039E+06     174.916E+03    -10.5877E+06     523.838E+03    -10.5822E+06     695.895E+03     222.897E+03         69.2312
             867     1.47715E-03     36.7701E-03         2.74628    -826.604E-03        -1.01387    -816.669E-03         2.58129    -858.819E-03    -318.015E-03     607.590E-03    -303.699E-03    -303.892E-03    -303.859E-03     607.589E-03    -303.730E-03    -2.21399E-03     951.182E+03     568.288E+03    -10.2186E+06     584.952E+03    -10.2151E+06     931.029E+03     33.8149E+03         69.1427
             868     739.069E-06     36.7762E-03         3.32463    -869.977E-03        -1.55936    -619.615E-03         2.63747        -1.12256     954.695E-03     607.387E-03    -303.615E-03    -303.772E-03    -303.771E-03     607.386E-03    -303.615E-03    -1.31953E-03     846.829E+03     97.7202E+03    -10.9172E+06     388.300E+03    -10.9133E+06     552.395E+03     13.1671E+03         69.0950
             869     12.5466E-03     35.4480E-03         2.22433    -527.619E-03    -705.046E-03    -670.394E-03         2.20118    -539.114E-03     16.4836E-03     611.094E-03    -304.657E-03    -306.437E-03    -305.022E-03     609.679E-03    -304.657E-03     71.7806E-03     23.5824E+06     531.851E+03    -1.85215E+06    -1.71649E+06     396.189E+03     23.5824E+06     351.681E+03         92.3914
             870     11.8087E-03     35.3063E-03         2.17797    -506.098E-03    -668.272E-03    -644.127E-03         2.15587    -508.146E-03     34.8800E-03     610.681E-03    -304.634E-03    -306.047E-03    -304.793E-03     609.461E-03    -304.668E-03     65.8078E-03     15.1536E+06    -2.38742E+06    -6.51383E+06    -2.85423E+06    -6.04702E+06     15.1536E+06     452.716E+03         90.2414
             871     11.0701E-03     35.2097E-03         2.12476    -479.177E-03    -631.896E-03    -613.703E-03         2.10657    -479.177E-03    -17.4616E-03     609.869E-03    -304.503E-03    -305.366E-03    -304.470E-03     609.132E-03    -304.661E-03     51.8684E-03     4.40040E+06    -3.36713E+06    -13.7169E+06    -3.38274E+06    -13.7013E+06     4.40040E+06     163.761E+03         87.5640
             872     10.3311E-03     35.1251E-03         2.06748    -453.046E-03    -595.956E-03    -583.829E-03         2.05536    -453.046E-03     77.3925E-03     609.617E-03    -304.527E-03    -305.089E-03    -304.405E-03     609.057E-03    -304.652E-03     44.9941E-03    -2.44590E+06    -6.18764E+06    -20.0494E+06    -3.66841E+06    -20.0438E+06    -4.97072E+06    -215.148E+03         84.5859
             873     9.59281E-03     35.0604E-03         2.00992    -428.840E-03    -562.090E-03    -556.383E-03         2.00421    -428.840E-03    -33.8310E-03     609.301E-03    -304.549E-03    -304.752E-03    -304.264E-03     608.923E-03    -304.659E-03     37.0231E-03    -3.46763E+06    -10.3024E+06    -23.3623E+06    -3.47368E+06    -23.3562E+06    -10.3024E+06    -269.026E+03         81.5637
             874     8.85394E-03     35.0026E-03         1.95534    -406.711E-03    -528.773E-03    -526.367E-03         1.95293    -406.711E-03     65.4701E-03     609.118E-03    -304.419E-03    -304.699E-03    -304.177E-03     608.866E-03    -304.689E-03     30.1126E-03    -2.99325E+06    -11.4939E+06    -24.0974E+06    -2.99625E+06    -24.0944E+06    -11.4939E+06    -55.2396E+03         78.7293
             875     8.11659E-03     34.9635E-03         1.90557    -386.998E-03    -493.663E-03    -493.322E-03         1.90523    -386.998E-03    -23.8040E-03     608.993E-03    -304.252E-03    -304.741E-03    -304.098E-03     608.838E-03    -304.741E-03     23.5631E-03    -2.28378E+06    -10.0364E+06    -23.0110E+06    -2.28607E+06    -23.0087E+06    -10.0364E+06     20.5318E+03         76.2497
             876     7.37771E-03     34.9304E-03         1.86011    -370.297E-03    -457.863E-03    -457.221E-03         1.85947    -370.297E-03     63.8626E-03     609.064E-03    -304.106E-03    -304.959E-03    -304.174E-03     608.974E-03    -304.800E-03     17.9150E-03    -1.64966E+06    -8.06714E+06    -20.4234E+06    -1.65164E+06    -20.4215E+06    -8.06714E+06    -30.2922E+03         74.2124
             877     6.63899E-03     34.9105E-03         1.82142    -356.901E-03    -428.383E-03    -426.463E-03         1.81950    -356.901E-03    -25.6997E-03     609.469E-03    -304.357E-03    -305.111E-03    -304.578E-03     609.420E-03    -304.843E-03     13.0752E-03    -999.408E+03    -6.11536E+06    -17.0291E+06    -1.00398E+06    -17.0245E+06    -6.11536E+06     87.7177E+03         72.6307
             878     5.90133E-03     34.9007E-03         1.78665    -346.621E-03    -405.512E-03    -401.349E-03         1.78249    -346.621E-03     33.7537E-03     609.721E-03    -304.686E-03    -305.034E-03    -304.842E-03     609.698E-03    -304.856E-03     8.98105E-03    -493.442E+03    -4.27550E+06    -14.5355E+06    -500.057E+03    -14.5289E+06    -4.27550E+06     163.102E+03         71.4639
             879     5.16394E-03     34.8962E-03         1.75869    -338.612E-03    -390.581E-03    -386.889E-03         1.75500    -338.612E-03     51.6598E-03     609.739E-03    -304.742E-03    -304.997E-03    -304.879E-03     609.730E-03    -304.851E-03     5.26757E-03    -43.7798E+03    -2.82563E+06    -12.8842E+06    -52.9150E+03    -12.8751E+06    -2.82563E+06     109.276E+03         70.6413
             880     4.42623E-03     34.8989E-03         1.73028    -332.128E-03    -371.386E-03    -368.657E-03         1.72800    -332.571E-03    -85.5692E-03     609.710E-03    -304.764E-03    -304.946E-03    -304.863E-03     609.708E-03    -304.845E-03     2.05065E-03     374.531E+03    -1.44117E+06    -11.6974E+06     365.194E+03    -11.6881E+06    -1.44117E+06     85.7198E+03         70.0839
             881     3.68863E-03     34.9052E-03         1.73395    -327.862E-03    -375.600E-03    -357.044E-03         1.71583    -328.305E-03     170.790E-03     609.744E-03    -304.781E-03    -304.962E-03    -304.907E-03     609.743E-03    -304.836E-03    -247.886E-06     584.389E+03    -123.124E+03    -11.4509E+06     430.108E+03    -11.4485E+06     28.7924E+03     68.3737E+03         69.7188
             882     2.95114E-03     34.9141E-03         1.78266    -324.834E-03    -422.048E-03    -332.498E-03         1.69538    -327.098E-03    -247.576E-03     609.736E-03    -304.761E-03    -304.975E-03    -304.926E-03     609.735E-03    -304.809E-03    -1.54801E-03     848.548E+03     287.521E+03    -10.7210E+06     411.991E+03    -10.7180E+06     721.087E+03     62.1079E+03         69.4866
             883     2.21360E-03     34.9241E-03         1.98502    -325.337E-03    -618.954E-03    -335.792E-03         1.70412    -327.600E-03     468.694E-03     609.607E-03    -304.731E-03    -304.876E-03    -304.829E-03     609.606E-03    -304.777E-03    -1.95522E-03     759.001E+03     109.930E+03    -10.2103E+06     452.153E+03    -10.2073E+06     413.780E+03     63.1751E+03         69.3432
             884     1.47540E-03     34.9320E-03         2.48663    -336.464E-03        -1.12229    -304.648E-03         1.66900    -336.464E-03    -922.436E-03     609.513E-03    -304.701E-03    -304.812E-03    -304.741E-03     609.512E-03    -304.770E-03    -1.84077E-03     834.653E+03     376.751E+03    -10.0196E+06     809.756E+03    -10.0169E+06     398.951E+03    -10.8461E+03         69.2584
             885     737.240E-06     34.9371E-03         4.24125    -554.977E-03        -2.66864    -137.567E-03         1.71017    -554.977E-03         2.80424     609.558E-03    -304.679E-03    -304.879E-03    -304.714E-03     609.557E-03    -304.843E-03    -1.16968E-03     1.27430E+06     720.861E+03    -10.4312E+06     1.19971E+06    -10.4179E+06     782.073E+03    -143.183E+03         69.2132
             886     12.5468E-03     33.6095E-03         2.06418    -223.515E-03    -723.509E-03    -705.401E-03         2.04607    -223.515E-03     17.1061E-03     611.161E-03    -304.816E-03    -306.344E-03    -304.943E-03     609.759E-03    -304.816E-03     71.3966E-03     23.6190E+06    -137.198E+03    -1.72815E+06    -1.64786E+06    -217.485E+03     23.6190E+06     171.691E+03         92.3502
             887     11.8069E-03     33.4676E-03         1.94965    -174.099E-03    -644.876E-03    -627.271E-03         1.93204    -174.099E-03     37.9585E-03     610.066E-03    -304.427E-03    -305.639E-03    -303.962E-03     608.828E-03    -304.867E-03     66.3820E-03     15.1839E+06    -2.71882E+06    -5.89404E+06    -2.80019E+06    -5.81266E+06     15.1839E+06     143.104E+03         90.2132
             888     11.0669E-03     33.3728E-03         1.83044    -127.189E-03    -562.428E-03    -547.603E-03         1.81562    -127.189E-03    -11.6343E-03     609.091E-03    -304.150E-03    -304.941E-03    -303.381E-03     608.322E-03    -304.941E-03     52.9099E-03     4.42573E+06    -3.58166E+06    -13.3559E+06    -3.58707E+06    -13.3505E+06     4.42573E+06     140.099E+03         87.5535
             889     10.3273E-03     33.2864E-03         1.70885    -83.5457E-03    -480.802E-03    -471.107E-03         1.69916    -83.5457E-03     81.3114E-03     609.473E-03    -304.392E-03    -305.081E-03    -303.879E-03     608.894E-03    -305.015E-03     45.7461E-03    -2.32703E+06    -5.87487E+06    -19.7421E+06    -3.83182E+06    -19.7400E+06    -4.37221E+06     99.0092E+03         84.5960
             890     9.58902E-03     33.2188E-03         1.58927    -42.5000E-03    -402.259E-03    -398.281E-03         1.58529    -42.5000E-03    -24.3067E-03     609.532E-03    -304.385E-03    -305.148E-03    -304.059E-03     609.140E-03    -305.081E-03     37.7132E-03    -3.60485E+06    -9.43752E+06    -23.4803E+06    -3.60680E+06    -23.4784E+06    -9.43752E+06     88.9591E+03         81.5953
             891     8.85070E-03     33.1658E-03         1.47545    -4.30842E-03    -324.769E-03    -323.132E-03         1.47381    -4.30842E-03     68.6987E-03     609.234E-03    -304.064E-03    -305.170E-03    -303.787E-03     608.958E-03    -305.170E-03     31.6312E-03    -3.06627E+06    -11.2849E+06    -24.2704E+06    -3.06704E+06    -24.2697E+06    -11.2849E+06     99.5441E+03         78.7798
             892     8.11105E-03     33.1214E-03         1.36774     30.6557E-03    -245.630E-03    -245.493E-03         1.36761     30.6557E-03    -8.24009E-03     609.345E-03    -304.054E-03    -305.290E-03    -303.869E-03     609.159E-03    -305.290E-03     25.8492E-03    -2.35468E+06    -10.7530E+06    -22.6663E+06    -2.35685E+06    -22.6641E+06    -10.7530E+06     8.53757E+03         76.3154
             893     7.37330E-03     33.0928E-03         1.26892     61.6704E-03    -170.050E-03    -167.864E-03         1.26673     61.6704E-03     66.1505E-03     609.587E-03    -304.159E-03    -305.428E-03    -304.046E-03     609.474E-03    -305.428E-03     20.1224E-03    -1.66377E+06    -8.54812E+06    -20.3602E+06    -1.66667E+06    -20.3573E+06    -8.54812E+06    -115.996E+03         74.2899
             894     6.63461E-03     33.0700E-03         1.17867     88.4244E-03    -103.068E-03    -98.2322E-03         1.17383     88.4244E-03    -5.40528E-03     609.872E-03    -304.300E-03    -305.573E-03    -304.238E-03     609.810E-03    -305.573E-03     14.7585E-03    -1.04933E+06    -6.16367E+06    -17.4645E+06    -1.05554E+06    -17.4583E+06    -6.16367E+06    -17.0883E+03         72.7176
             895     5.89666E-03     33.0584E-03         1.09781     111.086E-03    -47.4959E-03    -38.5910E-03         1.08890     111.086E-03     27.3596E-03     610.493E-03    -304.788E-03    -305.705E-03    -304.758E-03     610.463E-03    -305.705E-03     10.1633E-03    -268.853E+03    -4.04860E+06    -14.4583E+06    -274.069E+03    -14.4531E+06    -4.04860E+06     69.3828E+03         71.5589
             896     5.15898E-03     33.0544E-03         1.02260     130.197E-03     3.50041E-03     9.84322E-03         1.01625     130.197E-03     84.4705E-03     610.973E-03    -305.162E-03    -305.810E-03    -305.150E-03     610.960E-03    -305.810E-03     6.53794E-03     191.762E+03    -2.19350E+06    -12.8391E+06     184.574E+03    -12.8319E+06    -2.19350E+06     49.6325E+03         70.7442
             897     4.42166E-03     33.0564E-03     966.743E-03     146.011E-03     41.4117E-03     55.7444E-03     952.411E-03     146.011E-03    -122.508E-03     611.314E-03    -305.420E-03    -305.894E-03    -305.416E-03     611.311E-03    -305.894E-03     3.42777E-03     215.711E+03    -950.189E+03    -11.9613E+06     202.310E+03    -11.9479E+06    -950.189E+03     227.280E+03         70.1948
             898     3.68453E-03     33.0627E-03         1.01651     158.292E-03    -15.3130E-03     96.6063E-03     904.589E-03     158.292E-03     244.915E-03     611.584E-03    -305.624E-03    -305.961E-03    -305.623E-03     611.584E-03    -305.961E-03     1.05094E-03     397.786E+03    -587.128E+03    -11.0380E+06     269.528E+03    -11.0310E+06    -465.822E+03     162.401E+03         69.8378
             899     2.94726E-03     33.0717E-03         1.21674     165.847E-03    -216.109E-03     137.936E-03     862.695E-03     165.847E-03    -360.677E-03     611.822E-03    -305.810E-03    -306.012E-03    -305.810E-03     611.822E-03    -306.012E-03    -556.511E-06     511.929E+03    -485.887E+03    -10.5228E+06     386.101E+03    -10.5183E+06    -364.581E+03    -159.262E+03         69.6133
             900     2.21014E-03     33.0812E-03         1.66071     169.447E-03    -663.518E-03     154.785E-03     842.403E-03     169.447E-03     672.893E-03     612.049E-03    -305.976E-03    -306.073E-03    -306.011E-03     612.049E-03    -306.037E-03    -1.29104E-03     647.975E+03     1.25094E+03    -10.2664E+06     591.162E+03    -10.2624E+06     54.0782E+03    -151.602E+03         69.4767
             901     1.47394E-03     33.0890E-03         2.60728     166.543E-03        -1.61824     179.436E-03     809.608E-03     166.543E-03        -1.32913     612.123E-03    -305.967E-03    -306.156E-03    -306.105E-03     612.122E-03    -306.017E-03    -1.44335E-03     941.423E+03     378.344E+03    -10.1941E+06     792.822E+03    -10.1931E+06     525.874E+03     54.4518E+03         69.3973
             902     737.254E-06     33.0955E-03         5.31367     41.5794E-03        -4.20977     281.549E-03     822.355E-03     41.5794E-03         4.04548     611.993E-03    -305.651E-03    -306.342E-03    -306.177E-03     611.992E-03    -305.815E-03    -1.38274E-03     1.25366E+06     797.496E+03    -10.5456E+06     1.08593E+06    -10.5338E+06     953.410E+03    -43.3686E+03         69.3557
             903     12.5428E-03     31.7676E-03         1.94906     55.7003E-03    -759.982E-03    -747.784E-03         1.93686     55.7003E-03     17.5370E-03     610.498E-03    -304.749E-03    -305.749E-03    -303.989E-03     609.026E-03    -305.037E-03     73.1518E-03     22.8384E+06    -233.483E+03    -1.64509E+06    -1.32437E+06    -554.204E+03     22.8384E+06     113.528E+03         92.3046
             904     11.8035E-03     31.6343E-03         1.77575     120.242E-03    -636.344E-03    -624.343E-03         1.76375     120.242E-03     38.7481E-03     609.971E-03    -304.501E-03    -305.470E-03    -303.523E-03     608.674E-03    -305.151E-03     67.9693E-03     14.8765E+06    -2.53090E+06    -5.96144E+06    -2.55744E+06    -5.93490E+06     14.8765E+06     150.521E+03         90.1794
             905     11.0629E-03     31.5342E-03         1.59883     181.976E-03    -510.465E-03    -500.246E-03         1.58861     181.976E-03    -7.00941E-03     609.044E-03    -303.764E-03    -305.281E-03    -302.955E-03     608.235E-03    -305.281E-03     54.2491E-03     5.04097E+06    -3.48929E+06    -13.4095E+06    -3.49541E+06    -13.4033E+06     5.04097E+06     184.455E+03         87.5386
             906     10.3238E-03     31.4485E-03         1.42004     240.287E-03    -387.232E-03    -380.939E-03         1.41374     240.287E-03     84.3887E-03     608.961E-03    -303.527E-03    -305.434E-03    -302.906E-03     608.340E-03    -305.434E-03     47.3994E-03    -1.86326E+06    -5.55046E+06    -19.7321E+06    -3.89002E+06    -19.7287E+06    -3.52715E+06     210.245E+03         84.6025
             907     9.58391E-03     31.3786E-03         1.24427     295.497E-03    -266.680E-03    -264.909E-03         1.24250     295.497E-03    -16.2037E-03     609.210E-03    -303.603E-03    -305.607E-03    -303.166E-03     608.773E-03    -305.607E-03     39.7502E-03    -3.84006E+06    -9.09227E+06    -23.6647E+06    -3.84185E+06    -23.6629E+06    -9.09227E+06     157.767E+03         81.6227
             908     8.84452E-03     31.3266E-03         1.07790     347.089E-03    -148.614E-03    -147.142E-03         1.07642     347.089E-03     71.8145E-03     609.545E-03    -303.753E-03    -305.792E-03    -303.446E-03     609.239E-03    -305.792E-03     33.3472E-03    -3.22402E+06    -11.0937E+06    -23.9932E+06    -3.22476E+06    -23.9925E+06    -11.0937E+06     101.624E+03         78.8268
             909     8.10576E-03     31.2827E-03     920.424E-03     394.658E-03    -30.8879E-03    -29.0170E-03     918.553E-03     394.658E-03     1.98183E-03     609.758E-03    -303.755E-03    -306.002E-03    -303.546E-03     609.548E-03    -306.002E-03     27.4871E-03    -2.44017E+06    -10.5233E+06    -22.2599E+06    -2.44137E+06    -22.2587E+06    -10.5233E+06     36.6474E+03         76.3799
             910     7.36654E-03     31.2497E-03     812.896E-03     410.134E-03     69.5272E-03     84.9577E-03     770.059E-03     437.540E-03     68.6134E-03     610.300E-03    -304.065E-03    -306.234E-03    -303.933E-03     610.167E-03    -306.234E-03     21.8569E-03    -1.70351E+06    -8.55593E+06    -20.4109E+06    -1.70554E+06    -20.4089E+06    -8.55593E+06    -57.0540E+03         74.3690
             911     6.62897E-03     31.2293E-03     764.121E-03     394.955E-03     136.275E-03     186.681E-03     633.181E-03     475.489E-03     3.57319E-03     610.921E-03    -304.451E-03    -306.470E-03    -304.370E-03     610.840E-03    -306.470E-03     17.0332E-03    -1.04643E+06    -6.16207E+06    -17.5590E+06    -1.04856E+06    -17.5569E+06    -6.16207E+06    -98.7579E+03         72.8093
             912     5.89059E-03     31.2150E-03     733.036E-03     408.841E-03     149.588E-03     273.195E-03     509.311E-03     508.960E-03     28.9411E-03     611.511E-03    -304.800E-03    -306.711E-03    -304.756E-03     611.467E-03    -306.711E-03     12.3981E-03    -765.951E+03    -4.01294E+06    -14.7916E+06    -768.818E+03    -14.7887E+06    -4.01294E+06     44.4972E+03         71.6620
             913     5.15312E-03     31.2102E-03     701.315E-03     444.109E-03     141.127E-03     349.635E-03     398.517E-03     538.399E-03     96.3188E-03     612.296E-03    -305.349E-03    -306.947E-03    -305.329E-03     612.276E-03    -306.947E-03     8.37530E-03    -588.162E+03    -2.34613E+06    -13.0460E+06    -596.996E+03    -13.0371E+06    -2.34613E+06     291.992E+03         70.8580
             914     4.41604E-03     31.2107E-03     683.983E-03     482.092E-03     120.866E-03     419.287E-03     303.741E-03     563.913E-03    -128.965E-03     613.110E-03    -305.951E-03    -307.159E-03    -305.943E-03     613.101E-03    -307.159E-03     5.27819E-03    -259.854E+03    -1.42721E+06    -11.7338E+06    -272.667E+03    -11.7210E+06    -1.42721E+06     241.574E+03         70.3194
             915     3.67938E-03     31.2167E-03     756.005E-03     550.180E-03    -12.9912E-03     487.651E-03     220.841E-03     584.702E-03     269.393E-03     613.865E-03    -306.534E-03    -307.331E-03    -306.531E-03     613.862E-03    -307.331E-03     2.68013E-03     77.8530E+03    -1.07153E+06    -10.4850E+06     71.1960E+03    -10.4784E+06    -1.07153E+06     26.5294E+03         69.9728
             916     2.94325E-03     31.2246E-03         1.00037     600.093E-03    -301.391E-03     541.921E-03     157.061E-03     600.093E-03    -386.466E-03     614.473E-03    -307.011E-03    -307.463E-03    -307.010E-03     614.473E-03    -307.463E-03     797.899E-06     255.380E+03    -606.883E+03    -10.4317E+06     191.758E+03    -10.4237E+06    -551.242E+03    -15.6985E+03         69.7582
             917     2.20759E-03     31.2334E-03         1.52723     609.380E-03    -838.651E-03     586.386E-03     102.198E-03     609.380E-03     729.976E-03     614.891E-03    -307.341E-03    -307.550E-03    -307.340E-03     614.891E-03    -307.550E-03    -283.481E-06     401.353E+03     7.25717E+03    -10.4539E+06     285.565E+03    -10.4466E+06     115.725E+03    -30.4282E+03         69.6302
             918     1.47116E-03     31.2414E-03         2.57749     614.221E-03        -1.90308     603.348E-03     71.0614E-03     614.221E-03        -1.42966     615.143E-03    -307.452E-03    -307.691E-03    -307.555E-03     615.143E-03    -307.588E-03    -564.995E-06     428.254E+03     121.090E+03    -10.2613E+06     277.138E+03    -10.2577E+06     268.620E+03    -92.0207E+03         69.5576
             919     735.761E-06     31.2465E-03         5.44229     614.213E-03        -4.78506     616.750E-03     40.4825E-03     614.213E-03         4.35668     615.185E-03    -307.225E-03    -307.960E-03    -307.752E-03     615.185E-03    -307.433E-03    -550.073E-06     400.172E+03    -159.796E+03    -10.9927E+06     48.3469E+03    -10.9757E+06     175.033E+03    -189.299E+03         69.5203
             920     12.5389E-03     29.9342E-03         1.90614     275.547E-03    -805.929E-03    -799.175E-03         1.89939     275.547E-03     17.6656E-03     609.665E-03    -304.329E-03    -305.336E-03    -302.957E-03     608.237E-03    -305.279E-03     71.9555E-03     22.4348E+06    -466.767E+03    -1.93125E+06    -1.55466E+06    -843.358E+03     22.4348E+06     75.4354E+03         92.2589
             921     11.7982E-03     29.7928E-03         1.68562     351.005E-03    -645.064E-03    -638.414E-03         1.67897     351.005E-03     37.1171E-03     609.681E-03    -304.167E-03    -305.513E-03    -302.968E-03     608.425E-03    -305.456E-03     66.8068E-03     14.7996E+06    -2.70989E+06    -6.32866E+06    -2.74553E+06    -6.29302E+06     14.7996E+06     99.8801E+03         90.1458
             922     11.0597E-03     29.6988E-03         1.46252     423.450E-03    -484.015E-03    -478.579E-03         1.45708     423.450E-03    -5.82645E-03     608.698E-03    -303.050E-03    -305.647E-03    -302.250E-03     607.897E-03    -305.647E-03     53.9705E-03     5.02233E+06    -3.32603E+06    -13.3979E+06     -3.3331E+06    -13.3908E+06     5.02233E+06     218.145E+03         87.5236
             923     10.3180E-03     29.6107E-03         1.23899     492.430E-03    -326.333E-03    -323.285E-03         1.23595     492.430E-03     82.6062E-03     608.254E-03    -302.358E-03    -305.895E-03    -301.722E-03     607.617E-03    -305.895E-03     47.9373E-03    -2.00748E+06    -5.54731E+06    -19.9094E+06    -3.80322E+06    -19.9050E+06    -3.75601E+06     244.739E+03         84.6085
             924     9.57740E-03     29.5420E-03         1.01979     558.148E-03    -172.295E-03    -171.821E-03         1.01932     558.148E-03    -15.1107E-03     608.681E-03    -302.484E-03    -306.197E-03    -302.028E-03     608.224E-03    -306.197E-03     40.6475E-03    -3.66447E+06    -8.89860E+06    -23.5845E+06    -3.66588E+06    -23.5831E+06    -8.89860E+06     111.268E+03         81.6495
             925     8.83793E-03     29.4842E-03     851.393E-03     583.230E-03    -24.6853E-03    -19.6827E-03     809.674E-03     619.946E-03     69.5123E-03     609.676E-03    -303.170E-03    -306.506E-03    -302.842E-03     609.348E-03    -306.506E-03     34.4784E-03    -3.18450E+06    -10.8554E+06    -23.5758E+06    -3.18507E+06    -23.5752E+06    -10.8554E+06     15.1057E+03         78.8739
             926     8.09916E-03     29.4424E-03     760.828E-03     544.829E-03     113.659E-03     131.529E-03     610.636E-03     677.151E-03     1.86080E-03     610.346E-03    -303.522E-03    -306.824E-03    -303.291E-03     610.115E-03    -306.824E-03     28.9436E-03    -2.53482E+06    -10.2226E+06    -22.1776E+06    -2.53630E+06    -22.1761E+06    -10.2226E+06     2.62504E+03         76.4458
             927     7.36022E-03     29.4081E-03     743.020E-03     513.373E-03     171.672E-03     274.790E-03     424.059E-03     729.215E-03     68.0868E-03     610.917E-03    -303.744E-03    -307.173E-03    -303.587E-03     610.760E-03    -307.173E-03     23.7678E-03    -1.94222E+06    -8.04297E+06    -20.5353E+06    -1.94450E+06    -20.5330E+06    -8.04297E+06     88.4732E+03         74.4514
             928     6.62113E-03     29.3844E-03     776.009E-03     521.851E-03     132.161E-03     403.030E-03     250.982E-03     776.009E-03    -1.79787E-03     611.879E-03    -304.337E-03    -307.542E-03    -304.238E-03     611.780E-03    -307.542E-03     18.8842E-03    -1.52202E+06    -5.83567E+06    -17.9413E+06    -1.52740E+06    -17.9359E+06    -5.83567E+06     231.663E+03         72.9061
             929     5.88383E-03     29.3702E-03     818.049E-03     573.848E-03     33.6189E-03     512.264E-03     95.2028E-03     818.049E-03     36.2087E-03     612.912E-03    -305.000E-03    -307.913E-03    -304.940E-03     612.852E-03    -307.913E-03     14.6340E-03    -1.09098E+06    -4.03818E+06    -15.0016E+06    -1.09694E+06    -14.9957E+06    -4.03818E+06     236.937E+03         71.7722
             930     5.14623E-03     29.3629E-03     855.710E-03     645.272E-03    -79.7389E-03     612.467E-03    -46.9335E-03     855.710E-03     82.9242E-03     614.025E-03    -305.746E-03    -308.279E-03    -305.714E-03     613.993E-03    -308.279E-03     10.6406E-03    -644.073E+03    -2.80561E+06    -12.5647E+06    -653.345E+03    -12.5554E+06    -2.80561E+06     50.7756E+03         70.9813
             931     4.40934E-03     29.3622E-03     888.960E-03     710.110E-03    -175.210E-03     701.931E-03    -167.030E-03     888.960E-03    -105.019E-03     615.258E-03    -306.631E-03    -308.627E-03    -306.617E-03     615.243E-03    -308.627E-03     7.19731E-03    -222.520E+03    -1.65104E+06    -11.4840E+06    -232.675E+03    -11.4738E+06    -1.65104E+06    -51.6545E+03         70.4553
             932     3.67332E-03     29.3652E-03     927.242E-03     819.571E-03    -316.025E-03     792.894E-03    -278.599E-03     916.492E-03     234.081E-03     616.436E-03    -307.502E-03    -308.934E-03    -307.496E-03     616.430E-03    -308.934E-03     4.42892E-03    -195.367E+03    -798.254E+03    -10.7280E+06    -201.775E+03    -10.7216E+06    -798.254E+03     109.252E+03         70.1210
             933     2.93800E-03     29.3724E-03         1.03418     919.842E-03    -517.454E-03     857.091E-03    -358.597E-03     938.073E-03    -319.049E-03     617.435E-03    -308.246E-03    -309.189E-03    -308.244E-03     617.433E-03    -309.189E-03     2.47184E-03    -131.067E+03    -404.295E+03    -10.2392E+06    -194.139E+03    -10.2318E+06    -348.654E+03     211.859E+03         69.9177
             934     2.20278E-03     29.3800E-03         1.39084     951.865E-03    -910.490E-03     923.113E-03    -442.759E-03     951.865E-03     617.613E-03     618.221E-03    -308.829E-03    -309.393E-03    -308.828E-03     618.221E-03    -309.393E-03     1.24385E-03    -92.1377E+03    -381.418E+03    -10.2545E+06    -153.493E+03    -10.2488E+06    -325.776E+03     151.981E+03         69.7995
             935     1.46888E-03     29.3874E-03         2.18617     964.280E-03        -1.72662     929.386E-03    -469.834E-03     964.280E-03        -1.19508     618.782E-03    -309.214E-03    -309.567E-03    -309.214E-03     618.782E-03    -309.567E-03     460.906E-06    -245.558E+03    -559.326E+03    -10.3048E+06    -252.312E+03    -10.2981E+06    -559.326E+03     31.6298E+03         69.7344
             936     733.916E-06     29.3928E-03         4.43581         1.08649        -4.11323     857.694E-03    -535.119E-03         1.08649         3.63319     619.308E-03    -309.369E-03    -309.938E-03    -309.369E-03     619.308E-03    -309.938E-03    -91.4641E-06     257.745E+03    -658.906E+03    -10.9343E+06        -481.172    -10.9162E+06    -418.780E+03    -159.812E+03         69.7021
             937     12.5382E-03     28.0984E-03         1.95813     416.949E-03    -864.496E-03    -861.630E-03         1.95526     416.949E-03     17.0445E-03     609.290E-03    -303.800E-03    -305.489E-03    -302.365E-03     607.854E-03    -305.489E-03     72.0738E-03     23.2962E+06    -398.634E+03    -1.68475E+06    -1.22448E+06    -858.899E+03     23.2962E+06    -1.21610E+03         92.2204
             938     11.7975E-03     27.9579E-03         1.70444     498.233E-03    -675.966E-03    -673.234E-03         1.70171     498.233E-03     34.3356E-03     608.637E-03    -302.894E-03    -305.743E-03    -301.613E-03     607.356E-03    -305.743E-03     67.4431E-03     15.3570E+06    -2.43683E+06    -6.44719E+06    -2.46773E+06    -6.41629E+06     15.3570E+06     87.3891E+03         90.1192
             939     11.0546E-03     27.8618E-03         1.44963     576.537E-03    -489.076E-03    -487.186E-03         1.44774     576.537E-03    -6.16164E-03     608.130E-03    -302.099E-03    -306.031E-03    -301.278E-03     607.309E-03    -306.031E-03     54.5602E-03     4.90768E+06    -3.58442E+06    -13.8550E+06    -3.58922E+06    -13.8503E+06     4.90768E+06     186.982E+03         87.5143
             940     10.3142E-03     27.7762E-03         1.19755     651.518E-03    -308.313E-03    -306.923E-03         1.19616     651.518E-03     79.3586E-03     608.374E-03    -302.019E-03    -306.355E-03    -301.384E-03     607.739E-03    -306.355E-03     47.8621E-03    -1.94125E+06    -5.50619E+06    -19.7688E+06    -3.77799E+06    -19.7648E+06    -3.67355E+06     250.737E+03         84.6210
             941     9.57284E-03     27.7041E-03     952.175E-03     723.275E-03    -132.970E-03    -131.306E-03     950.511E-03     723.275E-03    -15.5770E-03     608.330E-03    -301.590E-03    -306.740E-03    -301.141E-03     607.881E-03    -306.740E-03     40.3003E-03    -3.47687E+06    -8.86720E+06    -23.1803E+06    -3.47868E+06    -23.1785E+06    -8.86720E+06     123.133E+03         81.6844
             942     8.83156E-03     27.6454E-03     828.299E-03     690.036E-03     29.6162E-03     43.9556E-03     712.741E-03     791.255E-03     68.5301E-03     608.917E-03    -301.721E-03    -307.196E-03    -301.388E-03     608.584E-03    -307.196E-03     34.7057E-03    -2.92742E+06    -10.7454E+06    -23.4554E+06    -2.92774E+06    -23.4551E+06    -10.7454E+06    -17.5926E+03         78.9283
             943     8.09125E-03     27.5991E-03     854.638E-03     539.755E-03     163.599E-03     217.324E-03     486.030E-03     854.638E-03     1.40040E-03     610.267E-03    -302.577E-03    -307.690E-03    -302.333E-03     610.022E-03    -307.690E-03     29.7936E-03    -2.34251E+06    -9.96516E+06    -22.4688E+06    -2.34362E+06    -22.4677E+06    -9.96516E+06     75.3624E+03         76.5173
             944     7.35227E-03     27.5654E-03     912.803E-03     502.754E-03     151.128E-03     381.079E-03     272.803E-03     912.803E-03     72.7860E-03     611.592E-03    -303.398E-03    -308.194E-03    -303.222E-03     611.416E-03    -308.194E-03     25.2330E-03    -1.76742E+06    -7.75556E+06    -20.6207E+06    -1.76967E+06    -20.6185E+06    -7.75556E+06     191.128E+03         74.5391
             945     6.61386E-03     27.5389E-03     965.638E-03     600.604E-03     2.11950E-03     529.232E-03     73.4907E-03     965.638E-03    -10.8906E-03     612.814E-03    -304.098E-03    -308.717E-03    -303.979E-03     612.696E-03    -308.717E-03     20.6775E-03    -1.14067E+06    -5.29059E+06    -18.0791E+06    -1.14845E+06    -18.0713E+06    -5.29059E+06     132.032E+03         73.0089
             946     5.87519E-03     27.5222E-03         1.01354     716.965E-03    -166.025E-03     657.687E-03    -106.747E-03         1.01354     55.2049E-03     614.368E-03    -305.122E-03    -309.245E-03    -305.048E-03     614.294E-03    -309.245E-03     16.3713E-03    -605.653E+03    -3.57410E+06    -14.7628E+06    -612.107E+03    -14.7564E+06    -3.57410E+06     49.2673E+03         71.8889
             947     5.13828E-03     27.5122E-03         1.05659     825.097E-03    -320.489E-03     777.343E-03    -272.734E-03         1.05659     53.7412E-03     616.086E-03    -306.330E-03    -309.756E-03    -306.287E-03     616.043E-03    -309.756E-03     12.5353E-03    -193.562E+03    -2.25197E+06    -12.2339E+06    -201.845E+03    -12.2256E+06    -2.25197E+06    -7.09795E+03         71.1116
             948     4.40234E-03     27.5086E-03         1.09471     906.326E-03    -436.776E-03     881.407E-03    -411.857E-03         1.09471    -54.7579E-03     617.692E-03    -307.454E-03    -310.239E-03    -307.431E-03     617.670E-03    -310.239E-03     9.00546E-03    -133.536E+03    -1.16879E+06    -11.8498E+06    -143.351E+03    -11.8400E+06    -1.16879E+06     67.5591E+03         70.5987
             949     3.66693E-03     27.5097E-03         1.12627         1.00337    -557.547E-03     988.402E-03    -542.580E-03         1.12627     149.211E-03     619.182E-03    -308.493E-03    -310.688E-03    -308.483E-03     619.171E-03    -310.688E-03     6.13966E-03      98.647E+03    -582.353E+03    -10.8080E+06     93.5204E+03    -10.8029E+06    -582.353E+03     202.442E+03         70.2769
             950     2.93217E-03     27.5140E-03         1.15443         1.08860    -664.220E-03         1.06009    -632.429E-03         1.15115    -178.037E-03     620.654E-03    -309.560E-03    -311.094E-03    -309.556E-03     620.650E-03    -311.094E-03     3.83810E-03     337.539E+03    -312.113E+03    -10.0013E+06     332.568E+03     -9.9963E+06    -312.113E+03     168.742E+03         70.0850
             951     2.19857E-03     27.5201E-03         1.28553         1.14288    -858.628E-03         1.13591    -733.459E-03         1.16733     357.500E-03     621.914E-03    -310.470E-03    -311.444E-03    -310.468E-03     621.912E-03    -311.444E-03     2.21069E-03     225.111E+03    -196.024E+03    -10.2728E+06     220.925E+03    -10.2686E+06    -196.024E+03     176.968E+03         69.9766
             952     1.46466E-03     27.5255E-03         1.58942         1.18321        -1.20717         1.13521    -754.152E-03         1.18440    -680.197E-03     622.951E-03    -311.222E-03    -311.729E-03    -311.222E-03     622.950E-03    -311.729E-03     1.08762E-03     377.959E+03     62.8625E+03    -10.1637E+06     371.926E+03    -10.1576E+06     62.8625E+03     248.592E+03         69.9192
             953     732.496E-06     27.5303E-03         2.60566         1.39052        -2.44294         1.00113    -839.603E-03         1.39171         2.04483     623.709E-03    -311.532E-03    -312.177E-03    -311.532E-03     623.709E-03    -312.177E-03     400.057E-06     1.00893E+06     327.090E+03    -10.4051E+06     989.316E+03    -10.4008E+06     342.497E+03     159.072E+03         69.8918
             954     12.5339E-03     26.2610E-03         2.12147     465.655E-03    -937.937E-03    -937.160E-03         2.12070     465.655E-03     15.5594E-03     608.513E-03    -302.758E-03    -305.754E-03    -301.245E-03     607.000E-03    -305.754E-03     73.9701E-03     21.7680E+06    -507.540E+03    -1.92588E+06    -1.35704E+06    -1.07638E+06     21.7680E+06    -26.5461E+03         92.1917
             955     11.7913E-03     26.1266E-03         1.85118     547.274E-03    -733.208E-03    -732.514E-03         1.85048     547.274E-03     30.0551E-03     608.421E-03    -302.332E-03    -306.089E-03    -300.987E-03     607.076E-03    -306.089E-03     69.1410E-03     14.9223E+06    -2.63015E+06    -6.76240E+06    -2.66161E+06    -6.73093E+06     14.9223E+06     16.9525E+03         90.1024
             956     11.0500E-03     26.0259E-03         1.58219     626.122E-03    -531.993E-03    -531.684E-03         1.58189     626.122E-03    -7.71486E-03     608.010E-03    -301.560E-03    -306.450E-03    -300.702E-03     607.152E-03    -306.450E-03     55.7684E-03     5.63341E+06    -3.60825E+06    -13.9365E+06    -3.61377E+06    -13.9310E+06     5.63341E+06     55.0989E+03         87.5161
             957     10.3088E-03     25.9379E-03         1.31841     702.062E-03    -339.817E-03    -338.217E-03         1.31681     702.062E-03     75.2848E-03     608.346E-03    -301.498E-03    -306.848E-03    -300.826E-03     607.673E-03    -306.848E-03     49.2906E-03    -1.44225E+06    -5.24109E+06    -19.5933E+06    -3.83049E+06    -19.5915E+06    -2.85472E+06     57.8920E+03         84.6447
             958     9.56847E-03     25.8674E-03         1.06363     774.982E-03    -154.955E-03    -150.217E-03         1.05889     774.982E-03    -16.9456E-03     608.588E-03    -301.282E-03    -307.307E-03    -300.790E-03     608.096E-03    -307.307E-03     42.1320E-03    -3.62946E+06    -8.55542E+06    -22.9206E+06    -3.63067E+06    -22.9194E+06    -8.55542E+06     53.6735E+03         81.7307
             959     8.82679E-03     25.8091E-03     908.680E-03     766.716E-03     14.9315E-03     36.5084E-03     809.386E-03     844.433E-03     65.9935E-03     608.923E-03    -301.065E-03    -307.858E-03    -300.708E-03     608.566E-03    -307.858E-03     35.8905E-03    -3.29554E+06    -10.7771E+06    -23.7772E+06    -3.29609E+06    -23.7767E+06    -10.7771E+06     85.4023E+03         78.9950
             960     8.08499E-03     25.7583E-03     909.663E-03     638.294E-03     152.144E-03     219.644E-03     570.794E-03     909.663E-03    -2.35205E-03     609.974E-03    -301.477E-03    -308.498E-03    -301.222E-03     609.720E-03    -308.498E-03     30.3457E-03    -2.62431E+06    -10.0644E+06    -22.7539E+06    -2.62689E+06    -22.7513E+06    -10.0644E+06    -13.9667E+03         76.6009
             961     7.34459E-03     25.7202E-03     970.039E-03     585.845E-03     152.692E-03     393.251E-03     345.286E-03     970.039E-03     75.5646E-03     611.788E-03    -302.608E-03    -309.180E-03    -302.428E-03     611.608E-03    -309.180E-03     25.5624E-03    -1.75770E+06    -8.10302E+06    -20.5957E+06    -1.76493E+06    -20.5885E+06    -8.10302E+06    -172.669E+03         74.6370
             962     6.60524E-03     25.6920E-03         1.02530     669.672E-03     16.0869E-03     552.248E-03     133.511E-03         1.02530    -25.0858E-03     613.777E-03    -303.909E-03    -309.867E-03    -303.784E-03     613.651E-03    -309.867E-03     21.3797E-03    -936.982E+03    -5.93625E+06    -17.8018E+06    -946.496E+03    -17.7923E+06    -5.93625E+06    -305.684E+03         73.1197
             963     5.86764E-03     25.6714E-03         1.07570     792.419E-03    -159.949E-03     691.716E-03    -59.2461E-03         1.07570     74.3920E-03     615.814E-03    -305.264E-03    -310.551E-03    -305.182E-03     615.732E-03    -310.551E-03     17.2779E-03    -254.168E+03    -3.84621E+06    -14.6829E+06    -260.347E+03    -14.6768E+06    -3.84621E+06    -264.437E+03         72.0119
             964     5.13058E-03     25.6575E-03         1.12118     914.526E-03    -330.029E-03     821.748E-03    -237.252E-03         1.12118     13.4412E-03     617.907E-03    -306.686E-03    -311.221E-03    -306.636E-03     617.857E-03    -311.221E-03     13.5404E-03     50.7804E+03    -2.19760E+06    -12.7456E+06     44.7574E+03    -12.7396E+06    -2.19760E+06    -50.3788E+03         71.2459
             965     4.39471E-03     25.6504E-03         1.16151         1.01092    -462.998E-03     935.084E-03    -387.162E-03         1.16151     5.97295E-03     620.008E-03    -308.141E-03    -311.867E-03    -308.112E-03     619.979E-03    -311.867E-03     10.2561E-03     502.559E+03    -704.253E+03    -11.9024E+06     497.317E+03    -11.8972E+06    -704.253E+03     27.1464E+03         70.7439
             966     3.66001E-03     25.6489E-03         1.19564         1.11299    -591.639E-03         1.04925    -527.234E-03         1.19498     40.0192E-03     622.093E-03    -309.628E-03    -312.466E-03    -309.613E-03     622.078E-03    -312.466E-03     7.41601E-03     924.355E+03     139.374E+03    -10.9773E+06     876.652E+03    -10.9764E+06     186.215E+03     31.4526E+03         70.4322
             967     2.92650E-03     25.6493E-03         1.23339         1.17736    -688.041E-03         1.12463    -623.598E-03         1.22168     1.55515E-03     624.022E-03    -311.029E-03    -312.994E-03    -311.022E-03     624.016E-03    -312.994E-03     4.93868E-03     1.07136E+06     501.323E+03    -10.2124E+06     1.02192E+06    -10.2098E+06     548.164E+03     141.099E+03         70.2496
             968     2.19370E-03     25.6530E-03         1.32014         1.21484    -819.724E-03         1.20621    -730.251E-03         1.23930     23.7495E-03     625.706E-03    -312.276E-03    -313.430E-03    -312.273E-03     625.703E-03    -313.430E-03     2.93755E-03     1.17772E+06     906.104E+03    -9.98571E+06     1.17434E+06    -9.98232E+06     906.104E+03     148.396E+03         70.1492
             969     1.46240E-03     25.6562E-03         1.40537         1.25652    -950.255E-03         1.20598    -752.058E-03         1.25771    -20.4264E-03     626.971E-03    -313.216E-03    -313.754E-03    -313.216E-03     626.970E-03    -313.754E-03     1.56005E-03     1.41293E+06     1.17669E+06    -9.94509E+06     1.34843E+06    -9.94225E+06     1.23835E+06     127.801E+03         70.0979
             970     730.838E-06     25.6581E-03         1.73732         1.49256        -1.53356         1.04765    -845.076E-03         1.49375     12.5542E-03     627.774E-03    -313.684E-03    -314.090E-03    -313.700E-03     627.774E-03    -314.074E-03     548.466E-06     1.39944E+06     1.09265E+06    -10.2773E+06     1.32016E+06    -10.2751E+06     1.16973E+06     93.5539E+03         70.0746
             971     12.5292E-03     24.4309E-03         2.40790     412.825E-03        -1.02928        -1.02917         2.40780     412.825E-03     13.0545E-03     607.679E-03    -301.649E-03    -306.030E-03    -300.177E-03     606.207E-03    -306.030E-03     72.8576E-03     20.8560E+06    -729.639E+03    -2.15246E+06    -1.57695E+06    -1.30514E+06     20.8560E+06     157.598E+03         92.1840
             972     11.7877E-03     24.2889E-03         2.14007     489.380E-03    -821.730E-03    -821.597E-03         2.13994     489.380E-03     24.6274E-03     608.166E-03    -301.734E-03    -306.432E-03    -300.421E-03     606.853E-03    -306.432E-03     68.2274E-03     13.9335E+06    -2.85066E+06    -7.01543E+06    -2.90274E+06    -6.96335E+06     13.9335E+06     40.4371E+03         90.1075
             973     11.0462E-03     24.1919E-03         1.87510     563.643E-03    -619.501E-03    -619.260E-03         1.87486     563.643E-03    -11.7633E-03     607.566E-03    -300.701E-03    -306.865E-03    -299.848E-03     606.713E-03    -306.865E-03     55.6293E-03     5.20202E+06    -3.50788E+06    -13.6394E+06    -3.51132E+06    -13.6359E+06     5.20202E+06    -64.2338E+03         87.5394
             974     10.3031E-03     24.1026E-03         1.61541     635.661E-03    -425.819E-03    -423.349E-03         1.61294     635.661E-03     66.4809E-03     607.575E-03    -300.199E-03    -307.376E-03    -299.504E-03     606.880E-03    -307.376E-03     50.0649E-03    -1.72788E+06    -4.97477E+06    -19.5694E+06    -3.95349E+06    -19.5670E+06    -2.75163E+06    -173.644E+03         84.6878
             975     9.56017E-03     24.0290E-03         1.36576     704.968E-03    -241.154E-03    -234.126E-03         1.35873     704.968E-03    -23.2674E-03     608.607E-03    -300.647E-03    -307.960E-03    -300.122E-03     608.082E-03    -307.960E-03     43.5918E-03    -3.89889E+06    -7.76574E+06    -23.4165E+06    -3.90351E+06    -23.4119E+06    -7.76574E+06    -194.891E+03         81.7937
             976     8.81998E-03     23.9689E-03         1.14633     757.999E-03    -68.0790E-03    -47.6730E-03         1.11271     771.213E-03     56.1082E-03     609.939E-03    -301.354E-03    -308.585E-03    -300.960E-03     609.545E-03    -308.585E-03     37.7653E-03    -3.24453E+06    -9.89490E+06    -23.9027E+06    -3.24978E+06    -23.8974E+06    -9.89490E+06    -158.548E+03         79.0778
             977     8.07959E-03     23.9190E-03         1.01394     744.897E-03     87.0067E-03     134.760E-03     877.377E-03     833.704E-03    -13.3552E-03     610.935E-03    -301.664E-03    -309.272E-03    -301.382E-03     610.654E-03    -309.272E-03     31.9157E-03    -2.46721E+06    -9.97934E+06    -22.3976E+06    -2.47199E+06    -22.3929E+06    -9.97934E+06    -211.767E+03         76.7009
             978     7.33843E-03     23.8760E-03     959.297E-03     729.245E-03     165.775E-03     307.543E-03     654.948E-03     891.827E-03     67.7967E-03     612.442E-03    -302.404E-03    -310.038E-03    -302.213E-03     612.250E-03    -310.038E-03     26.2754E-03    -1.69694E+06    -8.42448E+06    -20.2044E+06    -1.70628E+06    -20.1950E+06    -8.42448E+06    -370.660E+03         74.7496
             979     6.59908E-03     23.8429E-03     955.067E-03     767.331E-03     135.261E-03     466.231E-03     446.112E-03     945.317E-03    -45.5575E-03     614.645E-03    -303.802E-03    -310.843E-03    -303.678E-03     614.521E-03    -310.843E-03     21.2379E-03    -1.10629E+06    -6.33578E+06    -17.6724E+06    -1.11962E+06    -17.6591E+06    -6.33578E+06    -464.993E+03         73.2415
             980     5.86060E-03     23.8179E-03     994.340E-03     842.020E-03     19.8178E-03     606.626E-03     255.212E-03     994.340E-03     81.9915E-03     616.985E-03    -305.329E-03    -311.656E-03    -305.247E-03     616.903E-03    -311.656E-03     17.2010E-03    -659.989E+03    -4.44271E+06    -15.4123E+06    -671.401E+03    -15.4009E+06    -4.44271E+06    -404.277E+03         72.1407
             981     5.12389E-03     23.8001E-03         1.03995     939.751E-03    -124.990E-03     736.390E-03     79.4932E-03         1.03882    -27.9070E-03     619.419E-03    -306.955E-03    -312.464E-03    -306.905E-03     619.369E-03    -312.464E-03     13.4637E-03    -83.0229E+03    -2.79124E+06    -13.2845E+06    -91.7177E+03    -13.2758E+06    -2.79124E+06    -333.368E+03         71.3803
             982     4.38811E-03     23.7889E-03         1.09985         1.01921    -260.186E-03     851.104E-03    -70.6724E-03         1.07844     56.4853E-03     622.018E-03    -308.774E-03    -313.244E-03    -308.746E-03     621.990E-03    -313.244E-03     10.0609E-03     253.060E+03    -1.48149E+06    -11.9420E+06     248.250E+03    -11.9372E+06    -1.48149E+06    -232.044E+03         70.8831
             983     3.65408E-03     23.7814E-03         1.18254         1.09032    -407.978E-03     961.776E-03    -208.702E-03         1.11180    -62.5940E-03     624.578E-03    -310.617E-03    -313.961E-03    -310.603E-03     624.564E-03    -313.961E-03     7.15795E-03     500.610E+03    -321.810E+03    -11.2893E+06     447.158E+03    -11.2827E+06    -274.969E+03    -194.948E+03         70.5759
             984     2.92135E-03     23.7793E-03         1.29932         1.13892    -568.561E-03         1.03949    -308.727E-03         1.13892     167.516E-03     626.878E-03    -312.291E-03    -314.587E-03    -312.285E-03     626.871E-03    -314.587E-03     4.83336E-03     762.087E+03     501.178E+03    -10.6252E+06     699.500E+03    -10.6166E+06     555.193E+03    -136.895E+03         70.3972
             985     2.19002E-03     23.7779E-03         1.52310         1.15746    -814.086E-03         1.12008    -411.073E-03         1.15746    -282.477E-03     628.846E-03    -313.747E-03    -315.098E-03    -313.745E-03     628.843E-03    -315.098E-03     3.05214E-03     920.336E+03     855.208E+03    -10.0220E+06     908.620E+03    -10.0175E+06     862.382E+03     10.6327E+03         70.3001
             986     1.45932E-03     23.7795E-03         1.89402         1.17497        -1.20722         1.12988    -443.081E-03         1.17497     591.044E-03     630.301E-03    -314.808E-03    -315.493E-03    -314.807E-03     630.300E-03    -315.493E-03     1.86268E-03     1.02357E+06     819.403E+03    -9.84436E+06     960.375E+03    -9.84283E+06     881.069E+03     78.2188E+03         70.2515
             987     729.570E-06     23.7804E-03         2.90138         1.36893        -2.41901         1.00374    -521.366E-03         1.36893        -1.85469     631.328E-03    -315.437E-03    -315.891E-03    -315.453E-03     631.328E-03    -315.875E-03     1.14436E-03     1.21386E+06     862.737E+03    -10.1588E+06     1.09683E+06    -10.1576E+06     978.629E+03     103.489E+03         70.2299
             988     12.5285E-03     22.5996E-03         2.82071     256.023E-03        -1.13938        -1.13920         2.82053     256.023E-03     10.2691E-03     607.137E-03    -300.883E-03    -306.254E-03    -299.407E-03     605.661E-03    -306.254E-03     72.8213E-03     21.3361E+06    -823.979E+03    -2.13861E+06    -1.45648E+06    -1.50611E+06     21.3361E+06     200.001E+03         92.2117
             989     11.7846E-03     22.4557E-03         2.57438     322.597E-03    -943.280E-03    -943.007E-03         2.57411     322.597E-03     18.0278E-03     606.897E-03    -300.150E-03    -306.747E-03    -298.795E-03     605.542E-03    -306.747E-03     69.2675E-03     14.2469E+06    -2.70157E+06    -6.84331E+06    -2.75665E+06    -6.78823E+06     14.2469E+06     308.554E+03         90.1469
             990     11.0408E-03     22.3583E-03         2.33029     387.511E-03    -751.670E-03    -750.954E-03         2.32958     387.511E-03    -17.1246E-03     606.898E-03    -299.602E-03    -307.296E-03    -298.709E-03     606.005E-03    -307.296E-03     56.8064E-03     5.08705E+06    -3.61565E+06    -13.4163E+06    -3.62224E+06    -13.4097E+06     5.08705E+06     49.6626E+03         87.5943
             991     10.2982E-03     22.2685E-03         2.09050     450.883E-03    -567.350E-03    -564.371E-03         2.08752     450.883E-03     55.7762E-03     607.738E-03    -299.843E-03    -307.896E-03    -299.131E-03     607.026E-03    -307.896E-03     50.6392E-03    -1.68597E+06    -5.06785E+06    -19.4098E+06    -3.87489E+06    -19.4040E+06    -2.88468E+06    -284.630E+03         84.7616
             992     9.55551E-03     22.1936E-03         1.85981     511.905E-03    -392.217E-03    -384.929E-03         1.85252     511.905E-03    -29.8160E-03     608.620E-03    -300.061E-03    -308.559E-03    -299.538E-03     608.097E-03    -308.559E-03     43.4658E-03    -3.60651E+06    -7.98898E+06    -23.3848E+06    -3.61606E+06    -23.3753E+06    -7.98898E+06    -431.684E+03         81.8864
             993     8.81254E-03     22.1261E-03         1.64069     570.321E-03    -225.092E-03    -209.510E-03         1.62511     570.321E-03     44.4851E-03     610.318E-03    -301.044E-03    -309.273E-03    -300.654E-03     609.927E-03    -309.273E-03     37.5914E-03    -3.15355E+06    -10.2668E+06    -24.0674E+06    -3.16348E+06    -24.0575E+06    -10.2668E+06    -455.366E+03         79.1865
             994     8.07222E-03     22.0753E-03         1.43709     625.558E-03    -67.6534E-03    -38.9839E-03         1.40842     625.558E-03    -21.4589E-03     612.390E-03    -302.384E-03    -310.006E-03    -302.100E-03     612.106E-03    -310.006E-03     32.1182E-03    -2.53409E+06    -10.1276E+06    -22.5102E+06    -2.54142E+06    -22.5028E+06    -10.1276E+06    -353.216E+03         76.8223
             995     7.33330E-03     22.0294E-03         1.26419     677.076E-03     62.1335E-03     122.667E-03         1.20365     677.076E-03     57.1406E-03     614.079E-03    -303.314E-03    -310.765E-03    -303.117E-03     613.882E-03    -310.765E-03     26.7054E-03    -1.93515E+06     -8.5716E+06    -20.0882E+06    -1.94003E+06    -20.0833E+06     -8.5716E+06    -258.119E+03         74.8795
             996     6.59412E-03     21.9927E-03         1.15905     710.834E-03     137.838E-03     270.397E-03         1.01273     724.599E-03    -57.1170E-03     615.908E-03    -304.332E-03    -311.576E-03    -304.207E-03     615.783E-03    -311.576E-03     21.3107E-03    -1.45817E+06    -6.45398E+06    -17.6946E+06    -1.46485E+06    -17.6879E+06    -6.45398E+06    -279.874E+03         73.3745
             997     5.85634E-03     21.9627E-03         1.12132     746.726E-03     140.184E-03     401.930E-03     838.048E-03     768.254E-03     81.2284E-03     618.261E-03    -305.843E-03    -312.418E-03    -305.769E-03     618.187E-03    -312.418E-03     16.3869E-03    -1.03157E+06    -4.38938E+06    -15.7001E+06    -1.04339E+06    -15.6882E+06    -4.38938E+06    -376.786E+03         72.2725
             998     5.11933E-03     21.9404E-03         1.11277     800.289E-03     94.9632E-03     521.570E-03     678.400E-03     808.052E-03    -52.2229E-03     620.847E-03    -307.595E-03    -313.252E-03    -307.555E-03     620.807E-03    -313.252E-03     12.0430E-03    -702.356E+03    -2.84011E+06    -13.7856E+06    -713.497E+03    -13.7745E+06    -2.84011E+06    -374.793E+03         71.5085
             999     4.38452E-03     21.9227E-03         1.14615     843.826E-03     20.6059E-03     627.328E-03     539.429E-03     843.826E-03     80.9927E-03     623.514E-03    -309.465E-03    -314.049E-03    -309.445E-03     623.494E-03    -314.049E-03     8.41596E-03    -433.922E+03    -1.81717E+06    -12.3245E+06    -443.618E+03    -12.3148E+06    -1.81717E+06    -321.329E+03         71.0063
            1000     3.65082E-03     21.9117E-03         1.24485     874.669E-03    -103.542E-03     726.776E-03     414.532E-03     874.669E-03    -126.508E-03     626.099E-03    -311.315E-03    -314.784E-03    -311.306E-03     626.090E-03    -314.784E-03     5.43391E-03    -204.940E+03    -1.22983E+06    -11.3860E+06    -216.645E+03    -11.3743E+06    -1.22983E+06    -285.359E+03         70.6937
            1001     2.91862E-03     21.9032E-03         1.43464     899.909E-03    -312.892E-03     805.504E-03     316.245E-03     899.909E-03     263.518E-03     628.473E-03    -313.038E-03    -315.435E-03    -313.035E-03     628.470E-03    -315.435E-03     3.17705E-03    -21.9072E+03    -607.721E+03    -10.9505E+06    -40.1846E+03    -10.9394E+06    -600.547E+03    -283.452E+03         70.5099
            1002     2.18754E-03     21.8996E-03         1.79007     918.351E-03    -688.760E-03     873.439E-03     227.870E-03     918.351E-03    -471.568E-03     630.476E-03    -314.491E-03    -315.985E-03    -314.490E-03     630.475E-03    -315.985E-03     1.61533E-03     65.5759E+03    -122.372E+03    -10.5791E+06     40.7901E+03    -10.5614E+06    -115.199E+03    -291.713E+03         70.4085
            1003     1.45760E-03     21.8967E-03         2.47828     932.872E-03        -1.39518     902.811E-03     180.282E-03     932.872E-03     958.780E-03     632.082E-03    -315.658E-03    -316.424E-03    -315.657E-03     632.082E-03    -316.424E-03     606.910E-06     227.473E+03     57.6149E+03    -10.1059E+06     199.892E+03    -10.0830E+06     62.3380E+03    -269.498E+03         70.3566
            1004     728.344E-06     21.8965E-03         4.36699         1.02355        -3.38365     856.676E-03     126.666E-03         1.02355        -2.97816     633.234E-03    -316.347E-03    -316.887E-03    -316.346E-03     633.233E-03    -316.887E-03     486.015E-06     642.903E+03     309.059E+03    -10.2283E+06     560.994E+03    -10.2053E+06     368.009E+03     68.6035E+03         70.3328
            1005     12.5245E-03     20.7672E-03         3.35271    -250.133E-06        -1.26437        -1.26393         3.35227    -250.133E-06     7.52221E-03     606.461E-03    -299.935E-03    -306.526E-03    -298.399E-03     604.925E-03    -306.526E-03     74.3044E-03     22.1899E+06    -964.152E+03    -2.12963E+06    -1.30902E+06    -1.78476E+06     22.1899E+06     86.8341E+03         92.2818
            1006     11.7800E-03     20.6291E-03         3.14307     51.9217E-03        -1.09160        -1.09108         3.14255     51.9217E-03     10.3433E-03     606.208E-03    -299.104E-03    -307.104E-03    -297.698E-03     604.802E-03    -307.104E-03     70.6259E-03     15.0497E+06    -2.50255E+06    -6.76484E+06    -2.52653E+06    -6.74086E+06     15.0497E+06     71.2811E+03         90.2281
            1007     11.0353E-03     20.5241E-03         2.93624     102.823E-03    -922.163E-03    -921.086E-03         2.93516     102.823E-03    -22.7368E-03     606.699E-03    -298.961E-03    -307.738E-03    -298.025E-03     605.763E-03    -307.738E-03     58.1359E-03     5.57382E+06    -3.32180E+06    -13.2850E+06    -3.32987E+06    -13.2769E+06     5.57382E+06     53.8878E+03         87.6907
            1008     10.2922E-03     20.4328E-03         2.73240     152.825E-03    -758.994E-03    -756.117E-03         2.72952     152.825E-03     43.1689E-03     608.473E-03    -300.089E-03    -308.384E-03    -299.359E-03     607.743E-03    -308.384E-03     51.3241E-03    -1.56863E+06    -5.20261E+06    -19.3063E+06    -3.72910E+06    -19.2962E+06    -3.05231E+06     58.9323E+03         84.8757
            1009     9.55061E-03     20.3543E-03         2.53601     201.114E-03    -604.266E-03    -598.038E-03         2.52978     201.114E-03    -36.9397E-03     609.735E-03    -300.683E-03    -309.052E-03    -300.154E-03     609.206E-03    -309.052E-03     43.7409E-03    -3.79248E+06    -8.74802E+06    -22.9360E+06    -3.80611E+06    -22.9224E+06    -8.74802E+06     39.1209E+03         82.0179
            1010     8.80922E-03     20.2887E-03         2.34783     247.361E-03    -455.831E-03    -444.954E-03         2.33696     247.361E-03     28.8829E-03     611.191E-03    -301.424E-03    -309.767E-03    -301.043E-03     610.810E-03    -309.767E-03     37.1381E-03    -3.77474E+06    -11.1214E+06    -24.0824E+06    -3.78275E+06    -24.0744E+06    -11.1214E+06    -126.506E+03         79.3306
            1011     8.06793E-03     20.2265E-03         2.17122     291.107E-03    -315.423E-03    -298.456E-03         2.15426     291.107E-03    -26.6041E-03     613.337E-03    -302.829E-03    -310.508E-03    -302.569E-03     613.077E-03    -310.508E-03     30.6568E-03    -3.34527E+06    -10.6841E+06    -23.0819E+06    -3.35120E+06    -23.0760E+06    -10.6841E+06    -303.829E+03         76.9721
            1012     7.32886E-03     20.1805E-03         2.00973     332.140E-03    -187.002E-03    -159.106E-03         1.98183     332.140E-03     40.7817E-03     615.592E-03    -304.354E-03    -311.238E-03    -304.184E-03     615.422E-03    -311.238E-03     24.8667E-03    -2.73624E+06    -8.99972E+06    -20.4331E+06    -2.74189E+06    -20.4275E+06    -8.99972E+06    -299.650E+03         75.0283
            1013     6.59100E-03     20.1389E-03         1.87166     370.131E-03    -80.9834E-03    -31.5913E-03         1.82227     370.131E-03    -59.9099E-03     617.660E-03    -305.701E-03    -311.959E-03    -305.594E-03     617.554E-03    -311.959E-03     19.5536E-03    -2.09573E+06    -6.86960E+06    -17.6380E+06    -2.10691E+06    -17.6268E+06    -6.86960E+06    -321.271E+03         73.5161
            1014     5.85405E-03     20.1053E-03         1.76352     405.018E-03    -5.31278E-03     82.3317E-03         1.67588     405.018E-03     64.1021E-03     619.824E-03    -307.148E-03    -312.676E-03    -307.091E-03     619.767E-03    -312.676E-03     14.1988E-03    -1.49859E+06    -4.56999E+06    -15.6338E+06    -1.51791E+06    -15.6145E+06    -4.56999E+06    -461.165E+03         72.4016
            1015     5.11896E-03     20.0771E-03         1.68430     436.957E-03     42.4616E-03     183.609E-03         1.54316     436.957E-03    -56.1585E-03     622.103E-03    -308.736E-03    -313.367E-03    -308.710E-03     622.077E-03    -313.367E-03     9.36647E-03    -1.08708E+06    -2.81086E+06    -14.1187E+06    -1.11341E+06    -14.0924E+06    -2.81086E+06    -548.245E+03         71.6209
            1016     4.38424E-03     20.0559E-03         1.63858     465.918E-03     60.5126E-03     274.281E-03         1.42481     465.918E-03     67.2068E-03     624.327E-03    -310.317E-03    -314.010E-03    -310.308E-03     624.318E-03    -314.010E-03     5.23122E-03    -693.131E+03    -1.64894E+06    -12.7411E+06    -717.758E+03    -12.7164E+06    -1.64894E+06    -507.533E+03         71.1001
            1017     3.65117E-03     20.0385E-03         1.65335     491.465E-03     25.1410E-03     356.030E-03         1.32246     491.465E-03    -134.550E-03     626.426E-03    -311.834E-03    -314.592E-03    -311.831E-03     626.423E-03    -314.592E-03     1.97818E-03    -354.636E+03    -1.10110E+06    -11.8561E+06    -522.386E+03    -11.8342E+06    -955.202E+03    -402.029E+03         70.7686
            1018     2.91928E-03     20.0272E-03         1.77068     512.558E-03    -108.617E-03     428.712E-03         1.23335     512.558E-03     256.363E-03     628.285E-03    -313.182E-03    -315.103E-03    -313.181E-03     628.284E-03    -315.103E-03    -237.793E-06    -200.641E+03    -779.363E+03    -11.1923E+06    -371.864E+03    -11.1670E+06    -633.468E+03    -424.020E+03         70.5672
            1019     2.18846E-03     20.0184E-03         2.07672     529.045E-03    -429.218E-03     480.650E-03         1.16685     529.045E-03    -487.338E-03     629.883E-03    -314.348E-03    -315.536E-03    -314.347E-03     629.882E-03    -315.536E-03    -1.32217E-03    -120.435E+03    -402.150E+03    -10.8452E+06    -149.229E+03    -10.8164E+06    -402.150E+03    -541.985E+03         70.4506
            1020     1.45853E-03     20.0138E-03         2.74659     538.636E-03        -1.11420     526.972E-03         1.10541     538.636E-03     965.464E-03     631.186E-03    -315.320E-03    -315.866E-03    -315.320E-03     631.185E-03    -315.866E-03    -1.45558E-03    -69.9500E+03    -222.456E+03    -10.9664E+06    -103.917E+03    -10.9371E+06    -217.733E+03    -534.715E+03         70.3870
            1021     729.313E-06     20.0101E-03         4.70685     507.510E-03        -3.04697     573.570E-03         1.08630     507.510E-03        -3.00419     632.001E-03    -315.846E-03    -316.155E-03    -315.911E-03     632.001E-03    -316.089E-03    -693.298E-06     114.263E+03    -106.994E+03    -11.3879E+06     49.2277E+03    -11.3600E+06    -69.8616E+03    -169.510E+03         70.3558
            1022     12.5199E-03     18.9378E-03         3.99020    -345.692E-03        -1.40151        -1.40089         3.98959    -345.692E-03     4.95608E-03     605.574E-03    -298.728E-03    -306.846E-03    -297.164E-03     604.010E-03    -306.846E-03     74.8582E-03     21.6451E+06    -1.03289E+06    -2.01949E+06    -1.24889E+06    -1.80350E+06     21.6451E+06    -92.4678E+03         92.4039
            1023     11.7757E-03     18.7986E-03         3.83034    -311.959E-03        -1.26098        -1.26035         3.82971    -311.959E-03     2.77079E-03     606.832E-03    -299.354E-03    -307.479E-03    -297.903E-03     605.382E-03    -307.479E-03     71.7626E-03     14.2515E+06    -2.77283E+06    -7.22895E+06    -2.80125E+06    -7.20053E+06     14.2515E+06     17.8471E+03         90.3612
            1024     11.0317E-03     18.6936E-03         3.67469    -279.120E-03        -1.12519        -1.12403         3.67353    -279.120E-03    -28.9344E-03     607.609E-03    -299.492E-03    -308.117E-03    -298.536E-03     606.653E-03    -308.117E-03     58.7981E-03     4.97198E+06    -3.63319E+06    -13.6195E+06    -3.65822E+06    -13.5944E+06     4.97198E+06     327.224E+03         87.8394
            1025     10.2883E-03     18.5941E-03         3.52175    -246.424E-03    -994.617E-03    -992.258E-03         3.51939    -246.424E-03     27.8956E-03     609.043E-03    -300.274E-03    -308.769E-03    -299.545E-03     608.314E-03    -308.769E-03     51.2688E-03    -2.03441E+06    -5.21852E+06    -19.2812E+06    -4.15614E+06    -19.2656E+06    -3.11240E+06     409.592E+03         85.0396
            1026     9.54623E-03     18.5151E-03         3.37526    -214.725E-03    -871.899E-03    -867.174E-03         3.37054    -214.725E-03    -45.1087E-03     611.206E-03    -301.789E-03    -309.417E-03    -301.271E-03     610.687E-03    -309.417E-03     43.3501E-03    -4.18603E+06    -8.22176E+06    -22.9233E+06    -4.19739E+06    -22.9119E+06    -8.22176E+06     423.576E+03         82.1937
            1027     8.80606E-03     18.4426E-03         3.23418    -184.164E-03    -754.862E-03    -747.843E-03         3.22717    -184.164E-03     7.09147E-03     613.226E-03    -303.187E-03    -310.039E-03    -302.823E-03     612.862E-03    -310.039E-03     36.3391E-03    -3.59148E+06    -9.98934E+06    -23.4947E+06    -3.60060E+06    -23.4856E+06    -9.98934E+06     352.873E+03         79.5130
            1028     8.06730E-03     18.3815E-03         3.10152    -155.090E-03    -644.962E-03    -635.301E-03         3.09186    -155.090E-03    -32.3806E-03     614.945E-03    -304.293E-03    -310.651E-03    -304.060E-03     614.711E-03    -310.651E-03     29.0252E-03    -3.18406E+06    -9.69986E+06    -22.6901E+06    -3.18880E+06    -22.6853E+06    -9.69986E+06     -5.2025E+03         77.1520
            1029     7.32848E-03     18.3267E-03         2.97718    -127.608E-03    -541.347E-03    -528.058E-03         2.96390    -127.608E-03     13.1762E-03     617.113E-03    -305.879E-03    -311.234E-03    -305.746E-03     616.980E-03    -311.234E-03     21.7883E-03    -2.74935E+06    -8.28608E+06    -20.3483E+06    -2.76107E+06    -20.3366E+06    -8.28608E+06    -390.103E+03         75.1954
            1030     6.59207E-03     18.2826E-03         2.86598    -101.940E-03    -449.057E-03    -428.723E-03         2.84565    -101.940E-03    -57.1398E-03     619.329E-03    -307.581E-03    -311.749E-03    -307.513E-03     619.261E-03    -311.749E-03     15.3742E-03    -2.13316E+06    -6.35428E+06    -17.6586E+06    -2.16187E+06    -17.6298E+06    -6.35428E+06    -643.308E+03         73.6617
            1031     5.85681E-03     18.2441E-03         2.76619    -78.3312E-03    -368.647E-03    -338.081E-03         2.73562    -78.3312E-03     27.0941E-03     621.124E-03    -308.935E-03    -312.189E-03    -308.906E-03     621.095E-03    -312.189E-03     9.52304E-03    -1.72248E+06    -4.72416E+06    -15.7639E+06    -1.76446E+06    -15.7220E+06    -4.72416E+06    -751.815E+03         72.5186
            1032     5.12205E-03     18.2126E-03         2.67956    -56.7464E-03    -301.896E-03    -259.380E-03         2.63705    -56.7464E-03    -40.8960E-03     622.691E-03    -310.128E-03    -312.563E-03    -310.118E-03     622.682E-03    -312.563E-03     4.29392E-03    -1.36857E+06    -3.22175E+06    -14.3609E+06    -1.41647E+06    -14.3129E+06    -3.22175E+06    -774.136E+03         71.7044
            1033     4.38924E-03     18.1868E-03         2.60373    -37.2392E-03    -244.363E-03    -187.680E-03         2.54704    -37.2392E-03     18.1248E-03     624.048E-03    -311.179E-03    -312.869E-03    -311.175E-03     624.045E-03    -312.869E-03    -4.37413E-06    -1.15042E+06    -1.86160E+06    -13.3979E+06    -1.19602E+06    -13.3523E+06    -1.86160E+06    -722.225E+03         71.1478
            1034     3.65676E-03     18.1673E-03         2.55774    -19.6651E-03    -213.332E-03    -129.269E-03         2.47368    -19.6651E-03    -86.4044E-03     625.048E-03    -311.935E-03    -313.113E-03    -311.930E-03     625.043E-03    -313.113E-03    -3.09410E-03    -767.832E+03    -1.20059E+06    -12.3047E+06    -971.376E+03    -12.2470E+06    -1.05469E+06    -770.589E+03         70.7809
            1035     2.92477E-03     18.1522E-03         2.55417    -5.05136E-03    -222.194E-03    -70.0778E-03         2.40205    -5.05136E-03     158.133E-03     625.809E-03    -312.493E-03    -313.316E-03    -312.486E-03     625.802E-03    -313.316E-03    -4.72162E-03    -632.739E+03    -1.03259E+06    -11.7225E+06    -835.487E+03    -11.6656E+06    -886.696E+03    -772.910E+03         70.5469
            1036     2.19311E-03     18.1423E-03         2.67033     7.12840E-03    -342.961E-03    -36.8557E-03         2.36422     7.12840E-03    -327.314E-03     626.494E-03    -312.990E-03    -313.504E-03    -313.004E-03     626.486E-03    -313.482E-03    -4.93789E-03    -785.158E+03    -975.385E+03    -11.8423E+06    -811.509E+03    -11.8160E+06    -975.385E+03    -485.483E+03         70.4025
            1037     1.46172E-03     18.1345E-03         2.97770     10.0762E-03    -659.097E-03     18.2773E-03         2.30032     10.0762E-03     628.637E-03     627.039E-03    -313.377E-03    -313.662E-03    -313.454E-03     627.034E-03    -313.580E-03    -4.10079E-03    -424.905E+03    -656.232E+03    -11.7443E+06    -432.771E+03    -11.7365E+06    -656.232E+03    -235.498E+03         70.3177
            1038     730.665E-06     18.1307E-03         4.12847    -125.843E-03        -1.67338     138.553E-03         2.31653    -125.843E-03        -1.95491     627.207E-03    -313.456E-03    -313.750E-03    -313.579E-03     627.204E-03    -313.625E-03    -2.36343E-03    -647.207E+03    -814.124E+03    -12.6557E+06    -685.456E+03    -12.6499E+06    -781.714E+03    -210.088E+03         70.2727
            1039     12.5162E-03     17.1136E-03         4.71391    -765.363E-03        -1.54851        -1.54788         4.71328    -765.363E-03     3.25428E-03     605.114E-03    -298.006E-03    -307.108E-03    -296.450E-03     603.558E-03    -307.108E-03     74.4559E-03     19.0431E+06    -1.18774E+06    -2.64415E+06    -1.56444E+06    -2.26744E+06     19.0431E+06     281.955E+03         92.5908
            1040     11.7700E-03     16.9654E-03         4.61620    -753.281E-03        -1.44931        -1.44873         4.61561    -753.281E-03    -3.33082E-03     607.374E-03    -299.594E-03    -307.781E-03    -298.121E-03     605.902E-03    -307.781E-03     72.2494E-03     13.2672E+06    -2.73163E+06    -7.55018E+06    -2.86400E+06    -7.41781E+06     13.2672E+06     463.913E+03         90.5582
            1041     11.0284E-03     16.8563E-03         4.52304    -741.497E-03        -1.35622        -1.35524         4.52206    -741.497E-03    -31.4981E-03     608.980E-03    -300.577E-03    -308.404E-03    -299.624E-03     608.028E-03    -308.404E-03     58.7593E-03     5.72703E+06    -3.66407E+06    -13.8622E+06    -3.69141E+06    -13.8349E+06     5.72703E+06     355.377E+03         88.0489
            1042     10.2861E-03     16.7595E-03         4.43200    -728.811E-03        -1.26749        -1.26578         4.43029    -728.811E-03     16.0953E-03     610.675E-03    -301.688E-03    -308.987E-03    -300.962E-03     609.949E-03    -308.987E-03     51.2300E-03    -1.22689E+06    -4.48381E+06    -19.2946E+06    -4.03483E+06    -19.2831E+06    -1.68742E+06     223.286E+03         85.2601
            1043     9.54501E-03     16.6697E-03         4.34711    -716.538E-03        -1.18601        -1.18281         4.34391    -716.538E-03    -46.3247E-03     612.953E-03    -303.426E-03    -309.527E-03    -302.931E-03     612.458E-03    -309.527E-03     42.3633E-03    -3.76610E+06    -6.69238E+06    -22.5623E+06    -3.77136E+06    -22.5571E+06    -6.69238E+06     199.791E+03         82.4193
            1044     8.80640E-03     16.5953E-03         4.26546    -704.357E-03        -1.10983        -1.10565         4.26127    -704.357E-03    -10.0790E-03     615.419E-03    -305.436E-03    -309.983E-03    -305.117E-03     615.100E-03    -309.983E-03     33.9754E-03    -3.22758E+06    -8.91325E+06    -23.2548E+06    -3.23611E+06    -23.2463E+06    -8.91325E+06     109.734E+03         79.7346
            1045     8.06864E-03     16.5290E-03         4.18811    -692.324E-03        -1.03872        -1.03370         4.18309    -692.324E-03    -28.1999E-03     617.482E-03    -307.143E-03    -310.339E-03    -306.956E-03     617.295E-03    -310.339E-03     25.8638E-03    -2.41910E+06    -8.61200E+06    -22.0286E+06    -2.42505E+06    -22.0227E+06    -8.61200E+06    -64.6625E+03         77.3585
            1046     7.33342E-03     16.4719E-03         4.11384    -680.626E-03    -970.946E-03    -965.148E-03         4.10805    -680.626E-03    -14.0130E-03     619.221E-03    -308.406E-03    -310.815E-03    -308.539E-03     619.130E-03    -310.592E-03     17.7000E-03    -1.74521E+06    -7.13777E+06    -19.8040E+06    -1.75701E+06    -19.7922E+06    -7.13777E+06    -383.670E+03         75.3744
            1047     6.59843E-03     16.4222E-03         4.04593    -669.345E-03    -908.548E-03    -901.147E-03         4.03853    -669.345E-03    -40.3845E-03     620.771E-03    -309.298E-03    -311.473E-03    -310.015E-03     620.739E-03    -310.723E-03     9.89421E-03    -1.36748E+06    -5.43367E+06    -17.7949E+06    -1.39049E+06    -17.7719E+06    -5.43367E+06    -583.106E+03         73.8016
            1048     5.86510E-03     16.3813E-03         3.98105    -658.705E-03    -848.710E-03    -839.543E-03         3.97188    -658.705E-03    -15.2818E-03     621.892E-03    -309.830E-03    -312.062E-03    -311.167E-03     621.883E-03    -310.716E-03     2.90291E-03    -1.01173E+06    -3.60712E+06    -15.9528E+06    -1.04489E+06    -15.9197E+06    -3.60712E+06    -647.381E+03         72.6106
            1049     5.13277E-03     16.3478E-03         3.92309    -648.860E-03    -796.301E-03    -786.255E-03         3.91304    -648.860E-03    -5.68819E-03     622.221E-03    -310.054E-03    -312.167E-03    -311.624E-03     622.212E-03    -310.588E-03    -3.10192E-03    -948.595E+03    -2.33533E+06    -14.7556E+06    -985.187E+03    -14.7190E+06    -2.33533E+06    -675.366E+03         71.7432
            1050     4.39980E-03     16.3202E-03         3.86664    -639.971E-03    -748.158E-03    -737.860E-03         3.85634    -639.971E-03    -48.6244E-03     621.911E-03    -310.153E-03    -311.758E-03    -311.503E-03     621.890E-03    -310.387E-03    -7.49549E-03    -935.898E+03    -1.74832E+06    -13.8296E+06    -972.319E+03    -13.7932E+06    -1.74832E+06    -647.501E+03         71.1317
            1051     3.66731E-03     16.3000E-03         3.82749    -631.397E-03    -717.580E-03    -705.907E-03         3.81582    -631.397E-03    -1.01010E-03     621.360E-03    -310.050E-03    -311.310E-03    -311.173E-03     621.327E-03    -310.154E-03    -10.0827E-03    -932.364E+03    -1.65319E+06    -12.7246E+06    -984.256E+03    -12.6727E+06    -1.65319E+06    -730.020E+03         70.7116
            1052     2.93433E-03     16.2853E-03         3.78723    -622.749E-03    -684.848E-03    -663.996E-03         3.76782    -624.196E-03     4.93171E-03     620.712E-03    -309.832E-03    -310.879E-03    -310.764E-03     620.676E-03    -309.911E-03    -10.8832E-03    -972.895E+03    -1.38543E+06    -12.5457E+06    -1.01923E+06    -12.4993E+06    -1.38543E+06    -689.808E+03         70.4295
            1053     2.20116E-03     16.2744E-03         3.79829    -615.574E-03    -695.318E-03    -652.976E-03         3.75740    -617.020E-03    -58.0667E-03     620.025E-03    -309.636E-03    -310.390E-03    -310.331E-03     619.995E-03    -309.664E-03    -10.0572E-03    -739.760E+03    -907.829E+03    -12.5680E+06    -829.271E+03    -12.5410E+06    -845.294E+03    -503.117E+03         70.2448
            1054     1.46795E-03     16.2670E-03         3.81318    -597.823E-03    -729.313E-03    -597.213E-03         3.70242    -619.158E-03     77.7394E-03     619.283E-03    -309.418E-03    -309.865E-03    -309.847E-03     619.265E-03    -309.418E-03    -7.85803E-03    -1.02936E+06    -1.23020E+06    -12.8584E+06    -1.12278E+06    -12.8460E+06    -1.14916E+06    -270.319E+03         70.1292
            1055     734.445E-06     16.2629E-03         4.15794    -681.811E-03    -991.919E-03    -440.713E-03         3.73694    -812.012E-03    -248.080E-03     618.594E-03    -309.094E-03    -309.500E-03    -309.359E-03     618.586E-03    -309.227E-03    -4.83501E-03    -933.860E+03    -1.10659E+06    -13.1959E+06    -953.738E+03    -13.1945E+06    -1.08807E+06    -115.145E+03         70.0646
            1056     12.5143E-03     15.2889E-03         5.50048        -1.24051        -1.70236        -1.70184         5.49996        -1.24051     2.98179E-03     606.187E-03    -298.904E-03    -307.283E-03    -297.365E-03     604.647E-03    -307.283E-03     73.9154E-03     20.7020E+06    -700.377E+03    -3.12064E+06    -965.419E+03    -2.85560E+06     20.7020E+06     545.154E+03         92.8534
            1057     11.7705E-03     15.1328E-03         5.47272        -1.25166        -1.65263        -1.65219         5.47228        -1.25166    -7.17815E-03     608.100E-03    -300.183E-03    -307.917E-03    -298.705E-03     606.622E-03    -307.917E-03     72.2358E-03     15.0656E+06    -1.74292E+06    -7.46537E+06    -1.85810E+06    -7.35019E+06     15.0656E+06     498.047E+03         90.8300
            1058     11.0258E-03     15.0200E-03         5.45015        -1.26264        -1.60853        -1.60785         5.44947        -1.26264    -29.9654E-03     610.072E-03    -301.587E-03    -308.485E-03    -300.682E-03     609.167E-03    -308.485E-03     57.3029E-03     6.73347E+06    -2.83081E+06    -13.6510E+06    -2.83874E+06    -13.6431E+06     6.73347E+06     155.344E+03         88.3276
            1059     10.2857E-03     14.9152E-03         5.42831        -1.27169        -1.56767        -1.56658         5.42721        -1.27169     8.25315E-03     612.891E-03    -303.947E-03    -308.944E-03    -303.263E-03     612.208E-03    -308.944E-03     49.8187E-03    -244.560E+03    -3.34968E+06    -19.1049E+06    -3.10739E+06    -19.0991E+06    -492.623E+03    -16.6410E+03         85.5414
            1060     9.54759E-03     14.8247E-03         5.41079        -1.28040        -1.53222        -1.53033         5.40891        -1.28040    -40.2028E-03     615.505E-03    -306.191E-03    -309.314E-03    -305.779E-03     615.051E-03    -309.272E-03     40.5768E-03    -2.88724E+06    -5.39633E+06    -22.4157E+06    -2.89223E+06    -22.4107E+06    -5.39633E+06    -117.721E+03         82.6953
            1061     8.81024E-03     14.7420E-03         5.39465        -1.28825        -1.50083        -1.49864         5.39246        -1.28825    -23.2994E-03     617.990E-03    -307.850E-03    -310.139E-03    -308.285E-03     617.725E-03    -309.440E-03     30.8532E-03    -2.53992E+06    -8.00575E+06    -23.2455E+06    -2.54292E+06    -23.2425E+06    -8.00575E+06    -217.586E+03         79.9926
            1062     8.07644E-03     14.6725E-03         5.37925        -1.29496        -1.47380        -1.47165         5.37709        -1.29496    -16.8019E-03     620.146E-03    -308.782E-03    -311.364E-03    -310.606E-03     620.017E-03    -309.412E-03     21.2047E-03    -2.05181E+06    -8.73537E+06    -21.6989E+06    -2.05792E+06    -21.6928E+06    -8.73537E+06    -294.056E+03         77.5839
            1063     7.34300E-03     14.6113E-03         5.36286        -1.30041        -1.44820        -1.44623         5.36090        -1.30041    -38.9638E-03     621.489E-03    -309.056E-03    -312.432E-03    -312.265E-03     621.443E-03    -309.178E-03     11.8597E-03    -1.45311E+06    -7.71895E+06    -19.7156E+06    -1.46038E+06    -19.7083E+06    -7.71895E+06    -317.936E+03         75.5527
            1064     6.61163E-03     14.5602E-03         5.34842        -1.30454        -1.42498        -1.42319         5.34663        -1.30454    -17.0990E-03     622.078E-03    -308.740E-03    -313.338E-03    -313.326E-03     622.066E-03    -308.740E-03     2.90412E-03    -1.00217E+06    -5.58369E+06    -18.2132E+06    -1.00748E+06    -18.2079E+06    -5.58369E+06    -247.823E+03         73.9201
            1065     5.88036E-03     14.5172E-03         5.33140        -1.30738        -1.39921        -1.39753         5.32971        -1.30738    -56.5149E-03     621.768E-03    -308.099E-03    -313.670E-03    -313.652E-03     621.751E-03    -308.099E-03    -5.36284E-03    -780.349E+03    -3.67198E+06    -16.3494E+06    -786.704E+03    -16.3431E+06    -3.67198E+06    -215.432E+03         72.6603
            1066     5.14935E-03     14.4838E-03         5.31698        -1.30881        -1.37746        -1.37622         5.31575        -1.30881     34.5642E-03     620.238E-03    -307.306E-03    -312.932E-03    -312.884E-03     620.190E-03    -307.306E-03    -12.1044E-03    -501.404E+03    -2.18695E+06    -14.8834E+06    -513.049E+03    -14.8717E+06    -2.18695E+06    -335.602E+03         71.7197
            1067     4.41791E-03     14.4606E-03         5.29744        -1.30910        -1.35713        -1.35474         5.29505        -1.30910    -119.625E-03     617.766E-03    -306.457E-03    -311.309E-03    -311.232E-03     617.689E-03    -306.457E-03    -16.2858E-03    -509.104E+03    -1.59509E+06    -13.8827E+06    -523.298E+03    -13.8685E+06    -1.59509E+06    -431.591E+03         71.0352
            1068     3.68433E-03     14.4418E-03         5.29200        -1.30779        -1.35391        -1.34795         5.28603        -1.30779     86.8126E-03     615.142E-03    -305.629E-03    -309.513E-03    -309.421E-03     615.049E-03    -305.629E-03    -18.1099E-03    -395.847E+03    -1.13624E+06    -13.0099E+06    -409.951E+03    -12.9958E+06    -1.13624E+06    -362.319E+03         70.5468
            1069     2.95003E-03     14.4304E-03         5.27698        -1.30448        -1.34311        -1.32504         5.26035        -1.30592    -162.373E-03     612.671E-03    -304.843E-03    -307.828E-03    -307.739E-03     612.582E-03    -304.843E-03    -17.7819E-03    -227.949E+03    -524.257E+03    -13.0230E+06    -265.757E+03    -13.0117E+06    -497.755E+03    -265.434E+03         70.2042
            1070     2.21441E-03     14.4218E-03         5.30974        -1.30043        -1.37425        -1.32954         5.26648        -1.30188     223.066E-03     610.167E-03    -304.137E-03    -306.031E-03    -305.964E-03     610.101E-03    -304.137E-03    -15.3784E-03    -437.766E+03    -596.086E+03    -13.2703E+06    -542.159E+03    -13.2550E+06    -507.048E+03    -308.192E+03         69.9696
            1071     1.47718E-03     14.4180E-03         5.36016        -1.28268        -1.44228        -1.28424         5.22345        -1.30402    -509.222E-03     608.035E-03    -303.601E-03    -304.434E-03    -304.397E-03     607.998E-03    -303.601E-03    -11.2624E-03    -870.920E+03    -1.02282E+06    -13.3862E+06    -964.377E+03    -13.3738E+06    -941.776E+03    -275.625E+03         69.8167
            1072     738.508E-06     14.4160E-03         5.89077        -1.35867        -1.88741        -1.13104         5.26460        -1.48887         1.56630     606.776E-03    -303.053E-03    -303.723E-03    -303.709E-03     606.762E-03    -303.053E-03    -6.64613E-03    -1.18486E+06    -1.43255E+06    -13.9954E+06    -1.35949E+06    -13.9928E+06    -1.26050E+06    -56.1264E+03         69.7285
            1073     12.5138E-03     13.4597E-03         6.31979        -1.71445        -1.89496        -1.85980         6.31945        -1.74926     4.44290E-03     608.613E-03    -301.242E-03    -307.371E-03    -299.688E-03     607.059E-03    -307.371E-03     74.2993E-03     20.8858E+06    -1.05238E+06    -3.51069E+06    -1.15306E+06    -3.41001E+06     20.8858E+06    -127.533E+03         93.1975
            1074     11.7696E-03     13.2994E-03         6.36620        -1.74101        -1.90595        -1.86323         6.36593        -1.78346    -8.10708E-03     610.400E-03    -302.540E-03    -307.860E-03    -301.048E-03     608.908E-03    -307.860E-03     72.5503E-03     14.8753E+06    -2.20156E+06    -7.81415E+06    -2.24865E+06    -7.76706E+06     14.8753E+06    -81.3852E+03         91.1813
            1075     11.0299E-03     13.1807E-03         6.41759        -1.77056        -1.91920        -1.87219         6.41720        -1.81719    -24.1225E-03     611.942E-03    -303.673E-03    -308.269E-03    -302.795E-03     611.064E-03    -308.269E-03     56.6095E-03     6.83768E+06    -2.50279E+06    -13.2247E+06    -2.51000E+06    -13.2175E+06     6.83768E+06    -37.0697E+03         88.6799
            1076     10.2899E-03     13.0702E-03         6.46883        -1.79938        -1.93239        -1.88281         6.46824        -1.84838     3.21023E-03     615.376E-03    -306.181E-03    -309.195E-03    -306.212E-03     614.730E-03    -308.518E-03     48.4547E-03    -296.873E+03    -3.68801E+06    -18.7078E+06    -2.91319E+06    -18.7016E+06    -1.07788E+06    -138.869E+03         85.8842
            1077     9.55345E-03     12.9709E-03         6.52105        -1.82745        -1.94677        -1.89494         6.52010        -1.87833    -31.8565E-03     618.704E-03    -307.932E-03    -310.773E-03    -309.792E-03     618.319E-03    -308.527E-03     37.2866E-03    -2.91245E+06    -6.40702E+06    -22.5076E+06    -2.91600E+06    -22.5041E+06    -6.40702E+06    -206.830E+03         83.0165
            1078     8.82091E-03     12.8857E-03         6.57160        -1.85564        -1.96124        -1.90970         6.57066        -1.90623    -36.4125E-03     621.064E-03    -308.263E-03    -312.801E-03    -312.607E-03     620.870E-03    -308.263E-03     26.2006E-03    -2.55623E+06    -8.94690E+06    -23.3061E+06    -2.56273E+06    -23.2996E+06    -8.94690E+06    -291.070E+03         80.2766
            1079     8.08889E-03     12.8094E-03         6.62016        -1.88473        -1.97652        -1.92891         6.61950        -1.93168    -6.46353E-03     622.706E-03    -307.713E-03    -314.993E-03    -314.920E-03     622.633E-03    -307.713E-03     15.0044E-03    -1.90802E+06    -9.13806E+06    -21.8740E+06    -1.91718E+06    -21.8648E+06    -9.13806E+06    -341.234E+03         77.8130
            1080     7.36015E-03     12.7476E-03         6.66448        -1.91304        -1.99015        -1.94868         6.66403        -1.95405    -61.2887E-03     623.299E-03    -306.860E-03    -316.439E-03    -316.423E-03     623.283E-03    -306.860E-03     4.15126E-03    -1.32234E+06    -7.76832E+06    -20.4154E+06    -1.32963E+06    -20.4081E+06    -7.76832E+06    -59.2487E+03         75.7112
            1081     6.63130E-03     12.6948E-03         6.70731        -1.93975        -2.00204        -1.96865         6.70709        -1.97293     2.83897E-03     622.468E-03    -305.714E-03    -316.754E-03    -316.735E-03     622.449E-03    -305.714E-03    -5.43162E-03    -956.970E+03    -6.13903E+06    -18.6635E+06    -961.362E+03    -18.6591E+06    -6.13903E+06     149.242E+03         73.9961
            1082     5.90339E-03     12.6542E-03         6.74135        -1.96119        -2.00925        -1.98177         6.74066        -1.98797    -92.5571E-03     619.892E-03    -304.344E-03    -315.547E-03    -315.485E-03     619.830E-03    -304.344E-03    -14.0778E-03    -544.681E+03    -4.61266E+06    -16.4635E+06    -545.833E+03    -16.4623E+06    -4.61266E+06     87.2490E+03         72.6469
            1083     5.17360E-03     12.6264E-03         6.77265        -1.98147        -2.01533        -1.99600         6.77061        -1.99877     65.4265E-03     615.905E-03    -302.874E-03    -313.031E-03    -312.917E-03     615.791E-03    -302.874E-03    -20.1957E-03    -221.057E+03    -3.06945E+06    -14.8667E+06    -226.745E+03    -14.8610E+06    -3.06945E+06     61.6410E+03         71.6164
            1084     4.44125E-03     12.6090E-03         6.79232        -1.99613        -2.01857        -2.00089         6.78453        -2.00603    -177.421E-03     611.390E-03    -301.404E-03    -309.986E-03    -309.840E-03     611.244E-03    -301.404E-03    -23.0433E-03     37.5895E+03    -1.53852E+06    -13.8468E+06     27.5869E+03    -13.8368E+06    -1.53852E+06    -18.5489E+03         70.8469
            1085     3.70690E-03     12.5990E-03         6.82171        -2.00458        -2.04119        -2.01619         6.80199        -2.00986     155.501E-03     606.698E-03    -300.003E-03    -306.695E-03    -306.545E-03     606.548E-03    -300.003E-03    -23.3384E-03    -1.51409E+03    -786.292E+03    -13.3589E+06    -13.8721E+03    -13.3465E+06    -786.292E+03     110.680E+03         70.2824
            1086     2.96934E-03     12.5924E-03         6.84461        -2.01117        -2.06141        -2.01280         6.79600        -2.01117    -300.277E-03     602.192E-03    -298.740E-03    -303.453E-03    -303.321E-03     602.061E-03    -298.740E-03    -21.7789E-03    -217.505E+03    -738.815E+03    -13.3054E+06    -257.259E+03    -13.2921E+06    -712.313E+03     276.885E+03         69.8751
            1087     2.22949E-03     12.5918E-03         6.93061        -2.00871        -2.14623        -2.02636         6.81074        -2.00871     450.732E-03     598.198E-03    -297.685E-03    -300.514E-03    -300.417E-03     598.102E-03    -297.685E-03    -18.4740E-03    -508.462E+03    -877.778E+03    -13.4617E+06    -540.562E+03    -13.4561E+06    -851.276E+03     132.566E+03         69.5888
            1088     1.48715E-03     12.5928E-03         7.13626        -2.00906        -2.35052        -1.99547         6.78121        -2.00906    -986.508E-03     595.108E-03    -296.898E-03    -298.210E-03    -298.157E-03     595.055E-03    -296.898E-03    -13.4560E-03    -578.391E+03    -816.079E+03    -13.4748E+06    -582.048E+03    -13.4712E+06    -816.079E+03     80.2876E+03         69.3982
            1089     744.170E-06     12.5928E-03         8.32869        -2.15029        -3.39021        -1.87412         6.81260        -2.15029         3.06186     593.167E-03    -296.208E-03    -296.959E-03    -296.939E-03     593.147E-03    -296.208E-03    -7.90056E-03    -380.857E+03    -729.913E+03    -14.0338E+06    -542.410E+03    -14.0258E+06    -576.382E+03     19.0797E+03         69.2864
            1090     12.5120E-03     11.6239E-03         7.13489        -2.01393        -2.26712        -2.01377         7.13472        -2.26712     10.9613E-03     611.563E-03    -304.211E-03    -307.352E-03    -302.706E-03     610.058E-03    -307.352E-03     72.9335E-03     18.5694E+06    -1.27251E+06    -3.16072E+06    -1.35613E+06     -3.0771E+06     18.5694E+06    -295.650E+03         93.6259
            1091     11.7741E-03     11.4589E-03         7.25646        -2.07247        -2.32295        -2.07235         7.25634        -2.32295     804.603E-06     613.451E-03    -305.452E-03    -307.998E-03    -304.307E-03     611.947E-03    -307.640E-03     73.0734E-03     12.9271E+06    -2.24504E+06    -7.41441E+06    -2.28959E+06    -7.36986E+06     12.9271E+06    -310.084E+03         91.6099
            1092     11.0337E-03     11.3396E-03         7.38234        -2.13583        -2.37809        -2.13566         7.38218        -2.37809    -10.7278E-03     615.861E-03    -306.298E-03    -309.564E-03    -307.217E-03     614.991E-03    -307.774E-03     56.5482E-03     4.98882E+06    -3.22904E+06    -13.7648E+06    -3.24582E+06    -13.7481E+06     4.98882E+06    -406.585E+03         89.0985
            1093     10.2981E-03     11.2180E-03         7.50616        -2.19806        -2.43023        -2.19783         7.50593        -2.43023     5.75629E-03     619.371E-03    -307.223E-03    -312.148E-03    -311.127E-03     618.771E-03    -307.644E-03     46.7219E-03    -1.11423E+06    -4.48419E+06    -18.9587E+06    -3.29157E+06    -18.9476E+06    -2.31796E+06    -315.824E+03         86.2794
            1094     9.56675E-03     11.1119E-03         7.62869        -2.26052        -2.48027        -2.26016         7.62833        -2.48027    -14.2723E-03     622.719E-03    -307.166E-03    -315.553E-03    -315.250E-03     622.416E-03    -307.166E-03     32.7746E-03    -3.02585E+06    -7.52627E+06    -22.4183E+06    -3.03158E+06    -22.4125E+06    -7.52627E+06    -260.695E+03         83.3703
            1095     8.83687E-03     11.0219E-03         7.74651        -2.32477        -2.52653        -2.32449         7.74623        -2.52653    -37.8140E-03     624.792E-03    -306.292E-03    -318.500E-03    -318.389E-03     624.681E-03    -306.292E-03     18.6065E-03    -2.48265E+06    -9.98250E+06    -23.3681E+06    -2.49386E+06    -23.3569E+06    -9.98250E+06    -446.091E+03         80.5693
            1096     8.11068E-03     10.9429E-03         7.85787        -2.39028        -2.56827        -2.39018         7.85777        -2.56827     6.95309E-03     624.678E-03    -305.058E-03    -319.620E-03    -319.592E-03     624.650E-03    -305.058E-03     5.41986E-03    -1.70254E+06    -9.80734E+06    -22.6024E+06    -1.70944E+06    -22.5955E+06    -9.80734E+06    -294.818E+03         78.0251
            1097     7.38433E-03     10.8797E-03         7.95946        -2.45314        -2.60485        -2.45292         7.95924        -2.60485    -72.3655E-03     622.944E-03    -303.530E-03    -319.414E-03    -319.397E-03     622.927E-03    -303.530E-03    -5.03134E-03    -976.959E+03    -8.11613E+06    -21.2942E+06    -980.507E+03    -21.2906E+06    -8.11613E+06     88.0046E+03         75.8261
            1098     6.65925E-03     10.8303E-03         8.05274        -2.51259        -2.63569        -2.51216         8.05231        -2.63569     15.3766E-03     619.718E-03    -301.766E-03    -317.952E-03    -317.901E-03     619.667E-03    -301.766E-03    -12.8718E-03    -241.295E+03    -6.13392E+06    -18.9488E+06    -247.443E+03    -18.9427E+06    -6.13392E+06     289.184E+03         74.0050
            1099     5.93150E-03     10.7964E-03         8.12954        -2.56051        -2.66029        -2.55864         8.12766        -2.66029    -114.993E-03     614.730E-03    -299.876E-03    -314.854E-03    -314.749E-03     614.625E-03    -299.876E-03    -19.4926E-03     296.785E+03    -4.35224E+06    -16.6659E+06     275.748E+03    -16.6449E+06    -4.35224E+06     453.206E+03         72.5502
            1100     5.20067E-03     10.7803E-03         8.19733        -2.60620        -2.67869        -2.60126         8.19239        -2.67869     82.7197E-03     608.872E-03    -297.989E-03    -310.883E-03    -310.738E-03     608.727E-03    -297.989E-03    -23.0586E-03     475.969E+03    -3.04622E+06    -15.1362E+06     432.180E+03    -15.0924E+06    -3.04622E+06     695.459E+03         71.4216
            1101     4.46652E-03     10.7720E-03         8.25068        -2.64480        -2.69219        -2.63095         8.23683        -2.69219    -211.279E-03     603.016E-03    -296.171E-03    -306.846E-03    -306.687E-03     602.858E-03    -296.171E-03    -23.9529E-03     552.967E+03    -2.05714E+06    -14.0717E+06     491.827E+03    -14.0106E+06    -2.05714E+06     810.823E+03         70.5666
            1102     3.72875E-03     10.7727E-03         8.30914        -2.68000        -2.71842        -2.66601         8.27783        -2.70110     198.424E-03     597.189E-03    -294.468E-03    -302.720E-03    -302.570E-03     597.038E-03    -294.468E-03    -23.2227E-03     370.852E+03    -1.27805E+06    -13.5758E+06     307.055E+03    -13.5120E+06    -1.27805E+06     839.907E+03         69.9311
            1103     2.98797E-03     10.7764E-03         8.36702        -2.70625        -2.75399        -2.68173         8.29476        -2.70625    -389.165E-03     591.554E-03    -292.965E-03    -298.589E-03    -298.463E-03     591.428E-03    -292.965E-03    -21.0804E-03     193.068E+03    -758.927E+03    -12.9778E+06     149.914E+03    -12.9347E+06    -758.927E+03     733.571E+03         69.4674
            1104     2.24377E-03     10.7841E-03         8.49482        -2.70704        -2.88078        -2.70638         8.32042        -2.70704     603.948E-03     586.875E-03    -291.724E-03    -295.152E-03    -295.061E-03     586.785E-03    -291.724E-03    -17.6907E-03     336.040E+03    -215.383E+03    -12.6623E+06     308.184E+03    -12.6344E+06    -215.383E+03     533.974E+03         69.1385
            1105     1.49791E-03     10.7908E-03         8.81392        -2.70803        -3.19439        -2.69435         8.31389        -2.70803        -1.29517     583.218E-03    -290.765E-03    -292.453E-03    -292.404E-03     583.168E-03    -290.765E-03    -12.7808E-03     499.893E+03     250.271E+03    -12.9150E+06     480.973E+03    -12.8962E+06     250.438E+03     235.465E+03         68.9182
            1106     749.421E-06     10.7964E-03         10.4149        -2.80241        -4.69473        -2.61655         8.33669        -2.80241         4.03321     580.742E-03    -290.009E-03    -290.733E-03    -290.458E-03     580.725E-03    -290.267E-03    -7.03170E-03     795.204E+03     470.451E+03    -13.5970E+06     628.073E+03    -13.5877E+06     628.280E+03    -95.1923E+03         68.7884
            1107     12.5174E-03     9.78841E-03         7.90918        -2.15724        -2.76839        -2.15719         7.90913        -2.76839     26.1956E-03     616.103E-03    -306.520E-03    -309.583E-03    -307.263E-03     614.557E-03    -307.294E-03     73.8104E-03     18.6741E+06    -740.535E+03    -3.05478E+06    -829.430E+03    -2.96588E+06     18.6741E+06    -289.718E+03         94.1319
            1108     11.7748E-03     9.61529E-03         8.10149        -2.26824        -2.84331        -2.26820         8.10145        -2.84331     18.3922E-03     619.105E-03    -306.851E-03    -312.254E-03    -310.328E-03     617.570E-03    -307.243E-03     73.5652E-03     12.3496E+06    -1.91804E+06    -7.56321E+06    -1.92960E+06    -7.55164E+06     12.3496E+06    -69.1318E+03         92.1085
            1109     11.0427E-03     9.48439E-03         8.29771        -2.38156        -2.91745        -2.38152         8.29766        -2.91745     10.9674E-03     622.038E-03    -306.898E-03    -315.140E-03    -314.386E-03     621.284E-03    -306.898E-03     52.8066E-03     4.65110E+06    -2.35866E+06    -13.4690E+06    -2.37371E+06    -13.4540E+06     4.65110E+06    -165.023E+03         89.5764
            1110     10.3130E-03     9.35938E-03         8.49219        -2.49539        -2.98780        -2.49532         8.49212        -2.98780     21.3750E-03     625.626E-03    -306.143E-03    -319.483E-03    -319.029E-03     625.172E-03    -306.143E-03     40.1212E-03    -1.12493E+06    -4.16986E+06    -19.2180E+06    -2.80490E+06    -19.2030E+06    -2.50494E+06    -398.674E+03         86.7178
            1111     9.58514E-03     9.24453E-03         8.68364        -2.61007        -3.05462        -2.60998         8.68355        -3.05462     7.88503E-03     627.958E-03    -304.916E-03    -323.042E-03    -322.871E-03     627.787E-03    -304.916E-03     22.0747E-03    -2.64209E+06    -7.65468E+06    -22.8033E+06    -2.65599E+06    -22.7894E+06    -7.65468E+06    -501.411E+03         83.7471
            1112     8.86358E-03     9.14794E-03         8.86468        -2.72379        -3.11518        -2.72373         8.86462        -3.11518    -33.8532E-03     626.946E-03    -303.280E-03    -323.667E-03    -323.626E-03     626.905E-03    -303.280E-03     5.24366E-03    -1.95206E+06    -10.0214E+06    -23.7581E+06    -1.96032E+06    -23.7499E+06    -10.0214E+06    -261.291E+03         80.8582
            1113     8.14160E-03     9.07330E-03         9.03058        -2.83270        -3.16849        -2.83266         9.03054        -3.16849     9.70492E-03     622.761E-03    -301.425E-03    -321.337E-03    -321.318E-03     622.743E-03    -301.425E-03    -5.29221E-03    -1.41177E+06    -10.2439E+06    -23.2789E+06    -1.41643E+06    -23.2743E+06    -10.2439E+06     83.6123E+03         78.2015
            1114     7.41778E-03     9.01703E-03         9.17839        -2.93162        -3.21499        -2.93118         9.17795        -3.21499    -80.5812E-03     617.906E-03    -299.480E-03    -318.426E-03    -318.397E-03     617.878E-03    -299.480E-03    -10.0932E-03    -813.961E+03    -9.05960E+06    -21.8439E+06    -819.477E+03    -21.8384E+06    -9.05960E+06     235.117E+03         75.8768
            1115     6.68990E-03     8.97413E-03         9.30983        -3.02188        -3.25447        -3.02097         9.30892        -3.25447     9.10881E-03     612.559E-03    -297.487E-03    -315.072E-03    -315.009E-03     612.496E-03    -297.487E-03    -14.8872E-03    -186.355E+03    -7.11332E+06    -19.7744E+06    -212.990E+03    -19.7477E+06    -7.11332E+06     545.657E+03         73.9317
            1116     5.95903E-03     8.95418E-03         9.41962        -3.09734        -3.28629        -3.09457         9.41685        -3.28629    -129.436E-03     606.029E-03    -295.537E-03    -310.493E-03    -310.392E-03     605.928E-03    -295.537E-03    -19.1141E-03     255.035E+03    -5.07931E+06    -17.2890E+06     175.901E+03    -17.2099E+06    -5.07931E+06     1.07418E+06         72.3658
            1117     5.22419E-03     8.94799E-03         9.51453        -3.16510        -3.31135        -3.15886         9.50828        -3.31135     78.0099E-03     599.641E-03    -293.721E-03    -305.920E-03    -305.812E-03     599.533E-03    -293.721E-03    -19.5197E-03     617.036E+03    -3.12322E+06    -15.2186E+06     504.341E+03    -15.1059E+06    -3.12322E+06     1.31599E+06         71.1452
            1118     4.48608E-03     8.95291E-03         9.59658        -3.22918        -3.33108        -3.21354         9.58094        -3.33108    -229.820E-03     593.965E-03    -292.034E-03    -301.932E-03    -301.833E-03     593.867E-03    -292.034E-03    -18.2782E-03     689.753E+03    -1.72157E+06    -14.0942E+06     577.121E+03    -13.9815E+06    -1.72157E+06     1.27696E+06         70.2192
            1119     3.74509E-03     8.96274E-03         9.67711        -3.29465        -3.34977        -3.26483         9.64324        -3.34573     211.488E-03     588.557E-03    -290.466E-03    -298.091E-03    -298.004E-03     588.470E-03    -290.466E-03    -16.9769E-03     946.437E+03    -786.871E+03    -12.7500E+06     855.499E+03    -12.6591E+06    -786.871E+03     1.10286E+06         69.5322
            1120     3.00057E-03     8.97955E-03         9.76417        -3.34630        -3.38754        -3.30088         9.68724        -3.35603    -437.619E-03     583.431E-03    -289.073E-03    -294.358E-03    -294.288E-03     583.361E-03    -289.073E-03    -15.0493E-03     1.12989E+06    -117.478E+03    -12.2014E+06     1.07351E+06    -12.1450E+06    -117.478E+03     855.819E+03         69.0332
            1121     2.25330E-03     8.99410E-03         9.91316        -3.36231        -3.52177        -3.33547         9.72686        -3.36231     678.158E-03     579.046E-03    -287.905E-03    -291.141E-03    -291.093E-03     578.998E-03    -287.905E-03    -12.3246E-03     1.14636E+06     289.740E+03    -12.0224E+06     1.09141E+06    -11.9674E+06     289.740E+03     834.625E+03         68.6813
            1122     1.50336E-03     9.00885E-03         10.2769        -3.36629        -3.88152        -3.34955         9.74497        -3.36629        -1.45430     575.607E-03    -286.991E-03    -288.617E-03    -288.589E-03     575.580E-03    -286.991E-03    -9.31503E-03     1.31893E+06     634.030E+03    -11.8743E+06     1.27008E+06    -11.8256E+06     634.196E+03     563.516E+03         68.4471
            1123     751.951E-06     9.01903E-03         12.0043        -3.41649        -5.55323        -3.31713         9.76821        -3.41649         4.51557     573.231E-03    -286.181E-03    -287.050E-03    -286.782E-03     573.221E-03    -286.439E-03    -5.30038E-03     1.68590E+06     1.24399E+06    -12.8059E+06     1.49683E+06    -12.7746E+06     1.40181E+06     368.006E+03         68.3099
            1124     12.5105E-03     7.93895E-03         8.61174        -2.28469        -3.22793        -2.28459         8.61163        -3.22793     56.3330E-03     623.821E-03    -307.163E-03    -316.658E-03    -315.179E-03     622.341E-03    -307.163E-03     72.4214E-03     17.7456E+06    -1.03282E+06    -3.08454E+06    -1.18470E+06    -2.93265E+06     17.7456E+06    -273.638E+03         94.7068
            1125     11.7860E-03     7.75247E-03         8.87013        -2.44629        -3.31819        -2.44619         8.87003        -3.31819     55.7134E-03     628.824E-03    -306.522E-03    -322.302E-03    -320.872E-03     627.394E-03    -306.522E-03     71.1093E-03     12.6098E+06    -2.01719E+06    -7.50778E+06    -2.11099E+06    -7.41399E+06     12.6098E+06    -420.906E+03         92.6747
            1126     11.0586E-03     7.62159E-03         9.13361        -2.61102        -3.40667        -2.61096         9.13355        -3.40667     44.7174E-03     632.591E-03    -305.346E-03    -327.245E-03    -326.705E-03     632.051E-03    -305.346E-03     44.1683E-03     5.05715E+06    -2.39509E+06    -13.5069E+06    -2.49714E+06    -13.4049E+06     5.05715E+06    -562.246E+03         90.1189
            1127     10.3360E-03     7.48337E-03         9.39046        -2.77170        -3.48941        -2.77165         9.39041        -3.48941     36.0486E-03     634.127E-03    -303.592E-03    -330.535E-03    -330.313E-03     633.904E-03    -303.592E-03     24.3986E-03    -1.00308E+06    -4.41204E+06    -19.0636E+06    -2.72203E+06    -19.0343E+06    -2.72234E+06    -441.238E+03         87.2141
            1128     9.62165E-03     7.36396E-03         9.63418        -2.92734        -3.56629        -2.92733         9.63417        -3.56629     9.75895E-03     630.257E-03    -301.461E-03    -328.796E-03    -328.750E-03     630.211E-03    -301.461E-03     4.95424E-03    -2.49986E+06    -7.93630E+06    -23.1381E+06    -2.50938E+06    -23.1286E+06    -7.93630E+06    -350.528E+03         84.1618
            1129     8.90321E-03     7.27405E-03         9.85796        -3.07666        -3.63491        -3.07658         9.85788        -3.63491    -43.7602E-03     622.445E-03    -299.282E-03    -323.163E-03    -323.134E-03     622.416E-03    -299.282E-03    -7.85778E-03    -2.06739E+06    -10.4863E+06    -24.8718E+06    -2.07121E+06    -24.8680E+06    -10.4863E+06    -64.6630E+03         81.1513
            1130     8.17848E-03     7.21576E-03         10.0601        -3.21715        -3.69527        -3.21703         10.0600        -3.69527    -11.7015E-03     614.398E-03    -297.269E-03    -317.130E-03    -317.094E-03     614.362E-03    -297.269E-03    -11.1790E-03    -1.48929E+06    -10.9579E+06    -24.0027E+06    -1.51102E+06    -23.9809E+06    -10.9579E+06     529.798E+03         78.3490
            1131     7.44787E-03     7.16844E-03         10.2428        -3.34535        -3.74883        -3.34474         10.2422        -3.74883    -93.5500E-03     608.000E-03    -295.422E-03    -312.577E-03    -312.548E-03     607.970E-03    -295.422E-03    -10.2801E-03    -910.916E+03    -9.46187E+06    -22.4229E+06    -949.542E+03    -22.3843E+06    -9.46187E+06     835.879E+03         75.8792
            1132     6.71609E-03     7.13564E-03         10.4059        -3.46036        -3.79517        -3.45935         10.4049        -3.79517    -15.4304E-03     601.368E-03    -293.740E-03    -307.628E-03    -307.582E-03     601.321E-03    -293.740E-03    -12.6697E-03    -271.175E+03    -7.00412E+06    -20.5184E+06    -328.124E+03    -20.4615E+06    -7.00412E+06     1.01960E+06         73.8062
            1133     5.97977E-03     7.12986E-03         10.5472        -3.56286        -3.83349        -3.56023         10.5445        -3.83349    -138.637E-03     594.830E-03    -292.303E-03    -302.527E-03    -302.475E-03     594.778E-03    -292.303E-03    -12.8160E-03     425.526E+03    -4.71774E+06    -17.6275E+06     332.757E+03    -17.5348E+06    -4.71774E+06     1.26503E+06         72.1388
            1134     5.23901E-03     7.13603E-03         10.6675        -3.65446        -3.86497        -3.64902         10.6621        -3.86497     55.4527E-03     589.902E-03    -291.107E-03    -298.795E-03    -298.755E-03     589.863E-03    -291.107E-03    -9.81715E-03     1.07740E+06    -2.60575E+06    -14.9818E+06     946.095E+03    -14.8505E+06    -2.60575E+06     1.41878E+06         70.8467
            1135     4.49561E-03     7.14836E-03         10.7768        -3.74276        -3.89052        -3.72950         10.7636        -3.89052    -234.027E-03     586.054E-03    -290.063E-03    -295.991E-03    -295.963E-03     586.026E-03    -290.063E-03    -7.57028E-03     1.56411E+06    -789.803E+03    -13.2141E+06     1.43532E+06    -13.0853E+06    -789.803E+03     1.36425E+06         69.8767
            1136     3.75001E-03     7.16847E-03         10.8739        -3.82344        -3.91045        -3.79487         10.8454        -3.91045     197.898E-03     582.722E-03    -289.118E-03    -293.604E-03    -293.582E-03     582.700E-03    -289.118E-03    -6.34014E-03     1.69591E+06     109.872E+03    -11.9282E+06     1.58969E+06    -11.8220E+06     109.872E+03     1.18272E+06         69.1675
            1137     3.00302E-03     7.19164E-03         10.9801        -3.89532        -3.94631        -3.85027         10.9140        -3.92523    -450.783E-03     579.776E-03    -288.261E-03    -291.515E-03    -291.498E-03     579.759E-03    -288.261E-03    -5.29446E-03     1.70641E+06     589.078E+03    -11.6519E+06     1.58235E+06    -11.5278E+06     589.078E+03     1.22339E+06         68.6616
            1138     2.25420E-03     7.21528E-03         11.1264        -3.93640        -4.05213        -3.88809         10.9623        -3.93640     683.624E-03     577.031E-03    -287.519E-03    -289.513E-03    -289.502E-03     577.020E-03    -287.519E-03    -4.19397E-03     1.80535E+06     993.769E+03    -11.1109E+06     1.70414E+06    -11.0097E+06     993.769E+03     1.07386E+06         68.3116
            1139     1.50411E-03     7.23349E-03         11.4808        -3.94374        -4.40161        -3.92441         11.0036        -3.94374        -1.48681     574.893E-03    -286.919E-03    -287.973E-03    -287.965E-03     574.884E-03    -286.919E-03    -3.22270E-03     1.97773E+06     1.27812E+06    -10.5281E+06     1.93190E+06    -10.4823E+06     1.27812E+06     703.918E+03         68.0827
            1140     752.966E-06     7.24935E-03         13.1037        -3.95380        -6.01671        -3.93457         11.0215        -3.95380         4.58645     573.319E-03    -286.090E-03    -287.229E-03    -287.225E-03     573.315E-03    -286.090E-03    -2.18518E-03     2.40325E+06     1.86514E+06    -11.7346E+06     2.13135E+06    -11.7031E+06     2.10557E+06     453.687E+03         67.9505
            1141     12.5226E-03     6.07044E-03         9.22336        -2.40724        -3.62204        -2.40675         9.22287        -3.62204     126.217E-03     639.930E-03    -306.880E-03    -333.050E-03    -331.593E-03     638.473E-03    -306.880E-03     73.9893E-03     16.4715E+06    -1.45221E+06    -3.08236E+06    -1.89732E+06    -2.63725E+06     16.4715E+06    -348.149E+03         95.3624
            1142     11.7953E-03     5.87617E-03         9.55149        -2.62069        -3.72078        -2.62023         9.55103        -3.72078     114.711E-03     646.636E-03    -305.101E-03    -341.535E-03    -340.404E-03     645.505E-03    -305.101E-03     59.0496E-03     11.7664E+06    -2.32137E+06    -7.67771E+06    -2.56800E+06    -7.43108E+06     11.7664E+06    -895.951E+03         93.3431
            1143     11.0845E-03     5.72397E-03         9.86742        -2.82232        -3.81489        -2.82225         9.86734        -3.81489     57.3813E-03     644.777E-03    -302.644E-03    -342.133E-03    -341.910E-03     644.554E-03    -302.644E-03     22.5054E-03     4.96477E+06    -2.66171E+06    -13.7225E+06    -2.77149E+06    -13.6127E+06     4.96477E+06    -887.151E+03         90.7821
            1144     10.3826E-03     5.58627E-03         10.1547        -3.00687        -3.90144        -3.00679         10.1546        -3.90144     21.6959E-03     636.623E-03    -299.890E-03    -336.733E-03    -336.687E-03     636.577E-03    -299.890E-03     5.91501E-03    -795.690E+03    -4.12420E+06    -19.2508E+06    -2.88061E+06    -19.2227E+06    -2.06741E+06    -483.766E+03         87.8269
            1145     9.66802E-03     5.48861E-03         10.4175        -3.18102        -3.98126        -3.18099         10.4174        -3.98126    -19.4668E-03     624.039E-03    -297.293E-03    -326.746E-03    -326.735E-03     624.029E-03    -297.293E-03    -4.96440E-03    -2.67459E+06    -7.52475E+06    -23.3318E+06    -2.68038E+06    -23.3260E+06    -7.52475E+06    -36.5560E+03         84.6670
            1146     8.94378E-03     5.41843E-03         10.6596        -3.34985        -4.05345        -3.34969         10.6594        -4.05345    -68.1100E-03     611.369E-03    -295.158E-03    -316.211E-03    -316.177E-03     611.334E-03    -295.158E-03    -10.8713E-03    -2.33356E+06    -10.2676E+06    -25.6785E+06    -2.34696E+06    -25.6651E+06    -10.2676E+06     331.293E+03         81.5083
            1147     8.21081E-03     5.38209E-03         10.8840        -3.51147        -4.11899        -3.51129         10.8838        -4.11899    -46.2657E-03     602.226E-03    -293.494E-03    -308.733E-03    -308.701E-03     602.195E-03    -293.494E-03    -7.67655E-03    -1.64973E+06    -10.4972E+06    -24.9745E+06    -1.68018E+06    -24.9440E+06    -10.4972E+06     706.184E+03         78.5489
            1148     7.47622E-03     5.33726E-03         11.0947        -3.66436        -4.17888        -3.66383         11.0941        -4.17888    -102.664E-03     595.312E-03    -292.187E-03    -303.125E-03    -303.109E-03     595.296E-03    -292.187E-03    -4.40107E-03    -756.176E+03    -8.93035E+06    -22.7772E+06    -808.685E+03    -22.7246E+06    -8.93035E+06     1.01815E+06         75.9377
            1149     6.73504E-03     5.32511E-03         11.2867        -3.80415        -4.23181        -3.80339         11.2859        -4.23181    -39.6021E-03     588.251E-03    -290.776E-03    -297.476E-03    -296.947E-03     588.233E-03    -291.286E-03    -5.89824E-03    -113.644E+03    -6.35555E+06    -20.4389E+06    -179.773E+03    -20.3728E+06    -6.35555E+06     1.15554E+06         73.7512
            1150     5.98778E-03     5.32772E-03         11.4604        -3.93585        -4.27705        -3.93404         11.4586        -4.27705    -134.803E-03     583.563E-03    -289.464E-03    -294.099E-03    -292.720E-03     583.551E-03    -290.831E-03    -2.55999E-03     513.776E+03    -3.88773E+06    -17.5676E+06     454.421E+03    -17.5083E+06    -3.88773E+06     1.02763E+06         72.0050
            1151     5.24009E-03     5.34022E-03         11.6095        -4.05379        -4.31545        -4.05021         11.6059        -4.31545     28.7040E-03     581.851E-03    -288.925E-03    -292.926E-03    -291.189E-03     581.842E-03    -290.653E-03     1.48656E-03     1.21399E+06    -2.29614E+06    -15.0273E+06     1.13177E+06    -14.9451E+06    -2.29614E+06     1.09318E+06         70.6700
            1152     4.49178E-03     5.35664E-03         11.7463        -4.16543        -4.34681        -4.15660         11.7375        -4.34681    -214.909E-03     581.062E-03    -288.855E-03    -292.207E-03    -290.450E-03     581.052E-03    -290.602E-03     3.48729E-03     1.92960E+06    -1.06713E+06    -12.7218E+06     1.79406E+06    -12.5863E+06    -1.06713E+06     1.36573E+06         69.6868
            1153     3.74322E-03     5.38084E-03         11.8579        -4.25520        -4.37158        -4.23579         11.8385        -4.37158     168.233E-03     580.821E-03    -289.038E-03    -291.783E-03    -290.178E-03     580.811E-03    -290.632E-03     4.12083E-03     2.48444E+06     616.646E+03    -11.3693E+06     2.34096E+06    -11.2258E+06     616.646E+03     1.39156E+06         68.9849
            1154     2.99434E-03     5.40596E-03         11.9746        -4.34136        -4.40227        -4.30679         11.9280        -4.39018    -417.145E-03     581.025E-03    -289.441E-03    -291.584E-03    -290.327E-03     581.015E-03    -290.688E-03     4.25950E-03     2.88071E+06     2.19793E+06    -10.6434E+06     2.73405E+06    -10.5183E+06     2.21949E+06     1.19066E+06         68.4981
            1155     2.24608E-03     5.43232E-03         12.0997        -4.40500        -4.46630        -4.34582         11.9792        -4.40500     627.487E-03     581.247E-03    -289.976E-03    -291.271E-03    -290.518E-03     581.240E-03    -290.722E-03     3.68972E-03     3.04122E+06     2.80841E+06    -9.78141E+06     2.94074E+06    -9.70248E+06     2.82997E+06     869.556E+03         68.1714
            1156     1.49687E-03     5.45459E-03         12.4003        -4.41362        -4.76105        -4.39915         12.0384        -4.41362        -1.37598     581.313E-03    -290.273E-03    -291.039E-03    -290.542E-03     581.309E-03    -290.767E-03     2.80838E-03     3.05503E+06     2.84377E+06    -9.56246E+06     3.00926E+06    -9.51670E+06     2.84377E+06     699.342E+03         67.9637
            1157     748.162E-06     5.46800E-03         13.6998        -4.38228        -6.10491        -4.44450         12.0394        -4.38228         4.20990     581.578E-03    -290.247E-03    -291.331E-03    -290.949E-03     581.577E-03    -290.628E-03     1.49378E-03     3.52283E+06     3.10512E+06    -10.2450E+06     3.24177E+06    -10.2043E+06     3.34555E+06     499.340E+03         67.8464
            1158     12.5136E-03     4.15691E-03         9.76363        -2.52671        -3.92396        -2.52551         9.76243        -3.92396     228.748E-03     675.322E-03    -306.209E-03    -369.113E-03    -367.938E-03     674.148E-03    -306.209E-03     65.0813E-03     17.4355E+06    -1.02199E+06    -4.13615E+06    -2.43035E+06    -2.72780E+06     17.4355E+06    -889.266E+03         96.2066
            1159     11.8315E-03     3.93795E-03         10.1241        -2.75719        -4.02051        -2.75648         10.1234        -4.02051     126.934E-03     668.204E-03    -302.511E-03    -365.693E-03    -365.187E-03     667.698E-03    -302.511E-03     27.9934E-03     13.4979E+06    -1.14905E+06    -7.38124E+06    -1.63954E+06    -6.89074E+06     13.4979E+06    -1.17748E+06         94.2583
            1160     11.1417E-03     3.80940E-03         10.4325        -2.95992        -4.11147        -2.95988         10.4325        -4.11147     16.4683E-03     647.515E-03    -298.827E-03    -348.688E-03    -348.668E-03     647.496E-03    -298.827E-03    -1.63879E-03     6.54888E+06    -2.19805E+06    -13.2460E+06    -2.22689E+06    -13.2171E+06     6.54888E+06    -299.105E+03         91.7143
            1161     10.4274E-03     3.70330E-03         10.7132        -3.15295        -4.19687        -3.15285         10.7131        -4.19687    -21.4360E-03     627.680E-03    -295.741E-03    -331.939E-03    -331.917E-03     627.658E-03    -295.741E-03    -6.91419E-03    -122.200E+03    -3.30905E+06    -19.2517E+06    -2.95295E+06    -19.2363E+06    -493.702E+03     59.7161E+03         88.6988
            1162     9.70542E-03     3.63121E-03         10.9778        -3.34151        -4.27748        -3.34143         10.9777        -4.27748    -58.8120E-03     610.636E-03    -293.405E-03    -317.231E-03    -317.193E-03     610.598E-03    -293.405E-03    -10.6509E-03    -3.35746E+06    -6.29749E+06    -23.6287E+06    -3.44245E+06    -23.6157E+06    -6.22551E+06     298.567E+03         85.4194
            1163     8.97272E-03     3.59209E-03         11.2321        -3.52867        -4.35267        -3.52848         11.2320        -4.35267    -87.7945E-03     597.841E-03    -291.800E-03    -306.041E-03    -306.008E-03     597.807E-03    -291.800E-03    -10.5560E-03    -3.36748E+06    -9.43980E+06    -25.8293E+06    -3.38203E+06    -25.8148E+06    -9.43980E+06     507.867E+03         82.1162
            1164     8.23354E-03     3.56593E-03         11.4755        -3.70910        -4.42311        -3.70892         11.4753        -4.42311    -70.4157E-03     589.027E-03    -290.571E-03    -298.456E-03    -298.210E-03     589.011E-03    -290.801E-03    -2.10482E-03    -2.50168E+06    -9.89307E+06    -25.2248E+06    -2.51405E+06    -25.2124E+06    -9.89307E+06     374.236E+03         79.0175
            1165     7.48798E-03     3.53469E-03         11.7088        -3.88323        -4.48879        -3.88290         11.7085        -4.48879    -98.0223E-03     582.052E-03    -288.312E-03    -293.740E-03    -291.700E-03     582.048E-03    -290.347E-03     2.11678E-03    -1.57120E+06    -8.94149E+06    -23.2866E+06    -1.59849E+06    -23.2593E+06    -8.94149E+06     596.744E+03         76.2888
            1166     6.73789E-03     3.53708E-03         11.9245        -4.04761        -4.54803        -4.04719         11.9241        -4.54803    -51.2597E-03     577.163E-03    -285.814E-03    -291.348E-03    -286.703E-03     577.159E-03    -290.456E-03     1.51351E-03    -836.924E+03    -7.63120E+06    -20.1345E+06    -882.308E+03    -20.0891E+06    -7.63120E+06     904.598E+03         74.0161
            1167     5.98534E-03     3.54594E-03         12.1248        -4.20471        -4.60017        -4.20378         12.1238        -4.60017    -114.104E-03     575.863E-03    -284.827E-03    -291.036E-03    -284.813E-03     575.849E-03    -291.036E-03     5.95244E-03     92.7201E+03    -5.24924E+06    -17.1542E+06     59.8224E+03    -17.1213E+06    -5.24924E+06     715.470E+03         72.2210
            1168     5.23170E-03     3.55467E-03         12.2993        -4.34213        -4.64557        -4.34037         12.2976        -4.64557     5.25078E-03     577.010E-03    -285.113E-03    -291.897E-03    -285.091E-03     576.988E-03    -291.897E-03     8.42900E-03     913.601E+03    -2.29017E+06    -15.3089E+06     882.037E+03    -15.2774E+06    -2.29017E+06     687.252E+03         70.8712
            1169     4.47939E-03     3.57200E-03         12.4592        -4.47015        -4.68356        -4.46571         12.4548        -4.68356    -169.648E-03     579.255E-03    -286.348E-03    -292.907E-03    -286.322E-03     579.229E-03    -292.907E-03     9.32210E-03     1.55832E+06    -283.137E+03    -12.7933E+06     1.48855E+06    -12.7236E+06    -283.137E+03     862.305E+03         69.8981
            1170     3.72821E-03     3.59144E-03         12.5859        -4.56821        -4.71463        -4.55814         12.5758        -4.71463     123.853E-03     582.286E-03    -288.295E-03    -293.991E-03    -288.269E-03     582.260E-03    -293.991E-03     9.49000E-03     2.28803E+06     899.803E+03    -10.6551E+06     2.20226E+06    -10.5693E+06     899.803E+03     951.248E+03         69.2223
            1171     2.97923E-03     3.61499E-03         12.7114        -4.66682        -4.74220        -4.64500         12.6862        -4.73879    -326.918E-03     585.751E-03    -290.680E-03    -295.071E-03    -290.658E-03     585.728E-03    -295.071E-03     8.88502E-03     2.86276E+06     1.66599E+06    -9.56455E+06     2.78322E+06    -9.50658E+06     1.68755E+06     791.859E+03         68.7690
            1172     2.23160E-03     3.63597E-03         12.8122        -4.74219        -4.77473        -4.69052         12.7444        -4.75853     493.713E-03     589.250E-03    -293.197E-03    -296.052E-03    -293.181E-03     589.233E-03    -296.052E-03     7.54712E-03     3.31156E+06     2.50169E+06    -9.00540E+06     3.24533E+06    -8.96073E+06     2.52325E+06     694.244E+03         68.4762
            1173     1.48735E-03     3.65608E-03         13.0329        -4.75689        -4.98682        -4.76508         12.8217        -4.76743        -1.08853     592.247E-03    -295.399E-03    -296.848E-03    -295.390E-03     592.238E-03    -296.848E-03     5.50390E-03     3.62367E+06     3.17859E+06    -8.68595E+06     3.57494E+06    -8.63722E+06     3.17859E+06     718.238E+03         68.2970
            1174     742.771E-06     3.66942E-03         13.8347        -4.68226        -5.86915        -4.84877         12.8143        -4.68226         3.28973     594.351E-03    -296.630E-03    -297.721E-03    -296.627E-03     594.348E-03    -297.721E-03     2.97263E-03     3.89902E+06     3.57780E+06    -8.83044E+06     3.77735E+06    -8.79082E+06     3.65986E+06     532.554E+03         68.1991
            1175     12.5522E-03     2.11194E-03         10.2598        -2.62443        -4.10978        -2.62328         10.2587        -4.10978     228.337E-03     727.511E-03    -305.674E-03    -421.836E-03    -420.970E-03     726.644E-03    -305.674E-03     58.2870E-03     21.1409E+06     579.261E+03    -4.30267E+06    -624.402E+03    -3.09901E+06     21.1409E+06    -888.333E+03         97.5653
            1176     11.8869E-03     1.98094E-03         10.5138        -2.80385        -4.19679        -2.80346         10.5134        -4.19679     69.0200E-03     683.785E-03    -299.929E-03    -383.855E-03    -383.709E-03     683.638E-03    -299.929E-03     17.0552E-03     16.8662E+06    -1.65606E+06    -7.52291E+06    -2.12201E+06    -7.05696E+06     16.8662E+06    -160.652E+03         95.6989
            1177     11.1831E-03     1.90583E-03         10.7666        -2.99585        -4.28308        -2.99583         10.7666        -4.28308    -20.5725E-03     645.703E-03    -295.526E-03    -350.177E-03    -350.157E-03     645.683E-03    -295.526E-03    -1.93982E-03     9.05839E+06    -3.90660E+06    -13.1324E+06    -4.09945E+06    -12.9396E+06     9.05839E+06     735.025E+03         93.1642
            1178     10.4706E-03     1.84612E-03         11.0308        -3.20316        -4.36789        -3.20310         11.0307        -4.36789    -39.0586E-03     618.089E-03    -292.463E-03    -325.626E-03    -325.605E-03     618.068E-03    -292.463E-03    -7.05527E-03     1.45330E+06    -4.37285E+06    -18.1351E+06    -4.45599E+06    -18.0520E+06     1.45330E+06     831.264E+03         90.0958
            1179     9.73738E-03     1.80662E-03         11.2993        -3.41401        -4.45011        -3.41394         11.2993        -4.45011    -58.0339E-03     598.234E-03    -290.537E-03    -307.697E-03    -307.660E-03     598.197E-03    -290.537E-03    -10.2731E-03    -3.28785E+06    -5.89308E+06    -22.6176E+06    -4.46904E+06    -22.6015E+06    -4.72795E+06     463.801E+03         86.7225
            1180     8.99483E-03     1.78736E-03         11.5682        -3.62174        -4.52854        -3.62163         11.5681        -4.52854    -68.2302E-03     585.952E-03    -289.418E-03    -296.534E-03    -296.409E-03     585.925E-03    -289.517E-03    -8.96433E-03    -4.22758E+06    -8.81978E+06    -25.2642E+06    -4.22992E+06    -25.2619E+06    -8.81978E+06     173.043E+03         83.3102
            1181     8.24612E-03     1.77443E-03         11.8286        -3.81937        -4.60296        -3.81928         11.8285        -4.60296    -56.3431E-03     577.385E-03    -286.565E-03    -290.820E-03    -288.155E-03     577.376E-03    -289.222E-03    -1.54060E-03    -3.71065E+06    -10.6428E+06    -25.2223E+06    -3.71179E+06    -25.2212E+06    -10.6428E+06     77.0411E+03         80.1092
            1182     7.49235E-03     1.75839E-03         12.0782        -4.01084        -4.67285        -4.01071         12.0780        -4.67285    -64.7726E-03     571.305E-03    -281.670E-03    -289.634E-03    -281.668E-03     571.302E-03    -289.634E-03     1.67110E-03    -2.93851E+06    -10.1915E+06    -23.4326E+06    -2.94825E+06    -23.4228E+06    -10.1915E+06     159.783E+03         77.2978
            1183     6.73406E-03     1.76509E-03         12.3093        -4.19316        -4.73688        -4.19302         12.3091        -4.73688    -38.9762E-03     570.021E-03    -279.379E-03    -290.641E-03    -279.375E-03     570.017E-03    -290.641E-03     2.44023E-03    -1.62258E+06    -8.22625E+06    -20.2888E+06    -1.63887E+06    -20.2725E+06    -8.22625E+06     121.927E+03         74.9716
            1184     5.97656E-03     1.77047E-03         12.5238        -4.36476        -4.79422        -4.36446         12.5235        -4.79422    -69.2164E-03     572.058E-03    -280.050E-03    -292.008E-03    -280.035E-03     572.044E-03    -292.008E-03     6.46149E-03    -494.627E+03    -5.85930E+06    -17.4435E+06    -513.622E+03    -17.4245E+06    -5.85930E+06     296.350E+03         73.1545
            1185     5.22086E-03     1.77696E-03         12.7123        -4.51110        -4.84504        -4.51057         12.7118        -4.84504    -6.08587E-03     575.133E-03    -281.512E-03    -293.620E-03    -281.492E-03     575.112E-03    -293.620E-03     7.98609E-03     242.326E+03    -3.25420E+06    -15.1829E+06     225.696E+03    -15.1663E+06    -3.25420E+06     455.816E+03         71.8078
            1186     4.46598E-03     1.78655E-03         12.8861        -4.64345        -4.88928        -4.64207         12.8848        -4.88928    -96.9128E-03     579.527E-03    -284.099E-03    -295.428E-03    -284.078E-03     579.506E-03    -295.428E-03     8.10808E-03     971.405E+03    -1.02312E+06    -12.6209E+06     963.640E+03    -12.6132E+06    -1.02312E+06     279.730E+03         70.8546
            1187     3.71398E-03     1.79868E-03         13.0259        -4.74777        -4.92757        -4.74455         13.0227        -4.92757     65.5737E-03     585.073E-03    -287.752E-03    -297.321E-03    -287.732E-03     585.054E-03    -297.321E-03     7.78153E-03     1.52304E+06     208.961E+03    -10.7431E+06     1.50762E+06    -10.7277E+06     208.961E+03     381.949E+03         70.2088
            1188     2.96489E-03     1.81154E-03         13.1607        -4.85643        -4.95881        -4.84814         13.1524        -4.95881    -181.778E-03     591.119E-03    -291.952E-03    -299.168E-03    -291.937E-03     591.104E-03    -299.168E-03     6.84822E-03     2.16167E+06     1.01418E+06    -9.29388E+06     2.08489E+06    -9.25542E+06     1.05249E+06     621.115E+03         69.7896
            1189     2.21979E-03     1.82470E-03         13.2487        -4.92930        -4.98464        -4.90634         13.2258        -4.98464     274.125E-03     596.989E-03    -296.153E-03    -300.835E-03    -296.143E-03     596.978E-03    -300.835E-03     5.41633E-03     2.68984E+06     1.82450E+06    -8.37558E+06     2.56714E+06    -8.33535E+06     1.90696E+06     602.215E+03         69.5294
            1190     1.47643E-03     1.83483E-03         13.4020        -4.96132        -5.10602        -4.99739         13.3285        -4.99645    -609.863E-03     602.063E-03    -299.893E-03    -302.170E-03    -299.887E-03     602.057E-03    -302.170E-03     3.76245E-03     3.14366E+06     2.74490E+06    -7.56318E+06     3.05753E+06    -7.54450E+06     2.81235E+06     384.442E+03         69.3771
            1191     738.452E-06     1.84206E-03         13.6951        -4.86993        -5.49169        -5.12050         13.3239        -4.86993         1.83364     605.448E-03    -302.109E-03    -303.339E-03    -302.107E-03     605.446E-03    -303.339E-03     2.02235E-03     2.91139E+06     2.70889E+06    -7.90152E+06     2.79736E+06    -7.89285E+06     2.81425E+06     216.434E+03         69.2971
            1192     741.786E-06     102.606E-03         5.30114     99.1534E-03        -6.09644     265.590E-03        -1.06090     99.1534E-03         4.65374     597.945E-03    -298.740E-03    -299.205E-03    -299.171E-03     597.944E-03    -298.773E-03    -1.61261E-03    -74.1687E+06    -76.9886E+06    -84.7056E+06    -77.8583E+06    -81.0318E+06    -76.9728E+06     3.46207E+06         68.0199
            1193     1.48373E-03     102.601E-03         2.21105     173.761E-03        -3.08872     145.130E-03        -1.02280     173.761E-03        -1.53334     598.097E-03    -298.952E-03    -299.145E-03    -299.080E-03     598.095E-03    -299.015E-03    -2.82920E-03    -68.2698E+06    -71.7878E+06    -81.8468E+06    -76.6943E+06    -73.4223E+06    -71.7878E+06     5.75020E+06         68.0431
            1194     2.22547E-03     102.595E-03         1.12321     165.988E-03        -2.00181     173.014E-03        -1.05161     165.988E-03     770.103E-03     598.119E-03    -298.974E-03    -299.145E-03    -299.039E-03     598.115E-03    -299.076E-03    -3.53522E-03    -61.1146E+06    -63.9427E+06    -78.1978E+06    -74.5321E+06    -65.2222E+06    -63.5009E+06     6.74014E+06         68.0854
            1195     2.96693E-03     102.589E-03     600.996E-03     165.499E-03        -1.47545     167.396E-03        -1.04185     165.499E-03    -451.137E-03     598.009E-03    -298.884E-03    -299.125E-03    -298.893E-03     598.006E-03    -299.112E-03    -3.37705E-03    -52.8724E+06    -56.0810E+06    -74.4377E+06    -71.4426E+06    -58.5940E+06    -53.3546E+06     6.82743E+06         68.1557
            1196     3.70924E-03     102.583E-03     350.784E-03     166.403E-03        -1.22192     189.032E-03        -1.06016     166.403E-03     263.553E-03     597.917E-03    -298.787E-03    -299.130E-03    -298.786E-03     597.916E-03    -299.130E-03    -2.21535E-03    -42.2203E+06    -49.5204E+06    -69.9484E+06    -67.3903E+06    -52.0786E+06    -42.2203E+06     6.74424E+06         68.2712
            1197     4.45134E-03     102.580E-03     247.467E-03     170.356E-03        -1.11876     199.961E-03        -1.07125     170.356E-03    -182.423E-03     597.930E-03    -298.780E-03    -299.150E-03    -298.780E-03     597.930E-03    -299.150E-03    -249.085E-06    -30.2211E+06    -42.3225E+06    -64.9634E+06    -62.6862E+06    -44.5997E+06    -30.2211E+06     6.78858E+06         68.4627
            1198     5.19332E-03     102.581E-03     224.527E-03     176.354E-03        -1.10386     218.492E-03        -1.09783     176.354E-03     100.821E-03     597.937E-03    -298.758E-03    -299.179E-03    -298.755E-03     597.934E-03    -299.179E-03     2.52232E-03    -17.9391E+06    -35.5994E+06    -59.6854E+06    -57.5971E+06    -37.6877E+06    -17.9391E+06     6.77402E+06         68.7817
            1199     5.93516E-03     102.589E-03     236.767E-03     184.660E-03        -1.12848     234.194E-03        -1.12591     184.660E-03    -87.3506E-03     597.855E-03    -298.648E-03    -299.207E-03    -298.637E-03     597.843E-03    -299.207E-03     6.10951E-03    -5.48528E+06    -29.3274E+06    -54.1901E+06    -52.3147E+06    -31.2027E+06    -5.48528E+06     6.54755E+06         69.3079
            1200     6.67724E-03     102.602E-03     266.578E-03     195.427E-03        -1.17086     259.146E-03        -1.16342     195.427E-03     39.6324E-03     597.831E-03    -298.602E-03    -299.229E-03    -298.570E-03     597.799E-03    -299.229E-03     10.4567E-03     6.62636E+06    -23.6806E+06    -48.5362E+06    -46.9003E+06    -25.3165E+06     6.62636E+06     6.16304E+06         70.1530
            1201     7.41956E-03     102.625E-03     301.091E-03     209.165E-03        -1.21679     287.266E-03        -1.20297     209.165E-03    -46.2268E-03     597.950E-03    -298.699E-03    -299.251E-03    -298.628E-03     597.880E-03    -299.251E-03     15.6721E-03     17.2133E+06    -19.5546E+06    -42.7824E+06    -41.2623E+06    -21.0747E+06     17.2133E+06     5.74073E+06         71.4545
            1202     8.16172E-03     102.656E-03     337.743E-03     225.994E-03        -1.26589     319.670E-03        -1.24782     225.994E-03     10.4287E-03     598.058E-03    -298.789E-03    -299.269E-03    -298.657E-03     597.926E-03    -299.269E-03     21.5742E-03     24.8998E+06    -16.7411E+06    -37.0364E+06    -35.6501E+06    -18.1273E+06     24.8998E+06     5.10739E+06         73.3530
            1203     8.90389E-03     102.698E-03     369.777E-03     245.724E-03        -1.31542     348.682E-03        -1.29432     245.724E-03    -29.8868E-03     598.137E-03    -298.860E-03    -299.276E-03    -298.639E-03     597.915E-03    -299.276E-03     27.9790E-03     29.3526E+06    -15.5093E+06    -31.8033E+06    -30.5680E+06    -16.7446E+06     29.3526E+06     4.30286E+06         75.9477
            1204     9.64625E-03     102.753E-03     396.860E-03     267.936E-03        -1.36622     374.487E-03        -1.34385     267.936E-03    -6.27883E-03     598.208E-03    -298.935E-03    -299.273E-03    -298.585E-03     597.858E-03    -299.273E-03     35.2092E-03     32.3058E+06    -13.6392E+06    -27.1262E+06    -25.9895E+06    -14.7759E+06     32.3058E+06     3.73909E+06         79.2354
            1205     10.3888E-03     102.821E-03     422.124E-03     291.250E-03        -1.41728     397.984E-03        -1.39436     292.469E-03    -22.4828E-03     598.318E-03    -299.040E-03    -299.278E-03    -298.507E-03     597.777E-03    -299.270E-03     43.8076E-03     37.8137E+06    -8.44729E+06    -22.5438E+06    -21.6734E+06    -9.31769E+06     37.8137E+06     3.28757E+06         83.0530
            1206     11.1316E-03     102.904E-03     452.810E-03     311.960E-03        -1.46880     422.996E-03        -1.44613     319.104E-03    -14.4845E-03     598.432E-03    -299.137E-03    -299.295E-03    -298.384E-03     597.670E-03    -299.286E-03     52.1414E-03     51.6004E+06     2.51934E+06    -17.5878E+06    -17.1471E+06     2.07858E+06     51.6004E+06     2.74530E+06         87.0555
            1207     11.8750E-03     103.000E-03     487.003E-03     331.533E-03        -1.51924     447.968E-03        -1.49723     348.559E-03    -18.4728E-03     598.936E-03    -299.252E-03    -299.684E-03    -298.374E-03     597.700E-03    -299.326E-03     65.8312E-03     76.9103E+06     21.8486E+06    -12.1220E+06    -11.9614E+06     21.6881E+06     76.9103E+06     2.08375E+06         90.7622
            1208     12.6190E-03     103.132E-03     520.813E-03     349.909E-03        -1.56706     469.680E-03        -1.54612     380.104E-03    -21.5139E-03     599.091E-03    -299.332E-03    -299.759E-03    -298.255E-03     597.617E-03    -299.362E-03     72.6594E-03     107.630E+06     45.2630E+06    -6.34512E+06    -6.30746E+06     45.2253E+06     107.630E+06     1.14451E+06         93.6764
            1209     742.472E-06     104.424E-03         6.35776     583.534E-03        -7.62074     895.722E-03        -2.15870     583.534E-03         5.58171     597.444E-03    -298.455E-03    -298.989E-03    -298.660E-03     597.443E-03    -298.782E-03    -1.85880E-03    -79.0400E+06    -79.8452E+06    -97.4022E+06    -80.6444E+06    -96.2720E+06    -79.3711E+06     3.81506E+06         67.9769
            1210     1.48410E-03     104.421E-03         2.72301     735.148E-03        -4.14520     722.265E-03        -2.14445     735.148E-03        -1.84175     597.589E-03    -298.706E-03    -298.883E-03    -298.834E-03     597.587E-03    -298.753E-03    -2.72321E-03    -74.0973E+06    -76.1637E+06    -91.5651E+06    -79.1569E+06    -86.6086E+06    -76.0606E+06     6.57098E+06         67.9996
            1211     2.22579E-03     104.415E-03         1.54122     728.963E-03        -2.96301     721.940E-03        -2.14373     728.963E-03     922.823E-03     597.481E-03    -298.637E-03    -298.844E-03    -298.690E-03     597.478E-03    -298.788E-03    -3.27911E-03    -65.7440E+06    -69.2522E+06    -85.5560E+06    -77.4080E+06    -73.8919E+06    -69.2522E+06     8.92474E+06         68.0409
            1212     2.96841E-03     104.408E-03         1.03240     724.267E-03        -2.44784     711.518E-03        -2.12696     724.267E-03    -541.680E-03     597.380E-03    -298.573E-03    -298.807E-03    -298.575E-03     597.378E-03    -298.803E-03    -3.09874E-03    -56.4024E+06    -59.7024E+06    -80.1885E+06    -74.8879E+06    -62.5715E+06    -58.8339E+06     9.43790E+06         68.1095
            1213     3.71037E-03     104.402E-03     816.179E-03     719.847E-03        -2.22460     707.325E-03        -2.11575     719.847E-03     314.788E-03     597.487E-03    -298.644E-03    -298.843E-03    -298.647E-03     597.485E-03    -298.838E-03    -2.23060E-03    -45.8796E+06    -51.1966E+06    -75.2132E+06    -71.4879E+06    -54.3664E+06    -46.4351E+06     8.75533E+06         68.2220
            1214     4.45238E-03     104.399E-03     738.153E-03     705.254E-03        -2.12935     696.568E-03        -2.09872     716.207E-03    -218.873E-03     597.530E-03    -298.640E-03    -298.890E-03    -298.639E-03     597.530E-03    -298.890E-03    -454.134E-06    -33.3134E+06    -43.8301E+06    -69.8870E+06    -67.0200E+06    -46.6970E+06    -33.3134E+06     8.11890E+06         68.4086
            1215     5.19431E-03     104.400E-03     719.402E-03     683.760E-03        -2.08920     685.241E-03        -2.08437     713.089E-03     120.783E-03     597.454E-03    -298.518E-03    -298.936E-03    -298.515E-03     597.451E-03    -298.936E-03     2.47980E-03    -19.8083E+06    -36.6930E+06    -64.1427E+06    -61.7938E+06    -39.0419E+06    -19.8083E+06     7.66484E+06         68.7201
            1216     5.93655E-03     104.407E-03     713.259E-03     667.601E-03        -2.06931     669.057E-03        -2.06816     710.651E-03    -104.652E-03     597.346E-03    -298.376E-03    -298.969E-03    -298.364E-03     597.333E-03    -298.969E-03     6.32121E-03    -6.04439E+06    -30.0403E+06    -57.9371E+06    -55.9658E+06    -32.0116E+06    -6.04439E+06     7.13774E+06         69.2359
            1217     6.67896E-03     104.421E-03     714.018E-03     653.914E-03        -2.05794     655.280E-03        -2.05446     709.170E-03     46.1777E-03     597.309E-03    -298.317E-03    -298.992E-03    -298.282E-03     597.274E-03    -298.992E-03     10.8820E-03     7.18817E+06    -23.7073E+06    -51.4136E+06    -49.7511E+06    -25.3698E+06     7.18817E+06     6.56504E+06         70.0681
            1218     7.42126E-03     104.443E-03     717.324E-03     642.914E-03        -2.04898     642.889E-03        -2.04080     709.169E-03    -55.7095E-03     597.341E-03    -298.331E-03    -299.010E-03    -298.257E-03     597.267E-03    -299.010E-03     16.1026E-03     18.5693E+06    -19.3367E+06    -45.0694E+06     -43.612E+06    -20.7941E+06     18.5693E+06     5.93749E+06         71.3562
            1219     8.16376E-03     104.475E-03     721.883E-03     633.220E-03        -2.04100     632.232E-03        -2.02906     710.929E-03     9.95913E-03     597.396E-03    -298.378E-03    -299.019E-03    -298.238E-03     597.257E-03    -299.019E-03     22.1062E-03     27.1572E+06    -15.9327E+06    -39.1288E+06    -37.8038E+06    -17.2577E+06     27.1572E+06     5.38058E+06         73.2443
            1220     8.90630E-03     104.517E-03     725.280E-03     624.114E-03        -2.03310     619.313E-03        -2.01753     714.513E-03    -37.7663E-03     597.529E-03    -298.510E-03    -299.019E-03    -298.273E-03     597.292E-03    -299.019E-03     28.9309E-03     32.4559E+06    -14.1475E+06    -33.7781E+06    -32.4918E+06    -15.4337E+06     32.4559E+06     4.83848E+06         75.8369
            1221     9.64884E-03     104.571E-03     726.945E-03     614.059E-03        -2.02447     603.530E-03        -2.00676     719.768E-03    -10.1908E-03     597.594E-03    -298.585E-03    -299.009E-03    -298.212E-03     597.221E-03    -299.009E-03     36.3350E-03     35.7404E+06    -12.5561E+06    -28.7987E+06    -27.6812E+06    -13.6736E+06     35.7404E+06     4.08854E+06         79.1357
            1222     10.3921E-03     104.638E-03     728.487E-03     601.020E-03        -2.01443     583.392E-03        -1.99493     726.620E-03    -28.7310E-03     597.596E-03    -298.602E-03    -298.995E-03    -298.033E-03     597.027E-03    -298.995E-03     44.9049E-03     41.2093E+06    -7.24869E+06    -23.9219E+06    -23.2103E+06    -7.96021E+06     41.2093E+06     3.29013E+06         82.9802
            1223     11.1357E-03     104.722E-03     734.823E-03     581.752E-03        -2.00192     561.334E-03        -1.98150     734.823E-03    -19.7628E-03     597.633E-03    -298.639E-03    -298.994E-03    -297.852E-03     596.846E-03    -298.994E-03     52.9934E-03     54.3837E+06     3.60899E+06    -19.2076E+06    -18.8357E+06     3.23702E+06     54.3837E+06     2.76850E+06         87.0224
            1224     11.8793E-03     104.817E-03     744.984E-03     557.462E-03        -1.98576     536.454E-03        -1.96475     744.984E-03    -22.8338E-03     598.173E-03    -298.837E-03    -299.336E-03    -297.891E-03     596.907E-03    -299.015E-03     66.5838E-03     78.9675E+06     23.9225E+06    -13.6561E+06    -13.4985E+06     23.7649E+06     78.9675E+06     2.15675E+06         90.7719
            1225     12.6231E-03     104.949E-03     756.412E-03     528.151E-03        -1.96454     507.143E-03        -1.94353     756.412E-03    -26.6163E-03     598.403E-03    -299.012E-03    -299.391E-03    -297.847E-03     596.889E-03    -299.042E-03     73.6032E-03     110.148E+06     48.1798E+06    -7.02985E+06    -6.99285E+06     48.1428E+06     110.148E+06     1.19709E+06         93.7188
            1226     741.724E-06     106.241E-03         6.30482         1.06237        -8.03838         1.49886        -3.23242         1.06237         5.50683     597.041E-03    -298.275E-03    -298.766E-03    -298.274E-03     597.040E-03    -298.766E-03    -1.49220E-03    -82.2222E+06    -82.6527E+06    -111.985E+06    -83.0788E+06    -111.424E+06    -82.3571E+06     3.30437E+06         67.9256
            1227     1.48445E-03     106.238E-03         2.86007         1.28035        -4.81119         1.28391        -3.23502         1.28035        -1.81754     596.832E-03    -298.339E-03    -298.493E-03    -298.337E-03     596.830E-03    -298.493E-03    -2.60582E-03    -78.2596E+06    -79.2238E+06    -103.589E+06    -81.3694E+06    -101.328E+06    -78.3746E+06     6.23141E+06         67.9478
            1228     2.22717E-03     106.232E-03         1.84684         1.27599        -3.79538         1.25463        -3.20317         1.27599     908.773E-03     596.843E-03    -298.329E-03    -298.514E-03    -298.379E-03     596.840E-03    -298.461E-03    -3.42222E-03    -70.9038E+06    -73.2712E+06    -94.2052E+06    -79.1890E+06    -86.7785E+06    -72.4127E+06     9.33665E+06         67.9879
            1229     2.96912E-03     106.225E-03         1.44961         1.26692        -3.39203         1.23726        -3.17968         1.26692    -537.631E-03     596.939E-03    -298.400E-03    -298.539E-03    -298.454E-03     596.936E-03    -298.482E-03    -3.30921E-03    -60.1134E+06    -63.9807E+06    -85.7567E+06    -76.6962E+06     -69.459E+06    -63.6956E+06     11.3988E+06         68.0545
            1230     3.71127E-03     106.221E-03         1.28952         1.24427        -3.20708         1.20812        -3.13830         1.25690     310.072E-03     596.945E-03    -298.405E-03    -298.540E-03    -298.408E-03     596.944E-03    -298.536E-03    -2.15486E-03    -49.1255E+06    -52.6236E+06    -79.1555E+06    -73.5502E+06    -56.0406E+06    -51.3138E+06     11.2145E+06         68.1638
            1231     4.45326E-03     106.217E-03         1.24737         1.19331        -3.11235         1.17671        -3.09396         1.24558    -223.102E-03     596.887E-03    -298.292E-03    -298.595E-03    -298.291E-03     596.886E-03    -298.595E-03    -31.1645E-06    -36.6496E+06    -43.8249E+06    -73.2357E+06    -69.4291E+06    -47.6316E+06    -36.6496E+06     9.80861E+06         68.3452
            1232     5.19582E-03     106.218E-03         1.23330         1.13835        -3.04229         1.13575        -3.03969         1.23330     115.519E-03     596.776E-03    -298.138E-03    -298.638E-03    -298.134E-03     596.773E-03    -298.638E-03     2.94996E-03    -21.6987E+06    -37.1707E+06    -67.1462E+06    -64.3216E+06    -39.9953E+06    -21.6987E+06     8.72612E+06         68.6492
            1233     5.93837E-03     106.225E-03         1.22018         1.09149        -2.98247         1.09040        -2.98137         1.22018    -111.265E-03     596.680E-03    -298.016E-03    -298.664E-03    -298.002E-03     596.666E-03    -298.664E-03     6.71692E-03    -7.32458E+06    -29.8252E+06    -60.8157E+06    -58.6407E+06    -32.0001E+06    -7.32458E+06     7.88653E+06         69.1546
            1234     6.68088E-03     106.239E-03         1.20661         1.04292        -2.92156         1.03979        -2.91843         1.20661     39.4805E-03     596.627E-03    -297.943E-03    -298.683E-03    -297.905E-03     596.589E-03    -298.683E-03     11.3813E-03     6.44147E+06    -23.3859E+06    -54.3133E+06    -52.5835E+06    -25.1158E+06     6.44147E+06     7.09996E+06         69.9739
            1235     7.42358E-03     106.261E-03         1.19294     994.930E-03        -2.86027     987.937E-03        -2.85328         1.19294    -62.3737E-03     596.582E-03    -297.886E-03    -298.696E-03    -297.806E-03     596.502E-03    -298.696E-03     16.7292E-03     18.7554E+06    -18.9014E+06    -47.9334E+06    -46.4329E+06    -20.4019E+06     18.7554E+06     6.42227E+06         71.2485
            1236     8.16643E-03     106.292E-03         1.17964     945.772E-03        -2.79630     935.689E-03        -2.78621         1.17964     3.90629E-03     596.540E-03    -297.845E-03    -298.695E-03    -297.697E-03     596.392E-03    -298.695E-03     22.7716E-03     28.4178E+06    -15.5055E+06    -41.8034E+06    -40.4148E+06    -16.8941E+06     28.4178E+06     5.87768E+06         73.1264
            1237     8.90960E-03     106.334E-03         1.16703     895.047E-03        -2.73065     881.775E-03        -2.71738         1.16703    -43.0602E-03     596.555E-03    -297.877E-03    -298.678E-03    -297.629E-03     596.307E-03    -298.678E-03     29.6034E-03     34.9656E+06    -12.9477E+06    -35.8730E+06    -34.5486E+06    -14.2722E+06     34.9656E+06     5.33732E+06         75.7175
            1238     9.65293E-03     106.388E-03         1.15513     839.438E-03        -2.66168     824.037E-03        -2.64628         1.15513    -14.5797E-03     596.671E-03    -298.020E-03    -298.652E-03    -297.633E-03     596.284E-03    -298.652E-03     37.0067E-03     39.1196E+06    -10.6496E+06    -30.3089E+06    -29.2104E+06    -11.7481E+06     39.1196E+06     4.49957E+06         79.0288
            1239     10.3959E-03     106.454E-03         1.14391     777.941E-03        -2.58906     760.524E-03        -2.57164         1.14391    -32.6390E-03     596.825E-03    -298.197E-03    -298.628E-03    -297.607E-03     596.235E-03    -298.628E-03     45.6699E-03     44.5539E+06    -5.93802E+06    -25.1944E+06    -24.4257E+06    -6.70670E+06     44.5539E+06     3.74055E+06         82.9016
            1240     11.1393E-03     106.537E-03         1.13312     710.409E-03        -2.51171     691.706E-03        -2.49300         1.13312    -24.0632E-03     596.898E-03    -298.276E-03    -298.622E-03    -297.463E-03     596.085E-03    -298.622E-03     53.8260E-03     57.5796E+06     5.72442E+06    -19.8018E+06    -19.3989E+06     5.32150E+06     57.5796E+06     2.91197E+06         86.9844
            1241     11.8834E-03     106.632E-03         1.12329     638.315E-03        -2.42938     618.491E-03        -2.40955         1.12329    -25.1835E-03     597.486E-03    -298.465E-03    -299.021E-03    -297.551E-03     596.192E-03    -298.641E-03     67.2884E-03     81.8030E+06     26.3181E+06    -13.7865E+06    -13.6804E+06     26.2120E+06     81.8030E+06     1.80266E+06         90.7776
            1242     12.6283E-03     106.764E-03         1.11385     561.994E-03        -2.34110     541.585E-03        -2.32069         1.11385    -30.2060E-03     597.680E-03    -298.604E-03    -299.076E-03    -297.472E-03     596.140E-03    -298.668E-03     74.1929E-03     112.863E+06     50.3248E+06    -7.10631E+06     -7.0861E+06     50.3046E+06     112.863E+06     960.264E+03         93.7585
            1243     742.787E-06     108.058E-03         5.28791         1.51939        -7.46601         2.04187        -4.21997         1.51939         4.44940     596.427E-03    -298.096E-03    -298.331E-03    -298.166E-03     596.426E-03    -298.260E-03    -1.55775E-03    -83.6035E+06    -84.2706E+06    -125.071E+06    -84.3992E+06    -124.808E+06    -83.7384E+06     2.83387E+06         67.8638
            1244     1.48504E-03     108.054E-03         2.72093         1.78212        -5.16254         1.79285        -4.23445         1.78212        -1.47097     596.231E-03    -298.043E-03    -298.188E-03    -298.042E-03     596.228E-03    -298.187E-03    -2.71799E-03    -80.4694E+06    -82.2507E+06    -116.532E+06    -83.4069E+06    -115.375E+06    -80.4694E+06     5.60865E+06         67.8852
            1245     2.22739E-03     108.048E-03         2.05696         1.77671        -4.48720         1.73691        -4.16716         1.77671     736.527E-03     596.211E-03    -298.002E-03    -298.209E-03    -298.052E-03     596.208E-03    -298.156E-03    -3.19664E-03    -74.2858E+06    -77.3039E+06    -105.024E+06    -81.2011E+06    -101.127E+06    -74.2858E+06     8.61460E+06         67.9240
            1246     2.96981E-03     108.043E-03         1.83676         1.73999        -4.23656         1.70902        -4.13078         1.76194    -442.201E-03     596.211E-03    -298.002E-03    -298.209E-03    -298.052E-03     596.208E-03    -298.156E-03    -2.83836E-03    -64.2611E+06    -68.0674E+06    -92.5679E+06    -78.1339E+06    -80.8687E+06    -65.8939E+06     11.5263E+06         67.9886
            1247     3.71240E-03     108.037E-03         1.74688         1.68211        -4.08956         1.65251        -4.05791         1.74483     253.228E-03     596.050E-03    -297.883E-03    -298.167E-03    -297.882E-03     596.049E-03    -298.167E-03    -1.61639E-03    -51.2716E+06    -55.0223E+06    -82.6805E+06    -74.6166E+06    -60.0710E+06    -54.2869E+06     13.0143E+06         68.0947
            1248     4.45546E-03     108.034E-03         1.72484         1.61074        -3.99461         1.60334        -3.98721         1.72484    -190.197E-03     595.990E-03    -297.795E-03    -298.195E-03    -297.795E-03     595.990E-03    -298.195E-03     479.820E-06    -38.2852E+06    -43.7560E+06    -76.1235E+06    -70.8418E+06    -47.6551E+06    -39.6677E+06     12.1836E+06         68.2714
            1249     5.19789E-03     108.035E-03         1.70332         1.53974        -3.89929         1.53892        -3.89848         1.70332     91.8565E-03     595.989E-03    -297.758E-03    -298.231E-03    -297.754E-03     595.985E-03    -298.231E-03     3.44598E-03    -24.6253E+06    -36.1589E+06    -69.9636E+06    -66.3156E+06    -39.8068E+06    -24.6253E+06     10.4079E+06         68.5683
            1250     5.94054E-03     108.041E-03         1.68012         1.47179        -3.80709         1.47014        -3.80544         1.68012    -100.171E-03     595.915E-03    -297.652E-03    -298.263E-03    -297.636E-03     595.899E-03    -298.263E-03     7.32988E-03    -9.74460E+06    -28.7599E+06    -63.2794E+06    -60.7422E+06    -31.2971E+06    -9.74460E+06     8.96898E+06         69.0639
            1251     6.68348E-03     108.055E-03         1.65550         1.39390        -3.70547         1.39007        -3.70163         1.65550     27.6153E-03     595.791E-03    -297.504E-03    -298.287E-03    -297.462E-03     595.749E-03    -298.287E-03     11.9644E-03     5.09412E+06    -22.7201E+06    -56.6010E+06    -54.6289E+06    -24.6921E+06     5.09412E+06     7.92806E+06         69.8709
            1252     7.42662E-03     108.077E-03         1.62955         1.31196        -3.59939         1.30492        -3.59235         1.62955    -60.0639E-03     595.683E-03    -297.384E-03    -298.299E-03    -297.298E-03     595.597E-03    -298.299E-03     17.3034E-03     18.8358E+06    -18.2315E+06    -49.9333E+06    -48.2793E+06    -19.8854E+06     18.8358E+06     7.04582E+06         71.1327
            1253     8.16983E-03     108.108E-03         1.60263         1.22471        -3.48475         1.21516        -3.47521         1.60263    -2.23815E-03     595.686E-03    -297.389E-03    -298.297E-03    -297.234E-03     595.531E-03    -298.297E-03     23.3195E-03     30.0364E+06    -14.6810E+06    -43.1754E+06    -41.7571E+06    -16.0994E+06     30.0364E+06     6.19172E+06         73.0011
            1254     8.91314E-03     108.149E-03         1.57507         1.13424        -3.36423         1.12208        -3.35207         1.57507    -42.5393E-03     595.661E-03    -297.382E-03    -298.279E-03    -297.128E-03     595.406E-03    -298.279E-03     29.9479E-03     37.5969E+06    -12.0560E+06    -36.7906E+06    -35.5084E+06    -13.3382E+06     37.5969E+06     5.47840E+06         75.5913
            1255     9.65676E-03     108.203E-03         1.54700         1.03702        -3.23665         1.02299        -3.22262         1.54700    -17.6977E-03     595.645E-03    -297.402E-03    -298.243E-03    -297.009E-03     595.252E-03    -298.243E-03     37.2579E-03     42.3092E+06    -9.12046E+06    -30.9598E+06    -29.8389E+06    -10.2413E+06     42.3092E+06     4.81739E+06         78.9161
            1256     10.4010E-03     108.269E-03         1.51844     932.951E-03        -3.10337     917.025E-03        -3.08744         1.51844    -32.5755E-03     595.852E-03    -297.645E-03    -298.207E-03    -297.050E-03     595.257E-03    -298.207E-03     45.8524E-03     47.9703E+06    -3.99104E+06    -25.2340E+06    -24.4571E+06    -4.76788E+06     47.9703E+06     3.90195E+06         82.8192
            1257     11.1452E-03     108.352E-03         1.48923     821.846E-03        -2.96411     804.607E-03        -2.94687         1.48923    -26.5942E-03     596.088E-03    -297.891E-03    -298.197E-03    -297.071E-03     595.268E-03    -298.197E-03     54.0224E-03     60.9458E+06     8.65456E+06     -19.424E+06    -19.0827E+06     8.31328E+06     60.9458E+06     2.76857E+06         86.9454
            1258     11.8893E-03     108.446E-03         1.45990     706.863E-03        -2.82047     688.284E-03        -2.80189         1.45990    -25.7492E-03     596.740E-03    -298.099E-03    -298.641E-03    -297.210E-03     595.430E-03    -298.220E-03     67.6827E-03     84.7399E+06     28.4645E+06    -13.9381E+06    -13.8392E+06     28.3656E+06     84.7399E+06     1.92003E+06         90.7852
            1259     12.6332E-03     108.578E-03         1.43012     589.522E-03        -2.67197     570.118E-03        -2.65257         1.43012    -32.7462E-03     596.755E-03    -298.086E-03    -298.668E-03    -296.946E-03     595.194E-03    -298.248E-03     74.6347E-03     115.715E+06     52.1898E+06    -7.51940E+06    -7.48495E+06     52.1553E+06     115.715E+06     1.26159E+06         93.8028
            1260     742.426E-06     109.874E-03         3.84655         1.91356        -6.40657         2.48336        -5.04338         1.91356         2.60559     595.577E-03    -297.633E-03    -297.944E-03    -297.923E-03     595.577E-03    -297.654E-03    -1.54594E-03    -85.1100E+06    -86.6821E+06    -137.534E+06    -86.1241E+06    -137.330E+06    -85.8719E+06     2.85981E+06         67.7894
            1261     1.48536E-03     109.869E-03         2.56536         2.18451        -5.39836         2.21772        -5.06765         2.20144    -874.379E-03     595.496E-03    -297.712E-03    -297.785E-03    -297.711E-03     595.494E-03    -297.783E-03    -2.47520E-03    -81.9785E+06    -84.5571E+06    -128.873E+06    -85.3142E+06    -128.115E+06    -81.9785E+06     5.36872E+06         67.8103
            1262     2.22842E-03     109.863E-03         2.26223         2.17456        -5.07679         2.13829        -4.97322         2.19492     440.156E-03     595.329E-03    -297.570E-03    -297.759E-03    -297.568E-03     595.327E-03    -297.759E-03    -2.74348E-03    -75.6166E+06    -80.8868E+06    -116.201E+06    -83.0410E+06    -114.047E+06    -75.6166E+06     7.89427E+06         67.8481
            1263     2.97159E-03     109.857E-03         2.19278         2.11548        -4.95478         2.10242        -4.92413         2.17520    -275.151E-03     595.173E-03    -297.447E-03    -297.726E-03    -297.445E-03     595.172E-03    -297.726E-03    -2.50547E-03    -67.0105E+06    -73.1160E+06    -101.444E+06    -79.9959E+06    -94.5636E+06    -67.0105E+06     10.7289E+06         67.9110
            1264     3.71454E-03     109.852E-03         2.15227         2.03186        -4.83349         2.02412        -4.82575         2.15227     154.508E-03     595.079E-03    -297.379E-03    -297.700E-03    -297.378E-03     595.078E-03    -297.700E-03    -1.37428E-03    -54.7981E+06    -59.2388E+06    -88.1473E+06    -76.2824E+06    -69.3785E+06    -56.5233E+06     13.5705E+06         68.0145
            1265     4.45719E-03     109.849E-03         2.12509         1.96053        -4.73426         1.95879        -4.73251         2.12509    -125.324E-03     594.965E-03    -297.266E-03    -297.699E-03    -297.265E-03     594.965E-03    -297.699E-03     814.978E-06    -40.8732E+06    -44.4248E+06    -79.0235E+06    -72.1262E+06    -48.9429E+06    -43.2524E+06     14.1812E+06         68.1871
            1266     5.20046E-03     109.850E-03         2.09575         1.87646        -4.61616         1.87522        -4.61492         2.09575     57.6015E-03     594.919E-03    -297.194E-03    -297.725E-03    -297.189E-03     594.914E-03    -297.725E-03     3.94610E-03    -26.8653E+06    -34.1516E+06    -71.8339E+06    -67.3407E+06    -37.9908E+06    -27.5193E+06     12.2339E+06         68.4777
            1267     5.94361E-03     109.856E-03         2.06395         1.78952        -4.49563         1.78631        -4.49242         2.06395    -71.4260E-03     594.918E-03    -297.159E-03    -297.759E-03    -297.140E-03     594.899E-03    -297.759E-03     7.97705E-03    -11.5236E+06    -27.4112E+06    -65.0503E+06    -61.9918E+06    -30.4698E+06    -11.5236E+06     10.2515E+06         68.9645
            1268     6.68672E-03     109.869E-03         2.02976         1.68620        -4.35912         1.68092        -4.35384         2.02976     15.8839E-03     594.877E-03    -297.086E-03    -297.791E-03    -297.039E-03     594.830E-03    -297.791E-03     12.6289E-03     4.01037E+06    -21.4872E+06    -58.4687E+06    -56.1436E+06    -23.8124E+06     4.01037E+06     8.94833E+06         69.7605
            1269     7.43005E-03     109.891E-03         1.99306         1.57573        -4.21416         1.56800        -4.20643         1.99306    -47.1599E-03     594.825E-03    -297.010E-03    -297.815E-03    -296.918E-03     594.733E-03    -297.815E-03     17.8947E-03     18.4289E+06    -16.8400E+06    -51.6625E+06    -49.8413E+06    -18.6612E+06     18.4289E+06     7.74992E+06         71.0107
            1270     8.17371E-03     109.922E-03         1.95415         1.45597        -4.05586         1.44636        -4.04625         1.95415    -6.25559E-03     594.798E-03    -296.972E-03    -297.825E-03    -296.810E-03     594.635E-03    -297.825E-03     23.8663E-03     30.5262E+06    -13.1708E+06    -44.8450E+06    -43.4068E+06    -14.6090E+06     30.5262E+06     6.58024E+06         72.8708
            1271     8.91732E-03     109.964E-03         1.91330         1.33148        -3.88823         1.31983        -3.87658         1.91330    -36.3354E-03     594.791E-03    -296.974E-03    -297.817E-03    -296.711E-03     594.528E-03    -297.817E-03     30.4412E-03     39.0796E+06    -11.0684E+06    -38.2375E+06    -37.0555E+06    -12.2504E+06     39.0796E+06     5.52658E+06         75.4614
            1272     9.66130E-03     110.016E-03         1.87075         1.19928        -3.71044         1.18617        -3.69733         1.87075    -19.8953E-03     594.823E-03    -297.032E-03    -297.792E-03    -296.628E-03     594.420E-03    -297.792E-03     37.7209E-03     44.7613E+06    -8.04759E+06    -31.9201E+06    -30.8914E+06    -9.07633E+06     44.7613E+06     4.82248E+06         78.8011
            1273     10.4053E-03     110.083E-03         1.82665         1.05972        -3.52583         1.04497        -3.51108         1.82665    -30.0452E-03     594.965E-03    -297.205E-03    -297.760E-03    -296.603E-03     594.362E-03    -297.760E-03     46.1160E-03     50.8126E+06    -1.44312E+06    -26.0432E+06    -25.3622E+06    -2.12409E+06     50.8126E+06     3.93697E+06         82.7365
            1274     11.1494E-03     110.165E-03         1.78092     913.203E-03        -3.33453     897.301E-03        -3.31863         1.78092    -28.1882E-03     595.141E-03    -297.392E-03    -297.749E-03    -296.566E-03     594.314E-03    -297.749E-03     54.1832E-03     63.2878E+06     10.1677E+06    -20.5995E+06    -20.2765E+06     9.84468E+06     63.2878E+06     3.00044E+06         86.9097
            1275     11.8940E-03     110.259E-03         1.73407     763.438E-03        -3.13903     746.173E-03        -3.12177         1.73407    -25.2001E-03     595.625E-03    -297.617E-03    -298.009E-03    -296.538E-03     594.302E-03    -297.765E-03     67.9441E-03     87.2612E+06     30.3701E+06    -14.4457E+06    -14.2923E+06     30.2167E+06     87.2612E+06     2.48651E+06         90.8010
            1276     12.6399E-03     110.390E-03         1.68596     612.099E-03        -2.93887     593.890E-03        -2.92066         1.68596    -33.6071E-03     595.638E-03    -297.615E-03    -298.023E-03    -296.281E-03     594.060E-03    -297.779E-03     74.9667E-03     118.458E+06     55.5131E+06    -7.45320E+06    -7.39897E+06     55.4589E+06     118.458E+06     1.58898E+06         93.8594
            1277     743.486E-06     111.687E-03         3.06738         2.23331        -5.94372         2.76680        -5.64314         2.23331     336.798E-03     594.280E-03    -296.992E-03    -297.288E-03    -297.248E-03     594.279E-03    -297.031E-03    -1.29834E-03    -88.3033E+06    -90.6539E+06    -149.181E+06    -90.0389E+06    -149.034E+06    -89.0652E+06     2.64997E+06         67.7030
            1278     1.48660E-03     111.682E-03         2.62524         2.46856        -5.73042         2.52760        -5.66919         2.50498    -136.638E-03     594.357E-03    -297.129E-03    -297.228E-03    -297.192E-03     594.356E-03    -297.163E-03    -2.04045E-03    -84.9012E+06    -87.8995E+06    -140.249E+06    -88.4174E+06    -139.731E+06    -84.9012E+06     4.85675E+06         67.7237
            1279     2.22956E-03     111.677E-03         2.49948         2.45668        -5.58608         2.43715        -5.56656         2.49948     71.3617E-03     594.298E-03    -297.085E-03    -297.213E-03    -297.111E-03     594.297E-03    -297.186E-03    -2.42234E-03    -78.4391E+06    -84.6292E+06    -127.464E+06    -86.1161E+06    -125.977E+06    -78.4391E+06     7.38840E+06         67.7611
            1280     2.97275E-03     111.670E-03         2.47803         2.40332        -5.51972         2.39597        -5.51237         2.47803    -67.4830E-03     594.121E-03    -296.941E-03    -297.180E-03    -296.939E-03     594.120E-03    -297.180E-03    -2.17317E-03    -69.7272E+06    -78.7504E+06    -111.579E+06    -82.9451E+06    -107.384E+06    -69.7272E+06     10.1121E+06         67.8230
            1281     3.71623E-03     111.665E-03         2.45259         2.31167        -5.40403         2.30760        -5.39997         2.45259     31.1473E-03     593.961E-03    -296.805E-03    -297.156E-03    -296.804E-03     593.960E-03    -297.156E-03    -1.00279E-03    -58.7299E+06    -66.0850E+06    -94.9896E+06    -78.8750E+06    -81.8568E+06    -59.0726E+06     12.8867E+06         67.9246
            1282     4.45999E-03     111.661E-03         2.42170         2.23313        -5.29457         2.22924        -5.29067         2.42170    -46.8570E-03     593.791E-03    -296.657E-03    -297.134E-03    -296.657E-03     593.790E-03    -297.134E-03     1.16965E-03    -43.5256E+06    -48.0905E+06    -82.3646E+06    -74.2089E+06    -53.6588E+06    -46.1129E+06     14.5721E+06         68.0938
            1283     5.20349E-03     111.662E-03         2.38730         2.13233        -5.15507         2.12770        -5.15044         2.38730     12.3418E-03     593.704E-03    -296.563E-03    -297.141E-03    -296.557E-03     593.698E-03    -297.141E-03     4.31536E-03    -28.2604E+06    -33.6207E+06    -74.4869E+06    -69.3823E+06    -36.4807E+06    -30.5050E+06     13.8714E+06         68.3791
            1284     5.94709E-03     111.669E-03         2.34908         2.02620        -5.00796         2.02020        -5.00196         2.34908    -38.5604E-03     593.727E-03    -296.553E-03    -297.174E-03    -296.532E-03     593.706E-03    -297.174E-03     8.26760E-03    -13.8371E+06    -25.6697E+06    -67.8800E+06    -64.1533E+06    -29.3964E+06    -13.8371E+06     11.9410E+06         68.8581
            1285     6.69081E-03     111.682E-03         2.30721         1.90002        -4.84057         1.89277        -4.83331         2.30721    -1.45426E-03     593.776E-03    -296.566E-03    -297.210E-03    -296.517E-03     593.727E-03    -297.210E-03     13.0064E-03     2.27138E+06    -19.6714E+06    -60.9492E+06    -58.2214E+06    -22.3992E+06     2.27138E+06     10.2193E+06         69.6443
            1286     7.43442E-03     111.704E-03         2.26157         1.76542        -4.66261         1.75663        -4.65382         2.26157    -32.9466E-03     593.850E-03    -296.603E-03    -297.247E-03    -296.505E-03     593.752E-03    -297.247E-03     18.4653E-03     17.1968E+06    -14.9956E+06    -53.9741E+06    -51.8933E+06    -17.0764E+06     17.1968E+06     8.75843E+06         70.8843
            1287     8.17795E-03     111.734E-03         2.21257         1.62072        -4.46975         1.61073        -4.45976         2.21257    -12.6992E-03     593.835E-03    -296.560E-03    -297.275E-03    -296.389E-03     593.664E-03    -297.275E-03     24.4993E-03     30.1464E+06    -11.0340E+06    -47.0900E+06    -45.4929E+06    -12.6311E+06     30.1464E+06     7.39593E+06         72.7376
            1288     8.92218E-03     111.775E-03         2.16062         1.47163        -4.26682         1.46020        -4.25540         2.16062    -29.1204E-03     593.836E-03    -296.553E-03    -297.284E-03    -296.278E-03     593.561E-03    -297.284E-03     31.0981E-03     39.9111E+06    -8.75764E+06    -40.3129E+06    -39.1234E+06    -9.94708E+06     39.9111E+06     6.00754E+06         75.3308
            1289     9.66623E-03     111.828E-03         2.10613         1.31550        -4.05305         1.30305        -4.04061         2.10613    -22.4074E-03     593.933E-03    -296.659E-03    -297.274E-03    -296.238E-03     593.512E-03    -297.274E-03     38.5085E-03     46.5081E+06    -6.70385E+06    -33.8251E+06    -32.9514E+06    -7.57757E+06     46.5081E+06     4.75640E+06         78.6881
            1290     10.4106E-03     111.894E-03         2.04932         1.15253        -3.83157         1.13881        -3.81785         2.04932    -26.2454E-03     594.094E-03    -296.841E-03    -297.253E-03    -296.208E-03     593.460E-03    -297.253E-03     47.2562E-03     53.0397E+06     269.427E+03    -27.6199E+06    -27.0512E+06    -299.320E+03     53.0397E+06     3.88562E+06         82.6593
            1291     11.1555E-03     111.976E-03         1.99019     981.429E-03        -3.60222     966.741E-03        -3.58753         1.99019    -28.3647E-03     594.246E-03    -296.997E-03    -297.248E-03    -296.136E-03     593.384E-03    -297.248E-03     55.3012E-03     65.5599E+06     11.5905E+06    -21.5784E+06    -21.2309E+06     11.2430E+06     65.5599E+06     3.30606E+06         86.8833
            1292     11.9007E-03     112.070E-03         1.92905     806.329E-03        -3.36743     790.362E-03        -3.35146         1.92905    -23.2702E-03     594.680E-03    -297.150E-03    -297.529E-03    -296.075E-03     593.340E-03    -297.266E-03     68.3752E-03     89.3971E+06     32.4909E+06    -14.8914E+06    -14.7274E+06     32.3269E+06     89.3971E+06     2.51338E+06         90.8294
            1293     12.6460E-03     112.199E-03         1.86591     629.261E-03        -3.12665     612.285E-03        -3.10968         1.86591    -32.2891E-03     594.771E-03    -297.217E-03    -297.553E-03    -295.902E-03     593.186E-03    -297.284E-03     75.0652E-03     120.685E+06     58.9673E+06    -7.57495E+06    -7.53466E+06     58.9270E+06     120.685E+06     1.35436E+06         93.9305
            1294     743.776E-06     113.497E-03         3.72324         2.46998        -6.82930         2.88550        -5.99156         2.46998        -1.95721     592.850E-03    -296.347E-03    -296.503E-03    -296.416E-03     592.849E-03    -296.433E-03    -1.25966E-03    -91.2396E+06    -93.1785E+06    -159.690E+06    -92.8871E+06    -159.586E+06    -91.6347E+06     2.39127E+06         67.6077
            1295     1.48756E-03     113.493E-03         2.92161         2.66264        -6.21717         2.70082        -6.01587         2.68213     614.192E-03     593.028E-03    -296.465E-03    -296.563E-03    -296.562E-03     593.027E-03    -296.465E-03    -2.04249E-03    -87.6899E+06    -90.6911E+06    -151.098E+06    -91.0614E+06    -150.727E+06    -87.6899E+06     4.44448E+06         67.6285
            1296     2.23141E-03     113.487E-03         2.71360         2.65387        -5.99118         2.61547        -5.91547         2.67630    -298.469E-03     593.006E-03    -296.464E-03    -296.542E-03    -296.491E-03     593.004E-03    -296.513E-03    -2.38928E-03    -81.2316E+06    -87.7612E+06    -138.515E+06    -88.8291E+06    -137.447E+06    -81.2316E+06     6.89755E+06         67.6659
            1297     2.97515E-03     113.481E-03         2.66747         2.59139        -5.89139         2.56955        -5.85716         2.65509     146.943E-03     592.907E-03    -296.377E-03    -296.530E-03    -296.376E-03     592.906E-03    -296.530E-03    -1.86695E-03    -72.0757E+06    -82.6848E+06    -121.479E+06    -85.4770E+06    -118.686E+06    -72.0757E+06     9.31901E+06         67.7275
            1298     3.71891E-03     113.475E-03         2.62886         2.49595        -5.75910         2.47668        -5.73984         2.62886    -88.9055E-03     592.779E-03    -296.251E-03    -296.527E-03    -296.251E-03     592.778E-03    -296.527E-03    -659.785E-06    -60.9968E+06    -72.9059E+06    -102.323E+06    -81.3719E+06    -93.8567E+06    -60.9968E+06     11.7285E+06         67.8279
            1299     4.46262E-03     113.472E-03         2.59629         2.40315        -5.63324         2.39009        -5.62017         2.59629     34.9906E-03     592.620E-03    -296.106E-03    -296.514E-03    -296.105E-03     592.619E-03    -296.514E-03     1.35334E-03    -46.4831E+06    -54.0071E+06    -86.7501E+06    -76.6235E+06    -62.5431E+06    -48.0737E+06     14.1278E+06         67.9945
            1300     5.20667E-03     113.473E-03         2.55905         2.28767        -5.47709         2.27721        -5.46663         2.55905    -32.2192E-03     592.509E-03    -295.990E-03    -296.519E-03    -295.983E-03     592.502E-03    -296.519E-03     4.44404E-03    -31.0058E+06    -33.8859E+06    -77.3735E+06    -71.5106E+06    -38.1134E+06    -32.6412E+06     15.0293E+06         68.2753
            1301     5.95073E-03     113.480E-03         2.51680         2.16616        -5.31047         2.15656        -5.30087         2.51680    -3.03182E-03     592.503E-03    -295.953E-03    -296.550E-03    -295.931E-03     592.482E-03    -296.550E-03     8.40206E-03    -15.8895E+06    -23.0506E+06    -70.2062E+06    -65.9543E+06    -27.2576E+06    -15.9343E+06     13.4503E+06         68.7473
            1302     6.69477E-03     113.493E-03         2.46983         2.02522        -5.12213         2.01577        -5.11268         2.46983    -16.9554E-03     592.549E-03    -295.960E-03    -296.589E-03    -295.910E-03     592.499E-03    -296.589E-03     13.1230E-03     321.440E+03    -17.5372E+06    -62.8358E+06    -59.8587E+06    -20.5143E+06     321.440E+03     11.1971E+06         69.5246
            1303     7.43898E-03     113.514E-03         2.41812         1.87476        -4.92221         1.86486        -4.91232         2.41812    -15.3411E-03     592.609E-03    -295.980E-03    -296.630E-03    -295.880E-03     592.509E-03    -296.630E-03     18.6344E-03     15.9366E+06    -13.0929E+06    -55.5407E+06    -53.3068E+06    -15.3267E+06     15.9366E+06     9.46396E+06         70.7557
            1304     8.18338E-03     113.545E-03         2.36215         1.71473        -4.70730         1.70429        -4.69687         2.36215    -15.2757E-03     592.724E-03    -296.057E-03    -296.667E-03    -295.882E-03     592.549E-03    -296.667E-03     24.7415E-03     30.1022E+06    -9.05413E+06    -48.2345E+06    -46.4707E+06    -10.8179E+06     30.1022E+06     8.11144E+06         72.6040
            1305     8.92747E-03     113.586E-03         2.30247         1.55074        -4.48210         1.53951        -4.47087         2.30247    -16.8860E-03     592.833E-03    -296.139E-03    -296.693E-03    -295.857E-03     592.551E-03    -296.693E-03     31.4543E-03     41.2586E+06    -5.87482E+06    -41.1397E+06    -39.7893E+06    -7.22521E+06     41.2586E+06     6.75436E+06         75.2019
            1306     9.67217E-03     113.638E-03         2.23956         1.38020        -4.24572         1.36832        -4.23384         2.23956    -19.4131E-03     592.896E-03    -296.195E-03    -296.701E-03    -295.769E-03     592.469E-03    -296.701E-03     38.7634E-03     48.7461E+06    -4.04497E+06    -34.5573E+06    -33.6179E+06    -4.98434E+06     48.7461E+06     5.24878E+06         78.5797
            1307     10.4171E-03     113.704E-03         2.17367         1.20322        -4.00076         1.19040        -3.98793         2.17367    -17.5031E-03     593.062E-03    -296.370E-03    -296.692E-03    -295.730E-03     592.422E-03    -296.692E-03     47.4388E-03     55.6040E+06     1.80702E+06    -28.3162E+06    -27.6979E+06     1.18869E+06     55.6040E+06     4.20725E+06         82.5904
            1308     11.1619E-03     113.786E-03         2.10486         1.01784        -3.74692         1.00427        -3.73335         2.10486    -24.2880E-03     593.322E-03    -296.581E-03    -296.741E-03    -295.756E-03     592.452E-03    -296.696E-03     55.5108E-03     68.0013E+06     13.8453E+06    -22.1286E+06    -21.7964E+06     13.5131E+06     68.0013E+06     3.28960E+06         86.8688
            1309     11.9068E-03     113.879E-03         2.03327     827.990E-03        -3.48690     813.217E-03        -3.47212         2.03327    -18.5160E-03     594.064E-03    -296.703E-03    -297.362E-03    -295.988E-03     592.719E-03    -296.731E-03     68.5227E-03     91.0069E+06     35.1891E+06    -15.7428E+06    -15.6343E+06     35.0806E+06     91.0069E+06     2.01368E+06         90.8718
            1310     12.6526E-03     114.008E-03         1.95904     636.371E-03        -3.22133     620.618E-03        -3.20558         1.95904    -28.5264E-03     594.271E-03    -296.780E-03    -297.490E-03    -295.903E-03     592.683E-03    -296.780E-03     75.1068E-03     122.333E+06     61.5609E+06    -8.22528E+06    -8.20959E+06     61.5452E+06     122.333E+06     876.807E+03         94.0163
            1311     744.431E-06     115.305E-03         5.13382         2.59842        -8.36753         2.85880        -6.09250         2.59842        -3.88983     591.566E-03    -295.580E-03    -295.986E-03    -295.897E-03     591.566E-03    -295.668E-03    -1.02837E-03    -93.0259E+06    -94.3887E+06    -169.616E+06    -94.0798E+06    -169.530E+06    -93.4210E+06     2.23684E+06         67.5078
            1312     1.48853E-03     115.302E-03         3.31961         2.73013        -6.68305         2.73625        -6.09969         2.73013         1.24362     591.644E-03    -295.787E-03    -295.857E-03    -295.835E-03     591.643E-03    -295.808E-03    -1.91869E-03    -89.1197E+06    -92.5658E+06    -161.327E+06    -92.8706E+06    -161.023E+06    -89.1197E+06     4.36462E+06         67.5289
            1313     2.23266E-03     115.295E-03         2.87505         2.72156        -6.22109         2.66053        -6.00657         2.72156    -604.801E-03     591.678E-03    -295.807E-03    -295.871E-03    -295.832E-03     591.676E-03    -295.844E-03    -2.49552E-03    -82.2066E+06    -89.6236E+06    -148.461E+06    -90.3884E+06    -147.696E+06    -82.2066E+06     6.39867E+06         67.5667
            1314     2.97705E-03     115.289E-03         2.74339         2.65699        -6.02959         2.60971        -5.93906         2.70015     329.755E-03     591.606E-03    -295.729E-03    -295.877E-03    -295.738E-03     591.605E-03    -295.867E-03    -2.09559E-03    -72.9914E+06    -85.1242E+06    -130.917E+06    -86.9688E+06    -129.072E+06    -72.9914E+06     8.51272E+06         67.6283
            1315     3.72132E-03     115.284E-03         2.67316         2.56057        -5.86651         2.51566        -5.82160         2.67316    -185.883E-03     591.518E-03    -295.644E-03    -295.874E-03    -295.644E-03     591.517E-03    -295.874E-03    -766.626E-06    -61.8831E+06    -77.5111E+06    -110.046E+06    -82.8328E+06    -104.724E+06    -61.8831E+06     10.7950E+06         67.7281
            1316     4.46573E-03     115.281E-03         2.63952         2.45025        -5.72278         2.42451        -5.69703         2.63952     109.889E-03     591.446E-03    -295.571E-03    -295.875E-03    -295.570E-03     591.445E-03    -295.875E-03     1.41189E-03    -48.9468E+06    -60.4950E+06    -91.3874E+06    -78.0256E+06    -73.8568E+06    -48.9468E+06     13.3679E+06         67.8929
            1317     5.21003E-03     115.281E-03         2.60087         2.32816        -5.55829         2.31100        -5.54112         2.60087    -63.5065E-03     591.315E-03    -295.433E-03    -295.882E-03    -295.427E-03     591.308E-03    -295.882E-03     4.47275E-03    -33.2188E+06    -37.1501E+06    -79.2093E+06    -72.5021E+06    -43.1206E+06    -33.9555E+06     15.0455E+06         68.1698
            1318     5.95452E-03     115.288E-03         2.55698         2.20093        -5.38440         2.18767        -5.37114         2.55698     34.2014E-03     591.253E-03    -295.344E-03    -295.909E-03    -295.322E-03     591.231E-03    -295.909E-03     8.51744E-03    -16.6044E+06    -21.4964E+06    -71.0866E+06    -66.5890E+06    -25.2572E+06    -17.3411E+06     14.2981E+06         68.6358
            1319     6.69903E-03     115.301E-03         2.50799         2.05674        -5.19038         2.04531        -5.17895         2.50799    -22.9188E-03     591.328E-03    -295.375E-03    -295.953E-03    -295.323E-03     591.277E-03    -295.953E-03     13.2596E-03    -665.929E+03    -15.0642E+06    -63.7975E+06    -60.5089E+06    -18.3529E+06    -665.929E+03     12.2007E+06         69.4051
            1320     7.44361E-03     115.323E-03         2.45384         1.90236        -4.98323         1.89155        -4.97242         2.45384     6.91997E-03     591.427E-03    -295.426E-03    -296.002E-03    -295.325E-03     591.327E-03    -296.002E-03     18.6238E-03     15.2669E+06    -10.5468E+06    -56.5268E+06    -54.1512E+06    -12.9224E+06     15.2669E+06     10.1409E+06         70.6282
            1321     8.18824E-03     115.353E-03         2.39487         1.73712        -4.76023         1.72641        -4.74953         2.39487    -10.9913E-03     591.573E-03    -295.522E-03    -296.050E-03    -295.349E-03     591.399E-03    -296.050E-03     24.6110E-03     29.7951E+06    -7.37831E+06    -49.1365E+06    -47.3863E+06    -9.12850E+06     29.7951E+06     8.35898E+06         72.4725
            1322     8.93313E-03     115.394E-03         2.33149         1.56655        -4.52537         1.55555        -4.51436         2.33149    -1.03903E-03     591.787E-03    -295.695E-03    -296.092E-03    -295.417E-03     591.509E-03    -296.092E-03     31.2191E-03     41.8887E+06    -3.84073E+06    -41.9198E+06    -40.5191E+06    -5.24137E+06     41.8887E+06     7.15111E+06         75.0765
            1323     9.67779E-03     115.447E-03         2.26419         1.38950        -4.27832         1.37819        -4.26701         2.26419    -12.2157E-03     591.992E-03    -295.869E-03    -296.123E-03    -295.449E-03     591.572E-03    -296.123E-03     38.4169E-03     50.7835E+06    -924.360E+03    -35.0111E+06    -33.8963E+06    -2.03921E+06     50.7835E+06     6.06271E+06         78.4766
            1324     10.4226E-03     115.512E-03         2.19321         1.20656        -4.02224         1.19454        -4.01023         2.19321    -6.31122E-03     592.148E-03    -295.999E-03    -296.149E-03    -295.382E-03     591.521E-03    -296.139E-03     46.9341E-03     58.1437E+06     3.81102E+06    -28.6064E+06    -27.8269E+06     3.03159E+06     58.1437E+06     4.89759E+06         82.5289
            1325     11.1683E-03     115.594E-03         2.11875         1.01709        -3.75783         1.00453        -3.74526         2.11875    -17.0909E-03     592.413E-03    -296.114E-03    -296.299E-03    -295.398E-03     591.556E-03    -296.158E-03     55.0607E-03     70.8531E+06     17.2222E+06    -22.0633E+06    -21.7135E+06     16.8724E+06     70.8531E+06     3.38067E+06         86.8647
            1326     11.9140E-03     115.688E-03         2.04091     824.518E-03        -3.48864     810.837E-03        -3.47496         2.04091    -11.4280E-03     593.323E-03    -296.212E-03    -297.111E-03    -295.778E-03     591.989E-03    -296.212E-03     68.1728E-03     93.8666E+06     38.5112E+06    -15.2757E+06    -15.2008E+06     38.4363E+06     93.8666E+06     1.74865E+06         90.9287
            1327     12.6589E-03     115.816E-03         1.96008     631.950E-03        -3.21626     617.435E-03        -3.20175         1.96008    -23.2379E-03     593.687E-03    -296.286E-03    -297.401E-03    -295.831E-03     592.116E-03    -296.286E-03     74.6704E-03     124.674E+06     63.4715E+06    -7.91009E+06    -7.89726E+06     63.4587E+06     124.674E+06     877.702E+03         94.1204
            1328     744.595E-06     117.110E-03         6.18351         2.61040        -9.43767         2.67437        -5.92853         2.61040        -5.12600     590.442E-03    -295.019E-03    -295.423E-03    -295.304E-03     590.441E-03    -295.137E-03    -1.47363E-03    -95.0548E+06    -96.4092E+06    -179.279E+06    -96.2215E+06    -179.192E+06    -95.3291E+06     2.49463E+06         67.4074
            1329     1.48967E-03     117.107E-03         3.59393         2.64074        -6.87074         2.63291        -5.90973         2.64074         1.64806     590.278E-03    -295.055E-03    -295.222E-03    -295.070E-03     590.276E-03    -295.207E-03    -2.12037E-03    -90.7025E+06    -94.4733E+06    -170.519E+06    -94.7066E+06    -170.286E+06    -90.7025E+06     4.07392E+06         67.4290
            1330     2.23444E-03     117.102E-03         2.92568         2.62957        -6.18658         2.57138        -5.83228         2.62957    -803.684E-03     590.309E-03    -295.090E-03    -295.219E-03    -295.114E-03     590.307E-03    -295.193E-03    -2.41217E-03    -83.5665E+06    -91.4703E+06    -157.803E+06    -92.0438E+06    -157.230E+06    -83.5665E+06     5.89038E+06         67.4673
            1331     2.97886E-03     117.095E-03         2.68379         2.58756        -5.90399         2.51562        -5.75703         2.60877     447.994E-03     590.335E-03    -295.113E-03    -295.223E-03    -295.124E-03     590.334E-03    -295.211E-03    -1.95933E-03    -74.3237E+06    -87.3042E+06    -140.183E+06    -88.6780E+06    -138.809E+06    -74.3237E+06     8.02525E+06         67.5294
            1332     3.72380E-03     117.089E-03         2.58224         2.49830        -5.71555         2.42893        -5.64617         2.58224    -249.681E-03     590.265E-03    -295.034E-03    -295.231E-03    -295.035E-03     590.265E-03    -295.229E-03    -719.860E-06    -62.9729E+06    -80.9351E+06    -118.350E+06    -84.5550E+06    -114.730E+06    -62.9729E+06     10.1585E+06         67.6290
            1333     4.46856E-03     117.087E-03         2.54945         2.37439        -5.56061         2.33733        -5.52355         2.54945     160.582E-03     590.174E-03    -294.936E-03    -295.238E-03    -294.935E-03     590.173E-03    -295.238E-03     1.40398E-03    -49.7893E+06    -67.6009E+06    -96.9888E+06    -79.5291E+06    -85.0605E+06    -49.7893E+06     12.4875E+06         67.7925
            1334     5.21336E-03     117.087E-03         2.51155         2.25296        -5.39859         2.23027        -5.37590         2.51155    -80.9539E-03     590.093E-03    -294.853E-03    -295.240E-03    -294.846E-03     590.086E-03    -295.240E-03     4.48544E-03    -34.6532E+06    -43.0725E+06    -81.7052E+06    -73.8885E+06    -50.1972E+06    -35.3451E+06     14.4370E+06         68.0663
            1335     5.95830E-03     117.094E-03         2.46863         2.12916        -5.22855         2.11306        -5.21245         2.46863     61.7775E-03     590.082E-03    -294.816E-03    -295.266E-03    -294.794E-03     590.060E-03    -295.266E-03     8.46224E-03    -18.4878E+06    -21.6762E+06    -72.5956E+06    -68.0148E+06    -25.5651E+06    -19.1797E+06     14.6162E+06         68.5270
            1336     6.70337E-03     117.108E-03         2.42068         1.99149        -5.04152         1.97869        -5.02872         2.42068    -24.3035E-03     590.178E-03    -294.856E-03    -295.322E-03    -294.806E-03     590.128E-03    -295.322E-03     13.0727E-03    -2.07393E+06    -12.8718E+06    -65.2811E+06    -61.7806E+06    -16.3723E+06    -2.07393E+06     13.0537E+06         69.2890
            1337     7.44825E-03     117.129E-03         2.36752         1.84312        -4.84032         1.83176        -4.82896         2.36752     24.4583E-03     590.348E-03    -294.963E-03    -295.386E-03    -294.864E-03     590.250E-03    -295.386E-03     18.4288E-03     14.4272E+06    -7.44484E+06    -57.6233E+06    -55.0949E+06    -9.97316E+06     14.4272E+06     10.9322E+06         70.5047
            1338     8.19318E-03     117.160E-03         2.30924         1.68279        -4.62287         1.67208        -4.61216         2.30924    -6.70797E-03     590.590E-03    -295.136E-03    -295.454E-03    -294.965E-03     590.419E-03    -295.454E-03     24.4394E-03     29.3002E+06    -4.53609E+06    -50.1669E+06    -48.3936E+06    -6.30947E+06     29.3002E+06     8.80999E+06         72.3456
            1339     8.93811E-03     117.201E-03         2.24609         1.51573        -4.39244         1.50505        -4.38176         2.24609     10.6853E-03     590.859E-03    -295.338E-03    -295.521E-03    -295.066E-03     590.587E-03    -295.521E-03     30.8739E-03     41.9962E+06    -2.54995E+06    -42.8789E+06    -41.5020E+06    -3.92683E+06     41.9962E+06     7.32216E+06         74.9562
            1340     9.68322E-03     117.254E-03         2.17850         1.34281        -4.14972         1.33207        -4.13898         2.17850    -5.93610E-03     591.100E-03    -295.507E-03    -295.592E-03    -295.113E-03     590.689E-03    -295.576E-03     37.9789E-03     51.9579E+06     786.954E+03    -35.7502E+06    -34.6279E+06    -335.346E+03     51.9579E+06     6.29298E+06         78.3797
            1341     10.4285E-03     117.318E-03         2.10680         1.16585        -3.89837         1.15459        -3.88711         2.10680     2.50405E-03     591.390E-03    -295.609E-03    -295.781E-03    -295.159E-03     590.774E-03    -295.616E-03     46.4743E-03     60.3824E+06     6.51075E+06    -28.6781E+06    -27.9346E+06     5.76727E+06     60.3824E+06     4.97100E+06         82.4759
            1342     11.1736E-03     117.400E-03         2.03130     984.435E-03        -3.64033     972.777E-03        -3.62867         2.03130    -10.5133E-03     591.665E-03    -295.658E-03    -296.007E-03    -295.160E-03     590.818E-03    -295.658E-03     54.6986E-03     73.4880E+06     20.9263E+06    -21.8994E+06    -21.5496E+06     20.5764E+06     73.4880E+06     3.62184E+06         86.8724
            1343     11.9189E-03     117.494E-03         1.95205     801.388E-03        -3.37892     788.794E-03        -3.36632         1.95205    -4.11607E-03     592.451E-03    -295.726E-03    -296.724E-03    -295.397E-03     591.123E-03    -295.726E-03     67.9723E-03     96.3365E+06     41.6875E+06    -15.3654E+06    -15.2451E+06     41.5672E+06     96.3365E+06     2.36594E+06         91.0016
            1344     12.6653E-03     117.623E-03         1.86966     619.821E-03        -3.11601     606.584E-03        -3.10277         1.86966    -17.5303E-03     592.975E-03    -295.815E-03    -297.160E-03    -295.599E-03     591.414E-03    -295.815E-03     74.4132E-03     126.947E+06     65.5466E+06    -8.10311E+06    -8.07327E+06     65.5167E+06     126.947E+06     1.27050E+06         94.2443
            1345     745.041E-06     118.914E-03         6.39994         2.49083        -9.54229         2.34491        -5.48726         2.49083        -5.49476     589.242E-03    -294.448E-03    -294.794E-03    -294.474E-03     589.242E-03    -294.768E-03    -1.21866E-03    -96.9336E+06    -98.4306E+06    -187.838E+06    -98.2115E+06    -187.783E+06    -97.2079E+06     1.84364E+06         67.3099
            1346     1.49007E-03     118.910E-03         3.54772         2.41306        -6.60861         2.39116        -5.45205         2.41306         1.77558     589.081E-03    -294.449E-03    -294.633E-03    -294.474E-03     589.080E-03    -294.606E-03    -2.06026E-03    -92.7677E+06    -96.1492E+06    -179.218E+06    -96.3266E+06    -179.041E+06    -92.7677E+06     3.64772E+06         67.3320
            1347     2.23564E-03     118.905E-03         2.78295         2.40085        -5.82719         2.35508        -5.39932         2.40085    -863.555E-03     588.960E-03    -294.384E-03    -294.576E-03    -294.383E-03     588.958E-03    -294.576E-03    -2.51835E-03    -85.4091E+06    -93.4312E+06    -166.660E+06    -93.8734E+06    -166.217E+06    -85.4091E+06     5.48648E+06         67.3710
            1348     2.98130E-03     118.899E-03         2.48054         2.37872        -5.50239         2.29832        -5.32497         2.38351     489.905E-03     589.014E-03    -294.441E-03    -294.573E-03    -294.442E-03     589.013E-03    -294.571E-03    -2.12376E-03    -75.7843E+06    -89.3133E+06    -148.668E+06    -90.2996E+06    -147.682E+06    -75.7843E+06     7.25255E+06         67.4337
            1349     3.72615E-03     118.894E-03         2.36469         2.30468        -5.31336         2.22706        -5.23137         2.36032    -265.377E-03     589.020E-03    -294.428E-03    -294.591E-03    -294.430E-03     589.019E-03    -294.589E-03    -785.603E-06    -64.0401E+06    -83.2697E+06    -126.365E+06    -85.6392E+06    -123.996E+06    -64.0401E+06     9.12071E+06         67.5335
            1350     4.47142E-03     118.890E-03         2.33155         2.18446        -5.16145         2.14169        -5.11868         2.33155     182.276E-03     588.940E-03    -294.333E-03    -294.607E-03    -294.332E-03     588.939E-03    -294.607E-03     1.42918E-03    -50.6021E+06    -72.7226E+06    -103.097E+06    -80.3687E+06    -95.4506E+06    -50.6021E+06     11.3950E+06         67.6961
            1351     5.21691E-03     118.891E-03         2.29742         2.06997        -5.01256         2.04470        -4.98729         2.29742    -81.0529E-03     588.968E-03    -294.349E-03    -294.619E-03    -294.342E-03     588.962E-03    -294.619E-03     4.42100E-03    -35.8184E+06    -49.3201E+06    -84.5812E+06    -74.7012E+06    -59.2002E+06    -35.8184E+06     13.7849E+06         67.9674
            1352     5.96206E-03     118.898E-03         2.25824         1.95506        -4.85527         1.93776        -4.83796         2.25824     78.0547E-03     589.045E-03    -294.389E-03    -294.656E-03    -294.369E-03     589.024E-03    -294.656E-03     8.23791E-03    -19.6002E+06    -23.4326E+06    -73.7500E+06    -68.7036E+06    -28.4789E+06    -19.6002E+06     14.9103E+06         68.4231
            1353     6.70710E-03     118.912E-03         2.21413         1.83134        -4.68439         1.81816        -4.67121         2.21413    -18.9700E-03     589.128E-03    -294.406E-03    -294.721E-03    -294.358E-03     589.079E-03    -294.721E-03     12.8755E-03    -3.05474E+06    -10.4210E+06    -66.1096E+06    -62.4999E+06    -14.0307E+06    -3.05474E+06     13.6374E+06         69.1781
            1354     7.45247E-03     118.934E-03         2.16492         1.69641        -4.49971         1.68508        -4.48838         2.16492     37.7752E-03     589.338E-03    -294.539E-03    -294.799E-03    -294.443E-03     589.242E-03    -294.799E-03     18.2349E-03     13.0678E+06    -4.74688E+06    -58.4585E+06    -55.9199E+06    -7.28549E+06     13.0678E+06     11.3732E+06         70.3865
            1355     8.19779E-03     118.965E-03         2.11055         1.55116        -4.30106         1.54074        -4.29065         2.11055     1.92464E-03     589.704E-03    -294.793E-03    -294.912E-03    -294.646E-03     589.536E-03    -294.890E-03     24.2192E-03     28.8376E+06    -1.44361E+06    -50.8544E+06    -48.9532E+06    -3.34479E+06     28.8376E+06     9.49507E+06         72.2240
            1356     8.94285E-03     119.007E-03         2.05128         1.39954        -4.09051         1.38934        -4.08031         2.05128     22.1240E-03     590.035E-03    -294.964E-03    -295.071E-03    -294.783E-03     589.767E-03    -294.985E-03     30.6022E-03     42.2091E+06    -638.984E+03    -43.6605E+06    -42.1978E+06    -2.10175E+06     42.2091E+06     7.79545E+06         74.8414
            1357     9.68810E-03     119.058E-03         1.98754         1.24388        -3.86944         1.23373        -3.85929         1.98754     4.07512E-03     590.333E-03    -295.050E-03    -295.283E-03    -294.864E-03     589.930E-03    -295.066E-03     37.6049E-03     52.8816E+06     2.59348E+06    -36.6436E+06    -35.5851E+06     1.53496E+06     52.8816E+06     6.31064E+06         78.2893
            1358     10.4335E-03     119.124E-03         1.91967         1.08621        -3.64076         1.07565        -3.63020         1.91967     12.4856E-03     590.721E-03    -295.132E-03    -295.589E-03    -294.988E-03     590.120E-03    -295.132E-03     45.9322E-03     62.0912E+06     9.55174E+06    -29.6262E+06    -28.9947E+06     8.92018E+06     62.0912E+06     4.85578E+06         82.4311
            1359     11.1791E-03     119.205E-03         1.84806     925.466E-03        -3.40646     914.674E-03        -3.39567         1.84806    -2.18944E-03     590.948E-03    -295.198E-03    -295.750E-03    -294.923E-03     590.121E-03    -295.198E-03     54.0148E-03     75.2627E+06     23.1120E+06    -22.7329E+06    -22.4006E+06     22.7797E+06     75.2627E+06     3.78894E+06         86.8913
            1360     11.9254E-03     119.299E-03         1.77257     763.271E-03        -3.16892     751.706E-03        -3.15736         1.77257     3.88978E-03     591.649E-03    -295.280E-03    -296.369E-03    -295.060E-03     590.339E-03    -295.280E-03     67.4362E-03     98.0783E+06     44.2622E+06    -15.7806E+06    -15.6089E+06     44.0905E+06     98.0783E+06     3.09057E+06         91.0894
            1361     12.6709E-03     119.429E-03         1.69386     602.149E-03        -2.93021     590.221E-03        -2.91828         1.69386    -11.8962E-03     592.110E-03    -295.376E-03    -296.735E-03    -295.189E-03     590.565E-03    -295.376E-03     73.9861E-03     129.034E+06     68.8164E+06    -8.16710E+06    -8.10743E+06     68.7567E+06     129.034E+06     1.83553E+06         94.3860
            1362     745.920E-06     120.715E-03         5.68940         2.22159        -8.57984         1.92096        -4.81140         2.22159        -4.98956     587.919E-03    -293.750E-03    -294.169E-03    -293.918E-03     587.918E-03    -294.000E-03    -1.26638E-03    -97.2253E+06    -98.9257E+06    -195.571E+06    -98.8128E+06    -195.527E+06    -97.3827E+06     1.74253E+06         67.2176
            1363     1.49160E-03     120.712E-03         3.12168         2.06439        -5.85155         2.03291        -4.76278         2.06439         1.61603     587.953E-03    -293.924E-03    -294.029E-03    -293.973E-03     587.952E-03    -293.979E-03    -2.14941E-03    -93.2184E+06    -97.0637E+06    -187.651E+06    -97.2135E+06    -187.501E+06    -93.2184E+06     3.51665E+06         67.2403
            1364     2.23698E-03     120.705E-03         2.42421         2.05273        -5.14152         2.02263        -4.73995         2.05273    -776.145E-03     587.905E-03    -293.886E-03    -294.019E-03    -293.908E-03     587.903E-03    -293.995E-03    -2.60307E-03    -86.2832E+06    -94.3648E+06    -174.520E+06    -94.7091E+06    -174.175E+06    -86.2832E+06     5.09315E+06         67.2801
            1365     2.98247E-03     120.700E-03         2.14055         2.04051        -4.84086         1.97276        -4.67307         2.04051     454.797E-03     587.765E-03    -293.772E-03    -293.993E-03    -293.770E-03     587.764E-03    -293.993E-03    -2.23668E-03    -76.9973E+06    -90.6216E+06    -155.948E+06    -91.3079E+06    -155.261E+06    -76.9973E+06     6.46499E+06         67.3436
            1366     3.72860E-03     120.695E-03         2.03585         1.98362        -4.68046         1.91961        -4.60335         2.02275    -229.499E-03     587.753E-03    -293.758E-03    -293.995E-03    -293.757E-03     587.752E-03    -293.995E-03    -1.01905E-03    -65.3155E+06    -85.5637E+06    -134.401E+06    -87.1229E+06    -132.841E+06    -65.3155E+06     8.13359E+06         67.4438
            1367     4.47439E-03     120.692E-03         2.00005         1.88633        -4.54852         1.84577        -4.50796         2.00005     176.715E-03     587.860E-03    -293.845E-03    -294.016E-03    -293.844E-03     587.859E-03    -294.016E-03     1.14158E-03    -51.7338E+06    -77.2105E+06    -109.944E+06    -82.1091E+06    -105.046E+06    -51.7338E+06     10.2807E+06         67.6057
            1368     5.21978E-03     120.693E-03         1.97200         1.78918        -4.42395         1.76532        -4.40009         1.97200    -61.8408E-03     587.930E-03    -293.882E-03    -294.047E-03    -293.877E-03     587.924E-03    -294.047E-03     4.19387E-03    -36.6986E+06    -57.5163E+06    -88.6715E+06    -76.3325E+06    -69.8554E+06    -36.6986E+06     12.9470E+06         67.8743
            1369     5.96536E-03     120.700E-03         1.93906         1.68976        -4.28922         1.67337        -4.27283         1.93906     84.1749E-03     587.993E-03    -293.906E-03    -294.088E-03    -293.886E-03     587.974E-03    -294.088E-03     8.02323E-03    -20.1609E+06    -28.4537E+06    -75.6453E+06    -70.0029E+06    -33.6343E+06    -20.6227E+06     14.7705E+06         68.3250
            1370     6.71113E-03     120.714E-03         1.90138         1.58694        -4.14463         1.57449        -4.13218         1.90138    -3.41038E-03     588.157E-03    -294.001E-03    -294.156E-03    -293.954E-03     588.110E-03    -294.156E-03     12.6258E-03    -3.57981E+06    -8.72747E+06    -66.9804E+06    -63.3985E+06    -11.8476E+06    -4.04168E+06     13.9684E+06         69.0726
            1371     7.45661E-03     120.736E-03         1.85897         1.47418        -3.98736         1.46349        -3.97667         1.85897     48.7611E-03     588.451E-03    -294.181E-03    -294.270E-03    -294.103E-03     588.356E-03    -294.254E-03     18.0339E-03     12.2669E+06    -2.49670E+06    -59.4659E+06    -56.8090E+06    -5.15365E+06     12.2669E+06     12.0045E+06         70.2731
            1372     8.20192E-03     120.768E-03         1.81171         1.35320        -3.81977         1.34339        -3.80996         1.81171     16.5770E-03     588.779E-03    -294.352E-03    -294.426E-03    -294.251E-03     588.612E-03    -294.361E-03     24.0742E-03     27.8760E+06     863.601E+03    -52.2589E+06    -50.1625E+06    -1.23286E+06     27.8760E+06     10.3255E+06         72.1067
            1373     8.94746E-03     120.810E-03         1.75987         1.22681        -3.64238         1.21722        -3.63279         1.75987     34.5912E-03     589.175E-03    -294.471E-03    -294.704E-03    -294.438E-03     588.909E-03    -294.471E-03     30.5235E-03     41.7850E+06     2.23248E+06    -44.9617E+06    -43.3531E+06     623.834E+03     41.7850E+06     8.56203E+06         74.7312
            1374     9.69282E-03     120.863E-03         1.70386         1.09886        -3.45720         1.08934        -3.44767         1.70386     18.2581E-03     589.673E-03    -294.578E-03    -295.095E-03    -294.689E-03     589.267E-03    -294.578E-03     37.7049E-03     53.7434E+06     5.62576E+06    -37.6289E+06    -36.5219E+06     4.51875E+06     53.7434E+06     6.75836E+06         78.2040
            1375     10.4380E-03     120.928E-03         1.64401     970.303E-03        -3.26565     960.379E-03        -3.25573         1.64401     23.6400E-03     590.166E-03    -294.675E-03    -295.491E-03    -294.886E-03     589.561E-03    -294.675E-03     46.0407E-03     63.9944E+06     12.9287E+06    -30.4341E+06    -29.8312E+06     12.3258E+06     63.9944E+06     5.00072E+06         82.3929
            1376     11.1836E-03     121.009E-03         1.58075     840.308E-03        -3.06923     830.330E-03        -3.05926         1.58075     7.95730E-03     590.451E-03    -294.771E-03    -295.680E-03    -294.863E-03     589.635E-03    -294.771E-03     53.6892E-03     77.0907E+06     24.1824E+06    -23.3730E+06    -23.0615E+06     23.8709E+06     77.0907E+06     3.76245E+06         86.9188
            1377     11.9291E-03     121.103E-03         1.51375     709.125E-03        -2.87042     698.480E-03        -2.85977         1.51375     11.9307E-03     590.937E-03    -294.871E-03    -296.066E-03    -294.766E-03     589.637E-03    -294.871E-03     67.1036E-03     100.045E+06     45.7404E+06    -15.9499E+06    -15.7691E+06     45.5595E+06     100.045E+06     3.26754E+06         91.1886
            1378     12.6758E-03     121.233E-03         1.44362     578.753E-03        -2.67128     568.061E-03        -2.66059         1.44362    -5.80091E-03     591.072E-03    -294.964E-03    -296.107E-03    -294.558E-03     589.522E-03    -294.964E-03     74.0070E-03     131.383E+06     73.0066E+06    -8.20507E+06    -8.12653E+06     72.9281E+06     131.383E+06     2.22802E+06         94.5430
            1379     745.808E-06     122.514E-03         4.13325         1.83506        -6.66728         1.42360        -3.95763         1.83506        -3.69556     586.930E-03    -293.328E-03    -293.602E-03    -293.538E-03     586.929E-03    -293.392E-03    -1.67002E-03    -100.039E+06    -101.665E+06    -203.260E+06    -101.141E+06    -203.219E+06    -100.604E+06     1.86171E+06         67.1315
            1380     1.49205E-03     122.510E-03         2.35409         1.62123        -4.66596         1.58382        -3.89568         1.62123         1.19992     586.761E-03    -293.285E-03    -293.476E-03    -293.308E-03     586.759E-03    -293.452E-03    -2.44318E-03    -95.4650E+06    -99.5383E+06    -195.078E+06    -99.6541E+06    -194.962E+06    -95.4650E+06     3.17576E+06         67.1550
            1381     2.23823E-03     122.505E-03         1.87583         1.61078        -4.18014         1.59539        -3.89971         1.61078    -564.666E-03     586.717E-03    -293.265E-03    -293.451E-03    -293.288E-03     586.715E-03    -293.427E-03    -2.60054E-03    -88.0602E+06    -96.6026E+06    -181.812E+06    -96.8734E+06    -181.541E+06    -88.0602E+06     4.65579E+06         67.1959
            1382     2.98448E-03     122.498E-03         1.67294         1.60351        -3.96191         1.55363        -3.84260         1.60351     344.658E-03     586.706E-03    -293.271E-03    -293.434E-03    -293.274E-03     586.704E-03    -293.430E-03    -2.16163E-03    -78.0364E+06    -92.6687E+06    -163.521E+06    -93.2656E+06    -162.924E+06    -78.0364E+06     6.27421E+06         67.2604
            1383     3.73052E-03     122.494E-03         1.60700         1.56084        -3.85410         1.52078        -3.79843         1.59139    -156.159E-03     586.753E-03    -293.295E-03    -293.458E-03    -293.299E-03     586.753E-03    -293.454E-03    -1.00952E-03    -65.7218E+06    -87.7417E+06    -142.304E+06    -89.0585E+06    -140.987E+06    -65.7218E+06     8.03820E+06         67.3611
            1384     4.47643E-03     122.491E-03         1.57535         1.49259        -3.75630         1.46215        -3.72585         1.57535     141.632E-03     586.892E-03    -293.398E-03    -293.494E-03    -293.397E-03     586.891E-03    -293.494E-03     1.04303E-03    -51.9626E+06    -80.4927E+06    -117.702E+06    -84.1089E+06    -114.086E+06    -51.9626E+06     9.99509E+06         67.5222
            1385     5.22262E-03     122.493E-03         1.55461         1.42365        -3.66717         1.40503        -3.64855         1.55461    -29.5199E-03     586.973E-03    -293.435E-03    -293.538E-03    -293.429E-03     586.967E-03    -293.538E-03     3.97789E-03    -37.3297E+06    -64.6121E+06    -93.9837E+06    -78.3413E+06    -80.2545E+06    -37.3297E+06     12.2106E+06         67.7878
            1386     5.96867E-03     122.501E-03         1.52984         1.35000        -3.56629         1.33655        -3.55284         1.52984     75.1197E-03     587.025E-03    -293.448E-03    -293.577E-03    -293.430E-03     587.007E-03    -293.577E-03     7.69960E-03    -21.4895E+06    -34.5527E+06    -78.0520E+06    -71.9756E+06    -40.1672E+06    -21.9514E+06     13.9667E+06         68.2329
            1387     6.71436E-03     122.515E-03         1.50101         1.27589        -3.45932         1.26520        -3.44863         1.50101     14.6713E-03     587.232E-03    -293.578E-03    -293.654E-03    -293.543E-03     587.187E-03    -293.644E-03     12.2987E-03    -5.18469E+06    -8.87523E+06    -69.0217E+06    -65.4488E+06    -11.9863E+06    -5.64655E+06     14.2232E+06         68.9723
            1388     7.46014E-03     122.538E-03         1.46817         1.19369        -3.34082         1.18418        -3.33131         1.46817     50.6965E-03     587.547E-03    -293.747E-03    -293.800E-03    -293.706E-03     587.455E-03    -293.750E-03     17.7627E-03     10.6207E+06    -545.144E+03    -61.6836E+06    -58.8298E+06    -3.39896E+06     10.6207E+06     12.8833E+06         70.1641
            1389     8.20605E-03     122.570E-03         1.43117         1.10510        -3.21512         1.09617        -3.20618         1.43117     28.5047E-03     587.869E-03    -293.866E-03    -294.003E-03    -293.840E-03     587.705E-03    -293.866E-03     23.8094E-03     26.3695E+06     3.30415E+06    -54.0012E+06    -51.8824E+06     1.18537E+06     26.3695E+06     10.7601E+06         71.9930
            1390     8.95182E-03     122.612E-03         1.39010         1.01133        -3.08137         1.00244        -3.07249         1.39010     39.3267E-03     588.291E-03    -293.986E-03    -294.305E-03    -294.041E-03     588.027E-03    -293.986E-03     30.3186E-03     40.9335E+06     4.98241E+06    -46.1990E+06    -44.6716E+06     3.45499E+06     40.9335E+06     8.68586E+06         74.6239
            1391     9.69749E-03     122.666E-03         1.34530     917.621E-03        -2.94208     908.719E-03        -2.93318         1.34530     27.6803E-03     588.751E-03    -294.104E-03    -294.648E-03    -294.242E-03     588.346E-03    -294.104E-03     37.6317E-03     54.1413E+06     8.51576E+06    -38.4469E+06    -37.3809E+06     7.44976E+06     54.1413E+06     6.91421E+06         78.1225
            1392     10.4433E-03     122.731E-03         1.29709     825.115E-03        -2.79797     815.802E-03        -2.78865         1.29709     29.4124E-03     589.306E-03    -294.211E-03    -295.095E-03    -294.478E-03     588.689E-03    -294.211E-03     46.4584E-03     65.8168E+06     16.1407E+06    -30.9500E+06    -30.3125E+06     15.5032E+06     65.8168E+06     5.38706E+06         82.3613
            1393     11.1887E-03     122.814E-03         1.24596     733.246E-03        -2.65125     723.953E-03        -2.64196         1.24596     16.0353E-03     589.829E-03    -294.322E-03    -295.506E-03    -294.662E-03     588.984E-03    -294.322E-03     54.5748E-03     79.0733E+06     25.7408E+06    -24.2793E+06    -23.8999E+06     25.3615E+06     79.0733E+06     4.26743E+06         86.9568
            1394     11.9347E-03     122.905E-03         1.19156     641.735E-03        -2.50409     631.895E-03        -2.49425         1.19156     17.7861E-03     590.472E-03    -294.442E-03    -296.031E-03    -294.704E-03     589.146E-03    -294.442E-03     67.7923E-03     101.729E+06     47.3715E+06    -17.1717E+06    -16.9767E+06     47.1765E+06     101.729E+06     3.34860E+06         91.3011
            1395     12.6816E-03     123.034E-03         1.13447     552.076E-03        -2.35832     542.480E-03        -2.34873         1.13447     3.09944E-06     590.538E-03    -294.555E-03    -295.983E-03    -294.427E-03     588.982E-03    -294.555E-03     74.1373E-03     133.793E+06     77.0467E+06    -8.78700E+06    -8.72553E+06     76.9852E+06     133.793E+06     1.93043E+06         94.7133
            1396     746.445E-06     124.312E-03         2.13055         1.27673        -4.14156     877.376E-03        -2.97111         1.35945        -1.83038     585.708E-03    -292.675E-03    -293.033E-03    -292.786E-03     585.707E-03    -292.922E-03    -1.24826E-03    -103.455E+06    -105.737E+06    -210.550E+06    -105.354E+06    -210.526E+06    -103.862E+06     1.54628E+06         67.0517
            1397     1.49276E-03     124.307E-03         1.39239         1.10180        -3.22377         1.06704        -2.90585         1.10923     597.435E-03     585.637E-03    -292.719E-03    -292.918E-03    -292.778E-03     585.636E-03    -292.858E-03    -2.11312E-03    -99.0165E+06    -103.298E+06    -201.969E+06    -103.381E+06    -201.887E+06    -99.0165E+06     2.68888E+06         67.0761
            1398     2.23967E-03     124.301E-03         1.22167         1.09312        -3.04447         1.10016        -2.93012         1.10029    -264.388E-03     585.579E-03    -292.705E-03    -292.875E-03    -292.720E-03     585.577E-03    -292.858E-03    -2.52251E-03    -90.3896E+06    -100.128E+06    -188.826E+06    -100.353E+06    -188.600E+06    -90.3896E+06     4.32069E+06         67.1183
            1399     2.98614E-03     124.296E-03         1.12420         1.09073        -2.93695         1.06602        -2.88594         1.09790     178.338E-03     585.733E-03    -292.835E-03    -292.899E-03    -292.847E-03     585.732E-03    -292.884E-03    -2.27167E-03    -79.5503E+06    -95.9518E+06    -171.499E+06    -96.4683E+06    -170.982E+06    -79.5503E+06     6.01867E+06         67.1840
            1400     3.73247E-03     124.291E-03         1.10237         1.06917        -2.89350         1.05453        -2.86792         1.09144    -54.8793E-03     585.898E-03    -292.917E-03    -292.982E-03    -292.954E-03     585.898E-03    -292.944E-03    -1.03346E-03    -66.7216E+06    -90.4643E+06    -150.198E+06    -91.6177E+06    -149.045E+06    -66.7216E+06     7.89649E+06         67.2853
            1401     4.47899E-03     124.289E-03         1.08260         1.03188        -2.83833         1.01629        -2.82274         1.08260     84.5591E-03     586.022E-03    -292.976E-03    -293.046E-03    -293.009E-03     586.021E-03    -293.012E-03     1.03470E-03    -52.3969E+06    -83.1635E+06    -125.155E+06    -85.8930E+06    -122.425E+06    -52.3969E+06     9.66382E+06         67.4455
            1402     5.22499E-03     124.292E-03         1.07020     996.483E-03        -2.79205     985.461E-03        -2.78103         1.07020     13.2200E-03     586.130E-03    -293.046E-03    -293.084E-03    -293.052E-03     586.125E-03    -293.073E-03     3.89866E-03    -37.4770E+06    -69.8194E+06    -99.1141E+06     -79.662E+06    -89.2715E+06    -37.4770E+06     11.4455E+06         67.7081
            1403     5.97104E-03     124.299E-03         1.05503     955.931E-03        -2.73321     946.845E-03        -2.72413         1.05503     56.2018E-03     586.213E-03    -293.075E-03    -293.138E-03    -293.070E-03     586.195E-03    -293.125E-03     7.65649E-03    -21.7801E+06    -40.9998E+06    -80.4058E+06    -73.2186E+06    -48.1869E+06    -21.7801E+06     13.4981E+06         68.1471
            1404     6.71752E-03     124.314E-03         1.03697     917.704E-03        -2.67215     909.471E-03        -2.66391         1.03697     35.2485E-03     586.408E-03    -293.162E-03    -293.246E-03    -293.169E-03     586.364E-03    -293.195E-03     12.1937E-03    -5.51435E+06    -11.0583E+06    -70.4378E+06    -66.5417E+06    -14.9544E+06    -5.51435E+06     14.5672E+06         68.8778
            1405     7.46364E-03     124.337E-03         1.01597     871.473E-03        -2.60125     863.514E-03        -2.59329         1.01597     46.4058E-03     586.706E-03    -293.297E-03    -293.409E-03    -293.320E-03     586.617E-03    -293.297E-03     17.4432E-03     10.0566E+06     1.52775E+06    -62.6138E+06    -59.6754E+06    -1.41069E+06     10.0566E+06     13.3766E+06         70.0600
            1406     8.20960E-03     124.370E-03     991.697E-03     821.166E-03        -2.52598     813.202E-03        -2.51801     991.697E-03     39.3841E-03     587.026E-03    -293.415E-03    -293.611E-03    -293.452E-03     586.866E-03    -293.415E-03     23.4750E-03     25.2707E+06     6.49027E+06    -54.9389E+06    -52.8759E+06     4.42725E+06     25.2707E+06     11.0171E+06         71.8831
            1407     8.95556E-03     124.413E-03     964.120E-03     766.260E-03        -2.44432     758.030E-03        -2.43609     964.120E-03     39.2581E-03     587.421E-03    -293.541E-03    -293.880E-03    -293.620E-03     587.161E-03    -293.541E-03     30.0891E-03     40.1962E+06     8.32595E+06    -47.2586E+06    -45.8628E+06     6.93013E+06     40.1962E+06     8.67974E+06         74.5197
            1408     9.70166E-03     124.466E-03     933.482E-03     712.942E-03        -2.35968     704.531E-03        -2.35127     933.482E-03     34.5652E-03     587.852E-03    -293.666E-03    -294.187E-03    -293.789E-03     587.455E-03    -293.666E-03     37.2312E-03     54.0981E+06     10.8991E+06    -39.7236E+06    -38.7759E+06     9.95140E+06     54.0981E+06     6.82117E+06         78.0442
            1409     10.4480E-03     124.533E-03     900.064E-03     662.705E-03        -2.27245     653.862E-03        -2.26361     900.064E-03     32.1178E-03     588.307E-03    -293.777E-03    -294.530E-03    -293.931E-03     587.708E-03    -293.777E-03     45.7136E-03     66.5065E+06     17.4137E+06    -32.5572E+06    -31.8512E+06     16.7077E+06     66.5065E+06     5.89078E+06         82.3343
            1410     11.1947E-03     124.615E-03     864.353E-03     614.762E-03        -2.18476     606.020E-03        -2.17602     864.353E-03     22.5482E-03     588.856E-03    -293.889E-03    -294.967E-03    -294.152E-03     588.041E-03    -293.889E-03     53.5524E-03     80.8710E+06     28.1884E+06    -25.3924E+06    -24.9236E+06     27.7195E+06     80.8710E+06     4.83360E+06         87.0030
            1411     11.9407E-03     124.708E-03     826.009E-03     569.079E-03        -2.09890     559.911E-03        -2.08973     826.009E-03     21.5206E-03     589.864E-03    -294.019E-03    -295.845E-03    -294.558E-03     588.578E-03    -294.019E-03     66.7091E-03     104.014E+06     51.1352E+06    -17.7195E+06    -17.5528E+06     50.9684E+06     104.014E+06     2.96494E+06         91.4257
            1412     12.6862E-03     124.836E-03     785.710E-03     526.200E-03        -2.01634     517.600E-03        -2.00774     785.710E-03     4.76310E-03     590.111E-03    -294.159E-03    -295.952E-03    -294.424E-03     588.582E-03    -294.159E-03     73.4723E-03     136.115E+06     80.4944E+06    -9.14365E+06    -9.11651E+06     80.4673E+06     136.115E+06     1.28680E+06         94.8984
            1413     747.308E-06     126.106E-03         1.16096     708.816E-03        -2.65213     336.407E-03        -1.91030     791.538E-03     314.523E-03     584.256E-03    -291.944E-03    -292.312E-03    -292.017E-03     584.255E-03    -292.238E-03    -1.22976E-03    -104.770E+06    -107.819E+06    -217.572E+06    -107.084E+06    -217.536E+06    -105.542E+06     1.74462E+06         66.9783
            1414     1.49430E-03     126.102E-03     735.055E-03     548.251E-03        -2.06042     517.372E-03        -1.85017     555.681E-03    -97.7060E-03     584.587E-03    -292.202E-03    -292.385E-03    -292.384E-03     584.585E-03    -292.202E-03    -2.24006E-03    -99.9733E+06    -104.977E+06    -208.523E+06    -105.064E+06    -208.437E+06    -99.9733E+06     2.90489E+06         67.0036
            1415     2.24069E-03     126.096E-03     635.186E-03     542.757E-03        -1.95661     563.016E-03        -1.89161     549.928E-03     84.4144E-03     584.768E-03    -292.301E-03    -292.467E-03    -292.453E-03     584.766E-03    -292.313E-03    -2.63253E-03    -91.8061E+06    -101.999E+06    -195.841E+06    -102.196E+06    -195.644E+06    -91.8061E+06     4.15865E+06         67.0470
            1416     2.98757E-03     126.091E-03     575.040E-03     545.478E-03        -1.88959     544.420E-03        -1.86614     552.649E-03    -14.0787E-03     584.872E-03    -292.388E-03    -292.484E-03    -292.470E-03     584.871E-03    -292.401E-03    -2.33093E-03    -81.0207E+06    -97.8852E+06    -178.826E+06    -98.3098E+06    -178.401E+06    -81.0207E+06     5.69572E+06         67.1139
            1417     3.73434E-03     126.087E-03     570.895E-03     543.917E-03        -1.88406     553.055E-03        -1.87508     552.773E-03     63.4331E-03     585.039E-03    -292.482E-03    -292.557E-03    -292.557E-03     585.038E-03    -292.482E-03    -1.17189E-03    -67.9692E+06    -92.4533E+06    -157.548E+06    -93.3182E+06    -156.683E+06    -67.9692E+06     7.17588E+06         67.2155
            1418     4.48066E-03     126.086E-03     559.413E-03     535.233E-03        -1.86518     538.609E-03        -1.86109     551.955E-03     17.1396E-03     585.150E-03    -292.541E-03    -292.608E-03    -292.588E-03     585.149E-03    -292.561E-03     999.258E-06    -53.3537E+06    -85.5558E+06    -131.969E+06    -87.5097E+06    -130.015E+06    -53.3537E+06     8.73503E+06         67.3748
            1419     5.22742E-03     126.088E-03     561.993E-03     527.186E-03        -1.86156     536.107E-03        -1.85742     548.937E-03     61.2708E-03     585.279E-03    -292.607E-03    -292.671E-03    -292.641E-03     585.273E-03    -292.632E-03     3.98842E-03    -37.6958E+06    -74.5025E+06    -104.279E+06    -81.1714E+06    -97.6104E+06    -37.6958E+06     10.4871E+06         67.6342
            1420     5.97411E-03     126.097E-03     561.461E-03     516.134E-03        -1.84692     528.902E-03        -1.84266     544.436E-03     33.0632E-03     585.495E-03    -292.695E-03    -292.800E-03    -292.776E-03     585.477E-03    -292.701E-03     7.77293E-03    -21.4346E+06    -49.1197E+06    -83.3529E+06    -74.3297E+06    -58.1429E+06    -21.4346E+06     12.9296E+06         68.0672
            1421     6.72017E-03     126.112E-03     564.818E-03     506.739E-03        -1.83500     527.603E-03        -1.82937     538.320E-03     58.5223E-03     585.716E-03    -292.779E-03    -292.937E-03    -292.892E-03     585.671E-03    -292.779E-03     12.2509E-03    -4.95052E+06    -15.1735E+06    -71.6310E+06    -67.2388E+06    -19.5657E+06    -4.95052E+06     14.6827E+06         68.7890
            1422     7.46645E-03     126.136E-03     563.946E-03     492.560E-03        -1.81595     519.675E-03        -1.80962     530.497E-03     40.3011E-03     585.995E-03    -292.883E-03    -293.112E-03    -293.023E-03     585.907E-03    -292.883E-03     17.4118E-03     10.3923E+06     3.82679E+06    -63.2584E+06    -60.3105E+06     878.882E+03     10.3923E+06     13.6966E+06         69.9612
            1423     8.21282E-03     126.168E-03     561.390E-03     476.211E-03        -1.79642     509.838E-03        -1.78915     520.494E-03     52.4463E-03     586.322E-03    -293.008E-03    -293.314E-03    -293.158E-03     586.166E-03    -293.008E-03     23.2749E-03     25.1144E+06     9.72797E+06    -55.3944E+06    -53.3009E+06     7.63443E+06     25.1144E+06     11.4534E+06         71.7780
            1424     8.95931E-03     126.212E-03     556.737E-03     457.051E-03        -1.77306     497.668E-03        -1.76513     508.191E-03     40.0637E-03     586.667E-03    -293.141E-03    -293.525E-03    -293.271E-03     586.412E-03    -293.141E-03     29.7423E-03     40.0972E+06     12.1672E+06    -47.7470E+06    -46.2770E+06     10.6973E+06     40.0972E+06     9.24741E+06         74.4198
            1425     9.70554E-03     126.266E-03     553.001E-03     438.351E-03        -1.74944     489.339E-03        -1.74118     493.762E-03     42.8902E-03     587.145E-03    -293.277E-03    -293.868E-03    -293.477E-03     586.754E-03    -293.277E-03     36.9095E-03     54.5180E+06     13.2922E+06    -40.3337E+06    -39.3095E+06     12.2680E+06     54.5180E+06     7.32160E+06         77.9701
            1426     10.4515E-03     126.333E-03     550.584E-03     420.858E-03        -1.72593     485.239E-03        -1.71718     477.454E-03     34.7380E-03     587.661E-03    -293.403E-03    -294.258E-03    -293.669E-03     587.073E-03    -293.403E-03     45.3071E-03     67.6456E+06     18.4692E+06    -32.9487E+06    -32.2258E+06     17.7463E+06     67.6456E+06     5.99394E+06         82.3123
            1427     11.1975E-03     126.415E-03     549.473E-03     404.384E-03        -1.70406     485.805E-03        -1.69569     459.680E-03     28.3909E-03     588.122E-03    -293.523E-03    -294.598E-03    -293.789E-03     587.312E-03    -293.523E-03     53.3076E-03     83.0888E+06     31.2343E+06    -25.1171E+06    -24.7129E+06     30.8302E+06     83.0888E+06     4.54583E+06         87.0563
            1428     11.9440E-03     126.509E-03     549.198E-03     388.729E-03        -1.68606     489.193E-03        -1.67738     440.054E-03     23.5757E-03     588.975E-03    -293.652E-03    -295.323E-03    -294.044E-03     587.696E-03    -293.652E-03     66.5108E-03     106.848E+06     55.6075E+06    -17.0001E+06    -16.8659E+06     55.4733E+06     106.848E+06     2.78166E+06         91.5626
            1429     12.6915E-03     126.636E-03     549.836E-03     374.240E-03        -1.67265     497.066E-03        -1.66496     419.314E-03     8.30740E-03     589.295E-03    -293.788E-03    -295.507E-03    -293.992E-03     587.781E-03    -293.788E-03     73.0817E-03     138.627E+06     83.6774E+06    -8.72161E+06    -8.69787E+06     83.6537E+06     138.627E+06     1.20595E+06         95.1024
            1430     747.329E-06     127.897E-03         2.54195     178.824E-03        -3.56422    -180.026E-03    -842.251E-03     178.824E-03         2.45735     583.375E-03    -291.606E-03    -291.769E-03    -291.635E-03     583.374E-03    -291.739E-03    -1.51829E-03    -106.387E+06    -108.831E+06    -223.978E+06    -108.088E+06    -223.950E+06    -107.159E+06     1.48178E+06         66.9114
            1431     1.49466E-03     127.895E-03         1.10861    -6.27178E-03        -1.93754    -33.4074E-03    -795.513E-03    -6.27178E-03    -788.397E-03     583.588E-03    -291.712E-03    -291.877E-03    -291.847E-03     583.587E-03    -291.740E-03    -2.34005E-03    -101.633E+06    -106.083E+06    -215.260E+06    -106.162E+06    -215.182E+06    -101.633E+06     2.79656E+06         66.9374
            1432     2.24196E-03     127.890E-03     582.386E-03    -7.29045E-03        -1.41405     18.6462E-03    -850.313E-03    -7.29045E-03     429.765E-03     583.928E-03    -291.848E-03    -292.080E-03    -292.078E-03     583.926E-03    -291.848E-03    -2.70300E-03    -93.0915E+06    -103.049E+06    -202.572E+06    -103.225E+06    -202.396E+06    -93.0915E+06     4.06445E+06         66.9816
            1433     2.98881E-03     127.885E-03     321.526E-03     726.700E-06        -1.15104     18.9605E-03    -848.479E-03     726.700E-06    -206.736E-03     584.133E-03    -291.969E-03    -292.165E-03    -292.163E-03     584.132E-03    -291.969E-03    -2.30024E-03    -81.7750E+06    -98.8827E+06    -185.515E+06    -99.2458E+06    -185.152E+06    -81.7750E+06     5.46844E+06         67.0490
            1434     3.73568E-03     127.881E-03     188.527E-03     7.94776E-03        -1.02528     47.5774E-03    -884.332E-03     7.94776E-03     177.293E-03     584.234E-03    -292.071E-03    -292.164E-03    -292.163E-03     584.234E-03    -292.071E-03    -1.16637E-03    -68.2066E+06    -93.5919E+06    -164.085E+06    -94.2697E+06    -163.408E+06    -68.2066E+06     6.71621E+06         67.1507
            1435     4.48292E-03     127.880E-03     114.019E-03     15.5862E-03    -959.993E-03     57.9620E-03    -903.936E-03     15.5862E-03    -55.5161E-03     584.328E-03    -292.134E-03    -292.193E-03    -292.173E-03     584.327E-03    -292.154E-03     867.285E-06    -53.3877E+06    -87.2122E+06    -138.585E+06    -88.6523E+06    -137.145E+06    -53.3877E+06     8.01553E+06         67.3087
            1436     5.22975E-03     127.883E-03     100.768E-03     22.4380E-03    -954.146E-03     84.6458E-03    -938.024E-03     22.4380E-03     101.822E-03     584.502E-03    -292.211E-03    -292.291E-03    -292.266E-03     584.497E-03    -292.230E-03     3.84840E-03    -37.5630E+06    -77.7444E+06    -110.336E+06    -82.2881E+06    -105.792E+06    -37.5630E+06     9.79025E+06         67.5648
            1437     5.97625E-03     127.893E-03     111.302E-03     29.1565E-03    -968.134E-03     109.656E-03    -966.489E-03     29.1565E-03     2.02005E-03     584.732E-03    -292.306E-03    -292.426E-03    -292.408E-03     584.714E-03    -292.306E-03     7.70985E-03    -21.2899E+06    -56.9924E+06    -86.7987E+06    -75.3662E+06    -68.4248E+06    -21.2899E+06     12.0350E+06         67.9917
            1438     6.72308E-03     127.909E-03     147.203E-03     35.5334E-03        -1.00495     143.244E-03        -1.00099     35.5334E-03     73.8396E-03     584.945E-03    -292.379E-03    -292.566E-03    -292.520E-03     584.900E-03    -292.379E-03     12.3486E-03    -5.29137E+06    -21.2167E+06    -72.8011E+06    -68.1215E+06    -25.8963E+06    -5.29137E+06     14.0233E+06         68.7046
            1439     7.46965E-03     127.933E-03     179.807E-03     41.4559E-03        -1.03888     174.595E-03        -1.03367     41.4559E-03     26.2149E-03     585.310E-03    -292.479E-03    -292.831E-03    -292.740E-03     585.220E-03    -292.479E-03     17.6586E-03     10.2650E+06     5.44280E+06    -63.7311E+06    -60.7687E+06     2.48038E+06     10.2650E+06     13.9434E+06         69.8670
            1440     8.21594E-03     127.966E-03     214.112E-03     46.4618E-03        -1.07734     206.555E-03        -1.06979     46.4618E-03     58.2552E-03     585.800E-03    -292.621E-03    -293.180E-03    -293.021E-03     585.642E-03    -292.621E-03     23.4164E-03     25.2403E+06     12.5911E+06    -55.7510E+06    -53.6189E+06     10.4590E+06     25.2403E+06     11.8508E+06         71.6774
            1441     8.96209E-03     128.009E-03     247.734E-03     50.3981E-03        -1.11514     239.007E-03        -1.10642     50.3981E-03     34.3949E-03     586.174E-03    -292.775E-03    -293.399E-03    -293.145E-03     585.921E-03    -292.775E-03     29.6587E-03     40.2649E+06     15.2209E+06    -48.1429E+06    -46.5971E+06     13.6751E+06     40.2649E+06     9.76230E+06         74.3242
            1442     9.70873E-03     128.064E-03     286.623E-03     53.3511E-03        -1.15535     277.703E-03        -1.14643     53.3511E-03     45.5376E-03     586.509E-03    -292.926E-03    -293.583E-03    -293.196E-03     586.122E-03    -292.926E-03     36.7124E-03     54.9434E+06     16.1280E+06    -40.6198E+06    -39.4820E+06     14.9903E+06     54.9434E+06     7.94418E+06         77.9006
            1443     10.4555E-03     128.132E-03     331.548E-03     55.5099E-03        -1.19851     322.221E-03        -1.18918     55.5099E-03     32.5731E-03     586.932E-03    -293.059E-03    -293.873E-03    -293.288E-03     586.347E-03    -293.059E-03     45.1447E-03     68.8994E+06     21.2321E+06    -33.0938E+06    -32.4022E+06     20.5406E+06     68.8994E+06     5.95835E+06         82.2973
            1444     11.2024E-03     128.214E-03     380.749E-03     57.2084E-03        -1.24520     372.424E-03        -1.23688     57.2084E-03     30.1835E-03     587.344E-03    -293.180E-03    -294.164E-03    -293.350E-03     586.530E-03    -293.180E-03     53.4166E-03     85.3469E+06     35.1173E+06    -25.2784E+06    -24.9924E+06     34.8312E+06     85.3469E+06     3.89282E+06         87.1211
            1445     11.9494E-03     128.308E-03     434.515E-03     57.9935E-03        -1.29803     426.161E-03        -1.28967     57.9935E-03     22.5259E-03     588.157E-03    -293.305E-03    -294.852E-03    -293.570E-03     586.875E-03    -293.305E-03     66.5703E-03     109.028E+06     58.3272E+06    -17.2338E+06    -17.1407E+06     58.2341E+06     109.028E+06     2.45944E+06         91.7158
            1446     12.6958E-03     128.436E-03     492.093E-03     58.5540E-03        -1.35653     485.212E-03        -1.34965     58.5540E-03     9.88423E-03     588.528E-03    -293.439E-03    -295.089E-03    -293.584E-03     587.023E-03    -293.439E-03     72.8046E-03     141.019E+06     86.2926E+06    -8.70435E+06    -8.67038E+06     86.2586E+06     141.019E+06     1.60280E+06         95.3254
            1447     747.533E-06     129.688E-03         5.00533    -420.838E-03        -5.49926    -656.573E-03     162.647E-03    -420.838E-03         4.29332     582.843E-03    -291.348E-03    -291.495E-03    -291.420E-03     582.842E-03    -291.422E-03    -1.54539E-03    -107.471E+06    -109.625E+06    -230.555E+06    -109.192E+06    -230.535E+06    -107.925E+06     1.51365E+06         66.8504
            1448     1.49528E-03     129.686E-03         2.24827    -541.416E-03        -2.61742    -556.172E-03     187.023E-03    -541.416E-03        -1.38355     582.823E-03    -291.374E-03    -291.449E-03    -291.386E-03     582.821E-03    -291.435E-03    -2.28245E-03    -102.870E+06    -107.604E+06    -222.071E+06    -107.683E+06    -221.992E+06    -102.870E+06     2.79617E+06         66.8766
            1449     2.24276E-03     129.682E-03         1.21739    -537.344E-03        -1.58923    -497.597E-03     125.755E-03    -537.344E-03     723.053E-03     583.087E-03    -291.479E-03    -291.608E-03    -291.597E-03     583.085E-03    -291.487E-03    -2.69950E-03    -94.0468E+06    -104.748E+06    -209.137E+06    -104.925E+06    -208.960E+06    -94.0468E+06     4.22660E+06         66.9211
            1450     2.99006E-03     129.677E-03     693.768E-03    -524.114E-03        -1.07232    -480.462E-03     101.914E-03    -524.114E-03    -375.869E-03     583.358E-03    -291.589E-03    -291.769E-03    -291.767E-03     583.356E-03    -291.589E-03    -2.38680E-03    -82.3055E+06    -100.487E+06    -191.698E+06    -100.797E+06    -191.388E+06    -82.3055E+06     5.21637E+06         66.9887
            1451     3.73734E-03     129.674E-03     392.945E-03    -510.201E-03    -784.798E-03    -433.614E-03     41.7608E-03    -510.201E-03     270.966E-03     583.486E-03    -291.692E-03    -291.794E-03    -291.793E-03     583.486E-03    -291.692E-03    -1.20824E-03    -68.4875E+06    -94.9752E+06    -170.120E+06    -95.5455E+06    -169.549E+06    -68.4875E+06     6.33706E+06         67.0899
            1452     4.48426E-03     129.673E-03     220.177E-03    -472.619E-03    -650.693E-03    -397.368E-03    -11.3337E-03    -494.433E-03    -121.734E-03     583.623E-03    -291.783E-03    -291.840E-03    -291.840E-03     583.623E-03    -291.783E-03     875.203E-06    -53.3452E+06    -88.4735E+06    -144.980E+06    -89.6303E+06    -143.823E+06    -53.3452E+06     7.67283E+06         67.2463
            1453     5.23138E-03     129.677E-03     127.140E-03    -412.450E-03    -617.527E-03    -343.299E-03    -81.6339E-03    -477.905E-03     132.317E-03     583.781E-03    -291.866E-03    -291.915E-03    -291.909E-03     583.775E-03    -291.866E-03     3.96331E-03    -37.4850E+06    -79.9462E+06    -116.957E+06    -83.1450E+06    -113.758E+06    -37.4850E+06     9.30411E+06         67.4987
            1454     5.97870E-03     129.687E-03     73.0145E-03    -355.494E-03    -616.309E-03    -286.004E-03    -152.678E-03    -460.107E-03    -29.6069E-03     583.954E-03    -291.941E-03    -292.013E-03    -291.994E-03     583.935E-03    -291.941E-03     7.81702E-03    -21.2848E+06    -62.6749E+06    -90.9075E+06    -76.0971E+06    -77.4854E+06    -21.2848E+06     11.2519E+06         67.9191
            1455     6.72560E-03     129.703E-03     44.3064E-03    -303.962E-03    -634.184E-03    -218.685E-03    -233.855E-03    -441.299E-03     81.0868E-03     584.211E-03    -292.010E-03    -292.201E-03    -292.156E-03     584.166E-03    -292.010E-03     12.3260E-03    -5.00948E+06    -28.2006E+06    -73.9585E+06    -68.8284E+06    -33.3306E+06    -5.00948E+06     13.0748E+06         68.6228
            1456     7.47251E-03     129.729E-03     14.2336E-03    -252.884E-03    -651.219E-03    -149.648E-03    -318.536E-03    -421.686E-03     7.92820E-03     584.570E-03    -292.102E-03    -292.468E-03    -292.377E-03     584.479E-03    -292.102E-03     17.5993E-03     10.4691E+06     4.45195E+06    -64.3628E+06    -61.4855E+06     1.57464E+06     10.4691E+06     13.6809E+06         69.7750
            1457     8.21916E-03     129.763E-03     1.52752E-03    -218.601E-03    -671.353E-03    -76.1667E-03    -410.617E-03    -401.642E-03     56.4412E-03     585.052E-03    -292.235E-03    -292.817E-03    -292.655E-03     584.890E-03    -292.235E-03     23.6107E-03     24.8191E+06     15.4415E+06    -56.4629E+06    -54.2673E+06     13.2460E+06     24.8191E+06     12.3501E+06         71.5792
            1458     8.96565E-03     129.807E-03     28.3270E-03    -224.976E-03    -691.426E-03     806.289E-06    -507.591E-03    -381.290E-03     22.0115E-03     585.620E-03    -292.397E-03    -293.223E-03    -292.960E-03     585.357E-03    -292.397E-03     30.1991E-03     39.6297E+06     17.9671E+06    -48.7540E+06    -47.1612E+06     16.3743E+06     39.6297E+06     10.1523E+06         74.2316
            1459     9.71186E-03     129.861E-03     99.1669E-03    -272.470E-03    -712.881E-03     85.7995E-03    -611.382E-03    -360.602E-03     41.2815E-03     586.092E-03    -292.567E-03    -293.525E-03    -293.128E-03     585.695E-03    -292.567E-03     37.2092E-03     54.6993E+06     19.3188E+06    -41.0778E+06    -39.9788E+06     18.2198E+06     54.6993E+06     8.05057E+06         77.8354
            1460     10.4584E-03     129.929E-03     189.916E-03    -317.069E-03    -754.975E-03     178.081E-03    -720.719E-03    -339.491E-03     25.0662E-03     586.435E-03    -292.723E-03    -293.712E-03    -293.126E-03     585.849E-03    -292.723E-03     45.1927E-03     69.9418E+06     24.8488E+06    -33.1902E+06    -32.5274E+06     24.1860E+06     69.9418E+06     6.04768E+06         82.2881
            1461     11.2054E-03     130.011E-03     285.034E-03    -317.759E-03    -845.714E-03     276.231E-03    -836.911E-03    -317.759E-03     26.9688E-03     586.695E-03    -292.859E-03    -293.836E-03    -293.037E-03     585.896E-03    -292.859E-03     52.9163E-03     87.7135E+06     39.4643E+06    -25.4556E+06    -25.1624E+06     39.1710E+06     87.7135E+06     4.11485E+06         87.1946
            1462     11.9525E-03     130.106E-03     386.689E-03    -295.898E-03    -967.883E-03     378.583E-03    -959.777E-03    -295.898E-03     18.5177E-03     587.332E-03    -292.987E-03    -294.345E-03    -293.078E-03     586.065E-03    -292.987E-03     66.0857E-03     111.497E+06     60.4412E+06    -17.6646E+06    -17.5645E+06     60.3411E+06     111.497E+06     2.59799E+06         91.8817
            1463     12.7003E-03     130.234E-03     492.599E-03    -273.366E-03        -1.09663     486.510E-03        -1.09054    -273.366E-03     9.34559E-03     587.651E-03    -293.112E-03    -294.539E-03    -293.034E-03     586.147E-03    -293.112E-03     72.7280E-03     143.401E+06     88.3040E+06    -9.17802E+06    -9.14348E+06     88.2695E+06     143.401E+06     1.61467E+06         95.5656
            1464     747.753E-06     131.479E-03         6.90462    -992.513E-03        -6.91404        -1.04426         1.03484    -992.513E-03         5.57611     582.244E-03    -290.963E-03    -291.281E-03    -291.255E-03     582.243E-03    -290.987E-03    -1.38304E-03    -109.770E+06    -111.873E+06    -237.662E+06    -111.091E+06    -237.641E+06    -110.574E+06     1.31840E+06         66.7939
            1465     1.49547E-03     131.475E-03         3.30570        -1.01688        -3.28614        -1.01414         1.03370        -1.01688        -1.80652     582.360E-03    -291.127E-03    -291.233E-03    -291.198E-03     582.358E-03    -291.160E-03    -2.24944E-03    -104.366E+06    -109.559E+06    -228.664E+06    -109.632E+06    -228.590E+06    -104.366E+06     2.79125E+06         66.8200
            1466     2.24331E-03     131.472E-03         2.02612        -1.00709        -2.01341    -957.633E-03     970.335E-03        -1.00709     927.709E-03     582.412E-03    -291.154E-03    -291.257E-03    -291.193E-03     582.410E-03    -291.216E-03    -2.70048E-03    -94.6906E+06    -105.888E+06    -215.335E+06    -106.038E+06    -215.184E+06    -94.6906E+06     3.95661E+06         66.8643
            1467     2.99099E-03     131.468E-03         1.40088    -989.409E-03        -1.40126    -920.849E-03     920.472E-03    -989.409E-03    -499.409E-03     582.490E-03    -291.165E-03    -291.325E-03    -291.220E-03     582.488E-03    -291.269E-03    -2.40910E-03    -82.6094E+06    -101.114E+06    -197.253E+06    -101.370E+06    -196.997E+06    -82.6094E+06     4.85967E+06         66.9317
            1468     3.73847E-03     131.465E-03         1.05510    -961.834E-03        -1.08315    -860.197E-03     839.660E-03    -969.345E-03     333.776E-03     582.662E-03    -291.278E-03    -291.384E-03    -291.328E-03     582.661E-03    -291.334E-03    -1.06889E-03    -68.8076E+06    -95.7613E+06    -175.991E+06    -96.2274E+06    -175.525E+06    -68.8076E+06     5.95875E+06         67.0323
            1469     4.48621E-03     131.465E-03     843.552E-03    -878.249E-03    -954.729E-03    -798.389E-03     755.175E-03    -946.213E-03    -170.014E-03     582.892E-03    -291.412E-03    -291.480E-03    -291.474E-03     582.891E-03    -291.417E-03     1.16072E-03    -53.2903E+06    -89.2816E+06    -151.353E+06    -90.2371E+06    -150.398E+06    -53.2903E+06     7.31445E+06         67.1867
            1470     5.23361E-03     131.470E-03     687.192E-03    -754.851E-03    -920.683E-03    -719.930E-03     652.272E-03    -920.683E-03     152.232E-03     583.131E-03    -291.508E-03    -291.623E-03    -291.618E-03     583.125E-03    -291.508E-03     4.16457E-03    -37.0370E+06    -81.3290E+06    -122.810E+06    -83.5163E+06    -120.623E+06    -37.0370E+06     8.60999E+06         67.4352
            1471     5.98073E-03     131.480E-03     551.658E-03    -643.255E-03    -892.563E-03    -633.287E-03     541.691E-03    -892.563E-03    -52.1031E-03     583.369E-03    -291.596E-03    -291.773E-03    -291.754E-03     583.350E-03    -291.596E-03     7.87934E-03    -20.7244E+06    -67.3304E+06    -94.3787E+06    -76.3162E+06    -85.3928E+06    -20.7244E+06     10.1370E+06         67.8486
            1472     6.72800E-03     131.498E-03     421.127E-03    -538.215E-03    -862.092E-03    -534.846E-03     417.759E-03    -862.092E-03     84.8807E-03     583.592E-03    -291.677E-03    -291.914E-03    -291.869E-03     583.546E-03    -291.677E-03     12.3716E-03    -4.11580E+06    -35.7098E+06    -74.8725E+06    -68.7718E+06    -41.8106E+06    -4.11580E+06     12.4030E+06         68.5424
            1473     7.47489E-03     131.523E-03     285.405E-03    -432.181E-03    -829.512E-03    -431.382E-03     284.607E-03    -829.512E-03    -6.76593E-03     583.792E-03    -291.761E-03    -292.031E-03    -291.940E-03     583.701E-03    -291.761E-03     17.6224E-03     11.7581E+06     1.42341E+06    -64.5225E+06    -61.3700E+06    -1.72909E+06     11.7581E+06     13.7595E+06         69.6837
            1474     8.22210E-03     131.558E-03     160.998E-03    -340.803E-03    -795.162E-03    -319.959E-03     140.153E-03    -795.162E-03     52.9262E-03     584.128E-03    -291.869E-03    -292.259E-03    -292.097E-03     583.966E-03    -291.869E-03     23.6260E-03     25.3120E+06     17.6338E+06    -56.6644E+06    -54.3671E+06     15.3366E+06     25.3120E+06     12.8463E+06         71.4813
            1475     8.96923E-03     131.603E-03     71.4509E-03    -285.993E-03    -759.147E-03    -201.202E-03    -13.3400E-03    -759.147E-03     9.77728E-03     584.716E-03    -292.008E-03    -292.708E-03    -292.441E-03     584.450E-03    -292.008E-03     30.3581E-03     39.0570E+06     21.3310E+06    -49.0528E+06    -47.4037E+06     19.6818E+06     39.0570E+06     10.5821E+06         74.1402
            1476     9.71608E-03     131.659E-03     37.3278E-03    -287.040E-03    -721.440E-03    -73.0071E-03    -176.705E-03    -721.440E-03     34.3248E-03     585.443E-03    -292.178E-03    -293.265E-03    -292.857E-03     585.035E-03    -292.178E-03     37.6868E-03     54.4937E+06     23.1349E+06    -41.2218E+06    -40.1732E+06     22.0863E+06     54.4937E+06     8.12664E+06         77.7735
            1477     10.4625E-03     131.726E-03     90.5327E-03    -357.226E-03    -700.962E-03     62.8184E-03    -348.434E-03    -682.039E-03     15.4527E-03     586.071E-03    -292.357E-03    -293.714E-03    -293.105E-03     585.462E-03    -292.357E-03     46.0390E-03     70.7413E+06     27.9249E+06    -33.5183E+06    -32.8711E+06     27.2778E+06     70.7413E+06     6.19366E+06         82.2850
            1478     11.2091E-03     131.808E-03     215.000E-03    -453.923E-03    -725.970E-03     204.803E-03    -528.801E-03    -640.895E-03     20.8174E-03     586.303E-03    -292.519E-03    -293.784E-03    -292.957E-03     585.476E-03    -292.519E-03     53.8312E-03     89.6189E+06     42.9401E+06    -26.0209E+06    -25.6659E+06     42.5851E+06     89.6189E+06     4.83423E+06         87.2770
            1479     11.9565E-03     131.902E-03     359.262E-03    -538.133E-03    -785.227E-03     351.452E-03    -717.040E-03    -598.511E-03     12.3812E-03     586.751E-03    -292.661E-03    -294.090E-03    -292.795E-03     585.456E-03    -292.661E-03     66.7837E-03     114.107E+06     63.7537E+06    -17.8699E+06    -17.7164E+06     63.6002E+06     114.107E+06     3.31005E+06         92.0600
            1480     12.7044E-03     132.029E-03     508.873E-03    -554.590E-03    -918.745E-03     503.575E-03    -913.447E-03    -554.590E-03     6.67742E-03     587.032E-03    -292.790E-03    -294.242E-03    -292.720E-03     585.510E-03    -292.790E-03     73.1092E-03     146.075E+06     91.0637E+06    -9.16479E+06    -9.13179E+06     91.0307E+06     146.075E+06     1.45320E+06         95.8210
            1481     748.266E-06     133.267E-03         7.92069        -1.48688        -7.53530        -1.32858         1.71397        -1.48688         6.17181     581.749E-03    -290.671E-03    -291.078E-03    -291.077E-03     581.748E-03    -290.671E-03    -1.33507E-03    -109.815E+06    -111.917E+06    -243.521E+06    -111.583E+06    -243.506E+06    -110.164E+06     1.09532E+06         66.7398
            1482     1.49601E-03     133.265E-03         3.95522        -1.40158        -3.64945        -1.37911         1.68488        -1.40158        -2.00419     581.884E-03    -290.877E-03    -291.007E-03    -290.966E-03     581.882E-03    -290.916E-03    -2.21735E-03    -104.420E+06    -109.447E+06    -234.850E+06    -109.493E+06    -234.804E+06    -104.420E+06     2.34801E+06         66.7659
            1483     2.24370E-03     133.261E-03         2.61006        -1.38632        -2.31793        -1.33234         1.62447        -1.38632         1.01602     581.736E-03    -290.772E-03    -290.963E-03    -290.786E-03     581.734E-03    -290.948E-03    -2.57234E-03    -95.4674E+06    -106.080E+06    -221.310E+06    -106.185E+06    -221.205E+06    -95.4674E+06     3.37543E+06         66.8102
            1484     2.99186E-03     133.258E-03         1.97598        -1.36549        -1.70134        -1.27591         1.55056        -1.36549    -561.295E-03     581.660E-03    -290.710E-03    -290.950E-03    -290.709E-03     581.659E-03    -290.950E-03    -2.17331E-03    -83.8065E+06    -101.941E+06    -202.851E+06    -102.153E+06    -202.639E+06    -83.8065E+06     4.53269E+06         66.8774
            1485     3.74015E-03     133.255E-03         1.63386        -1.31262        -1.41238        -1.20442         1.45365        -1.34035     354.040E-03     581.868E-03    -290.877E-03    -290.991E-03    -290.881E-03     581.867E-03    -290.986E-03    -911.284E-06    -69.2070E+06    -96.6322E+06    -181.805E+06    -97.0392E+06    -181.398E+06    -69.2070E+06     5.72734E+06         66.9773
            1486     4.48777E-03     133.256E-03         1.41425        -1.19364        -1.31108        -1.12066         1.34126        -1.31108    -200.253E-03     582.201E-03    -291.058E-03    -291.142E-03    -291.136E-03     582.200E-03    -291.063E-03     1.19404E-03    -53.2251E+06    -90.1473E+06    -157.050E+06    -90.8910E+06    -156.306E+06    -53.2251E+06     6.83110E+06         67.1299
            1487     5.23534E-03     133.261E-03         1.23899        -1.04882        -1.27780        -1.02028         1.21044        -1.27780     151.069E-03     582.523E-03    -291.163E-03    -291.359E-03    -291.353E-03     582.517E-03    -291.163E-03     4.20599E-03    -36.7680E+06    -82.5354E+06    -128.462E+06    -84.2378E+06    -126.760E+06    -36.7680E+06     8.08751E+06         67.3742
            1488     5.98281E-03     133.272E-03         1.07414    -917.129E-03        -1.24056    -907.767E-03         1.06478        -1.24056    -72.2736E-03     582.798E-03    -291.267E-03    -291.531E-03    -291.511E-03     582.778E-03    -291.267E-03     8.06260E-03    -20.2078E+06    -70.9305E+06    -98.7193E+06    -77.2863E+06    -92.3634E+06    -20.2078E+06     9.56703E+06         67.7806
            1489     6.72999E-03     133.290E-03     905.917E-03    -785.798E-03        -1.19967    -783.045E-03     903.164E-03        -1.19967     76.1101E-03     582.940E-03    -291.356E-03    -291.585E-03    -291.538E-03     582.893E-03    -291.356E-03     12.5935E-03    -4.00796E+06    -44.0847E+06    -77.1308E+06    -69.9246E+06    -51.2909E+06    -4.00796E+06     11.5928E+06         68.4642
            1490     7.47766E-03     133.316E-03     727.558E-03    -649.286E-03        -1.15543    -649.125E-03     727.397E-03        -1.15543    -24.1830E-03     583.072E-03    -291.428E-03    -291.644E-03    -291.552E-03     582.979E-03    -291.428E-03     17.7583E-03     11.5829E+06    -3.82770E+06    -65.6629E+06    -62.3121E+06    -7.17850E+06     11.5829E+06     13.5574E+06         69.5943
            1491     8.22496E-03     133.351E-03     538.828E-03    -506.901E-03        -1.10815    -505.496E-03     537.422E-03        -1.10815     40.8826E-03     583.418E-03    -291.521E-03    -291.898E-03    -291.735E-03     583.256E-03    -291.521E-03     23.6315E-03     25.2905E+06     19.6055E+06    -57.1368E+06    -54.8144E+06     17.2831E+06     25.2905E+06     13.1112E+06         71.3846
            1492     8.97223E-03     133.397E-03     339.073E-03    -355.590E-03        -1.05795    -351.392E-03     334.875E-03        -1.05795    -5.39771E-03     583.847E-03    -291.650E-03    -292.197E-03    -291.935E-03     583.584E-03    -291.650E-03     30.1571E-03     38.8637E+06     24.9900E+06    -49.2955E+06    -47.6433E+06     23.3378E+06     38.8637E+06     10.8992E+06         74.0495
            1493     9.71960E-03     133.453E-03     149.827E-03    -216.439E-03        -1.00483    -186.691E-03     120.078E-03        -1.00483     22.0431E-03     584.364E-03    -291.803E-03    -292.561E-03    -292.155E-03     583.958E-03    -291.803E-03     37.5177E-03     54.6087E+06     27.1628E+06    -41.6564E+06    -40.5538E+06     26.0602E+06     54.6087E+06     8.61981E+06         77.7136
            1494     10.4668E-03     133.522E-03     76.8580E-03    -196.670E-03    -948.881E-03    -14.2047E-03    -105.607E-03    -948.881E-03     2.58776E-03     585.087E-03    -291.967E-03    -293.120E-03    -292.506E-03     584.473E-03    -291.967E-03     46.1783E-03     71.2634E+06     30.5513E+06    -34.0948E+06    -33.4005E+06     29.8570E+06     71.2634E+06     6.59682E+06         82.2884
            1495     11.2140E-03     133.604E-03     177.466E-03    -354.356E-03    -890.161E-03     164.671E-03    -341.561E-03    -890.161E-03     11.0446E-03     585.736E-03    -292.134E-03    -293.602E-03    -292.768E-03     584.902E-03    -292.134E-03     54.0532E-03     91.1626E+06     45.4760E+06    -26.1388E+06    -25.7623E+06     45.0996E+06     91.1626E+06     5.04576E+06         87.3713
            1496     11.9613E-03     133.697E-03     355.720E-03    -586.495E-03    -836.527E-03     348.739E-03    -586.916E-03    -829.125E-03     3.97350E-03     586.616E-03    -292.304E-03    -294.313E-03    -293.019E-03     585.323E-03    -292.304E-03     66.7970E-03     116.157E+06     67.4638E+06    -18.0975E+06    -17.9373E+06     67.3036E+06     116.157E+06     3.49537E+06         92.2527
            1497     12.7089E-03     133.825E-03     542.995E-03    -717.466E-03    -893.944E-03     538.536E-03    -841.296E-03    -765.655E-03     2.08009E-03     586.877E-03    -292.470E-03    -294.407E-03    -292.893E-03     585.363E-03    -292.470E-03     72.9142E-03     148.383E+06     94.6844E+06    -9.39509E+06    -9.35402E+06     94.6433E+06     148.383E+06     1.76755E+06         96.0909
            1498     747.913E-06     135.055E-03         7.91738        -1.84458        -7.28600        -1.51270         2.14408        -1.84458         5.99991     581.141E-03    -290.401E-03    -290.741E-03    -290.690E-03     581.141E-03    -290.451E-03    -973.521E-06    -110.959E+06    -113.335E+06    -249.458E+06    -112.894E+06    -249.435E+06    -111.422E+06     1.69825E+06         66.6867
            1499     1.49614E-03     135.053E-03         4.10015        -1.66900        -3.64208        -1.63150         2.08957        -1.66900        -1.94990     581.014E-03    -290.426E-03    -290.588E-03    -290.443E-03     581.013E-03    -290.570E-03    -1.84811E-03    -105.798E+06    -111.213E+06    -240.746E+06    -111.265E+06    -240.694E+06    -105.798E+06     2.50286E+06         66.7132
            1500     2.24471E-03     135.049E-03         2.86578        -1.64982        -2.42159        -1.59347         2.03766        -1.64982     978.889E-03     580.941E-03    -290.383E-03    -290.558E-03    -290.381E-03     580.940E-03    -290.558E-03    -2.19593E-03    -96.4927E+06    -108.045E+06    -227.030E+06    -108.160E+06    -226.915E+06    -96.4927E+06     3.60344E+06         66.7580
            1501     2.99308E-03     135.045E-03         2.29195        -1.62728        -1.87143        -1.52503         1.94556        -1.62728    -552.635E-03     581.074E-03    -290.446E-03    -290.628E-03    -290.490E-03     581.073E-03    -290.582E-03    -1.81986E-03    -84.1252E+06    -103.552E+06    -208.483E+06    -103.771E+06    -208.264E+06    -84.1252E+06     4.70546E+06         66.8255
            1502     3.74109E-03     135.043E-03         1.98107        -1.54663        -1.64050        -1.44548         1.83841        -1.59899     331.802E-03     581.322E-03    -290.597E-03    -290.725E-03    -290.671E-03     581.322E-03    -290.651E-03    -704.131E-06    -69.4093E+06    -98.0418E+06    -187.017E+06    -98.4163E+06    -186.642E+06    -69.4093E+06     5.67410E+06         66.9249
            1503     4.48928E-03     135.045E-03         1.76171        -1.40154        -1.56538        -1.34377         1.70394        -1.56538    -209.267E-03     581.589E-03    -290.746E-03    -290.843E-03    -290.842E-03     581.588E-03    -290.746E-03     1.30816E-03    -53.3816E+06    -91.7367E+06    -162.585E+06    -92.4175E+06    -161.904E+06    -53.3816E+06     6.72389E+06         67.0756
            1504     5.23712E-03     135.051E-03         1.57297        -1.24808        -1.52613        -1.22575         1.55064        -1.52613     129.354E-03     581.852E-03    -290.848E-03    -291.005E-03    -290.998E-03     581.846E-03    -290.848E-03     4.31630E-03    -36.6627E+06    -84.2501E+06    -134.145E+06    -85.6764E+06    -132.718E+06    -36.6627E+06     7.89869E+06         67.3161
            1505     5.98481E-03     135.063E-03         1.38332        -1.09870        -1.48153        -1.09086         1.37548        -1.48153    -89.4959E-03     582.058E-03    -290.946E-03    -291.112E-03    -291.092E-03     582.038E-03    -290.946E-03     8.20099E-03    -19.8265E+06    -73.5473E+06    -103.960E+06    -78.3273E+06    -99.1798E+06    -19.8265E+06     9.35066E+06         67.7157
            1506     6.73257E-03     135.081E-03         1.18439    -946.789E-03        -1.43195    -944.697E-03         1.18230        -1.43195     53.2561E-03     582.262E-03    -291.030E-03    -291.232E-03    -291.184E-03     582.214E-03    -291.030E-03     12.7890E-03    -3.70230E+06    -50.6133E+06    -80.4773E+06    -70.9281E+06    -60.1625E+06    -3.70230E+06     11.2500E+06         68.3896
            1507     7.47998E-03     135.108E-03     971.576E-03    -786.647E-03        -1.37789    -786.292E-03     971.220E-03        -1.37789    -43.9937E-03     582.515E-03    -291.100E-03    -291.415E-03    -291.320E-03     582.420E-03    -291.100E-03     17.9993E-03     11.5214E+06    -9.75069E+06    -67.0914E+06    -63.5326E+06    -13.3095E+06     11.5214E+06     12.8659E+06         69.5087
            1508     8.22763E-03     135.144E-03     744.849E-03    -617.066E-03        -1.31962    -616.673E-03     744.456E-03        -1.31962     19.5231E-03     582.886E-03    -291.193E-03    -291.694E-03    -291.530E-03     582.722E-03    -291.193E-03     23.7739E-03     25.2765E+06     20.4549E+06    -58.0623E+06    -55.8701E+06     18.2627E+06     25.2765E+06     12.9053E+06         71.2916
            1509     8.97505E-03     135.190E-03     504.789E-03    -437.495E-03        -1.25732    -435.276E-03     502.571E-03        -1.25732    -23.9927E-03     583.321E-03    -291.328E-03    -291.993E-03    -291.733E-03     583.061E-03    -291.328E-03     29.9974E-03     38.8425E+06     28.3832E+06    -50.0430E+06    -48.4384E+06     26.7787E+06     38.8425E+06     11.0372E+06         73.9618
            1510     9.72265E-03     135.246E-03     254.962E-03    -251.290E-03        -1.19107    -243.491E-03     247.164E-03        -1.19107     4.28349E-03     583.661E-03    -291.484E-03    -292.177E-03    -291.786E-03     583.270E-03    -291.484E-03     36.8181E-03     54.4432E+06     30.6744E+06    -42.2595E+06    -41.2161E+06     29.6311E+06     54.4432E+06     8.61514E+06         77.6559
            1511     10.4707E-03     135.315E-03     103.249E-03    -167.406E-03        -1.12105    -42.9781E-03    -21.1791E-03        -1.12105    -12.8127E-03     584.162E-03    -291.643E-03    -292.519E-03    -291.937E-03     583.580E-03    -291.643E-03     44.9368E-03     71.3570E+06     33.4748E+06    -34.4226E+06    -33.7772E+06     32.8295E+06     71.3570E+06     6.50302E+06         82.2947
            1512     11.2184E-03     135.399E-03     176.974E-03    -314.561E-03        -1.04742     163.742E-03    -301.329E-03        -1.04742    -1.96061E-03     584.989E-03    -291.808E-03    -293.181E-03    -292.387E-03     584.195E-03    -291.808E-03     52.6780E-03     91.9974E+06     47.4824E+06    -26.3907E+06    -26.0303E+06     47.1220E+06     91.9974E+06     5.04083E+06         87.4725
            1513     11.9654E-03     135.493E-03     381.581E-03    -597.877E-03    -970.497E-03     376.188E-03    -592.484E-03    -970.497E-03    -6.45165E-03     586.141E-03    -291.991E-03    -294.150E-03    -292.895E-03     584.886E-03    -291.991E-03     65.7052E-03     118.024E+06     70.5227E+06    -18.4247E+06    -18.2336E+06     70.3316E+06     118.024E+06     3.99351E+06         92.4591
            1514     12.7123E-03     135.621E-03     598.338E-03    -797.045E-03    -990.173E-03     594.769E-03    -893.384E-03    -890.265E-03    -4.77099E-03     586.398E-03    -292.173E-03    -294.225E-03    -292.735E-03     584.908E-03    -292.173E-03     72.3160E-03     150.870E+06     99.0696E+06    -9.63677E+06    -9.56794E+06     99.0008E+06     150.870E+06     2.39458E+06         96.3815
            1515     748.710E-06     136.842E-03         6.92568        -2.06216        -6.20428        -1.56803         2.28943        -2.06216         5.08107     580.059E-03    -289.870E-03    -290.189E-03    -290.139E-03     580.058E-03    -289.920E-03    -704.521E-06    -115.798E+06    -118.188E+06    -256.647E+06    -117.746E+06    -256.626E+06    -116.262E+06     1.59284E+06         66.6355
            1516     1.49750E-03     136.839E-03         3.74356        -1.80233        -3.27954        -1.75140         2.21542        -1.80233        -1.65656     580.056E-03    -289.948E-03    -290.108E-03    -290.003E-03     580.055E-03    -290.053E-03    -1.79616E-03    -109.023E+06    -114.929E+06    -246.090E+06    -114.977E+06    -246.042E+06    -109.023E+06     2.40354E+06         66.6626
            1517     2.24603E-03     136.835E-03         2.76960        -1.77997        -2.32007        -1.72291         2.17244        -1.77997     823.391E-03     580.273E-03    -290.055E-03    -290.218E-03    -290.163E-03     580.272E-03    -290.109E-03    -2.22348E-03    -97.9606E+06    -110.907E+06    -232.418E+06    -111.010E+06    -232.316E+06    -97.9606E+06     3.43119E+06         66.7081
            1518     2.99434E-03     136.832E-03         2.31034        -1.75264        -1.89246        -1.64501         2.06667        -1.75643    -478.776E-03     580.573E-03    -290.210E-03    -290.363E-03    -290.362E-03     580.572E-03    -290.210E-03    -1.80267E-03    -84.5215E+06    -105.761E+06    -214.054E+06    -105.968E+06    -213.846E+06    -84.5215E+06     4.60972E+06         66.7759
            1519     3.74258E-03     136.831E-03         2.05179        -1.64720        -1.73936        -1.56277         1.95414        -1.72614     271.768E-03     580.812E-03    -290.328E-03    -290.484E-03    -290.484E-03     580.811E-03    -290.328E-03    -532.268E-06    -69.2420E+06    -99.7509E+06    -192.414E+06    -100.123E+06    -192.041E+06    -69.2420E+06     5.77633E+06         66.8750
            1520     4.49053E-03     136.833E-03         1.84379        -1.48654        -1.68968        -1.44719         1.80444        -1.68968    -192.211E-03     581.009E-03    -290.442E-03    -290.567E-03    -290.565E-03     581.008E-03    -290.442E-03     1.56629E-03    -52.6616E+06    -92.9150E+06    -167.863E+06    -93.5579E+06    -167.220E+06    -52.6616E+06     6.75394E+06         67.0241
            1521     5.23864E-03     136.840E-03         1.65130        -1.33319        -1.64627        -1.31846         1.63657        -1.64627     95.1549E-03     581.160E-03    -290.534E-03    -290.626E-03    -290.612E-03     581.153E-03    -290.542E-03     4.55265E-03    -36.0647E+06    -85.3555E+06    -139.235E+06    -86.5367E+06    -138.054E+06    -36.0647E+06     7.59555E+06         67.2608
            1522     5.98669E-03     136.852E-03         1.44636        -1.17412        -1.59648        -1.16882         1.44106        -1.59648    -94.0550E-03     581.346E-03    -290.623E-03    -290.723E-03    -290.693E-03     581.324E-03    -290.631E-03     8.37223E-03    -19.4212E+06    -75.7721E+06    -109.414E+06    -79.0771E+06    -106.109E+06    -19.4212E+06     8.86118E+06         67.6540
            1523     6.73476E-03     136.871E-03         1.22757        -1.00923        -1.54067        -1.00805         1.22640        -1.54067     26.7545E-03     581.633E-03    -290.712E-03    -290.921E-03    -290.872E-03     581.584E-03    -290.712E-03     12.8912E-03    -3.06322E+06    -55.7968E+06    -83.2942E+06     -71.225E+06    -67.8659E+06    -3.06322E+06     10.5903E+06         68.3186
            1524     7.48271E-03     136.899E-03     990.971E-03    -833.996E-03        -1.47941    -833.515E-03     990.490E-03        -1.47941    -57.0420E-03     581.974E-03    -290.789E-03    -291.185E-03    -291.088E-03     581.877E-03    -290.789E-03     18.1579E-03     13.3365E+06    -15.6717E+06    -66.8228E+06    -63.0558E+06    -19.4387E+06     13.3365E+06     12.2331E+06         69.4269
            1525     8.23021E-03     136.935E-03     737.946E-03    -646.624E-03        -1.41299    -646.312E-03     737.634E-03        -1.41299    -2.99169E-03     582.393E-03    -290.888E-03    -291.505E-03    -291.337E-03     582.225E-03    -290.888E-03     24.0179E-03     27.8252E+06     19.2264E+06    -57.6970E+06    -55.4269E+06     16.9563E+06     27.8252E+06     12.9556E+06         71.2027
            1526     8.97777E-03     136.982E-03     470.494E-03    -448.826E-03        -1.34156    -446.032E-03     467.700E-03        -1.34156    -40.3444E-03     582.944E-03    -291.025E-03    -291.919E-03    -291.654E-03     582.679E-03    -291.025E-03     30.2678E-03     40.0529E+06     31.8868E+06    -50.0183E+06    -48.3212E+06     30.1896E+06     40.0529E+06     11.5921E+06         73.8783
            1527     9.72494E-03     137.039E-03     193.023E-03    -245.486E-03        -1.26530    -235.612E-03     183.150E-03        -1.26530    -14.9933E-03     583.502E-03    -291.196E-03    -292.306E-03    -291.912E-03     583.109E-03    -291.196E-03     36.9580E-03     54.1214E+06     35.1519E+06    -42.3754E+06    -41.3266E+06     34.1032E+06     54.1214E+06     8.88854E+06         77.6019
            1528     10.4721E-03     137.107E-03     80.1794E-03    -212.443E-03        -1.18442    -16.4889E-03    -115.775E-03        -1.18442    -28.4037E-03     584.010E-03    -291.385E-03    -292.625E-03    -292.043E-03     583.429E-03    -291.385E-03     44.8971E-03     70.8964E+06     36.8900E+06    -34.8840E+06    -34.2632E+06     36.2692E+06     70.8964E+06     6.60066E+06         82.3040
            1529     11.2198E-03     137.192E-03     217.594E-03    -436.547E-03        -1.09920     208.235E-03    -427.188E-03        -1.09920    -17.1925E-03     584.390E-03    -291.567E-03    -292.823E-03    -292.033E-03     583.600E-03    -291.567E-03     52.5201E-03     91.7911E+06     48.6283E+06    -27.2668E+06    -26.8728E+06     48.2344E+06     91.7911E+06     5.38172E+06         87.5793
            1530     11.9678E-03     137.288E-03     442.280E-03    -731.912E-03        -1.03189     438.665E-03    -750.385E-03        -1.00980    -18.3122E-03     585.110E-03    -291.738E-03    -293.372E-03    -292.123E-03     583.861E-03    -291.738E-03     65.4791E-03     119.483E+06     72.9354E+06    -18.7600E+06    -18.5354E+06     72.7108E+06     119.483E+06     4.39243E+06         92.6797
            1531     12.7164E-03     137.415E-03     677.326E-03    -871.388E-03        -1.13069     674.583E-03        -1.08292    -916.419E-03    -13.1258E-03     585.486E-03    -291.900E-03    -293.586E-03    -292.102E-03     584.002E-03    -291.900E-03     72.1079E-03     153.934E+06     104.262E+06    -9.46790E+06    -9.38969E+06     104.184E+06     153.934E+06     2.58048E+06         96.6953
            1532     749.060E-06     138.626E-03         5.12063        -2.12059        -4.47828        -1.49529         2.13763        -2.12059         3.56653     579.232E-03    -289.500E-03    -289.732E-03    -289.731E-03     579.232E-03    -289.500E-03    -1.14128E-03    -117.528E+06    -120.039E+06    -261.374E+06    -119.475E+06    -261.365E+06    -118.101E+06     683.191E+03         66.5888
            1533     1.49785E-03     138.624E-03         2.95420        -1.79217        -2.63717        -1.72837         2.04540        -1.79217        -1.17390     579.511E-03    -289.686E-03    -289.825E-03    -289.824E-03     579.509E-03    -289.686E-03    -2.27985E-03    -110.937E+06    -116.768E+06    -251.106E+06    -116.795E+06    -251.080E+06    -110.937E+06     1.81478E+06         66.6160
            1534     2.24656E-03     138.621E-03         2.34031        -1.76384        -2.04492        -1.70947         2.00781        -1.76679     567.100E-03     579.794E-03    -289.808E-03    -289.986E-03    -289.984E-03     579.792E-03    -289.808E-03    -2.55069E-03    -100.180E+06    -112.965E+06    -237.631E+06    -113.031E+06    -237.565E+06    -100.180E+06     2.79025E+06         66.6616
            1535     2.99508E-03     138.619E-03         2.02296        -1.71440        -1.78155        -1.62112         1.89034        -1.74220    -355.184E-03     579.985E-03    -289.922E-03    -290.063E-03    -290.055E-03     579.984E-03    -289.929E-03    -2.06559E-03    -86.3587E+06    -107.962E+06    -219.490E+06    -108.117E+06    -219.335E+06    -86.3587E+06     4.01856E+06         66.7293
            1536     3.74359E-03     138.618E-03         1.82581        -1.58991        -1.70997        -1.53885         1.77475        -1.70997     173.927E-03     580.092E-03    -289.970E-03    -290.122E-03    -290.057E-03     580.092E-03    -290.035E-03    -615.506E-06    -70.1801E+06    -101.686E+06    -197.847E+06    -101.973E+06    -197.559E+06    -70.1801E+06     5.14176E+06         66.8278
            1537     4.49211E-03     138.621E-03         1.63691        -1.43728        -1.67148        -1.41680         1.61643        -1.67148    -157.621E-03     580.253E-03    -290.051E-03    -290.202E-03    -290.123E-03     580.252E-03    -290.129E-03     1.80782E-03    -52.8771E+06    -94.2791E+06    -172.749E+06    -94.7885E+06    -172.239E+06    -52.8771E+06     6.11260E+06         66.9753
            1538     5.24042E-03     138.627E-03         1.45000        -1.29139        -1.62551        -1.28438         1.44299        -1.62551     45.8013E-03     580.505E-03    -290.194E-03    -290.311E-03    -290.276E-03     580.497E-03    -290.221E-03     4.88486E-03    -35.3560E+06    -86.2269E+06    -144.180E+06    -87.2183E+06    -143.189E+06    -35.3560E+06     7.22742E+06         67.2086
            1539     5.98886E-03     138.640E-03         1.24186        -1.13278        -1.57278        -1.13010         1.23917        -1.57278    -91.8818E-03     580.854E-03    -290.314E-03    -290.540E-03    -290.510E-03     580.831E-03    -290.322E-03     8.61243E-03    -18.1646E+06    -77.1586E+06    -114.358E+06    -79.5670E+06    -111.950E+06    -18.1646E+06     8.35440E+06         67.5954
            1540     6.73683E-03     138.660E-03         1.01644    -965.567E-03        -1.51356    -965.167E-03         1.01604        -1.51356    -5.83671E-03     581.188E-03    -290.421E-03    -290.767E-03    -290.717E-03     581.138E-03    -290.421E-03     12.9478E-03    -1.70206E+06    -59.9106E+06    -86.1062E+06    -71.6161E+06    -74.4007E+06    -1.70206E+06     9.64210E+06         68.2502
            1541     7.48478E-03     138.688E-03     769.947E-03    -785.281E-03        -1.44834    -784.245E-03     768.911E-03        -1.44834    -67.8153E-03     581.426E-03    -290.506E-03    -290.920E-03    -290.825E-03     581.331E-03    -290.506E-03     18.0492E-03     13.9159E+06    -23.1637E+06    -68.0255E+06    -63.8831E+06    -27.3061E+06     13.9159E+06     11.6431E+06         69.3472
            1542     8.23288E-03     138.726E-03     503.985E-03    -590.955E-03        -1.37725    -589.987E-03     503.017E-03        -1.37725    -29.5251E-03     581.742E-03    -290.593E-03    -291.149E-03    -290.982E-03     581.575E-03    -290.593E-03     23.9726E-03     28.0175E+06     16.0785E+06    -58.5691E+06    -56.1727E+06     13.8521E+06     27.8475E+06     13.0393E+06         71.1152
            1543     8.98056E-03     138.773E-03     229.582E-03    -392.107E-03        -1.30038    -380.134E-03     217.609E-03        -1.30038    -56.9310E-03     582.281E-03    -290.713E-03    -291.569E-03    -291.298E-03     582.010E-03    -290.713E-03     30.5881E-03     39.9672E+06     35.2032E+06    -50.4204E+06    -48.6626E+06     33.6154E+06     39.7971E+06     12.0874E+06         73.7965
            1544     9.72829E-03     138.832E-03     42.9404E-03    -286.217E-03        -1.21786    -159.671E-03    -83.6062E-03        -1.21786    -37.7334E-03     583.032E-03    -290.884E-03    -292.149E-03    -291.737E-03     582.621E-03    -290.884E-03     37.7843E-03     53.5822E+06     39.5811E+06    -42.8179E+06    -41.6179E+06     38.3811E+06     53.5822E+06     9.82484E+06         77.5517
            1545     10.4757E-03     138.901E-03     91.0778E-03    -422.809E-03        -1.13000     68.2289E-03    -399.960E-03        -1.13000    -46.0795E-03     583.776E-03    -291.090E-03    -292.686E-03    -292.070E-03     583.160E-03    -291.090E-03     46.2173E-03     70.6615E+06     40.6399E+06    -35.3860E+06    -34.5858E+06     39.8396E+06     70.6615E+06     7.71148E+06         82.3208
            1546     11.2230E-03     138.985E-03     305.931E-03    -692.208E-03        -1.07865     300.640E-03    -728.373E-03        -1.03719    -34.6691E-03     584.061E-03    -291.292E-03    -292.768E-03    -291.938E-03     583.230E-03    -291.292E-03     53.8691E-03     92.0766E+06     50.7877E+06    -27.7745E+06    -27.3041E+06     50.3172E+06     92.0766E+06     5.93021E+06         87.6973
            1547     11.9712E-03     139.079E-03     539.737E-03    -852.005E-03        -1.15759     537.421E-03        -1.06775    -939.530E-03    -30.9162E-03     584.540E-03    -291.472E-03    -293.068E-03    -291.784E-03     583.256E-03    -291.472E-03     66.4070E-03     120.923E+06     75.7892E+06    -19.3304E+06    -19.1226E+06     75.5814E+06     120.923E+06     4.19384E+06         92.9139
            1548     12.7195E-03     139.207E-03     779.545E-03    -837.434E-03        -1.41693     777.462E-03        -1.41485    -837.434E-03    -22.0445E-03     584.879E-03    -291.634E-03    -293.245E-03    -291.745E-03     583.379E-03    -291.634E-03     72.4228E-03     156.785E+06     109.075E+06    -9.83206E+06    -9.77503E+06     109.018E+06     156.785E+06     2.23134E+06         97.0239
            1549     749.077E-06     140.410E-03         2.81225        -1.76263        -2.67335        -1.31211         1.66921        -1.98082         1.64927     578.903E-03    -289.385E-03    -289.518E-03    -289.455E-03     578.902E-03    -289.447E-03    -1.03402E-03    -117.913E+06    -121.087E+06    -265.225E+06    -120.532E+06    -265.207E+06    -118.486E+06     1.17205E+06         66.5468
            1550     1.49799E-03     140.408E-03         1.87898        -1.61013        -1.89152        -1.56002         1.56671        -1.62937    -560.302E-03     579.128E-03    -289.512E-03    -289.616E-03    -289.615E-03     579.127E-03    -289.512E-03    -2.05285E-03    -112.390E+06    -118.466E+06    -255.868E+06    -118.497E+06    -255.837E+06    -112.390E+06     1.94648E+06         66.5740
            1551     2.24677E-03     140.405E-03         1.63883        -1.57030        -1.68382        -1.54577         1.53332        -1.60283     245.181E-03     579.275E-03    -289.584E-03    -289.691E-03    -289.666E-03     579.273E-03    -289.607E-03    -2.24387E-03    -101.701E+06    -114.880E+06    -242.235E+06    -114.946E+06    -242.169E+06    -101.701E+06     2.83590E+06         66.6194
            1552     2.99562E-03     140.403E-03         1.45267        -1.49614        -1.57816        -1.45503         1.41157        -1.57816    -192.978E-03     579.354E-03    -289.637E-03    -289.717E-03    -289.663E-03     579.353E-03    -289.690E-03    -1.76108E-03    -87.7320E+06    -109.724E+06    -224.121E+06    -109.842E+06    -224.003E+06    -87.7320E+06     3.60547E+06         66.6869
            1553     3.74449E-03     140.403E-03         1.31230        -1.38853        -1.54558        -1.37375         1.29751        -1.54558     51.9458E-03     579.434E-03    -289.669E-03    -289.765E-03    -289.669E-03     579.433E-03    -289.765E-03    -487.018E-06    -71.8995E+06    -103.713E+06    -202.479E+06    -103.920E+06    -202.272E+06    -71.8995E+06     4.43435E+06         66.7846
            1554     4.49352E-03     140.406E-03         1.14491        -1.25897        -1.50677        -1.25278         1.13872        -1.50677    -111.710E-03     579.581E-03    -289.740E-03    -289.841E-03    -289.738E-03     579.579E-03    -289.841E-03     1.63941E-03    -54.3721E+06    -96.7725E+06    -177.375E+06    -97.1527E+06    -176.995E+06    -54.3721E+06     5.38921E+06         66.9304
            1555     5.24242E-03     140.413E-03     969.387E-03        -1.12492        -1.46042        -1.12307     967.531E-03        -1.46042    -15.7521E-03     579.903E-03    -289.894E-03    -290.009E-03    -289.966E-03     579.895E-03    -289.930E-03     4.64128E-03    -36.1555E+06    -88.6905E+06    -149.256E+06    -89.4698E+06    -148.476E+06    -36.1555E+06     6.53292E+06         67.1600
            1556     5.99051E-03     140.427E-03     767.115E-03    -972.883E-03        -1.40718    -971.047E-03     765.278E-03        -1.40718    -88.3268E-03     580.323E-03    -290.035E-03    -290.288E-03    -290.265E-03     580.300E-03    -290.035E-03     8.59518E-03    -18.5390E+06    -79.5874E+06    -119.098E+06    -81.4537E+06    -117.231E+06    -18.5390E+06     7.73727E+06         67.5400
            1557     6.73873E-03     140.448E-03     545.435E-03    -811.417E-03        -1.34730    -810.323E-03     544.342E-03        -1.34730    -46.5169E-03     580.705E-03    -290.143E-03    -290.563E-03    -290.511E-03     580.654E-03    -290.143E-03     13.1564E-03    -2.03980E+06    -64.4570E+06    -89.5967E+06    -73.4719E+06    -80.5818E+06    -2.03980E+06     9.10923E+06         68.1847
            1558     7.48674E-03     140.477E-03     304.565E-03    -638.672E-03        -1.28119    -632.270E-03     298.163E-03        -1.28119    -80.2076E-03     580.980E-03    -290.239E-03    -290.742E-03    -290.644E-03     580.882E-03    -290.239E-03     18.2757E-03     13.4029E+06    -31.4192E+06    -70.1298E+06    -65.4021E+06    -36.1469E+06     13.4029E+06     11.2570E+06         69.2695
            1559     8.23480E-03     140.515E-03     79.0123E-03    -486.932E-03        -1.20881    -440.525E-03     32.6048E-03        -1.20881    -60.9574E-03     581.179E-03    -290.320E-03    -290.859E-03    -290.691E-03     581.011E-03    -290.320E-03     24.0238E-03     27.3071E+06     12.3059E+06    -59.9957E+06    -57.5062E+06     10.0089E+06     27.1147E+06     12.7881E+06         71.0285
            1560     8.98324E-03     140.563E-03    -36.4400E-03    -449.903E-03        -1.13017    -232.583E-03    -253.761E-03        -1.13017    -74.5187E-03     581.520E-03    -290.423E-03    -291.097E-03    -290.828E-03     581.251E-03    -290.423E-03     30.4240E-03     39.3575E+06     37.4186E+06    -51.6776E+06    -49.9932E+06     35.9266E+06     39.1651E+06     12.1043E+06         73.7146
            1561     9.73131E-03     140.622E-03     26.6794E-03    -568.609E-03        -1.07410    -14.3298E-03    -556.326E-03        -1.04537    -62.1297E-03     582.154E-03    -290.577E-03    -291.578E-03    -291.168E-03     581.745E-03    -290.577E-03     37.6468E-03     53.0314E+06     42.3657E+06    -44.1886E+06     -42.891E+06     41.0681E+06     53.0314E+06     10.5063E+06         77.5022
            1562     10.4793E-03     140.693E-03     214.128E-03    -715.727E-03        -1.11635     210.692E-03    -873.881E-03    -954.756E-03    -63.7124E-03     582.914E-03    -290.766E-03    -292.148E-03    -291.537E-03     582.302E-03    -290.766E-03     46.0174E-03     70.3765E+06     44.9536E+06    -36.7564E+06    -35.8498E+06     44.0471E+06     70.3765E+06     8.48420E+06         82.3422
            1563     11.2273E-03     140.777E-03     441.620E-03    -792.565E-03        -1.27203     438.339E-03        -1.20239    -858.918E-03    -52.2460E-03     583.531E-03    -290.971E-03    -292.560E-03    -291.732E-03     582.704E-03    -290.971E-03     53.7324E-03     92.7550E+06     54.7125E+06    -28.6330E+06    -28.1745E+06     54.2541E+06     92.7550E+06     5.96353E+06         87.8249
            1564     11.9750E-03     140.871E-03     670.103E-03    -757.872E-03        -1.54216     668.514E-03        -1.54057    -757.872E-03    -43.2136E-03     584.406E-03    -291.178E-03    -293.228E-03    -291.939E-03     583.117E-03    -291.178E-03     66.5246E-03     122.937E+06     79.5337E+06    -19.7990E+06    -19.6300E+06     79.3646E+06     122.937E+06     3.84302E+06         93.1601
            1565     12.7234E-03     140.999E-03     902.034E-03    -652.192E-03        -1.88682     900.424E-03        -1.88521    -652.192E-03    -31.2081E-03     584.708E-03    -291.370E-03    -293.338E-03    -291.835E-03     583.204E-03    -291.370E-03     72.5240E-03     159.611E+06     113.563E+06    -10.2500E+06    -10.2075E+06     113.521E+06     159.611E+06     1.95328E+06         97.3652
            1566     749.164E-06     142.192E-03         1.67671        -1.43917        -2.01540    -994.142E-03     873.647E-03        -1.65736    -454.849E-03     578.533E-03    -289.181E-03    -289.352E-03    -289.186E-03     578.533E-03    -289.347E-03    -855.087E-06    -120.362E+06    -124.792E+06    -271.324E+06    -123.202E+06    -271.292E+06    -121.984E+06     1.62296E+06         66.5090
            1567     1.49839E-03     142.191E-03         1.02016        -1.29029        -1.50760        -1.24356     775.363E-03        -1.30953     117.083E-03     578.565E-03    -289.247E-03    -289.318E-03    -289.266E-03     578.564E-03    -289.298E-03    -1.79048E-03    -114.251E+06    -120.989E+06    -260.787E+06    -121.043E+06    -260.733E+06    -114.251E+06     2.69671E+06         66.5364
            1568     2.24754E-03     142.189E-03     842.255E-03        -1.25301        -1.35776        -1.23456     751.117E-03        -1.28507    -100.788E-03     578.625E-03    -289.267E-03    -289.358E-03    -289.281E-03     578.624E-03    -289.343E-03    -1.97615E-03    -102.994E+06    -117.122E+06    -246.297E+06    -117.203E+06    -246.215E+06    -102.994E+06     3.21846E+06         66.5821
            1569     2.99672E-03     142.187E-03     682.113E-03        -1.19571        -1.26300        -1.15138     637.789E-03        -1.26300    -8.23298E-03     578.751E-03    -289.341E-03    -289.409E-03    -289.345E-03     578.750E-03    -289.405E-03    -1.47796E-03    -88.8583E+06    -112.052E+06    -228.141E+06    -112.170E+06    -228.022E+06    -88.8583E+06     3.67641E+06         66.6498
            1570     3.74574E-03     142.187E-03     556.216E-03        -1.10000        -1.23336        -1.07768     533.894E-03        -1.23336    -73.7131E-03     579.001E-03    -289.460E-03    -289.541E-03    -289.510E-03     579.001E-03    -289.491E-03    -275.230E-06    -72.4463E+06    -105.703E+06    -206.202E+06    -105.897E+06    -206.008E+06    -72.4463E+06     4.33721E+06         66.7471
            1571     4.49436E-03     142.190E-03     401.062E-03    -979.599E-03        -1.19743    -963.256E-03     384.718E-03        -1.19743    -54.3334E-03     579.278E-03    -289.571E-03    -289.707E-03    -289.681E-03     579.277E-03    -289.596E-03     1.75589E-03    -55.0469E+06    -98.5619E+06    -181.540E+06    -98.9005E+06    -181.202E+06    -55.0469E+06     5.18345E+06         66.8911
            1572     5.24299E-03     142.199E-03     236.257E-03    -854.684E-03        -1.15376    -841.590E-03     223.163E-03        -1.15376    -76.5526E-03     579.469E-03    -289.684E-03    -289.784E-03    -289.761E-03     579.462E-03    -289.701E-03     4.62696E-03    -37.4984E+06    -90.9014E+06    -153.950E+06    -91.5307E+06    -153.321E+06    -37.4984E+06     6.07311E+06         67.1166
            1573     5.99211E-03     142.213E-03     69.5750E-03    -736.563E-03        -1.10297    -697.117E-03     30.1288E-03        -1.10297    -77.4714E-03     579.689E-03    -289.798E-03    -289.891E-03    -289.869E-03     579.667E-03    -289.798E-03     8.48487E-03    -19.8454E+06    -82.0715E+06    -123.666E+06    -83.5372E+06    -122.200E+06    -19.8454E+06     7.06013E+06         67.4896
            1574     6.74066E-03     142.235E-03    -40.9234E-03    -684.932E-03        -1.04524    -545.037E-03    -180.819E-03        -1.04524    -84.8262E-03     580.048E-03    -289.892E-03    -290.157E-03    -290.106E-03     579.997E-03    -289.892E-03     13.1018E-03    -2.87969E+06    -68.5107E+06    -93.2535E+06    -75.2237E+06    -86.5405E+06    -2.87969E+06     8.34550E+06         68.1237
            1575     7.48909E-03     142.265E-03    -102.433E-03    -641.664E-03        -1.03052    -377.424E-03    -416.096E-03    -981.099E-03    -87.1556E-03     580.473E-03    -289.985E-03    -290.488E-03    -290.389E-03     580.375E-03    -289.985E-03     18.3141E-03     13.1084E+06    -39.2540E+06    -72.1391E+06    -66.7992E+06    -44.5939E+06     13.1084E+06     10.3279E+06         69.1959
            1576     8.23724E-03     142.303E-03    -108.078E-03    -581.257E-03        -1.08745    -197.438E-03    -668.762E-03    -910.586E-03    -87.9122E-03     580.841E-03    -290.074E-03    -290.767E-03    -290.598E-03     580.672E-03    -290.074E-03     24.0717E-03     27.9859E+06     7.58095E+06    -60.9325E+06    -58.5002E+06     5.17098E+06     27.9635E+06     12.1192E+06         70.9452
            1577     8.98518E-03     142.352E-03     1.51078E-03    -603.345E-03        -1.17600    -3.66521E-03    -940.391E-03    -833.774E-03    -87.1195E-03     581.178E-03    -290.181E-03    -290.997E-03    -290.733E-03     580.914E-03    -290.181E-03     30.1807E-03     39.8166E+06     38.0989E+06    -52.5821E+06    -50.8668E+06     36.4060E+06     39.7942E+06     12.3460E+06         73.6345
            1578     9.73363E-03     142.411E-03     203.358E-03    -683.548E-03        -1.29899     198.295E-03        -1.22665    -750.822E-03    -82.0278E-03     581.570E-03    -290.330E-03    -291.241E-03    -290.844E-03     581.173E-03    -290.330E-03     37.0452E-03     52.5297E+06     45.2981E+06    -44.7767E+06    -43.4476E+06     43.9690E+06     52.5297E+06     10.7952E+06         77.4529
            1579     10.4820E-03     142.483E-03     408.453E-03    -662.046E-03        -1.52898     406.219E-03        -1.52674    -662.046E-03    -76.7829E-03     582.117E-03    -290.506E-03    -291.611E-03    -291.024E-03     581.530E-03    -290.506E-03     45.0697E-03     70.1235E+06     49.8290E+06    -36.6517E+06    -35.8598E+06     49.0371E+06     70.1235E+06     8.11399E+06         82.3640
            1580     11.2302E-03     142.568E-03     618.014E-03    -568.084E-03        -1.83937     615.745E-03        -1.83710    -568.084E-03    -67.4463E-03     582.839E-03    -290.708E-03    -292.132E-03    -291.334E-03     582.042E-03    -290.708E-03     52.6992E-03     93.4133E+06     58.8721E+06    -28.3253E+06    -27.9366E+06     58.4834E+06     93.4133E+06     5.67031E+06         87.9568
            1581     11.9786E-03     142.664E-03     828.400E-03    -468.807E-03        -2.15837     827.218E-03        -2.15719    -468.807E-03    -54.0098E-03     583.939E-03    -290.924E-03    -293.015E-03    -291.759E-03     582.683E-03    -290.924E-03     65.6339E-03     124.825E+06     83.5582E+06    -19.8575E+06    -19.6958E+06     83.3964E+06     124.825E+06     3.84930E+06         93.4186
            1582     12.7264E-03     142.791E-03         1.04153    -364.927E-03        -2.48464         1.04026        -2.48338    -364.927E-03    -40.0423E-03     584.298E-03    -291.130E-03    -293.167E-03    -291.691E-03     582.822E-03    -291.130E-03     71.8471E-03     162.474E+06     117.917E+06    -10.4518E+06    -10.4105E+06     117.876E+06     162.474E+06     1.94847E+06         97.7270
            1583     749.350E-06     143.974E-03         2.73078        -1.17059        -3.49685    -550.832E-03    -215.232E-03        -1.17059        -2.49420     578.089E-03    -288.820E-03    -289.269E-03    -288.820E-03     578.088E-03    -289.269E-03    -1.00897E-03    -122.664E+06    -127.768E+06    -277.456E+06    -126.182E+06    -277.420E+06    -124.286E+06     1.53551E+06         66.4773
            1584     1.49872E-03     143.973E-03         1.00502    -846.545E-03        -2.09312    -788.678E-03    -299.421E-03    -846.545E-03     774.565E-03     577.948E-03    -288.903E-03    -289.045E-03    -288.902E-03     577.947E-03    -289.045E-03    -1.74997E-03    -117.049E+06    -123.226E+06    -265.810E+06    -123.269E+06    -265.767E+06    -117.049E+06     2.20892E+06         66.5051
            1585     2.24824E-03     143.971E-03     440.435E-03    -823.631E-03        -1.54447    -787.199E-03    -314.358E-03    -826.112E-03    -438.679E-03     578.042E-03    -288.982E-03    -289.060E-03    -288.981E-03     578.041E-03    -289.060E-03    -2.01664E-03    -105.129E+06    -118.987E+06    -250.712E+06    -119.069E+06    -250.630E+06    -105.129E+06     3.19894E+06         66.5512
            1586     2.99752E-03     143.970E-03     140.261E-03    -798.979E-03        -1.27532    -715.212E-03    -410.566E-03    -808.264E-03     169.107E-03     578.274E-03    -289.108E-03    -289.166E-03    -289.141E-03     578.273E-03    -289.132E-03    -1.54323E-03    -89.9364E+06    -113.651E+06    -231.662E+06    -113.782E+06    -231.532E+06    -89.9364E+06     3.89728E+06         66.6192
            1587     3.74667E-03     143.970E-03    -24.0270E-03    -733.775E-03        -1.17833    -654.110E-03    -498.674E-03    -783.353E-03    -196.357E-03     578.598E-03    -289.242E-03    -289.356E-03    -289.356E-03     578.598E-03    -289.242E-03    -247.039E-06    -72.7097E+06    -107.190E+06    -209.770E+06    -107.396E+06    -209.564E+06    -72.7097E+06     4.52281E+06         66.7161
            1588     4.49574E-03     143.975E-03    -125.517E-03    -658.823E-03        -1.15082    -552.988E-03    -629.694E-03    -752.473E-03     2.78691E-03     578.909E-03    -289.367E-03    -289.542E-03    -289.540E-03     578.908E-03    -289.367E-03     1.93209E-03    -54.8302E+06    -99.9263E+06    -185.088E+06    -100.231E+06    -184.783E+06    -54.8302E+06     5.03880E+06         66.8585
            1589     5.24450E-03     143.983E-03    -180.465E-03    -579.893E-03        -1.17179    -444.816E-03    -773.361E-03    -713.968E-03    -134.019E-03     579.185E-03    -289.492E-03    -289.693E-03    -289.686E-03     579.178E-03    -289.492E-03     4.91062E-03    -36.7974E+06    -91.7703E+06    -157.436E+06    -92.2736E+06    -156.932E+06    -36.7974E+06     5.51380E+06         67.0800
            1590     5.99294E-03     143.998E-03    -203.368E-03    -514.570E-03        -1.21350    -316.022E-03    -947.029E-03    -668.390E-03    -63.5259E-03     579.406E-03    -289.607E-03    -289.799E-03    -289.777E-03     579.384E-03    -289.607E-03     8.53706E-03    -19.0074E+06    -82.8748E+06    -127.411E+06    -83.9137E+06    -126.372E+06    -19.0074E+06     6.32809E+06         67.4455
            1591     6.74191E-03     144.021E-03    -145.301E-03    -517.078E-03        -1.27105    -180.173E-03        -1.13738    -615.875E-03    -118.509E-03     579.629E-03    -289.707E-03    -289.922E-03    -289.873E-03     579.580E-03    -289.707E-03     12.8163E-03    -2.02972E+06    -71.1691E+06    -96.4919E+06    -75.4765E+06    -92.1845E+06    -2.02972E+06     7.52294E+06         68.0685
            1592     7.49056E-03     144.052E-03    -24.1060E-03    -528.777E-03        -1.38475    -31.0280E-03        -1.34965    -556.953E-03    -90.6007E-03     579.968E-03    -289.795E-03    -290.173E-03    -290.079E-03     579.874E-03    -289.795E-03     17.8706E-03     13.7626E+06    -45.5155E+06    -73.3239E+06    -67.0197E+06    -51.8197E+06     13.7626E+06     9.12124E+06         69.1272
            1593     8.23904E-03     144.091E-03     133.304E-03    -491.825E-03        -1.58285     127.013E-03        -1.57656    -491.825E-03    -110.737E-03     580.408E-03    -289.875E-03    -290.533E-03    -290.369E-03     580.244E-03    -289.875E-03     23.7273E-03     28.4620E+06     666.995E+03    -61.0896E+06    -58.7623E+06    -1.66026E+06     28.4620E+06     11.2100E+06         70.8659
            1594     8.98732E-03     144.141E-03     299.044E-03    -420.752E-03        -1.82215     296.070E-03        -1.81918    -420.752E-03    -96.9455E-03     580.928E-03    -289.977E-03    -290.951E-03    -290.690E-03     580.667E-03    -289.977E-03     29.9980E-03     41.2429E+06     35.9579E+06    -52.5920E+06    -50.8887E+06     35.5092E+06     39.9883E+06     12.2003E+06         73.5575
            1595     9.73508E-03     144.200E-03     474.068E-03    -343.978E-03        -2.07672     471.132E-03        -2.07378    -343.978E-03    -99.6453E-03     581.341E-03    -290.127E-03    -291.215E-03    -290.822E-03     580.949E-03    -290.127E-03     36.8334E-03     53.1390E+06     48.4252E+06    -44.5468E+06    -43.3414E+06     48.4744E+06     51.8844E+06     10.4730E+06         77.4058
            1596     10.4835E-03     144.272E-03     651.945E-03    -261.709E-03        -2.34243     650.265E-03        -2.34075    -261.709E-03    -87.9130E-03     581.755E-03    -290.311E-03    -291.444E-03    -290.863E-03     581.174E-03    -290.311E-03     44.8323E-03     69.1464E+06     53.9925E+06    -36.6951E+06    -35.9641E+06     53.2614E+06     69.1464E+06     8.05288E+06         82.3881
            1597     11.2320E-03     144.358E-03     832.550E-03    -174.461E-03        -2.61903     830.847E-03        -2.61733    -174.461E-03    -80.9977E-03     582.346E-03    -290.517E-03    -291.829E-03    -291.038E-03     581.555E-03    -290.517E-03     52.4660E-03     93.2249E+06     62.9736E+06    -28.9404E+06    -28.5256E+06     62.5588E+06     93.2249E+06     5.95598E+06         88.0947
            1598     11.9802E-03     144.454E-03         1.01394    -81.9601E-03        -2.90397         1.01302        -2.90304    -81.9601E-03    -63.2555E-03     583.198E-03    -290.729E-03    -292.469E-03    -291.223E-03     581.953E-03    -290.729E-03     65.3242E-03     126.266E+06     88.1909E+06    -20.3526E+06    -20.1998E+06     88.0382E+06     126.266E+06     3.77484E+06         93.6913
            1599     12.7293E-03     144.582E-03         1.19652     14.9071E-03        -3.19507         1.19552        -3.19407     14.9071E-03    -48.3395E-03     583.488E-03    -290.923E-03    -292.564E-03    -291.097E-03     582.021E-03    -290.923E-03     71.5633E-03     165.015E+06     122.084E+06    -10.4008E+06    -10.3665E+06     122.049E+06     165.015E+06     1.81454E+06         98.1118
            1600     749.322E-06     145.756E-03         4.50818    -529.465E-03        -6.06923    -28.3987E-03        -1.53266    -529.465E-03        -4.25479     577.564E-03    -288.564E-03    -289.000E-03    -288.655E-03     577.564E-03    -288.909E-03    -763.742E-06    -124.057E+06    -129.283E+06    -281.794E+06    -127.193E+06    -281.750E+06    -126.191E+06     477.497E+03         66.4561
            1601     1.49922E-03     145.754E-03         1.63268    -267.522E-03        -3.45697    -220.136E-03        -1.60415    -267.522E-03         1.33844     577.614E-03    -288.722E-03    -288.892E-03    -288.801E-03     577.613E-03    -288.812E-03    -1.77108E-03    -118.962E+06    -124.846E+06    -270.162E+06    -124.866E+06    -270.143E+06    -118.962E+06     1.54597E+06         66.4837
            1602     2.24869E-03     145.753E-03     681.387E-03    -250.891E-03        -2.51773    -219.224E-03        -1.61712    -250.891E-03    -734.095E-03     577.755E-03    -288.849E-03    -288.905E-03    -288.879E-03     577.753E-03    -288.875E-03    -2.21957E-03    -107.002E+06    -120.941E+06    -255.032E+06    -120.996E+06    -254.978E+06    -107.002E+06     2.56993E+06         66.5296
            1603     2.99818E-03     145.751E-03     259.074E-03    -236.271E-03        -2.11550    -160.465E-03        -1.69596    -236.271E-03     319.040E-03     577.962E-03    -288.948E-03    -289.014E-03    -288.996E-03     577.961E-03    -288.966E-03    -1.82630E-03    -91.2205E+06    -115.189E+06    -235.665E+06    -115.300E+06    -235.553E+06    -91.2205E+06     3.56419E+06         66.5969
            1604     3.74738E-03     145.753E-03     85.2901E-03    -215.598E-03        -1.96375    -110.166E-03        -1.76830    -215.598E-03    -305.573E-03     578.189E-03    -289.049E-03    -289.139E-03    -289.114E-03     578.188E-03    -289.074E-03    -459.161E-06    -73.0161E+06    -108.187E+06    -213.086E+06    -108.359E+06    -212.914E+06    -73.0161E+06     4.15807E+06         66.6928
            1605     4.49640E-03     145.758E-03     48.7447E-03    -189.846E-03        -1.95361    -29.6887E-03        -1.87518    -189.846E-03     49.7158E-03     578.493E-03    -289.178E-03    -289.315E-03    -289.300E-03     578.492E-03    -289.192E-03     1.73751E-03    -54.1578E+06    -100.540E+06    -187.630E+06    -100.786E+06    -187.384E+06    -54.1578E+06     4.51626E+06         66.8328
            1606     5.24555E-03     145.768E-03     95.2382E-03    -157.657E-03        -2.03049     57.2997E-03        -1.99255    -157.657E-03    -185.369E-03     578.903E-03    -289.320E-03    -289.582E-03    -289.575E-03     578.895E-03    -289.320E-03     4.67797E-03    -35.6574E+06    -92.4696E+06    -160.296E+06    -92.8570E+06    -159.909E+06    -35.6574E+06     5.01232E+06         67.0499
            1607     5.99441E-03     145.783E-03     175.260E-03    -119.346E-03        -2.14933     160.489E-03        -2.13455    -119.346E-03    -52.9639E-03     579.257E-03    -289.452E-03    -289.805E-03    -289.783E-03     579.236E-03    -289.452E-03     8.36453E-03    -17.9625E+06    -83.7089E+06    -131.071E+06    -84.5168E+06    -130.263E+06    -17.9625E+06     5.76612E+06         67.4076
            1608     6.74270E-03     145.806E-03     278.712E-03    -74.9723E-03        -2.30038     268.939E-03        -2.29061    -74.9723E-03    -148.408E-03     579.487E-03    -289.570E-03    -289.917E-03    -289.868E-03     579.439E-03    -289.570E-03     12.8114E-03    -1.30479E+06    -73.1870E+06    -99.6770E+06    -76.0122E+06    -96.8518E+06    -1.30479E+06     6.75392E+06         68.0186
            1609     7.49140E-03     145.837E-03     393.537E-03    -24.8075E-03        -2.46996     389.048E-03        -2.46547    -24.8075E-03    -94.7757E-03     579.731E-03    -289.666E-03    -290.065E-03    -289.972E-03     579.638E-03    -289.666E-03     17.8151E-03     14.0962E+06    -50.5168E+06    -74.7157E+06    -67.4988E+06    -57.7337E+06     14.0962E+06     8.03491E+06         69.0624
            1610     8.24010E-03     145.878E-03     520.278E-03     31.0628E-03        -2.65751     516.320E-03        -2.65355     31.0628E-03    -131.892E-03     580.014E-03    -289.745E-03    -290.269E-03    -290.108E-03     579.853E-03    -289.745E-03     23.4645E-03     28.6020E+06    -7.78306E+06    -61.2723E+06    -59.0183E+06    -10.0371E+06     28.6020E+06     10.2358E+06         70.7887
            1611     8.98863E-03     145.929E-03     654.956E-03     92.3883E-03        -2.85776     652.739E-03        -2.85555     92.3883E-03    -106.380E-03     580.380E-03    -289.823E-03    -290.557E-03    -290.300E-03     580.123E-03    -289.823E-03     29.7555E-03     43.8424E+06     31.6920E+06    -52.5589E+06    -50.9312E+06     33.4703E+06     40.4364E+06     11.7049E+06         73.4816
            1612     9.73721E-03     145.989E-03     796.100E-03     158.896E-03        -3.07011     793.923E-03        -3.06793     158.896E-03    -115.708E-03     580.925E-03    -289.948E-03    -290.977E-03    -290.586E-03     580.533E-03    -289.948E-03     36.7593E-03     55.3741E+06     50.8284E+06    -44.7869E+06    -43.6259E+06     53.2899E+06     51.7516E+06     10.6105E+06         77.3604
            1613     10.4854E-03     146.060E-03     938.774E-03     230.453E-03        -3.29178     937.443E-03        -3.29045     230.453E-03    -98.1311E-03     581.537E-03    -290.132E-03    -291.405E-03    -290.818E-03     580.949E-03    -290.132E-03     45.0497E-03     68.2873E+06     57.8490E+06    -37.1524E+06    -36.4186E+06     57.3316E+06     68.0709E+06     8.20423E+06         82.4159
            1614     11.2338E-03     146.147E-03         1.08213     306.600E-03        -3.52165         1.08079        -3.52031     306.600E-03    -92.5548E-03     581.917E-03    -290.341E-03    -291.576E-03    -290.775E-03     581.116E-03    -290.341E-03     52.7844E-03     92.6819E+06     67.2208E+06    -28.9765E+06    -28.5892E+06     66.8335E+06     92.6819E+06     5.86345E+06         88.2405
            1615     11.9827E-03     146.243E-03         1.22436     387.667E-03        -3.75727         1.22363        -3.75654     387.667E-03    -70.6892E-03     582.436E-03    -290.548E-03    -291.889E-03    -290.632E-03     581.180E-03    -290.548E-03     65.5537E-03     127.518E+06     92.6521E+06    -19.8076E+06    -19.6584E+06     92.5030E+06     127.518E+06     3.85433E+06         93.9780
            1616     12.7317E-03     146.370E-03         1.36418     472.643E-03        -3.99560         1.36338        -3.99480     472.643E-03    -54.7478E-03     582.709E-03    -290.725E-03    -291.983E-03    -290.500E-03     581.226E-03    -290.725E-03     71.8913E-03     167.444E+06     126.435E+06    -10.0216E+06    -9.98284E+06     126.396E+06     167.444E+06     1.95264E+06         98.5160
            1617     750.226E-06     147.536E-03         5.85461     225.879E-03        -8.32747     571.763E-03        -3.04462     225.879E-03        -5.56078     577.386E-03    -288.568E-03    -288.819E-03    -288.658E-03     577.385E-03    -288.727E-03    -1.25967E-03    -124.876E+06    -131.316E+06    -284.498E+06    -129.230E+06    -284.451E+06    -127.010E+06     567.029E+03         66.4478
            1618     1.49921E-03     147.535E-03         2.32069     406.931E-03        -4.97347     441.089E-03        -3.09387     406.931E-03         1.75748     577.598E-03    -288.730E-03    -288.868E-03    -288.840E-03     577.597E-03    -288.757E-03    -2.13830E-03    -119.266E+06    -126.580E+06    -273.528E+06    -126.595E+06    -273.513E+06    -119.266E+06     1.36816E+06         66.4747
            1619     2.24874E-03     147.533E-03         1.23480     419.541E-03        -3.89713     446.398E-03        -3.10873     419.541E-03    -947.813E-03     577.761E-03    -288.844E-03    -288.917E-03    -288.904E-03     577.759E-03    -288.855E-03    -2.50990E-03    -106.943E+06    -122.143E+06    -258.552E+06    -122.178E+06    -258.517E+06    -106.943E+06     2.13098E+06         66.5194
            1620     2.99800E-03     147.533E-03     812.309E-03     431.163E-03        -3.49151     488.271E-03        -3.16748     431.163E-03     433.696E-03     577.841E-03    -288.877E-03    -288.964E-03    -288.895E-03     577.840E-03    -288.945E-03    -2.14965E-03    -91.3451E+06    -116.306E+06    -239.339E+06    -116.384E+06    -239.261E+06    -91.3451E+06     2.99455E+06         66.5849
            1621     3.74754E-03     147.535E-03     664.645E-03     447.160E-03        -3.36048     526.383E-03        -3.22222     447.160E-03    -380.796E-03     577.975E-03    -288.946E-03    -289.029E-03    -288.945E-03     577.974E-03    -289.029E-03    -863.568E-06    -73.5951E+06    -109.445E+06    -215.678E+06    -109.566E+06    -215.557E+06    -73.5951E+06     3.53180E+06         66.6781
            1622     4.49708E-03     147.541E-03     638.104E-03     467.062E-03        -3.35514     582.164E-03        -3.29920     467.062E-03     88.0564E-03     578.258E-03    -289.071E-03    -289.188E-03    -289.129E-03     578.257E-03    -289.128E-03     1.30619E-03    -54.4827E+06    -101.721E+06    -190.528E+06    -101.909E+06    -190.340E+06    -54.4827E+06     3.98633E+06         66.8144
            1623     5.24589E-03     147.551E-03     668.260E-03     491.602E-03        -3.41060     641.155E-03        -3.38349     491.602E-03    -219.160E-03     578.581E-03    -289.210E-03    -289.371E-03    -289.334E-03     578.575E-03    -289.241E-03     4.34616E-03    -35.3833E+06    -93.3185E+06    -163.370E+06    -93.6596E+06    -163.028E+06    -35.3833E+06     4.73283E+06         67.0256
            1624     5.99469E-03     147.568E-03     722.613E-03     520.673E-03        -3.49568     711.158E-03        -3.48423     520.673E-03    -41.7252E-03     578.938E-03    -289.356E-03    -289.583E-03    -289.562E-03     578.918E-03    -289.356E-03     8.13407E-03    -17.2321E+06    -84.5172E+06    -133.867E+06    -85.1247E+06    -133.260E+06    -17.2321E+06     5.25440E+06         67.3743
            1625     6.74378E-03     147.591E-03     792.638E-03     554.440E-03        -3.60328     785.358E-03        -3.59600     554.440E-03    -167.206E-03     579.296E-03    -289.469E-03    -289.827E-03    -289.780E-03     579.249E-03    -289.469E-03     12.6281E-03    -533.800E+03    -74.5665E+06    -102.444E+06    -76.4472E+06    -100.563E+06    -533.800E+03     5.90578E+06         67.9722
            1626     7.49234E-03     147.623E-03     871.700E-03     592.950E-03        -3.72635     868.223E-03        -3.72287     592.950E-03    -94.5562E-03     579.613E-03    -289.572E-03    -290.041E-03    -289.948E-03     579.520E-03    -289.572E-03     17.8195E-03     14.7385E+06    -54.5603E+06    -76.5459E+06    -67.9600E+06    -63.1462E+06     14.7385E+06     7.31916E+06         68.9998
            1627     8.24076E-03     147.664E-03     961.007E-03     636.309E-03        -3.86444     958.031E-03        -3.86147     636.309E-03    -143.603E-03     579.805E-03    -289.656E-03    -290.150E-03    -289.990E-03     579.645E-03    -289.656E-03     23.4434E-03     29.0749E+06    -15.4940E+06    -61.8060E+06    -59.5400E+06    -17.7601E+06     29.0749E+06     9.24427E+06         70.7119
            1628     8.98957E-03     147.715E-03         1.05616     684.415E-03        -4.01374         1.05447        -4.01204     684.415E-03    -109.497E-03     579.911E-03    -289.719E-03    -290.192E-03    -289.937E-03     579.656E-03    -289.719E-03     29.5957E-03     44.7291E+06     27.9217E+06    -52.6401E+06    -51.1667E+06     29.7033E+06     41.4740E+06     10.8553E+06         73.4043
            1629     9.73842E-03     147.776E-03         1.15563     737.085E-03        -4.17321         1.15397        -4.17155     737.085E-03    -124.115E-03     580.288E-03    -289.807E-03    -290.480E-03    -290.093E-03     579.901E-03    -289.807E-03     36.5277E-03     57.5866E+06     52.4830E+06    -44.4544E+06    -43.3353E+06     56.4675E+06     52.4830E+06     10.5769E+06         77.3133
            1630     10.4871E-03     147.849E-03         1.25569     794.194E-03        -4.33926         1.25465        -4.33822     794.194E-03    -102.386E-03     580.898E-03    -289.957E-03    -290.940E-03    -290.351E-03     580.309E-03    -289.957E-03     45.0328E-03     69.2487E+06     61.3882E+06    -36.8595E+06    -36.1533E+06     62.5304E+06     67.4002E+06     8.24817E+06         82.4453
            1631     11.2357E-03     147.935E-03         1.35372     855.179E-03        -4.50959         1.35268        -4.50855     855.179E-03    -98.5111E-03     581.288E-03    -290.150E-03    -291.138E-03    -290.329E-03     580.479E-03    -290.150E-03     53.0175E-03     91.8387E+06     71.6615E+06    -29.1107E+06    -28.7626E+06     71.3134E+06     91.8387E+06     5.76202E+06         88.3938
            1632     11.9848E-03     148.031E-03         1.44736     920.411E-03        -4.68226         1.44677        -4.68167     920.411E-03    -75.0896E-03     581.893E-03    -290.352E-03    -291.541E-03    -290.277E-03     580.629E-03    -290.352E-03     65.7210E-03     127.788E+06     96.1978E+06    -20.4305E+06    -20.2812E+06     96.0485E+06     127.788E+06     3.97620E+06         94.2779
            1633     12.7347E-03     148.158E-03         1.53608     988.885E-03        -4.85463         1.53545        -4.85400     988.885E-03    -58.3699E-03     582.214E-03    -290.532E-03    -291.682E-03    -290.196E-03     580.728E-03    -290.532E-03     71.9437E-03     169.487E+06     130.806E+06    -10.6004E+06    -10.5558E+06     130.762E+06     169.487E+06     2.20159E+06         98.9378
            1634     748.859E-06     149.316E-03         6.58433         1.06221        -10.0369         1.24804        -4.70061         1.06221        -6.26502     577.836E-03    -288.666E-03    -289.169E-03    -288.947E-03     577.835E-03    -288.888E-03    -1.35163E-03    -127.571E+06    -133.926E+06    -287.660E+06    -131.970E+06    -287.619E+06    -129.569E+06     1.01751E+06         66.4518
            1635     1.49910E-03     149.316E-03         2.88329         1.15847        -6.43363         1.17338        -4.72372         1.15847         1.98408     577.718E-03    -288.756E-03    -288.962E-03    -288.786E-03     577.716E-03    -288.930E-03    -2.29272E-03    -120.940E+06    -128.811E+06    -276.663E+06    -128.839E+06    -276.635E+06    -120.940E+06     1.80240E+06         66.4777
            1636     2.24834E-03     149.315E-03         1.83599         1.16437        -5.39221         1.17924        -4.73547         1.16437        -1.05801     577.780E-03    -288.799E-03    -288.981E-03    -288.828E-03     577.779E-03    -288.950E-03    -2.55009E-03    -107.778E+06    -124.234E+06    -261.511E+06    -124.277E+06    -261.468E+06    -107.778E+06     2.36608E+06         66.5206
            1637     2.99791E-03     149.314E-03         1.45696         1.17056        -5.02175         1.19905        -4.76384         1.17056     496.612E-03     577.912E-03    -288.898E-03    -289.013E-03    -288.901E-03     577.910E-03    -289.009E-03    -2.13622E-03    -91.7963E+06    -118.408E+06    -241.841E+06    -118.465E+06    -241.784E+06    -91.7963E+06     2.63773E+06         66.5835
            1638     3.74727E-03     149.317E-03         1.32545         1.17922        -4.90118         1.21821        -4.79394         1.17922    -417.414E-03     578.087E-03    -288.995E-03    -289.092E-03    -288.998E-03     578.086E-03    -289.088E-03    -969.661E-06    -73.9081E+06    -111.287E+06    -218.219E+06    -111.387E+06    -218.119E+06    -73.9081E+06     3.19735E+06         66.6729
            1639     4.49626E-03     149.323E-03         1.28977         1.19053        -4.87824         1.24603        -4.83450         1.19053     111.449E-03     578.205E-03    -289.027E-03    -289.178E-03    -289.026E-03     578.204E-03    -289.178E-03     1.02699E-03    -54.4562E+06    -103.274E+06    -193.300E+06    -103.442E+06    -193.132E+06    -54.4562E+06     3.83165E+06         66.8038
            1640     5.24592E-03     149.334E-03         1.29655         1.20501        -4.90210         1.27563        -4.88118         1.20501    -235.488E-03     578.345E-03    -289.084E-03    -289.261E-03    -289.079E-03     578.339E-03    -289.261E-03     3.98566E-03    -34.9859E+06    -94.5962E+06    -165.848E+06    -94.8599E+06    -165.584E+06    -34.9859E+06     4.24541E+06         67.0073
            1641     5.99530E-03     149.352E-03         1.31965         1.22278        -4.94653         1.31071        -4.93759         1.22278    -33.4244E-03     578.643E-03    -289.241E-03    -289.401E-03    -289.282E-03     578.624E-03    -289.342E-03     7.77556E-03    -16.8041E+06    -85.6926E+06    -136.149E+06    -86.1755E+06    -135.666E+06    -16.8041E+06     4.71855E+06         67.3451
            1642     6.74391E-03     149.376E-03         1.35499         1.24410        -5.00745         1.34946        -5.00193         1.24410    -174.604E-03     579.030E-03    -289.405E-03    -289.625E-03    -289.554E-03     578.985E-03    -289.432E-03     12.2583E-03     72.9964E+03    -76.2808E+06    -105.271E+06    -77.6775E+06    -103.874E+06     72.9964E+03     5.43449E+06         67.9282
            1643     7.49280E-03     149.408E-03         1.39530         1.26912        -5.07840         1.39267        -5.07577         1.26912    -91.7000E-03     579.325E-03    -289.519E-03    -289.806E-03    -289.715E-03     579.234E-03    -289.519E-03     17.5532E-03     15.6316E+06    -58.3961E+06    -78.1002E+06    -68.7972E+06    -67.6991E+06     15.6316E+06     6.42717E+06         68.9382
            1644     8.24164E-03     149.450E-03         1.44144         1.29787        -5.15989         1.43923        -5.15768         1.29787    -146.468E-03     579.495E-03    -289.588E-03    -289.907E-03    -289.748E-03     579.337E-03    -289.588E-03     23.3269E-03     29.7115E+06    -22.5675E+06    -62.0687E+06    -59.9874E+06    -24.6488E+06     29.7115E+06     8.11906E+06         70.6349
            1645     8.99033E-03     149.501E-03         1.48918         1.33023        -5.24789         1.48791        -5.24662         1.33023    -108.038E-03     579.595E-03    -289.635E-03    -289.960E-03    -289.704E-03     579.339E-03    -289.635E-03     29.6177E-03     43.9543E+06     23.9556E+06    -53.1690E+06    -51.8332E+06     24.6433E+06     41.9309E+06     9.95375E+06         73.3256
            1646     9.73930E-03     149.562E-03         1.53838         1.36607        -5.34206         1.53714        -5.34083         1.36607    -125.532E-03     579.757E-03    -289.692E-03    -290.065E-03    -289.675E-03     579.367E-03    -289.692E-03     36.6409E-03     58.6979E+06     52.1267E+06    -45.2371E+06    -44.2146E+06     57.6754E+06     52.1267E+06     10.2232E+06         77.2643
            1647     10.4886E-03     149.635E-03         1.58616         1.40533        -5.43953         1.58538        -5.43875         1.40533    -101.649E-03     580.142E-03    -289.806E-03    -290.336E-03    -289.753E-03     579.560E-03    -289.806E-03     44.8102E-03     70.7626E+06     63.4437E+06    -37.7950E+06    -37.0500E+06     67.2465E+06     66.2148E+06     8.80116E+06         82.4747
            1648     11.2384E-03     149.722E-03         1.63080         1.44748        -5.53855         1.63002        -5.53777         1.44748    -99.4230E-03     580.644E-03    -289.979E-03    -290.665E-03    -289.874E-03     579.852E-03    -289.979E-03     52.3999E-03     91.3237E+06     76.8535E+06    -30.0777E+06    -29.6742E+06     76.4501E+06     91.3237E+06     6.34387E+06         88.5522
            1649     11.9876E-03     149.818E-03         1.67487         1.48828        -5.63831         1.66969        -5.63785         1.49300    -76.5057E-03     581.485E-03    -290.180E-03    -291.304E-03    -290.065E-03     580.245E-03    -290.180E-03     65.0427E-03     128.142E+06     100.339E+06    -21.4543E+06    -21.3188E+06     100.203E+06     128.142E+06     3.76319E+06         94.5897
            1650     12.7367E-03     149.945E-03         1.72228         1.52268        -5.73729         1.70354        -5.73680         1.54093    -59.5940E-03     581.699E-03    -290.366E-03    -291.333E-03    -289.869E-03     580.235E-03    -290.366E-03     71.3692E-03     171.234E+06     134.991E+06    -11.1976E+06    -11.1674E+06     134.961E+06     171.234E+06     1.83322E+06         99.3776
            1651     749.611E-06     151.098E-03         6.63773         1.95950        -11.1265         1.94637        -6.43511         1.95950        -6.26278     578.137E-03    -288.846E-03    -289.291E-03    -289.220E-03     578.137E-03    -288.916E-03    -1.41655E-03    -130.844E+06    -136.320E+06    -291.428E+06    -134.355E+06    -291.395E+06    -132.841E+06     824.070E+03         66.4654
            1652     1.49835E-03     151.097E-03         3.30336         1.95034        -7.78138         1.94214        -6.42016         1.95034         1.98459     577.908E-03    -288.847E-03    -289.061E-03    -288.846E-03     577.907E-03    -289.061E-03    -1.97640E-03    -124.011E+06    -131.540E+06    -280.684E+06    -131.567E+06    -280.657E+06    -124.011E+06     1.75753E+06         66.4901
            1653     2.24830E-03     151.096E-03         2.43538         1.94768        -6.91221         1.94539        -6.42222         1.94768        -1.05871     577.883E-03    -288.835E-03    -289.049E-03    -288.833E-03     577.882E-03    -289.049E-03    -2.37590E-03    -110.095E+06    -126.713E+06    -264.051E+06    -126.759E+06    -264.005E+06    -110.095E+06     2.41539E+06         66.5311
            1654     2.99769E-03     151.096E-03         2.12644         1.94668        -6.60212         1.93874        -6.41442         1.94668     495.565E-03     578.139E-03    -289.031E-03    -289.108E-03    -289.034E-03     578.138E-03    -289.104E-03    -2.05741E-03    -92.5375E+06    -120.404E+06    -243.679E+06    -120.465E+06    -243.618E+06    -92.5375E+06     2.72307E+06         66.5912
            1655     3.74679E-03     151.099E-03         2.01822         1.94203        -6.49201         1.93680        -6.41475         1.94619    -418.836E-03     578.333E-03    -289.128E-03    -289.205E-03    -289.132E-03     578.333E-03    -289.200E-03    -986.542E-06    -73.2247E+06    -112.925E+06    -220.465E+06    -113.011E+06    -220.380E+06    -73.2247E+06     2.99063E+06         66.6763
            1656     4.49630E-03     151.105E-03         1.97649         1.93493        -6.44660         1.93290        -6.41511         1.94704     111.947E-03     578.386E-03    -289.096E-03    -289.290E-03    -289.095E-03     578.386E-03    -289.290E-03     853.935E-06    -53.7376E+06    -104.532E+06    -195.366E+06    -104.669E+06    -195.229E+06    -53.7376E+06     3.46402E+06         66.8009
            1657     5.24523E-03     151.117E-03         1.97257         1.92535        -6.43700         1.93319        -6.42199         1.94972    -236.350E-03     578.441E-03    -289.078E-03    -289.363E-03    -289.073E-03     578.436E-03    -289.363E-03     3.63213E-03    -34.5558E+06    -95.7901E+06    -168.032E+06    -96.0277E+06    -167.795E+06    -34.5558E+06     4.02750E+06         66.9955
            1658     5.99436E-03     151.134E-03         1.97572         1.91917        -6.43867         1.93370        -6.43228         1.95480    -33.3590E-03     578.542E-03    -289.118E-03    -289.423E-03    -289.102E-03     578.525E-03    -289.423E-03     7.29161E-03    -16.2002E+06    -86.9694E+06    -138.668E+06    -87.4413E+06    -138.196E+06    -16.2002E+06     4.71944E+06         67.3207
            1659     6.74393E-03     151.160E-03         1.98509         1.91755        -6.45139         1.93626        -6.44743         1.96243    -173.826E-03     578.715E-03    -289.197E-03    -289.517E-03    -289.195E-03     578.673E-03    -289.478E-03     11.7941E-03     1.01655E+06    -77.3484E+06    -107.657E+06    -78.5849E+06    -106.420E+06     1.01655E+06     5.34699E+06         67.8872
            1660     7.49282E-03     151.193E-03         1.99675         1.91576        -6.46678         1.93799        -6.46489         1.97264    -90.9456E-03     578.860E-03    -289.280E-03    -289.580E-03    -289.252E-03     578.773E-03    -289.521E-03     17.1314E-03     16.2273E+06    -61.2404E+06    -79.7165E+06    -69.9186E+06    -71.0383E+06     16.2273E+06     5.84178E+06         68.8780
            1661     8.24195E-03     151.235E-03         2.01045         1.91364        -6.48639         1.93721        -6.48479         1.98527    -145.299E-03     578.998E-03    -289.375E-03    -289.623E-03    -289.292E-03     578.842E-03    -289.550E-03     23.0873E-03     29.4834E+06    -28.8986E+06    -63.3245E+06    -61.4876E+06    -30.7355E+06     29.4834E+06     6.92602E+06         70.5582
            1662     8.99123E-03     151.286E-03         2.02437         1.91017        -6.50639         1.93353        -6.50547         2.00008    -106.751E-03     579.187E-03    -289.499E-03    -289.688E-03    -289.368E-03     578.934E-03    -289.566E-03     29.4387E-03     42.5030E+06     18.7288E+06    -54.1316E+06    -52.9860E+06     18.5030E+06     41.5832E+06     8.91209E+06         73.2465
            1663     9.74049E-03     151.348E-03         2.03884         1.90655        -6.52761         1.92759        -6.52670         2.01689    -124.185E-03     579.364E-03    -289.595E-03    -289.769E-03    -289.385E-03     578.980E-03    -289.595E-03     36.3526E-03     58.9814E+06     50.2328E+06    -46.0173E+06    -45.0053E+06     56.7881E+06     51.4141E+06     10.1803E+06         77.2148
            1664     10.4898E-03     151.421E-03         2.05254         1.90230        -6.54879         1.91843        -6.54820         2.03582    -100.184E-03     579.726E-03    -289.687E-03    -290.039E-03    -289.463E-03     579.150E-03    -289.687E-03     44.5324E-03     72.9573E+06     64.5228E+06    -38.2321E+06    -37.4918E+06     71.5151E+06     65.2247E+06     8.90222E+06         82.5042
            1665     11.2388E-03     151.508E-03         2.06534         1.89742        -6.57002         1.90564        -6.56944         2.05654    -97.4806E-03     580.223E-03    -289.850E-03    -290.372E-03    -289.587E-03     579.437E-03    -289.850E-03     52.1751E-03     91.9964E+06     81.2892E+06    -30.1769E+06    -29.8016E+06     81.9991E+06     90.9112E+06     6.33441E+06         88.7140
            1666     11.9883E-03     151.605E-03         2.08152         1.88687        -6.59107         1.88844        -6.59072         2.07960    -75.5617E-03     580.824E-03    -290.043E-03    -290.780E-03    -289.543E-03     579.586E-03    -290.043E-03     64.9234E-03     128.911E+06     105.697E+06    -21.0275E+06    -20.8883E+06     105.558E+06     128.911E+06     3.85313E+06         94.9129
            1667     12.7384E-03     151.732E-03         2.10415         1.86511        -6.61012         1.86474        -6.60975         2.10415    -59.3563E-03     581.025E-03    -290.214E-03    -290.811E-03    -289.336E-03     579.550E-03    -290.214E-03     71.6124E-03     172.952E+06     139.432E+06    -10.7495E+06    -10.7243E+06     139.407E+06     172.952E+06     1.59279E+06         99.8380
            1668     749.057E-06     152.880E-03         6.13202         2.84851        -11.6299         2.63679        -8.13463         2.84851        -5.55596     578.108E-03    -288.912E-03    -289.196E-03    -289.043E-03     578.107E-03    -289.064E-03    -1.48531E-03    -133.110E+06    -138.414E+06    -294.934E+06    -137.045E+06    -294.909E+06    -134.504E+06     893.488E+03         66.4868
            1669     1.49899E-03     152.878E-03         3.62132         2.73478        -9.00511         2.70538        -8.08917         2.73478         1.76076     578.284E-03    -289.049E-03    -289.235E-03    -289.166E-03     578.283E-03    -289.117E-03    -2.11697E-03    -125.638E+06    -133.746E+06    -283.867E+06    -133.760E+06    -283.853E+06    -125.638E+06     1.33730E+06         66.5102
            1670     2.24799E-03     152.877E-03         3.02297         2.72474        -8.39932         2.70942        -8.08578         2.72474    -946.380E-03     578.373E-03    -289.092E-03    -289.282E-03    -289.170E-03     578.371E-03    -289.201E-03    -2.64537E-03    -111.710E+06    -128.634E+06    -266.826E+06    -128.667E+06    -266.793E+06    -111.710E+06     2.02608E+06         66.5490
            1671     2.99718E-03     152.879E-03         2.79670         2.71784        -8.16392         2.67870        -8.04592         2.71784     436.990E-03     578.406E-03    -289.128E-03    -289.278E-03    -289.126E-03     578.405E-03    -289.278E-03    -2.30262E-03     -93.884E+06    -122.073E+06    -245.970E+06    -122.138E+06    -245.905E+06     -93.884E+06     2.76506E+06         66.6057
            1672     3.74639E-03     152.882E-03         2.73068         2.68518        -8.06742         2.65816        -8.01913         2.70940    -377.588E-03     578.523E-03    -289.167E-03    -289.356E-03    -289.166E-03     578.522E-03    -289.356E-03    -1.16426E-03    -73.9352E+06    -114.491E+06    -222.405E+06    -114.584E+06    -222.312E+06    -73.9352E+06     3.13854E+06         66.6861
            1673     4.49517E-03     152.889E-03         2.70074         2.64175        -7.99926         2.62215        -7.97967         2.70074     95.1132E-03     578.653E-03    -289.215E-03    -289.438E-03    -289.215E-03     578.653E-03    -289.438E-03     749.293E-06    -53.5046E+06    -106.072E+06    -197.148E+06    -106.203E+06    -197.017E+06    -53.5046E+06     3.41413E+06         66.8041
            1674     5.24449E-03     152.900E-03         2.69188         2.59905        -7.95400         2.58966        -7.94461         2.69188    -214.429E-03     578.672E-03    -289.165E-03    -289.508E-03    -289.160E-03     578.668E-03    -289.508E-03     3.57505E-03    -33.9507E+06    -97.1473E+06    -170.126E+06    -97.3594E+06    -169.914E+06    -33.9507E+06     3.82860E+06         66.9893
            1675     5.99373E-03     152.918E-03         2.68384         2.55668        -7.90843         2.55268        -7.90443         2.68384    -34.2374E-03     578.614E-03    -289.060E-03    -289.554E-03    -289.044E-03     578.598E-03    -289.554E-03     7.28550E-03    -15.3737E+06    -87.5553E+06    -140.789E+06    -87.9396E+06    -140.405E+06    -15.3737E+06     4.30614E+06         67.3015
            1676     6.74271E-03     152.943E-03         2.67685         2.51784        -7.86754         2.51533        -7.86503         2.67685    -158.872E-03     578.522E-03    -288.947E-03    -289.575E-03    -288.906E-03     578.481E-03    -289.575E-03     11.6758E-03     1.84828E+06    -77.5499E+06    -109.602E+06    -78.4892E+06    -108.662E+06     1.84828E+06     4.83069E+06         67.8507
            1677     7.49252E-03     152.977E-03         2.67099         2.47268        -7.82301         2.47146        -7.82178         2.67099    -86.6452E-03     578.510E-03    -288.934E-03    -289.576E-03    -288.851E-03     578.427E-03    -289.576E-03     16.7408E-03     16.9984E+06    -63.0988E+06    -81.0885E+06    -69.5496E+06    -74.6377E+06     16.9984E+06     5.76953E+06         68.8212
            1678     8.24211E-03     153.019E-03         2.66608         2.42374        -7.77774         2.42268        -7.77668         2.66608    -134.586E-03     578.616E-03    -289.050E-03    -289.566E-03    -288.901E-03     578.467E-03    -289.566E-03     22.5252E-03     30.5457E+06    -32.0603E+06    -63.6297E+06    -61.1419E+06    -34.5480E+06     30.5457E+06     6.85574E+06         70.4832
            1679     8.99159E-03     153.071E-03         2.66197         2.36785        -7.72845         2.36722        -7.72782         2.66197    -100.991E-03     578.762E-03    -289.198E-03    -289.565E-03    -288.965E-03     578.520E-03    -289.554E-03     28.8342E-03     42.9082E+06     13.4446E+06    -54.0881E+06    -53.0562E+06     12.4128E+06     42.9082E+06     8.04166E+06         73.1674
            1680     9.74092E-03     153.133E-03         2.65844         2.30780        -7.67688         2.30716        -7.67624         2.65844    -115.956E-03     578.921E-03    -289.330E-03    -289.591E-03    -289.001E-03     578.548E-03    -289.548E-03     35.7600E-03     60.6506E+06     46.3838E+06    -45.8180E+06    -44.9843E+06     54.1193E+06     52.0813E+06     9.02935E+06         77.1644
            1681     10.4905E-03     153.205E-03         2.65574         2.24339        -7.62216         2.24296        -7.62174         2.65574    -94.8471E-03     579.160E-03    -289.415E-03    -289.745E-03    -288.993E-03     578.587E-03    -289.594E-03     44.3326E-03     76.9244E+06     64.3123E+06    -37.6762E+06    -37.0619E+06     76.3102E+06     64.3123E+06     8.25424E+06         82.5348
            1682     11.2406E-03     153.294E-03         2.65374         2.17448        -7.56493         2.17406        -7.56451         2.65374    -91.5730E-03     579.427E-03    -289.464E-03    -289.963E-03    -288.905E-03     578.626E-03    -289.722E-03     52.6300E-03     93.4901E+06     83.7583E+06    -29.3072E+06    -28.9870E+06     87.4809E+06     89.4473E+06     5.94217E+06         88.8835
            1683     11.9904E-03     153.390E-03         2.65297         2.09876        -7.50437         2.09849        -7.50410         2.65297    -72.4336E-03     580.091E-03    -289.730E-03    -290.361E-03    -288.945E-03     578.833E-03    -289.887E-03     65.4635E-03     128.014E+06     110.081E+06    -20.5330E+06    -20.4121E+06     109.960E+06     128.014E+06     3.75678E+06         95.2527
            1684     12.7414E-03     153.515E-03         2.65272         2.01560        -7.43956         2.01533        -7.43928         2.65272    -57.5166E-03     580.705E-03    -290.054E-03    -290.650E-03    -289.160E-03     579.215E-03    -290.054E-03     71.9379E-03     173.770E+06     143.620E+06    -10.5722E+06    -10.5355E+06     143.583E+06     173.770E+06     2.10032E+06         100.321
            1685     749.757E-06     154.661E-03         5.35344         3.65740        -11.7568         3.31181        -9.71521         3.65740        -4.24640     578.548E-03    -289.044E-03    -289.504E-03    -289.359E-03     578.547E-03    -289.188E-03    -1.57294E-03    -135.876E+06    -140.668E+06    -298.129E+06    -139.300E+06    -298.102E+06    -137.271E+06     1.06000E+06         66.5136
            1686     1.49822E-03     154.661E-03         3.91158         3.47354        -10.1345         3.42992        -9.65279         3.47354         1.33951     578.814E-03    -289.326E-03    -289.488E-03    -289.459E-03     578.812E-03    -289.354E-03    -2.38300E-03    -127.512E+06    -136.234E+06    -286.348E+06    -136.254E+06    -286.328E+06    -127.512E+06     1.67903E+06         66.5354
            1687     2.24705E-03     154.661E-03         3.60344         3.44952        -9.80864         3.43531        -9.64969         3.45872    -728.406E-03     578.922E-03    -289.381E-03    -289.541E-03    -289.459E-03     578.920E-03    -289.461E-03    -2.75624E-03    -113.449E+06    -131.396E+06    -269.349E+06    -131.425E+06    -269.320E+06    -113.449E+06     1.98561E+06         66.5715
            1688     2.99615E-03     154.661E-03         3.46413         3.42859        -9.64406         3.38603        -9.58501         3.44765     328.137E-03     578.842E-03    -289.308E-03    -289.534E-03    -289.306E-03     578.840E-03    -289.534E-03    -2.45134E-03    -95.8636E+06    -124.835E+06    -248.460E+06    -124.885E+06    -248.411E+06    -95.8636E+06     2.41259E+06         66.6244
            1689     3.74548E-03     154.665E-03         3.43574         3.36903        -9.55883         3.34771        -9.53473         3.43296    -296.777E-03     578.767E-03    -289.184E-03    -289.583E-03    -289.183E-03     578.766E-03    -289.583E-03    -1.43230E-03    -75.4049E+06    -116.661E+06    -224.169E+06    -116.744E+06    -224.086E+06    -75.4049E+06     2.92315E+06         66.6997
            1690     4.49488E-03     154.672E-03         3.41618         3.29218        -9.46758         3.28243        -9.45784         3.41618     62.8784E-03     578.779E-03    -289.152E-03    -289.627E-03    -289.152E-03     578.779E-03    -289.627E-03     518.677E-06    -54.1022E+06    -107.713E+06    -198.375E+06    -107.826E+06    -198.262E+06    -54.1022E+06     3.14766E+06         66.8109
            1691     5.24372E-03     154.684E-03         3.39678         3.22063        -9.38469         3.21588        -9.37994         3.39678    -173.288E-03     578.759E-03    -289.094E-03    -289.665E-03    -289.090E-03     578.755E-03    -289.665E-03     3.44625E-03    -33.5487E+06    -98.1336E+06    -171.261E+06    -98.2781E+06    -171.117E+06    -33.5487E+06     3.16736E+06         66.9870
            1692     5.99286E-03     154.702E-03         3.37587         3.14016        -9.28930         3.13812        -9.28726         3.37587    -37.1165E-03     578.665E-03    -288.982E-03    -289.684E-03    -288.965E-03     578.649E-03    -289.684E-03     7.22112E-03    -14.9267E+06    -88.4091E+06    -142.219E+06    -88.6113E+06    -142.017E+06    -14.9267E+06     3.19507E+06         67.2866
            1693     6.74253E-03     154.727E-03         3.35396         3.05964        -9.19196         3.05832        -9.19063         3.35396    -132.305E-03     578.572E-03    -288.889E-03    -289.683E-03    -288.849E-03     578.532E-03    -289.683E-03     11.5423E-03     2.08414E+06    -78.4778E+06    -111.824E+06     -79.039E+06    -111.263E+06     2.08414E+06     3.75093E+06         67.8188
            1694     7.49177E-03     154.760E-03         3.33146         2.96949        -9.08585         2.96882        -9.08517         3.33146    -79.1974E-03     578.511E-03    -288.842E-03    -289.669E-03    -288.761E-03     578.431E-03    -289.669E-03     16.4650E-03     17.5710E+06    -65.4083E+06    -82.5706E+06    -69.6936E+06    -78.2853E+06     17.5710E+06     4.78533E+06         68.7685
            1695     8.24130E-03     154.802E-03         3.30841         2.87381        -8.97612         2.87320        -8.97552         3.30841    -114.180E-03     578.442E-03    -288.804E-03    -289.639E-03    -288.660E-03     578.299E-03    -289.639E-03     22.1145E-03     31.5524E+06    -36.1977E+06    -62.9932E+06    -60.5385E+06    -38.6524E+06     31.5524E+06     6.18882E+06         70.4110
            1696     8.99095E-03     154.854E-03         3.28480         2.76924        -8.85970         2.76885        -8.85930         3.28480    -89.7772E-03     578.360E-03    -288.764E-03    -289.596E-03    -288.527E-03     578.123E-03    -289.596E-03     28.4677E-03     44.3715E+06     8.85249E+06    -52.8580E+06    -51.7760E+06     7.77053E+06     44.3715E+06     7.84950E+06         73.0895
            1697     9.74105E-03     154.916E-03         3.26057         2.65911        -8.73837         2.65872        -8.73798         3.26057    -99.9525E-03     578.397E-03    -288.848E-03    -289.549E-03    -288.482E-03     578.031E-03    -289.549E-03     35.4444E-03     62.1110E+06     45.1885E+06    -44.8419E+06    -44.0665E+06     52.4215E+06     54.1025E+06     8.49084E+06         77.1148
            1698     10.4911E-03     154.989E-03         3.23595         2.54302        -8.61045         2.54274        -8.61016         3.23595    -84.1148E-03     578.479E-03    -288.936E-03    -289.543E-03    -288.379E-03     577.922E-03    -289.543E-03     43.7043E-03     80.2499E+06     64.7376E+06    -37.1915E+06    -36.6995E+06     79.7579E+06     64.7376E+06     7.48686E+06         82.5688
            1699     11.2414E-03     155.076E-03         3.21089         2.42060        -8.47635         2.42032        -8.47606         3.21089    -80.6930E-03     578.588E-03    -288.968E-03    -289.620E-03    -288.196E-03     577.817E-03    -289.620E-03     51.6183E-03     95.2206E+06     85.2268E+06    -29.2306E+06    -28.9710E+06     92.4711E+06     87.7167E+06     5.44462E+06         89.0624
            1700     11.9930E-03     155.173E-03         3.18606         2.28872        -8.33584         2.28853        -8.33565         3.18606    -65.6909E-03     579.627E-03    -289.433E-03    -290.195E-03    -288.643E-03     578.411E-03    -289.769E-03     64.3129E-03     126.254E+06     112.686E+06    -21.1660E+06    -21.0385E+06     112.558E+06     126.254E+06     4.04567E+06         95.6097
            1701     12.7424E-03     155.301E-03         3.16065         2.14778        -8.18884         2.14759        -8.18864         3.16065    -53.1851E-03     580.156E-03    -289.649E-03    -290.506E-03    -288.770E-03     578.709E-03    -289.940E-03     70.8365E-03     174.658E+06     147.662E+06    -11.4736E+06    -11.4091E+06     147.598E+06     174.658E+06     2.86268E+06         100.829
            1702     748.313E-06     156.444E-03         4.83092         4.23343        -11.8970         3.92196        -11.1379         4.38325        -2.45734     579.394E-03    -289.455E-03    -289.939E-03    -289.887E-03     579.393E-03    -289.506E-03    -1.58787E-03    -138.946E+06    -143.952E+06    -301.654E+06    -142.452E+06    -301.635E+06    -140.465E+06     1.25342E+06         66.5406
            1703     1.49769E-03     156.444E-03         4.26898         4.11871        -11.2161         4.08510        -11.0527         4.13914     767.419E-03     579.326E-03    -289.590E-03    -289.736E-03    -289.605E-03     579.325E-03    -289.720E-03    -2.21723E-03    -130.780E+06    -139.437E+06    -288.879E+06    -139.452E+06    -288.864E+06    -130.780E+06     1.44713E+06         66.5608
            1704     2.24685E-03     156.444E-03         4.17455         4.08518        -11.0961         4.08681        -11.0434         4.12014    -432.149E-03     579.329E-03    -289.582E-03    -289.748E-03    -289.580E-03     579.327E-03    -289.748E-03    -2.66333E-03    -115.706E+06    -133.954E+06    -271.344E+06    -133.984E+06    -271.315E+06    -115.706E+06     1.96155E+06         66.5944
            1705     2.99552E-03     156.445E-03         4.10438         4.03826        -10.9749         4.01881        -10.9554         4.10438     175.230E-03     579.322E-03    -289.528E-03    -289.794E-03    -289.526E-03     579.320E-03    -289.794E-03    -2.35401E-03    -96.8620E+06    -126.950E+06    -249.560E+06    -126.986E+06    -249.524E+06    -96.8620E+06     2.10136E+06         66.6437
            1706     3.74418E-03     156.448E-03         4.08294         3.97037        -10.8888         3.96238        -10.8808         4.08294    -189.795E-03     579.157E-03    -289.328E-03    -289.830E-03    -289.327E-03     579.157E-03    -289.830E-03    -1.26665E-03    -76.3814E+06    -118.903E+06    -225.283E+06    -118.947E+06    -225.239E+06    -76.3814E+06     2.08429E+06         66.7143
            1707     4.49323E-03     156.456E-03         4.05779         3.87388        -10.7723         3.87066        -10.7691         4.05779     13.8472E-03     578.940E-03    -289.099E-03    -289.841E-03    -289.099E-03     578.939E-03    -289.841E-03     532.608E-06    -55.1674E+06    -109.593E+06    -198.916E+06    -109.646E+06    -198.863E+06    -55.1674E+06     2.10258E+06         66.8192
            1708     5.24282E-03     156.467E-03         4.02815         3.77667        -10.6536         3.77502        -10.6520         4.02815    -123.978E-03     578.835E-03    -288.996E-03    -289.839E-03    -288.993E-03     578.831E-03    -289.839E-03     3.29211E-03    -34.4339E+06    -99.7894E+06    -172.069E+06    -99.8607E+06    -171.998E+06    -34.4339E+06     2.19213E+06         66.9866
            1709     5.99227E-03     156.485E-03         3.99513         3.66200        -10.5135         3.66127        -10.5128         3.99513    -49.1443E-03     578.803E-03    -288.969E-03    -289.834E-03    -288.955E-03     578.788E-03    -289.834E-03     6.85731E-03    -15.0283E+06    -90.1944E+06    -143.239E+06    -90.3246E+06    -143.109E+06    -15.0283E+06     2.53207E+06         67.2741
            1710     6.74138E-03     156.510E-03         3.95923         3.54431        -10.3658         3.54378        -10.3653         3.95923    -102.714E-03     578.689E-03    -288.870E-03    -289.819E-03    -288.833E-03     578.653E-03    -289.819E-03     11.0618E-03     2.21645E+06    -80.6018E+06    -113.250E+06    -80.8497E+06    -113.002E+06     2.21645E+06     2.63596E+06         67.7896
            1711     7.49095E-03     156.543E-03         3.92114         3.41470        -10.2038         3.41439        -10.2035         3.92114    -74.5943E-03     578.494E-03    -288.709E-03    -289.785E-03    -288.631E-03     578.416E-03    -289.785E-03     16.1900E-03     17.3470E+06    -68.5208E+06    -83.7059E+06    -71.1892E+06    -81.0375E+06     17.3470E+06     3.06625E+06         68.7185
            1712     8.24057E-03     156.585E-03         3.88099         3.27569        -10.0342         3.27539        -10.0339         3.88099    -92.2045E-03     578.257E-03    -288.531E-03    -289.726E-03    -288.389E-03     578.115E-03    -289.726E-03     22.0198E-03     30.6658E+06    -41.8936E+06    -63.4900E+06    -61.7944E+06    -43.5891E+06     30.6658E+06     4.34728E+06         70.3412
            1713     8.99068E-03     156.637E-03         3.83886         3.12540        -9.85425         3.12518        -9.85403         3.83886    -78.9667E-03     578.056E-03    -288.408E-03    -289.648E-03    -288.172E-03     577.821E-03    -289.648E-03     28.3640E-03     42.7689E+06     2.14853E+06    -53.7575E+06    -52.9083E+06     1.29935E+06     42.7689E+06     6.73287E+06         73.0138
            1714     9.74080E-03     156.699E-03         3.79480         2.96795        -9.66588         2.96773        -9.66566         3.79480    -81.2908E-03     577.982E-03    -288.415E-03    -289.567E-03    -288.052E-03     577.619E-03    -289.567E-03     35.2806E-03     62.4268E+06     42.7888E+06    -45.3991E+06    -44.5957E+06     50.6618E+06     53.7505E+06     8.61592E+06         77.0681
            1715     10.4911E-03     156.773E-03         3.74905         2.80244        -9.46758         2.80226        -9.46740         3.74905    -71.6542E-03     578.129E-03    -288.601E-03    -289.528E-03    -288.057E-03     577.586E-03    -289.528E-03     43.1594E-03     83.9754E+06     64.8174E+06    -37.8782E+06    -37.3808E+06     83.4781E+06     64.8174E+06     7.59945E+06         82.6078
            1716     11.2419E-03     156.858E-03         3.70163         2.62929        -9.26044         2.62912        -9.26027         3.70163    -66.6589E-03     578.462E-03    -288.873E-03    -289.588E-03    -288.123E-03     577.711E-03    -289.588E-03     50.8861E-03     96.5604E+06     85.3598E+06    -30.7572E+06    -30.4836E+06     95.7988E+06     85.8478E+06     5.81938E+06         89.2505
            1717     11.9916E-03     156.957E-03         3.65325         2.44668        -9.04504         2.44655        -9.04491         3.65325    -56.1268E-03     579.054E-03    -289.147E-03    -289.907E-03    -288.113E-03     577.838E-03    -289.725E-03     64.1747E-03     124.809E+06     114.878E+06    -22.3702E+06    -22.1951E+06     114.934E+06     124.578E+06     4.72003E+06         95.9865
            1718     12.7429E-03     157.086E-03         3.60311         2.25463        -8.82160         2.25450        -8.82147         3.60311    -46.8554E-03     578.943E-03    -288.896E-03    -290.047E-03    -287.629E-03     577.495E-03    -289.865E-03     70.7681E-03     176.364E+06     152.761E+06    -11.8649E+06    -11.8025E+06     152.698E+06     176.364E+06     2.61575E+06         101.373
            1719     748.951E-06     158.229E-03         4.99333         4.58090        -12.4599         4.44386        -12.3229         4.99333    -391.216E-03     579.936E-03    -289.788E-03    -290.148E-03    -289.973E-03     579.935E-03    -289.962E-03    -1.18190E-03    -142.273E+06    -147.315E+06    -305.118E+06    -145.801E+06    -305.113E+06    -143.792E+06     632.266E+03         66.5605
            1720     1.49721E-03     158.228E-03         4.72104         4.64449        -12.2522         4.63596        -12.2246         4.70200     106.586E-03     579.826E-03    -289.813E-03    -290.013E-03    -289.843E-03     579.824E-03    -289.981E-03    -2.01118E-03    -133.971E+06    -142.340E+06    -290.255E+06    -142.348E+06    -290.248E+06    -133.971E+06     1.01043E+06         66.5796
            1721     2.24572E-03     158.229E-03         4.69658         4.61934        -12.2090         4.62959        -12.2002         4.67755    -90.0448E-03     579.633E-03    -289.653E-03    -289.980E-03    -289.651E-03     579.631E-03    -289.980E-03    -2.35380E-03    -118.338E+06    -136.970E+06    -273.143E+06    -136.984E+06    -273.130E+06    -118.338E+06     1.11061E+06         66.6114
            1722     2.99474E-03     158.229E-03         4.65583         4.54613        -12.0912         4.54288        -12.0879         4.65583    -2.14220E-03     579.524E-03    -289.545E-03    -289.980E-03    -289.543E-03     579.523E-03    -289.980E-03    -1.93992E-03    -98.8562E+06    -129.293E+06    -250.276E+06    -129.314E+06    -250.255E+06    -98.8562E+06     1.44845E+06         66.6583
            1723     3.74386E-03     158.233E-03         4.62688         4.46950        -11.9890         4.46816        -11.9877         4.62688    -63.9622E-03     579.478E-03    -289.483E-03    -289.995E-03    -289.483E-03     579.478E-03    -289.995E-03    -846.582E-06    -77.7362E+06    -120.764E+06    -225.423E+06    -120.785E+06    -225.402E+06    -77.7362E+06     1.45949E+06         66.7255
            1724     4.49284E-03     158.239E-03         4.59303         4.35450        -11.8461         4.35393        -11.8455         4.59303    -40.7808E-03     579.349E-03    -289.336E-03    -290.013E-03    -289.336E-03     579.349E-03    -290.013E-03     837.831E-06    -56.3576E+06    -111.759E+06    -199.515E+06    -111.787E+06    -199.487E+06    -56.3576E+06     1.52430E+06         66.8255
            1725     5.24183E-03     158.251E-03         4.55354         4.23560        -11.6962         4.23529        -11.6959         4.55354    -64.0570E-03     579.156E-03    -289.140E-03    -290.017E-03    -289.136E-03     579.153E-03    -290.017E-03     3.34364E-03    -35.3964E+06    -102.403E+06    -172.280E+06    -102.441E+06    -172.241E+06    -35.3964E+06     1.56642E+06         66.9853
            1726     5.99088E-03     158.269E-03         4.50963         4.09636        -11.5204         4.09619        -11.5202         4.50963    -60.8402E-03     578.928E-03    -288.930E-03    -289.998E-03    -288.915E-03     578.914E-03    -289.998E-03     6.85789E-03    -15.7494E+06    -92.3193E+06    -143.575E+06    -92.3808E+06    -143.513E+06    -15.7494E+06     1.48560E+06         67.2612
            1727     6.74030E-03     158.294E-03         4.46165         3.94986        -11.3321         3.94972        -11.3320         4.46165    -66.4725E-03     578.683E-03    -288.726E-03    -289.957E-03    -288.688E-03     578.646E-03    -289.957E-03     11.1993E-03     1.79061E+06    -82.3142E+06    -114.082E+06    -82.4283E+06    -113.968E+06     1.79061E+06     1.64857E+06         67.7606
            1728     7.48991E-03     158.326E-03         4.41010         3.78685        -11.1241         3.78673        -11.1240         4.41010    -67.7367E-03     578.401E-03    -288.507E-03    -289.894E-03    -288.429E-03     578.322E-03    -289.894E-03     16.2352E-03     16.8106E+06    -71.2157E+06    -84.7936E+06    -72.9943E+06    -83.0150E+06     16.8106E+06     2.13990E+06         68.6693
            1729     8.24001E-03     158.368E-03         4.35502         3.61114        -10.9028         3.61103        -10.9027         4.35502    -66.5316E-03     578.113E-03    -288.305E-03    -289.807E-03    -288.165E-03     577.972E-03    -289.807E-03     21.8967E-03     29.6112E+06    -46.4916E+06    -65.1900E+06    -63.9719E+06    -47.7097E+06     29.6112E+06     3.20835E+06         70.2728
            1730     8.99005E-03     158.419E-03         4.29649         3.42066        -10.6659         3.42055        -10.6658         4.29649    -66.8926E-03     577.834E-03    -288.131E-03    -289.703E-03    -287.897E-03     577.601E-03    -289.703E-03     28.2064E-03     40.6826E+06    -6.03998E+06    -56.0074E+06    -55.4261E+06    -6.62122E+06     40.6826E+06     5.32555E+06         72.9397
            1731     9.74049E-03     158.482E-03         4.23458         3.22002        -10.4165         3.21992        -10.4164         4.23458    -60.6114E-03     577.568E-03    -287.986E-03    -289.582E-03    -287.621E-03     577.203E-03    -289.582E-03     35.3513E-03     62.1577E+06     36.2174E+06    -47.7603E+06    -47.1499E+06     46.6328E+06     51.1319E+06     7.37990E+06         77.0239
            1732     10.4912E-03     158.555E-03         4.16959         3.01014        -10.1545         3.01004        -10.1544         4.16959    -58.5344E-03     577.752E-03    -288.248E-03    -289.504E-03    -287.688E-03     577.192E-03    -289.504E-03     43.7667E-03     87.0957E+06     62.4878E+06    -39.6319E+06    -39.1625E+06     86.6262E+06     62.4878E+06     7.59496E+06         82.6532
            1733     11.2413E-03     158.642E-03         4.10166         2.79255        -9.88230         2.79245        -9.88220         4.10166    -51.4579E-03     578.083E-03    -288.544E-03    -289.539E-03    -287.758E-03     577.297E-03    -289.539E-03     52.0318E-03     99.5173E+06     83.6527E+06    -31.5346E+06    -31.2301E+06     99.2128E+06     83.6527E+06     6.14157E+06         89.4541
            1734     11.9927E-03     158.739E-03         4.03136         2.56648        -9.60082         2.56640        -9.60074         4.03136    -45.6261E-03     578.215E-03    -288.569E-03    -289.646E-03    -287.306E-03     576.952E-03    -289.646E-03     65.4007E-03     125.904E+06     117.044E+06    -22.0999E+06    -21.9673E+06     119.194E+06     123.621E+06     3.87990E+06         96.3916
            1735     12.7451E-03     158.865E-03         3.95836         2.33281        -9.31115         2.33272        -9.31107         3.95836    -38.6736E-03     578.290E-03    -288.531E-03    -289.759E-03    -287.041E-03     576.801E-03    -289.759E-03     71.7182E-03     177.946E+06     157.777E+06    -11.2736E+06    -11.2466E+06     157.750E+06     177.946E+06     1.73099E+06         101.953
            1736     748.320E-06     160.014E-03         5.49840         5.15158        -13.5675         4.87080        -13.2025         5.41418         1.71532     580.099E-03    -289.797E-03    -290.302E-03    -289.828E-03     580.099E-03    -290.271E-03    -1.08341E-03    -144.568E+06    -150.250E+06    -307.070E+06    -148.622E+06    -307.067E+06    -146.201E+06      555.23E+03         66.5649
            1737     1.49701E-03     160.014E-03         5.16700         5.08764        -13.1724         5.05459        -13.0971         5.12472    -571.801E-03     579.907E-03    -289.824E-03    -290.082E-03    -289.855E-03     579.906E-03    -290.051E-03    -1.63540E-03    -135.922E+06    -144.871E+06    -291.325E+06    -144.880E+06    -291.316E+06    -135.922E+06     1.04285E+06         66.5838
            1738     2.24590E-03     160.013E-03         5.12048         5.03692        -13.0824         5.03618        -13.0582         5.09705     260.779E-03     579.829E-03    -289.780E-03    -290.049E-03    -289.783E-03     579.829E-03    -290.045E-03    -1.74900E-03    -120.241E+06    -139.434E+06    -272.398E+06    -139.441E+06    -272.391E+06    -120.241E+06     567.603E+03         66.6153
            1739     2.99476E-03     160.014E-03         5.07067         4.94770        -12.9384         4.93857        -12.9292         5.07067    -182.074E-03     579.754E-03    -289.685E-03    -290.069E-03    -289.688E-03     579.753E-03    -290.065E-03    -1.56988E-03    -101.111E+06    -132.230E+06    -251.186E+06    -132.236E+06    -251.180E+06    -101.111E+06     461.247E+03         66.6613
            1740     3.74339E-03     160.018E-03         5.03606         4.85152        -12.8116         4.84795        -12.8081         5.03606     67.7960E-03     579.617E-03    -289.530E-03    -290.087E-03    -289.529E-03     579.616E-03    -290.087E-03    -638.046E-06    -79.4684E+06    -123.547E+06    -226.172E+06    -123.559E+06    -226.160E+06    -79.4684E+06     1.02639E+06         66.7269
            1741     4.49214E-03     160.024E-03         4.99541         4.71875        -12.6450         4.71723        -12.6435         4.99541    -93.0714E-03     579.571E-03    -289.464E-03    -290.107E-03    -289.463E-03     579.570E-03    -290.107E-03     1.34542E-03    -57.2039E+06    -114.178E+06    -199.156E+06    -114.198E+06    -199.136E+06    -57.2039E+06     815.714E+03         66.8237
            1742     5.24084E-03     160.036E-03         4.94808         4.58029        -12.4682         4.57968        -12.4676         4.94808     3.38434E-03     579.420E-03    -289.302E-03    -290.117E-03    -289.297E-03     579.414E-03    -290.117E-03     4.07507E-03    -36.0407E+06    -103.937E+06    -171.936E+06    -103.954E+06    -171.919E+06    -36.0407E+06     469.791E+03         66.9780
            1743     5.99019E-03     160.053E-03         4.89527         4.42115        -12.2625         4.42085        -12.2622         4.89527    -66.0529E-03     579.021E-03    -288.926E-03    -290.096E-03    -288.909E-03     579.004E-03    -290.096E-03     7.48507E-03    -16.6020E+06    -93.7097E+06    -143.574E+06    -93.7155E+06    -143.568E+06    -16.6020E+06     464.149E+03         67.2446
            1744     6.73991E-03     160.078E-03         4.83731         4.25105        -12.0405         4.25095        -12.0404         4.83731    -23.5558E-03     578.680E-03    -288.641E-03    -290.039E-03    -288.600E-03     578.640E-03    -290.039E-03     11.6104E-03     891.388E+03    -83.8822E+06    -114.807E+06    -83.9266E+06    -114.763E+06     891.388E+03     815.232E+03         67.7299
            1745     7.48959E-03     160.110E-03         4.77448         4.06063        -11.7951         4.06055        -11.7950         4.77448    -55.8948E-03     578.407E-03    -288.445E-03    -289.962E-03    -288.366E-03     578.328E-03    -289.962E-03     16.3982E-03     16.2526E+06    -73.0492E+06    -85.8245E+06    -74.3653E+06    -84.5084E+06     16.2526E+06     1.46000E+06         68.6202
            1746     8.23935E-03     160.151E-03         4.70675         3.85564        -11.5318         3.85561        -11.5317         4.70675    -35.2637E-03     577.999E-03    -288.137E-03    -289.862E-03    -287.993E-03     577.855E-03    -289.862E-03     22.0839E-03     29.2220E+06    -50.0250E+06    -65.8662E+06    -65.0525E+06    -50.8386E+06     29.2220E+06     2.25651E+06         70.2057
            1747     8.98966E-03     160.202E-03         4.63423         3.63420        -11.2492         3.63415        -11.2491         4.63423    -51.3781E-03     577.549E-03    -287.814E-03    -289.735E-03    -287.576E-03     577.311E-03    -289.735E-03     28.4817E-03     40.0145E+06    -12.3466E+06    -56.1899E+06    -55.8568E+06    -12.6797E+06     40.0145E+06     3.62379E+06         72.8681
            1748     9.74048E-03     160.262E-03         4.55708         3.40086        -10.9513         3.40082        -10.9512         4.55708    -37.7773E-03     577.139E-03    -287.557E-03    -289.581E-03    -287.184E-03     576.766E-03    -289.581E-03     35.6875E-03     60.5493E+06     32.5519E+06    -47.3301E+06    -46.9716E+06     41.8303E+06     50.9125E+06     5.39276E+06         76.9842
            1749     10.4917E-03     160.336E-03         4.47569         3.15741        -10.6389         3.15736        -10.6389         4.47569    -44.0469E-03     576.970E-03    -287.516E-03    -289.454E-03    -286.937E-03     576.391E-03    -289.454E-03     44.4591E-03     86.7446E+06     62.4972E+06    -38.8512E+06    -38.5236E+06     86.4169E+06     62.4972E+06     6.33992E+06         82.7088
            1750     11.2435E-03     160.424E-03         4.39027         2.90626        -10.3151         2.90621        -10.3151         4.39027    -35.2783E-03     577.094E-03    -287.667E-03    -289.426E-03    -286.860E-03     576.286E-03    -289.426E-03     52.7091E-03     103.578E+06     82.7873E+06    -30.6971E+06    -30.4651E+06     103.346E+06     82.7873E+06     5.38355E+06         89.6791
            1751     11.9950E-03     160.519E-03         4.30133         2.64689        -9.98124         2.64683        -9.98119         4.30133    -34.8628E-03     577.842E-03    -288.339E-03    -289.503E-03    -287.076E-03     576.579E-03    -289.503E-03     65.4475E-03     128.652E+06     118.556E+06    -22.1654E+06    -22.0837E+06     124.654E+06     122.472E+06     3.11365E+06         96.8262
            1752     12.7467E-03     160.645E-03         4.20894         2.38133        -9.63948         2.38128        -9.63943         4.20894    -29.6049E-03     578.483E-03    -288.842E-03    -289.641E-03    -287.354E-03     576.996E-03    -289.641E-03     71.7016E-03     178.292E+06     161.490E+06    -12.0249E+06    -12.0129E+06     161.478E+06     178.292E+06     1.15936E+06         102.565
            1753     748.539E-06     161.799E-03         6.33277         5.64060        -14.8985         5.15048        -13.7162         5.64060         3.64750     579.607E-03    -289.578E-03    -290.029E-03    -289.635E-03     579.607E-03    -289.972E-03    -373.821E-06    -147.616E+06    -152.819E+06    -306.856E+06    -151.195E+06    -306.847E+06    -149.248E+06    -524.111E+03         66.5443
            1754     1.49750E-03     161.798E-03         5.56759         5.37921        -13.8682         5.31457        -13.6152         5.37921        -1.18935     579.657E-03    -289.687E-03    -289.970E-03    -289.809E-03     579.656E-03    -289.847E-03    -1.01580E-03    -138.421E+06    -147.348E+06    -292.428E+06    -147.366E+06    -292.410E+06    -138.421E+06    -201.314E+03         66.5644
            1755     2.24614E-03     161.798E-03         5.41339         5.30865        -13.6503         5.28774        -13.5683         5.35231     580.880E-03     579.823E-03    -289.832E-03    -289.990E-03    -289.901E-03     579.822E-03    -289.921E-03    -1.17006E-03    -122.169E+06    -141.320E+06    -272.200E+06    -141.340E+06    -272.180E+06    -122.169E+06     548.183E+03         66.5972
            1756     2.99426E-03     161.800E-03         5.32455         5.21832        -13.4676         5.18749        -13.4368         5.32455    -345.462E-03     579.808E-03    -289.795E-03    -290.014E-03    -289.798E-03     579.808E-03    -290.010E-03    -809.906E-06    -101.816E+06    -134.598E+06    -250.642E+06    -134.610E+06    -250.630E+06    -101.816E+06     557.766E+03         66.6446
            1757     3.74321E-03     161.802E-03         5.28771         5.09940        -13.3165         5.08716        -13.3043         5.28771     186.703E-03     579.607E-03    -289.548E-03    -290.059E-03    -289.548E-03     579.607E-03    -290.059E-03     317.652E-06    -80.1368E+06    -126.085E+06    -225.617E+06    -126.100E+06    -225.602E+06    -80.1368E+06    -152.774E+03         66.7108
            1758     4.49236E-03     161.809E-03         5.24358         4.95170        -13.1314         4.94655        -13.1263         5.24358    -142.158E-03     579.418E-03    -289.344E-03    -290.074E-03    -289.342E-03     579.416E-03    -290.074E-03     2.32150E-03    -57.9198E+06    -115.708E+06    -198.112E+06    -115.726E+06    -198.094E+06    -57.9198E+06    -509.140E+03         66.8072
            1759     5.24157E-03     161.821E-03         5.19156         4.79693        -12.9328         4.79481        -12.9306         5.19156     64.2305E-03     579.327E-03    -289.250E-03    -290.076E-03    -289.242E-03     579.319E-03    -290.076E-03     4.97947E-03    -36.8629E+06    -105.486E+06    -171.389E+06    -105.498E+06    -171.378E+06    -36.8629E+06    -604.104E+03         66.9590
            1760     5.99043E-03     161.837E-03         5.13265         4.61984        -12.7034         4.61892        -12.7025         5.13265    -71.6310E-03     579.157E-03    -289.092E-03    -290.066E-03    -289.071E-03     579.137E-03    -290.066E-03     8.23581E-03    -17.4443E+06    -95.3125E+06    -143.508E+06    -95.3365E+06    -143.484E+06    -17.4443E+06    -563.568E+03         67.2199
            1761     6.73957E-03     161.861E-03         5.06717         4.42979        -12.4542         4.42943        -12.4538         5.06717     15.8149E-03     578.732E-03    -288.705E-03    -290.027E-03    -288.660E-03     578.687E-03    -290.027E-03     12.3454E-03     494.264E+03    -84.7500E+06    -115.099E+06    -84.7767E+06    -115.072E+06     494.264E+03    -343.923E+03         67.6948
            1762     7.48925E-03     161.893E-03         4.99554         4.21984        -12.1798         4.21968        -12.1796         4.99554    -45.5008E-03     578.269E-03    -288.321E-03    -289.948E-03    -288.233E-03     578.181E-03    -289.948E-03     17.2689E-03     16.0866E+06    -73.9877E+06    -86.0828E+06    -74.5299E+06    -85.5405E+06     16.0866E+06    -126.450E+03         68.5705
            1763     8.23939E-03     161.933E-03         4.91786         3.99420        -11.8863         3.99415        -11.8863         4.91786    -5.53986E-03     577.868E-03    -288.030E-03    -289.838E-03    -287.877E-03     577.715E-03    -289.838E-03     22.8473E-03     29.1704E+06    -52.4527E+06    -65.5014E+06    -64.8115E+06    -53.1426E+06     29.1704E+06     399.689E+03         70.1419
            1764     8.99010E-03     161.983E-03         4.83438         3.75296        -11.5727         3.75293        -11.5727         4.83438    -35.5455E-03     577.435E-03    -287.729E-03    -289.706E-03    -287.484E-03     577.190E-03    -289.706E-03     28.9582E-03     40.1887E+06    -16.1414E+06    -55.7263E+06    -55.6446E+06    -16.2231E+06     40.1887E+06     1.34282E+06         72.8036
            1765     9.74097E-03     162.043E-03         4.74544         3.50066        -11.2427         3.50066        -11.2427         4.74544    -14.5450E-03     576.956E-03    -287.408E-03    -289.548E-03    -287.034E-03     576.582E-03    -289.548E-03     35.7792E-03     56.9507E+06     30.4400E+06    -46.9462E+06    -46.8218E+06     36.2557E+06     51.0105E+06     2.99005E+06         76.9552
            1766     10.4924E-03     162.116E-03         4.65142         3.23759        -10.8972         3.23756        -10.8972         4.65142    -28.7751E-03     576.555E-03    -287.154E-03    -289.401E-03    -286.592E-03     575.993E-03    -289.401E-03     43.8076E-03     84.1851E+06     62.0401E+06    -38.8583E+06    -38.6631E+06     83.9899E+06     62.0401E+06     4.74468E+06         82.7789
            1767     11.2445E-03     162.202E-03         4.55261         2.96555        -10.5388         2.96553        -10.5387         4.55261    -18.1644E-03     576.600E-03    -287.253E-03    -289.347E-03    -286.487E-03     575.834E-03    -289.347E-03     51.3140E-03     107.274E+06     81.8660E+06    -31.1275E+06    -30.9684E+06     107.115E+06     81.8660E+06     4.47783E+06         89.9235
            1768     11.9966E-03     162.300E-03         4.44938         2.68514        -10.1689         2.68511        -10.1688         4.44938    -23.5181E-03     577.557E-03    -288.143E-03    -289.414E-03    -286.925E-03     576.339E-03    -289.414E-03     64.1754E-03     130.567E+06     119.962E+06    -22.5721E+06    -22.5085E+06     129.370E+06     121.096E+06     2.76603E+06         97.2918
            1769     12.7474E-03     162.428E-03         4.34192         2.39883        -9.79028         2.39880        -9.79025         4.34192    -20.4505E-03     578.280E-03    -288.717E-03    -289.563E-03    -287.247E-03     576.810E-03    -289.563E-03     71.2922E-03     178.609E+06     164.610E+06    -11.9235E+06    -11.9115E+06     164.867E+06     178.341E+06     1.10133E+06         103.224
            1770     749.519E-06     163.582E-03         7.40936         5.68405        -15.9935         5.26385        -13.8480         5.68405         5.18168     578.766E-03    -289.209E-03    -289.557E-03    -289.515E-03     578.766E-03    -289.250E-03    -425.101E-06    -150.749E+06    -154.297E+06    -304.966E+06    -154.078E+06    -304.958E+06    -150.977E+06    -457.193E+03         66.4877
            1771     1.49804E-03     163.582E-03         5.88154         5.45979        -14.2420         5.40300        -13.7634         5.45979        -1.67324     579.071E-03    -289.441E-03    -289.630E-03    -289.597E-03     579.071E-03    -289.474E-03    -543.830E-06    -140.183E+06    -150.017E+06    -291.590E+06    -150.029E+06    -291.578E+06    -140.183E+06    -687.712E+03         66.5100
            1772     2.24651E-03     163.583E-03         5.54615         5.41460        -13.8640         5.36882        -13.7067         5.43462     840.811E-03     579.114E-03    -289.459E-03    -289.655E-03    -289.524E-03     579.114E-03    -289.590E-03    -135.795E-06    -123.297E+06    -144.126E+06    -273.468E+06    -144.158E+06    -273.436E+06    -123.297E+06    -527.471E+03         66.5462
            1773     2.99582E-03     163.584E-03         5.40659         5.32930        -13.6391         5.27013        -13.5799         5.40659    -468.504E-03     579.186E-03    -289.507E-03    -289.679E-03    -289.512E-03     579.186E-03    -289.674E-03     672.497E-06    -102.571E+06    -135.673E+06    -249.670E+06    -135.702E+06    -249.641E+06    -102.571E+06    -365.849E+03         66.5978
            1774     3.74434E-03     163.587E-03         5.36911         5.18893        -13.4658         5.16509        -13.4420         5.36911     287.143E-03     579.348E-03    -289.552E-03    -289.796E-03    -289.585E-03     579.347E-03    -289.762E-03     1.92867E-03    -80.0912E+06    -126.181E+06    -223.169E+06    -126.196E+06    -223.155E+06    -80.0912E+06    -877.495E+03         66.6686
            1775     4.49303E-03     163.593E-03         5.32355         5.03184        -13.2690         5.02186        -13.2590         5.32355    -174.910E-03     579.270E-03    -289.402E-03    -289.869E-03    -289.426E-03     579.266E-03    -289.840E-03     3.66616E-03    -57.9569E+06    -116.789E+06    -197.345E+06    -116.811E+06    -197.323E+06    -57.9569E+06    -1.11087E+06         66.7687
            1776     5.24212E-03     163.605E-03         5.26933         4.86722        -13.0574         4.86293        -13.0531         5.26933     118.383E-03     579.070E-03    -289.190E-03    -289.879E-03    -289.178E-03     579.058E-03    -289.879E-03     6.16736E-03    -36.5643E+06    -106.704E+06    -169.793E+06    -106.737E+06    -169.760E+06    -36.5643E+06    -1.25102E+06         66.9225
            1777     5.99138E-03     163.622E-03         5.20715         4.68013        -12.8153         4.67831        -12.8135         5.20715    -72.1478E-03     578.907E-03    -289.021E-03    -289.886E-03    -288.994E-03     578.880E-03    -289.886E-03     9.49157E-03    -16.9311E+06    -96.1408E+06    -142.169E+06    -96.2385E+06    -142.071E+06    -16.9311E+06    -1.89997E+06         67.1824
            1778     6.74069E-03     163.645E-03         5.13731         4.47921        -12.5511         4.47843        -12.5504         5.13731     53.3468E-03     578.575E-03    -288.714E-03    -289.861E-03    -288.659E-03     578.520E-03    -289.861E-03     13.6104E-03     594.472E+03    -85.3864E+06    -114.933E+06    -85.6917E+06    -114.628E+06     594.472E+03    -2.36620E+06         67.6520
            1779     7.49067E-03     163.675E-03         5.06035         4.25973        -12.2616         4.25943        -12.2613         5.06035    -32.4154E-03     578.099E-03    -288.303E-03    -289.796E-03    -288.203E-03     577.999E-03    -289.796E-03     18.4462E-03     16.0578E+06    -73.8633E+06    -86.8672E+06    -75.1960E+06    -85.5346E+06     16.0578E+06    -2.44421E+06         68.5186
            1780     8.24089E-03     163.716E-03         4.97655         4.02494        -11.9523         4.02482        -11.9522         4.97655     23.9794E-03     577.740E-03    -288.042E-03    -289.698E-03    -287.875E-03     577.573E-03    -289.698E-03     23.8608E-03     29.1841E+06    -52.8868E+06    -66.6019E+06    -65.1880E+06    -54.3006E+06     29.1841E+06    -2.19753E+06         70.0818
            1781     8.99083E-03     163.764E-03         4.88625         3.77529        -11.6229         3.77526        -11.6229         4.88625    -17.4759E-03     577.445E-03    -287.862E-03    -289.582E-03    -287.599E-03     577.181E-03    -289.582E-03     29.9901E-03     40.1240E+06    -18.8335E+06    -55.8140E+06    -55.6439E+06    -19.0037E+06     40.1240E+06    -1.26926E+06         72.7491
            1782     9.74155E-03     163.824E-03         4.78985         3.51509        -11.2767         3.51508        -11.2767         4.78985     10.5213E-03     577.117E-03    -287.668E-03    -289.449E-03    -287.274E-03     576.722E-03    -289.449E-03     36.7515E-03     52.2151E+06     27.8980E+06    -46.8575E+06    -46.7937E+06     29.7656E+06     50.2838E+06     1.05935E+06         76.9433
            1783     10.4926E-03     163.896E-03         4.68772         3.24407        -10.9140         3.24406        -10.9140         4.68772    -11.0907E-03     576.986E-03    -287.660E-03    -289.326E-03    -287.082E-03     576.408E-03    -289.326E-03     44.4908E-03     80.3303E+06     60.6211E+06    -38.9353E+06    -38.8247E+06     80.2198E+06     60.6211E+06     3.50820E+06         82.8733
            1784     11.2437E-03     163.982E-03         4.58018         2.96347        -10.5378         2.96346        -10.5377         4.58018     331.821E-06     576.981E-03    -287.686E-03    -289.294E-03    -286.902E-03     576.197E-03    -289.294E-03     51.9298E-03     110.395E+06     79.9461E+06    -30.9107E+06    -30.8039E+06     110.288E+06     79.9461E+06     3.66416E+06         90.2012
            1785     11.9951E-03     164.080E-03         4.46737         2.67500        -10.1493         2.67497        -10.1493         4.46737    -11.1215E-03     577.378E-03    -288.007E-03    -289.371E-03    -286.771E-03     576.141E-03    -289.371E-03     64.6663E-03     133.813E+06     118.962E+06    -21.7937E+06    -21.7563E+06     133.776E+06     118.962E+06     1.98319E+06         97.8063
            1786     12.7483E-03     164.207E-03         4.34966         2.38225        -9.75152         2.38222        -9.75150         4.34966    -10.5282E-03     577.677E-03    -288.160E-03    -289.516E-03    -286.683E-03     576.200E-03    -289.516E-03     71.4054E-03     180.445E+06     165.212E+06    -11.4568E+06    -11.4500E+06     167.387E+06     178.265E+06     717.694E+03         103.953
            1787     748.964E-06     165.364E-03         8.14870         5.52257        -16.5197         5.23988        -13.6109         5.52257         6.16062     577.555E-03    -288.595E-03    -288.960E-03    -288.931E-03     577.554E-03    -288.624E-03     329.291E-06    -153.087E+06    -156.496E+06    -304.153E+06    -156.243E+06    -304.144E+06    -153.348E+06     550.125E+03         66.3815
            1788     1.49852E-03     165.365E-03         5.99575         5.36965        -14.2143         5.32323        -13.5418         5.36965        -1.97639     577.638E-03    -288.767E-03    -288.871E-03    -288.801E-03     577.638E-03    -288.837E-03     625.827E-06    -140.933E+06    -152.296E+06    -289.609E+06    -152.299E+06    -289.606E+06    -140.933E+06    -197.934E+03         66.4077
            1789     2.24836E-03     165.365E-03         5.50169         5.34177        -13.6975         5.27311        -13.4730         5.34583         1.01327     577.791E-03    -288.813E-03    -288.978E-03    -288.868E-03     577.790E-03    -288.922E-03     1.16146E-03    -123.310E+06    -145.646E+06    -271.776E+06    -145.666E+06    -271.757E+06    -123.310E+06    -1.10398E+06         66.4502
            1790     2.99745E-03     165.367E-03         5.32173         5.25883        -13.4351         5.17935        -13.3503         5.31637    -537.545E-03     578.031E-03    -288.942E-03    -289.088E-03    -289.002E-03     578.029E-03    -289.027E-03     2.13588E-03    -102.825E+06    -137.098E+06    -248.926E+06    -137.123E+06    -248.901E+06    -102.825E+06    -1.45276E+06         66.5097
            1791     3.74678E-03     165.371E-03         5.27813         5.10607        -13.2427         5.07140        -13.2081         5.27813     364.334E-03     578.351E-03    -289.139E-03    -289.212E-03    -289.191E-03     578.346E-03    -289.155E-03     3.82348E-03    -80.1502E+06    -127.643E+06    -222.041E+06    -127.663E+06    -222.020E+06    -80.1502E+06    -1.23500E+06         66.5897
            1792     4.49551E-03     165.378E-03         5.23174         4.94659        -13.0421         4.93208        -13.0275         5.23174    -182.187E-03     578.655E-03    -289.219E-03    -289.435E-03    -289.348E-03     578.643E-03    -289.296E-03     6.00659E-03    -56.8906E+06    -117.281E+06    -194.925E+06    -117.342E+06    -194.865E+06    -56.8906E+06    -1.85503E+06         66.6992
            1793     5.24431E-03     165.389E-03         5.17689         4.78095        -12.8285         4.77448        -12.8221         5.17689     168.656E-03     578.631E-03    -289.131E-03    -289.499E-03    -289.200E-03     578.608E-03    -289.408E-03     8.62172E-03    -35.4056E+06    -106.634E+06    -167.643E+06    -106.742E+06    -167.535E+06    -35.4056E+06    -2.42013E+06         66.8613
            1794     5.99366E-03     165.406E-03         5.11396         4.59653        -12.5876         4.59382        -12.5849         5.11396    -57.7104E-03     578.422E-03    -288.949E-03    -289.473E-03    -288.912E-03     578.382E-03    -289.470E-03     11.6953E-03    -15.5598E+06    -96.2036E+06    -139.776E+06    -96.3999E+06    -139.580E+06    -15.5598E+06    -2.73098E+06         67.1266
            1795     6.74330E-03     165.428E-03         5.04320         4.39730        -12.3246         4.39603        -12.3234         5.04320     94.2229E-03     578.289E-03    -288.800E-03    -289.489E-03    -288.730E-03     578.219E-03    -289.489E-03     15.3793E-03     1.76107E+06    -85.5387E+06    -112.587E+06    -86.2038E+06    -111.922E+06     1.76107E+06    -3.71656E+06         67.5977
            1796     7.49266E-03     165.458E-03         4.96491         4.17943        -12.0364         4.17898        -12.0359         4.96491    -9.99350E-03     578.009E-03    -288.536E-03    -289.472E-03    -288.420E-03     577.893E-03    -289.472E-03     19.8885E-03     16.4144E+06    -72.8009E+06    -87.3088E+06    -76.1075E+06    -84.0022E+06     16.4144E+06    -4.52809E+06         68.4619
            1797     8.24262E-03     165.497E-03         4.87934         3.94767        -11.7271         3.94744        -11.7268         4.87934     58.1865E-03     577.561E-03    -288.144E-03    -289.417E-03    -287.957E-03     577.374E-03    -289.417E-03     25.2583E-03     28.9784E+06    -51.8606E+06    -68.7854E+06    -66.3373E+06    -54.3086E+06     28.9784E+06    -4.51731E+06         70.0236
            1798     8.99352E-03     165.546E-03         4.78681         3.70080        -11.3965         3.70075        -11.3964         4.78681     6.19535E-03     577.312E-03    -287.982E-03    -289.331E-03    -287.694E-03     577.025E-03    -289.331E-03     31.3669E-03     39.1978E+06    -20.8123E+06    -57.5663E+06    -57.0178E+06    -21.3608E+06     39.1978E+06    -3.86976E+06         72.7045
            1799     9.74412E-03     165.605E-03         4.68762         3.44211        -11.0483         3.44207        -11.0483         4.68762     38.4634E-03     577.233E-03    -288.001E-03    -289.232E-03    -287.576E-03     576.808E-03    -289.232E-03     38.1741E-03     48.4287E+06     22.4678E+06    -48.2878E+06    -48.1177E+06     22.4054E+06     48.3210E+06    -1.57896E+06         76.9529
            1800     10.4948E-03     165.677E-03         4.58206         3.17283        -10.6838         3.17283        -10.6838         4.58206     9.45837E-03     577.266E-03    -288.121E-03    -289.145E-03    -287.492E-03     576.637E-03    -289.145E-03     46.4235E-03     77.6113E+06     56.7554E+06    -39.4270E+06    -39.3665E+06     75.2504E+06     59.0559E+06     1.21019E+06         83.0096
            1801     11.2457E-03     165.763E-03         4.47056         2.89608        -10.3064         2.89607        -10.3064         4.47056     19.9203E-03     577.390E-03    -288.254E-03    -289.136E-03    -287.406E-03     576.542E-03    -289.136E-03     54.0754E-03     112.308E+06     77.2271E+06    -31.1597E+06    -31.1161E+06     112.264E+06     77.2271E+06     1.82808E+06         90.5523
            1802     11.9975E-03     165.859E-03         4.35325         2.61392        -9.91813         2.61389        -9.91809         4.35325     2.00899E-03     577.828E-03    -288.569E-03    -289.258E-03    -287.278E-03     576.523E-03    -289.245E-03     66.5358E-03     136.521E+06     115.136E+06    -22.3345E+06    -22.3098E+06     136.496E+06     115.136E+06     1.02391E+06         98.4273
            1803     12.7483E-03     165.987E-03         4.23073         2.33014        -9.52248         2.33011        -9.52244         4.23073     460.720E-06     577.887E-03    -288.434E-03    -289.453E-03    -286.923E-03     576.362E-03    -289.439E-03     72.5380E-03     182.894E+06     164.308E+06    -12.0080E+06    -12.0055E+06     169.058E+06     178.141E+06     276.978E+03         104.811
            1804     750.635E-06     167.144E-03         8.35249         5.18299        -16.3094         5.05117        -13.0081         5.18299         6.53246     575.096E-03    -287.429E-03    -287.667E-03    -287.561E-03     575.096E-03    -287.534E-03     1.39652E-03    -154.508E+06    -157.180E+06    -303.427E+06    -157.179E+06    -303.395E+06    -154.541E+06    -758.572E+03         66.2099
            1805     1.50083E-03     167.144E-03         5.85434         5.10800        -13.7355         5.07229        -12.9535         5.10800        -2.08225     575.360E-03    -287.597E-03    -287.763E-03    -287.726E-03     575.359E-03    -287.633E-03     2.07337E-03    -142.178E+06    -152.549E+06    -288.064E+06    -152.553E+06    -288.060E+06    -142.178E+06    -673.141E+03         66.2427
            1806     2.25052E-03     167.146E-03         5.27424         5.08601        -13.1383         5.00939        -12.8735         5.08601         1.08333     575.795E-03    -287.786E-03    -288.008E-03    -287.998E-03     575.791E-03    -287.793E-03     3.17021E-03    -123.664E+06    -145.961E+06    -269.168E+06    -145.970E+06    -269.159E+06    -123.664E+06    -928.394E+03         66.2952
            1807     3.00031E-03     167.148E-03         5.07237         5.00704        -12.8597         4.92256        -12.7588         5.05600    -552.610E-03     576.252E-03    -287.971E-03    -288.281E-03    -288.258E-03     576.245E-03    -287.987E-03     4.63489E-03    -101.801E+06    -137.967E+06    -246.807E+06    -137.993E+06    -246.781E+06    -101.801E+06    -1.52809E+06         66.3678
            1808     3.75003E-03     167.152E-03         5.01815         4.85840        -12.6603         4.81656        -12.6185         5.01815     407.010E-03     576.689E-03    -288.166E-03    -288.523E-03    -288.494E-03     576.676E-03    -288.182E-03     6.47016E-03    -78.8714E+06    -128.314E+06    -220.210E+06    -128.367E+06    -220.157E+06    -78.8714E+06    -2.13032E+06         66.4628
            1809     4.49992E-03     167.161E-03         4.97259         4.70444        -12.4650         4.68682        -12.4474         4.97259    -169.724E-03     577.177E-03    -288.375E-03    -288.802E-03    -288.779E-03     577.154E-03    -288.375E-03     8.60923E-03    -56.0909E+06    -117.734E+06    -191.903E+06    -117.826E+06    -191.812E+06    -56.0909E+06    -2.52469E+06         66.5884
            1810     5.24912E-03     167.172E-03         4.91930         4.54680        -12.2598         4.53870        -12.2517         4.91930     207.632E-03     577.604E-03    -288.564E-03    -289.040E-03    -289.001E-03     577.566E-03    -288.564E-03     11.3177E-03    -34.2749E+06    -106.958E+06    -165.086E+06    -107.166E+06    -164.877E+06    -34.2749E+06    -3.26634E+06         66.7663
            1811     5.99813E-03     167.188E-03         4.85841         4.37313        -12.0317         4.36975        -12.0284         4.85841    -32.7164E-03     577.761E-03    -288.644E-03    -289.118E-03    -288.977E-03     577.698E-03    -288.721E-03     14.5632E-03    -14.3404E+06    -95.7109E+06    -137.460E+06    -96.1404E+06    -137.031E+06    -14.3404E+06    -3.96453E+06         67.0455
            1812     6.74728E-03     167.211E-03         4.78988         4.18486        -11.7826         4.18314        -11.7808         4.78988     132.338E-03     577.780E-03    -288.663E-03    -289.117E-03    -288.849E-03     577.680E-03    -288.831E-03     18.3716E-03     3.15782E+06    -84.7531E+06    -109.567E+06    -85.7328E+06    -108.587E+06     3.15782E+06    -4.37083E+06         67.5269
            1813     7.49686E-03     167.241E-03         4.71386         3.97957        -11.5090         3.97898        -11.5085         4.71386     17.8526E-03     577.797E-03    -288.610E-03    -289.187E-03    -288.745E-03     577.646E-03    -288.901E-03     22.6848E-03     17.7579E+06    -71.4521E+06    -85.7497E+06    -76.1307E+06    -81.0711E+06     17.7579E+06    -5.03592E+06         68.3975
            1814     8.24673E-03     167.278E-03         4.63053         3.76101        -11.2143         3.76065        -11.2139         4.63053     93.5795E-03     577.683E-03    -288.436E-03    -289.247E-03    -288.526E-03     577.462E-03    -288.936E-03     27.5251E-03     29.7271E+06    -50.6392E+06    -69.4289E+06    -66.9218E+06    -53.1463E+06     29.7271E+06    -5.49897E+06         69.9665
            1815     8.99663E-03     167.327E-03         4.54005         3.52806        -10.8979         3.52799        -10.8978         4.54005     33.0463E-03     577.479E-03    -288.375E-03    -289.105E-03    -288.228E-03     577.162E-03    -288.934E-03     33.0254E-03     39.1658E+06    -21.1023E+06    -59.1410E+06    -58.2512E+06    -21.9921E+06     39.1658E+06    -5.32227E+06         72.6706
            1816     9.74707E-03     167.386E-03         4.44264         3.28328        -10.5643         3.28319        -10.5643         4.44264     66.5370E-03     577.302E-03    -288.372E-03    -288.929E-03    -287.950E-03     576.851E-03    -288.901E-03     39.3403E-03     46.9359E+06     17.1739E+06    -50.2765E+06    -49.9410E+06     16.8384E+06     46.9359E+06    -4.21568E+06         76.9889
            1817     10.4979E-03     167.457E-03         4.33849         3.02844        -10.2156         3.02842        -10.2155         4.33849     30.8062E-03     577.166E-03    -288.313E-03    -288.854E-03    -287.656E-03     576.510E-03    -288.854E-03     47.4249E-03     76.5344E+06     51.1268E+06    -41.5648E+06    -41.4466E+06     70.4695E+06     57.0735E+06    -2.58444E+06         83.2047
            1818     11.2492E-03     167.544E-03         4.22810         2.76873        -9.85547         2.76868        -9.85542         4.22810     40.5914E-03     577.447E-03    -288.501E-03    -288.946E-03    -287.690E-03     576.559E-03    -288.869E-03     55.3205E-03     112.583E+06     74.7998E+06    -32.4183E+06    -32.3609E+06     112.526E+06     74.7998E+06    -1.68284E+06         91.0217
            1819     11.9994E-03     167.641E-03         4.11170         2.50722        -9.48667         2.50716        -9.48661         4.11170     16.1879E-03     578.386E-03    -288.925E-03    -289.461E-03    -288.021E-03     577.041E-03    -289.020E-03     67.6617E-03     136.614E+06     111.502E+06    -23.2121E+06    -23.1862E+06     136.588E+06     111.502E+06    -1.22986E+06         99.2528
            1820     12.7515E-03     167.768E-03         3.99016         2.24598        -9.11292         2.24593        -9.11287         3.99016     11.6329E-03     579.037E-03    -289.053E-03    -289.983E-03    -288.185E-03     577.484E-03    -289.299E-03     73.3090E-03     183.628E+06     162.414E+06    -12.4317E+06    -12.4158E+06     169.187E+06     176.838E+06    -515.035E+03         105.957
            1821     751.540E-06     168.917E-03         7.96588         4.70265        -15.3391         4.67350        -12.0467         4.70265         6.32229     571.572E-03    -285.691E-03    -285.881E-03    -285.792E-03     571.570E-03    -285.778E-03     2.03012E-03    -154.090E+06    -156.656E+06    -300.621E+06    -156.697E+06    -300.579E+06    -154.090E+06    -811.365E+03         65.9554
            1822     1.50304E-03     168.919E-03         5.44769         4.68144        -12.8055         4.65657        -12.0143         4.68144        -1.99801     571.882E-03    -285.863E-03    -286.019E-03    -286.003E-03     571.878E-03    -285.874E-03     3.68926E-03    -143.048E+06    -152.916E+06    -286.783E+06    -152.925E+06    -286.774E+06    -143.048E+06    -1.02892E+06         65.9978
            1823     2.25448E-03     168.921E-03         4.86377         4.66275        -12.2032         4.59230        -11.9318         4.66275         1.06396     572.499E-03    -286.067E-03    -286.432E-03    -286.421E-03     572.488E-03    -286.067E-03     5.88075E-03    -124.130E+06    -146.569E+06    -266.519E+06    -146.589E+06    -266.500E+06    -124.130E+06    -1.40327E+06         66.0653
            1824     3.00548E-03     168.924E-03         4.66051         4.59505        -11.9381         4.51633        -11.8339         4.63497    -511.213E-03     573.470E-03    -286.348E-03    -287.123E-03    -287.102E-03     573.450E-03    -286.348E-03     8.07362E-03    -101.219E+06    -137.765E+06    -243.479E+06    -137.828E+06    -243.416E+06    -101.219E+06    -2.40409E+06         66.1574
            1825     3.75566E-03     168.930E-03         4.60027         4.46397        -11.7494         4.41985        -11.7052         4.60027     423.108E-03     574.450E-03    -286.680E-03    -287.770E-03    -287.738E-03     574.418E-03    -286.680E-03     10.2194E-03    -77.4718E+06    -127.437E+06    -217.581E+06    -127.537E+06    -217.481E+06    -77.4718E+06    -2.94464E+06         66.2752
            1826     4.50533E-03     168.939E-03         4.55851         4.32386        -11.5703         4.30517        -11.5516         4.55851    -133.845E-03     575.190E-03    -287.007E-03    -288.183E-03    -288.135E-03     575.143E-03    -287.007E-03     12.4401E-03    -54.4216E+06    -117.090E+06    -189.305E+06    -117.259E+06    -189.136E+06    -54.4216E+06    -3.24523E+06         66.4256
            1827     5.25532E-03     168.952E-03         4.50970         4.18066        -11.3823         4.17170        -11.3733         4.50970     238.486E-03     575.859E-03    -287.306E-03    -288.553E-03    -288.484E-03     575.791E-03    -287.306E-03     15.0759E-03    -32.3722E+06    -105.799E+06    -161.489E+06    -106.125E+06    -161.162E+06    -32.3722E+06    -4.02649E+06         66.6287
            1828     6.00487E-03     168.970E-03         4.45361         4.02169        -11.1746         4.01797        -11.1709         4.45361     3.66669E-03     576.498E-03    -287.575E-03    -288.923E-03    -288.824E-03     576.399E-03    -287.575E-03     18.2847E-03    -12.5638E+06    -94.2837E+06    -134.571E+06    -94.9883E+06    -133.866E+06    -12.5638E+06    -5.01500E+06         66.9318
            1829     6.75445E-03     168.992E-03         4.39010         3.85043        -10.9479         3.84834        -10.9458         4.39010     169.706E-03     576.969E-03    -287.810E-03    -289.159E-03    -289.018E-03     576.828E-03    -287.810E-03     21.9410E-03     4.85959E+06    -82.9693E+06    -107.870E+06    -84.3321E+06    -106.507E+06     4.85959E+06    -5.37111E+06         67.4340
            1830     7.50387E-03     169.023E-03         4.31934         3.66566        -10.6988         3.66496        -10.6981         4.31934     53.0995E-03     577.360E-03    -288.008E-03    -289.351E-03    -289.154E-03     577.162E-03    -288.008E-03     26.0376E-03     19.9384E+06    -69.1200E+06    -83.7030E+06    -74.3217E+06    -78.5012E+06     19.9384E+06    -5.27128E+06         68.3223
            1831     8.25274E-03     169.061E-03         4.24158         3.46993        -10.4313         3.46939        -10.4307         4.24158     131.140E-03     577.770E-03    -288.175E-03    -289.595E-03    -289.317E-03     577.493E-03    -288.175E-03     30.8630E-03     32.0273E+06    -48.5375E+06    -67.4520E+06    -65.1117E+06    -50.8778E+06     32.0273E+06    -5.56488E+06         69.9109
            1832     9.00189E-03     169.109E-03         4.15700         3.26218        -10.1452         3.26205        -10.1450         4.15700     64.9204E-03     577.934E-03    -288.308E-03    -289.627E-03    -289.243E-03     577.550E-03    -288.308E-03     36.3191E-03     41.2094E+06    -20.0877E+06    -57.3379E+06    -56.3103E+06    -21.1153E+06     41.2094E+06    -5.76967E+06         72.6529
            1833     9.75153E-03     169.167E-03         4.06575         3.04502        -9.84433         3.04482        -9.84413         4.06575     98.1458E-03     577.849E-03    -288.362E-03    -289.487E-03    -288.934E-03     577.330E-03    -288.397E-03     42.2327E-03     48.6010E+06     16.4572E+06    -48.4975E+06    -47.9224E+06     15.8821E+06     48.6010E+06    -5.78956E+06         77.0625
            1834     10.5017E-03     169.238E-03         3.96795         2.81971        -9.53016         2.81962        -9.53008         3.96795     55.5398E-03     577.836E-03    -288.336E-03    -289.500E-03    -288.673E-03     577.127E-03    -288.455E-03     49.3778E-03     77.3199E+06     51.0805E+06    -39.9494E+06    -39.5953E+06     69.4027E+06     58.6436E+06    -5.83523E+06         83.4736
            1835     11.2524E-03     169.324E-03         3.86401         2.59062        -9.20633         2.59050        -9.20621         3.86401     63.8451E-03     578.060E-03    -288.468E-03    -289.592E-03    -288.591E-03     577.143E-03    -288.552E-03     56.3067E-03     111.246E+06     74.3391E+06    -31.4188E+06    -31.2048E+06     111.032E+06     74.3391E+06    -5.19733E+06         91.6319
            1836     12.0039E-03     169.424E-03         3.75399         2.36091        -8.87453         2.36077        -8.87440         3.75399     32.1285E-03     579.114E-03    -288.770E-03    -290.343E-03    -288.996E-03     577.766E-03    -288.770E-03     67.8684E-03     134.001E+06     107.704E+06    -22.5847E+06    -22.4752E+06     133.891E+06     107.704E+06    -3.66105E+06         100.328
            1837     12.7530E-03     169.550E-03         3.63891         2.13368        -8.53872         2.13358        -8.53862         3.63891     23.1754E-03     580.504E-03    -289.142E-03    -291.362E-03    -289.806E-03     578.948E-03    -289.142E-03     73.5276E-03     180.891E+06     158.422E+06    -12.2730E+06    -12.2454E+06     166.461E+06     172.824E+06    -1.77187E+06         107.484
            1838     753.385E-06     170.684E-03         7.10427         4.08252        -13.7385         4.15941        -10.7937         4.08252         5.65094     566.342E-03    -283.047E-03    -283.294E-03    -283.278E-03     566.337E-03    -283.059E-03     3.79308E-03    -154.460E+06    -158.951E+06    -297.854E+06    -157.548E+06    -297.827E+06    -155.891E+06    -369.734E+03         65.6004
            1839     1.50683E-03     170.685E-03         4.81984         4.11741        -11.4913         4.10661        -10.7781         4.11741        -1.75799     566.948E-03    -283.299E-03    -283.649E-03    -283.625E-03     566.935E-03    -283.310E-03     6.37307E-03    -143.079E+06    -153.956E+06    -283.597E+06    -153.985E+06    -283.568E+06    -143.079E+06    -1.57511E+06         65.6561
            1840     2.26005E-03     170.689E-03         4.29088         4.10313        -10.9512         4.04268        -10.7031         4.10313     981.557E-03     568.066E-03    -283.620E-03    -284.446E-03    -284.420E-03     568.039E-03    -283.620E-03     9.20828E-03    -124.232E+06    -146.700E+06    -263.115E+06    -146.762E+06    -263.053E+06    -124.232E+06    -2.51591E+06         65.7442
            1841     3.01226E-03     170.695E-03         4.10787         4.04945        -10.7204         3.98251        -10.6243         4.07875    -417.247E-03     569.476E-03    -284.044E-03    -285.432E-03    -285.389E-03     569.433E-03    -284.044E-03     11.9244E-03    -101.116E+06    -137.766E+06    -239.108E+06    -137.899E+06    -238.974E+06    -101.116E+06    -3.45826E+06         65.8631
            1842     3.76376E-03     170.704E-03         4.04872         3.94102        -10.5543         3.89920        -10.5125         4.04872     427.598E-03     570.882E-03    -284.522E-03    -286.360E-03    -286.294E-03     570.816E-03    -284.522E-03     14.7810E-03    -76.8706E+06    -127.467E+06    -213.937E+06    -127.758E+06    -213.646E+06    -76.8706E+06    -4.66374E+06         66.0130
            1843     4.51467E-03     170.715E-03         4.01241         3.82118        -10.3994         3.80341        -10.3816         4.01241    -68.5520E-03     572.285E-03    -285.007E-03    -287.278E-03    -287.183E-03     572.190E-03    -285.007E-03     17.7593E-03    -52.8505E+06    -115.499E+06    -186.359E+06    -115.967E+06    -185.890E+06    -52.8505E+06    -5.44135E+06         66.1991
            1844     5.26469E-03     170.729E-03         3.96982         3.69715        -10.2364         3.68801        -10.2272         3.96982     271.969E-03     573.589E-03    -285.482E-03    -288.108E-03    -287.982E-03     573.463E-03    -285.482E-03     20.5565E-03    -30.8072E+06    -103.834E+06    -158.308E+06    -104.540E+06    -157.602E+06    -30.8072E+06    -5.89757E+06         66.4395
            1845     6.01472E-03     170.748E-03         3.92042         3.55902        -10.0556         3.55523        -10.0518         3.92042     58.7025E-03     574.817E-03    -285.937E-03    -288.880E-03    -288.718E-03     574.655E-03    -285.937E-03     23.4474E-03    -10.6755E+06    -92.2204E+06    -131.573E+06    -93.2666E+06    -130.527E+06    -10.6755E+06    -6.10385E+06         66.7793
            1846     6.76380E-03     170.772E-03         3.86415         3.41157        -9.85933         3.40909        -9.85686         3.86415     215.301E-03     575.936E-03    -286.363E-03    -289.573E-03    -289.364E-03     575.727E-03    -286.363E-03     26.6662E-03     7.04714E+06    -80.1006E+06    -105.877E+06    -82.2310E+06    -103.747E+06     7.04714E+06    -6.52347E+06         67.3154
            1847     7.51268E-03     170.803E-03         3.80125         3.25375        -9.64469         3.25288        -9.64382         3.80125     103.264E-03     576.800E-03    -286.748E-03    -290.052E-03    -289.782E-03     576.530E-03    -286.748E-03     30.4141E-03     21.8784E+06    -65.5706E+06    -82.7459E+06    -71.6610E+06    -76.6555E+06     21.8784E+06    -6.97832E+06         68.2347
            1848     8.26212E-03     170.843E-03         3.73202         3.08991        -9.41605         3.08904        -9.41518         3.73202     178.371E-03     577.498E-03    -287.086E-03    -290.412E-03    -290.060E-03     577.147E-03    -287.086E-03     34.7944E-03     34.3968E+06    -45.2125E+06    -65.2548E+06    -61.3785E+06    -49.0888E+06     34.3968E+06    -6.93171E+06         69.8575
            1849     9.01090E-03     170.891E-03         3.65674         2.91710        -9.17286         2.91681        -9.17257         3.65674     107.439E-03     578.105E-03    -287.378E-03    -290.727E-03    -290.267E-03     577.645E-03    -287.378E-03     39.8602E-03     44.0376E+06    -17.5320E+06    -53.5894E+06    -51.9410E+06    -19.1805E+06     44.0376E+06    -7.06968E+06         72.6552
            1850     9.75952E-03     170.950E-03         3.57554         2.73813        -8.91892         2.73769        -8.91848         3.57554     138.885E-03     578.682E-03    -287.630E-03    -291.051E-03    -290.448E-03     578.079E-03    -287.630E-03     45.6617E-03     51.7723E+06     19.0930E+06    -44.2016E+06    -43.2179E+06     18.1093E+06     51.7723E+06    -7.48053E+06         77.1794
            1851     10.5083E-03     171.021E-03         3.48834         2.55296        -8.65395         2.55272        -8.65371         3.48834     87.9607E-03     579.345E-03    -287.864E-03    -291.481E-03    -290.682E-03     578.546E-03    -287.864E-03     52.5754E-03     78.5563E+06     53.5536E+06    -35.9568E+06    -35.4038E+06     70.2430E+06     61.3139E+06    -7.31320E+06         83.8185
            1852     11.2566E-03     171.108E-03         3.39552         2.36506        -8.38137         2.36478        -8.38109         3.39552     92.1906E-03     579.945E-03    -288.135E-03    -291.810E-03    -290.821E-03     578.956E-03    -288.135E-03     58.6272E-03     109.106E+06     74.8657E+06    -28.7684E+06    -28.4854E+06     108.823E+06     74.8657E+06    -6.04744E+06         92.3648
            1853     12.0051E-03     171.206E-03         3.29682         2.17725        -8.10214         2.17696        -8.10185         3.29682     51.0115E-03     581.061E-03    -288.505E-03    -292.556E-03    -291.156E-03     579.661E-03    -288.505E-03     69.3475E-03     130.368E+06     105.066E+06    -21.3766E+06    -21.2258E+06     130.218E+06     105.066E+06    -4.48587E+06         101.586
            1854     12.7553E-03     171.337E-03         3.19319         1.99411        -7.81993         1.99390        -7.81972         3.19319     35.9536E-03     582.281E-03    -289.003E-03    -293.278E-03    -291.693E-03     580.696E-03    -289.003E-03     74.3390E-03     176.376E+06     153.455E+06    -11.7669E+06    -11.7086E+06     161.702E+06     168.070E+06    -2.69797E+06         109.236
            1855     756.767E-06     172.439E-03         5.93413         3.37583        -11.7251         3.53574        -9.32671         3.37583         4.70812     559.361E-03    -279.370E-03    -279.991E-03    -279.687E-03     559.353E-03    -279.666E-03     4.90914E-03    -155.238E+06    -161.326E+06    -293.805E+06    -159.934E+06    -293.766E+06    -156.669E+06    -1.46196E+06         65.1326
            1856     1.51260E-03     172.442E-03         4.03456         3.45386        -9.90531         3.45301        -9.32376         3.45386        -1.42631     560.643E-03    -279.928E-03    -280.715E-03    -280.691E-03     560.619E-03    -279.928E-03     8.70042E-03    -143.861E+06    -154.986E+06    -278.396E+06    -155.054E+06    -278.328E+06    -143.861E+06    -2.51914E+06         65.2047
            1857     2.26718E-03     172.448E-03         3.59799         3.44260        -9.45970         3.39269        -9.25440         3.44260     857.796E-03     562.226E-03    -280.432E-03    -281.794E-03    -281.742E-03     562.174E-03    -280.432E-03     12.9249E-03    -124.889E+06    -147.978E+06    -258.196E+06    -148.140E+06    -258.034E+06    -124.889E+06    -3.92992E+06         65.3185
            1858     3.02114E-03     172.458E-03         3.44652         3.40121        -9.27237         3.34637        -9.19218         3.42118    -291.422E-03     563.957E-03    -281.001E-03    -282.956E-03    -282.869E-03     563.870E-03    -281.001E-03     16.8389E-03    -101.567E+06    -138.183E+06    -233.819E+06    -138.500E+06    -233.502E+06    -101.567E+06    -5.25392E+06         65.4721
            1859     3.77451E-03     172.469E-03         3.39533         3.31389        -9.13507         3.27754        -9.09872         3.39533     422.735E-03     565.928E-03    -281.617E-03    -284.311E-03    -284.184E-03     565.801E-03    -281.617E-03     20.4097E-03    -76.7758E+06    -127.181E+06    -207.767E+06    -127.767E+06    -207.181E+06    -76.7758E+06    -6.61067E+06         65.6643
            1860     4.52693E-03     172.483E-03         3.36418         3.21703        -9.00770         3.20147        -8.99214         3.36418     14.8687E-03     568.122E-03    -282.280E-03    -285.842E-03    -285.672E-03     567.952E-03    -282.280E-03     23.8241E-03    -52.7386E+06    -115.669E+06    -182.532E+06    -116.636E+06    -181.565E+06    -52.7386E+06    -7.78130E+06         65.8986
            1861     5.27823E-03     172.501E-03         3.32795         3.11845        -8.87490         3.10955        -8.86601         3.32795     307.702E-03     570.425E-03    -282.976E-03    -287.449E-03    -287.232E-03     570.208E-03    -282.976E-03     26.9995E-03    -30.2836E+06    -103.378E+06    -155.455E+06    -104.827E+06    -154.005E+06    -30.2836E+06    -8.27598E+06         66.1907
            1862     6.02787E-03     172.523E-03         3.28621         3.00908        -8.72836         3.00526        -8.72454         3.28621     128.970E-03     572.587E-03    -283.682E-03    -288.905E-03    -288.637E-03     572.319E-03    -283.682E-03     30.1398E-03    -10.3023E+06    -90.8758E+06    -129.148E+06    -93.3375E+06    -126.686E+06    -10.3023E+06    -8.77739E+06         66.5825
            1863     6.77732E-03     172.550E-03         3.23889         2.89324        -8.57145         2.89019        -8.56839         3.23889     269.518E-03     574.514E-03    -284.370E-03    -290.144E-03    -289.820E-03     574.191E-03    -284.370E-03     33.2051E-03     7.47285E+06    -77.2704E+06    -104.578E+06    -81.8047E+06    -100.044E+06     7.47285E+06    -9.39802E+06         67.1684
            1864     7.52591E-03     172.583E-03         3.18608         2.76860        -8.40014         2.76736        -8.39891         3.18608     167.066E-03     576.208E-03    -285.020E-03    -291.188E-03    -290.801E-03     575.821E-03    -285.020E-03     36.4265E-03     22.6979E+06    -60.9927E+06    -82.7902E+06    -70.4146E+06    -73.3683E+06     22.6979E+06    -10.0540E+06         68.1350
            1865     8.27339E-03     172.624E-03         3.12801         2.64255        -8.21979         2.64105        -8.21829         3.12801     235.873E-03     577.528E-03    -285.616E-03    -291.912E-03    -291.450E-03     577.066E-03    -285.616E-03     39.9105E-03     34.9627E+06    -40.6244E+06    -66.1973E+06    -59.6943E+06    -47.1274E+06     34.9627E+06    -10.4829E+06         69.8079
            1866     9.02152E-03     172.673E-03         3.06494         2.51164        -8.02806         2.51098        -8.02740         3.06494     160.656E-03     578.658E-03    -286.149E-03    -292.509E-03    -291.956E-03     578.106E-03    -286.149E-03     43.7416E-03     44.5597E+06    -13.9955E+06    -53.1961E+06    -49.8541E+06    -17.3375E+06     44.5597E+06    -10.2517E+06         72.6768
            1867     9.76953E-03     172.734E-03         2.99686         2.37722        -7.82909         2.37629        -7.82817         2.99686     188.746E-03     579.840E-03    -286.635E-03    -293.205E-03    -292.531E-03     579.166E-03    -286.635E-03     48.4033E-03     52.3114E+06     21.2023E+06    -42.7472E+06    -41.1213E+06     19.5764E+06     52.3114E+06      -9.587E+06         77.3315
            1868     10.5168E-03     172.807E-03         2.92352         2.23722        -7.62188         2.23663        -7.62128         2.92352     128.394E-03     580.975E-03    -287.093E-03    -293.883E-03    -293.024E-03     580.116E-03    -287.093E-03     54.6731E-03     76.7543E+06     53.5842E+06    -34.0942E+06    -33.3429E+06     68.6114E+06     60.9757E+06    -8.11084E+06         84.2181
            1869     11.2641E-03     172.896E-03         2.84526         2.09665        -7.41032         2.09604        -7.40971         2.84526     127.197E-03     582.144E-03    -287.577E-03    -294.567E-03    -293.519E-03     581.096E-03    -287.577E-03     60.5496E-03     105.509E+06     73.4945E+06    -26.5179E+06    -26.2359E+06     105.227E+06     73.4945E+06    -5.88522E+06         93.1753
            1870     12.0109E-03     172.995E-03         2.76169         1.95953        -7.19546         1.95891        -7.19484         2.76169     73.9670E-03     583.766E-03    -288.152E-03    -295.614E-03    -294.138E-03     582.289E-03    -288.152E-03     71.4800E-03     126.980E+06     102.582E+06    -19.3821E+06    -19.2488E+06     126.847E+06     102.582E+06    -3.83354E+06         102.937
            1871     12.7560E-03     173.127E-03         2.67384         1.82967        -6.98103         1.82927        -6.98063         2.67384     49.8917E-03     584.856E-03    -288.837E-03    -296.019E-03    -294.372E-03     583.209E-03    -288.837E-03     75.9916E-03     173.267E+06     149.153E+06    -11.0028E+06    -10.9563E+06     157.269E+06     165.105E+06    -2.04876E+06         111.085
            1872     759.111E-06     174.179E-03         4.60987         2.64406        -9.51981         2.80621        -7.71615         2.64406         3.67265     551.250E-03    -275.160E-03    -276.091E-03    -275.390E-03     551.234E-03    -275.844E-03     6.68264E-03    -156.301E+06    -162.341E+06    -287.253E+06    -161.040E+06    -287.212E+06    -157.643E+06    -1.69504E+06         64.5447
            1873     1.51781E-03     174.187E-03         3.16379         2.72327        -8.15519         2.72761        -7.71901         2.72327        -1.06666     552.617E-03    -275.874E-03    -276.743E-03    -276.695E-03     552.569E-03    -275.874E-03     12.0628E-03    -145.379E+06    -156.491E+06    -272.404E+06    -156.595E+06    -272.299E+06    -145.379E+06    -3.23129E+06         64.6362
            1874     2.27597E-03     174.196E-03         2.83464         2.71413        -7.81369         2.67851        -7.65756         2.71413     721.488E-03     554.459E-03    -276.423E-03    -278.037E-03    -277.940E-03     554.363E-03    -276.423E-03     17.4996E-03    -125.320E+06    -149.063E+06    -251.034E+06    -149.303E+06    -250.795E+06    -125.320E+06     -4.7346E+06         64.7816
            1875     3.03329E-03     174.209E-03         2.71434         2.68521        -7.67098         2.64188        -7.60914         2.69582    -150.605E-03     556.754E-03    -277.089E-03    -279.665E-03    -279.508E-03     556.597E-03    -277.089E-03     22.6240E-03    -101.531E+06    -139.492E+06    -226.476E+06    -140.052E+06    -225.916E+06    -101.531E+06    -6.66143E+06         64.9785
            1876     3.78879E-03     174.224E-03         2.67353         2.61760        -7.56445         2.58772        -7.53457         2.67353     418.406E-03     559.669E-03    -277.875E-03    -281.793E-03    -281.567E-03     559.442E-03    -277.875E-03     27.2563E-03    -76.8930E+06    -128.309E+06    -200.843E+06    -129.417E+06    -199.735E+06    -76.8930E+06    -8.52498E+06         65.2243
            1877     4.54261E-03     174.243E-03         2.64704         2.54562        -7.46670         2.53244        -7.45351         2.64704     111.211E-03     562.960E-03    -278.782E-03    -284.178E-03    -283.883E-03     562.665E-03    -278.782E-03     31.2608E-03    -52.6945E+06    -115.895E+06    -177.155E+06    -117.702E+06    -175.348E+06    -52.6945E+06    -10.0719E+06         65.5200
            1878     5.29496E-03     174.266E-03         2.61720         2.47863        -7.36809         2.46976        -7.35922         2.61720     352.297E-03     566.307E-03    -279.762E-03    -286.546E-03    -286.190E-03     565.952E-03    -279.762E-03     34.5443E-03    -30.6956E+06    -103.079E+06    -152.059E+06    -106.052E+06    -149.086E+06    -30.6956E+06    -11.1366E+06         65.8782
            1879     6.04606E-03     174.293E-03         2.58382         2.40274        -7.25998         2.39849        -7.25573         2.58382     214.161E-03     569.553E-03    -280.770E-03    -288.783E-03    -288.368E-03     569.139E-03    -280.770E-03     37.5031E-03    -10.9402E+06    -89.2183E+06    -125.971E+06    -94.3397E+06    -120.850E+06    -10.9402E+06    -12.1816E+06         66.3380
            1880     6.79498E-03     174.324E-03         2.54655         2.32266        -7.14754         2.31838        -7.14326         2.54655     335.210E-03     572.586E-03    -281.781E-03    -290.805E-03    -290.328E-03     572.109E-03    -281.781E-03     40.3898E-03     6.55373E+06    -73.7701E+06    -104.020E+06    -82.6801E+06    -95.1103E+06     6.55373E+06    -13.1720E+06         66.9908
            1881     7.54272E-03     174.362E-03         2.50521         2.23512        -7.02430         2.23294        -7.02212         2.50521     244.852E-03     575.341E-03    -282.763E-03    -292.579E-03    -292.036E-03     574.798E-03    -282.763E-03     43.2425E-03     21.5218E+06    -56.1833E+06    -84.7005E+06    -71.6111E+06    -69.2727E+06     21.5218E+06    -13.5935E+06         68.0222
            1882     8.28997E-03     174.406E-03         2.45993         2.15025        -6.89702         2.14742        -6.89420         2.45993     305.952E-03     577.852E-03    -283.699E-03    -294.153E-03    -293.539E-03     577.238E-03    -283.699E-03     46.1419E-03     33.3640E+06    -35.3670E+06    -69.5139E+06    -61.5142E+06    -43.3667E+06     33.3640E+06    -14.0361E+06         69.7622
            1883     9.03561E-03     174.458E-03         2.41091         2.06404        -6.76108         2.06247        -6.75950         2.41091     226.924E-03     580.042E-03    -284.582E-03    -295.460E-03    -294.765E-03     579.347E-03    -284.582E-03     49.2049E-03     42.0316E+06    -10.6250E+06    -57.2447E+06    -52.1816E+06    -15.6881E+06     42.0316E+06    -14.0192E+06         72.7170
            1884     9.78050E-03     174.521E-03         2.35810         1.97818        -6.62212         1.97621        -6.62015         2.35810     249.562E-03     581.759E-03    -285.400E-03    -296.359E-03    -295.560E-03     580.960E-03    -285.400E-03     52.8495E-03     48.8237E+06     21.2268E+06    -45.9981E+06    -43.2212E+06     18.4499E+06     48.8237E+06    -12.6716E+06         77.5139
            1885     10.5256E-03     174.596E-03         2.30112         1.88809        -6.47873         1.88671        -6.47735         2.30112     177.884E-03     583.159E-03    -286.151E-03    -297.008E-03    -296.045E-03     582.196E-03    -286.151E-03     58.0503E-03     71.9237E+06     50.2817E+06    -36.2211E+06    -35.0110E+06     64.5390E+06     56.4564E+06    -10.2701E+06         84.6588
            1886     11.2705E-03     174.687E-03         2.24009         1.79922        -6.33527         1.79792        -6.33398         2.24009     170.199E-03     584.579E-03    -286.892E-03    -297.687E-03    -296.551E-03     583.443E-03    -286.892E-03     63.2049E-03     100.612E+06     68.4056E+06    -28.0349E+06    -27.5333E+06     100.110E+06     68.4056E+06    -7.68526E+06         94.0413
            1887     12.0150E-03     174.789E-03         2.17458         1.71699        -6.19237         1.71569        -6.19106         2.17458     103.109E-03     586.451E-03    -287.697E-03    -298.754E-03    -297.208E-03     584.905E-03    -287.697E-03     73.4657E-03     121.149E+06     97.6571E+06    -19.8864E+06    -19.6950E+06     120.958E+06     97.6571E+06    -4.47281E+06         104.368
            1888     12.7609E-03     174.922E-03         2.10575         1.64598        -6.05304         1.64523        -6.05228         2.10575     65.9848E-03     588.156E-03    -288.615E-03    -299.541E-03    -297.845E-03     586.460E-03    -288.615E-03     77.4095E-03     170.815E+06     145.781E+06    -10.1836E+06    -10.1414E+06     152.493E+06     164.061E+06    -1.01705E+06         113.050
            1889     763.294E-06     175.906E-03         3.30558         1.88450        -7.30710         2.03657        -6.03808         1.88450         2.70153     541.070E-03    -270.161E-03    -270.910E-03    -270.491E-03     541.040E-03    -270.549E-03     9.31985E-03    -157.682E+06    -162.271E+06    -279.780E+06    -160.782E+06    -279.730E+06    -159.221E+06    -1.99534E+06         63.8387
            1890     1.52613E-03     175.915E-03         2.27863         1.95937        -6.34670         1.97205        -6.04012         1.95937    -717.797E-03     542.554E-03    -270.788E-03    -271.766E-03    -271.680E-03     542.468E-03    -270.788E-03     16.2472E-03    -145.142E+06    -156.842E+06    -264.013E+06    -157.024E+06    -263.832E+06    -145.142E+06    -3.99504E+06         63.9544
            1891     2.28771E-03     175.929E-03         2.04794         1.95346        -6.10379         1.93588        -5.99173         1.95346     606.520E-03     545.047E-03    -271.428E-03    -273.620E-03    -273.454E-03     544.881E-03    -271.428E-03     22.9243E-03    -124.487E+06    -148.391E+06    -242.658E+06    -148.861E+06    -242.188E+06    -124.487E+06    -6.23753E+06         64.1384
            1892     3.04767E-03     175.945E-03         1.95835         1.93617        -6.00256         1.91007        -5.95708         1.93897     122.085E-06     548.323E-03    -272.294E-03    -276.029E-03    -275.770E-03     548.063E-03    -272.294E-03     28.9208E-03    -100.444E+06    -138.540E+06    -217.710E+06    -139.462E+06    -216.788E+06    -100.444E+06    -8.14113E+06         64.3873
            1893     3.80637E-03     175.967E-03         1.92490         1.89096        -5.92810         1.87050        -5.90334         1.92060     434.046E-03     552.205E-03    -273.341E-03    -278.864E-03    -278.505E-03     551.846E-03    -273.341E-03     34.2981E-03    -75.5202E+06    -127.232E+06    -192.407E+06    -128.917E+06    -190.723E+06    -75.5202E+06    -10.0971E+06         64.6968
            1894     4.56261E-03     175.994E-03         1.89900         1.84948        -5.85962         1.83741        -5.84755         1.89900     226.869E-03     556.609E-03    -274.536E-03    -282.073E-03    -281.613E-03     556.149E-03    -274.536E-03     39.0580E-03    -52.0294E+06    -114.698E+06    -170.159E+06    -117.581E+06    -167.277E+06    -52.0294E+06    -12.0528E+06         65.0657
            1895     5.31601E-03     176.023E-03         1.87572         1.81387        -5.79468         1.80346        -5.78427         1.87572     418.961E-03     561.251E-03    -275.840E-03    -285.411E-03    -284.855E-03     560.695E-03    -275.840E-03     43.0827E-03    -30.2676E+06    -100.861E+06    -146.647E+06    -105.886E+06    -141.622E+06    -30.2676E+06    -13.7813E+06         65.5038
            1896     6.06692E-03     176.057E-03         1.85073         1.77106        -5.72384         1.76487        -5.71766         1.85073     320.215E-03     565.870E-03    -277.209E-03    -288.662E-03    -288.027E-03     565.235E-03    -277.209E-03     46.2714E-03    -10.7438E+06    -85.5722E+06    -122.341E+06    -94.0798E+06    -113.834E+06    -10.7438E+06    -15.0207E+06         66.0466
            1897     6.81637E-03     176.095E-03         1.82355         1.72723        -5.65517         1.71992        -5.64786         1.82355     421.585E-03     570.298E-03    -278.607E-03    -291.691E-03    -290.994E-03     569.601E-03    -278.607E-03     48.7687E-03     6.02450E+06    -69.5256E+06    -102.529E+06    -83.1149E+06    -88.9401E+06     6.02450E+06    -15.7647E+06         66.7823
            1898     7.56386E-03     176.138E-03         1.79380         1.67661        -5.57915         1.67189        -5.57443         1.79380     343.648E-03     574.417E-03    -279.997E-03    -294.420E-03    -293.671E-03     573.668E-03    -279.997E-03     50.8214E-03     20.1738E+06    -51.4942E+06    -86.0055E+06    -72.9975E+06    -64.5023E+06     20.1738E+06    -16.3092E+06         67.8946
            1899     8.30910E-03     176.188E-03         1.76154         1.63406        -5.50508         1.62815        -5.49918         1.76154     395.458E-03     578.180E-03    -281.351E-03    -296.829E-03    -296.026E-03     577.377E-03    -281.351E-03     52.8636E-03     31.8506E+06    -30.2450E+06    -71.9377E+06    -63.1549E+06    -39.0278E+06     31.8506E+06    -16.6428E+06         69.7174
            1900     9.05307E-03     176.245E-03         1.72710         1.59321        -5.42596         1.58936        -5.42211         1.72710     312.082E-03     581.408E-03    -282.644E-03    -298.764E-03    -297.890E-03     580.534E-03    -282.644E-03     55.3297E-03     40.2374E+06    -6.40540E+06    -60.0753E+06    -53.8674E+06    -12.6133E+06     40.2374E+06    -16.9461E+06         72.7740
            1901     9.79614E-03     176.312E-03         1.69215         1.55711        -5.35027         1.55438        -5.34595         1.69056     327.385E-03     583.956E-03    -283.850E-03    -300.106E-03    -299.136E-03     582.986E-03    -283.850E-03     58.4530E-03     45.5660E+06     22.2352E+06    -49.7366E+06    -45.3647E+06     17.8633E+06     45.5660E+06    -16.6712E+06         77.7303
            1902     10.5384E-03     176.389E-03         1.65800         1.51556        -5.27404         1.51900        -5.27087         1.65140     241.636E-03     586.062E-03    -284.962E-03    -301.100E-03    -299.978E-03     584.940E-03    -284.962E-03     62.9894E-03     66.8866E+06     47.0328E+06    -39.3624E+06    -36.9278E+06     59.8206E+06     51.6642E+06    -14.5368E+06         85.1527
            1903     11.2806E-03     176.483E-03         1.62872         1.46846        -5.20187         1.48507        -5.19920         1.60944     223.461E-03     587.986E-03    -286.040E-03    -301.946E-03    -300.676E-03     586.716E-03    -286.040E-03     67.1777E-03     94.4819E+06     63.6362E+06    -29.9363E+06    -28.8811E+06     93.4267E+06     63.6362E+06    -10.9272E+06         94.9861
            1904     12.0228E-03     176.587E-03         1.60167         1.42386        -5.13405         1.45885        -5.13144         1.56406     139.780E-03     590.213E-03    -287.153E-03    -303.060E-03    -301.435E-03     588.587E-03    -287.153E-03     75.8085E-03     111.412E+06     92.1237E+06    -21.4627E+06    -21.0764E+06     111.025E+06     92.1237E+06    -6.33052E+06         105.914
            1905     12.7634E-03     176.722E-03         1.57947         1.38497        -5.07082         1.44679        -5.06948         1.51631     86.0695E-03     592.194E-03    -288.364E-03    -303.830E-03    -302.097E-03     590.460E-03    -288.364E-03     78.6121E-03     165.830E+06     141.706E+06    -12.0824E+06    -12.0130E+06     145.301E+06     162.166E+06    -2.08748E+06         115.162
            1906     767.996E-06     177.613E-03         2.14322         1.12727        -5.23104         1.28028        -4.36809         1.12727         1.90720     529.275E-03    -264.284E-03    -264.992E-03    -264.950E-03     529.234E-03    -264.284E-03     10.8056E-03    -154.732E+06    -157.588E+06    -270.263E+06    -157.490E+06    -270.164E+06    -154.929E+06    -2.56873E+06         63.0371
            1907     1.53528E-03     177.624E-03         1.43262         1.20309        -4.58245         1.22317        -4.37300         1.20309    -410.768E-03     531.132E-03    -264.929E-03    -266.203E-03    -266.082E-03     531.012E-03    -264.929E-03     19.0928E-03    -141.693E+06    -152.519E+06    -252.547E+06    -152.838E+06    -252.228E+06    -141.693E+06    -5.44351E+06         63.1797
            1908     2.30139E-03     177.643E-03         1.28170         1.20021        -4.41878         1.20168        -4.33877         1.20021     528.164E-03     534.214E-03    -265.701E-03    -268.513E-03    -268.269E-03     533.970E-03    -265.701E-03     27.5753E-03    -121.864E+06    -144.998E+06    -232.834E+06    -145.745E+06    -232.087E+06    -121.864E+06    -7.79648E+06         63.4067
            1909     3.06521E-03     177.667E-03         1.22266         1.18966        -4.35345         1.18808        -4.31888         1.18966     148.338E-03     538.580E-03    -266.772E-03    -271.808E-03    -271.412E-03     538.184E-03    -266.772E-03     35.4465E-03    -98.0355E+06    -134.687E+06    -208.709E+06    -136.100E+06    -207.296E+06    -98.0355E+06    -9.89947E+06         63.7139
            1910     3.82591E-03     177.696E-03         1.19673         1.16726        -4.30937         1.16481        -4.28576         1.17557     472.324E-03     543.712E-03    -268.108E-03    -275.604E-03    -275.052E-03     543.159E-03    -268.108E-03     42.1698E-03    -72.9192E+06    -122.830E+06    -183.503E+06    -125.214E+06    -181.120E+06    -72.9192E+06    -11.4860E+06         64.0951
            1911     4.58445E-03     177.731E-03         1.17765         1.14822        -4.26798         1.15214        -4.25339         1.15913     354.052E-03     549.248E-03    -269.628E-03    -279.620E-03    -278.924E-03     548.552E-03    -269.628E-03     47.6735E-03    -49.3715E+06    -110.505E+06    -161.593E+06    -114.375E+06    -157.723E+06    -49.3715E+06    -13.2838E+06         64.5469
            1912     5.34058E-03     177.770E-03         1.17063         1.13064        -4.23396         1.14308        -4.21787         1.14210     505.845E-03     555.230E-03    -271.282E-03    -283.949E-03    -283.130E-03     554.412E-03    -271.282E-03     52.1423E-03    -27.3910E+06    -96.0877E+06    -139.169E+06    -102.904E+06    -132.353E+06    -27.3910E+06    -15.2058E+06         65.0760
            1913     6.09347E-03     177.813E-03         1.16088         1.11032        -4.19555         1.13425        -4.18332         1.12472     443.311E-03     561.527E-03    -273.046E-03    -288.481E-03    -287.568E-03     560.614E-03    -273.046E-03     55.5032E-03    -8.27116E+06    -80.3958E+06    -117.407E+06    -91.8684E+06    -105.935E+06    -8.27116E+06    -16.7357E+06         65.7141
            1914     6.84241E-03     177.861E-03         1.15359         1.09062        -4.16613         1.12249        -4.15114         1.10673     527.378E-03     567.732E-03    -274.891E-03    -292.841E-03    -291.865E-03     566.756E-03    -274.891E-03     57.7736E-03     7.77136E+06    -63.9009E+06    -99.9414E+06    -81.5050E+06    -82.3374E+06     7.77136E+06    -17.7044E+06         66.5455
            1915     7.58832E-03     177.913E-03         1.14215         1.06724        -4.13258         1.11022        -4.12118         1.08776     461.687E-03     573.472E-03    -276.761E-03    -296.711E-03    -295.691E-03     572.452E-03    -276.761E-03     59.3861E-03     21.8698E+06    -44.9169E+06    -84.5126E+06    -71.1724E+06    -58.2571E+06     21.8698E+06    -18.3889E+06         67.7517
            1916     8.33206E-03     177.970E-03         1.13869         1.04962        -4.10943         1.10700        -4.09609         1.06798     504.609E-03     578.498E-03    -278.597E-03    -299.901E-03    -298.844E-03     577.441E-03    -278.597E-03     60.7725E-03     33.3449E+06    -23.9233E+06    -71.1589E+06    -61.2472E+06    -33.8350E+06     33.3449E+06    -19.0431E+06         69.6711
            1917     9.07388E-03     178.034E-03         1.13725         1.03417        -4.08469         1.11402        -4.07511         1.04783     417.443E-03     582.784E-03    -280.351E-03    -302.433E-03    -301.337E-03     581.688E-03    -280.351E-03     62.1646E-03     41.4098E+06    -1.20074E+06    -59.6424E+06    -52.0667E+06    -8.77646E+06     41.4098E+06    -19.3805E+06         72.8449
            1918     9.81418E-03     178.106E-03         1.14434         1.02219        -4.07015         1.12936        -4.06044         1.02746     423.375E-03     586.460E-03    -282.002E-03    -304.458E-03    -303.307E-03     585.309E-03    -282.002E-03     63.9406E-03     46.6715E+06     26.6944E+06    -49.4151E+06    -43.7857E+06     21.0650E+06     46.6715E+06    -19.6480E+06         77.9796
            1919     10.5536E-03     178.188E-03         1.15428         1.00625        -4.05849         1.14706        -4.05127         1.00625     321.766E-03     589.623E-03    -283.550E-03    -306.074E-03    -304.814E-03     588.363E-03    -283.550E-03     67.0888E-03     65.0260E+06     48.3483E+06    -40.0687E+06    -36.1261E+06     57.9899E+06     51.4418E+06    -19.0900E+06         85.7063
            1920     11.2922E-03     178.285E-03         1.17290     983.799E-03        -4.05424         1.16747        -4.04880     983.799E-03     288.381E-03     592.230E-03    -285.043E-03    -307.187E-03    -305.825E-03     590.868E-03    -285.043E-03     69.9466E-03     84.1394E+06     61.0446E+06    -30.6196E+06    -28.4623E+06     81.9821E+06     61.0446E+06    -14.9581E+06         96.0349
            1921     12.0296E-03     178.393E-03         1.20113     959.299E-03        -4.05802         1.19605        -4.05294     959.299E-03     185.241E-03     594.870E-03    -286.527E-03    -308.343E-03    -306.638E-03     593.165E-03    -286.527E-03     78.0602E-03     98.4929E+06     87.9951E+06    -21.6129E+06    -20.8505E+06     97.7306E+06     87.9951E+06    -8.49159E+06         107.635
            1922     12.7677E-03     178.532E-03         1.24084     933.498E-03        -4.06724         1.23863        -4.06503     933.498E-03     110.473E-03     596.982E-03    -288.070E-03    -308.912E-03    -307.106E-03     595.176E-03    -288.070E-03     80.6554E-03     161.022E+06     136.393E+06    -11.6156E+06    -11.4711E+06     137.235E+06     160.035E+06    -3.54095E+06         117.533
            1923     772.772E-06     179.299E-03         1.15257     437.248E-03        -3.39039     548.404E-03        -2.78623     437.248E-03         1.30438     516.967E-03    -257.924E-03    -259.043E-03    -258.985E-03     516.909E-03    -257.924E-03     12.5061E-03    -147.189E+06    -149.940E+06    -258.187E+06    -150.065E+06    -258.062E+06    -147.189E+06    -3.27201E+06         62.1817
            1924     1.54449E-03     179.314E-03     667.203E-03     491.551E-03        -2.94786     513.855E-03        -2.79451     491.551E-03    -163.664E-03     519.094E-03    -258.788E-03    -260.306E-03    -260.140E-03     518.928E-03    -258.788E-03     22.1470E-03    -135.364E+06    -145.338E+06    -240.014E+06    -145.761E+06    -239.591E+06    -135.364E+06    -6.00293E+06         62.3514
            1925     2.31505E-03     179.337E-03     572.787E-03     490.087E-03        -2.83988     507.338E-03        -2.77443     490.087E-03     486.284E-03     522.671E-03    -259.653E-03    -263.018E-03    -262.682E-03     522.335E-03    -259.653E-03     32.0454E-03    -116.189E+06    -138.462E+06    -221.566E+06    -139.410E+06    -220.617E+06    -116.189E+06    -8.60463E+06         62.6219
            1926     3.08363E-03     179.370E-03     540.876E-03     482.843E-03        -2.80102     506.493E-03        -2.76663     482.843E-03     282.917E-03     527.659E-03    -260.856E-03    -266.802E-03    -266.257E-03     527.113E-03    -260.856E-03     41.2920E-03    -92.4695E+06    -127.985E+06    -198.622E+06    -129.845E+06    -196.761E+06    -92.4695E+06    -11.0332E+06         62.9888
            1927     3.84927E-03     179.409E-03     534.064E-03     472.824E-03        -2.78416     500.798E-03        -2.75090     472.824E-03     528.109E-03     533.897E-03    -262.380E-03    -271.517E-03    -270.749E-03     533.129E-03    -262.380E-03     49.4855E-03    -68.0499E+06    -116.371E+06    -174.785E+06    -119.481E+06    -171.674E+06    -68.0499E+06    -12.9161E+06         63.4449
            1928     4.61065E-03     179.455E-03     533.822E-03     461.263E-03        -2.76783     505.267E-03        -2.73927     461.263E-03     483.871E-03     541.114E-03    -264.193E-03    -276.921E-03    -275.943E-03     540.137E-03    -264.193E-03     56.3143E-03    -44.1290E+06    -103.433E+06    -152.532E+06    -108.385E+06    -147.580E+06    -44.1290E+06    -14.5378E+06         63.9845
            1929     5.36797E-03     179.505E-03     553.938E-03     449.860E-03        -2.76377     518.580E-03        -2.72841     449.860E-03     608.629E-03     548.909E-03    -266.240E-03    -282.669E-03    -281.529E-03     547.769E-03    -266.240E-03     61.3307E-03    -22.2339E+06    -88.9020E+06    -131.107E+06    -97.1671E+06    -122.842E+06    -22.2339E+06    -16.3049E+06         64.6105
            1930     6.12130E-03     179.561E-03     568.237E-03     439.270E-03        -2.75357     536.459E-03        -2.72179     439.270E-03     578.518E-03     556.886E-03    -268.456E-03    -288.429E-03    -287.187E-03     555.644E-03    -268.456E-03     64.5528E-03    -2.98573E+06    -73.1783E+06    -110.835E+06    -86.4579E+06    -97.5557E+06    -2.98573E+06    -17.6965E+06         65.3503
            1931     6.87093E-03     179.621E-03     593.264E-03     429.565E-03        -2.75996     555.880E-03        -2.72258     429.565E-03     649.610E-03     564.725E-03    -270.782E-03    -293.943E-03    -292.643E-03     563.424E-03    -270.782E-03     66.6205E-03     13.4823E+06    -55.9430E+06    -94.3650E+06    -75.8374E+06    -74.4705E+06     13.4823E+06    -18.9462E+06         66.2845
            1932     7.61656E-03     179.685E-03     609.427E-03     420.634E-03        -2.76230     578.406E-03        -2.73128     420.634E-03     595.860E-03     572.057E-03    -273.145E-03    -298.913E-03    -297.582E-03     570.727E-03    -273.145E-03     67.9144E-03     27.1653E+06    -36.7512E+06    -79.9281E+06    -65.6850E+06    -50.9943E+06     27.1653E+06    -20.0511E+06         67.5932
            1933     8.35869E-03     179.753E-03     645.949E-03     412.689E-03        -2.78407     612.545E-03        -2.75066     412.689E-03     630.577E-03     578.644E-03    -275.485E-03    -303.159E-03    -301.818E-03     577.302E-03    -275.485E-03     68.6500E-03     38.1871E+06    -16.4439E+06    -67.3836E+06    -56.2285E+06    -27.5990E+06     38.1871E+06    -20.8949E+06         69.6194
            1934     9.09804E-03     179.826E-03     685.079E-03     406.104E-03        -2.80398     659.907E-03        -2.77881     406.104E-03     541.336E-03     584.471E-03    -277.751E-03    -306.721E-03    -305.375E-03     583.125E-03    -277.751E-03     69.1514E-03     46.0111E+06     5.52868E+06    -56.4303E+06    -47.4871E+06    -3.41459E+06     46.0111E+06    -21.5968E+06         72.9224
            1935     9.83528E-03     179.905E-03     742.125E-03     400.949E-03        -2.84077     719.109E-03        -2.81775     400.949E-03     534.913E-03     589.560E-03    -279.913E-03    -309.647E-03    -308.287E-03     588.200E-03    -279.913E-03     69.8532E-03     51.3698E+06     33.0935E+06     -46.073E+06    -39.1400E+06     26.1606E+06     51.3698E+06    -22.0494E+06         78.2508
            1936     10.5704E-03     179.994E-03     800.613E-03     396.678E-03        -2.88291     783.729E-03        -2.86603     396.678E-03     417.850E-03     593.751E-03    -281.960E-03    -311.791E-03    -310.360E-03     592.319E-03    -281.960E-03     71.8898E-03     64.6534E+06     52.6166E+06    -36.4403E+06    -31.6591E+06     57.4588E+06     55.0299E+06    -20.8289E+06         86.3098
            1937     11.3045E-03     180.096E-03     864.819E-03     392.889E-03        -2.93573     853.639E-03        -2.92455     392.889E-03     364.641E-03     597.029E-03    -283.914E-03    -313.115E-03    -311.610E-03     595.524E-03    -283.914E-03     73.9365E-03     72.7268E+06     60.5908E+06    -28.6473E+06    -25.6191E+06     69.6283E+06     60.6611E+06    -17.0173E+06         97.1941
            1938     12.0390E-03     180.207E-03     942.633E-03     388.584E-03        -3.00245     932.973E-03        -2.99279     388.584E-03     240.284E-03     600.125E-03    -285.807E-03    -314.318E-03    -312.505E-03     598.312E-03    -285.807E-03     81.0814E-03     86.9582E+06     81.5109E+06    -20.6329E+06    -19.2088E+06     82.6320E+06     84.4131E+06    -10.9330E+06         109.575
            1939     12.7727E-03     180.349E-03         1.02868     384.227E-03        -3.07393         1.02539        -3.07063     384.227E-03     138.429E-03     602.483E-03    -287.714E-03    -314.769E-03    -312.912E-03     600.626E-03    -287.714E-03     82.2690E-03     155.487E+06     126.785E+06    -10.9507E+06    -10.6938E+06     126.631E+06     155.384E+06    -4.59720E+06         120.257
            1940     777.546E-06     180.964E-03     411.540E-03    -179.268E-03        -1.88115    -110.898E-03        -1.35871    -179.268E-03     872.620E-03     504.498E-03    -251.646E-03    -252.852E-03    -252.780E-03     504.426E-03    -251.646E-03     13.7451E-03    -139.047E+06    -141.934E+06    -244.185E+06    -141.837E+06    -243.972E+06    -139.358E+06    -4.32045E+06         61.3342
            1941     1.55493E-03     180.982E-03     66.6934E-03    -146.942E-03        -1.55882    -123.884E-03        -1.36824    -146.942E-03     26.6454E-03     506.964E-03    -252.583E-03    -254.381E-03    -254.168E-03     506.751E-03    -252.583E-03     24.7853E-03    -126.918E+06    -136.459E+06    -227.424E+06    -137.077E+06    -226.807E+06    -126.918E+06    -7.08023E+06         61.5292
            1942     2.32993E-03     181.012E-03    -9.65526E-03    -147.900E-03        -1.47083    -121.394E-03        -1.35909    -147.900E-03     481.944E-03     511.216E-03    -253.571E-03    -257.645E-03    -257.214E-03     510.785E-03    -253.571E-03     35.9744E-03    -107.483E+06    -128.485E+06    -209.189E+06    -129.803E+06    -207.871E+06    -107.483E+06    -9.99120E+06         61.8402
            1943     3.10219E-03     181.053E-03    -17.9413E-03    -152.722E-03        -1.45193    -108.882E-03        -1.36099    -152.722E-03     409.939E-03     516.880E-03    -254.940E-03    -261.940E-03    -261.251E-03     516.190E-03    -254.940E-03     46.0560E-03    -84.5050E+06    -118.644E+06    -187.931E+06    -120.867E+06    -185.709E+06    -84.5050E+06    -12.0323E+06         62.2625
            1944     3.87151E-03     181.103E-03     24.4108E-03    -159.014E-03        -1.48262    -97.9708E-03        -1.36024    -159.014E-03     606.215E-03     523.969E-03    -256.654E-03    -267.316E-03    -266.358E-03     523.012E-03    -256.654E-03     54.8299E-03    -59.8740E+06    -106.699E+06    -164.994E+06    -110.366E+06    -161.326E+06    -59.8740E+06    -13.8984E+06         62.7881
            1945     4.63712E-03     181.163E-03     47.2805E-03    -166.003E-03        -1.48936    -76.6263E-03        -1.36545    -166.003E-03     620.693E-03     532.513E-03    -258.711E-03    -273.802E-03    -272.589E-03     531.300E-03    -258.711E-03     62.3759E-03    -36.0795E+06    -93.3936E+06    -142.896E+06    -99.2416E+06    -137.048E+06    -36.0795E+06    -15.7531E+06         63.4096
            1946     5.39719E-03     181.229E-03     100.602E-03    -172.100E-03        -1.52041    -44.4297E-03        -1.37538    -172.100E-03     732.480E-03     541.955E-03    -261.083E-03    -280.872E-03    -279.439E-03     540.522E-03    -261.083E-03     68.5238E-03    -14.4567E+06    -79.6401E+06    -122.415E+06    -88.4250E+06    -113.630E+06    -14.4567E+06    -17.0355E+06         64.1275
            1947     6.15179E-03     181.300E-03     131.454E-03    -176.372E-03        -1.52869    -3.60228E-03        -1.39364    -176.372E-03     730.312E-03     551.641E-03    -263.692E-03    -287.950E-03    -286.357E-03     550.049E-03    -263.692E-03     72.9514E-03     4.66552E+06    -64.3066E+06    -103.078E+06    -77.8259E+06    -89.5583E+06     4.66552E+06    -18.1174E+06         64.9661
            1948     6.90122E-03     181.375E-03     184.101E-03    -178.380E-03        -1.56271     44.7045E-03        -1.42331    -178.380E-03     791.471E-03     561.227E-03    -266.455E-03    -294.773E-03    -293.096E-03     559.551E-03    -266.455E-03     75.5470E-03     21.2766E+06    -47.3562E+06    -86.2727E+06    -67.5366E+06    -66.0922E+06     21.2766E+06    -19.2104E+06         66.0029
            1949     7.64622E-03     181.453E-03     215.670E-03    -177.955E-03        -1.58003     99.8205E-03        -1.46418    -177.955E-03     748.197E-03     570.411E-03    -269.299E-03    -301.112E-03    -299.428E-03     568.726E-03    -269.299E-03     76.4297E-03     34.7295E+06    -29.1460E+06    -72.5249E+06    -58.2931E+06    -43.3779E+06     34.7295E+06    -20.0832E+06         67.4164
            1950     8.38705E-03     181.535E-03     275.658E-03    -174.883E-03        -1.62776     167.130E-03        -1.51923    -174.883E-03     772.632E-03     578.814E-03    -272.156E-03    -306.658E-03    -305.014E-03     577.170E-03    -272.156E-03     76.1443E-03     45.5237E+06    -8.90800E+06    -60.7510E+06    -49.5844E+06    -20.0746E+06     45.5237E+06    -21.1573E+06         69.5532
            1951     9.12420E-03     181.619E-03     327.009E-03    -169.046E-03        -1.66703     246.236E-03        -1.58626    -169.046E-03     683.144E-03     586.260E-03    -274.960E-03    -311.300E-03    -309.705E-03     584.665E-03    -274.960E-03     75.5525E-03     53.3046E+06     13.1181E+06    -50.7106E+06    -41.4524E+06     3.85987E+06     53.3046E+06    -22.3037E+06         72.9899
            1952     9.85791E-03     181.710E-03     402.953E-03    -160.524E-03        -1.73129     338.906E-03        -1.66724    -160.524E-03     659.410E-03     592.621E-03    -277.655E-03    -314.966E-03    -313.397E-03     591.052E-03    -277.655E-03     75.3665E-03     57.8424E+06     39.7436E+06    -41.7041E+06    -34.2344E+06     32.2739E+06     57.8424E+06    -23.2840E+06         78.5198
            1953     10.5896E-03     181.807E-03     486.272E-03    -149.633E-03        -1.80515     441.953E-03        -1.76083    -149.633E-03     528.863E-03     597.872E-03    -280.212E-03    -317.661E-03    -316.064E-03     596.276E-03    -280.212E-03     76.3862E-03     62.1524E+06     56.2680E+06    -33.2104E+06    -27.7036E+06     54.3791E+06     58.5345E+06    -21.6445E+06         86.9307
            1954     11.3203E-03     181.915E-03     579.957E-03    -136.644E-03        -1.89284     555.014E-03        -1.86789    -136.644E-03     449.564E-03     602.207E-03    -282.654E-03    -319.553E-03    -317.930E-03     600.584E-03    -282.654E-03     77.2870E-03     64.8710E+06     57.6008E+06    -25.2308E+06    -21.7917E+06     57.7796E+06     61.2531E+06    -16.6302E+06         98.4156
            1955     12.0490E-03     182.032E-03     696.830E-03    -122.577E-03        -2.00621     677.999E-03        -1.98738    -122.577E-03     305.511E-03     606.118E-03    -285.008E-03    -321.110E-03    -319.226E-03     604.234E-03    -285.008E-03     83.3049E-03     82.5733E+06     68.8638E+06    -18.3073E+06    -16.7806E+06     67.3371E+06     82.5733E+06    -10.4936E+06         111.659
            1956     12.7776E-03     182.179E-03     815.246E-03    -107.254E-03        -2.12283     810.733E-03        -2.11832    -107.254E-03     170.150E-03     608.729E-03    -287.322E-03    -321.407E-03    -319.516E-03     606.838E-03    -287.322E-03     83.5859E-03     150.253E+06     113.818E+06    -10.2460E+06    -9.95913E+06     113.531E+06     150.253E+06    -4.15382E+06         123.215
            1957     782.615E-06     182.608E-03     334.023E-03    -717.526E-03        -1.12978    -657.495E-03    -135.558E-03    -720.229E-03     604.040E-03     493.298E-03    -246.194E-03    -247.104E-03    -247.026E-03     493.220E-03    -246.194E-03     14.1119E-03    -127.501E+06    -130.594E+06    -226.967E+06    -130.606E+06    -226.644E+06    -127.812E+06    -5.10827E+06         60.5833
            1958     1.56357E-03     182.630E-03     141.632E-03    -688.588E-03    -957.437E-03    -669.596E-03    -143.506E-03    -691.291E-03     172.455E-03     496.205E-03    -247.037E-03    -249.169E-03    -248.934E-03     495.971E-03    -247.037E-03     25.7572E-03    -116.265E+06    -125.234E+06    -213.437E+06    -126.115E+06    -212.556E+06    -116.265E+06      -8.539E+06         60.7970
            1959     2.34325E-03     182.668E-03     104.557E-03    -686.408E-03    -913.125E-03    -660.199E-03    -142.686E-03    -692.091E-03     509.767E-03     500.899E-03    -248.147E-03    -252.752E-03    -252.278E-03     500.425E-03    -248.147E-03     37.3858E-03    -97.5554E+06    -117.341E+06    -196.323E+06    -119.030E+06    -194.634E+06    -97.5554E+06    -11.2301E+06         61.1380
            1960     3.11997E-03     182.719E-03     108.348E-03    -689.141E-03    -903.943E-03    -637.520E-03    -152.391E-03    -694.824E-03     531.863E-03     507.275E-03    -249.662E-03    -257.613E-03    -256.852E-03     506.514E-03    -249.662E-03     48.0093E-03    -75.1681E+06    -107.703E+06    -176.847E+06    -110.453E+06    -174.097E+06    -75.1681E+06    -13.3331E+06         61.6014
            1961     3.89257E-03     182.781E-03     156.494E-03    -691.698E-03    -936.755E-03    -610.853E-03    -163.593E-03    -697.514E-03     704.974E-03     515.167E-03    -251.556E-03    -263.610E-03    -262.534E-03     514.090E-03    -251.556E-03     57.7093E-03    -51.2933E+06    -95.7670E+06    -155.505E+06    -100.161E+06    -151.110E+06    -51.2933E+06    -15.3477E+06         62.1788
            1962     4.66012E-03     182.855E-03     176.972E-03    -693.806E-03    -938.175E-03    -572.689E-03    -182.698E-03    -699.622E-03     764.218E-03     524.318E-03    -253.795E-03    -270.523E-03    -269.138E-03     522.933E-03    -253.795E-03     66.1993E-03    -28.0974E+06    -82.8314E+06    -134.276E+06    -89.2205E+06    -127.887E+06    -28.0974E+06    -16.8238E+06         62.8627
            1963     5.42317E-03     182.938E-03     215.488E-03    -688.951E-03    -962.677E-03    -525.979E-03    -210.029E-03    -700.132E-03     871.292E-03     534.489E-03    -256.345E-03    -278.144E-03    -276.491E-03     532.836E-03    -256.345E-03     73.1431E-03    -6.34987E+06    -69.7612E+06    -114.056E+06    -78.2013E+06    -105.616E+06    -6.34987E+06    -17.2506E+06         63.6535
            1964     6.18075E-03     183.028E-03     223.031E-03    -673.844E-03    -963.278E-03    -467.521E-03    -248.279E-03    -698.291E-03     891.992E-03     545.508E-03    -259.172E-03    -286.336E-03    -284.479E-03     543.650E-03    -259.172E-03     78.4812E-03     13.1043E+06    -55.8403E+06    -94.3617E+06    -67.8218E+06    -82.3802E+06     13.1043E+06    -17.4568E+06         64.5749
            1965     6.93229E-03     183.121E-03     245.696E-03    -652.800E-03    -980.957E-03    -395.000E-03    -299.822E-03    -693.239E-03     945.694E-03     556.970E-03    -262.236E-03    -294.734E-03    -292.759E-03     554.995E-03    -262.236E-03     81.9005E-03     29.6325E+06    -40.5809E+06    -76.7872E+06    -58.6671E+06    -58.7009E+06     29.6325E+06    -17.7527E+06         65.7024
            1966     7.67725E-03     183.218E-03     237.284E-03    -614.759E-03    -982.767E-03    -311.471E-03    -364.394E-03    -684.377E-03     913.304E-03     568.172E-03    -265.473E-03    -302.698E-03    -300.700E-03     566.174E-03    -265.473E-03     83.2914E-03     43.4936E+06    -22.6326E+06    -63.0714E+06    -50.0521E+06    -35.6520E+06     43.4936E+06    -18.6087E+06         67.2130
            1967     8.41630E-03     183.316E-03     252.631E-03    -585.175E-03        -1.00084    -216.830E-03    -445.054E-03    -671.503E-03     924.719E-03     578.652E-03    -268.794E-03    -309.858E-03    -307.908E-03     576.702E-03    -268.794E-03     83.0816E-03     54.0015E+06    -2.95489E+06    -52.0240E+06    -42.3790E+06    -12.5999E+06     54.0015E+06    -19.2004E+06         69.4559
            1968     9.15048E-03     183.416E-03     239.995E-03    -538.965E-03        -1.00983    -114.217E-03    -539.785E-03    -654.795E-03     836.585E-03     587.942E-03    -272.110E-03    -315.832E-03    -313.971E-03     586.081E-03    -272.110E-03     81.8722E-03     61.4713E+06     19.0088E+06    -42.9977E+06    -35.6350E+06     11.6461E+06     61.4713E+06    -19.7737E+06         73.0232
            1969     9.88137E-03     183.519E-03     260.065E-03    -511.297E-03        -1.03171     2.51287E-03    -650.992E-03    -634.466E-03     790.184E-03     595.688E-03    -275.332E-03    -320.356E-03    -318.588E-03     593.920E-03    -275.332E-03     80.3715E-03     65.2864E+06     44.5867E+06    -35.8456E+06    -30.0955E+06     38.8366E+06     65.2864E+06    -20.3142E+06         78.7500
            1970     10.6095E-03     183.627E-03     292.426E-03    -486.216E-03        -1.05813     135.392E-03    -776.676E-03    -610.633E-03     652.644E-03     602.222E-03    -278.415E-03    -323.808E-03    -322.083E-03     600.498E-03    -278.415E-03     79.8405E-03     63.5713E+06     55.8430E+06    -30.4171E+06    -25.6222E+06     51.2092E+06     63.4102E+06    -19.6609E+06         87.5027
            1971     11.3348E-03     183.744E-03     359.291E-03    -486.439E-03        -1.09007     283.029E-03    -916.906E-03    -583.341E-03     540.733E-03     607.588E-03    -281.360E-03    -326.228E-03    -324.525E-03     605.886E-03    -281.360E-03     79.6660E-03     62.0439E+06     47.8029E+06    -24.9853E+06    -21.4848E+06     44.4635E+06     61.8827E+06    -15.3969E+06         99.5736
            1972     12.0596E-03     183.868E-03     483.048E-03    -529.780E-03        -1.13823     439.815E-03        -1.07129    -553.486E-03     378.683E-03     612.159E-03    -284.177E-03    -327.982E-03    -326.047E-03     610.224E-03    -284.177E-03     85.0456E-03     80.0115E+06     53.1459E+06    -17.8158E+06    -16.5100E+06     51.8401E+06     80.0115E+06    -8.25371E+06         113.667
            1973     12.7837E-03     184.019E-03     606.987E-03    -521.282E-03        -1.24522     599.924E-03        -1.23816    -521.282E-03     202.540E-03     615.312E-03    -286.915E-03    -328.397E-03    -326.489E-03     613.404E-03    -286.915E-03     84.5531E-03     146.452E+06     102.768E+06    -9.82216E+06    -9.63665E+06     102.582E+06     146.452E+06    -3.04741E+06         126.092
            1974     785.579E-06     184.235E-03     936.037E-03        -1.14204        -1.18916        -1.10714     858.054E-03        -1.14607     458.409E-03     485.953E-03    -242.476E-03    -243.477E-03    -243.409E-03     485.885E-03    -242.476E-03     13.1003E-03    -115.375E+06    -118.778E+06    -207.771E+06    -118.659E+06    -207.401E+06    -115.864E+06    -5.36876E+06         60.0413
            1975     1.57052E-03     184.264E-03     881.950E-03        -1.12604        -1.15104        -1.11430     849.244E-03        -1.13008     282.958E-03     488.912E-03    -243.380E-03    -245.531E-03    -245.323E-03     488.703E-03    -243.380E-03     24.0505E-03    -104.711E+06    -113.831E+06    -197.181E+06    -114.861E+06    -196.152E+06    -104.711E+06    -8.92708E+06         60.2596
            1976     2.35260E-03     184.308E-03     886.865E-03        -1.12020        -1.15233        -1.09749     843.193E-03        -1.13136     554.563E-03     493.508E-03    -244.490E-03    -249.018E-03    -248.587E-03     493.077E-03    -244.490E-03     35.3120E-03    -87.2115E+06    -106.697E+06    -183.329E+06    -108.610E+06    -181.416E+06    -87.2115E+06    -11.8282E+06         60.6089
            1977     3.13194E-03     184.369E-03     887.885E-03        -1.11518        -1.14258        -1.06493     826.756E-03        -1.13171     641.029E-03     499.784E-03    -245.970E-03    -253.814E-03    -253.094E-03     499.063E-03    -245.970E-03     46.2954E-03    -66.1685E+06    -97.0756E+06    -165.469E+06    -100.243E+06    -162.301E+06    -66.1685E+06    -14.1500E+06         61.0854
            1978     3.90753E-03     184.445E-03     896.541E-03        -1.10212        -1.14087        -1.02204     805.588E-03        -1.13000     809.284E-03     507.733E-03    -247.825E-03    -259.908E-03    -258.853E-03     506.678E-03    -247.825E-03     56.7009E-03    -44.4173E+06    -86.6800E+06    -145.557E+06    -91.4311E+06    -140.806E+06    -44.4173E+06    -15.8999E+06         61.6827
            1979     4.67915E-03     184.534E-03     892.618E-03        -1.08633        -1.12992    -972.041E-03     774.792E-03        -1.12638     901.171E-03     517.045E-03    -250.047E-03    -266.997E-03    -265.599E-03     515.646E-03    -250.047E-03     66.0634E-03    -22.5452E+06    -75.7455E+06    -126.603E+06    -82.0942E+06    -120.254E+06    -22.5452E+06    -16.6957E+06         62.3950
            1980     5.44499E-03     184.634E-03     884.081E-03        -1.06135        -1.12437    -914.448E-03     733.644E-03        -1.12084         1.00753     527.587E-03    -252.604E-03    -274.983E-03    -273.275E-03     525.879E-03    -252.604E-03     73.9217E-03    -1.87920E+06    -64.4501E+06    -107.770E+06    -72.6150E+06    -99.6052E+06    -1.87920E+06    -16.7909E+06         63.2252
            1981     6.20497E-03     184.742E-03     854.413E-03        -1.01604        -1.11271    -842.304E-03     680.678E-03        -1.11271         1.04772     539.281E-03    -255.479E-03    -283.802E-03    -281.846E-03     537.325E-03    -255.479E-03     80.1389E-03     17.4642E+06    -52.5472E+06    -88.1740E+06     -63.246E+06    -77.4753E+06     17.4642E+06    -16.0467E+06         64.1978
            1982     6.95792E-03     184.858E-03     820.995E-03    -957.389E-03        -1.10073    -750.521E-03     614.127E-03        -1.10073         1.09786     551.700E-03    -258.647E-03    -293.053E-03    -290.925E-03     549.571E-03    -258.647E-03     84.6852E-03     34.8187E+06    -38.4301E+06    -69.7875E+06    -54.3104E+06    -53.9072E+06     34.8187E+06    -15.1775E+06         65.3886
            1983     7.70418E-03     184.976E-03     759.719E-03    -870.108E-03        -1.08398    -644.468E-03     534.079E-03        -1.08398         1.07817     564.457E-03    -262.057E-03    -302.399E-03    -300.181E-03     562.239E-03    -262.057E-03     87.5587E-03     48.9841E+06    -21.1291E+06    -55.9818E+06    -46.8184E+06    -30.2925E+06     48.9841E+06    -14.4336E+06         66.9748
            1984     8.44397E-03     185.095E-03     700.283E-03    -793.097E-03        -1.06239    -530.405E-03     437.591E-03        -1.06239         1.07503     577.057E-03    -265.650E-03    -311.406E-03    -309.193E-03     574.843E-03    -265.650E-03     88.5413E-03     59.4808E+06    -1.26568E+06    -46.4795E+06    -40.8772E+06    -6.86791E+06     59.4808E+06    -13.9628E+06         69.3085
            1985     9.17722E-03     185.215E-03     605.430E-03    -690.588E-03        -1.03640    -411.311E-03     326.154E-03        -1.03640     992.013E-03     588.682E-03    -269.342E-03    -319.340E-03    -317.217E-03     586.560E-03    -269.342E-03     87.6510E-03     67.2589E+06     24.2976E+06    -39.4624E+06    -35.4602E+06     20.2954E+06     67.2589E+06    -14.7400E+06         72.9933
            1986     9.90476E-03     185.333E-03     524.428E-03    -604.317E-03        -1.00622    -277.472E-03     197.583E-03        -1.00622     918.763E-03     598.771E-03    -273.032E-03    -325.738E-03    -323.754E-03     596.786E-03    -273.032E-03     85.5131E-03     70.3047E+06     47.9650E+06    -33.1593E+06    -29.7461E+06     44.5518E+06     70.3047E+06    -15.9005E+06         78.8960
            1987     10.6284E-03     185.455E-03     438.140E-03    -507.469E-03    -971.742E-03    -124.013E-03     54.6832E-03    -971.742E-03     782.431E-03     606.911E-03    -276.633E-03    -330.278E-03    -328.412E-03     605.044E-03    -276.633E-03     83.5367E-03     65.5474E+06     49.5473E+06    -28.0090E+06    -25.1488E+06     46.6870E+06     65.5474E+06    -14.4465E+06         87.9464
            1988     11.3502E-03     185.582E-03     379.496E-03    -435.551E-03    -932.835E-03     46.1917E-03    -102.248E-03    -932.835E-03     632.309E-03     613.130E-03    -280.081E-03    -333.049E-03    -331.271E-03     611.352E-03    -280.081E-03     81.9473E-03     61.1271E+06     38.4359E+06    -23.8029E+06    -21.5704E+06     36.2033E+06     61.1271E+06    -11.3136E+06         100.522
            1989     12.0699E-03     185.713E-03     379.349E-03    -428.448E-03    -891.362E-03     222.913E-03    -273.017E-03    -890.357E-03     455.144E-03     618.338E-03    -283.362E-03    -334.976E-03    -333.025E-03     616.387E-03    -283.362E-03     86.0248E-03     75.4922E+06     42.2027E+06    -18.4383E+06    -17.0890E+06     40.8534E+06     75.4922E+06    -7.97347E+06         115.343
            1990     12.7889E-03     185.872E-03     430.153E-03    -426.173E-03    -905.764E-03     398.009E-03    -454.919E-03    -844.874E-03     233.839E-03     621.768E-03    -286.524E-03    -335.243E-03    -333.354E-03     619.879E-03    -286.524E-03     84.7093E-03     140.427E+06     92.0218E+06    -9.79325E+06    -9.39609E+06     91.6246E+06     140.427E+06    -3.61663E+06         128.497
            1991     786.179E-06     185.856E-03         1.63221        -1.45968        -1.47774        -1.45562         1.61292        -1.46250     369.713E-03     484.500E-03    -241.671E-03    -242.829E-03    -242.778E-03     484.449E-03    -241.671E-03     11.0991E-03    -107.564E+06    -110.987E+06    -189.775E+06    -110.810E+06    -189.464E+06    -108.053E+06    -4.50576E+06         59.8277
            1992     1.57092E-03     185.888E-03         1.61711        -1.46010        -1.47284        -1.45314         1.60023        -1.46292     363.153E-03     486.928E-03    -242.593E-03    -244.335E-03    -244.182E-03     486.775E-03    -242.593E-03     20.5604E-03    -98.2462E+06    -107.492E+06    -181.498E+06    -108.351E+06    -180.639E+06    -98.2462E+06    -7.69081E+06         60.0313
            1993     2.35487E-03     185.939E-03         1.61728        -1.45288        -1.47415        -1.43227         1.58675        -1.46423     605.727E-03     490.726E-03    -243.518E-03    -247.208E-03    -246.883E-03     490.401E-03    -243.518E-03     30.3984E-03    -82.3881E+06    -102.195E+06    -170.414E+06    -103.809E+06    -168.800E+06    -82.3881E+06    -10.2098E+06         60.3587
            1994     3.13643E-03     186.009E-03         1.61135        -1.43379        -1.46142        -1.38594         1.56349        -1.46142     737.383E-03     496.063E-03    -244.762E-03    -251.301E-03    -250.740E-03     495.502E-03    -244.762E-03     40.4535E-03    -63.8699E+06    -95.3224E+06    -154.506E+06    -98.1174E+06    -151.711E+06    -63.8699E+06    -12.3094E+06         60.8098
            1995     3.91479E-03     186.097E-03         1.60431        -1.40057        -1.45405        -1.32949         1.53323        -1.45405     908.625E-03     503.015E-03    -246.353E-03    -256.662E-03    -255.814E-03     502.167E-03    -246.353E-03     50.2936E-03    -43.3514E+06    -87.1460E+06    -136.006E+06    -91.2428E+06    -131.909E+06    -43.3514E+06    -13.4369E+06         61.3823
            1996     4.68811E-03     186.200E-03         1.58562        -1.36481        -1.44385        -1.27130         1.49211        -1.44385         1.02362     511.586E-03    -248.309E-03    -263.277E-03    -262.116E-03     510.424E-03    -248.309E-03     59.6586E-03    -22.4324E+06    -78.9881E+06    -119.032E+06    -84.2330E+06    -113.787E+06    -22.4324E+06    -13.3866E+06         62.0758
            1997     5.45695E-03     186.317E-03         1.55756        -1.32349        -1.43163        -1.20600         1.44007        -1.43163         1.13382     521.647E-03    -250.617E-03    -271.030E-03    -269.541E-03     520.158E-03    -250.617E-03     68.4639E-03    -3.09271E+06     -69.799E+06    -102.387E+06    -77.3441E+06    -94.8423E+06    -3.09271E+06    -13.2738E+06         62.8973
            1998     6.21943E-03     186.446E-03         1.51284        -1.25863        -1.41660        -1.12236         1.37657        -1.41660         1.19072     532.984E-03    -253.264E-03    -279.720E-03    -277.910E-03     531.174E-03    -253.264E-03     76.5261E-03     14.8519E+06    -58.4915E+06    -86.0439E+06    -70.2298E+06    -74.3057E+06     14.8519E+06    -12.6944E+06         63.8754
            1999     6.97603E-03     186.582E-03         1.45730        -1.17232        -1.39719        -1.01519         1.30017        -1.39719         1.23879     545.562E-03    -256.240E-03    -289.323E-03    -287.248E-03     543.487E-03    -256.240E-03     83.1077E-03     31.2303E+06    -43.2923E+06    -72.0020E+06    -63.2327E+06    -52.0617E+06     31.2303E+06    -11.5168E+06         65.0876
            2000     7.72577E-03     186.724E-03         1.37974        -1.06276        -1.37253    -894.005E-03         1.21098        -1.37253         1.23080     559.414E-03    -259.547E-03    -299.867E-03    -297.628E-03     557.174E-03    -259.547E-03     87.6173E-03     45.6458E+06    -24.1587E+06    -60.1757E+06    -55.9790E+06    -28.3554E+06     45.6458E+06    -10.3132E+06         66.7109
            2001     8.46707E-03     186.868E-03         1.28852    -949.816E-03        -1.34289    -768.099E-03         1.10680        -1.34289         1.21093     573.725E-03    -263.167E-03    -310.558E-03    -308.286E-03     571.453E-03    -263.167E-03     89.5242E-03     58.0534E+06    -138.648E+03    -50.3598E+06    -48.1559E+06    -2.34249E+06     58.0534E+06    -9.91916E+06         69.0979
            2002     9.20071E-03     187.011E-03         1.17068    -820.206E-03        -1.30885    -638.603E-03     989.078E-03        -1.30885         1.13460     587.524E-03    -267.022E-03    -320.502E-03    -318.301E-03     585.323E-03    -267.022E-03     89.2866E-03     68.6148E+06     32.7943E+06    -42.1867E+06    -40.1613E+06     30.7689E+06     68.6148E+06    -11.9111E+06         72.8607
            2003     9.92725E-03     187.153E-03         1.03748    -674.516E-03        -1.27055    -493.696E-03     856.659E-03        -1.27055         1.03170     600.145E-03    -271.003E-03    -329.143E-03    -327.072E-03     598.074E-03    -271.003E-03     87.6088E-03     69.7451E+06     50.5085E+06    -35.1423E+06    -32.9318E+06     48.2980E+06     69.7451E+06    -13.5061E+06         78.8912
            2004     10.6475E-03     187.291E-03     887.944E-03    -505.112E-03        -1.22762    -328.668E-03     711.500E-03        -1.22762     902.278E-03     610.765E-03    -275.004E-03    -335.761E-03    -333.839E-03     608.843E-03    -275.004E-03     85.1897E-03     62.1727E+06     42.5286E+06    -29.0678E+06    -27.1710E+06     40.6317E+06     62.1727E+06    -11.4069E+06         88.1669
            2005     11.3639E-03     187.429E-03     722.495E-03    -317.679E-03        -1.17992    -149.728E-03     554.545E-03        -1.17992     712.552E-03     618.705E-03    -278.918E-03    -339.787E-03    -338.012E-03     616.931E-03    -278.918E-03     82.3771E-03     58.4584E+06     34.6234E+06    -23.5028E+06    -22.0552E+06     33.1758E+06     58.4584E+06    -9.02235E+06         101.129
            2006     12.0785E-03     187.572E-03     572.687E-03    -154.251E-03        -1.12830     32.0017E-03     386.434E-03        -1.12830     525.287E-03     624.280E-03    -282.656E-03    -341.624E-03    -339.723E-03     622.379E-03    -282.656E-03     85.4914E-03     71.5016E+06     36.9058E+06    -17.8033E+06    -16.5516E+06     35.6541E+06     71.5016E+06     -8.1396E+06         116.517
            2007     12.7926E-03     187.735E-03     458.060E-03    -37.7753E-03        -1.07346     210.081E-03     210.204E-03        -1.07346     262.172E-03     627.221E-03    -286.207E-03    -341.014E-03    -339.162E-03     625.370E-03    -286.207E-03     84.3949E-03     134.249E+06     80.8757E+06    -10.5578E+06    -9.90570E+06     80.2236E+06     134.249E+06    -5.47598E+06         130.254
            2008     784.076E-06     187.480E-03         2.12968        -1.68772        -1.70478        -1.68554         2.12181        -1.69910     323.096E-03     489.763E-03    -244.522E-03    -245.241E-03    -245.108E-03     489.734E-03    -244.626E-03     8.18633E-03    -107.825E+06    -111.408E+06    -182.472E+06    -111.613E+06    -182.158E+06    -107.933E+06     297.162E+03         60.0589
            2009     1.56779E-03     187.515E-03         2.12108        -1.69242        -1.70324        -1.68652         2.10671        -1.69478     420.335E-03     491.438E-03    -245.155E-03    -246.283E-03    -246.196E-03     491.350E-03    -245.155E-03     15.1700E-03    -99.8952E+06    -111.638E+06    -174.281E+06    -112.458E+06    -173.461E+06    -99.8952E+06     462.633E+03         60.2272
            2010     2.34986E-03     187.570E-03         2.11521        -1.68253        -1.70226        -1.66213         2.08634        -1.69379     658.499E-03     494.148E-03    -245.838E-03    -248.310E-03    -248.125E-03     493.963E-03    -245.838E-03     22.5122E-03    -86.7413E+06    -111.374E+06    -160.677E+06    -112.463E+06    -159.588E+06    -86.7413E+06    -1.24404E+06         60.5015
            2011     3.13012E-03     187.647E-03         2.10425        -1.65402        -1.68681        -1.60686         2.05709        -1.68681     824.791E-03     497.949E-03    -246.769E-03    -251.180E-03    -250.856E-03     497.625E-03    -246.769E-03     30.3287E-03    -70.4697E+06    -109.596E+06    -144.001E+06    -111.159E+06    -142.438E+06    -70.4697E+06    -3.61772E+06         60.8858
            2012     3.90788E-03     187.743E-03         2.08866        -1.61162        -1.67373        -1.54247         2.01952        -1.67373         1.00000     502.927E-03    -247.953E-03    -254.974E-03    -254.459E-03     502.412E-03    -247.953E-03     38.7005E-03    -51.3590E+06    -104.155E+06    -128.376E+06    -107.956E+06    -124.575E+06    -51.3590E+06    -5.38434E+06         61.3846
            2013     4.68347E-03     187.859E-03         2.06159        -1.56744        -1.65708        -1.47658         1.97073        -1.65708         1.12904     509.420E-03    -249.410E-03    -260.010E-03    -259.250E-03     508.659E-03    -249.410E-03     47.6621E-03    -31.4067E+06    -93.4471E+06    -116.069E+06    -102.283E+06    -107.233E+06    -31.4067E+06    -7.19524E+06         62.0050
            2014     5.45419E-03     187.990E-03         2.02387        -1.51763        -1.63802        -1.40473         1.91096        -1.63802         1.24246     517.637E-03    -251.174E-03    -266.464E-03    -265.411E-03     516.585E-03    -251.174E-03     56.8309E-03    -12.5486E+06    -80.5852E+06    -104.663E+06    -95.0615E+06    -90.1867E+06    -12.5486E+06    -8.75500E+06         62.7614
            2015     6.22089E-03     188.136E-03         1.97212        -1.44343        -1.61581        -1.31184         1.84054        -1.61581         1.31186     527.776E-03    -253.292E-03    -274.484E-03    -273.126E-03     526.418E-03    -253.292E-03     65.4418E-03     5.23120E+06    -65.0380E+06    -92.5197E+06    -86.6439E+06    -70.9139E+06     5.23120E+06    -9.89200E+06         63.6870
            2016     6.98142E-03     188.293E-03         1.90743        -1.34329        -1.58891        -1.19486         1.75900        -1.58891         1.35511     539.985E-03    -255.819E-03    -284.166E-03    -282.546E-03     538.365E-03    -255.819E-03     72.5688E-03     22.1212E+06    -45.4263E+06    -80.1923E+06    -75.9698E+06    -49.6487E+06     22.1212E+06    -10.8524E+06         64.8598
            2017     7.73388E-03     188.460E-03         1.82440        -1.22418        -1.55675        -1.06585         1.66608        -1.55675         1.35066     553.743E-03    -258.774E-03    -294.969E-03    -293.151E-03     551.926E-03    -258.774E-03     78.1210E-03     37.6821E+06    -23.0638E+06    -67.5751E+06    -64.3415E+06    -26.2975E+06     37.6821E+06    -11.3207E+06         66.4536
            2018     8.47816E-03     188.631E-03         1.72308        -1.09573        -1.51984    -933.339E-03         1.56068        -1.51984         1.31082     568.539E-03    -262.131E-03    -306.407E-03    -304.472E-03     566.603E-03    -262.131E-03     82.0125E-03     52.0261E+06     5.23996E+06    -55.6538E+06    -52.6873E+06     2.27349E+06     52.0261E+06    -12.6906E+06         68.8197
            2019     9.21353E-03     188.802E-03         1.60492    -956.548E-03        -1.47880    -796.136E-03         1.44451        -1.47880         1.23818     583.830E-03    -265.840E-03    -317.991E-03    -316.033E-03     581.873E-03    -265.840E-03     83.8404E-03     64.2809E+06     38.8267E+06    -44.3029E+06    -41.9089E+06     36.4328E+06     64.2809E+06    -12.9789E+06         72.5771
            2020     9.94060E-03     188.969E-03         1.46429    -790.800E-03        -1.43368    -644.074E-03         1.31756        -1.43368         1.10782     598.601E-03    -269.820E-03    -328.780E-03    -326.898E-03     596.718E-03    -269.820E-03     83.3924E-03     65.4507E+06     50.8298E+06    -35.7904E+06    -34.1725E+06     49.2118E+06     65.4507E+06    -11.5829E+06         78.6397
            2021     10.6607E-03     189.130E-03         1.31926    -613.158E-03        -1.38418    -475.884E-03         1.18199        -1.38418     986.027E-03     611.816E-03    -273.976E-03    -337.840E-03    -336.075E-03     610.051E-03    -273.976E-03     81.7269E-03     59.2829E+06     40.2051E+06    -29.3226E+06    -27.3875E+06     38.2700E+06     59.2829E+06    -11.2531E+06         88.0293
            2022     11.3740E-03     189.288E-03         1.14410    -404.705E-03        -1.33032    -299.884E-03         1.03928        -1.33032     763.044E-03     621.810E-03    -278.149E-03    -343.661E-03    -342.018E-03     620.167E-03    -278.149E-03     79.5249E-03     56.8011E+06     35.3327E+06    -23.3303E+06    -21.0059E+06     33.0084E+06     56.8011E+06    -11.3224E+06         101.256
            2023     12.0842E-03     189.439E-03     969.687E-03    -204.033E-03        -1.27281    -124.184E-03     889.837E-03        -1.27281     570.824E-03     628.112E-03    -282.181E-03    -345.930E-03    -344.144E-03     626.325E-03    -282.181E-03     83.2011E-03     68.1613E+06     33.1413E+06    -17.4818E+06    -15.1378E+06     30.7973E+06     68.1613E+06    -10.1323E+06         117.111
            2024     12.7956E-03     189.608E-03     783.284E-03     838.457E-06        -1.21241     46.3555E-03     737.767E-03        -1.21241     281.206E-03     630.704E-03    -286.002E-03    -344.702E-03    -342.921E-03     628.923E-03    -286.002E-03     83.1317E-03     131.057E+06     69.2188E+06    -9.00931E+06    -7.73247E+06     67.9419E+06     131.057E+06    -5.57664E+06         131.414
            2025     778.897E-06     189.118E-03         2.39187        -1.82929        -1.84490        -1.82495         2.38620        -1.84358     306.140E-03     502.945E-03    -251.249E-03    -251.696E-03    -251.433E-03     502.938E-03    -251.505E-03     3.47050E-03    -149.797E+06    -153.304E+06    -190.963E+06    -153.926E+06    -190.091E+06    -150.046E+06     3.36189E+06         60.8519
            2026     1.55730E-03     189.155E-03         2.38495        -1.83198        -1.83869        -1.82238         2.37051        -1.83384     461.302E-03     503.410E-03    -251.385E-03    -252.025E-03    -251.746E-03     503.386E-03    -251.640E-03     6.94094E-03    -136.091E+06    -146.966E+06    -179.954E+06    -149.085E+06    -177.836E+06    -136.091E+06     5.52895E+06         60.9684
            2027     2.33524E-03     189.213E-03         2.37838        -1.81795        -1.83174        -1.79154         2.34844        -1.82822     702.693E-03     504.631E-03    -251.756E-03    -252.874E-03    -252.607E-03     504.573E-03    -251.966E-03     11.3343E-03    -115.701E+06    -137.514E+06    -162.578E+06    -142.420E+06    -157.672E+06    -115.701E+06     5.58052E+06         61.1635
            2028     3.11219E-03     189.294E-03         2.36638        -1.78926        -1.81674        -1.73970         2.31682        -1.81674     892.919E-03     506.418E-03    -252.350E-03    -254.068E-03    -253.826E-03     506.303E-03    -252.477E-03     16.5549E-03    -90.8971E+06    -128.668E+06    -144.338E+06    -134.376E+06    -138.630E+06    -90.8971E+06     4.46980E+06         61.4464
            2029     3.88824E-03     189.395E-03         2.34804        -1.74622        -1.79975        -1.67472         2.27653        -1.79975         1.07042     509.005E-03    -253.113E-03    -255.892E-03    -255.669E-03     508.803E-03    -253.134E-03     22.7717E-03    -65.8461E+06    -115.750E+06    -128.094E+06    -125.355E+06    -118.488E+06    -65.8461E+06     2.33707E+06         61.8286
            2030     4.66200E-03     189.517E-03         2.31842        -1.69663        -1.77863        -1.60376         2.22555        -1.77863         1.20345     512.873E-03    -253.976E-03    -258.897E-03    -258.568E-03     512.545E-03    -253.976E-03     29.6764E-03    -43.5950E+06    -99.2448E+06    -117.009E+06    -116.373E+06    -99.8808E+06    -43.5950E+06    -801.622E+03         62.3246
            2031     5.43450E-03     189.659E-03         2.27771        -1.63704        -1.75416        -1.52322         2.16389        -1.75416         1.31407     518.704E-03    -255.102E-03    -263.603E-03    -263.116E-03     518.218E-03    -255.102E-03     36.6755E-03    -23.3256E+06    -81.2399E+06    -108.452E+06    -107.124E+06    -82.5685E+06    -23.3256E+06    -4.34003E+06         62.9545
            2032     6.20224E-03     189.818E-03         2.22401        -1.55587        -1.72582        -1.42373         2.09186        -1.72582         1.38659     526.704E-03    -256.596E-03    -270.107E-03    -269.448E-03     526.044E-03    -256.596E-03     43.5116E-03    -4.87113E+06    -59.4860E+06    -99.4624E+06    -97.0463E+06    -61.9020E+06    -4.87113E+06    -9.00918E+06         63.7534
            2033     6.96380E-03     189.995E-03         2.15530        -1.45016        -1.69267        -1.30430         2.00944        -1.69267         1.41987     536.547E-03    -258.496E-03    -278.051E-03    -277.200E-03     535.696E-03    -258.496E-03     50.8272E-03     11.2219E+06    -36.6413E+06    -90.7069E+06    -86.5534E+06    -40.7947E+06     11.2219E+06    -14.1799E+06         64.7980
            2034     7.71902E-03     190.184E-03         2.07017        -1.32629        -1.65447        -1.17296         1.91684        -1.65447         1.40916     548.216E-03    -260.801E-03    -287.415E-03    -286.351E-03     547.152E-03    -260.801E-03     58.3640E-03     26.3536E+06    -12.4695E+06    -80.7406E+06    -74.3077E+06    -18.9024E+06     26.3536E+06    -19.5293E+06         66.2592
            2035     8.46764E-03     190.380E-03         1.96577        -1.18669        -1.61171        -1.03498         1.81406        -1.61171         1.34850     561.957E-03    -263.523E-03    -298.433E-03    -297.170E-03     560.693E-03    -263.523E-03     65.0750E-03     40.8442E+06     14.7337E+06    -67.8099E+06    -60.5461E+06     7.46993E+06     40.8442E+06    -23.0519E+06         68.4851
            2036     9.20803E-03     190.580E-03         1.85130        -1.03708        -1.56485    -889.052E-03         1.70327        -1.56485         1.27205     577.382E-03    -266.686E-03    -310.696E-03    -309.306E-03     575.991E-03    -266.686E-03     69.6403E-03     52.3187E+06     38.2250E+06    -53.5369E+06    -47.0945E+06     31.7825E+06     52.3187E+06    -21.8924E+06         72.0962
            2037     9.93894E-03     190.777E-03         1.71536    -861.103E-03        -1.51405    -732.031E-03         1.58628        -1.51405         1.12086     593.255E-03    -270.256E-03    -323.000E-03    -321.569E-03     591.825E-03    -270.256E-03     71.9765E-03     56.8605E+06     47.4328E+06    -38.5596E+06    -33.9478E+06     42.8209E+06     56.8605E+06    -17.4193E+06         78.0303
            2038     10.6600E-03     190.967E-03         1.58368    -684.285E-03        -1.45944    -566.565E-03         1.46596        -1.45944         1.00120     608.001E-03    -274.142E-03    -333.859E-03    -332.431E-03     606.573E-03    -274.142E-03     73.1140E-03     56.5804E+06     43.2413E+06    -27.0857E+06    -23.3552E+06     39.5107E+06     56.5804E+06    -15.1977E+06         87.3740
            2039     11.3751E-03     191.147E-03         1.42856    -483.340E-03        -1.40140    -399.314E-03         1.34453        -1.40140     760.976E-03     619.815E-03    -278.173E-03    -341.642E-03    -340.267E-03     618.440E-03    -278.173E-03     72.5173E-03     54.6998E+06     34.3416E+06    -20.3974E+06    -16.6339E+06     30.5781E+06     54.6998E+06    -13.6857E+06         100.738
            2040     12.0865E-03     191.312E-03         1.28068    -292.482E-03        -1.34059    -235.952E-03         1.22415        -1.34059     570.677E-03     627.518E-03    -282.171E-03    -345.347E-03    -343.823E-03     625.994E-03    -282.171E-03     76.6522E-03     64.5718E+06     25.0619E+06    -15.7212E+06    -13.1521E+06     22.4928E+06     64.5718E+06    -8.92399E+06         117.001
            2041     12.7961E-03     191.484E-03         1.14680    -115.545E-03        -1.27768    -78.7252E-03         1.10998        -1.27768     280.228E-03     630.150E-03    -286.004E-03    -344.146E-03    -342.548E-03     628.552E-03    -286.004E-03     78.7150E-03     127.362E+06     57.0237E+06    -10.0476E+06    -8.85851E+06     55.8346E+06     127.362E+06    -4.62878E+06         131.859
            2042     769.318E-06     190.787E-03         2.43149        -1.89465        -1.91470        -1.90257         2.42650        -1.90179     288.624E-03     524.256E-03    -261.856E-03    -262.399E-03    -262.090E-03     524.254E-03    -262.164E-03    -692.907E-06    -184.993E+06    -230.358E+06    -235.291E+06    -231.310E+06    -189.819E+06    -229.513E+06    -2.27936E+06         62.3530
            2043     1.54003E-03     190.821E-03         2.42966        -1.89281        -1.89953        -1.87899         2.41452        -1.89821     486.865E-03     523.852E-03    -261.511E-03    -262.341E-03    -261.632E-03     523.844E-03    -262.212E-03    -1.86031E-03    -166.960E+06    -217.667E+06    -226.639E+06    -222.259E+06    -175.182E+06    -213.826E+06    -7.25164E+06         62.4088
            2044     2.31067E-03     190.881E-03         2.42683        -1.87624        -1.88746        -1.84537         2.39597        -1.88746     721.129E-03     522.916E-03    -260.744E-03    -262.172E-03    -260.727E-03     522.899E-03    -262.172E-03    -1.79722E-03    -142.230E+06    -195.628E+06    -212.368E+06    -207.328E+06    -154.593E+06    -188.304E+06    -10.5794E+06         62.5089
            2045     3.08165E-03     190.960E-03         2.41886        -1.85187        -1.87273        -1.80073         2.36772        -1.87273     920.792E-03     522.617E-03    -260.451E-03    -262.166E-03    -260.423E-03     522.589E-03    -262.166E-03    -608.742E-06    -113.398E+06    -170.107E+06    -194.415E+06    -188.177E+06    -134.555E+06    -155.187E+06    -13.1522E+06         62.6671
            2046     3.85223E-03     191.063E-03         2.40366        -1.81561        -1.85416        -1.74295         2.33100        -1.85416         1.09562     523.282E-03    -260.719E-03    -262.563E-03    -260.900E-03     523.233E-03    -262.333E-03     1.18443E-03    -87.3645E+06    -139.010E+06    -173.377E+06    -166.479E+06    -114.361E+06    -118.912E+06    -15.3542E+06         62.8987
            2047     4.62274E-03     191.187E-03         2.37763        -1.76404        -1.83150        -1.67082         2.28440        -1.83150         1.22547     525.036E-03    -261.307E-03    -263.729E-03    -262.230E-03     524.954E-03    -262.724E-03     3.34149E-03    -63.7637E+06    -107.017E+06    -151.078E+06    -143.539E+06    -94.9617E+06    -83.3581E+06    -17.2740E+06         63.2197
            2048     5.39004E-03     191.335E-03         2.34019        -1.69360        -1.80426        -1.58125         2.22785        -1.80426         1.32635     527.938E-03    -262.072E-03    -265.866E-03    -264.476E-03     527.828E-03    -263.353E-03     6.65903E-03    -42.2050E+06    -76.7476E+06    -129.520E+06    -119.996E+06    -76.8019E+06    -51.6747E+06    -19.4623E+06         63.6507
            2049     6.15446E-03     191.505E-03         2.28872        -1.60452        -1.77203        -1.47615         2.16035        -1.77203         1.38875     532.015E-03    -263.227E-03    -268.789E-03    -267.653E-03     531.870E-03    -264.217E-03     11.6532E-03    -21.1526E+06    -46.4732E+06    -107.633E+06    -97.6971E+06    -54.2723E+06    -23.2890E+06    -20.9071E+06         64.2275
            2050     6.91666E-03     191.692E-03         2.21995        -1.49666        -1.73481        -1.35834         2.08163        -1.73481         1.40646     537.617E-03    -264.980E-03    -272.636E-03    -272.068E-03     537.399E-03    -265.331E-03     18.2105E-03     2.26322E+06    -19.3653E+06    -88.4886E+06    -77.5706E+06    -30.2832E+06     2.26322E+06    -23.2545E+06         65.0272
            2051     7.67590E-03     191.897E-03         2.13471        -1.37027        -1.69285        -1.22824         1.99268        -1.69285         1.38110     545.403E-03    -266.737E-03    -278.666E-03    -278.334E-03     545.071E-03    -266.737E-03     25.6894E-03     23.6581E+06     5.77926E+06    -72.3244E+06    -60.0552E+06    -6.48993E+06     23.6581E+06    -27.0867E+06         66.2169
            2052     8.42878E-03     192.114E-03         2.03071        -1.22085        -1.64635        -1.08497         1.89483        -1.64635         1.30020     555.748E-03    -268.508E-03    -287.240E-03    -286.777E-03     555.285E-03    -268.508E-03     33.7422E-03     38.9163E+06     23.9845E+06    -58.5436E+06    -46.5429E+06     11.9838E+06     38.9163E+06    -28.3225E+06         68.1335
            2053     9.17409E-03     192.341E-03         1.91943        -1.05825        -1.59544    -929.856E-03         1.79104        -1.59544         1.20761     568.169E-03    -270.684E-03    -297.485E-03    -296.885E-03     567.570E-03    -270.684E-03     41.8666E-03     48.3291E+06     35.8677E+06    -46.8842E+06    -36.9456E+06     25.9290E+06     48.3291E+06    -25.9339E+06         71.3927
            2054     9.91108E-03     192.569E-03         1.79058    -873.963E-03        -1.54043    -766.887E-03         1.68350        -1.54043         1.04135     582.187E-03    -273.264E-03    -308.923E-03    -308.169E-03     581.433E-03    -273.264E-03     49.9092E-03     52.5574E+06     44.0595E+06    -37.3831E+06    -29.7953E+06     36.4716E+06     52.5574E+06    -23.3953E+06         76.9630
            2055     10.6410E-03     192.788E-03         1.66909    -696.101E-03        -1.48197    -603.303E-03         1.57629        -1.48197     912.706E-03     597.019E-03    -276.245E-03    -320.775E-03    -319.861E-03     596.106E-03    -276.245E-03     57.0149E-03     54.6214E+06     42.1778E+06    -29.8255E+06    -23.8541E+06     36.2063E+06     54.6214E+06    -19.6266E+06         86.0335
            2056     11.3622E-03     192.995E-03         1.53723    -507.463E-03        -1.42097    -444.170E-03         1.47394        -1.42097     676.458E-03     610.708E-03    -279.536E-03    -331.172E-03    -330.173E-03     609.708E-03    -279.536E-03     61.0148E-03     51.7772E+06     26.0772E+06    -23.8427E+06    -19.5450E+06     21.7795E+06     51.7772E+06    -13.8789E+06         99.3918
            2057     12.0768E-03     193.178E-03         1.42033    -330.651E-03        -1.35825    -291.959E-03         1.38163        -1.35825     498.961E-03     620.286E-03    -282.982E-03    -337.303E-03    -336.125E-03     619.107E-03    -282.982E-03     66.8680E-03     59.8967E+06     13.6198E+06    -18.9026E+06    -14.8270E+06     9.54419E+06     59.8967E+06    -9.00244E+06         116.043
            2058     12.7915E-03     193.355E-03         1.33312    -175.548E-03        -1.29435    -148.713E-03         1.30629        -1.29435     243.268E-03     622.648E-03    -286.387E-03    -336.260E-03    -334.923E-03     621.310E-03    -286.387E-03     71.5039E-03     125.575E+06     47.8095E+06    -9.00073E+06    -6.53534E+06     45.3441E+06     125.575E+06    -4.71493E+06         131.567
            2059     760.054E-06     192.499E-03         2.29748        -1.91407        -1.94786        -1.92107         2.29289        -1.93626     258.898E-03     555.310E-03    -277.157E-03    -278.152E-03    -277.503E-03     555.284E-03    -277.781E-03    -6.94175E-03    -156.373E+06    -228.746E+06    -233.086E+06    -229.188E+06    -159.471E+06    -229.546E+06    -12.0339E+06         64.7699
            2060     1.51690E-03     192.533E-03         2.30062        -1.90918        -1.92204        -1.89404         2.28548        -1.92204     486.517E-03     553.920E-03    -276.157E-03    -277.763E-03    -276.216E-03     553.851E-03    -277.634E-03    -13.3581E-03    -136.344E+06    -215.381E+06    -228.302E+06    -221.514E+06    -143.133E+06    -215.381E+06    -22.3966E+06         64.7656
            2061     2.27659E-03     192.585E-03         2.30296        -1.89090        -1.90765        -1.86112         2.27318        -1.90765     698.962E-03     552.196E-03    -274.835E-03    -277.361E-03    -274.699E-03     552.060E-03    -277.361E-03    -18.7238E-03    -115.495E+06    -194.123E+06    -222.166E+06    -210.375E+06    -127.286E+06    -194.123E+06    -31.8333E+06         64.7664
            2062     3.03755E-03     192.663E-03         2.30265        -1.87003        -1.89151        -1.82087         2.25349        -1.89151     892.966E-03     550.833E-03    -273.669E-03    -277.164E-03    -273.422E-03     550.586E-03    -277.164E-03    -24.5341E-03    -94.2318E+06    -168.013E+06    -212.461E+06    -194.775E+06    -111.918E+06    -168.013E+06    -40.3711E+06         64.7837
            2063     3.79831E-03     192.763E-03         2.29393        -1.83911        -1.87304        -1.77082         2.22565        -1.87304         1.05188     549.711E-03    -272.601E-03    -277.110E-03    -272.226E-03     549.336E-03    -277.110E-03    -29.9807E-03    -74.4070E+06    -137.628E+06    -198.563E+06    -174.939E+06    -98.0314E+06    -137.628E+06    -46.8281E+06         64.8276
            2064     4.55724E-03     192.888E-03         2.27507        -1.78406        -1.85076        -1.69752         2.18854        -1.85076         1.16921     548.567E-03    -271.411E-03    -277.156E-03    -270.938E-03     548.094E-03    -277.156E-03    -33.5443E-03    -54.5962E+06    -105.492E+06    -180.614E+06    -151.861E+06    -83.3498E+06    -105.492E+06    -51.4900E+06         64.9112
            2065     5.31638E-03     193.036E-03         2.24409        -1.70427        -1.82303        -1.60214         2.14195        -1.82303         1.25239     547.369E-03    -270.128E-03    -277.241E-03    -269.597E-03     546.838E-03    -277.241E-03    -34.5313E-03    -37.2140E+06    -75.4581E+06    -160.599E+06    -128.583E+06    -69.2297E+06    -75.4581E+06    -53.5359E+06         65.0550
            2066     6.07660E-03     193.205E-03         2.19685        -1.60474        -1.78950        -1.49164         2.08374        -1.78950         1.28964     546.531E-03    -269.182E-03    -277.349E-03    -268.620E-03     545.969E-03    -277.349E-03    -33.3569E-03    -18.4282E+06    -48.8634E+06    -139.384E+06    -105.565E+06    -53.0995E+06    -48.0114E+06    -53.7518E+06         65.2971
            2067     6.83578E-03     193.397E-03         2.13084        -1.48959        -1.75070        -1.37189         2.01314        -1.75070         1.28243     546.817E-03    -268.947E-03    -277.871E-03    -268.754E-03     546.282E-03    -277.528E-03    -30.0317E-03     6.35410E+06    -25.6062E+06    -115.768E+06    -83.5042E+06    -29.9751E+06    -21.5405E+06    -52.3760E+06         65.7141
            2068     7.59204E-03     193.608E-03         2.04745        -1.35737        -1.70724        -1.24130         1.93139        -1.70724         1.23287     548.784E-03    -269.149E-03    -279.635E-03    -270.486E-03     548.346E-03    -277.860E-03    -23.9996E-03     25.2595E+06    -3.91269E+06    -93.1483E+06    -65.4884E+06    -8.71086E+06     2.39773E+06    -48.1348E+06         66.4641
            2069     8.34654E-03     193.838E-03         1.94628        -1.19929        -1.65912        -1.09308         1.84006        -1.65912         1.13245     552.334E-03    -269.515E-03    -282.819E-03    -273.627E-03     552.017E-03    -278.391E-03    -14.8881E-03     36.0931E+06     14.6973E+06    -73.4712E+06    -51.3375E+06     5.34416E+06     23.3125E+06    -41.5558E+06         67.8658
            2070     9.09842E-03     194.081E-03         1.83617        -1.02270        -1.60609    -928.453E-03         1.74192        -1.60609         1.01581     557.869E-03    -270.956E-03    -286.913E-03    -278.516E-03     557.640E-03    -279.124E-03    -2.91517E-03     44.2703E+06     27.8439E+06    -56.6369E+06    -39.3746E+06     14.5327E+06     40.3191E+06    -34.0257E+06         70.5190
            2071     9.84796E-03     194.329E-03         1.71235    -829.426E-03        -1.54835    -755.989E-03         1.63891        -1.54835     840.794E-03     566.373E-03    -274.318E-03    -292.055E-03    -286.033E-03     566.146E-03    -280.113E-03     10.6418E-03     52.4692E+06     35.7237E+06    -40.8565E+06    -30.3997E+06     25.2669E+06     52.4692E+06    -24.3444E+06         75.4098
            2072     10.5907E-03     194.578E-03         1.59370    -644.815E-03        -1.48685    -587.622E-03         1.53651        -1.48685     696.459E-03     577.528E-03    -279.262E-03    -298.266E-03    -295.763E-03     577.214E-03    -281.450E-03     24.6023E-03     58.7302E+06     33.1237E+06    -30.1566E+06    -25.6309E+06     28.5981E+06     58.7302E+06    -15.8573E+06         83.8516
            2073     11.3266E-03     194.814E-03         1.47685    -464.276E-03        -1.42284    -428.218E-03         1.44079        -1.42284     485.806E-03     589.866E-03    -283.044E-03    -306.822E-03    -306.264E-03     589.392E-03    -283.127E-03     37.8213E-03     53.0201E+06     23.0036E+06    -25.1502E+06    -20.9476E+06     18.8010E+06     53.0201E+06    -13.2634E+06         96.9473
            2074     12.0555E-03     195.024E-03         1.37988    -298.226E-03        -1.35738    -279.005E-03         1.36066        -1.35738     337.466E-03     600.595E-03    -285.146E-03    -315.449E-03    -314.685E-03     599.831E-03    -285.146E-03     51.5972E-03     56.9841E+06     9.49638E+06    -24.1437E+06    -15.0820E+06     434.648E+03     56.9841E+06    -12.6416E+06         114.137
            2075     12.7794E-03     195.206E-03         1.32204    -160.244E-03        -1.29132    -146.342E-03         1.30813        -1.29132     156.485E-03     604.007E-03    -287.354E-03    -316.653E-03    -315.623E-03     602.977E-03    -287.354E-03     61.3157E-03     119.344E+06     35.6393E+06    -15.9999E+06    -9.04986E+06     28.6893E+06     119.344E+06    -7.77336E+06         130.809
            2076     739.861E-06     194.275E-03         2.06946        -1.95859        -1.98164        -1.95513         2.06543        -1.98107     218.648E-03     599.087E-03    -298.692E-03    -300.395E-03    -299.196E-03     599.019E-03    -299.823E-03    -13.8264E-03    -95.8364E+06    -131.181E+06    -140.247E+06    -133.810E+06    -102.274E+06    -131.181E+06    -14.2213E+06         68.2565
            2077     1.48613E-03     194.303E-03         2.07758        -1.94981        -1.96378        -1.93757         2.06476        -1.96321     442.218E-03     599.540E-03    -298.892E-03    -300.648E-03    -299.330E-03     599.253E-03    -299.922E-03    -29.5509E-03    -76.1776E+06    -120.798E+06    -143.160E+06    -129.942E+06    -89.3955E+06    -120.798E+06    -25.5459E+06         68.1960
            2078     2.23001E-03     194.354E-03         2.08336        -1.92392        -1.95073        -1.90100         2.06044        -1.95073     597.060E-03     599.332E-03    -298.622E-03    -300.710E-03    -298.307E-03     598.619E-03    -300.312E-03    -47.0028E-03    -56.4835E+06    -104.912E+06    -143.817E+06    -122.702E+06    -77.5983E+06    -104.912E+06    -36.2654E+06         68.0917
            2079     2.97221E-03     194.428E-03         2.08618        -1.89395        -1.93560        -1.85670         2.04892        -1.93560     754.302E-03     597.132E-03    -296.599E-03    -300.534E-03    -295.309E-03     595.842E-03    -300.534E-03    -63.7677E-03    -39.5616E+06    -86.4321E+06    -143.035E+06    -114.083E+06    -68.5137E+06    -86.4321E+06    -45.7310E+06         67.9436
            2080     3.71480E-03     194.523E-03         2.07901        -1.84696        -1.91743        -1.79696         2.02900        -1.91743     872.375E-03     593.164E-03    -292.738E-03    -300.426E-03    -290.806E-03     591.232E-03    -300.426E-03    -78.1317E-03    -24.1820E+06    -68.9824E+06    -142.121E+06    -105.113E+06    -61.1899E+06    -68.9824E+06    -54.1984E+06         67.7555
            2081     4.46012E-03     194.641E-03         2.06219        -1.77638        -1.89469        -1.71420         2.00001        -1.89469     957.248E-03     587.844E-03    -287.849E-03    -299.995E-03    -285.265E-03     585.260E-03    -299.995E-03    -89.4867E-03    -12.3089E+06    -53.9559E+06    -140.258E+06    -97.4520E+06    -55.1151E+06    -53.9559E+06    -60.0028E+06         67.5378
            2082     5.20766E-03     194.779E-03         2.03283        -1.68067        -1.86614        -1.60913         1.96130        -1.86614         1.01035     581.816E-03    -282.499E-03    -299.317E-03    -279.346E-03     578.663E-03    -299.317E-03    -97.6806E-03    -2.14664E+06    -39.0140E+06    -135.985E+06    -90.1066E+06    -48.0251E+06    -39.0140E+06    -63.0964E+06         67.3121
            2083     5.95547E-03     194.942E-03         1.98619        -1.56281        -1.83150        -1.48716         1.91054        -1.83150         1.01222     575.469E-03    -276.995E-03    -298.474E-03    -273.431E-03     571.905E-03    -298.474E-03    -102.658E-03     7.63213E+06    -24.0328E+06    -130.888E+06    -82.7329E+06    -40.5225E+06    -24.0328E+06    -65.6289E+06         67.1168
            2084     6.70565E-03     195.125E-03         1.92202        -1.42973        -1.79121        -1.35473         1.84702        -1.79121     977.173E-03     568.827E-03    -271.333E-03    -297.494E-03    -267.587E-03     565.081E-03    -297.494E-03    -103.558E-03     19.0636E+06    -10.6621E+06    -122.232E+06    -76.2907E+06    -27.8253E+06    -9.71416E+06    -65.2568E+06         67.0234
            2085     7.45905E-03     195.333E-03         1.83948        -1.27939        -1.74572        -1.21015         1.77024        -1.74572     902.279E-03     562.181E-03    -265.775E-03    -296.406E-03    -262.154E-03     558.560E-03    -296.406E-03    -99.2855E-03     29.0323E+06     2.10122E+06    -109.525E+06    -69.4775E+06    -15.0848E+06     6.17054E+06    -60.9680E+06         67.1778
            2086     8.21381E-03     195.559E-03         1.74024        -1.10729        -1.69483        -1.04808         1.68103        -1.69483     793.101E-03     555.905E-03    -260.696E-03    -295.210E-03    -257.507E-03     552.717E-03    -295.210E-03    -89.9434E-03     36.6501E+06     14.7932E+06    -94.7780E+06    -61.0630E+06    -6.14123E+06     23.8696E+06    -53.9656E+06         67.8768
            2087     8.97233E-03     195.801E-03         1.62929    -916.961E-03        -1.63813    -869.461E-03         1.58179        -1.63813     668.003E-03     551.123E-03    -257.197E-03    -293.926E-03    -254.728E-03     548.654E-03    -293.926E-03    -75.3088E-03     44.2536E+06     22.2598E+06    -78.9524E+06    -51.3957E+06    -1.34573E+06     40.3024E+06    -45.7241E+06         69.6867
            2088     9.73059E-03     196.058E-03         1.50819    -716.531E-03        -1.57569    -683.501E-03         1.47516        -1.57569     509.265E-03     549.002E-03    -256.375E-03    -292.628E-03    -254.813E-03     547.441E-03    -292.628E-03    -55.2930E-03     51.3114E+06     19.2517E+06    -62.6019E+06    -41.5502E+06    -1.80004E+06     51.3114E+06    -33.4163E+06         73.5773
            2089     10.4895E-03     196.320E-03         1.38855    -525.514E-03        -1.50841    -504.414E-03         1.36745        -1.50841     371.756E-03     550.075E-03    -258.673E-03    -291.403E-03    -257.948E-03     549.351E-03    -291.403E-03    -30.4847E-03     60.8621E+06     21.4706E+06    -41.0162E+06    -29.6184E+06     10.0728E+06     60.8621E+06    -20.8052E+06         80.9623
            2090     11.2481E-03     196.577E-03         1.27694    -350.030E-03        -1.43770    -338.362E-03         1.26528        -1.43770     212.968E-03     554.950E-03    -262.256E-03    -292.694E-03    -264.326E-03     554.693E-03    -290.367E-03    -2.74172E-03     67.0792E+06     30.0381E+06    -23.5021E+06    -16.6194E+06     23.1554E+06     67.0792E+06    -17.5076E+06         93.3328
            2091     12.0047E-03     196.813E-03         1.18249    -193.097E-03        -1.36510    -188.393E-03         1.17779        -1.36510     111.768E-03     562.863E-03    -266.587E-03    -296.275E-03    -272.845E-03     562.554E-03    -289.709E-03     24.9333E-03     71.4750E+06     15.4832E+06    -29.7141E+06    -7.41162E+06    -6.81928E+06     71.4750E+06    -12.5557E+06         110.842
            2092     12.7590E-03     197.013E-03         1.12265    -65.1549E-03        -1.29204    -60.9038E-03         1.11840        -1.29204     29.8466E-03     566.869E-03    -269.895E-03    -296.974E-03    -276.845E-03     566.255E-03    -289.410E-03     44.3222E-03     117.349E+06     28.9535E+06    -19.8283E+06    -305.459E+03     9.43070E+06     117.349E+06    -4.52631E+06         129.333
            2093     725.666E-06     196.140E-03         2.00246        -2.20025        -2.21855        -2.19828         1.99992        -2.21797     38.8630E-03     675.233E-03    -336.471E-03    -338.762E-03    -336.736E-03     674.696E-03    -337.960E-03    -39.1166E-03    -7.28254E+06    -15.6469E+06    -55.3533E+06    -17.2219E+06    -45.5549E+06    -15.5060E+06    -10.3252E+06         72.1136
            2094     1.44054E-03     196.178E-03         1.99596        -2.16641        -2.20679        -2.16144         1.99041        -2.20622     175.659E-03     674.557E-03    -335.876E-03    -338.682E-03    -335.216E-03     673.172E-03    -337.956E-03    -68.6386E-03     2.43402E+06    -12.9352E+06    -56.1007E+06    -18.3379E+06    -36.5766E+06    -11.6873E+06    -17.8825E+06         71.9819
            2095     2.15375E-03     196.230E-03         1.97784        -2.10291        -2.18971        -2.09369         1.96862        -2.18971     193.104E-03     672.559E-03    -334.222E-03    -338.337E-03    -332.048E-03     669.988E-03    -337.940E-03    -97.3058E-03     13.0913E+06    -7.18266E+06    -57.6872E+06    -17.8217E+06    -31.1739E+06    -2.78295E+06    -24.6125E+06         71.7581
            2096     2.86948E-03     196.295E-03         1.95161        -2.02237        -2.16643        -2.00802         1.93725        -2.16643     253.987E-03     667.817E-03    -330.264E-03    -337.554E-03    -326.203E-03     663.757E-03    -337.554E-03    -123.291E-03     23.0429E+06     -959.72E+03    -58.1166E+06    -17.1215E+06    -27.0756E+06     8.16370E+06    -29.2816E+06         71.4348
            2097     3.58888E-03     196.379E-03         1.91231        -1.91545        -2.13695        -1.89656         1.89342        -2.13695     286.533E-03     660.748E-03    -324.068E-03    -336.680E-03    -318.238E-03     654.918E-03    -336.680E-03    -147.245E-03     32.8658E+06     4.39906E+06    -59.1920E+06    -17.3237E+06    -24.3424E+06     19.7389E+06    -32.9849E+06         71.0125
            2098     4.31122E-03     196.480E-03         1.86239        -1.78721        -2.10087        -1.76416         1.83934        -2.10087     307.087E-03     651.892E-03    -316.516E-03    -335.376E-03    -308.685E-03     644.060E-03    -335.376E-03    -169.281E-03     41.2299E+06     9.12121E+06    -59.9412E+06    -17.6975E+06    -22.7772E+06     30.8845E+06    -35.5275E+06         70.4986
            2099     5.03757E-03     196.601E-03         1.80017        -1.63692        -2.05805        -1.61098         1.77423        -2.05805     322.543E-03     641.004E-03    -307.333E-03    -333.671E-03    -297.397E-03     631.068E-03    -333.671E-03    -188.238E-03     48.7765E+06     13.3250E+06    -60.1608E+06    -17.7926E+06    -20.9502E+06     40.6834E+06    -37.8181E+06         69.9100
            2100     5.76983E-03     196.744E-03         1.72388        -1.46720        -2.00842        -1.44058         1.69725        -2.00842     305.029E-03     628.140E-03    -296.569E-03    -331.571E-03    -284.658E-03     616.229E-03    -331.571E-03    -202.545E-03     55.0011E+06     17.7601E+06    -58.9957E+06    -18.3734E+06    -18.6440E+06     50.7830E+06    -38.2262E+06         69.2798
            2101     6.50741E-03     196.906E-03         1.63638        -1.28488        -1.95222        -1.25935         1.61085        -1.95222     281.830E-03     613.776E-03    -284.695E-03    -329.081E-03    -271.115E-03     600.196E-03    -329.081E-03    -211.820E-03     61.7202E+06     21.0643E+06    -56.2148E+06    -19.1690E+06    -15.0983E+06     60.8370E+06    -37.3624E+06         68.6748
            2102     7.25055E-03     197.089E-03         1.53621        -1.09132        -1.88952        -1.06896         1.51385        -1.88952     237.535E-03     597.389E-03    -271.222E-03    -326.167E-03    -256.431E-03     582.597E-03    -326.167E-03    -215.380E-03     69.6682E+06     22.2627E+06    -51.3853E+06    -19.8479E+06    -9.27471E+06     69.6682E+06    -35.2675E+06         68.2298
            2103     8.00395E-03     197.292E-03         1.42647    -890.663E-03        -1.82031    -872.387E-03         1.40819        -1.82031     187.637E-03     579.470E-03    -256.679E-03    -322.791E-03    -241.336E-03     564.127E-03    -322.791E-03    -212.379E-03     76.0457E+06     20.3686E+06    -47.4612E+06    -21.1133E+06    -5.97927E+06     76.0457E+06    -32.3947E+06         68.2176
            2104     8.76453E-03     197.514E-03         1.31006    -686.548E-03        -1.74474    -672.843E-03         1.29635        -1.74474     131.986E-03     560.772E-03    -241.820E-03    -318.951E-03    -226.867E-03     545.818E-03    -318.951E-03    -201.252E-03     79.0372E+06     15.8131E+06    -44.4221E+06    -23.0143E+06    -5.59472E+06     79.0372E+06    -28.0335E+06         69.1648
            2105     9.53665E-03     197.753E-03         1.19062    -487.203E-03        -1.66322    -477.703E-03         1.18112        -1.66322     66.1269E-03     541.766E-03    -227.112E-03    -314.655E-03    -213.624E-03     528.279E-03    -314.655E-03    -180.634E-03     77.2328E+06     8.67502E+06    -44.4487E+06    -23.8662E+06    -11.9075E+06     77.2328E+06    -24.7883E+06         72.0075
            2106     10.3201E-03     198.005E-03         1.07434    -304.818E-03        -1.57683    -298.934E-03         1.06845        -1.57683     11.5775E-03     524.109E-03    -214.169E-03    -309.939E-03    -203.114E-03     513.054E-03    -309.939E-03    -150.829E-03     76.3921E+06     9.82576E+06    -38.3545E+06    -20.6639E+06    -7.86480E+06     76.3921E+06    -21.4328E+06         78.2074
            2107     11.1133E-03     198.263E-03     967.556E-03    -147.350E-03        -1.48722    -142.493E-03     962.699E-03        -1.48722    -43.8382E-03     509.867E-03    -204.919E-03    -304.948E-03    -197.152E-03     502.100E-03    -304.948E-03    -111.719E-03     85.0097E+06     26.5740E+06    -24.5832E+06    -15.7604E+06     17.7513E+06     85.0097E+06    -16.2137E+06         89.5348
            2108     11.9116E-03     198.513E-03     871.326E-03    -13.8572E-03        -1.39618    -10.6652E-03     868.134E-03        -1.39618    -64.1617E-03     499.189E-03    -199.387E-03    -299.802E-03    -195.424E-03     495.226E-03    -299.802E-03    -62.1452E-03     84.3628E+06     14.0145E+06    -37.1750E+06    -11.8466E+06    -11.3140E+06     84.3628E+06    -9.15645E+06         106.807
            2109     12.7091E-03     198.732E-03     792.352E-03     95.3944E-03        -1.30549     97.5238E-03     790.223E-03        -1.30549    -54.4102E-03     488.431E-03    -193.985E-03    -294.446E-03    -192.836E-03     487.281E-03    -294.446E-03    -8.35264E-03     105.365E+06     21.8117E+06    -28.9372E+06    -4.53384E+06    -2.59170E+06     105.365E+06    -4.62716E+06         126.474


