********************************************************************************
Field Output Report, written Tue May  6 15:09:38 2025

Source 1
---------

   ODB: D:/AISI_1020/Vel_40/aisi_1020_2a_8_red_150_cal_30_vel_40_fric_025.odb
   Step: Step-1
   Frame: Increment   1465543: Step Time =   0.2087

Loc 1 : Nodal values from source 1

Output sorted by column "Node Label".

Field Output reported at nodes for region: DIE_2A_8_D0_36-1.Region_1
   Computation algorithm: EXTRAPOLATE_COMPUTE_AVERAGE
   Averaged at nodes
   Averaging regions: ODB_REGIONS

      Node Label     COORD.COOR1     COORD.COOR2
                          @Loc 1          @Loc 1
-------------------------------------------------
               1     18.9668E-03     121.943E-03


Field Output reported at nodes for region: DIE_2A_8_D0_36-1.Region_2
   Computation algorithm: EXTRAPOLATE_COMPUTE_AVERAGE
   Averaged at nodes
   Averaging regions: ODB_REGIONS

      Node Label     COORD.COOR1     COORD.COOR2
                          @Loc 1          @Loc 1
-------------------------------------------------
               1     18.9668E-03     121.943E-03


Field Output reported at nodes for part: WIRE_1-1
   Computation algorithm: EXTRAPOLATE_COMPUTE_AVERAGE
   Averaged at nodes
   Averaging regions: ODB_REGIONS

      Node Label     COORD.COOR1     COORD.COOR2    ER.Max. Prin    ER.Mid. Prin    ER.Min. Prin         ER.ER11         ER.ER22         ER.ER33         ER.ER12    PE.Max. Prin    PE.Mid. Prin    PE.Min. Prin         PE.PE11         PE.PE22         PE.PE33         PE.PE12     S.Max. Prin     S.Mid. Prin     S.Min. Prin           S.S11           S.S22           S.S33           S.S12            TEMP
                          @Loc 1          @Loc 1          @Loc 1          @Loc 1          @Loc 1          @Loc 1          @Loc 1          @Loc 1          @Loc 1          @Loc 1          @Loc 1          @Loc 1          @Loc 1          @Loc 1          @Loc 1          @Loc 1          @Loc 1          @Loc 1          @Loc 1          @Loc 1          @Loc 1          @Loc 1          @Loc 1          @Loc 1
-----------------------------------------------------------------------------------------------------------------------------------------------------------------------------------------------------------------------------------------------------------------------------------------------------------------------------------------------------------------------------------------------------------------
               1     17.7195E-03     56.8696E-03         1.23235     959.803E-03        -4.13192         1.22426        -4.12382     959.803E-03     406.997E-03     30.6084E-03    -14.6910E-03    -15.9174E-03    -14.5371E-03     30.4545E-03    -15.9174E-03    -5.27006E-03     222.437E+06     69.6478E+06    -2.49095E+06    -2.49064E+06     222.437E+06     69.6478E+06    -252.634E+03         32.6240
               2     226.725E-09     56.7055E-03         2.79218     596.484E-03        -5.39777         2.21851        -4.82411     596.484E-03         3.80137     32.5728E-03    -16.2056E-03    -16.3672E-03    -16.3606E-03     32.5663E-03    -16.2056E-03     1.12861E-03    -16.6032E+06    -17.0855E+06    -191.183E+06    -16.7938E+06    -191.181E+06    -16.8973E+06    -220.239E+03         22.4397
               3     1.50699E-06     20.8167E-18         11.5118        -4.31006        -5.40159        -4.17201         11.3737        -5.40159        -2.94290     66.2891E-03    -32.7084E-03    -33.5806E-03    -33.5706E-03     66.2790E-03    -32.7084E-03     2.00080E-03    -17.2515E+06    -18.1335E+06    -173.279E+06    -17.2702E+06    -173.260E+06    -18.1335E+06    -1.70750E+06         25.7998
               4     17.5976E-03     20.8167E-18         5.25077        -1.13601        -2.60346        -1.13466         5.24942        -2.60346     185.159E-03     48.7710E-03    -21.5865E-03    -27.1845E-03    -20.2016E-03     41.7881E-03    -21.5865E-03     43.8919E-03     243.340E+06     73.3004E+06     5.64805E+06     5.70249E+06     243.286E+06     73.3004E+06     3.59649E+06         31.8225
               5     17.7018E-03     113.968E-03     127.571E-03     39.0108E-03    -160.698E-03     38.9180E-03    -160.605E-03     127.571E-03     8.60434E-03     9.23449E-03     6.80934E-03    -16.0438E-03     8.00634E-03     8.03749E-03    -16.0438E-03     2.42495E-03     13.3049E+06    -22.8713E+06    -50.9767E+06    -22.3022E+06     12.7358E+06    -50.9767E+06     4.50151E+06         32.0744
               6     639.655E-09     113.188E-03     632.640E-03     327.151E-03    -577.883E-03     601.230E-03    -546.473E-03     327.151E-03     384.890E-03     19.7381E-03    -9.72008E-03    -10.0180E-03    -10.0167E-03     19.7368E-03    -9.72008E-03    -401.329E-06     38.7531E+06     36.2614E+06    -730.107E+03     36.1207E+06    -589.405E+03     38.7531E+06    -2.27706E+06         21.2054
               7     16.7335E-03     56.8757E-03         1.14602     954.335E-03        -4.03703         1.14171        -4.03272     954.335E-03     168.820E-03     31.4804E-03    -14.9934E-03    -16.4871E-03    -14.9509E-03     30.5575E-03    -15.6066E-03     6.34898E-03     193.500E+06     33.4522E+06    -35.2522E+06    -2.61133E+06     193.494E+06     817.131E+03     500.006E+03         31.6574
               8     15.7501E-03     56.8566E-03         1.07630     947.576E-03        -3.95074     992.795E-03        -3.86724     947.576E-03    -936.039E-03     32.5338E-03    -15.3796E-03    -17.1542E-03    -15.3473E-03     30.7269E-03    -15.3796E-03     18.5882E-03     138.184E+06    -223.555E+03    -59.4068E+06    -200.184E+03     138.160E+06    -59.4068E+06     1.58543E+06         29.6838
               9     14.7643E-03     56.8380E-03         1.03762     909.254E-03        -3.86190     862.908E-03        -3.72714     949.209E-03        -1.58669     32.7429E-03    -15.5632E-03    -17.1797E-03    -15.4766E-03     31.0399E-03    -15.5632E-03     18.0793E-03     86.5322E+06     4.08673E+06    -39.4476E+06     4.11509E+06     86.5038E+06    -39.4476E+06     475.522E+03         27.8303
              10     13.7803E-03     56.8195E-03     975.182E-03     806.825E-03        -3.69243     736.002E-03        -3.60651     960.085E-03        -1.22763     32.7340E-03    -15.7420E-03    -16.9920E-03    -15.6373E-03     31.3792E-03    -15.7420E-03     16.1698E-03     43.9679E+06     6.07931E+06    -18.7680E+06     6.57171E+06     43.4755E+06    -18.7680E+06    -2.64015E+06         26.3469
              11     12.7952E-03     56.8044E-03     981.286E-03     723.650E-03        -3.62147     633.866E-03        -3.53168     981.286E-03        -1.22529     32.6091E-03    -15.8844E-03    -16.7247E-03    -15.7162E-03     31.6006E-03    -15.8844E-03     13.8784E-03     17.0412E+06     4.65915E+06    -8.62513E+06     7.28037E+06     8.99683E+06    -3.20195E+06    -2.62571E+06         25.2542
              12     11.8110E-03     56.7914E-03         1.01180     717.306E-03        -3.65947     593.817E-03        -3.53598         1.01180        -1.44680     32.5800E-03    -15.9827E-03    -16.5973E-03    -15.8265E-03     31.8092E-03    -15.9827E-03     12.2150E-03     7.43340E+06     3.58665E+06    -25.5325E+06     7.38362E+06    -25.4827E+06     3.58665E+06    -191.788E+03         24.4781
              13     10.8265E-03     56.7790E-03         1.04818     809.402E-03        -3.79665     623.522E-03        -3.61077         1.04818        -1.79843     32.6449E-03    -16.0655E-03    -16.5794E-03    -15.8949E-03     31.9604E-03    -16.0655E-03     11.5144E-03     10.3579E+06     5.52098E+06    -54.8465E+06     7.17442E+06    -54.8375E+06     8.69540E+06     206.499E+03         23.9325
              14     9.84200E-03     56.7677E-03         1.08780     812.292E-03        -3.83796     674.744E-03        -3.70041         1.08780        -1.45114     32.6318E-03    -16.1536E-03    -16.4782E-03    -15.9318E-03     32.0854E-03    -16.1536E-03     10.2796E-03     17.2854E+06     6.09085E+06    -73.8358E+06     6.07799E+06    -73.8230E+06     17.2854E+06     535.918E+03         23.5437
              15     8.85780E-03     56.7579E-03         1.13248     810.944E-03        -3.87453     694.965E-03        -3.75855         1.13248     530.885E-03     32.6270E-03    -16.2142E-03    -16.4128E-03    -15.9582E-03     32.1724E-03    -16.2142E-03     9.39700E-03     20.6552E+06     4.37555E+06    -90.9578E+06     4.36643E+06    -90.9487E+06     20.6552E+06     698.441E+03         23.2583
              16     7.87334E-03     56.7483E-03         1.38652         1.05000        -4.36728     736.029E-03        -3.85144         1.18465         3.10398     32.6580E-03    -16.2602E-03    -16.3978E-03    -15.9963E-03     32.2565E-03    -16.2602E-03     8.83076E-03     20.0096E+06     2.16894E+06    -110.278E+06     2.16819E+06    -110.277E+06     20.0096E+06    -59.3022E+03         23.0421
              17     6.88910E-03     56.7397E-03         1.44305         1.07851        -4.46217     841.937E-03        -4.02374         1.24118         2.59291     32.6915E-03    -16.2990E-03    -16.3925E-03    -16.0533E-03     32.3523E-03    -16.2990E-03     8.12495E-03     18.5021E+06    -596.927E+03    -126.813E+06    -597.355E+03    -126.813E+06     18.5021E+06    -177.097E+03         22.8748
              18     5.90480E-03     56.7315E-03         1.29509         1.02479        -4.27342     992.315E-03        -4.24094         1.29509     813.623E-03     32.7035E-03    -16.3194E-03    -16.3841E-03    -16.1036E-03     32.4229E-03    -16.3194E-03     7.38910E-03     14.1501E+06    -3.39119E+06    -141.330E+06    -3.39140E+06    -141.330E+06     14.1501E+06     8.55275E+03         22.7441
              19     4.92059E-03     56.7243E-03         1.41396         1.23853        -4.61243         1.09145        -4.39754         1.34615         1.92216     32.7094E-03    -16.3382E-03    -16.3712E-03    -16.1544E-03     32.4926E-03    -16.3382E-03     6.49024E-03     8.96606E+06    -6.24748E+06    -157.628E+06    -6.24780E+06    -157.628E+06     8.96606E+06     131.898E+03         22.6424
              20     3.93637E-03     56.7181E-03         1.52619         1.39307        -4.88033         1.19601        -4.55439         1.39732         2.77484     32.7409E-03    -16.3545E-03    -16.3864E-03    -16.2318E-03     32.5862E-03    -16.3545E-03     5.47964E-03     3.94133E+06    -9.24211E+06    -174.067E+06    -9.24270E+06    -174.066E+06     3.94133E+06     217.503E+03         22.5650
              21     2.95231E-03     56.7130E-03         1.51109         1.42487        -4.89779         1.28851        -4.70037         1.45003         2.16068     32.7214E-03    -16.3419E-03    -16.3795E-03    -16.2819E-03     32.6238E-03    -16.3419E-03     4.32723E-03    -3.08538E+06    -12.1623E+06    -184.055E+06    -12.1631E+06    -184.054E+06    -3.08538E+06     252.571E+03         22.5086
              22     1.96821E-03     56.7092E-03         1.62504         1.46043        -5.07515         1.46607        -4.93710         1.48134     85.9549E-03     32.6470E-03    -16.3114E-03    -16.3356E-03    -16.2869E-03     32.5983E-03    -16.3114E-03     3.01375E-03    -10.4476E+06    -14.5778E+06    -187.413E+06    -14.5790E+06    -187.412E+06    -10.4476E+06     391.160E+03         22.4702
              23     984.073E-06     56.7068E-03         2.28249         1.04095        -5.33765         1.93031        -4.98547         1.04095         1.05593     32.5929E-03    -16.2518E-03    -16.3411E-03    -16.3238E-03     32.5756E-03    -16.2518E-03     1.73457E-03    -15.0279E+06    -16.3156E+06    -189.843E+06    -16.1708E+06    -189.841E+06    -15.1750E+06     148.747E+03         22.4474
              24    -79.1270E-09     55.6735E-03         4.25905     580.029E-03        -6.77817         2.50565        -5.02477     580.029E-03         7.96590     32.6190E-03    -16.2368E-03    -16.3823E-03    -16.3752E-03     32.6120E-03    -16.2368E-03     1.17173E-03    -15.4690E+06    -15.9333E+06    -190.555E+06    -15.6592E+06    -190.554E+06    -15.7451E+06     561.867E+03         22.4412
              25     208.023E-09     54.6411E-03         5.83249     542.711E-03        -8.23543         2.67638        -5.07931     542.711E-03         11.7022     32.6243E-03    -16.2266E-03    -16.3976E-03    -16.3912E-03     32.6179E-03    -16.2266E-03     1.12032E-03    -17.5298E+06    -18.3107E+06    -190.938E+06    -18.0367E+06    -190.936E+06    -17.8059E+06     576.044E+03         22.4424
              26    -4.77910E-09     53.6091E-03         7.07431     530.233E-03        -9.40823         2.65686        -4.99077     530.233E-03         14.5847     32.5760E-03    -16.2137E-03    -16.3624E-03    -16.3563E-03     32.5700E-03    -16.2137E-03     1.08405E-03    -18.5966E+06    -19.7907E+06    -189.690E+06    -19.1020E+06    -189.690E+06    -19.2859E+06     279.701E+03         22.4429
              27     85.1249E-09     52.5770E-03         7.92495     407.348E-03        -10.0513         2.57750        -4.70387     407.348E-03         16.4291     32.5796E-03    -16.2294E-03    -16.3502E-03    -16.3443E-03     32.5737E-03    -16.2294E-03     1.07577E-03    -15.4968E+06    -16.9125E+06    -187.734E+06    -16.2233E+06    -187.734E+06    -16.1861E+06     53.6142E+03         22.4427
              28     66.3031E-09     51.5446E-03         8.41592     191.238E-03        -10.2249         2.43862        -4.24759     191.238E-03         17.3941     32.5656E-03    -16.1971E-03    -16.3686E-03    -16.3620E-03     32.5591E-03    -16.1971E-03     1.13311E-03    -15.7444E+06    -17.0724E+06    -188.228E+06    -16.4723E+06    -188.226E+06    -16.3459E+06     344.708E+03         22.4425
              29     113.723E-09     50.5126E-03         8.35402     1.34512E-03        -9.90115         2.10888        -3.65601     1.34512E-03         17.3166     32.5634E-03    -16.2128E-03    -16.3506E-03    -16.3446E-03     32.5574E-03    -16.2128E-03     1.07913E-03    -15.2195E+06    -16.2158E+06    -188.762E+06    -15.6158E+06    -188.760E+06     -15.821E+06     274.436E+03         22.4423
              30    -31.6548E-09     49.4805E-03         7.77015    -283.405E-03        -8.94600         1.73781        -2.91366    -283.405E-03         16.0530     32.6328E-03    -16.2502E-03    -16.3826E-03    -16.3772E-03     32.6274E-03    -16.2502E-03     1.03028E-03    -14.6452E+06    -15.2168E+06    -189.216E+06    -15.0412E+06    -189.215E+06    -14.8220E+06    -397.673E+03         22.4420
              31     208.145E-09     48.4480E-03         6.80261    -660.672E-03        -7.49722         1.37970        -2.07430    -660.672E-03         13.8733     32.6338E-03    -16.2277E-03    -16.4061E-03    -16.4004E-03     32.6281E-03    -16.2277E-03     1.05444E-03    -15.3154E+06    -15.6335E+06    -190.289E+06    -15.4579E+06    -190.288E+06    -15.4923E+06    -214.248E+03         22.4417
              32    -39.3010E-09     47.4161E-03         5.40062    -917.653E-03        -5.75815         1.01060        -1.36814    -917.653E-03         10.9019     32.5761E-03    -16.2281E-03    -16.3480E-03    -16.3416E-03     32.5697E-03    -16.2281E-03     1.12239E-03    -15.5068E+06    -15.7368E+06    -190.669E+06    -15.6482E+06    -190.669E+06    -15.5955E+06     128.604E+03         22.4414
              33     100.241E-09     46.3836E-03         3.63499        -1.01651        -3.81820     856.532E-03        -1.03974        -1.01651         7.18993     32.5798E-03    -16.2308E-03    -16.3490E-03    -16.3418E-03     32.5726E-03    -16.2308E-03     1.18917E-03    -14.2520E+06    -15.1197E+06    -190.418E+06    -14.2559E+06    -190.414E+06    -15.1197E+06     613.630E+03         22.4414
              34     51.5091E-09     45.3516E-03         1.92263    -954.069E-03        -2.09370     978.706E-03        -1.14977    -954.069E-03         3.02994     32.5769E-03    -16.2122E-03    -16.3647E-03    -16.3583E-03     32.5705E-03    -16.2122E-03     1.11475E-03    -13.6981E+06    -15.9134E+06    -190.581E+06    -15.1415E+06    -190.574E+06    -14.4771E+06     51.9026E+03         22.4420
              35     98.6521E-09     44.3197E-03         1.60352    -772.093E-03        -1.90710         1.19991        -1.50348    -772.093E-03        -1.18358     32.6201E-03    -16.2461E-03    -16.3740E-03    -16.3686E-03     32.6147E-03    -16.2461E-03     1.03048E-03    -14.2685E+06    -17.0168E+06    -190.660E+06    -15.7096E+06    -190.655E+06    -15.5805E+06    -904.289E+03         22.4431
              36    -237.924E-12     43.2872E-03         2.91448    -611.526E-03        -3.32769         1.46411        -1.87732    -611.526E-03        -5.21187     32.6665E-03    -16.2650E-03    -16.4015E-03    -16.3963E-03     32.6613E-03    -16.2650E-03     1.01205E-03    -15.2223E+06    -17.2472E+06    -190.914E+06    -15.9396E+06    -190.909E+06    -16.5343E+06     120.012E+03         22.4444
              37     157.844E-09     42.2550E-03         4.65753    -396.046E-03        -5.22494         1.82280        -2.39020    -396.046E-03        -8.93509     32.6884E-03    -16.2616E-03    -16.4268E-03    -16.4198E-03     32.6814E-03    -16.2616E-03     1.16742E-03    -14.9889E+06    -16.1812E+06    -189.735E+06    -16.1894E+06    -189.727E+06    -14.9889E+06    -188.856E+03         22.4453
              38     17.2949E-09     41.2225E-03         6.19645    -57.3605E-03        -7.05706         2.32863        -3.18924    -57.3605E-03        -12.0494     32.6708E-03    -16.2355E-03    -16.4353E-03    -16.4282E-03     32.6638E-03    -16.2355E-03     1.16562E-03    -15.5320E+06    -17.2125E+06    -190.099E+06    -16.0230E+06    -190.087E+06    -16.7331E+06     62.9126E+03         22.4457
              39     182.711E-09     40.1905E-03         7.32703     310.935E-03        -8.50104         2.94405        -4.11806     310.935E-03        -14.1610     32.6411E-03    -16.2379E-03    -16.4032E-03    -16.3975E-03     32.6354E-03    -16.2379E-03     1.05384E-03    -15.3045E+06    -18.2370E+06    -190.279E+06    -17.0422E+06    -190.273E+06    -16.5056E+06     765.504E+03         22.4462
              40    -55.8842E-09     39.1585E-03         7.99120     664.268E-03        -9.44849         3.49374        -4.95103     664.268E-03        -15.2540     32.7383E-03    -16.3253E-03    -16.4130E-03    -16.4072E-03     32.7325E-03    -16.3253E-03     1.06652E-03    -14.6966E+06    -18.4441E+06    -188.955E+06    -16.4329E+06    -188.950E+06    -16.7128E+06    -631.988E+03         22.4467
              41     92.1285E-09     38.1255E-03         8.23244     932.817E-03        -9.88986         3.91004        -5.56746     932.817E-03        -15.4406     32.8012E-03    -16.3372E-03    -16.4640E-03    -16.4563E-03     32.7935E-03    -16.3372E-03     1.22111E-03    -14.4408E+06    -17.7080E+06    -188.279E+06    -15.7033E+06    -188.267E+06    -16.4569E+06     92.2616E+03         22.4470
              42     101.222E-09     37.0932E-03         8.02195         1.04215        -9.70026         4.22941        -5.90772         1.04215        -14.5223     32.6938E-03    -16.2667E-03    -16.4270E-03    -16.4194E-03     32.6862E-03    -16.2667E-03     1.20903E-03    -14.6133E+06    -16.4630E+06    -187.336E+06    -15.8720E+06    -187.329E+06    -15.2119E+06     439.684E+03         22.4474
              43     20.3944E-09     36.0614E-03         7.30435     976.696E-03        -8.80919         4.33976        -5.84460     976.696E-03        -12.4700     32.6561E-03    -16.2699E-03    -16.3863E-03    -16.3806E-03     32.6505E-03    -16.2699E-03     1.05249E-03    -15.9570E+06    -16.7824E+06    -186.728E+06    -16.1857E+06    -186.726E+06    -16.5556E+06    -572.740E+03         22.4480
              44     77.0192E-09     35.0288E-03         6.16444     752.962E-03        -7.34219         4.15479        -5.33255     752.962E-03        -9.58070     32.8015E-03    -16.3332E-03    -16.4683E-03    -16.4615E-03     32.7947E-03    -16.3332E-03     1.15728E-03    -15.6653E+06    -15.9664E+06    -186.914E+06    -15.8943E+06    -186.912E+06    -15.7396E+06    -611.102E+03         22.4490
              45     85.9276E-09     33.9961E-03         4.85162     432.709E-03        -5.59930         3.85106        -4.59873     432.709E-03        -6.01572     32.7629E-03    -16.3043E-03    -16.4586E-03    -16.4512E-03     32.7555E-03    -16.3043E-03     1.21117E-03    -17.1149E+06    -17.2469E+06    -188.043E+06    -17.1750E+06    -188.041E+06    -17.1893E+06    -43.1185E+03         22.4499
              46     45.8657E-09     32.9641E-03         3.78991     129.072E-03        -4.11784         3.54028        -3.86820     129.072E-03        -1.92516     32.6559E-03    -16.2555E-03    -16.4003E-03    -16.3929E-03     32.6484E-03    -16.2555E-03     1.20783E-03    -16.1072E+06    -16.1911E+06    -187.756E+06    -16.1676E+06    -187.753E+06    -16.1334E+06    -76.5966E+03         22.4501
              47     99.0213E-09     31.9318E-03         3.52962    -110.995E-03        -3.51098         3.12793        -3.10928    -110.995E-03         2.38401     32.6141E-03    -16.2149E-03    -16.3992E-03    -16.3931E-03     32.6080E-03    -16.2149E-03     1.08422E-03    -16.1997E+06    -16.5794E+06    -187.525E+06    -16.5549E+06    -187.523E+06    -16.2259E+06    -370.949E+03         22.4499
              48     117.311E-09     30.8997E-03         4.30919    -349.904E-03        -3.94555         2.59892        -2.23528    -349.904E-03         6.45179     32.5289E-03    -16.1905E-03    -16.3384E-03    -16.3333E-03     32.5238E-03    -16.1905E-03     999.312E-06    -17.4784E+06    -17.8803E+06    -187.240E+06    -17.8815E+06    -187.239E+06    -17.4784E+06    -310.871E+03         22.4493
              49    -41.0627E-09     29.8678E-03         5.62779    -555.585E-03        -4.93671         2.09959        -1.40851    -555.585E-03         9.90868     32.5384E-03    -16.2328E-03    -16.3056E-03    -16.2998E-03     32.5326E-03    -16.2328E-03     1.06738E-03    -16.0088E+06    -16.8959E+06    -185.764E+06    -16.0585E+06    -185.763E+06    -16.8476E+06    -422.978E+03         22.4485
              50     92.2237E-09     28.8350E-03         6.89847    -589.168E-03        -6.05724         1.71938    -878.153E-03    -589.168E-03         12.6793     32.5775E-03    -16.2073E-03    -16.3702E-03    -16.3638E-03     32.5711E-03    -16.2073E-03     1.11952E-03    -15.8178E+06    -17.3153E+06    -185.030E+06    -16.4792E+06    -185.027E+06    -16.6565E+06     348.094E+03         22.4481
              51     168.285E-09     27.8035E-03         7.72159    -374.678E-03        -6.99620         1.48050    -755.105E-03    -374.678E-03         14.5465     32.4679E-03    -16.1407E-03    -16.3272E-03    -16.3209E-03     32.4616E-03    -16.1407E-03     1.10643E-03    -17.3965E+06    -18.1971E+06    -184.385E+06    -18.0583E+06    -184.382E+06    -17.5383E+06     675.787E+03         22.4484
              52    -61.2742E-09     26.7708E-03         7.91603     9.45239E-03        -7.47566         1.42112    -980.744E-03     9.45239E-03         15.2020     32.3258E-03    -16.1046E-03    -16.2212E-03    -16.2156E-03     32.3202E-03    -16.1046E-03     1.04187E-03    -19.2231E+06    -19.4319E+06    -182.385E+06    -19.2238E+06    -182.385E+06    -19.4319E+06     253.562E+03         22.4492
              53     175.835E-09     25.7399E-03         7.59279     367.685E-03        -7.41169         1.38101        -1.19990     367.685E-03         14.7807     32.4352E-03    -16.1437E-03    -16.2916E-03    -16.2857E-03     32.4294E-03    -16.1437E-03     1.06783E-03    -18.8896E+06    -19.4283E+06    -181.536E+06    -19.3652E+06    -181.532E+06    -18.9566E+06    -528.214E+03         22.4498
              54     585.689E-12     24.7066E-03         6.83699     582.052E-03        -6.76777         1.18955        -1.12033     582.052E-03         13.4069     32.5969E-03    -16.2413E-03    -16.3556E-03    -16.3487E-03     32.5901E-03    -16.2413E-03     1.16048E-03    -17.0834E+06    -18.6269E+06    -181.547E+06    -17.5601E+06    -181.542E+06    -18.1552E+06    -246.296E+03         22.4501
              55     31.9738E-09     23.6751E-03         5.59021     657.605E-03        -5.48908     871.952E-03    -770.829E-03     657.605E-03         10.9554     32.6062E-03    -16.2492E-03    -16.3570E-03    -16.3499E-03     32.5991E-03    -16.2492E-03     1.18445E-03    -16.9912E+06    -18.5851E+06    -181.178E+06    -17.5155E+06    -181.176E+06    -18.0630E+06     607.511E+03         22.4497
              56     131.965E-09     22.6421E-03         3.94807     666.684E-03        -3.75041     582.415E-03    -384.756E-03     666.684E-03         7.63737     32.5978E-03    -16.2032E-03    -16.3946E-03    -16.3881E-03     32.5914E-03    -16.2032E-03     1.12068E-03    -17.5939E+06    -18.3722E+06    -179.458E+06    -18.1250E+06    -179.449E+06    -17.8501E+06     1.09197E+06         22.4472
              57     77.5833E-09     21.6108E-03         2.06401     730.175E-03        -1.83876     426.401E-03    -201.159E-03     730.175E-03         3.84076     32.5827E-03    -16.2246E-03    -16.3581E-03    -16.3519E-03     32.5765E-03    -16.2246E-03     1.10228E-03    -15.9750E+06    -17.0907E+06    -176.829E+06    -16.8428E+06    -176.821E+06    -16.2311E+06     633.574E+03         22.4405
              58    -22.6091E-09     20.5775E-03         1.21615     758.610E-03    -937.600E-03     273.304E-03     5.24145E-03     758.610E-03    -278.306E-03     32.4925E-03    -16.1850E-03    -16.3075E-03    -16.3015E-03     32.4865E-03    -16.1850E-03     1.08289E-03    -15.4310E+06    -17.3598E+06    -175.258E+06    -16.2921E+06    -175.257E+06    -16.5003E+06     153.839E+03         22.4273
              59     200.068E-09     19.5465E-03         2.57714     536.233E-03        -1.99312    -51.4705E-03     635.487E-03     536.233E-03        -4.50159     32.3305E-03    -16.1051E-03    -16.2253E-03    -16.2202E-03     32.3253E-03    -16.1051E-03     999.805E-06    -16.8044E+06    -18.4993E+06    -174.270E+06    -17.4322E+06    -174.268E+06    -17.8737E+06     585.236E+03         22.4043
              60    -150.706E-09     18.5139E-03         4.95483     68.0500E-03        -3.81582    -510.610E-03         1.64962     68.0500E-03        -8.49421     32.0993E-03    -16.0063E-03    -16.0930E-03    -16.0888E-03     32.0951E-03    -16.0063E-03     903.376E-06    -15.6667E+06    -16.9304E+06    -171.673E+06    -16.2951E+06    -171.670E+06    -16.3048E+06     660.602E+03         22.3670
              61     270.040E-09     17.4827E-03         7.12671    -449.431E-03        -5.38167    -939.800E-03         2.68485    -449.431E-03        -11.9705     31.6246E-03    -15.7452E-03    -15.8794E-03    -15.8758E-03     31.6210E-03    -15.7452E-03     830.971E-06    -14.3327E+06    -15.7765E+06    -168.646E+06    -15.1403E+06    -168.644E+06    -14.9709E+06     329.003E+03         22.3113
              62    -123.396E-09     16.4514E-03         8.84133    -810.311E-03        -6.67104        -1.22643         3.39671    -810.311E-03        -14.8074     30.7595E-03    -15.3110E-03    -15.4485E-03    -15.4457E-03     30.7567E-03    -15.3110E-03     715.750E-06    -13.8279E+06    -15.7194E+06    -166.687E+06    -14.6385E+06    -166.682E+06    -14.9138E+06     551.500E+03         22.2333
              63     245.204E-09     15.4217E-03         10.0492        -1.03816        -7.59403        -1.31636         3.77148        -1.03816        -16.8932     29.3906E-03    -14.6194E-03    -14.7712E-03    -14.7697E-03     29.3891E-03    -14.6194E-03     509.160E-06    -10.5613E+06    -12.7504E+06    -163.482E+06    -11.6779E+06    -163.468E+06    -11.6473E+06     1.41752E+06         22.1304
              64    -62.9689E-09     14.3935E-03         10.7723        -1.21364        -8.07845        -1.28937         3.98321        -1.21364        -18.0983     27.3759E-03    -13.6224E-03    -13.7535E-03    -13.7529E-03     27.3753E-03    -13.6224E-03     122.327E-06    -5.33839E+06    -7.84389E+06    -157.986E+06    -6.45820E+06    -157.970E+06    -6.74077E+06     1.59089E+06         22.0037
              65     142.157E-09     13.3682E-03         11.0491        -1.25857        -8.25980        -1.25265         4.04194        -1.25857        -18.5687     24.7638E-03    -12.3579E-03    -12.4059E-03    -12.4057E-03     24.7636E-03    -12.3579E-03    -168.945E-06     1.81471E+06    -192.552E+03    -151.420E+06     1.19143E+06    -151.401E+06     412.318E+03     1.67375E+06         21.8604
              66    -129.144E-09     12.3448E-03         11.0185        -1.18744        -8.26591        -1.12056         3.87316        -1.18744        -18.6251     21.6534E-03    -10.7842E-03    -10.8691E-03    -10.8683E-03     21.6526E-03    -10.7842E-03    -293.219E-06     8.39518E+06     7.73348E+06    -145.837E+06     7.77667E+06    -145.823E+06     8.33836E+06     1.39867E+06         21.7143
              67     299.080E-09     11.3260E-03         10.7279        -1.13312        -7.99749    -920.824E-03         3.65123        -1.13312        -18.1586     18.2895E-03    -9.05376E-03    -9.23574E-03    -9.23384E-03     18.2876E-03    -9.05376E-03    -448.885E-06     13.1676E+06     11.4852E+06    -142.998E+06     11.5386E+06    -142.994E+06     13.1108E+06     521.068E+03         21.5853
              68    -81.8361E-09     10.3099E-03         10.3331        -1.13225        -7.57411    -911.805E-03         3.67076        -1.13225        -17.3087     15.2260E-03    -7.55862E-03    -7.66739E-03    -7.66412E-03     15.2227E-03    -7.55862E-03    -538.785E-06     12.7939E+06     10.6417E+06    -143.747E+06     11.1551E+06    -143.734E+06     12.2673E+06    -1.00503E+06         21.4965
              69     97.5202E-09     9.29737E-03         10.0925        -1.17963        -7.25714        -1.07609         3.91142        -1.17963        -16.6146     13.1608E-03    -6.56273E-03    -6.59806E-03    -6.59528E-03     13.1580E-03    -6.56273E-03    -457.294E-06     7.40351E+06     6.82669E+06    -146.356E+06     7.38144E+06    -146.334E+06     6.82669E+06    -1.83307E+06         21.4712
              70    -47.8829E-09     8.28533E-03         10.0559        -1.26467        -7.11453        -1.22596         4.16734        -1.26467        -16.3004     12.6631E-03    -6.31526E-03    -6.34783E-03    -6.34708E-03     12.6623E-03    -6.31526E-03    -149.169E-06     3.36375E+06     3.23463E+06    -150.526E+06     3.35102E+06    -150.513E+06     3.23463E+06    -1.37065E+06         21.5310
              71     68.3425E-09     7.27381E-03         10.0784        -1.37947        -7.02113        -1.35983         4.41712        -1.37947        -16.0922     14.0715E-03    -7.02652E-03    -7.04496E-03    -7.04344E-03     14.0700E-03    -7.02652E-03     280.218E-06    -1.43907E+06    -1.52166E+06    -155.951E+06    -1.45607E+06    -155.934E+06    -1.52166E+06    -1.55411E+06         21.6933
              72    -46.5457E-09     6.25892E-03         10.2599        -1.66441        -6.91513        -1.65498         4.99979        -1.66441        -15.8197     17.6829E-03    -8.83077E-03    -8.85215E-03    -8.84421E-03     17.6750E-03    -8.83077E-03     885.308E-06    -4.53338E+06    -4.82991E+06    -159.828E+06    -4.54732E+06    -159.814E+06    -4.82991E+06    -747.901E+03         21.9674
              73     58.7311E-09     5.23986E-03         10.8739        -2.28194        -6.89160        -2.27512         6.25739        -2.28194        -15.5405     23.4799E-03    -11.6621E-03    -11.8178E-03    -11.8084E-03     23.4705E-03    -11.6621E-03     1.11531E-03    -7.93756E+06    -9.00398E+06    -162.952E+06    -8.72985E+06    -162.934E+06    -8.23040E+06    -908.673E+03         22.3537
              74     238.019E-09     4.21408E-03         11.7191        -3.17969        -6.80836        -3.02138         7.93211        -3.17969        -14.8892     31.7997E-03    -15.8000E-03    -15.9997E-03    -15.9375E-03     31.7929E-03    -15.8554E-03     1.14184E-03    -11.5441E+06    -13.0448E+06    -166.261E+06    -12.3455E+06    -166.233E+06    -12.2712E+06    -2.04562E+06         22.8498
              75    -350.135E-09     3.17889E-03         12.2172        -4.07922        -6.37802        -3.59714         9.43636        -4.07922        -13.1808     42.7788E-03    -21.3606E-03    -21.4181E-03    -21.3531E-03     42.7691E-03    -21.4160E-03     1.57142E-03    -12.3374E+06    -13.6793E+06    -168.981E+06    -12.3482E+06    -168.971E+06    -13.6793E+06    -630.888E+03         23.4649
              76     344.600E-09     2.12697E-03         12.1406        -4.76852        -5.59942        -3.97729         10.5185        -4.76852        -10.0458     53.6217E-03    -26.7238E-03    -26.8979E-03    -26.7115E-03     53.6073E-03    -26.8958E-03     2.14867E-03    -12.4957E+06    -14.1980E+06    -170.768E+06    -13.5883E+06    -170.763E+06    -13.1105E+06    -334.519E+03         24.2360
              77    -678.971E-09     1.06800E-03         11.7460        -4.68126        -5.27851        -4.15123         11.1645        -5.22703        -5.53510     62.3468E-03    -30.8694E-03    -31.4774E-03    -31.2919E-03     62.3332E-03    -31.0413E-03     2.22631E-03    -14.5293E+06    -16.0579E+06    -172.078E+06    -15.6305E+06    -172.064E+06    -14.9704E+06    -1.43745E+06         25.2336
              78     965.518E-06     20.8167E-18         11.0959        -4.32511        -5.01549        -4.24288         11.0136        -5.01549    -842.127E-03     65.5365E-03    -32.3649E-03    -33.1716E-03    -32.7777E-03     65.5132E-03    -32.7356E-03     2.88303E-03    -17.0484E+06    -17.7164E+06    -174.390E+06    -17.2856E+06    -174.380E+06    -17.4894E+06    -585.830E+03         25.7858
              79     1.93376E-03     20.8167E-18         10.6492        -4.35226        -4.57068        -4.33563         10.6326        -4.57068     309.041E-03     62.9028E-03    -30.5840E-03    -32.3188E-03    -30.5564E-03     62.8753E-03    -32.3188E-03     3.17047E-03    -16.9596E+06    -17.7676E+06    -175.361E+06    -17.1952E+06    -175.352E+06    -17.5407E+06    -518.049E+03         25.7465
              80     2.90576E-03     20.8167E-18         10.1919        -4.03907        -4.44352        -4.03393         10.1868        -4.44352    -104.849E-03     59.1534E-03    -27.8692E-03    -31.2843E-03    -27.8429E-03     59.1272E-03    -31.2843E-03     2.97695E-03    -16.3980E+06    -20.7333E+06    -176.479E+06    -16.4153E+06    -176.461E+06    -20.7333E+06    -1.66438E+06         25.6855
              81     3.87966E-03     20.8167E-18         9.44990        -3.51256        -4.27866        -3.51029         9.44762        -4.27866     98.3768E-03     55.8665E-03    -25.7553E-03    -30.1113E-03    -25.7194E-03     55.8306E-03    -30.1113E-03     3.42048E-03    -16.0666E+06    -28.2686E+06    -180.232E+06    -16.0857E+06    -180.213E+06    -28.2686E+06    -1.77056E+06         25.6064
              82     4.85537E-03     20.8167E-18         8.74622        -3.04931        -4.07873        -3.04847         8.74538        -4.07873    -36.9084E-03     52.9833E-03    -24.0103E-03    -28.9730E-03    -23.9651E-03     52.9381E-03    -28.9730E-03     3.71134E-03    -15.6245E+06    -40.9592E+06    -185.560E+06    -15.7021E+06    -185.483E+06    -40.9592E+06    -3.32090E+06         25.5174
              83     5.83246E-03     20.8167E-18         8.05042        -2.59609        -3.86852        -2.59559         8.04992        -3.86852     14.0456E-03     50.0612E-03    -22.2005E-03    -27.8608E-03    -22.1454E-03     50.0061E-03    -27.8608E-03     3.98652E-03    -13.5494E+06    -58.6940E+06    -189.573E+06    -13.7449E+06    -189.377E+06    -58.6940E+06    -5.79922E+06         25.4291
              84     6.81227E-03     20.8167E-18         7.47384        -2.24658        -3.66017        -2.24608         7.47335        -3.66017     5.82404E-03     47.3855E-03    -20.6286E-03    -26.7569E-03    -20.5586E-03     47.3155E-03    -26.7569E-03     4.33871E-03    -10.6259E+06    -78.6341E+06    -179.959E+06    -10.9095E+06    -179.675E+06    -78.6341E+06    -6.90334E+06         25.3528
              85     7.79241E-03     20.8167E-18         7.07442        -2.04938        -3.46916        -2.04907         7.07411        -3.46916     95.0653E-03     45.3451E-03    -19.6285E-03    -25.7166E-03    -19.5269E-03     45.2436E-03    -25.7166E-03     5.10579E-03    -7.28254E+06    -97.0170E+06    -156.545E+06    -7.69749E+06    -156.130E+06    -97.0170E+06    -7.75604E+06         25.2988
              86     8.77380E-03     20.8167E-18         6.83959        -1.98524        -3.30598        -1.98519         6.83953        -3.30598     45.3982E-03     44.2141E-03    -19.4093E-03    -24.8048E-03    -19.2555E-03     44.0603E-03    -24.8048E-03     6.21138E-03    -3.29891E+06    -109.521E+06    -132.784E+06    -3.87823E+06    -128.132E+06    -113.594E+06    -8.45668E+06         25.2795
              87     9.75448E-03     20.8167E-18         6.67684        -1.96614        -3.17156        -1.96609         6.67679        -3.17156     41.5821E-03     44.0919E-03    -20.0168E-03    -24.0752E-03    -19.7317E-03     43.8069E-03    -24.0752E-03     8.40601E-03     541.257E+03    -97.1295E+06    -126.132E+06    -230.556E+03    -96.3577E+06    -126.132E+06    -8.53407E+06         25.3159
              88     10.7327E-03     20.8167E-18         6.59047        -2.00143        -3.06245        -2.00121         6.59025        -3.06245     77.7779E-03     41.9015E-03    -18.4512E-03    -23.4504E-03    -18.1190E-03     41.5693E-03    -23.4504E-03     8.92302E-03     4.79957E+06    -62.0310E+06    -130.625E+06     3.55105E+06    -60.7825E+06    -130.625E+06    -8.72910E+06         25.4465
              89     11.7163E-03     20.8167E-18         6.53144        -2.04608        -2.97487        -2.04578         6.53114        -2.97487     100.540E-03     37.4508E-03    -14.7238E-03    -22.7270E-03    -14.5034E-03     37.2304E-03    -22.7270E-03     6.73077E-03     10.7102E+06    -21.1578E+06    -128.948E+06     6.27648E+06    -16.7241E+06    -128.948E+06    -7.63884E+06         25.7301
              90     12.7120E-03     20.8167E-18         6.46432        -2.06951        -2.90347        -2.06922         6.46403        -2.90347     98.5337E-03     37.3798E-03    -15.3792E-03    -22.0007E-03    -15.2173E-03     37.2180E-03    -22.0007E-03     5.83185E-03     40.5421E+06     5.01756E+06    -123.058E+06     8.09123E+06     37.4685E+06    -123.058E+06    -5.83821E+06         26.2394
              91     13.6887E-03     20.8167E-18         6.36248        -2.04761        -2.84260        -2.04736         6.36224        -2.84260     87.4492E-03     39.6531E-03    -18.1391E-03    -21.5140E-03    -17.9133E-03     39.4273E-03    -21.5140E-03     7.14689E-03     99.9655E+06     7.92152E+06    -112.951E+06     8.16716E+06     99.7199E+06    -112.951E+06    -2.01495E+06         27.0476
              92     14.6687E-03     20.8167E-18         6.14399        -1.89975        -2.78445        -1.89962         6.14386        -2.78445     64.3276E-03     39.7800E-03    -18.4698E-03    -21.3102E-03    -17.6462E-03     38.9564E-03    -21.3102E-03     12.8665E-03     153.239E+06     5.00828E+06    -82.8990E+06     5.11369E+06     153.133E+06    -82.8990E+06    -2.29669E+06         28.1854
              93     15.6485E-03     20.8167E-18         5.76971        -1.59520        -2.71957        -1.59512         5.76964        -2.71957     39.2310E-03     41.7941E-03    -19.8260E-03    -21.9681E-03    -17.8411E-03     39.1247E-03    -21.2836E-03     24.5624E-03     189.687E+06     1.96901E+06    -33.5397E+06     2.07737E+06     189.578E+06    -33.5397E+06    -1.95379E+06         29.5855
              94     16.6184E-03     20.8167E-18         5.39945        -1.27236        -2.64388        -1.27169         5.39877        -2.64388     98.4840E-03     46.3615E-03    -21.4390E-03    -24.9225E-03    -19.4415E-03     40.8805E-03    -21.4390E-03     37.7329E-03     224.505E+06     37.0081E+06    -1.34256E+06     3.21806E+06     224.469E+06     32.4836E+06     2.75412E+06         31.0789
              95     17.6392E-03     1.04609E-03         5.17952        -1.13350        -2.58640        -1.13072         5.17674        -2.58640     254.876E-03     45.2745E-03    -20.5826E-03    -24.6919E-03    -19.9136E-03     40.4963E-03    -20.5826E-03     34.5172E-03     240.149E+06     70.3301E+06     2.81941E+06     2.86786E+06     240.101E+06     70.3301E+06     3.38449E+06         31.4325
              96     17.6664E-03     2.08247E-03         5.08512        -1.12315        -2.53679        -1.11989         5.08185        -2.53679     281.448E-03     41.3349E-03    -18.9023E-03    -22.4326E-03    -20.8840E-03     39.7863E-03    -18.9023E-03     18.3151E-03     235.528E+06     71.6423E+06    -2.18208E+06    -2.12133E+06     235.467E+06     71.6423E+06     3.75636E+06         30.8791
              97     17.6850E-03     3.12101E-03         5.03805        -1.10170        -2.46123        -1.09977         5.03612        -2.46123     216.651E-03     41.3835E-03    -17.7173E-03    -23.6662E-03    -23.4023E-03     41.1197E-03    -17.7173E-03     5.20431E-03     235.374E+06     78.1459E+06    -4.78788E+06    -4.70355E+06     235.289E+06     78.1459E+06     4.49772E+06         30.6979
              98     17.6997E-03     4.16402E-03         4.97671        -1.08074        -2.37055        -1.07912         4.97509        -2.37055     198.200E-03     41.3075E-03    -16.8815E-03    -24.4260E-03    -24.3906E-03     41.2721E-03    -16.8815E-03    -2.61567E-03     237.561E+06     84.7281E+06    -4.75539E+06     -4.7072E+06     237.513E+06     84.7281E+06     2.96761E+06         30.7425
              99     17.7096E-03     5.20864E-03         4.88585        -1.05665        -2.27469        -1.05525         4.88446        -2.27469     181.116E-03     40.1868E-03    -16.3333E-03    -23.8535E-03    -23.7840E-03     40.1173E-03    -16.3333E-03    -4.21539E-03     239.981E+06     90.9418E+06    -3.84892E+06    -3.83172E+06     239.964E+06     90.9418E+06     1.94083E+06         30.9018
             100     17.7162E-03     6.25285E-03         4.77213        -1.02765        -2.18158        -1.02698         4.77147        -2.18158     115.974E-03     38.8329E-03    -15.9685E-03    -22.8644E-03    -22.8142E-03     38.7827E-03    -15.9685E-03    -3.43150E-03     240.131E+06     89.9335E+06    -2.61693E+06    -2.60137E+06     240.115E+06     89.9335E+06     1.75917E+06         31.1021
             101     17.7199E-03     7.29458E-03         4.66198        -1.02565        -2.09477        -1.02541         4.66174        -2.09477     73.8136E-03     37.7254E-03    -15.7655E-03    -21.9599E-03    -21.9322E-03     37.6977E-03    -15.7655E-03    -2.57114E-03     237.558E+06     86.3807E+06    -2.50467E+06    -2.50057E+06     237.554E+06     86.3807E+06    -73.3441E+03         31.2988
             102     17.7208E-03     8.33494E-03         4.56219        -1.04201        -2.00999        -1.04137         4.56155        -2.00999     113.610E-03     36.8701E-03    -15.6828E-03    -21.1873E-03    -21.1651E-03     36.8479E-03    -15.6828E-03    -2.25368E-03     234.938E+06     81.7261E+06    -3.04556E+06    -3.04186E+06     234.934E+06     81.7261E+06    -930.033E+03         31.4679
             103     17.7213E-03     9.37412E-03         4.46993        -1.06663        -1.92004        -1.06557         4.46887        -1.92004     153.147E-03     35.8598E-03    -15.6692E-03    -20.1907E-03    -20.1809E-03     35.8501E-03    -15.6692E-03    -1.36805E-03     233.973E+06     76.7423E+06    -3.03198E+06    -3.02827E+06     233.969E+06     76.7423E+06    -927.364E+03         31.6005
             104     17.7206E-03     10.4120E-03         4.38236        -1.09973        -1.81984        -1.09898         4.38162        -1.81984     123.706E-03     34.8564E-03    -15.7020E-03    -19.1545E-03    -19.1527E-03     34.8547E-03    -15.7020E-03    -584.390E-06     234.520E+06     74.7125E+06    -2.09083E+06    -2.08810E+06     234.517E+06     74.7125E+06    -737.215E+03         31.6970
             105     17.7204E-03     11.4488E-03         4.27991        -1.11886        -1.70551        -1.11832         4.27936        -1.70551     107.462E-03     33.7644E-03    -15.7494E-03    -18.0150E-03    -18.0081E-03     33.7576E-03    -15.7494E-03    -1.00202E-03     233.637E+06     72.0606E+06    -2.45766E+06    -2.45691E+06     233.636E+06     72.0606E+06    -420.562E+03         31.7637
             106     17.7197E-03     12.4813E-03         4.14556        -1.13287        -1.57412        -1.13169         4.14438        -1.57412     154.389E-03     32.7346E-03    -15.7904E-03    -16.9442E-03    -16.9113E-03     32.7017E-03    -15.7904E-03    -2.41455E-03     233.237E+06     69.4065E+06    -1.94991E+06    -1.94841E+06     233.236E+06     69.4065E+06     148.811E+03         31.8097
             107     17.7197E-03     13.5168E-03         3.94957        -1.13123        -1.42432        -1.12971         3.94805        -1.42432     175.359E-03     31.8678E-03    -15.7211E-03    -16.1467E-03    -15.9871E-03     31.8130E-03    -15.8260E-03    -3.23524E-03     232.134E+06     67.4888E+06    -1.87820E+06    -1.87439E+06     232.130E+06     67.4888E+06    -199.795E+03         31.8435
             108     17.7193E-03     14.5475E-03         3.68355        -1.09592        -1.25486        -1.09509         3.68273        -1.25486     117.655E-03     31.4800E-03    -15.6284E-03    -15.8516E-03    -15.5326E-03     31.3843E-03    -15.8516E-03    -4.14961E-03     231.802E+06     67.2866E+06    -2.58531E+06    -2.58260E+06     231.800E+06     67.2866E+06    -505.925E+03         31.8715
             109     17.7193E-03     15.5814E-03         3.36612        -1.01763        -1.08365        -1.03641         3.36554        -1.06429     96.0064E-03     31.2502E-03    -15.3785E-03    -15.8717E-03    -15.2636E-03     31.1353E-03    -15.8717E-03    -4.60764E-03     232.755E+06     68.4070E+06    -1.77525E+06    -1.77518E+06     232.755E+06     68.4070E+06     130.893E+03         31.8970
             110     17.7190E-03     16.6145E-03         2.99581    -852.871E-03    -951.366E-03    -950.091E-03         2.99454    -852.871E-03     139.353E-03     30.8829E-03    -14.9989E-03    -15.8840E-03    -14.8823E-03     30.7663E-03    -15.8840E-03    -4.59744E-03     232.410E+06     67.4511E+06    -2.15591E+06    -2.15528E+06     232.409E+06     67.4511E+06    -185.759E+03         31.9212
             111     17.7193E-03     17.6451E-03         2.57718    -624.921E-03    -828.996E-03    -827.159E-03         2.57534    -624.921E-03     157.542E-03     30.8961E-03    -15.0123E-03    -15.8837E-03    -14.8559E-03     30.7396E-03    -15.8837E-03    -5.34289E-03     232.102E+06     66.7633E+06    -2.55982E+06    -2.55864E+06     232.101E+06     66.7633E+06    -523.803E+03         31.9448
             112     17.7190E-03     18.6787E-03         2.14451    -391.034E-03    -680.494E-03    -679.098E-03         2.14312    -391.034E-03     123.663E-03     31.0032E-03    -15.1243E-03    -15.8790E-03    -14.9733E-03     30.8523E-03    -15.8790E-03    -5.25307E-03     232.411E+06     66.7341E+06    -1.66200E+06    -1.66120E+06     232.411E+06     66.7341E+06    -105.783E+03         31.9675
             113     17.7193E-03     19.7117E-03         1.74637    -165.185E-03    -558.815E-03    -556.042E-03         1.74360    -165.185E-03     143.921E-03     30.8997E-03    -15.0168E-03    -15.8830E-03    -14.9015E-03     30.7845E-03    -15.8830E-03    -4.58965E-03     232.268E+06     66.3190E+06     -2.2418E+06    -2.23858E+06     232.265E+06     66.3190E+06     751.438E+03         31.9889
             114     17.7188E-03     20.7442E-03         1.38854     40.8861E-03    -472.859E-03    -465.800E-03         1.38148     40.8861E-03     223.077E-03     30.6973E-03    -14.8093E-03    -15.8880E-03    -14.6978E-03     30.5858E-03    -15.8880E-03    -4.49568E-03     232.791E+06     66.3579E+06    -1.52600E+06    -1.52195E+06     232.787E+06     66.3579E+06     944.021E+03         32.0092
             115     17.7194E-03     21.7762E-03         1.04730     217.470E-03    -390.330E-03    -380.058E-03         1.03703     217.470E-03     240.480E-03     30.3924E-03    -14.4960E-03    -15.8964E-03    -14.3726E-03     30.2689E-03    -15.8964E-03    -4.70025E-03     233.315E+06     66.9470E+06    -1.35426E+06    -1.35314E+06     233.314E+06     66.9470E+06     250.835E+03         32.0283
             116     17.7189E-03     22.8081E-03     724.547E-03     357.209E-03    -317.280E-03    -310.889E-03     718.156E-03     357.209E-03     153.602E-03     30.2056E-03    -14.2890E-03    -15.9166E-03    -14.1682E-03     30.0848E-03    -15.9166E-03    -4.62901E-03     233.707E+06     69.1473E+06    -1.98888E+06    -1.98437E+06     233.702E+06     69.1473E+06     622.882E+03         32.0456
             117     17.7192E-03     23.8402E-03     535.246E-03     344.203E-03    -240.840E-03    -235.463E-03     414.862E-03     459.210E-03     101.670E-03     30.2604E-03    -14.3458E-03    -15.9146E-03    -14.2089E-03     30.1235E-03    -15.9146E-03    -4.91791E-03     233.066E+06     68.2944E+06    -2.03652E+06    -2.02560E+06     233.055E+06     68.2944E+06    -152.460E+03         32.0609
             118     17.7189E-03     24.8705E-03     528.206E-03     158.365E-03    -186.646E-03    -142.905E-03     114.625E-03     528.206E-03     171.084E-03     30.6119E-03    -14.7064E-03    -15.9055E-03    -14.5415E-03     30.4470E-03    -15.9055E-03    -5.45603E-03     232.284E+06     67.7256E+06    -2.56628E+06    -2.55875E+06     232.277E+06     67.7256E+06    -527.003E+03         32.0747
             119     17.7190E-03     25.9048E-03     571.832E-03     26.3888E-03    -258.058E-03    -93.4515E-03    -138.218E-03     571.832E-03     261.021E-03     30.8102E-03    -14.9046E-03    -15.9056E-03    -14.7439E-03     30.6494E-03    -15.9056E-03    -5.40982E-03     232.584E+06     68.6936E+06    -2.23555E+06    -2.23237E+06     232.581E+06     68.6936E+06    -156.499E+03         32.0875
             120     17.7190E-03     26.9357E-03     600.635E-03    -38.6474E-03    -374.182E-03    -100.165E-03    -312.663E-03     600.635E-03     245.314E-03     30.6835E-03    -14.7819E-03    -15.9016E-03    -14.6184E-03     30.5200E-03    -15.9016E-03    -5.43922E-03     231.978E+06     67.5029E+06    -2.64531E+06    -2.64290E+06     231.976E+06     67.5029E+06    -677.616E+03         32.1000
             121     17.7192E-03     27.9688E-03     626.336E-03    -69.1909E-03    -488.345E-03    -98.6070E-03    -458.929E-03     626.336E-03     213.291E-03     30.5839E-03    -14.6824E-03    -15.9015E-03    -14.5334E-03     30.4349E-03    -15.9015E-03    -5.16466E-03     232.907E+06     68.1793E+06    -1.54649E+06    -1.54423E+06     232.904E+06     68.1793E+06     310.669E+03         32.1129
             122     17.7190E-03     29.0013E-03     658.276E-03    -17.2600E-03    -659.723E-03    -45.7425E-03    -631.240E-03     658.276E-03     261.267E-03     30.4808E-03    -14.5729E-03    -15.9079E-03    -14.4416E-03     30.3495E-03    -15.9079E-03    -4.85387E-03     232.921E+06     69.1950E+06    -1.58013E+06    -1.57808E+06     232.919E+06     69.1950E+06     424.058E+03         32.1266
             123     17.7192E-03     30.0325E-03     700.389E-03     50.7174E-03    -830.955E-03     19.5506E-03    -799.788E-03     700.389E-03     325.517E-03     30.5523E-03    -14.6400E-03    -15.9123E-03    -14.4800E-03     30.3923E-03    -15.9123E-03    -5.35964E-03     232.231E+06     70.0153E+06    -2.30972E+06    -2.30950E+06     232.230E+06     70.0153E+06    -207.379E+03         32.1416
             124     17.7191E-03     31.0647E-03     749.950E-03     67.8775E-03    -945.549E-03     42.0033E-03    -919.675E-03     749.950E-03     311.309E-03     30.6247E-03    -14.7159E-03    -15.9088E-03    -14.5490E-03     30.4579E-03    -15.9088E-03    -5.48742E-03     232.932E+06     70.2371E+06    -1.13108E+06    -1.12651E+06     232.928E+06     70.2371E+06     569.288E+03         32.1579
             125     17.7192E-03     32.0980E-03     801.816E-03     76.8066E-03        -1.06497     58.8665E-03        -1.04703     801.816E-03     283.845E-03     30.5373E-03    -14.6304E-03    -15.9069E-03    -14.4830E-03     30.3899E-03    -15.9069E-03    -5.15015E-03     231.597E+06     69.1336E+06    -1.95851E+06    -1.95054E+06     231.589E+06     69.1336E+06     68.7633E+03         32.1749
             126     17.7192E-03     33.1285E-03     853.940E-03     157.104E-03        -1.27624     140.790E-03        -1.25992     853.940E-03     297.810E-03     30.6459E-03    -14.7352E-03    -15.9108E-03    -14.5860E-03     30.4967E-03    -15.9108E-03    -5.19385E-03     231.269E+06     70.5653E+06    -2.21920E+06    -2.20880E+06     231.258E+06     70.5653E+06     245.150E+03         32.1925
             127     17.7192E-03     34.1627E-03     905.364E-03     269.572E-03        -1.53512     256.431E-03        -1.52198     905.364E-03     306.873E-03     30.6338E-03    -14.7306E-03    -15.9033E-03    -14.5944E-03     30.4977E-03    -15.9033E-03    -4.94731E-03     231.290E+06     69.7435E+06    -1.54966E+06    -1.53719E+06     231.277E+06     69.7435E+06     81.4223E+03         32.2106
             128     17.7193E-03     35.1937E-03     952.551E-03     357.791E-03        -1.77985     348.410E-03        -1.77047     952.551E-03     268.593E-03     30.6621E-03    -14.7634E-03    -15.8987E-03    -14.6305E-03     30.5292E-03    -15.8987E-03    -4.89654E-03     230.186E+06     68.8278E+06    -2.66059E+06    -2.65368E+06     230.179E+06     68.8278E+06    -427.921E+03         32.2292
             129     17.7192E-03     36.2264E-03     992.574E-03     448.674E-03        -2.03184     441.371E-03        -2.02454     992.574E-03     265.097E-03     30.9419E-03    -15.0480E-03    -15.8939E-03    -14.8978E-03     30.7917E-03    -15.8939E-03    -5.24758E-03     230.021E+06     69.8275E+06    -2.72324E+06    -2.71923E+06     230.017E+06     69.8275E+06    -183.166E+03         32.2488
             130     17.7195E-03     37.2589E-03         1.02522     580.660E-03        -2.31292     571.022E-03        -2.30328         1.02522     332.684E-03     30.9719E-03    -15.0701E-03    -15.9018E-03    -14.9167E-03     30.8185E-03    -15.9018E-03    -5.30500E-03     230.116E+06     71.5673E+06    -2.56724E+06    -2.56385E+06     230.113E+06     71.5673E+06    -838.249E+03         32.2684
             131     17.7191E-03     38.2920E-03         1.04848     692.179E-03        -2.55924     681.847E-03        -2.54891         1.04848     365.691E-03     30.4714E-03    -14.5560E-03    -15.9154E-03    -14.4377E-03     30.3531E-03    -15.9154E-03    -4.55128E-03     230.809E+06     71.4388E+06    -405.521E+03    -381.455E+03     230.785E+06     71.4388E+06     1.36635E+06         32.2869
             132     17.7194E-03     39.3249E-03         1.05893     743.686E-03        -2.73413     735.410E-03        -2.72585         1.05893     330.753E-03     30.0787E-03    -14.1558E-03    -15.9229E-03    -14.0613E-03     29.9842E-03    -15.9229E-03    -4.06924E-03     229.196E+06     69.4591E+06    -1.54563E+06    -1.51275E+06     229.163E+06     69.4591E+06     591.576E+03         32.3047
             133     17.7190E-03     40.3537E-03         1.05677     795.205E-03        -2.89373     787.077E-03        -2.88560         1.05677     340.086E-03     30.3602E-03    -14.4424E-03    -15.9178E-03    -14.2781E-03     30.1959E-03    -15.9178E-03    -5.34454E-03     227.728E+06     68.9989E+06    -3.36589E+06    -3.35491E+06     227.717E+06     68.9989E+06    -628.359E+03         32.3222
             134     17.7195E-03     41.3873E-03         1.04525     863.293E-03        -3.07670     853.982E-03        -3.06738         1.04525     379.651E-03     30.5695E-03    -14.6666E-03    -15.9029E-03    -14.4927E-03     30.3956E-03    -15.9029E-03    -5.55162E-03     228.633E+06     69.2311E+06    -1.32605E+06    -1.32033E+06     228.627E+06     69.2311E+06    -275.195E+03         32.3391
             135     17.7193E-03     42.4193E-03         1.02948     925.609E-03        -3.25967     918.146E-03        -3.25221         1.02948     353.145E-03     30.6154E-03    -14.7049E-03    -15.9105E-03    -14.5792E-03     30.4897E-03    -15.9105E-03    -4.76634E-03     228.923E+06     71.1174E+06    -1.61802E+06    -1.60981E+06     228.915E+06     71.1174E+06    -12.8573E+03         32.3550
             136     17.7192E-03     43.4525E-03         1.01666     973.654E-03        -3.40740     968.090E-03        -3.40183         1.01666     306.001E-03     30.5366E-03    -14.6186E-03    -15.9180E-03    -14.4875E-03     30.4055E-03    -15.9180E-03    -4.85510E-03     227.991E+06     71.1423E+06    -2.32444E+06    -2.32017E+06     227.987E+06     71.1423E+06     509.192E+03         32.3709
             137     17.7194E-03     44.4827E-03         1.02903         1.00225        -3.52952         1.01068        -3.52217         1.01326     352.515E-03     30.5807E-03    -14.6710E-03    -15.9098E-03    -14.4937E-03     30.4034E-03    -15.9098E-03    -5.62519E-03     227.170E+06     70.2433E+06    -2.40034E+06    -2.39681E+06     227.166E+06     70.2433E+06    -784.202E+03         32.3880
             138     17.7195E-03     45.5152E-03         1.07496         1.02277        -3.64611         1.06460        -3.63575         1.02277     441.292E-03     30.7851E-03    -14.8848E-03    -15.9002E-03    -14.7062E-03     30.6064E-03    -15.9002E-03    -5.67241E-03     227.649E+06     70.1848E+06    -1.88463E+06    -1.87447E+06     227.639E+06     70.1848E+06     277.108E+03         32.4064
             139     17.7193E-03     46.5496E-03         1.10204         1.04458        -3.71157         1.09106        -3.70058         1.04458     458.383E-03     30.5498E-03    -14.6388E-03    -15.9110E-03    -14.5176E-03     30.4286E-03    -15.9110E-03    -4.65787E-03     228.707E+06     70.9021E+06    -301.103E+03    -291.403E+03     228.697E+06     70.9021E+06     1.45587E+06         32.4251
             140     17.7192E-03     47.5802E-03         1.09498         1.06130        -3.71193         1.07284        -3.70244         1.07395     421.220E-03     30.4592E-03    -14.5373E-03    -15.9219E-03    -14.4171E-03     30.3390E-03    -15.9219E-03    -4.62993E-03     227.044E+06     70.6827E+06    -1.70489E+06    -1.70078E+06     227.039E+06     70.6827E+06     181.093E+03         32.4444
             141     17.7193E-03     48.6121E-03         1.10469         1.08598        -3.72871         1.07706        -3.71979         1.10469     410.633E-03     30.9121E-03    -15.0012E-03    -15.9109E-03    -14.8423E-03     30.7532E-03    -15.9109E-03    -5.38558E-03     225.187E+06     70.2135E+06    -3.87953E+06    -3.87473E+06     225.182E+06     70.2135E+06    -1.01828E+06         32.4652
             142     17.7194E-03     49.6447E-03         1.15879         1.12324        -3.81134         1.14444        -3.80306         1.12931     397.270E-03     30.9267E-03    -15.0238E-03    -15.9028E-03    -14.8716E-03     30.7744E-03    -15.9028E-03    -5.26558E-03     226.654E+06     70.5514E+06    -1.41968E+06    -1.41029E+06     226.645E+06     70.5514E+06     184.574E+03         32.4862
             143     17.7193E-03     50.6793E-03         1.22272         1.13799        -3.91134         1.21680        -3.90542         1.13799     348.071E-03     30.2795E-03    -14.3625E-03    -15.9170E-03    -14.2491E-03     30.1661E-03    -15.9170E-03    -4.48859E-03     225.717E+06     69.1991E+06    -1.48209E+06    -1.47365E+06     225.708E+06     69.1991E+06     278.524E+03         32.5059
             144     17.7193E-03     51.7082E-03         1.23200         1.12585        -3.97601         1.22682        -3.97082         1.12585     325.478E-03     30.3067E-03    -14.3821E-03    -15.9246E-03    -14.2298E-03     30.1544E-03    -15.9246E-03    -5.13385E-03     224.182E+06     69.4601E+06    -3.27057E+06    -3.26794E+06     224.180E+06     69.4601E+06    -637.064E+03         32.5248
             145     17.7194E-03     52.7403E-03         1.23461         1.09778        -4.03543         1.22836        -4.02917         1.09778     355.894E-03     30.7239E-03    -14.8064E-03    -15.9175E-03    -14.6194E-03     30.5369E-03    -15.9175E-03    -5.81569E-03     225.462E+06     71.2166E+06    -1.74836E+06    -1.74659E+06     225.460E+06     71.2166E+06     339.104E+03         32.5438
             146     17.7192E-03     53.7749E-03         1.27389         1.06135        -4.11236         1.26747        -4.10594         1.06135     365.533E-03     30.5083E-03    -14.5977E-03    -15.9106E-03    -14.4428E-03     30.3534E-03    -15.9106E-03    -5.27300E-03     224.166E+06     68.6830E+06    -1.92947E+06    -1.92068E+06     224.157E+06     68.6830E+06    -456.918E+03         32.5625
             147     17.7195E-03     54.8039E-03         1.28947         1.02203        -4.15496         1.28410        -4.14960         1.02203     339.421E-03     30.5521E-03    -14.6410E-03    -15.9111E-03    -14.4853E-03     30.3963E-03    -15.9111E-03    -5.29228E-03     223.488E+06     68.9693E+06    -2.03484E+06    -2.02690E+06     223.480E+06     68.9693E+06    -585.839E+03         32.5821
             148     17.7192E-03     55.8387E-03         1.26114     985.911E-03        -4.14286         1.25548        -4.13720     985.911E-03     348.461E-03     30.7215E-03    -14.8076E-03    -15.9139E-03    -14.6493E-03     30.5632E-03    -15.9139E-03    -5.35638E-03     223.366E+06     70.1685E+06    -1.87484E+06    -1.87394E+06     223.365E+06     70.1685E+06     228.423E+03         32.6029
             149     17.7192E-03     57.9017E-03         1.23634     948.849E-03        -4.16594         1.22798        -4.15759     948.849E-03     416.649E-03     30.6169E-03    -14.7012E-03    -15.9157E-03    -14.5332E-03     30.4489E-03    -15.9157E-03    -5.50790E-03     222.635E+06     69.6780E+06    -1.39031E+06    -1.38526E+06     222.630E+06     69.6780E+06     558.089E+03         32.6455
             150     17.7195E-03     58.9348E-03         1.24382     955.772E-03        -4.20981         1.23834        -4.20433     955.772E-03     345.545E-03     30.4985E-03    -14.5827E-03    -15.9158E-03    -14.4410E-03     30.3568E-03    -15.9158E-03    -5.01368E-03     222.569E+06     69.2980E+06    -592.992E+03    -588.201E+03     222.564E+06     69.2980E+06      727.74E+03         32.6672
             151     17.7192E-03     59.9662E-03         1.23427     981.930E-03        -4.24785         1.22959        -4.24317     981.930E-03     318.082E-03     30.5597E-03    -14.6327E-03    -15.9270E-03    -14.4970E-03     30.4240E-03    -15.9270E-03    -4.92363E-03     221.301E+06     70.0472E+06    -2.60122E+06    -2.60120E+06     221.301E+06     70.0472E+06    -45.4845E+03         32.6896
             152     17.7192E-03     60.9986E-03         1.26303         1.02746        -4.34420         1.25751        -4.33868         1.02746     347.040E-03     30.6997E-03    -14.7834E-03    -15.9163E-03    -14.6146E-03     30.5308E-03    -15.9163E-03    -5.53190E-03     219.950E+06     68.4168E+06    -3.24550E+06    -3.23983E+06     219.945E+06     68.4168E+06    -834.789E+03         32.7134
             153     17.7196E-03     62.0296E-03         1.34508         1.08933        -4.51106         1.34011        -4.50609         1.08933     328.992E-03     30.7635E-03    -14.8623E-03    -15.9012E-03    -14.6839E-03     30.5851E-03    -15.9012E-03    -5.69470E-03     219.806E+06     67.6380E+06    -2.33254E+06    -2.32657E+06     219.800E+06     67.6380E+06    -977.601E+03         32.7376
             154     17.7194E-03     63.0640E-03         1.41139         1.16149        -4.67083         1.40797        -4.66740         1.16149     286.388E-03     30.6649E-03    -14.7481E-03    -15.9168E-03    -14.6045E-03     30.5213E-03    -15.9168E-03    -5.05764E-03     220.523E+06     70.0703E+06    -1.56981E+06    -1.56936E+06     220.523E+06     70.0703E+06    -60.4091E+03         32.7607
             155     17.7193E-03     64.0957E-03         1.43478         1.23804        -4.80003         1.43134        -4.79659         1.23804     290.338E-03     30.4993E-03    -14.5771E-03    -15.9221E-03    -14.4336E-03     30.3557E-03    -15.9221E-03    -5.03474E-03     219.248E+06     68.8881E+06    -2.12366E+06    -2.12271E+06     219.247E+06     68.8881E+06    -172.814E+03         32.7829
             156     17.7195E-03     65.1257E-03         1.49616         1.31310        -4.97742         1.49304        -4.97430         1.31310     283.558E-03     30.5405E-03    -14.6353E-03    -15.9052E-03    -14.4607E-03     30.3658E-03    -15.9052E-03    -5.60588E-03     218.654E+06     66.4427E+06    -950.733E+03    -933.809E+03     218.637E+06     66.4427E+06     1.02912E+06         32.8060
             157     17.7194E-03     66.1611E-03         1.62320         1.37892        -5.22620         1.62102        -5.22402         1.37892     226.604E-03     30.4886E-03    -14.5702E-03    -15.9184E-03    -14.4411E-03     30.3595E-03    -15.9184E-03    -4.76124E-03     218.438E+06     68.2847E+06    -1.20636E+06    -1.18826E+06     218.419E+06     68.2847E+06     859.337E+03         32.8305
             158     17.7192E-03     67.1907E-03         1.70945         1.42934        -5.44694         1.70821        -5.44570         1.42934     183.866E-03     30.6235E-03    -14.7021E-03    -15.9214E-03    -14.5495E-03     30.4708E-03    -15.9214E-03    -5.13993E-03     216.722E+06     68.2442E+06    -3.40178E+06    -3.39964E+06     216.720E+06     68.2442E+06    -601.196E+03         32.8567
             159     17.7196E-03     68.2228E-03         1.74620         1.46302        -5.62170         1.74499        -5.62048         1.46302     183.586E-03     30.7452E-03    -14.8332E-03    -15.9120E-03    -14.6566E-03     30.5686E-03    -15.9120E-03    -5.63101E-03     217.333E+06     68.0044E+06    -1.75008E+06    -1.74753E+06     217.331E+06     68.0044E+06     377.791E+03         32.8836
             160     17.7192E-03     69.2576E-03         1.82352         1.48129        -5.83293         1.82246        -5.83187         1.48129     177.193E-03     30.4886E-03    -14.5635E-03    -15.9251E-03    -14.4430E-03     30.3681E-03    -15.9251E-03    -4.64270E-03     217.296E+06     68.6616E+06    -775.148E+03    -772.699E+03     217.294E+06     68.6616E+06     587.352E+03         32.9096
             161     17.7194E-03     70.2870E-03         1.92139         1.48746        -6.06176         1.92057        -6.06094         1.48746     145.296E-03     30.5359E-03    -14.6131E-03    -15.9228E-03    -14.4550E-03     30.3778E-03    -15.9228E-03    -5.25457E-03     214.591E+06     66.5945E+06    -3.08821E+06    -3.07800E+06     214.581E+06     66.5945E+06    -975.707E+03         32.9359
             162     17.7193E-03     71.3192E-03         1.95337         1.48843        -6.20621         1.95287        -6.20571         1.48843     120.232E-03     30.8278E-03    -14.9171E-03    -15.9107E-03    -14.7407E-03     30.6514E-03    -15.9107E-03    -5.63735E-03     214.595E+06     66.5222E+06    -2.43621E+06    -2.42381E+06     214.583E+06     66.5222E+06    -559.353E+03         32.9631
             163     17.7195E-03     72.3537E-03         1.92646         1.49379        -6.26382         1.92565        -6.26301         1.49379     163.143E-03     30.6818E-03    -14.7646E-03    -15.9172E-03    -14.6450E-03     30.5622E-03    -15.9172E-03    -4.64299E-03     215.462E+06     67.5506E+06    -1.23000E+06    -1.22772E+06     215.459E+06     67.5506E+06     552.417E+03         32.9888
             164     17.7192E-03     73.3846E-03         1.91427         1.51243        -6.31556         1.91288        -6.31418         1.51243     208.592E-03     30.4840E-03    -14.5546E-03    -15.9294E-03    -14.4246E-03     30.3540E-03    -15.9294E-03    -4.79919E-03     214.979E+06     67.2945E+06    -2.15410E+06    -2.15132E+06     214.976E+06     67.2945E+06     606.926E+03         33.0129
             165     17.7193E-03     74.4164E-03         1.91679         1.54935        -6.35788         1.91564        -6.35673         1.54935     180.511E-03     30.4497E-03    -14.5345E-03    -15.9152E-03    -14.3825E-03     30.2978E-03    -15.9152E-03    -5.21773E-03     215.370E+06     64.5617E+06    -1.45587E+06    -1.45295E+06     215.367E+06     64.5617E+06     682.947E+03         33.0381
             166     17.7194E-03     75.4486E-03         1.88301         1.60497        -6.34392         1.88236        -6.34327         1.60497     141.941E-03     30.5502E-03    -14.6495E-03    -15.9007E-03    -14.5066E-03     30.4072E-03    -15.9007E-03    -5.07499E-03     215.333E+06     62.9688E+06    -1.90934E+06    -1.90832E+06     215.332E+06     62.9688E+06    -168.604E+03         33.0656
             167     17.7193E-03     76.4805E-03         1.84074         1.67649        -6.32584         1.84006        -6.32515         1.67649     146.444E-03     30.6498E-03    -14.7604E-03    -15.8895E-03    -14.6076E-03     30.4971E-03    -15.8895E-03    -5.25549E-03     216.188E+06     62.1646E+06    -1.93467E+06    -1.93336E+06     216.186E+06     62.1646E+06    -82.8210E+03         33.0943
             168     17.7195E-03     77.5130E-03         1.84877         1.75938        -6.36912         1.84818        -6.36854         1.75938     137.170E-03     30.6384E-03    -14.7517E-03    -15.8866E-03    -14.5984E-03     30.4850E-03    -15.8866E-03    -5.26504E-03     216.385E+06     61.5695E+06    -2.29657E+06    -2.29543E+06     216.384E+06     61.5695E+06    -51.5748E+03         33.1231
             169     17.7192E-03     78.5450E-03         1.88019         1.84052        -6.43936         1.87332        -6.43898         1.84702     83.7769E-03     30.5141E-03    -14.6310E-03    -15.8831E-03    -14.4937E-03     30.3768E-03    -15.8831E-03    -4.96996E-03     217.125E+06     60.4227E+06    -1.37582E+06    -1.36835E+06     217.117E+06     60.4227E+06     587.368E+03         33.1512
             170     17.7195E-03     79.5779E-03         1.93191         1.86233        -6.50145         1.86232        -6.50145         1.93191     9.57463E-03     30.3676E-03    -14.4793E-03    -15.8883E-03    -14.3495E-03     30.2378E-03    -15.8883E-03    -4.81793E-03     216.155E+06     59.3603E+06    -1.85156E+06    -1.84233E+06     216.146E+06     59.3603E+06     345.413E+03         33.1789
             171     17.7189E-03     80.6085E-03         2.01118         1.86615        -6.60558         1.86612        -6.60555         2.01118    -17.3045E-03     30.4553E-03    -14.5649E-03    -15.8904E-03    -14.4040E-03     30.2944E-03    -15.8904E-03    -5.34603E-03     214.626E+06     59.0749E+06    -1.57393E+06    -1.57115E+06     214.623E+06     59.0749E+06    -325.800E+03         33.2080
             172     17.7197E-03     81.6406E-03         2.08668         1.93210        -6.77091         1.93203        -6.77085         2.08668     1.70499E-03     30.5016E-03    -14.6349E-03    -15.8667E-03    -14.4605E-03     30.3271E-03    -15.8667E-03    -5.59266E-03     213.254E+06     54.9502E+06    -1.66120E+06    -1.65187E+06     213.244E+06     54.9502E+06    -794.247E+03         33.2391
             173     17.7190E-03     82.6734E-03         2.15938         1.97006        -6.90404         1.97001        -6.90399         2.15938     7.99121E-03     30.3543E-03    -14.5060E-03    -15.8483E-03    -14.3506E-03     30.1988E-03    -15.8483E-03    -5.27226E-03     211.283E+06     50.3741E+06    -2.65133E+06    -2.63987E+06     211.271E+06     50.3741E+06    -1.49659E+06         33.2713
             174     17.7197E-03     83.7045E-03         2.22900         1.94097        -6.95711         1.94096        -6.95709         2.22900    -8.32921E-03     30.3069E-03    -14.4710E-03    -15.8359E-03    -14.3019E-03     30.1378E-03    -15.8359E-03    -5.48965E-03     210.513E+06     48.6507E+06    -1.45653E+06    -1.44549E+06     210.502E+06     48.6507E+06    -1.46468E+06         33.3037
             175     17.7193E-03     84.7359E-03         2.29592         1.93219        -7.01047         1.93219        -7.01047         2.29592     11.0456E-03     30.4755E-03    -14.6465E-03    -15.8290E-03    -14.4835E-03     30.3126E-03    -15.8290E-03    -5.40258E-03     211.217E+06     48.7741E+06    -621.385E+03    -608.794E+03     211.204E+06     48.7741E+06    -299.412E+03         33.3353
             176     17.7195E-03     85.7702E-03         2.36024         1.94898        -7.09386         1.94896        -7.09384         2.36024     21.5256E-03     30.2557E-03    -14.4368E-03    -15.8189E-03    -14.3166E-03     30.1355E-03    -15.8189E-03    -4.61099E-03     208.894E+06     44.9237E+06    -687.750E+03    -680.204E+03     208.887E+06     44.9237E+06     48.2791E+03         33.3659
             177     17.7194E-03     86.7999E-03         2.42280         1.93856        -7.14544         1.93850        -7.14537         2.42280    -9.65858E-03     30.0613E-03    -14.2638E-03    -15.7975E-03    -14.1401E-03     29.9375E-03    -15.7975E-03    -4.65154E-03     205.014E+06     39.3578E+06    -2.00182E+06    -1.99765E+06     205.010E+06     39.3578E+06    -861.063E+03         33.3976
             178     17.7197E-03     87.8320E-03         2.48606         1.89968        -7.14689         1.89963        -7.14685         2.48606    -18.2993E-03     30.1847E-03    -14.4332E-03    -15.7515E-03    -14.2646E-03     30.0161E-03    -15.7515E-03    -5.46610E-03     202.554E+06     32.6405E+06    -1.58745E+06    -1.56354E+06     202.530E+06     32.6405E+06    -1.78665E+06         33.4321
             179     17.7199E-03     88.8629E-03         2.55232         1.86001        -7.13690         1.86000        -7.13689         2.55232     13.0227E-03     30.1529E-03    -14.4370E-03    -15.7159E-03    -14.2686E-03     29.9845E-03    -15.7159E-03    -5.46178E-03     198.519E+06     27.3356E+06    -842.338E+03    -810.131E+03     198.486E+06     27.3356E+06    -2.46942E+06         33.4678
             180     17.7201E-03     89.8957E-03         2.62323         1.83042        -7.11620         1.83042        -7.11620         2.62323     3.20055E-03     30.0490E-03    -14.3589E-03    -15.6901E-03    -14.2235E-03     29.9135E-03    -15.6901E-03    -4.89133E-03     192.856E+06     23.8766E+06     13.9866E+03     66.8497E+03     192.804E+06     23.8766E+06    -2.97188E+06         33.5022
             181     17.7207E-03     90.9264E-03         2.69808         1.79153        -7.04376         1.79142        -7.04364         2.69808    -44.7047E-03     30.0275E-03    -14.3703E-03    -15.6571E-03    -14.2407E-03     29.8978E-03    -15.6571E-03    -4.78923E-03     185.643E+06     19.8112E+06    -875.637E+03    -818.983E+03     185.586E+06     19.8112E+06    -3.11705E+06         33.5347
             182     17.7210E-03     91.9582E-03         2.77120         1.73023        -6.90631         1.73010        -6.90618         2.77120    -56.1645E-03     29.9260E-03    -14.3222E-03    -15.6038E-03    -14.1853E-03     29.7891E-03    -15.6038E-03    -4.91570E-03     179.734E+06     13.8884E+06     229.016E+03     247.238E+03     179.716E+06     13.8884E+06    -1.77632E+06         33.5676
             183     17.7220E-03     92.9894E-03         2.83382         1.65784        -6.73118         1.65782        -6.73116         2.83382    -25.5416E-03     29.7221E-03    -14.2056E-03    -15.5165E-03    -14.0625E-03     29.5791E-03    -15.5165E-03    -5.00386E-03     171.586E+06     3.16892E+06    -146.073E+03     24.4579E+03     171.512E+06     3.07214E+06    -3.09312E+06         33.6018
             184     17.7230E-03     94.0189E-03         2.87557         1.58917        -6.54416         1.58894        -6.54393         2.87557    -73.4015E-03     29.8815E-03    -14.4766E-03    -15.4049E-03    -14.3133E-03     29.7182E-03    -15.4049E-03    -5.37121E-03     163.632E+06     78.8746E+03    -6.41351E+06     165.461E+03     163.546E+06    -6.41351E+06    -3.60456E+06         33.6388
             185     17.7247E-03     95.0512E-03         2.88650         1.51945        -6.34607         1.51840        -6.34502         2.88650    -172.720E-03     30.0325E-03    -14.7414E-03    -15.2911E-03    -14.5858E-03     29.8769E-03    -15.2911E-03    -5.25796E-03     157.770E+06     720.809E+03    -11.4403E+06     763.389E+03     157.728E+06    -11.4403E+06    -2.57863E+06         33.6822
             186     17.7264E-03     96.0821E-03         2.86294         1.43780        -6.13612         1.43634        -6.13465         2.86294    -210.419E-03     30.1536E-03    -14.9377E-03    -15.2159E-03    -14.8087E-03     30.0005E-03    -15.1918E-03    -5.23985E-03     151.567E+06     1.07894E+06    -9.11147E+06     1.11935E+06     151.527E+06    -9.11147E+06    -2.45709E+06         33.7449
             187     17.7292E-03     97.1121E-03         2.80702         1.37076        -5.92741         1.36930        -5.92595         2.80702    -205.937E-03     30.7737E-03    -15.0872E-03    -15.6865E-03    -15.5061E-03     30.5934E-03    -15.0872E-03    -5.77685E-03     148.641E+06     5.90224E+06    -3.62554E+06     818.014E+03     148.622E+06     1.47730E+06    -651.240E+03         33.8779
             188     17.7320E-03     98.1453E-03         2.72091         1.31994        -5.71892         1.31773        -5.71672         2.72091    -246.754E-03     31.8361E-03    -15.0218E-03    -16.8143E-03    -16.6166E-03     31.6384E-03    -15.0218E-03    -6.19001E-03     147.322E+06     24.8516E+06       5.338E+03     9.17013E+03     147.318E+06     24.8516E+06     115.782E+03         34.2199
             189     17.7349E-03     99.1779E-03         2.60838         1.25057        -5.48045         1.24773        -5.47761         2.60838    -276.391E-03     34.1299E-03    -15.0395E-03    -19.0905E-03    -18.8328E-03     33.8723E-03    -15.0395E-03    -7.37048E-03     141.374E+06     61.7615E+06    -4.00297E+06    -3.88327E+06     141.254E+06     61.7615E+06    -3.26050E+06         34.8533
             190     17.7356E-03     100.214E-03         2.47785         1.16423        -5.18752         1.16230        -5.18558         2.47785    -214.794E-03     37.8592E-03    -15.0490E-03    -22.8102E-03    -22.4556E-03     37.5046E-03    -15.0490E-03    -9.24515E-03     132.898E+06     93.2244E+06    -2.76332E+06    -2.57516E+06     132.710E+06     93.2244E+06    -5.02882E+06         35.5827
             191     17.7363E-03     101.256E-03         2.33706         1.05671        -4.84079         1.05594        -4.84003         2.33706    -133.579E-03     41.4864E-03    -14.9948E-03    -26.4916E-03    -26.1327E-03     41.1275E-03    -14.9948E-03    -9.82070E-03     123.905E+06     105.820E+06    -1.57104E+06    -1.45206E+06     123.786E+06     105.820E+06    -3.84577E+06         36.1590
             192     17.7367E-03     102.299E-03         2.18987     930.318E-03        -4.44607     929.303E-03        -4.44505         2.18987    -143.322E-03     45.0493E-03    -14.9096E-03    -30.1397E-03    -29.8255E-03     44.7351E-03    -14.9096E-03    -9.69616E-03     117.261E+06     109.262E+06    -2.62926E+06    -2.53417E+06     115.033E+06     111.395E+06    -3.34422E+06         36.5659
             193     17.7373E-03     103.348E-03         2.03842     811.201E-03        -4.02066     809.283E-03        -4.01874         2.03842    -190.305E-03     48.8187E-03    -14.8020E-03    -34.0168E-03    -33.7469E-03     48.5488E-03    -14.8020E-03    -9.39651E-03     115.161E+06     107.108E+06    -1.78567E+06    -1.69641E+06     107.019E+06     115.161E+06    -3.11595E+06         36.9188
             194     17.7379E-03     104.401E-03         1.88203     710.722E-03        -3.58998     708.564E-03        -3.58782         1.88203    -192.565E-03     52.4986E-03    -14.6775E-03    -37.8211E-03    -37.6350E-03     52.3124E-03    -14.6775E-03    -8.11370E-03     115.453E+06     96.6642E+06    -3.29438E+06    -3.01328E+06     96.3831E+06     115.453E+06    -4.81654E+06         37.3027
             195     17.7388E-03     105.457E-03         1.71761     617.348E-03        -3.16169     615.858E-03        -3.16020         1.71761    -149.020E-03     56.4734E-03    -14.5365E-03    -41.9369E-03    -41.8463E-03     56.3828E-03    -14.5365E-03    -5.65151E-03     114.226E+06     84.5369E+06    -4.83013E+06    -4.40757E+06     84.1143E+06     114.226E+06    -6.12177E+06         37.7150
             196     17.7394E-03     106.521E-03         1.54316     496.049E-03        -2.71006     494.628E-03        -2.70863         1.54316    -132.775E-03     59.8463E-03    -14.3977E-03    -45.4486E-03    -45.4293E-03     59.8270E-03    -14.3977E-03    -2.15573E-03     112.207E+06     73.3687E+06    -2.47005E+06    -2.04440E+06     72.9431E+06     112.207E+06    -5.60602E+06         38.1437
             197     17.7407E-03     107.586E-03         1.35768     362.794E-03        -2.24111     360.754E-03        -2.23907         1.35768    -144.745E-03     62.8931E-03    -14.2677E-03    -48.6253E-03    -48.6171E-03     62.8848E-03    -14.2677E-03     1.19458E-03     110.272E+06     63.1144E+06    -3.10989E+06    -2.79360E+06     62.7982E+06     110.272E+06    -4.37070E+06         38.5458
             198     17.7412E-03     108.653E-03         1.16041     283.606E-03        -1.82667     281.343E-03        -1.82441         1.16041    -138.022E-03     66.7203E-03    -14.0927E-03    -52.6275E-03    -52.6141E-03     66.7068E-03    -14.0927E-03     2.51313E-03     107.174E+06     58.7814E+06    -1.21762E+06    -845.244E+03     58.4090E+06     107.174E+06     1.14623E+06         38.8859
             199     17.7428E-03     109.726E-03     949.800E-03     250.926E-03        -1.46075     249.371E-03        -1.45920     949.800E-03    -101.649E-03     72.5128E-03    -13.8618E-03    -58.6509E-03    -58.2971E-03     72.1589E-03    -13.8618E-03     10.9544E-03     102.660E+06     58.4170E+06    -4.58209E+06    -4.28495E+06     58.1198E+06     102.660E+06     2.83084E+06         39.1692
             200     17.7433E-03     110.818E-03     724.480E-03     187.928E-03        -1.07102     187.491E-03        -1.07058     724.480E-03    -34.1289E-03     77.8401E-03    -13.5924E-03    -64.2478E-03    -62.4843E-03     76.0767E-03    -13.5924E-03     29.8990E-03     72.8109E+06     48.1792E+06    -25.8604E+06    -15.8751E+06     38.1939E+06     72.8109E+06    -16.2889E+06         39.4747
             201     17.7446E-03     111.917E-03     487.449E-03     85.6888E-03    -664.608E-03     85.4023E-03    -664.322E-03     487.449E-03    -14.6347E-03     72.1610E-03    -13.6374E-03    -58.5236E-03    -52.7593E-03     66.3968E-03    -13.6374E-03     50.6281E-03     43.1719E+06     27.2965E+06    -23.5554E+06     12.6413E+06     3.33367E+06     30.9381E+06    -17.5718E+06         38.6425
             202     17.7429E-03     112.989E-03     247.180E-03     35.8567E-03    -312.925E-03     35.5261E-03    -312.594E-03     247.180E-03    -12.5084E-03     37.0495E-03    -3.51022E-03    -33.5393E-03    -17.1649E-03     32.1017E-03    -14.9368E-03     31.7493E-03     26.6259E+06    -3.69601E+06    -31.7816E+06     8.76713E+06     129.834E+03    -17.7487E+06     1.04785E+06         34.8515
             203     16.6659E-03     113.922E-03     142.030E-03     52.3756E-03    -199.432E-03     50.9493E-03    -198.006E-03     142.030E-03    -24.5275E-03     25.4803E-03    -5.08165E-03    -20.3986E-03    -7.84331E-03     24.3515E-03    -16.5082E-03     9.54165E-03     41.6480E+06    -13.4077E+06    -45.9916E+06    -31.0531E+06     3.79464E+06     9.50725E+06     5.53400E+06         30.0938
             204     15.6984E-03     113.802E-03     175.241E-03     65.9191E-03    -255.916E-03     62.7234E-03    -252.720E-03     175.241E-03    -63.7672E-03     41.5794E-03    -16.5555E-03    -25.0239E-03    -23.1574E-03     39.7129E-03    -16.5555E-03     21.4133E-03     64.3557E+06    -946.317E+03    -41.2800E+06    -39.2564E+06    -2.96993E+06     64.3557E+06    -2.10088E+06         26.6943
             205     14.7289E-03     113.676E-03     212.189E-03     73.0878E-03    -299.127E-03     70.7219E-03    -296.761E-03     212.189E-03    -13.8640E-03     34.3568E-03    -13.7952E-03    -20.5616E-03    -16.7861E-03     32.7697E-03    -15.9836E-03     17.4634E-03     62.6919E+06    -2.33310E+06    -37.6663E+06    -35.4609E+06    -4.53857E+06     62.6919E+06    -8.54359E+06         24.5297
             206     13.7503E-03     113.580E-03     247.571E-03     72.3115E-03    -322.431E-03     70.1352E-03    -320.255E-03     247.571E-03     56.3000E-03     28.1248E-03    -12.2830E-03    -15.8417E-03    -11.9901E-03     27.8318E-03    -15.8417E-03     6.26067E-03     71.8939E+06     3.63291E+06    -31.8644E+06    -29.4662E+06     1.23475E+06     71.8939E+06    -8.89266E+06         23.4140
             207     12.7649E-03     113.509E-03     283.470E-03     56.4350E-03    -321.152E-03     54.7952E-03    -319.512E-03     283.470E-03     38.4086E-03     33.0677E-03    -14.3253E-03    -18.7423E-03    -17.3295E-03     33.0252E-03    -15.6957E-03     1.68026E-03     81.3008E+06     7.00188E+06    -27.9417E+06    -20.6125E+06    -327.286E+03     81.3008E+06    -12.1753E+06         22.8839
             208     11.7951E-03     113.438E-03     321.702E-03     63.8297E-03    -353.757E-03     62.7622E-03    -352.690E-03     321.702E-03    -28.0466E-03     36.1320E-03    -15.1573E-03    -20.9747E-03    -20.9712E-03     36.1285E-03    -15.1573E-03    -793.018E-06     83.5533E+06     4.04957E+06    -17.5981E+06    -8.76897E+06    -4.77959E+06     83.5533E+06    -10.6022E+06         22.6062
             209     10.8237E-03     113.381E-03     360.401E-03     96.0012E-03    -413.916E-03     93.8101E-03    -411.725E-03     360.401E-03     4.22791E-03     34.0625E-03    -14.4570E-03    -19.6056E-03    -19.5994E-03     34.0564E-03    -14.4570E-03    -1.14904E-03     80.1044E+06     5.90939E+06    -9.31321E+06    -913.532E+03    -2.49029E+06     80.1044E+06    -6.74796E+06         22.3759
             210     9.84752E-03     113.336E-03     399.747E-03     109.859E-03    -452.320E-03     108.703E-03    -451.164E-03     399.747E-03     30.7750E-03     32.3894E-03    -13.8188E-03    -18.5706E-03    -18.5632E-03     32.3820E-03    -13.8188E-03    -1.22005E-03     77.6072E+06     4.83402E+06    -5.44559E+06     1.55877E+06    -2.17034E+06     77.6072E+06    -4.44616E+06         22.1691
             211     8.86977E-03     113.299E-03     441.823E-03     128.702E-03    -464.609E-03     127.531E-03    -463.438E-03     441.823E-03    -42.3230E-03     30.9230E-03    -13.1682E-03    -17.7547E-03    -17.7449E-03     30.9131E-03    -13.1682E-03    -1.38150E-03     72.1872E+06     6.74022E+06    -3.16171E+06     2.95727E+06     621.241E+03     72.1872E+06    -4.65267E+06         21.9934
             212     7.89064E-03     113.269E-03     484.127E-03     216.189E-03    -514.227E-03     214.228E-03    -512.266E-03     484.127E-03    -74.5498E-03     28.9950E-03    -12.5230E-03    -16.4721E-03    -16.4603E-03     28.9833E-03    -12.5230E-03    -1.45704E-03     64.7242E+06     8.50834E+06    -4.25925E+06     5.21913E+06    -970.045E+03     64.7242E+06    -5.56764E+06         21.8377
             213     6.90944E-03     113.246E-03     520.213E-03     340.988E-03    -617.551E-03     339.847E-03    -616.410E-03     520.213E-03    -10.2230E-03     26.9815E-03    -11.9330E-03    -15.0485E-03    -15.0365E-03     26.9695E-03    -11.9330E-03    -1.42134E-03     58.9445E+06     10.2467E+06    -3.71901E+06     7.68528E+06    -1.15762E+06     58.9445E+06    -5.34687E+06         21.6985
             214     5.92607E-03     113.228E-03     549.978E-03     410.594E-03    -684.657E-03     407.575E-03    -681.637E-03     549.978E-03    -50.6186E-03     25.2662E-03    -11.3869E-03    -13.8793E-03    -13.8685E-03     25.2554E-03    -11.3869E-03    -1.30173E-03     51.6890E+06     11.8815E+06    -2.78825E+06     9.97632E+06    -883.051E+03     51.6890E+06    -4.92419E+06         21.5776
             215     4.94122E-03     113.214E-03     584.963E-03     396.248E-03    -644.562E-03     393.307E-03    -641.621E-03     584.963E-03    -55.2154E-03     23.6531E-03    -10.8788E-03    -12.7743E-03    -12.7650E-03     23.6438E-03    -10.8788E-03    -1.16554E-03     43.3858E+06     14.2666E+06    -1.86243E+06     12.4958E+06    -91.6778E+03     43.3858E+06    -5.03901E+06         21.4730
             216     3.95484E-03     113.204E-03     633.723E-03     427.613E-03    -645.100E-03     422.687E-03    -640.173E-03     633.723E-03    -82.5498E-03     22.1703E-03    -10.4430E-03    -11.7274E-03    -11.7192E-03     22.1622E-03    -10.4430E-03    -1.04915E-03     37.4714E+06     17.9666E+06    -3.02403E+06     16.5794E+06    -1.63679E+06     37.4714E+06    -5.04310E+06         21.3826
             217     2.96730E-03     113.196E-03     728.796E-03     580.640E-03    -886.762E-03     629.907E-03    -876.675E-03     669.442E-03     37.3444E-03     20.9119E-03    -10.0805E-03    -10.8313E-03    -10.8250E-03     20.9056E-03    -10.0805E-03    -889.713E-06     31.5135E+06     22.5517E+06    -2.12433E+06     21.5759E+06    -1.14850E+06     31.5135E+06    -4.80898E+06         21.3074
             218     1.97862E-03     113.191E-03     901.023E-03     633.237E-03        -1.13634     814.235E-03        -1.04955     633.237E-03    -434.112E-03     19.9381E-03    -9.82084E-03    -10.1172E-03    -10.0655E-03     19.9343E-03    -9.86876E-03    -668.538E-06     30.2907E+06     27.4908E+06    -2.04428E+06     26.7556E+06    -1.30908E+06     30.2907E+06    -4.43559E+06         21.2513
             219     989.264E-06     113.188E-03     819.331E-03     458.156E-03    -886.929E-03     722.253E-03    -789.850E-03     458.156E-03    -383.649E-03     19.6448E-03    -9.72393E-03    -9.92083E-03    -9.87088E-03     19.6427E-03    -9.77185E-03    -481.897E-06     35.8384E+06     33.1368E+06    -2.37704E+06     32.8326E+06    -2.07282E+06     35.8384E+06    -3.11979E+06         21.2169
             220    -334.687E-09     112.167E-03         1.06119     659.218E-03        -1.38530     983.819E-03        -1.30794     659.218E-03     854.962E-03     17.3852E-03    -8.55252E-03    -8.83271E-03    -8.70021E-03     17.3839E-03    -8.68373E-03    -367.102E-06     19.1384E+06     16.7506E+06    -9.91879E+06     17.0609E+06    -9.08721E+06     17.9965E+06    -3.69035E+06         21.1303
             221     63.9723E-09     111.152E-03         1.46524         1.20626        -2.50844         1.36335        -2.41630         1.21601         1.16753     13.1083E-03    -6.46369E-03    -6.64464E-03    -6.51242E-03     13.1073E-03    -6.59491E-03    -281.254E-06    -10.0175E+06    -12.5925E+06    -23.8305E+06    -11.2984E+06    -22.5497E+06    -12.5925E+06    -3.98952E+06         20.9453
             222     21.3609E-09     110.141E-03         1.56734         1.52978        -3.12686         1.48000        -3.04928         1.53953         1.19340     9.75307E-03    -4.84313E-03    -4.90994E-03    -4.89202E-03     9.75222E-03    -4.86020E-03    -222.293E-06    -30.5808E+06    -40.6746E+06    -46.3692E+06    -41.8088E+06    -35.1412E+06    -40.6746E+06    -3.93535E+06         20.7290
             223    -27.7808E-09     109.133E-03         1.92644         1.64134        -3.73390         1.85722        -3.66468         1.64134         1.21001     7.08235E-03    -3.50207E-03    -3.58028E-03    -3.50160E-03     7.08188E-03    -3.58028E-03    -116.474E-06    -49.2624E+06    -79.9964E+06    -83.3648E+06    -81.3897E+06    -50.4993E+06    -80.7346E+06    -6.24148E+06         20.5367
             224    -111.197E-09     108.127E-03         2.15778         1.86154        -4.37766         2.08337        -4.34220         1.90048     946.820E-03     4.96542E-03    -2.44775E-03    -2.51767E-03    -2.45632E-03     4.96522E-03    -2.50890E-03     40.1298E-06    -65.6341E+06    -119.004E+06    -120.147E+06    -118.279E+06    -66.3592E+06    -120.147E+06    -5.23002E+06         20.3931
             225     124.354E-09     107.123E-03         2.26125         2.13487        -4.97031         2.18900        -4.93700         2.17381     974.042E-03     3.53672E-03    -1.74986E-03    -1.78686E-03    -1.75670E-03     3.53480E-03    -1.77809E-03     172.983E-06    -78.0470E+06    -152.900E+06    -153.572E+06    -152.828E+06    -78.1191E+06    -153.572E+06    -1.24662E+06         20.3114
             226    -184.365E-09     106.120E-03         2.52487         2.16333        -5.37637         2.49940        -5.35090         2.16333     849.751E-03     2.93589E-03    -1.44601E-03    -1.48987E-03    -1.43611E-03     2.92598E-03    -1.48987E-03     388.981E-06    -72.6326E+06    -163.846E+06    -166.318E+06    -163.508E+06    -72.9700E+06    -166.318E+06     4.22804E+06         20.3056
             227     104.596E-09     105.117E-03         2.61068         2.28136        -5.73793         2.60260        -5.72985         2.28136     509.478E-03     3.71056E-03    -1.83009E-03    -1.88047E-03    -1.84230E-03     3.68802E-03    -1.84571E-03     707.348E-06    -39.7512E+06    -133.547E+06    -136.583E+06    -131.374E+06    -42.7546E+06    -135.753E+06     14.8587E+06         20.3889
             228    -86.1648E-09     104.112E-03         2.63177         2.38154        -6.10759         2.62920        -6.10502         2.38154     217.631E-03     6.46473E-03    -3.19056E-03    -3.27418E-03    -3.24320E-03     6.43376E-03    -3.19056E-03     1.08942E-03     16.0666E+06    -52.5210E+06    -60.3279E+06    -53.3960E+06     9.13467E+06    -52.5210E+06     21.2290E+06         20.5623
             229     190.547E-09     103.103E-03         2.91548         2.29136        -6.44032         2.91030        -6.43514         2.29136    -307.810E-03     10.6761E-03    -5.27745E-03    -5.39861E-03    -5.36382E-03     10.6413E-03    -5.27745E-03     1.48854E-03     63.1004E+06     30.7509E+06     20.1771E+06     25.0461E+06     58.2314E+06     30.7509E+06     13.1500E+06         20.8063
             230    -39.1773E-09     102.090E-03         3.14140         2.35112        -6.88944         3.11587        -6.86390         2.35112    -964.716E-03     15.1803E-03    -7.52900E-03    -7.65129E-03    -7.61927E-03     15.1483E-03    -7.52900E-03     1.69168E-03     79.8968E+06     65.2881E+06     61.6592E+06     62.6242E+06     78.9319E+06     65.2881E+06     1.53438E+06         21.0880
             231     109.749E-09     101.072E-03         3.36191         2.46713        -7.43661         3.28531        -7.36001         2.46713        -1.76717     19.4910E-03    -9.69589E-03    -9.79509E-03    -9.77081E-03     19.4667E-03    -9.69589E-03     1.67275E-03     85.0496E+06     80.2550E+06     71.8230E+06     79.9044E+06     76.9683E+06     80.2550E+06    -3.68866E+06         21.3750
             232    -21.0252E-09     100.050E-03         3.84507         2.41647        -7.95831         3.67495        -7.78819         2.41647        -2.78130     23.3218E-03    -11.6066E-03    -11.7152E-03    -11.6964E-03     23.3030E-03    -11.6066E-03     1.61481E-03     88.5162E+06     87.3612E+06     64.5550E+06     87.3299E+06     65.7413E+06     87.3612E+06    -4.94740E+06         21.6420
             233     116.079E-09     99.0249E-03         4.28578         2.39662        -8.49858         3.96764        -8.18043         2.39662        -3.94920     26.5008E-03    -13.1993E-03    -13.3015E-03    -13.2851E-03     26.4843E-03    -13.1993E-03     1.61555E-03     87.9701E+06     86.3101E+06     49.0165E+06     86.5607E+06     49.8347E+06     86.9014E+06    -5.50649E+06         21.8713
             234    -31.9788E-09     97.9963E-03         4.65607         2.44013        -9.08827         4.12248        -8.55468         2.44013        -5.28190     28.8751E-03    -14.3673E-03    -14.5078E-03    -14.4933E-03     28.8606E-03    -14.3673E-03     1.57953E-03     82.1592E+06     80.2211E+06     30.5950E+06     80.7543E+06     31.4086E+06     80.8124E+06    -6.38302E+06         22.0538
             235     201.317E-09     96.9660E-03         5.26366         2.34533        -9.70448         4.41988        -8.86070         2.34533        -6.87485     30.4685E-03    -15.1239E-03    -15.3446E-03    -15.3348E-03     30.4586E-03    -15.1239E-03     1.32603E-03     75.2823E+06     73.3639E+06     10.8818E+06     73.9669E+06     11.6256E+06     73.9356E+06    -6.79977E+06         22.1886
             236     48.7860E-09     95.9352E-03         5.82344         2.16458        -10.1779         4.58109        -8.93557         2.16458        -8.53525     31.5214E-03    -15.6970E-03    -15.8243E-03    -15.8178E-03     31.5149E-03    -15.6970E-03     1.11020E-03     64.0462E+06     62.2676E+06    -8.26197E+06     62.7736E+06    -7.56100E+06     62.8393E+06    -7.05312E+06         22.2808
             237    -55.1756E-09     94.9023E-03         6.12956         1.91251        -10.3415         4.43228        -8.64421         1.91251        -9.98679     32.2244E-03    -16.0709E-03    -16.1535E-03    -16.1468E-03     32.2177E-03    -16.0709E-03     1.13309E-03     50.9725E+06     49.6254E+06    -27.6767E+06     50.1402E+06    -26.9846E+06     49.7656E+06    -7.31479E+06         22.3396
             238     210.856E-09     93.8699E-03         6.56159         1.57779        -10.4820         4.31361        -8.23398         1.57779        -11.5103     32.5796E-03    -16.1993E-03    -16.3803E-03    -16.3725E-03     32.5718E-03    -16.1993E-03     1.23263E-03     39.8717E+06     39.4342E+06    -48.2712E+06     39.1590E+06    -47.6987E+06     39.5744E+06    -7.05519E+06         22.3742
             239    -15.3378E-09     92.8365E-03         7.05915         1.35218        -10.7851         4.28917        -8.01508         1.35218        -12.9164     32.5891E-03    -16.2107E-03    -16.3784E-03    -16.3709E-03     32.5816E-03    -16.2107E-03     1.20868E-03     24.4025E+06     23.3239E+06    -67.3802E+06     24.0167E+06    -66.9943E+06     23.3239E+06    -5.85826E+06         22.3929
             240     130.649E-09     91.8046E-03         7.26818         1.19923        -10.9396         4.17959        -7.85099         1.19923        -13.6642     32.6433E-03    -16.2507E-03    -16.3927E-03    -16.3862E-03     32.6369E-03    -16.2507E-03     1.12727E-03     12.7028E+06     11.4956E+06    -83.8233E+06     11.9956E+06    -83.5420E+06     11.9214E+06    -5.19112E+06         22.4025
             241     24.6328E-09     90.7712E-03         7.24628     949.319E-03        -10.7167         3.97194        -7.44232     949.319E-03        -13.8664     32.7225E-03    -16.2738E-03    -16.4487E-03    -16.4429E-03     32.7166E-03    -16.2738E-03     1.06890E-03     4.77402E+06     3.70440E+06    -98.0465E+06     4.09961E+06    -97.7979E+06     4.13024E+06    -5.00654E+06         22.4071
             242     157.974E-09     89.7389E-03         7.11815     781.454E-03        -10.4559         3.74129        -7.07901     781.454E-03        -13.8474     32.6167E-03    -16.2280E-03    -16.3887E-03    -16.3831E-03     32.6111E-03    -16.2280E-03     1.04727E-03    -3.61023E+06    -4.34804E+06    -110.268E+06    -3.86353E+06    -110.108E+06    -4.25401E+06    -4.07962E+06         22.4090
             243    -36.1565E-09     88.7061E-03         6.84058     889.429E-03        -10.3934         3.64780        -7.20063     889.429E-03        -13.3840     32.6243E-03    -16.2398E-03    -16.3846E-03    -16.3785E-03     32.6183E-03    -16.2398E-03     1.08875E-03    -10.0117E+06    -10.5829E+06    -120.535E+06    -10.2194E+06    -120.422E+06    -10.4889E+06    -3.53906E+06         22.4097
             244     188.495E-09     87.6738E-03         6.41210         1.13603        -10.2790         3.79323        -7.66014         1.13603        -12.1106     32.7340E-03    -16.3025E-03    -16.4315E-03    -16.4251E-03     32.7277E-03    -16.3025E-03     1.11588E-03    -15.6913E+06    -16.3375E+06    -130.434E+06    -15.9649E+06    -130.329E+06    -16.1685E+06    -3.45987E+06         22.4102
             245    -97.5623E-09     86.6406E-03         5.75407         1.40336        -9.92652         3.83973        -8.01218         1.40336        -10.2370     32.6907E-03    -16.2752E-03    -16.4155E-03    -16.4093E-03     32.6845E-03    -16.2752E-03     1.10653E-03    -20.2996E+06    -21.0784E+06    -141.181E+06    -20.5545E+06    -141.096E+06    -20.9094E+06    -3.20073E+06         22.4106
             246     270.233E-09     85.6087E-03         4.84065         1.60962        -9.27342         3.58322        -8.01600         1.60962        -7.99632     32.6491E-03    -16.2436E-03    -16.4055E-03    -16.3986E-03     32.6422E-03    -16.2436E-03     1.16294E-03    -23.3396E+06    -24.4530E+06    -151.025E+06    -23.8979E+06    -150.970E+06    -23.9493E+06    -2.60146E+06         22.4110
             247    -133.940E-09     84.5756E-03         3.99962         1.74318        -8.57995         3.36342        -7.94375         1.74318        -5.36414     32.6683E-03    -16.2614E-03    -16.4069E-03    -16.4003E-03     32.6617E-03    -16.2614E-03     1.13547E-03    -24.7292E+06    -26.0552E+06    -158.611E+06    -25.2731E+06    -158.571E+06    -25.5515E+06    -2.31564E+06         22.4115
             248     272.098E-09     83.5438E-03         3.43314         2.04843        -8.32648         3.25207        -8.14540         2.04843        -2.53508     32.6573E-03    -16.2464E-03    -16.4109E-03    -16.4052E-03     32.6516E-03    -16.2464E-03     1.05896E-03    -25.7445E+06    -27.3646E+06    -166.001E+06    -26.5758E+06    -165.968E+06    -26.5669E+06    -2.14671E+06         22.4121
             249    -92.8489E-09     82.5110E-03         3.10452         2.48289        -8.48242         3.05425        -8.43215         2.48289     352.795E-03     32.6494E-03    -16.2571E-03    -16.3923E-03    -16.3863E-03     32.6433E-03    -16.2571E-03     1.09267E-03    -26.6486E+06    -28.4581E+06    -173.099E+06    -27.4628E+06    -173.083E+06    -27.6604E+06    -1.48422E+06         22.4131
             250     170.139E-09     81.4789E-03         2.98025         2.70181        -8.59254         2.71263        -8.32492         2.70181         3.18083     32.6664E-03    -16.2671E-03    -16.3993E-03    -16.3934E-03     32.6606E-03    -16.2671E-03     1.07124E-03    -26.0042E+06    -28.2185E+06    -178.300E+06    -27.2353E+06    -178.272E+06    -27.0160E+06    -1.91098E+06         22.4146
             251     9.26611E-09     80.4464E-03         2.93418         2.69952        -8.51119         2.14389        -7.72090         2.69952         5.64518     32.6989E-03    -16.2715E-03    -16.4274E-03    -16.4214E-03     32.6929E-03    -16.2715E-03     1.08524E-03    -25.1472E+06    -27.7284E+06    -182.958E+06    -26.3786E+06    -182.929E+06    -26.5259E+06    -1.94697E+06         22.4162
             252     109.461E-09     79.4141E-03         2.85632         2.67290        -8.41547         1.38644        -6.94558         2.67290         7.51473     32.7192E-03    -16.2891E-03    -16.4301E-03    -16.4235E-03     32.7127E-03    -16.2891E-03     1.13241E-03    -24.6976E+06    -27.2473E+06    -187.675E+06    -25.8738E+06    -187.670E+06    -26.0763E+06    -868.053E+03         22.4175
             253     38.6116E-09     78.3816E-03         2.82457         2.64760        -8.36035     716.484E-03        -6.25227         2.64760         8.71717     32.6843E-03    -16.2546E-03    -16.4297E-03    -16.4226E-03     32.6772E-03    -16.2546E-03     1.18027E-03    -24.4631E+06    -26.4310E+06    -191.684E+06    -25.6401E+06    -191.678E+06    -25.2600E+06    -938.990E+03         22.4184
             254     153.995E-09     77.3494E-03         2.74301         2.61175        -8.20063     168.236E-03        -5.62585         2.61175         9.26767     32.6626E-03    -16.2385E-03    -16.4242E-03    -16.4171E-03     32.6555E-03    -16.2385E-03     1.18286E-03    -23.6280E+06    -24.8084E+06    -194.844E+06    -24.0170E+06    -194.838E+06    -24.4250E+06    -873.956E+03         22.4192
             255     4.45560E-09     76.3172E-03         2.63741         2.32339        -7.79896    -449.994E-03        -5.00141         2.61324         9.05733     32.6708E-03    -16.2787E-03    -16.3922E-03    -16.3857E-03     32.6644E-03    -16.2787E-03     1.12688E-03    -23.1921E+06    -23.8610E+06    -197.346E+06    -23.5809E+06    -197.340E+06    -23.4776E+06    -874.492E+03         22.4201
             256     54.0214E-09     75.2849E-03         2.60420         1.64885        -7.07453        -1.01041        -4.41527         2.60420         8.02962     32.6947E-03    -16.2694E-03    -16.4253E-03    -16.4190E-03     32.6884E-03    -16.2694E-03     1.11140E-03    -22.8757E+06    -23.1852E+06    -199.404E+06    -22.8810E+06    -199.399E+06    -23.1852E+06    -855.836E+03         22.4210
             257     182.726E-09     74.2527E-03         2.56789     762.490E-03        -6.09079        -1.34922        -3.97908         2.56789         6.32756     32.7021E-03    -16.2523E-03    -16.4497E-03    -16.4432E-03     32.6955E-03    -16.2523E-03     1.13658E-03    -20.9645E+06    -21.5572E+06    -199.974E+06    -21.5337E+06    -199.973E+06    -20.9885E+06    -298.108E+03         22.4217
             258    -31.8382E-09     73.2204E-03         2.65851    -361.120E-03        -5.02898        -1.58834        -3.80176         2.65851         4.07864     32.6187E-03    -16.2420E-03    -16.3767E-03    -16.3705E-03     32.6125E-03    -16.2420E-03     1.09791E-03    -21.1393E+06    -22.2189E+06    -199.698E+06    -21.7087E+06    -199.697E+06    -21.6503E+06    -323.180E+03         22.4226
             259     139.721E-09     72.1884E-03         2.88418        -1.30737        -4.29187        -1.66366        -3.93558         2.88418         1.31623     32.6036E-03    -16.2283E-03    -16.3753E-03    -16.3693E-03     32.5975E-03    -16.2283E-03     1.08910E-03    -21.3031E+06    -22.6001E+06    -199.718E+06    -22.0913E+06    -199.716E+06    -21.8140E+06    -597.561E+03         22.4236
             260     38.4557E-09     71.1562E-03         3.12734        -1.04306        -4.76228        -1.48548        -4.31986         3.12734        -1.98946     32.6618E-03    -16.2696E-03    -16.3922E-03    -16.3854E-03     32.6550E-03    -16.2696E-03     1.15168E-03    -19.1058E+06    -20.8646E+06    -198.799E+06    -19.8948E+06    -198.796E+06    -20.0785E+06    -728.190E+03         22.4245
             261     13.4880E-09     70.1238E-03         3.30097     270.385E-03        -6.22915        -1.28188        -4.67689         3.30097        -5.49101     32.6261E-03    -16.2395E-03    -16.3866E-03    -16.3797E-03     32.6192E-03    -16.2395E-03     1.16609E-03    -19.2216E+06    -20.5309E+06    -198.458E+06    -19.5606E+06    -198.455E+06    -20.1943E+06    -70.6363E+03         22.4255
             262     206.736E-09     69.0917E-03         3.29594         1.79883        -7.73209        -1.16515        -4.76811         3.29594        -8.80314     32.5770E-03    -16.2093E-03    -16.3678E-03    -16.3608E-03     32.5701E-03    -16.2093E-03     1.16362E-03    -19.1968E+06    -19.7032E+06    -197.775E+06    -19.7054E+06    -197.772E+06    -19.1968E+06    -43.3793E+03         22.4267
             263    -116.940E-09     68.0598E-03         3.71427         2.83466        -9.13243        -1.02652        -4.71674         3.15976        -11.9590     32.6183E-03    -16.2450E-03    -16.3733E-03    -16.3669E-03     32.6119E-03    -16.2450E-03     1.12048E-03    -18.8310E+06    -19.5342E+06    -196.915E+06    -19.0062E+06    -196.909E+06    -19.3644E+06    -945.825E+03         22.4281
             264     267.310E-09     67.0272E-03         4.87300         3.03250        -10.4521    -783.475E-03        -4.79560         3.03250        -14.7903     32.6120E-03    -16.2147E-03    -16.3973E-03    -16.3907E-03     32.6054E-03    -16.2147E-03     1.13103E-03    -18.3108E+06    -19.2844E+06    -196.140E+06    -18.7563E+06    -196.134E+06    -18.8442E+06    -296.841E+03         22.4292
             265    -67.3865E-09     65.9954E-03         5.96195         2.86021        -11.3429    -463.074E-03        -4.91790         2.86021        -16.7216     32.5394E-03    -16.1804E-03    -16.3590E-03    -16.3536E-03     32.5341E-03    -16.1804E-03     1.01159E-03    -17.9123E+06    -18.5710E+06    -194.343E+06    -18.5746E+06     -194.34E+06    -17.9123E+06    -146.395E+03         22.4301
             266     222.441E-09     64.9635E-03         6.66929         2.52981        -11.6556    -216.871E-03        -4.76945         2.52981        -17.7494     32.5977E-03    -16.2389E-03    -16.3589E-03    -16.3536E-03     32.5925E-03    -16.2389E-03     1.00215E-03    -17.6785E+06    -18.0928E+06    -192.824E+06    -17.9014E+06    -192.820E+06    -17.8743E+06    -880.929E+03         22.4310
             267    -145.933E-09     63.9307E-03         7.04253         2.07127        -11.5113    -134.670E-03        -4.33406         2.07127        -18.0707     32.6277E-03    -16.2837E-03    -16.3439E-03    -16.3367E-03     32.6204E-03    -16.2837E-03     1.19405E-03    -19.5112E+06    -20.5497E+06    -192.731E+06    -19.5133E+06    -192.729E+06    -20.5497E+06    -431.231E+03         22.4317
             268     164.868E-09     62.8987E-03         6.94079         1.53936        -10.8275    -7.03187E-03        -3.87966         1.53936        -17.3409     32.6013E-03    -16.2074E-03    -16.3939E-03    -16.3864E-03     32.5938E-03    -16.2074E-03     1.21207E-03    -18.5376E+06    -20.7202E+06    -193.329E+06    -19.8775E+06    -193.329E+06    -19.3803E+06     1.42112E+03         22.4322
             269     180.264E-09     61.8666E-03         6.27789         1.07422        -9.63214     267.133E-03        -3.62139         1.07422        -15.4227     32.5948E-03    -16.1743E-03    -16.4205E-03    -16.4127E-03     32.5871E-03    -16.1743E-03     1.22877E-03    -16.6908E+06    -18.7049E+06    -192.851E+06    -18.0307E+06    -192.851E+06    -17.3650E+06    -45.5123E+03         22.4327
             270    -42.0162E-09     60.8343E-03         5.13854     805.147E-03        -8.17204     560.796E-03        -3.59430     805.147E-03        -12.6281     32.5940E-03    -16.2371E-03    -16.3569E-03    -16.3503E-03     32.5875E-03    -16.2371E-03     1.11964E-03    -16.7279E+06    -17.4233E+06    -191.867E+06    -16.7496E+06    -191.867E+06    -17.4021E+06     138.294E+03         22.4337
             271     123.239E-09     59.8026E-03         3.77486     642.932E-03        -6.60215     942.677E-03        -3.76996     642.932E-03        -9.16380     32.6597E-03    -16.2519E-03    -16.4077E-03    -16.4027E-03     32.6546E-03    -16.2519E-03     998.671E-06    -14.8616E+06    -14.9404E+06    -190.018E+06    -14.8854E+06    -190.016E+06    -14.9192E+06    -238.940E+03         22.4349
             272     97.0699E-09     58.7697E-03         2.54676     537.659E-03        -5.20183         1.43541        -4.09048     537.659E-03        -5.08832     32.6396E-03    -16.2535E-03    -16.3861E-03    -16.3800E-03     32.6336E-03    -16.2535E-03     1.09076E-03    -16.0071E+06    -16.1793E+06    -189.908E+06    -16.0094E+06    -189.906E+06    -16.1793E+06    -322.256E+03         22.4364
             273    -65.4585E-09     57.7379E-03         2.09971     544.238E-03        -4.69931         1.87676        -4.47636     544.238E-03    -627.926E-03     32.5767E-03    -16.2362E-03    -16.3405E-03    -16.3343E-03     32.5705E-03    -16.2362E-03     1.09918E-03    -16.7118E+06    -17.1205E+06    -191.193E+06    -16.7139E+06    -191.190E+06    -17.1205E+06    -306.819E+03         22.4380
             274     16.7347E-03     55.8422E-03         1.21047     979.289E-03        -4.08042         1.20723        -4.07718     979.289E-03     109.440E-03     31.3497E-03    -15.0420E-03    -16.3077E-03    -14.8643E-03     30.4595E-03    -15.5952E-03     6.05864E-03     192.733E+06     34.3733E+06    -37.1013E+06    -1.64671E+06     192.731E+06    -1.07964E+06     145.478E+03         31.6427
             275     15.7484E-03     55.8257E-03         1.20695     968.263E-03        -4.05592         1.11731        -3.96629     968.263E-03        -1.02492     32.4621E-03    -15.3680E-03    -17.0941E-03    -15.3264E-03     30.6944E-03    -15.3680E-03     18.3643E-03     138.183E+06     1.27261E+06    -61.7088E+06     1.28760E+06     138.168E+06    -61.7088E+06    -117.628E+03         29.6815
             276     14.7646E-03     55.8045E-03         1.17719     961.653E-03        -4.00796         1.03351        -3.86428     961.653E-03        -1.69105     32.7948E-03    -15.5583E-03    -17.2365E-03    -15.5566E-03     31.1149E-03    -15.5583E-03     17.9761E-03     89.2670E+06     6.05096E+06    -39.2987E+06     6.06585E+06     89.2521E+06    -39.2987E+06    -296.887E+03         27.8360
             277     13.7798E-03     55.7883E-03         1.05343     925.240E-03        -3.84189     927.143E-03        -3.75107     960.717E-03        -1.30931     32.6976E-03    -15.7531E-03    -16.9444E-03    -15.5843E-03     31.3374E-03    -15.7531E-03     16.1988E-03     45.6067E+06     6.97413E+06    -16.0770E+06     7.30283E+06     45.2780E+06    -16.0770E+06    -440.170E+03         26.3548
             278     12.7953E-03     55.7717E-03     990.705E-03     868.873E-03        -3.72824     800.355E-03        -3.63743     968.409E-03        -1.27141     32.6373E-03    -15.8943E-03    -16.7430E-03    -15.7236E-03     31.6179E-03    -15.8943E-03     13.9314E-03     15.5708E+06     2.49452E+06    -7.99186E+06     5.30471E+06     7.50411E+06    -2.73538E+06    -678.909E+03         25.2614
             279     11.8109E-03     55.7594E-03     986.510E-03     826.973E-03        -3.69184     702.714E-03        -3.56758     986.510E-03        -1.47247     32.5685E-03    -15.9780E-03    -16.5905E-03    -15.8267E-03     31.8047E-03    -15.9780E-03     12.1594E-03     4.39815E+06     1.22777E+06    -26.7156E+06     4.36992E+06    -26.6874E+06     1.22777E+06    -489.322E+03         24.4838
             280     10.8264E-03     55.7468E-03         1.01522     827.628E-03        -3.72768     636.220E-03        -3.53627         1.01522        -1.81055     32.6334E-03    -16.0657E-03    -16.5677E-03    -15.8782E-03     31.9438E-03    -16.0657E-03     11.5509E-03     8.53453E+06     4.03344E+06    -54.5694E+06     4.69088E+06    -54.5660E+06     7.87363E+06     171.903E+03         23.9365
             281     9.84212E-03     55.7355E-03         1.05509     741.639E-03        -3.67721     594.989E-03        -3.53056         1.05509        -1.48809     32.6272E-03    -16.1529E-03    -16.4744E-03    -15.9286E-03     32.0814E-03    -16.1529E-03     10.2741E-03     16.4626E+06     4.55823E+06    -73.8306E+06     4.55285E+06    -73.8252E+06     16.4626E+06     418.333E+03         23.5466
             282     8.85765E-03     55.7256E-03         1.10628     720.201E-03        -3.69829     593.755E-03        -3.57184         1.10628     487.719E-03     32.6243E-03    -16.2135E-03    -16.4108E-03    -15.9559E-03     32.1694E-03    -16.2135E-03     9.39970E-03     20.4094E+06     3.84413E+06    -90.1040E+06     3.84036E+06    -90.1003E+06     20.4094E+06     170.932E+03         23.2605
             283     7.87343E-03     55.7162E-03         1.31556         1.00285        -4.18595     638.724E-03        -3.67385         1.16759         3.01885     32.6714E-03    -16.2612E-03    -16.4102E-03    -16.0056E-03     32.2668E-03    -16.2612E-03     8.86896E-03     20.3294E+06     2.25321E+06    -109.625E+06     2.25233E+06    -109.624E+06     20.3294E+06     66.6216E+03         23.0440
             284     6.88903E-03     55.7074E-03         1.38679     988.703E-03        -4.24866     702.345E-03        -3.81433         1.23882         2.54029     32.7060E-03    -16.2990E-03    -16.4070E-03    -16.0648E-03     32.3638E-03    -16.2990E-03     8.16172E-03     18.8253E+06    -382.113E+03    -126.569E+06    -382.500E+03    -126.569E+06     18.8253E+06     14.6163E+03         22.8764
             285     5.90486E-03     55.6994E-03         1.31931     841.886E-03        -4.04528     813.214E-03        -4.01661         1.31931     686.039E-03     32.7064E-03    -16.3187E-03    -16.3877E-03    -16.1073E-03     32.4261E-03    -16.3187E-03     7.38771E-03     14.5069E+06    -3.63946E+06    -141.122E+06    -3.63959E+06    -141.122E+06     14.5069E+06    -12.6122E+03         22.7455
             286     4.92059E-03     55.6922E-03         1.43951         1.17860        -4.50782     963.487E-03        -4.25910         1.40590         1.91165     32.7111E-03    -16.3340E-03    -16.3771E-03    -16.1585E-03     32.4925E-03    -16.3340E-03     6.51832E-03     8.85121E+06    -6.88370E+06    -157.561E+06    -6.88393E+06    -157.561E+06     8.85121E+06     45.4882E+03         22.6437
             287     3.93646E-03     55.6859E-03         1.52343         1.45204        -4.86924         1.17502        -4.55861         1.48983         2.59258     32.7160E-03    -16.3446E-03    -16.3714E-03    -16.2151E-03     32.5601E-03    -16.3450E-03     5.49764E-03     2.87795E+06    -9.94504E+06    -173.709E+06    -9.94519E+06    -173.708E+06     2.87795E+06     49.9302E+03         22.5663
             288     2.95228E-03     55.6808E-03         1.60917         1.52595        -5.03095         1.35702        -4.81692         1.56406         2.27723     32.6883E-03    -16.3376E-03    -16.3508E-03    -16.2508E-03     32.5906E-03    -16.3397E-03     4.33039E-03    -3.99841E+06    -12.8458E+06    -183.873E+06    -12.8461E+06    -183.872E+06    -3.99841E+06     53.7504E+03         22.5098
             289     1.96815E-03     55.6770E-03         1.92976         1.60621        -5.46092         1.57596        -5.10746         1.60654    -348.623E-03     32.6491E-03    -16.3178E-03    -16.3314E-03    -16.2800E-03     32.6001E-03    -16.3202E-03     3.01895E-03    -10.8165E+06    -14.8653E+06    -186.959E+06    -14.8667E+06    -186.958E+06    -10.8165E+06    -119.159E+03         22.4715
             290     984.123E-06     55.6746E-03         3.21480         1.09718        -6.25874         2.13173        -5.17567         1.09718         2.25791     32.6237E-03    -16.2721E-03    -16.3516E-03    -16.3336E-03     32.6063E-03    -16.2727E-03     1.75037E-03    -14.6954E+06    -15.7310E+06    -188.894E+06    -15.5951E+06    -188.892E+06    -14.8334E+06     124.767E+03         22.4489
             291     16.7340E-03     54.8123E-03         1.26681         1.01483        -4.12048         1.26333        -4.11701         1.01483     82.6501E-03     31.4337E-03    -14.9589E-03    -16.4748E-03    -14.9238E-03     30.5177E-03    -15.5940E-03     6.29341E-03     193.307E+06     34.2620E+06    -36.8876E+06    -1.23484E+06     193.302E+06    -1.38549E+06    -612.971E+03         31.6286
             292     15.7499E-03     54.7921E-03         1.32136         1.00083        -4.14990         1.22939        -4.05794         1.00083        -1.08206     32.5495E-03    -15.3703E-03    -17.1791E-03    -15.3751E-03     30.7454E-03    -15.3703E-03     18.5760E-03     139.045E+06     1.42811E+06    -60.7589E+06     1.43842E+06     139.035E+06    -60.7589E+06    -851.903E+03         29.6796
             293     14.7648E-03     54.7734E-03         1.34468     987.241E-03        -4.15028         1.19905        -4.00465     987.241E-03        -1.75249     32.7268E-03    -15.5680E-03    -17.1588E-03    -15.4699E-03     31.0378E-03    -15.5680E-03     17.9866E-03     88.7848E+06     4.13309E+06    -38.1392E+06     4.14830E+06     88.7695E+06    -38.1392E+06    -259.941E+03         27.8418
             294     13.7798E-03     54.7557E-03         1.23462     974.465E-03        -4.02272         1.14667        -3.93477     974.465E-03        -1.34023     32.7332E-03    -15.7714E-03    -16.9617E-03    -15.6100E-03     31.3814E-03    -15.7714E-03     16.1568E-03     45.2154E+06     5.07307E+06    -13.4639E+06     5.29996E+06     44.9885E+06    -13.4639E+06     1.83550E+06         26.3628
             295     12.7954E-03     54.7396E-03         1.12556     958.831E-03        -3.90092         1.03546        -3.81782     965.825E-03        -1.27298     32.6275E-03    -15.9074E-03    -16.7201E-03    -15.7120E-03     31.6194E-03    -15.9074E-03     13.8552E-03     16.0110E+06     2.93908E+06    -4.86709E+06     4.81582E+06     9.13230E+06     134.918E+03     1.73217E+06         25.2686
             296     11.8108E-03     54.7272E-03         1.02496     927.716E-03        -3.77736     865.172E-03        -3.65721     967.356E-03        -1.48523     32.5489E-03    -15.9823E-03    -16.5666E-03    -15.8116E-03     31.7940E-03    -15.9823E-03     12.0840E-03     3.87714E+06     1.91704E+06    -26.2147E+06     3.68901E+06    -26.1083E+06     1.99876E+06    -310.490E+03         24.4893
             297     10.8265E-03     54.7146E-03     988.145E-03     868.204E-03        -3.68382     679.613E-03        -3.49237     985.285E-03        -1.80803     32.6362E-03    -16.0670E-03    -16.5692E-03    -15.8818E-03     31.9488E-03    -16.0670E-03     11.5372E-03     7.92733E+06     3.66568E+06    -54.7485E+06     3.77424E+06    -54.7291E+06     7.79929E+06    -701.109E+03         23.9405
             298     9.84203E-03     54.7034E-03         1.02194     710.973E-03        -3.55476     560.540E-03        -3.40433         1.02194        -1.49688     32.6075E-03    -16.1514E-03    -16.4561E-03    -15.9058E-03     32.0572E-03    -16.1514E-03     10.3106E-03     16.0689E+06     4.29741E+06    -73.4526E+06     4.28376E+06    -73.4390E+06     16.0689E+06    -671.885E+03         23.5494
             299     8.85774E-03     54.6934E-03         1.07407     688.285E-03        -3.57353     545.114E-03        -3.43036         1.07407     498.766E-03     32.6189E-03    -16.2150E-03    -16.4039E-03    -15.9475E-03     32.1625E-03    -16.2150E-03     9.41324E-03     20.1297E+06     3.69856E+06    -90.2341E+06     3.69205E+06    -90.2276E+06     20.1297E+06    -565.747E+03         23.2627
             300     7.87328E-03     54.6841E-03         1.25531     979.402E-03        -4.03862     570.274E-03        -3.51283         1.13865         3.00571     32.6903E-03    -16.2642E-03    -16.4262E-03    -16.0205E-03     32.2846E-03    -16.2642E-03     8.88417E-03     20.4023E+06     1.85448E+06    -109.494E+06     1.85385E+06    -109.494E+06     20.4023E+06     28.5723E+03         23.0458
             301     6.88913E-03     54.6751E-03         1.33552     912.604E-03        -4.05364     589.483E-03        -3.61386         1.21886         2.51179     32.7102E-03    -16.2997E-03    -16.4105E-03    -16.0681E-03     32.3678E-03    -16.2997E-03     8.16435E-03     18.7816E+06    -788.035E+03    -126.198E+06    -788.532E+03    -126.197E+06     18.7816E+06     184.032E+03         22.8780
             302     5.90479E-03     54.6672E-03         1.31672     708.764E-03        -3.83989     679.727E-03        -3.81085         1.31672     550.834E-03     32.7074E-03    -16.3188E-03    -16.3886E-03    -16.1074E-03     32.4262E-03    -16.3188E-03     7.40001E-03     14.4445E+06    -3.77129E+06    -140.916E+06    -3.77161E+06    -140.916E+06     14.4445E+06     23.6212E+03         22.7469
             303     4.92063E-03     54.6599E-03         1.46318         1.12232        -4.40426     880.989E-03        -4.12378         1.42402         1.86894     32.7197E-03    -16.3342E-03    -16.3855E-03    -16.1651E-03     32.4993E-03    -16.3342E-03     6.54756E-03     8.99746E+06    -6.74842E+06    -157.444E+06    -6.74870E+06    -157.444E+06     8.99746E+06     9.45781E+03         22.6449
             304     3.93642E-03     54.6537E-03         1.56165         1.44187        -4.82901         1.16885        -4.51684         1.52249         2.42957     32.7124E-03    -16.3443E-03    -16.3681E-03    -16.2111E-03     32.5557E-03    -16.3446E-03     5.50819E-03     3.05640E+06    -9.75823E+06    -173.270E+06    -9.75846E+06    -173.270E+06     3.05640E+06    -3.87979E+03         22.5674
             305     2.95227E-03     54.6486E-03         1.74030         1.52150        -5.08982         1.38942        -4.81957         1.60212         2.41334     32.6834E-03    -16.3364E-03    -16.3470E-03    -16.2444E-03     32.5857E-03    -16.3413E-03     4.32897E-03    -3.75053E+06    -12.7930E+06    -183.313E+06    -12.7937E+06    -183.313E+06    -3.75053E+06    -229.591E+03         22.5109
             306     1.96817E-03     54.6448E-03         2.25035         1.64937        -5.75640         1.60212        -5.10817         1.64937    -734.356E-03     32.6462E-03    -16.3205E-03    -16.3257E-03    -16.2717E-03     32.5974E-03    -16.3257E-03     3.01345E-03    -10.7773E+06    -15.4448E+06    -186.767E+06    -15.4472E+06    -186.765E+06    -10.7773E+06    -599.183E+03         22.4726
             307     984.006E-06     54.6424E-03         4.20963         1.10194        -7.18711         2.22052        -5.19799         1.10194         3.32618     32.6270E-03    -16.2704E-03    -16.3566E-03    -16.3390E-03     32.6100E-03    -16.2710E-03     1.72062E-03    -15.8772E+06    -17.4439E+06    -188.993E+06    -17.3087E+06    -188.990E+06    -16.0152E+06    -110.842E+03         22.4500
             308     16.7336E-03     53.7776E-03         1.29500         1.05451        -4.12507         1.29096        -4.12103         1.05451     92.8130E-03     31.3397E-03    -14.9450E-03    -16.3947E-03    -14.8395E-03     30.4409E-03    -15.6015E-03     6.18735E-03     193.863E+06     32.7327E+06    -36.3811E+06    -2.56589E+06     193.855E+06    -1.07489E+06    -727.452E+03         31.6150
             309     15.7491E-03     53.7613E-03         1.42360         1.03875        -4.23234         1.33548        -4.14422         1.03875        -1.08447     32.5253E-03    -15.3850E-03    -17.1403E-03    -15.3191E-03     30.7041E-03    -15.3850E-03     18.6453E-03     139.279E+06    -1.76910E+06    -60.4684E+06    -1.76489E+06     139.275E+06    -60.4684E+06    -695.104E+03         29.6775
             310     14.7640E-03     53.7406E-03         1.49902         1.01866        -4.28106         1.36247        -4.14452         1.01866        -1.73417     32.8702E-03    -15.5836E-03    -17.2866E-03    -15.5555E-03     31.1391E-03    -15.5836E-03     18.2500E-03     87.6487E+06     766.945E+03    -37.8322E+06     788.904E+03     87.6267E+06    -37.8322E+06      567.91E+03         27.8473
             311     13.7802E-03     53.7237E-03         1.41685     995.405E-03        -4.17291         1.33891        -4.09497     995.405E-03        -1.29416     32.8257E-03    -15.7809E-03    -17.0448E-03    -15.6906E-03     31.4715E-03    -15.7809E-03     16.1985E-03     44.5378E+06     2.87756E+06    -12.6516E+06     3.00979E+06     44.4055E+06    -12.6516E+06     1.70206E+06         26.3704
             312     12.7952E-03     53.7075E-03         1.29935     973.667E-03        -4.03579         1.22708        -3.96352     973.667E-03        -1.21881     32.6117E-03    -15.9117E-03    -16.7000E-03    -15.6934E-03     31.6051E-03    -15.9117E-03     13.8489E-03     17.8578E+06     4.02394E+06    -2.74025E+06     5.45812E+06     11.4811E+06     2.20227E+06     1.29999E+06         25.2754
             313     11.8110E-03     53.6948E-03         1.13052     961.545E-03        -3.86033         1.02112        -3.75094     961.545E-03        -1.44483     32.5458E-03    -15.9888E-03    -16.5570E-03    -15.7989E-03     31.7877E-03    -15.9888E-03     12.1071E-03     7.23570E+06     4.74099E+06    -24.3996E+06     7.07008E+06    -24.3157E+06     4.82272E+06     74.6751E+03         24.4946
             314     10.8265E-03     53.6827E-03         1.01133     935.045E-03        -3.71509     800.271E-03        -3.53556     966.574E-03        -1.77596     32.6470E-03    -16.0698E-03    -16.5772E-03    -15.8870E-03     31.9568E-03    -16.0698E-03     11.5648E-03     10.1785E+06     5.89747E+06    -54.4329E+06     6.89140E+06    -54.4096E+06     9.16119E+06    -951.260E+03         23.9444
             315     9.84207E-03     53.6711E-03         1.00040     790.074E-03        -3.55247     656.081E-03        -3.40873     990.657E-03        -1.48710     32.6049E-03    -16.1529E-03    -16.4519E-03    -15.8980E-03     32.0510E-03    -16.1529E-03     10.3408E-03     16.3795E+06     5.71099E+06    -73.3941E+06     5.69150E+06    -73.3746E+06     16.3795E+06    -1.19375E+06         23.5522
             316     8.85759E-03     53.6614E-03         1.03280     731.124E-03        -3.51354     569.078E-03        -3.35149         1.03280     549.675E-03     32.6347E-03    -16.2170E-03    -16.4177E-03    -15.9586E-03     32.1756E-03    -16.2170E-03     9.44455E-03     19.8796E+06     3.80188E+06    -90.8420E+06     3.79434E+06    -90.8345E+06     19.8796E+06    -648.425E+03         23.2648
             317     7.87340E-03     53.6517E-03         1.20211     962.299E-03        -3.90515     506.310E-03        -3.34197         1.09492         3.05367     32.6975E-03    -16.2648E-03    -16.4327E-03    -16.0263E-03     32.2911E-03    -16.2648E-03     8.89059E-03     19.9837E+06     1.49854E+06    -109.766E+06     1.49812E+06    -109.765E+06     19.9837E+06    -24.9299E+03         23.0475
             318     6.88902E-03     53.6431E-03         1.28614     868.620E-03        -3.89468     511.593E-03        -3.43045         1.17895         2.53104     32.7040E-03    -16.3003E-03    -16.4037E-03    -16.0616E-03     32.3619E-03    -16.3003E-03     8.16126E-03     18.5727E+06    -806.527E+03    -125.847E+06    -806.826E+03    -125.847E+06     18.5727E+06     116.866E+03         22.8795
             319     5.90482E-03     53.6349E-03         1.27901     678.925E-03        -3.70227     645.288E-03        -3.66863         1.27901     452.255E-03     32.7136E-03    -16.3198E-03    -16.3938E-03    -16.1111E-03     32.4309E-03    -16.3198E-03     7.41995E-03     14.2769E+06    -3.46130E+06    -140.602E+06    -3.46158E+06    -140.601E+06     14.2769E+06    -34.4037E+03         22.7481
             320     4.92057E-03     53.6278E-03         1.46778         1.09299        -4.31039     869.044E-03        -4.00140         1.38275         1.81969     32.7244E-03    -16.3367E-03    -16.3877E-03    -16.1677E-03     32.5044E-03    -16.3367E-03     6.54253E-03     9.07186E+06    -6.52541E+06    -157.092E+06    -6.52561E+06    -157.092E+06     9.07186E+06    -3.54507E+03         22.6460
             321     3.93641E-03     53.6215E-03         1.56118         1.37367        -4.68835         1.13617        -4.36582         1.47615         2.28884     32.7273E-03    -16.3474E-03    -16.3799E-03    -16.2238E-03     32.5712E-03    -16.3474E-03     5.49823E-03     3.32215E+06    -9.88340E+06    -173.047E+06    -9.88365E+06    -173.047E+06     3.32215E+06    -65.4927E+03         22.5683
             322     2.95231E-03     53.6165E-03         1.78752         1.45041        -4.99804         1.34477        -4.65776         1.55289         2.50494     32.6895E-03    -16.3337E-03    -16.3559E-03    -16.2564E-03     32.5928E-03    -16.3364E-03     4.30659E-03    -4.06730E+06    -13.1447E+06    -182.755E+06    -13.1455E+06    -182.754E+06    -4.06730E+06    -332.400E+03         22.5117
             323     1.96815E-03     53.6126E-03         2.48954         1.60356        -5.87371         1.53820        -4.92237         1.60356        -1.05319     32.6362E-03    -16.3120E-03    -16.3242E-03    -16.2729E-03     32.5876E-03    -16.3147E-03     3.00979E-03    -11.4124E+06    -15.9885E+06    -186.894E+06    -15.9899E+06    -186.892E+06    -11.4124E+06    -429.212E+03         22.4733
             324     984.148E-06     53.6102E-03         4.99837         1.07500        -7.87417         2.16445        -5.04025         1.07500         4.13692     32.5972E-03    -16.2594E-03    -16.3378E-03    -16.3208E-03     32.5802E-03    -16.2594E-03     1.70987E-03    -16.6173E+06    -18.5744E+06    -189.109E+06    -18.2309E+06    -189.108E+06    -16.9620E+06    -76.4497E+03         22.4506
             325     16.7348E-03     52.7476E-03         1.30829         1.09161        -4.10395         1.30453        -4.10019         1.09161     96.1864E-03     31.3155E-03    -15.0469E-03    -16.2686E-03    -14.7734E-03     30.3759E-03    -15.6025E-03     5.98998E-03     194.582E+06     33.9345E+06    -36.7202E+06    -2.53928E+06     194.573E+06    -237.714E+03     327.262E+03         31.6020
             326     15.7486E-03     52.7282E-03         1.51485         1.07447        -4.29654         1.43508        -4.21677         1.07447        -1.04888     32.4291E-03    -15.3826E-03    -17.0465E-03    -15.2588E-03     30.6413E-03    -15.3826E-03     18.4589E-03     138.827E+06    -1.97041E+06    -61.4293E+06    -1.96133E+06     138.818E+06    -61.4293E+06     71.6759E+03         29.6754
             327     14.7649E-03     52.7088E-03         1.61916         1.04873        -4.37493         1.49944        -4.25522         1.04873        -1.65539     32.8469E-03    -15.5719E-03    -17.2750E-03    -15.6024E-03     31.1743E-03    -15.5719E-03     17.9692E-03     87.1838E+06     1.29451E+06    -40.4618E+06     1.31229E+06     87.1660E+06    -40.4618E+06     224.048E+03         27.8523
             328     13.7795E-03     52.6911E-03         1.52486         1.01829        -4.24917         1.46206        -4.18637         1.01829        -1.18617     32.7891E-03    -15.7592E-03    -17.0299E-03    -15.6734E-03     31.4326E-03    -15.7592E-03     16.2028E-03     45.2981E+06     5.12836E+06    -16.3267E+06     5.25559E+06     45.1709E+06    -16.3267E+06    -299.213E+03         26.3772
             329     12.7957E-03     52.6754E-03         1.39008     989.530E-03        -4.08814         1.33338        -4.03144     989.530E-03        -1.09976     32.6464E-03    -15.8998E-03    -16.7466E-03    -15.7358E-03     31.6356E-03    -15.8998E-03     13.8888E-03     19.7372E+06     5.40319E+06    -4.40825E+06     8.29159E+06     12.0228E+06     417.812E+03    -732.414E+03         25.2816
             330     11.8107E-03     52.6628E-03         1.25273     968.283E-03        -3.93156         1.16557        -3.84440     968.283E-03        -1.32177     32.5521E-03    -15.9869E-03    -16.5651E-03    -15.7980E-03     31.7849E-03    -15.9869E-03     12.1807E-03     9.44025E+06     4.83026E+06    -23.9019E+06     9.43523E+06    -23.8968E+06     4.83026E+06     66.1472E+03         24.4997
             331     10.8264E-03     52.6502E-03         1.14270     958.494E-03        -3.81100     994.092E-03        -3.66239     958.494E-03        -1.66550     32.6542E-03    -16.0721E-03    -16.5821E-03    -15.8934E-03     31.9654E-03    -16.0721E-03     11.5471E-03     11.7058E+06     7.14023E+06    -53.3946E+06     8.95844E+06    -53.3840E+06     9.87707E+06     116.896E+03         23.9482
             332     9.84201E-03     52.6392E-03         1.03580     873.804E-03        -3.61079     823.858E-03        -3.48878     963.734E-03        -1.41327     32.6302E-03    -16.1567E-03    -16.4735E-03    -15.9237E-03     32.0804E-03    -16.1567E-03     10.3155E-03     17.0382E+06     6.98771E+06    -73.2030E+06     6.97550E+06    -73.1908E+06     17.0382E+06    -60.3203E+03         23.5551
             333     8.85766E-03     52.6290E-03     989.105E-03     823.120E-03        -3.50156     652.727E-03        -3.33116     989.105E-03     622.007E-03     32.6477E-03    -16.2190E-03    -16.4288E-03    -15.9675E-03     32.1864E-03    -16.2190E-03     9.46741E-03     20.0602E+06     4.29988E+06    -91.0534E+06     4.29653E+06    -91.0500E+06     20.0602E+06    -61.7032E+03         23.2670
             334     7.87330E-03     52.6196E-03         1.19524     962.845E-03        -3.83686     533.926E-03        -3.25160         1.03890         3.10952     32.6979E-03    -16.2656E-03    -16.4324E-03    -16.0286E-03     32.2942E-03    -16.2656E-03     8.86337E-03     20.0784E+06     1.99525E+06    -109.595E+06     1.99399E+06    -109.594E+06     20.0784E+06    -207.313E+03         23.0492
             335     6.88905E-03     52.6108E-03         1.26753     855.623E-03        -3.79812     532.717E-03        -3.31888         1.11119         2.57575     32.7040E-03    -16.3013E-03    -16.4027E-03    -16.0616E-03     32.3629E-03    -16.3013E-03     8.14957E-03     18.6541E+06    -253.055E+03    -125.694E+06    -254.182E+03    -125.692E+06     18.6541E+06    -152.824E+03         22.8808
             336     5.90477E-03     52.6028E-03         1.19588     708.102E-03        -3.58042     666.826E-03        -3.53914         1.19588     403.730E-03     32.7171E-03    -16.3227E-03    -16.3944E-03    -16.1128E-03     32.4356E-03    -16.3227E-03     7.40527E-03     14.6233E+06    -3.00831E+06    -140.447E+06    -3.00857E+06    -140.447E+06     14.6233E+06     75.8246E+03         22.7492
             337     4.92058E-03     52.5955E-03         1.42807         1.04883        -4.15495     862.262E-03        -3.82135         1.28104         1.76744     32.7358E-03    -16.3395E-03    -16.3963E-03    -16.1774E-03     32.5169E-03    -16.3395E-03     6.52540E-03     9.52111E+06    -6.26827E+06    -156.753E+06    -6.26849E+06    -156.753E+06     9.52111E+06     116.040E+03         22.6469
             338     3.93643E-03     52.5893E-03         1.50666         1.24840        -4.43734         1.05936        -4.10127         1.35963         2.14493     32.7354E-03    -16.3466E-03    -16.3888E-03    -16.2340E-03     32.5806E-03    -16.3466E-03     5.47865E-03     3.51570E+06    -9.47908E+06    -172.718E+06    -9.48004E+06    -172.717E+06     3.51570E+06    -225.263E+03         22.5690
             339     2.95229E-03     52.5842E-03         1.74066         1.31855        -4.74617         1.22963        -4.34637         1.42978         2.49277     32.6961E-03    -16.3324E-03    -16.3637E-03    -16.2674E-03     32.5999E-03    -16.3324E-03     4.29606E-03    -3.76511E+06    -12.2025E+06    -182.461E+06    -12.2038E+06    -182.460E+06    -3.76511E+06    -429.638E+03         22.5123
             340     1.96824E-03     52.5805E-03         2.61476         1.48153        -5.79772         1.40560        -4.58856         1.48153        -1.30712     32.6401E-03    -16.3101E-03    -16.3299E-03    -16.2803E-03     32.5913E-03    -16.3110E-03     3.02044E-03    -10.3919E+06    -14.3993E+06    -187.294E+06    -14.4000E+06    -187.294E+06    -10.3919E+06    -310.098E+03         22.4736
             341     984.049E-06     52.5780E-03         5.53495     953.805E-03        -8.20494         2.04643        -4.71642     953.805E-03         4.63999     32.5961E-03    -16.2654E-03    -16.3307E-03    -16.3125E-03     32.5788E-03    -16.2663E-03     1.72216E-03    -14.2677E+06    -16.1120E+06    -188.711E+06    -15.7676E+06    -188.710E+06    -14.6124E+06    -99.8671E+03         22.4506
             342     16.7334E-03     51.7152E-03         1.33290         1.11972        -4.08295         1.32984        -4.07989         1.11972     105.522E-03     31.4321E-03    -14.8397E-03    -16.5924E-03    -14.8912E-03     30.5021E-03    -15.6109E-03     6.48928E-03     195.420E+06     34.4246E+06    -36.2787E+06    -1.93390E+06     195.413E+06      86.652E+03     84.0964E+03         31.5887
             343     15.7498E-03     51.6964E-03         1.56478         1.10154        -4.31245         1.49371        -4.24137         1.10154    -975.328E-03     32.7032E-03    -15.3832E-03    -17.3200E-03    -15.4747E-03     30.8579E-03    -15.3832E-03     18.8327E-03     140.307E+06     1.88779E+06    -59.7199E+06     1.90011E+06     140.294E+06    -59.7199E+06     912.267E+03         29.6728
             344     14.7641E-03     51.6763E-03         1.66193         1.07352        -4.38790         1.55796        -4.28394         1.07352        -1.54282     32.8240E-03    -15.5589E-03    -17.2651E-03    -15.5557E-03     31.1146E-03    -15.5589E-03     18.1220E-03     87.6036E+06     5.87526E+06    -40.7234E+06     5.89604E+06     87.5828E+06    -40.7234E+06    -42.1993E+03         27.8567
             345     13.7803E-03     51.6592E-03         1.56561         1.04074        -4.26031         1.51665        -4.21135         1.04074        -1.03731     32.7445E-03    -15.7500E-03    -16.9945E-03    -15.6504E-03     31.4004E-03    -15.7500E-03     16.1209E-03     45.8732E+06     7.30127E+06    -17.1904E+06     7.42825E+06     45.7462E+06    -17.1904E+06    -1.11303E+06         26.3836
             346     12.7949E-03     51.6429E-03         1.45604         1.00839        -4.11836         1.41548        -4.07780         1.00839    -925.843E-03     32.5918E-03    -15.9004E-03    -16.6914E-03    -15.6901E-03     31.5905E-03    -15.9004E-03     13.7935E-03     18.7111E+06     4.67574E+06    -5.45387E+06     7.18663E+06     11.2333E+06    -487.039E+03    -744.730E+03         25.2877
             347     11.8110E-03     51.6308E-03         1.37642     979.015E-03        -4.00995         1.31264        -3.94617     979.015E-03        -1.14434     32.5725E-03    -15.9869E-03    -16.5856E-03    -15.8288E-03     31.8157E-03    -15.9869E-03     12.1040E-03     7.03241E+06     3.53790E+06    -24.2841E+06     7.02014E+06    -24.2718E+06     3.53790E+06     78.6914E+03         24.5047
             348     10.8263E-03     51.6181E-03         1.29123     955.011E-03        -3.89688         1.17832        -3.78397     955.011E-03        -1.48021     32.6382E-03    -16.0733E-03    -16.5649E-03    -15.8811E-03     31.9544E-03    -16.0733E-03     11.4999E-03     10.6406E+06     5.98808E+06    -52.7839E+06     7.06656E+06    -52.7752E+06     9.55336E+06     720.016E+03         23.9522
             349     9.84201E-03     51.6069E-03         1.09860     917.142E-03        -3.65759     978.577E-03        -3.56341     942.984E-03        -1.26242     32.6379E-03    -16.1595E-03    -16.4784E-03    -15.9334E-03     32.0929E-03    -16.1595E-03     10.2741E-03     17.4346E+06     6.39248E+06     -72.784E+06     6.38325E+06    -72.7748E+06     17.4346E+06     839.154E+03         23.5581
             350     8.85763E-03     51.5969E-03         1.00938     902.948E-03        -3.54249     793.141E-03        -3.37295     949.647E-03     723.040E-03     32.6594E-03    -16.2193E-03    -16.4402E-03    -15.9811E-03     32.2004E-03    -16.2193E-03     9.44598E-03     20.7416E+06     5.02607E+06    -90.3099E+06     5.02268E+06    -90.3065E+06     20.7416E+06     348.449E+03         23.2692
             351     7.87335E-03     51.5873E-03         1.29401     954.599E-03        -3.86708     694.438E-03        -3.28836     975.456E-03         3.16665     32.6877E-03    -16.2660E-03    -16.4217E-03    -16.0211E-03     32.2872E-03    -16.2660E-03     8.82704E-03     20.7889E+06     2.93708E+06    -109.165E+06     2.93599E+06    -109.164E+06     20.7889E+06    -175.249E+03         23.0508
             352     6.88905E-03     51.5787E-03         1.28411     879.822E-03        -3.77451     677.499E-03        -3.30461         1.01654         2.60737     32.7144E-03    -16.3026E-03    -16.4119E-03    -16.0725E-03     32.3750E-03    -16.3026E-03     8.13088E-03     19.2721E+06     138.478E+03    -125.713E+06     137.413E+03    -125.712E+06     19.2721E+06    -125.061E+03         22.8820
             353     5.90480E-03     51.5705E-03         1.06884     765.023E-03        -3.44165     720.481E-03        -3.39711         1.06884     396.517E-03     32.7218E-03    -16.3212E-03    -16.4005E-03    -16.1218E-03     32.4430E-03    -16.3212E-03     7.36833E-03     15.0249E+06    -2.82120E+06    -140.354E+06    -2.82142E+06    -140.353E+06     15.0249E+06     102.851E+03         22.7501
             354     4.92058E-03     51.5633E-03         1.34225     961.259E-03        -3.90983     812.454E-03        -3.54713         1.12836         1.75226     32.7226E-03    -16.3364E-03    -16.3862E-03    -16.1696E-03     32.5059E-03    -16.3364E-03     6.49267E-03     9.90742E+06    -5.68285E+06    -156.318E+06    -5.68347E+06    -156.317E+06     9.90742E+06    -20.4419E+03         22.6475
             355     3.93644E-03     51.5571E-03         1.40329         1.09150        -4.10388     944.942E-03        -3.74343         1.18940         2.05976     32.7239E-03    -16.3464E-03    -16.3776E-03    -16.2228E-03     32.5692E-03    -16.3464E-03     5.47605E-03     4.13959E+06    -8.49084E+06    -172.273E+06    -8.49239E+06    -172.271E+06     4.13959E+06    -402.063E+03         22.5695
             356     2.95232E-03     51.5521E-03         1.63343         1.14840        -4.39273         1.08226        -3.93947         1.24630         2.46529     32.6996E-03    -16.3348E-03    -16.3648E-03    -16.2681E-03     32.6029E-03    -16.3348E-03     4.30960E-03    -3.26436E+06    -11.3364E+06    -182.451E+06    -11.3381E+06    -182.449E+06    -3.26436E+06    -512.307E+03         22.5125
             357     1.96816E-03     51.5482E-03         2.63910         1.29071        -5.54939         1.21914        -4.12943         1.29071        -1.45864     32.6524E-03    -16.3144E-03    -16.3380E-03    -16.2885E-03     32.6037E-03    -16.3152E-03     3.00958E-03    -9.53823E+06    -13.7094E+06    -187.488E+06    -13.7112E+06    -187.486E+06    -9.53823E+06    -526.447E+03         22.4735
             358     984.131E-06     51.5459E-03         5.82334     749.737E-03        -8.19709         1.86633        -4.24008     749.737E-03         4.90010     32.5978E-03    -16.2518E-03    -16.3460E-03    -16.3281E-03     32.5807E-03    -16.2526E-03     1.72857E-03    -13.7512E+06      -15.88E+06    -188.975E+06    -15.5812E+06    -188.973E+06    -14.0520E+06    -137.826E+03         22.4504
             359     16.7334E-03     50.6810E-03         1.32465         1.13244        -4.02698         1.32168        -4.02401         1.13244     169.737E-03     31.2638E-03    -14.8281E-03    -16.4357E-03    -14.8336E-03     30.4389E-03    -15.6054E-03     6.31300E-03     195.080E+06     33.1633E+06    -36.5760E+06    -2.16538E+06     195.068E+06    -1.23541E+06    -499.582E+03         31.5750
             360     15.7487E-03     50.6648E-03         1.53339         1.11584        -4.24507         1.47157        -4.18325         1.11584    -855.710E-03     32.6337E-03    -15.3784E-03    -17.2553E-03    -15.5050E-03     30.8834E-03    -15.3784E-03     18.3213E-03     140.744E+06    -315.631E+03    -61.3161E+06    -292.944E+03     140.721E+06    -61.3161E+06    -714.054E+03         29.6696
             361     14.7647E-03     50.6438E-03         1.61359         1.09035        -4.30826         1.52656        -4.22122         1.09035        -1.39237     32.8573E-03    -15.5519E-03    -17.3054E-03    -15.6083E-03     31.1602E-03    -15.5519E-03     18.0756E-03     88.4861E+06     3.93109E+06    -41.8807E+06     3.95863E+06     88.4586E+06    -41.8807E+06    -410.622E+03         27.8608
             362     13.7797E-03     50.6269E-03         1.56316         1.05924        -4.22753         1.52922        -4.19359         1.05924    -855.577E-03     32.7067E-03    -15.7570E-03    -16.9497E-03    -15.6269E-03     31.3839E-03    -15.7570E-03     15.9768E-03     45.5741E+06     6.09824E+06    -15.4558E+06     6.13899E+06     45.5333E+06    -15.4558E+06     213.536E+03         26.3902
             363     12.7957E-03     50.6110E-03         1.52818         1.02423        -4.15535         1.50342        -4.13060         1.02423    -738.117E-03     32.5557E-03    -15.9124E-03    -16.6433E-03    -15.6505E-03     31.5629E-03    -15.9124E-03     13.7458E-03     18.4155E+06     4.51458E+06    -3.10335E+06     6.07762E+06     11.5786E+06     2.17053E+06     755.576E+03         25.2941
             364     11.8106E-03     50.5983E-03         1.47364     987.454E-03        -4.06077         1.43070        -4.01783     987.454E-03    -960.757E-03     32.5241E-03    -15.9894E-03    -16.5346E-03    -15.7756E-03     31.7650E-03    -15.9894E-03     12.1064E-03     5.57044E+06     3.64082E+06    -24.3036E+06     5.52363E+06    -24.2568E+06     3.64082E+06     264.712E+03         24.5100
             365     10.8265E-03     50.5861E-03         1.37475     953.639E-03        -3.92151         1.29206        -3.83881     953.639E-03        -1.28759     32.6683E-03    -16.0730E-03    -16.5953E-03    -15.9086E-03     31.9816E-03    -16.0730E-03     11.5389E-03     9.41161E+06     5.26420E+06    -52.7860E+06     5.60959E+06    -52.7811E+06     9.06129E+06     307.435E+03         23.9562
             366     9.84197E-03     50.5746E-03         1.19625     928.206E-03        -3.70892         1.12802        -3.64069     928.206E-03        -1.08765     32.6537E-03    -16.1560E-03    -16.4977E-03    -15.9503E-03     32.1064E-03    -16.1560E-03     10.2891E-03     17.1952E+06     5.61402E+06    -72.3432E+06     5.60959E+06    -72.3388E+06     17.1952E+06     374.317E+03         23.5610
             367     8.85774E-03     50.5646E-03         1.16427     913.208E-03        -3.64925     999.323E-03        -3.48430     913.208E-03     856.411E-03     32.6389E-03    -16.2149E-03    -16.4240E-03    -15.9703E-03     32.1852E-03    -16.2149E-03     9.39055E-03     20.8347E+06     4.85076E+06    -89.3648E+06     4.84881E+06    -89.3628E+06     20.8347E+06     132.284E+03         23.2712
             368     7.87335E-03     50.5552E-03         1.49031     907.081E-03        -3.95598     921.074E-03        -3.38674     907.081E-03         3.25013     32.6879E-03    -16.2634E-03    -16.4246E-03    -16.0229E-03     32.2863E-03    -16.2634E-03     8.83714E-03     21.1001E+06     3.07923E+06    -108.982E+06     3.07901E+06    -108.982E+06     21.1001E+06    -15.0715E+03         23.0522
             369     6.88906E-03     50.5464E-03         1.36313     878.475E-03        -3.78852     877.164E-03        -3.33171     907.634E-03         2.63946     32.7215E-03    -16.2996E-03    -16.4219E-03    -16.0857E-03     32.3852E-03    -16.2996E-03     8.09451E-03     19.8650E+06     476.619E+03    -125.618E+06     475.864E+03    -125.618E+06     19.8650E+06     119.908E+03         22.8829
             370     5.90488E-03     50.5383E-03     968.562E-03     820.548E-03        -3.32717     830.274E-03        -3.28426     915.924E-03     431.265E-03     32.7092E-03    -16.3139E-03    -16.3952E-03    -16.1178E-03     32.4317E-03    -16.3139E-03     7.35029E-03     15.1732E+06    -2.45712E+06    -139.946E+06    -2.45834E+06    -139.945E+06     15.1732E+06    -6.24473E+03         22.7507
             371     4.92067E-03     50.5311E-03         1.25830     869.390E-03        -3.66250     797.639E-03        -3.26806     935.608E-03         1.79845     32.6989E-03    -16.3273E-03    -16.3716E-03    -16.1546E-03     32.4819E-03    -16.3273E-03     6.49456E-03     9.62830E+06    -5.19913E+06    -155.723E+06    -5.20034E+06    -155.722E+06     9.62830E+06    -365.433E+03         22.6479
             372     3.93641E-03     50.5249E-03         1.28163     902.837E-03        -3.71759     823.747E-03        -3.32267     965.800E-03         2.11145     32.7046E-03    -16.3413E-03    -16.3633E-03    -16.2075E-03     32.5503E-03    -16.3428E-03     5.46422E-03     4.24672E+06    -8.02870E+06    -172.036E+06    -8.03171E+06    -172.033E+06     4.24672E+06    -624.014E+03         22.5695
             373     2.95226E-03     50.5198E-03         1.47345     934.254E-03        -3.94312     907.401E-03        -3.44004     997.217E-03         2.49861     32.6919E-03    -16.3378E-03    -16.3541E-03    -16.2545E-03     32.5961E-03    -16.3416E-03     4.28879E-03    -2.20714E+06    -10.9152E+06    -182.814E+06    -10.9178E+06    -182.811E+06    -2.20714E+06    -535.412E+03         22.5123
             374     1.96821E-03     50.5161E-03         2.54121         1.02251        -5.09592     976.758E-03        -3.53146         1.02251        -1.42494     32.6637E-03    -16.3199E-03    -16.3439E-03    -16.2928E-03     32.6151E-03    -16.3222E-03     3.01282E-03    -8.88713E+06    -13.4610E+06    -187.503E+06    -13.4626E+06    -187.502E+06    -8.88713E+06    -457.490E+03         22.4732
             375     984.095E-06     50.5137E-03         5.73622     517.403E-03        -7.78971         1.54895        -3.60245     517.403E-03         4.89596     32.6086E-03    -16.2619E-03    -16.3467E-03    -16.3297E-03     32.5916E-03    -16.2619E-03     1.71162E-03    -13.5497E+06    -15.4247E+06    -189.142E+06    -15.1261E+06    -189.140E+06    -13.8505E+06    -191.984E+03         22.4501
             376     16.7349E-03     49.6512E-03         1.23741         1.12321        -3.90229         1.22955        -3.89746         1.12625     260.045E-03     31.3958E-03    -15.1466E-03    -16.2492E-03    -14.9121E-03     30.4981E-03    -15.5861E-03     6.12882E-03     195.976E+06     34.1532E+06    -36.2333E+06    -1.80731E+06     195.951E+06    -247.722E+03     257.748E+03         31.5612
             377     15.7493E-03     49.6310E-03         1.41795         1.11534        -4.09365         1.36356        -4.03926         1.11534    -713.174E-03     32.3487E-03    -15.3630E-03    -16.9857E-03    -15.2411E-03     30.6041E-03    -15.3630E-03     18.2093E-03     140.811E+06    -1.13051E+06    -61.0537E+06    -1.08274E+06     140.764E+06    -61.0537E+06    -1.06978E+06         29.6668
             378     14.7647E-03     49.6124E-03         1.51943         1.09576        -4.18007         1.44751        -4.10815         1.09576        -1.22387     32.7318E-03    -15.5459E-03    -17.1858E-03    -15.5318E-03     31.0777E-03    -15.5459E-03     17.8397E-03     88.1561E+06     2.11125E+06    -42.0425E+06     2.14145E+06     88.1259E+06    -42.0425E+06    -1.35865E+06         27.8654
             379     13.7802E-03     49.5943E-03         1.53195         1.06830        -4.16202         1.50884        -4.13892         1.06830    -676.403E-03     32.6476E-03    -15.7502E-03    -16.8974E-03    -15.5573E-03     31.3074E-03    -15.7502E-03     16.0569E-03     44.7103E+06      5.2493E+06    -16.4500E+06     5.29867E+06     44.6609E+06    -16.4500E+06     609.611E+03         26.3973
             380     12.7952E-03     49.5790E-03         1.54523         1.03354        -4.13433         1.52934        -4.11844         1.03354    -574.896E-03     32.5462E-03    -15.9093E-03    -16.6369E-03    -15.6372E-03     31.5465E-03    -15.9093E-03     13.7942E-03     18.0976E+06     5.21461E+06    -2.43603E+06     6.40231E+06     12.3271E+06     2.14676E+06     1.57021E+06         25.3009
             381     11.8110E-03     49.5662E-03         1.50469     994.588E-03        -4.04599         1.47359        -4.01489     994.588E-03    -810.589E-03     32.5336E-03    -15.9903E-03    -16.5432E-03    -15.7758E-03     31.7661E-03    -15.9903E-03     12.1750E-03     6.25018E+06     4.56281E+06    -23.0169E+06     6.09380E+06    -22.8605E+06     4.56281E+06     850.580E+03         24.5156
             382     10.8262E-03     49.5538E-03         1.44364     955.465E-03        -3.93753         1.37845        -3.87234     955.465E-03        -1.14677     32.6846E-03    -16.0716E-03    -16.6130E-03    -15.9289E-03     32.0005E-03    -16.0716E-03     11.5162E-03     9.68019E+06     5.53165E+06    -52.6699E+06     5.91751E+06    -52.6645E+06     9.28892E+06    -206.591E+03         23.9604
             383     9.84220E-03     49.5423E-03         1.35553     916.903E-03        -3.79958         1.30306        -3.74712     916.903E-03    -947.662E-03     32.6591E-03    -16.1515E-03    -16.5076E-03    -15.9641E-03     32.1156E-03    -16.1515E-03     10.2591E-03     17.2575E+06     5.77118E+06    -71.8544E+06     5.76667E+06    -71.8499E+06     17.2575E+06    -366.603E+03         23.5639
             384     8.85770E-03     49.5326E-03         1.39689     877.433E-03        -3.78874         1.23653        -3.62838     877.433E-03     982.061E-03     32.6324E-03    -16.2098E-03    -16.4226E-03    -15.9691E-03     32.1789E-03    -16.2098E-03     9.38693E-03     20.8313E+06     4.65592E+06    -89.1214E+06     4.65482E+06    -89.1203E+06     20.8313E+06    -230.272E+03         23.2732
             385     7.87338E-03     49.5229E-03         1.72379     837.203E-03        -4.05920         1.15427        -3.48968     837.203E-03         3.35783     32.6910E-03    -16.2558E-03    -16.4353E-03    -16.0350E-03     32.2907E-03    -16.2558E-03     8.82439E-03     20.8888E+06     2.79355E+06    -108.772E+06     2.79231E+06    -108.770E+06     20.8888E+06    -10.7606E+03         23.0534
             386     6.88921E-03     49.5142E-03         1.52331     797.435E-03        -3.80360         1.06650        -3.34680     797.435E-03         2.70583     32.6958E-03    -16.2906E-03    -16.4053E-03    -16.0693E-03     32.3599E-03    -16.2906E-03     8.08644E-03     19.5938E+06     493.059E+03    -125.393E+06     491.171E+03    -125.391E+06     19.5938E+06     72.0874E+03         22.8837
             387     5.90487E-03     49.5062E-03         1.01418     759.475E-03        -3.24349     972.501E-03        -3.20181     759.475E-03     507.405E-03     32.6833E-03    -16.3075E-03    -16.3758E-03    -16.0978E-03     32.4053E-03    -16.3075E-03     7.35652E-03     15.2333E+06    -2.04113E+06    -139.366E+06    -2.04304E+06    -139.364E+06     15.2333E+06    -100.588E+03         22.7511
             388     4.92061E-03     49.4990E-03         1.27646     725.818E-03        -3.46411     872.610E-03        -3.06026     725.818E-03         1.84332     32.6945E-03    -16.3210E-03    -16.3734E-03    -16.1554E-03     32.4764E-03    -16.3210E-03     6.50835E-03     9.46479E+06    -4.97717E+06    -155.217E+06    -4.97982E+06    -155.214E+06     9.46479E+06    -454.253E+03         22.6480
             389     3.93650E-03     49.4927E-03         1.19892     681.435E-03        -3.33883     761.390E-03        -2.92221     702.348E-03         2.22280     32.6990E-03    -16.3354E-03    -16.3636E-03    -16.2083E-03     32.5451E-03    -16.3369E-03     5.45649E-03     4.25561E+06    -7.89059E+06    -171.900E+06    -7.89482E+06    -171.896E+06     4.25561E+06    -724.534E+03         22.5694
             390     2.95233E-03     49.4877E-03         1.27887     668.579E-03        -3.40523     713.620E-03        -2.86089     689.492E-03         2.51237     32.6738E-03    -16.3339E-03    -16.3400E-03    -16.2393E-03     32.5780E-03    -16.3387E-03     4.28798E-03    -1.93640E+06    -10.6806E+06    -182.991E+06    -10.6856E+06    -182.986E+06    -1.93640E+06    -734.263E+03         22.5119
             391     1.96813E-03     49.4839E-03         2.28598     687.854E-03        -4.42103     673.153E-03        -2.80821     687.854E-03        -1.23497     32.6495E-03    -16.3132E-03    -16.3363E-03    -16.2725E-03     32.6006E-03    -16.3281E-03     3.02054E-03    -8.56366E+06    -13.0198E+06    -187.731E+06    -13.0230E+06    -187.727E+06    -8.56366E+06    -578.324E+03         22.4728
             392     984.101E-06     49.4814E-03         5.27622     203.773E-03        -6.92658         1.17738        -2.82773     203.773E-03         4.57229     32.6368E-03    -16.2755E-03    -16.3613E-03    -16.3330E-03     32.6199E-03    -16.2870E-03     1.69198E-03    -13.0152E+06    -14.5397E+06    -189.357E+06    -14.4524E+06    -189.356E+06    -13.1036E+06    -412.971E+03         22.4498
             393     16.7344E-03     48.6182E-03         1.13364         1.09484        -3.76835         1.11860        -3.76267         1.10420     315.424E-03     31.6446E-03    -15.1365E-03    -16.5081E-03    -15.0900E-03     30.6813E-03    -15.5913E-03     6.49006E-03     196.755E+06     34.7964E+06    -35.9149E+06    -2.23046E+06     196.735E+06     1.13164E+06    -219.011E+03         31.5463
             394     15.7499E-03     48.6002E-03         1.26715         1.09977        -3.90570         1.21867        -3.85723         1.09977    -596.015E-03     32.5076E-03    -15.3639E-03    -17.1437E-03    -15.2826E-03     30.6466E-03    -15.3639E-03     18.8527E-03     143.032E+06     1.09016E+06    -58.0878E+06     1.14502E+06     142.978E+06    -58.0878E+06     288.647E+03         29.6636
             395     14.7647E-03     48.5794E-03         1.39790         1.08738        -4.01879         1.33668        -3.95757         1.08738        -1.09504     32.6463E-03    -15.5526E-03    -17.0936E-03    -15.3878E-03     30.9404E-03    -15.5526E-03     18.0512E-03     87.6038E+06     2.77776E+06    -39.9221E+06     2.81783E+06     87.5637E+06    -39.9221E+06    -183.257E+03         27.8702
             396     13.7800E-03     48.5631E-03         1.44280         1.06599        -4.03225         1.42631        -4.01576         1.06599    -555.220E-03     32.6604E-03    -15.7595E-03    -16.9009E-03    -15.5443E-03     31.3038E-03    -15.7595E-03     16.1622E-03     43.2103E+06     3.14205E+06    -15.8660E+06     3.17018E+06     43.1821E+06    -15.8660E+06     304.875E+03         26.4049
             397     12.7954E-03     48.5464E-03         1.46540         1.03697        -4.01236         1.45486        -4.00182         1.03697    -461.453E-03     32.5758E-03    -15.9112E-03    -16.6646E-03    -15.6579E-03     31.5691E-03    -15.9112E-03     13.8272E-03     17.5743E+06     4.06676E+06    -1.77578E+06     4.70572E+06     12.9143E+06     2.24528E+06     536.410E+03         25.3083
             398     11.8107E-03     48.5344E-03         1.48086         1.00197        -3.97987         1.45723        -3.95624         1.00197    -706.871E-03     32.5975E-03    -15.9879E-03    -16.6096E-03    -15.8525E-03     31.8404E-03    -15.9879E-03     12.1124E-03     7.22071E+06     5.74617E+06    -21.5249E+06     7.03847E+06    -21.3427E+06     5.74617E+06     140.902E+03         24.5216
             399     10.8267E-03     48.5212E-03         1.52575     959.842E-03        -3.96926         1.47083        -3.91434     959.842E-03        -1.06641     32.6562E-03    -16.0659E-03    -16.5902E-03    -15.9112E-03     31.9772E-03    -16.0659E-03     11.4659E-03     11.0973E+06     7.15559E+06    -51.9355E+06     7.82940E+06    -51.9296E+06     10.4176E+06    -20.3315E+03         23.9647
             400     9.84202E-03     48.5104E-03         1.52066     908.179E-03        -3.89950         1.47674        -3.85558     908.179E-03    -876.071E-03     32.6140E-03    -16.1459E-03    -16.4680E-03    -15.9281E-03     32.0740E-03    -16.1459E-03     10.2217E-03     17.4702E+06     6.67170E+06    -71.6584E+06     6.66451E+06    -71.6512E+06     17.4702E+06    -386.879E+03         23.5668
             401     8.85778E-03     48.5002E-03         1.60681     845.847E-03        -3.90890         1.45314        -3.75523     845.847E-03         1.04919     32.6545E-03    -16.2038E-03    -16.4507E-03    -15.9961E-03     32.1999E-03    -16.2038E-03     9.40173E-03     20.7125E+06     4.87956E+06    -89.1229E+06     4.87615E+06    -89.1195E+06     20.7125E+06    -252.502E+03         23.2750
             402     7.87357E-03     48.4908E-03         1.94582     774.411E-03        -4.15846         1.37156        -3.58420     774.411E-03         3.45944     32.6726E-03    -16.2482E-03    -16.4245E-03    -16.0242E-03     32.2724E-03    -16.2482E-03     8.82377E-03     20.6869E+06     2.72636E+06    -108.645E+06     2.72432E+06    -108.643E+06     20.6869E+06     81.2018E+03         23.0546
             403     6.88912E-03     48.4819E-03         1.70434     697.785E-03        -3.82085         1.23947        -3.35599     697.785E-03         2.78418     32.6635E-03    -16.2840E-03    -16.3794E-03    -16.0409E-03     32.3250E-03    -16.2840E-03     8.11203E-03     19.3242E+06     485.646E+03    -125.008E+06     484.307E+03    -125.006E+06     19.3242E+06    -103.518E+03         22.8843
             404     5.90491E-03     48.4741E-03         1.13192     618.807E-03        -3.15302         1.09224        -3.11333     618.807E-03     581.834E-03     32.6787E-03    -16.3032E-03    -16.3754E-03    -16.0964E-03     32.3997E-03    -16.3032E-03     7.36813E-03     15.0875E+06    -2.11458E+06    -138.979E+06    -2.11589E+06    -138.978E+06     15.0875E+06    -262.308E+03         22.7515
             405     4.92069E-03     48.4667E-03         1.33894     536.162E-03        -3.26609     957.939E-03        -2.88509     536.162E-03         1.82616     32.6858E-03    -16.3177E-03    -16.3681E-03    -16.1498E-03     32.4679E-03    -16.3181E-03     6.50620E-03     9.62155E+06    -4.91397E+06    -154.784E+06    -4.91647E+06    -154.782E+06     9.62155E+06    -320.210E+03         22.6482
             406     3.93646E-03     48.4606E-03         1.18136     453.903E-03        -3.01958     765.403E-03        -2.60362     453.903E-03         2.29877     32.6882E-03    -16.3318E-03    -16.3564E-03    -16.2016E-03     32.5337E-03    -16.3322E-03     5.47006E-03     3.87776E+06    -7.89216E+06    -171.582E+06    -7.89872E+06    -171.575E+06     3.87776E+06    -730.438E+03         22.5694
             407     2.95230E-03     48.4555E-03         1.11967     382.255E-03        -2.88286     571.288E-03        -2.33448     382.255E-03         2.42910     32.6765E-03    -16.3326E-03    -16.3439E-03    -16.2459E-03     32.5795E-03    -16.3336E-03     4.31461E-03    -2.32550E+06    -10.6222E+06    -183.068E+06    -10.6297E+06    -183.061E+06    -2.32550E+06    -915.750E+03         22.5117
             408     1.96823E-03     48.4517E-03         1.92790     337.958E-03        -3.63099     384.554E-03        -2.08764     337.958E-03    -983.752E-03     32.6399E-03    -16.3113E-03    -16.3286E-03    -16.2671E-03     32.5909E-03    -16.3238E-03     3.02281E-03    -8.75166E+06    -12.9821E+06    -188.125E+06    -12.9865E+06    -188.120E+06    -8.75166E+06    -755.493E+03         22.4725
             409     984.002E-06     48.4493E-03         4.55969    -167.449E-03        -5.74488     818.274E-03        -2.00346    -167.449E-03         3.98295     32.6287E-03    -16.2618E-03    -16.3669E-03    -16.3385E-03     32.6118E-03    -16.2733E-03     1.69932E-03    -13.5932E+06    -14.9479E+06    -190.021E+06    -14.8618E+06    -190.018E+06    -13.6816E+06    -457.586E+03         22.4494
             410     16.7336E-03     47.5856E-03         1.08539         1.06543        -3.69531         1.07005        -3.68850         1.07396     345.874E-03     31.4299E-03    -14.9147E-03    -16.5152E-03    -14.9622E-03     30.5692E-03    -15.6070E-03     6.43750E-03     196.519E+06     33.1505E+06    -35.9735E+06    -3.03177E+06     196.508E+06     220.358E+03    -806.476E+03         31.5311
             411     15.7493E-03     47.5675E-03         1.15126         1.07069        -3.74595         1.09857        -3.69548         1.07290    -556.470E-03     32.6499E-03    -15.3768E-03    -17.2731E-03    -15.4374E-03     30.8142E-03    -15.3768E-03     18.7486E-03     142.357E+06    -1.94071E+06    -60.2328E+06    -1.91059E+06     142.327E+06    -60.2328E+06     87.1386E+03         29.6598
             412     14.7647E-03     47.5482E-03         1.24410         1.06781        -3.81716         1.18133        -3.75439         1.06781        -1.07266     32.8239E-03    -15.5569E-03    -17.2670E-03    -15.5053E-03     31.0622E-03    -15.5569E-03     18.3815E-03     88.5574E+06     1.89895E+06    -41.0428E+06     1.93153E+06     88.5248E+06    -41.0428E+06     1.39274E+06         27.8751
             413     13.7799E-03     47.5302E-03         1.28352         1.05617        -3.82572         1.26710        -3.80930         1.05617    -524.608E-03     32.7729E-03    -15.7495E-03    -17.0234E-03    -15.6733E-03     31.4227E-03    -15.7495E-03     16.1631E-03     44.3877E+06     4.95002E+06    -17.4000E+06     5.26442E+06     44.0734E+06    -17.4000E+06    -640.127E+03         26.4128
             414     12.7954E-03     47.5148E-03         1.34968         1.03685        -3.85292         1.34000        -3.84324         1.03685    -426.233E-03     32.6646E-03    -15.8929E-03    -16.7717E-03    -15.7627E-03     31.6556E-03    -15.8929E-03     13.8826E-03     19.9097E+06     5.56321E+06    -3.30216E+06     8.26109E+06     13.1167E+06     792.960E+03    -1.42960E+06         25.3159
             415     11.8111E-03     47.5014E-03         1.45088         1.00763        -3.90547         1.42914        -3.88373         1.00763    -672.940E-03     32.5735E-03    -15.9748E-03    -16.5986E-03    -15.8421E-03     31.8169E-03    -15.9748E-03     12.1036E-03     8.96407E+06     5.16237E+06    -21.7897E+06     8.90000E+06    -21.7256E+06     5.16237E+06    -228.121E+03         24.5276
             416     10.8266E-03     47.4895E-03         1.58021     964.548E-03        -3.97348         1.52698        -3.92025     964.548E-03        -1.05124     32.6216E-03    -16.0567E-03    -16.5649E-03    -15.8824E-03     31.9390E-03    -16.0567E-03     11.4960E-03     11.4330E+06     6.93919E+06    -51.4049E+06     8.27918E+06    -51.4006E+06     10.0888E+06     433.542E+03         23.9689
             417     9.84221E-03     47.4779E-03         1.64159     904.297E-03        -3.95968         1.59831        -3.91640     904.297E-03    -874.609E-03     32.6192E-03    -16.1409E-03    -16.4783E-03    -15.9313E-03     32.0722E-03    -16.1409E-03     10.2814E-03     17.7622E+06     7.10315E+06    -71.2637E+06     7.09201E+06    -71.2526E+06     17.7622E+06     481.015E+03         23.5696
             418     8.85784E-03     47.4681E-03         1.76058     825.668E-03        -3.98362         1.61515        -3.83820     825.668E-03         1.05156     32.6254E-03    -16.1988E-03    -16.4266E-03    -15.9735E-03     32.1723E-03    -16.1988E-03     9.38358E-03     20.6904E+06     4.95761E+06    -89.0099E+06     4.94758E+06    -88.9999E+06     20.6904E+06     251.089E+03         23.2768
             419     7.87343E-03     47.4585E-03         2.11401     731.008E-03        -4.22329         1.54064        -3.64992     731.008E-03         3.51582     32.6550E-03    -16.2452E-03    -16.4098E-03    -16.0095E-03     32.2546E-03    -16.2452E-03     8.81918E-03     20.8279E+06     2.95503E+06    -108.277E+06     2.95367E+06    -108.275E+06     20.8279E+06    -72.0320E+03         23.0557
             420     6.88925E-03     47.4499E-03         1.85819     625.373E-03        -3.84018         1.39087        -3.37286     625.373E-03         2.81972     32.6643E-03    -16.2814E-03    -16.3829E-03    -16.0448E-03     32.3262E-03    -16.2814E-03     8.10928E-03     19.4365E+06     560.494E+03    -124.603E+06     560.212E+03    -124.603E+06     19.4365E+06    -163.856E+03         22.8851
             421     5.90487E-03     47.4417E-03         1.22779     513.733E-03        -3.07702         1.19103        -3.04026     513.733E-03     645.313E-03     32.6685E-03    -16.2990E-03    -16.3695E-03    -16.0892E-03     32.3883E-03    -16.2990E-03     7.38177E-03     14.8608E+06    -2.25333E+06    -138.663E+06    -2.25441E+06    -138.662E+06     14.8608E+06    -314.934E+03         22.7520
             422     4.92069E-03     47.4346E-03         1.35215     396.454E-03        -3.07132     998.234E-03        -2.71741     396.454E-03         1.79738     32.6723E-03    -16.3159E-03    -16.3565E-03    -16.1385E-03     32.4548E-03    -16.3162E-03     6.49951E-03     9.67461E+06    -4.70306E+06    -154.522E+06    -4.70562E+06    -154.519E+06     9.67461E+06    -468.010E+03         22.6485
             423     3.93645E-03     47.4284E-03         1.20670     274.328E-03        -2.79351     764.045E-03        -2.35085     274.328E-03         2.42130     32.6812E-03    -16.3316E-03    -16.3496E-03    -16.1939E-03     32.5258E-03    -16.3319E-03     5.48459E-03     3.97941E+06    -7.39670E+06    -170.990E+06    -7.40286E+06    -170.984E+06     3.97941E+06    -606.814E+03         22.5696
             424     2.95234E-03     47.4233E-03         1.03486     152.726E-03        -2.49498     510.579E-03        -1.97070     152.726E-03         2.34040     32.6895E-03    -16.3325E-03    -16.3569E-03    -16.2598E-03     32.5923E-03    -16.3325E-03     4.31451E-03    -2.57261E+06    -10.5684E+06    -183.261E+06    -10.5757E+06    -183.254E+06    -2.57261E+06    -808.959E+03         22.5117
             425     1.96815E-03     47.4196E-03         1.51682     57.9307E-03        -2.85703     195.705E-03        -1.53592     57.9307E-03    -666.556E-03     32.6507E-03    -16.3143E-03    -16.3365E-03    -16.2878E-03     32.6020E-03    -16.3143E-03     3.01723E-03    -8.94407E+06    -13.0372E+06    -188.679E+06    -13.0413E+06    -188.675E+06    -8.94407E+06    -665.442E+03         22.4724
             426     984.192E-06     47.4170E-03         3.57520    -447.253E-03        -4.39374     493.070E-03        -1.31160    -447.253E-03         3.14404     32.5971E-03    -16.2651E-03    -16.3320E-03    -16.3145E-03     32.5796E-03    -16.2651E-03     1.74122E-03    -13.6845E+06    -14.7828E+06    -190.362E+06    -14.7400E+06    -190.361E+06    -13.7289E+06    -204.933E+03         22.4492
             427     16.7340E-03     46.5523E-03         1.07277         1.03815        -3.65310         1.05967        -3.64589         1.04404     343.298E-03     31.1949E-03    -14.9621E-03    -16.2328E-03    -14.8121E-03     30.4103E-03    -15.5983E-03     5.91594E-03     197.192E+06     34.0539E+06    -35.8685E+06    -1.53648E+06     197.181E+06    -266.954E+03     517.024E+03         31.5171
             428     15.7488E-03     46.5363E-03         1.08296         1.03819        -3.62470         1.01764        -3.56527         1.04408    -616.118E-03     32.4247E-03    -15.3738E-03    -17.0510E-03    -15.3383E-03     30.7121E-03    -15.3738E-03     18.0409E-03     140.675E+06    -1.52968E+06    -62.1298E+06    -1.50779E+06     140.654E+06    -62.1298E+06    -571.627E+03         29.6567
             429     14.7641E-03     46.5150E-03         1.10913         1.03540        -3.61730         1.02210        -3.54010         1.04523        -1.14820     32.8925E-03    -15.5491E-03    -17.3435E-03    -15.6515E-03     31.2005E-03    -15.5491E-03     18.0555E-03     89.7959E+06     3.53657E+06    -42.4311E+06     3.62858E+06     89.7039E+06    -42.4311E+06    -921.890E+03         27.8800
             430     13.7800E-03     46.4987E-03         1.12517         1.03413        -3.60572         1.09248        -3.58286         1.04397    -587.533E-03     32.8044E-03    -15.7335E-03    -17.0709E-03    -15.7458E-03     31.4793E-03    -15.7335E-03     16.0328E-03     46.8088E+06     7.64971E+06    -18.3835E+06     8.07650E+06     46.3820E+06    -18.3835E+06    -1.18648E+06         26.4206
             431     12.7956E-03     46.4818E-03         1.24490         1.03454        -3.70003         1.23116        -3.68629         1.03454    -488.223E-03     32.6430E-03    -15.8802E-03    -16.7628E-03    -15.7543E-03     31.6345E-03    -15.8802E-03     13.8794E-03     17.9284E+06     4.98805E+06    -5.28613E+06     7.40003E+06     11.5870E+06    -1.35678E+06    -442.732E+03         25.3233
             432     11.8111E-03     46.4698E-03         1.41590         1.01123        -3.82186         1.38892        -3.79488         1.01123    -736.112E-03     32.5155E-03    -15.9683E-03    -16.5473E-03    -15.7874E-03     31.7556E-03    -15.9683E-03     12.1163E-03     6.66139E+06     3.20211E+06    -22.2471E+06     6.24256E+06    -22.2350E+06     3.60883E+06     405.952E+03         24.5334
             433     10.8265E-03     46.4571E-03         1.59344     969.973E-03        -3.93674         1.53239        -3.87569     969.973E-03        -1.12088     32.6217E-03    -16.0538E-03    -16.5679E-03    -15.8808E-03     31.9346E-03    -16.0538E-03     11.5348E-03     10.4255E+06     5.28211E+06    -51.0250E+06     6.25887E+06    -51.0205E+06     9.44422E+06     488.734E+03         23.9731
             434     9.84224E-03     46.4458E-03         1.69566     907.514E-03        -3.95793         1.64669        -3.90895     907.514E-03    -927.257E-03     32.6255E-03    -16.1369E-03    -16.4886E-03    -15.9390E-03     32.0758E-03    -16.1369E-03     10.3072E-03     17.3383E+06     5.87137E+06    -71.0411E+06     5.86215E+06    -71.0319E+06     17.3383E+06     633.301E+03         23.5723
             435     8.85784E-03     46.4359E-03         1.83010     822.358E-03        -3.99132         1.69086        -3.85208     822.358E-03         1.02091     32.6028E-03    -16.1967E-03    -16.4060E-03    -15.9535E-03     32.1502E-03    -16.1967E-03     9.37323E-03     21.2381E+06     5.14938E+06    -88.1913E+06     5.14119E+06    -88.1831E+06     21.2381E+06     409.027E+03         23.2786
             436     7.87356E-03     46.4264E-03         2.20705     716.902E-03        -4.24265         1.63259        -3.66819     716.902E-03         3.54106     32.6415E-03    -16.2434E-03    -16.3980E-03    -15.9982E-03     32.2416E-03    -16.2434E-03     8.81159E-03     21.0913E+06     3.20786E+06    -107.754E+06     3.20662E+06    -107.752E+06     21.0913E+06    -78.1077E+03         23.0569
             437     6.88915E-03     46.4177E-03         1.97274     594.745E-03        -3.86332         1.50328        -3.39386     594.745E-03         2.82416     32.6665E-03    -16.2792E-03    -16.3873E-03    -16.0487E-03     32.3279E-03    -16.2792E-03     8.11619E-03     19.4785E+06     631.658E+03    -124.268E+06     631.014E+03    -124.267E+06     19.4785E+06    -254.170E+03         22.8859
             438     5.90499E-03     46.4097E-03         1.33393     459.907E-03        -3.06613         1.29765        -3.02984     459.907E-03     748.758E-03     32.6582E-03    -16.2977E-03    -16.3606E-03    -16.0794E-03     32.3770E-03    -16.2977E-03     7.39345E-03     15.1055E+06    -1.82545E+06    -138.239E+06    -1.82645E+06    -138.238E+06     15.1055E+06    -335.215E+03         22.7526
             439     4.92064E-03     46.4024E-03         1.38047     317.309E-03        -2.95369         1.04263        -2.61585     317.309E-03         1.84918     32.6639E-03    -16.3151E-03    -16.3488E-03    -16.1305E-03     32.4456E-03    -16.3151E-03     6.50835E-03     9.48460E+06    -4.69859E+06    -154.274E+06    -4.70139E+06    -154.272E+06     9.48460E+06    -609.919E+03         22.6491
             440     3.93649E-03     46.3963E-03         1.26497     174.973E-03        -2.68389     730.731E-03        -2.14965     174.973E-03         2.68252     32.6893E-03    -16.3319E-03    -16.3574E-03    -16.2017E-03     32.5336E-03    -16.3319E-03     5.49181E-03     3.99835E+06    -7.43603E+06    -170.816E+06    -7.43976E+06    -170.813E+06     3.99835E+06    -631.183E+03         22.5700
             441     2.95226E-03     46.3911E-03     959.238E-03     37.8325E-03        -2.23366     442.013E-03        -1.71644     37.8325E-03         2.31210     32.6914E-03    -16.3322E-03    -16.3592E-03    -16.2617E-03     32.5939E-03    -16.3322E-03     4.32122E-03    -2.26189E+06    -10.0015E+06    -183.228E+06    -10.0056E+06    -183.223E+06    -2.26189E+06    -529.349E+03         22.5121
             442     1.96830E-03     46.3873E-03     996.674E-03    -69.2090E-03        -2.13327     88.7103E-03        -1.22531    -69.2090E-03    -250.861E-03     32.6537E-03    -16.3171E-03    -16.3366E-03    -16.2881E-03     32.6052E-03    -16.3171E-03     3.00892E-03    -8.22678E+06    -12.6202E+06    -189.121E+06    -12.6239E+06    -189.118E+06    -8.22678E+06    -552.458E+03         22.4726
             443     984.026E-06     46.3850E-03         2.32804    -562.631E-03        -2.95186     345.091E-03    -968.913E-03    -562.631E-03         2.08628     32.6009E-03    -16.2689E-03    -16.3320E-03    -16.3144E-03     32.5833E-03    -16.2689E-03     1.76396E-03    -12.6015E+06    -14.5307E+06    -190.519E+06    -14.1000E+06    -190.516E+06    -13.0353E+06     62.2123E+03         22.4493
             444     16.7347E-03     45.5220E-03         1.04861         1.00917        -3.57736         1.02982        -3.57191         1.02251     268.775E-03     31.3896E-03    -15.0772E-03    -16.3123E-03    -14.8939E-03     30.4788E-03    -15.5849E-03     5.94251E-03     197.862E+06     35.0087E+06    -35.9127E+06    -1.01578E+06     197.852E+06     122.028E+03     781.727E+03         31.5039
             445     15.7495E-03     45.5030E-03         1.04860         1.01063        -3.52742     965.215E-03        -3.45737         1.02397    -742.433E-03     32.4522E-03    -15.3610E-03    -17.0912E-03    -15.3356E-03     30.6966E-03    -15.3610E-03     18.2978E-03     142.847E+06     1.61167E+06    -59.9475E+06     1.63169E+06     142.827E+06    -59.9475E+06    -170.148E+03         29.6540
             446     14.7651E-03     45.4835E-03         1.05346         1.00484        -3.48927     931.571E-03        -3.39138         1.02883        -1.28496     32.7694E-03    -15.5501E-03    -17.2194E-03    -15.5633E-03     31.1134E-03    -15.5501E-03     17.8540E-03     90.1327E+06     3.20377E+06    -39.6030E+06     3.28995E+06     90.0465E+06    -39.6030E+06    -1.45722E+06         27.8849
             447     13.7800E-03     45.4656E-03         1.04742         1.00416        -3.45119     983.305E-03        -3.41661         1.03370    -734.539E-03     32.6864E-03    -15.7506E-03    -16.9357E-03    -15.6007E-03     31.3513E-03    -15.7506E-03     16.0396E-03     45.3730E+06     2.66416E+06    -15.5080E+06     2.80181E+06     45.2353E+06    -15.5080E+06     236.747E+03         26.4281
             448     12.7956E-03     45.4503E-03         1.15517         1.02622        -3.55047         1.12651        -3.52735         1.03176    -640.211E-03     32.5658E-03    -15.8941E-03    -16.6717E-03    -15.6702E-03     31.5643E-03    -15.8941E-03     13.8144E-03     16.0533E+06     2.51847E+06    -3.09937E+06     3.17518E+06     11.8166E+06     480.595E+03     749.465E+03         25.3303
             449     11.8109E-03     45.4373E-03         1.35412         1.01570        -3.71010         1.31404        -3.67001         1.01570    -892.781E-03     32.5250E-03    -15.9730E-03    -16.5520E-03    -15.7871E-03     31.7601E-03    -15.9730E-03     12.1574E-03        5.13E+06     3.78072E+06    -21.8789E+06     4.66429E+06    -21.8199E+06     4.18745E+06    -370.524E+03         24.5390
             450     10.8267E-03     45.4251E-03         1.58184     979.600E-03        -3.87618         1.50253        -3.79686     979.600E-03        -1.27982     32.6492E-03    -16.0540E-03    -16.5952E-03    -15.9073E-03     31.9613E-03    -16.0540E-03     11.5459E-03     9.88297E+06     5.33032E+06    -51.3127E+06     5.62241E+06    -51.3036E+06     9.58179E+06    -74.0411E+03         23.9772
             451     9.84218E-03     45.4135E-03         1.69362     920.389E-03        -3.90941         1.63236        -3.84815     920.389E-03        -1.03073     32.5929E-03    -16.1342E-03    -16.4587E-03    -15.9086E-03     32.0428E-03    -16.1342E-03     10.3078E-03     17.3188E+06     5.79335E+06    -70.5819E+06     5.79123E+06    -70.5798E+06     17.3188E+06    -7.52943E+03         23.5752
             452     8.85792E-03     45.4037E-03         1.81343     838.216E-03        -3.93078         1.68017        -3.79752     838.216E-03     963.031E-03     32.5956E-03    -16.1954E-03    -16.4002E-03    -15.9432E-03     32.1386E-03    -16.1954E-03     9.41659E-03     21.0282E+06     4.87617E+06    -87.8469E+06     4.87422E+06    -87.8450E+06     21.0282E+06    -116.767E+03         23.2805
             453     7.87347E-03     45.3942E-03         2.23569     734.258E-03        -4.22997         1.65312        -3.64739     734.258E-03         3.55656     32.6452E-03    -16.2440E-03    -16.4012E-03    -15.9977E-03     32.2417E-03    -16.2440E-03     8.85304E-03     21.3053E+06     3.25902E+06    -107.215E+06     3.25794E+06    -107.214E+06     21.3053E+06     22.9406E+03         23.0583
             454     6.88926E-03     45.3855E-03         2.04732     608.544E-03        -3.89204         1.56829        -3.41301     608.544E-03         2.83570     32.6564E-03    -16.2809E-03    -16.3755E-03    -16.0336E-03     32.3145E-03    -16.2809E-03     8.15209E-03     19.7637E+06     981.406E+03    -123.732E+06     980.677E+03    -123.731E+06     19.7637E+06    -217.952E+03         22.8870
             455     5.90487E-03     45.3775E-03         1.42942     463.538E-03        -3.10447         1.38395        -3.05900     463.538E-03     888.603E-03     32.6653E-03    -16.3005E-03    -16.3648E-03    -16.0820E-03     32.3825E-03    -16.3005E-03     7.41513E-03     15.1724E+06    -1.84725E+06    -138.034E+06    -1.84867E+06    -138.033E+06     15.1724E+06    -418.698E+03         22.7535
             456     4.92070E-03     45.3703E-03         1.41778     308.119E-03        -2.91826         1.09736        -2.59784     308.119E-03         1.93062     32.6777E-03    -16.3173E-03    -16.3604E-03    -16.1402E-03     32.4575E-03    -16.3173E-03     6.53842E-03     9.66795E+06    -4.62002E+06    -153.862E+06    -4.62178E+06    -153.860E+06     9.66795E+06    -479.434E+03         22.6498
             457     3.93643E-03     45.3641E-03         1.35149     162.714E-03        -2.69241     696.051E-03        -2.03697     162.714E-03         2.95093     32.6961E-03    -16.3336E-03    -16.3625E-03    -16.2060E-03     32.5395E-03    -16.3336E-03     5.50510E-03     4.15505E+06    -7.65465E+06    -170.812E+06    -7.65755E+06    -170.809E+06     4.15505E+06    -644.344E+03         22.5707
             458     2.95240E-03     45.3590E-03     882.793E-03     44.2620E-03        -2.09675     356.325E-03        -1.57028     44.2620E-03         2.24267     32.6787E-03    -16.3309E-03    -16.3478E-03    -16.2447E-03     32.5804E-03    -16.3357E-03     4.34413E-03    -2.28066E+06    -10.4480E+06    -183.308E+06    -10.4506E+06    -183.306E+06    -2.28066E+06    -533.074E+03         22.5127
             459     1.96809E-03     45.3552E-03     466.200E-03    -62.4757E-03        -1.54284     50.9674E-03        -1.16316    -26.9216E-03     210.786E-03     32.6605E-03    -16.3193E-03    -16.3412E-03    -16.2868E-03     32.6109E-03    -16.3241E-03     3.03559E-03    -8.43658E+06    -12.6420E+06    -189.088E+06    -12.6441E+06    -189.086E+06    -8.43658E+06    -490.928E+03         22.4732
             460     984.174E-06     45.3528E-03         1.12497    -535.702E-03        -1.70662     408.090E-03        -1.02529    -500.148E-03     906.209E-03     32.6223E-03    -16.2649E-03    -16.3574E-03    -16.3403E-03     32.6052E-03    -16.2649E-03     1.72459E-03    -12.2703E+06    -14.7500E+06    -190.622E+06    -14.3656E+06    -190.617E+06    -12.6598E+06    -330.686E+03         22.4499
             461     16.7339E-03     44.4898E-03         1.02215     976.389E-03        -3.46607     980.335E-03        -3.46213         1.01426     166.271E-03     31.5398E-03    -14.9759E-03    -16.5638E-03    -14.9930E-03     30.5884E-03    -15.5953E-03     6.27940E-03     198.021E+06     34.0140E+06    -35.4644E+06    -2.30233E+06     198.016E+06     857.466E+03    -25.0649E+03         31.4905
             462     15.7496E-03     44.4708E-03         1.04857     985.663E-03        -3.44908     929.979E-03        -3.36285         1.01803    -877.417E-03     32.6451E-03    -15.3665E-03    -17.2787E-03    -15.4489E-03     30.8154E-03    -15.3665E-03     18.7457E-03     144.246E+06    -495.434E+03    -58.7493E+06    -478.325E+03     144.228E+06    -58.7493E+06     763.355E+03         29.6509
             463     14.7647E-03     44.4513E-03         1.06214         1.01012        -3.44747     920.768E-03        -3.32025         1.02427        -1.46089     32.7544E-03    -15.5563E-03    -17.1981E-03    -15.4809E-03     31.0372E-03    -15.5563E-03     18.1633E-03     90.0673E+06     1.35753E+06    -38.3200E+06     1.39730E+06     90.0275E+06    -38.3200E+06     1.24644E+06         27.8894
             464     13.7803E-03     44.4339E-03         1.03762         1.00639        -3.38637     959.254E-03        -3.33190         1.03029    -924.196E-03     32.7033E-03    -15.7484E-03    -16.9549E-03    -15.5742E-03     31.3226E-03    -15.7484E-03     16.3109E-03     45.1716E+06     3.12726E+06    -15.8739E+06     3.34617E+06     44.9527E+06    -15.8739E+06     203.978E+03         26.4352
             465     12.7954E-03     44.4178E-03         1.10488         1.02227        -3.43833         1.05377        -3.39696         1.03202    -833.781E-03     32.5807E-03    -15.8880E-03    -16.6927E-03    -15.6768E-03     31.5648E-03    -15.8880E-03     13.8987E-03     19.0053E+06      4.8289E+06    -3.59245E+06     6.61745E+06     13.2164E+06     407.936E+03    -1.08855E+06         25.3373
             466     11.8111E-03     44.4054E-03         1.28663         1.02287        -3.59003         1.22391        -3.52731         1.02287        -1.08569     32.5712E-03    -15.9740E-03    -16.5973E-03    -15.8234E-03     31.7974E-03    -15.9740E-03     12.2389E-03     7.75951E+06     5.02925E+06    -21.7856E+06     7.70094E+06    -21.7271E+06     5.02925E+06    -590.713E+03         24.5447
             467     10.8265E-03     44.3926E-03         1.52616     995.378E-03        -3.77522         1.41925        -3.66830     995.378E-03        -1.46162     32.6515E-03    -16.0543E-03    -16.5973E-03    -15.9023E-03     31.9565E-03    -16.0543E-03     11.5973E-03     10.9434E+06     6.11606E+06    -51.3985E+06     7.18673E+06    -51.3839E+06     9.85812E+06    -412.945E+03         23.9814
             468     9.84237E-03     44.3816E-03         1.63486     945.931E-03        -3.81546         1.55470        -3.73530     945.931E-03        -1.16289     32.5885E-03    -16.1360E-03    -16.4525E-03    -15.8985E-03     32.0345E-03    -16.1360E-03     10.3513E-03     17.4755E+06     6.42564E+06    -70.2299E+06     6.41901E+06    -70.2232E+06     17.4755E+06    -296.865E+03         23.5781
             469     8.85771E-03     44.3715E-03         1.74762     874.359E-03        -3.84049         1.62136        -3.71423     874.359E-03     863.963E-03     32.5908E-03    -16.1981E-03    -16.3927E-03    -15.9271E-03     32.1252E-03    -16.1981E-03     9.50019E-03     20.6871E+06     4.90434E+06    -87.8932E+06     4.90171E+06    -87.8906E+06     20.6871E+06    -246.715E+03         23.2826
             470     7.87355E-03     44.3621E-03         2.21795     780.360E-03        -4.19869         1.62773        -3.60848     780.360E-03         3.54386     32.6523E-03    -16.2495E-03    -16.4028E-03    -15.9964E-03     32.2459E-03    -16.2495E-03     8.88603E-03     21.2455E+06     3.04505E+06    -106.856E+06     3.04380E+06    -106.855E+06     21.2455E+06    -265.059E+03         23.0599
             471     6.88910E-03     44.3534E-03         2.05696     663.593E-03        -3.89774         1.56450        -3.40528     663.593E-03         2.84195     32.6675E-03    -16.2876E-03    -16.3799E-03    -16.0345E-03     32.3222E-03    -16.2876E-03     8.19359E-03     19.8591E+06     839.634E+03    -123.245E+06     839.081E+03    -123.245E+06     19.8591E+06    -185.317E+03         22.8883
             472     5.90490E-03     44.3453E-03         1.43169     529.521E-03        -3.11196         1.37389        -3.05416     529.521E-03     998.091E-03     32.6788E-03    -16.3076E-03    -16.3711E-03    -16.0862E-03     32.3939E-03    -16.3076E-03     7.44437E-03     15.1947E+06    -2.01792E+06    -137.740E+06    -2.01892E+06    -137.739E+06     15.1947E+06    -299.710E+03         22.7547
             473     4.92061E-03     44.3382E-03         1.36700     390.548E-03        -2.88970         1.08439        -2.60709     390.548E-03         1.91752     32.6983E-03    -16.3234E-03    -16.3748E-03    -16.1523E-03     32.4757E-03    -16.3234E-03     6.57603E-03     9.58196E+06    -5.03935E+06    -153.497E+06    -5.04062E+06    -153.496E+06     9.58196E+06    -365.398E+03         22.6508
             474     3.93651E-03     44.3319E-03         1.42526     267.377E-03        -2.80968     704.766E-03        -2.08918     267.377E-03         3.11230     32.7002E-03    -16.3390E-03    -16.3612E-03    -16.2024E-03     32.5421E-03    -16.3397E-03     5.53272E-03     4.00915E+06    -7.99930E+06    -170.553E+06    -8.00055E+06    -170.552E+06     4.00915E+06    -437.264E+03         22.5716
             475     2.95221E-03     44.3269E-03     924.103E-03     176.499E-03        -2.20968     399.085E-03        -1.68466     176.499E-03         2.07805     32.6914E-03    -16.3388E-03    -16.3526E-03    -16.2482E-03     32.5925E-03    -16.3443E-03     4.35559E-03    -2.37767E+06    -11.0771E+06    -183.354E+06    -11.0788E+06    -183.353E+06    -2.37767E+06    -544.443E+03         22.5136
             476     1.96823E-03     44.3230E-03     324.736E-03     101.103E-03        -1.50474     150.697E-03        -1.36625     136.657E-03     650.227E-03     32.6694E-03    -16.3165E-03    -16.3529E-03    -16.2891E-03     32.6193E-03    -16.3302E-03     3.05822E-03    -9.31278E+06    -13.5028E+06    -189.114E+06    -13.5043E+06    -189.112E+06    -9.31278E+06    -479.891E+03         22.4742
             477     984.047E-06     44.3205E-03     912.578E-03    -354.859E-03        -1.61961     586.768E-03        -1.32936    -319.305E-03    -272.724E-03     32.6348E-03    -16.2735E-03    -16.3613E-03    -16.3352E-03     32.6176E-03    -16.2825E-03     1.70662E-03    -13.5484E+06    -15.7191E+06    -190.666E+06    -15.0659E+06    -190.664E+06    -14.2044E+06    -624.421E+03         22.4510
             478     16.7338E-03     43.4561E-03         1.01910     940.585E-03        -3.34837     937.398E-03        -3.34518         1.01910     94.7525E-03     31.4052E-03    -14.9544E-03    -16.4508E-03    -14.9557E-03     30.5598E-03    -15.6041E-03     6.19766E-03     198.299E+06     34.0155E+06    -35.3794E+06    -2.71195E+06     198.293E+06     1.35393E+06    -179.339E+03         31.4782
             479     15.7494E-03     43.4392E-03         1.07083     968.174E-03        -3.37937     912.322E-03        -3.27787         1.02519        -1.00005     32.5416E-03    -15.3736E-03    -17.1681E-03    -15.4079E-03     30.7814E-03    -15.3736E-03     18.3463E-03     142.712E+06    -655.196E+03    -59.5365E+06    -637.368E+03     142.694E+06    -59.5365E+06     400.265E+03         29.6482
             480     14.7645E-03     43.4188E-03         1.09399         1.03206        -3.43048     938.831E-03        -3.27532         1.03206        -1.62756     32.7884E-03    -15.5519E-03    -17.2365E-03    -15.5151E-03     31.0670E-03    -15.5519E-03     18.1914E-03     90.5527E+06     4.63863E+06    -39.9800E+06     4.68144E+06     90.5099E+06    -39.9800E+06     1.00118E+06         27.8939
             481     13.7799E-03     43.4019E-03         1.06306         1.03308        -3.37098     984.664E-03        -3.29679         1.03728        -1.10447     32.7656E-03    -15.7429E-03    -17.0227E-03    -15.6470E-03     31.3898E-03    -15.7429E-03     16.3087E-03     48.3111E+06     7.95989E+06    -16.2128E+06     8.17157E+06     48.0994E+06    -16.2128E+06    -608.812E+03         26.4425
             482     12.7955E-03     43.3856E-03         1.11814         1.03452        -3.39776         1.05460        -3.33841         1.03872        -1.01557     32.6274E-03    -15.8883E-03    -16.7391E-03    -15.7101E-03     31.5983E-03    -15.8883E-03     14.0064E-03     19.6197E+06     5.26968E+06    -4.80782E+06     7.84803E+06     12.7376E+06    -504.141E+03    -1.01474E+06         25.3444
             483     11.8109E-03     43.3732E-03         1.24304         1.03302        -3.49105         1.15865        -3.40665         1.03302        -1.25181     32.5737E-03    -15.9743E-03    -16.5994E-03    -15.8179E-03     31.7922E-03    -15.9743E-03     12.2979E-03     7.02769E+06     3.63872E+06    -22.1570E+06     7.01655E+06    -22.1459E+06     3.63872E+06    -76.9140E+03         24.5505
             484     10.8267E-03     43.3605E-03         1.41706         1.01588        -3.62273         1.28215        -3.48782         1.01588        -1.60621     32.6386E-03    -16.0590E-03    -16.5797E-03    -15.8783E-03     31.9373E-03    -16.0590E-03     11.6494E-03     10.3835E+06     5.96475E+06    -50.7069E+06     6.94173E+06    -50.6995E+06     9.39916E+06    -46.7508E+03         23.9857
             485     9.84197E-03     43.3494E-03         1.50940     982.808E-03        -3.66280         1.40854        -3.56194     982.808E-03        -1.28730     32.6118E-03    -16.1437E-03    -16.4681E-03    -15.9093E-03     32.0531E-03    -16.1437E-03     10.3913E-03     17.1146E+06     6.15628E+06    -70.3136E+06     6.14894E+06    -70.3063E+06     17.1146E+06    -260.920E+03         23.5813
             486     8.85788E-03     43.3393E-03         1.63363     929.497E-03        -3.71986         1.51479        -3.60102     929.497E-03     740.724E-03     32.6083E-03    -16.2057E-03    -16.4026E-03    -15.9340E-03     32.1397E-03    -16.2057E-03     9.53419E-03     20.5470E+06     4.81529E+06    -87.3810E+06     4.81242E+06    -87.3782E+06     20.5470E+06    -132.448E+03         23.2849
             487     7.87327E-03     43.3300E-03         2.13313     854.983E-03        -4.12687         1.53770        -3.53145     854.983E-03         3.48461     32.6580E-03    -16.2575E-03    -16.4005E-03    -15.9890E-03     32.2465E-03    -16.2575E-03     8.93785E-03     20.7898E+06     2.81154E+06    -106.801E+06     2.81015E+06    -106.800E+06     20.7898E+06    -253.683E+03         23.0617
             488     6.88914E-03     43.3211E-03         1.95445     764.014E-03        -3.83426         1.45247        -3.33227     764.014E-03         2.77043     32.6952E-03    -16.2965E-03    -16.3988E-03    -16.0538E-03     32.3503E-03    -16.2965E-03     8.19299E-03     19.4930E+06     242.803E+03    -122.947E+06     242.097E+03    -122.947E+06     19.4930E+06    -187.236E+03         22.8898
             489     5.90477E-03     43.3132E-03         1.32354     666.887E-03        -3.08141         1.25578        -3.01365     666.887E-03         1.01654     32.6892E-03    -16.3160E-03    -16.3732E-03    -16.0869E-03     32.4030E-03    -16.3160E-03     7.46402E-03     14.9125E+06    -2.50212E+06    -137.196E+06    -2.50270E+06    -137.196E+06     14.9125E+06    -134.230E+03         22.7560
             490     4.92060E-03     43.3058E-03         1.26357     573.850E-03        -2.91035         1.02718        -2.67396     573.850E-03         1.83393     32.6991E-03    -16.3332E-03    -16.3659E-03    -16.1394E-03     32.4743E-03    -16.3349E-03     6.60813E-03     9.22784E+06    -5.49674E+06    -153.315E+06    -5.49754E+06    -153.314E+06     9.22784E+06    -263.507E+03         22.6520
             491     3.93634E-03     43.2998E-03         1.51951     491.922E-03        -3.07148     796.672E-03        -2.34864     491.922E-03         3.23389     32.7287E-03    -16.3499E-03    -16.3788E-03    -16.2165E-03     32.5687E-03    -16.3523E-03     5.56848E-03     3.51085E+06    -8.44157E+06    -170.154E+06    -8.44303E+06    -170.152E+06     3.51085E+06    -421.672E+03         22.5727
             492     2.95231E-03     43.2946E-03         1.17500     420.793E-03        -2.64985     627.469E-03        -2.10232     420.793E-03         1.93104     32.7310E-03    -16.3512E-03    -16.3798E-03    -16.2770E-03     32.6313E-03    -16.3543E-03     4.37464E-03    -2.78638E+06    -11.1120E+06    -183.213E+06    -11.1137E+06    -183.211E+06    -2.78638E+06    -510.160E+03         22.5146
             493     1.96813E-03     43.2908E-03     727.868E-03     376.591E-03        -2.12966     420.054E-03        -1.82184     376.591E-03         1.08688     32.6841E-03    -16.3323E-03    -16.3518E-03    -16.2901E-03     32.6337E-03    -16.3436E-03     3.07198E-03    -9.13468E+06    -13.7097E+06    -189.182E+06    -13.7105E+06    -189.181E+06    -9.13468E+06    -356.584E+03         22.4752
             494     984.053E-06     43.2884E-03         1.88101    -122.671E-03        -2.76750     855.610E-03        -1.74210    -122.671E-03        -1.39618     32.6612E-03    -16.2918E-03    -16.3694E-03    -16.3430E-03     32.6438E-03    -16.3007E-03     1.71010E-03    -13.7078E+06    -16.1325E+06    -190.442E+06    -15.4788E+06    -190.439E+06    -14.3639E+06    -64.9476E+03         22.4521
             495     16.7345E-03     42.4247E-03         1.03317     915.181E-03        -3.23216     909.894E-03        -3.22687         1.03317     72.8255E-03     31.2715E-03    -14.9920E-03    -16.2795E-03    -14.8147E-03     30.4095E-03    -15.5948E-03     6.27975E-03     198.165E+06     34.7124E+06    -36.4386E+06    -1.63851E+06     198.148E+06     -70.922E+03     199.085E+03         31.4669
             496     15.7491E-03     42.4064E-03         1.09559     974.820E-03        -3.31790     917.832E-03        -3.20619         1.04087        -1.08378     32.4650E-03    -15.3730E-03    -17.0921E-03    -15.2993E-03     30.6723E-03    -15.3730E-03     18.4846E-03     142.670E+06     579.862E+03    -60.8279E+06     625.643E+03     142.624E+06    -60.8279E+06    -522.562E+03         29.6461
             497     14.7646E-03     42.3872E-03         1.13152         1.04810        -3.40081     956.826E-03        -3.22612         1.04810        -1.72800     32.8892E-03    -15.5530E-03    -17.3362E-03    -15.6075E-03     31.1605E-03    -15.5530E-03     18.2605E-03     91.2776E+06     5.19612E+06    -41.1971E+06     5.23909E+06     91.2346E+06    -41.1971E+06    -991.066E+03         27.8987
             498     13.7799E-03     42.3691E-03         1.11299         1.05252        -3.36261         1.02286        -3.27247         1.05252        -1.22219     32.7646E-03    -15.7536E-03    -17.0110E-03    -15.6536E-03     31.4071E-03    -15.7536E-03     16.1999E-03     48.5294E+06     7.27860E+06    -15.5662E+06     7.40302E+06     48.4050E+06    -15.5662E+06     766.783E+03         26.4500
             499     12.7953E-03     42.3539E-03         1.16488         1.05233        -3.38817         1.09143        -3.31472         1.05233        -1.13177     32.6206E-03    -15.9053E-03    -16.7153E-03    -15.6990E-03     31.6043E-03    -15.9053E-03     13.9253E-03     19.0442E+06     4.31288E+06    -2.37219E+06     6.41588E+06     13.3321E+06     1.23688E+06     1.24618E+06         25.3516
             500     11.8109E-03     42.3406E-03         1.22343         1.04798        -3.41526         1.12172        -3.31355         1.04798        -1.35474     32.5419E-03    -15.9824E-03    -16.5595E-03    -15.7831E-03     31.7655E-03    -15.9824E-03     12.2489E-03     5.64148E+06     3.20861E+06    -22.1258E+06     5.60445E+06    -22.0887E+06     3.20861E+06     33.5040E+03         24.5564
             501     10.8263E-03     42.3287E-03         1.31547         1.04001        -3.47576         1.15327        -3.31356         1.04001        -1.70606     32.6371E-03    -16.0692E-03    -16.5679E-03    -15.8663E-03     31.9355E-03    -16.0692E-03     11.6538E-03     9.50945E+06     5.42413E+06    -50.3981E+06     5.83038E+06    -50.3938E+06     9.09889E+06    -205.530E+03         23.9902
             502     9.84213E-03     42.3169E-03         1.35025         1.02511        -3.47901         1.22751        -3.35626         1.02511        -1.37383     32.6338E-03    -16.1538E-03    -16.4799E-03    -15.9211E-03     32.0749E-03    -16.1538E-03     10.3917E-03     16.8915E+06     5.64492E+06    -69.9077E+06     5.64214E+06    -69.9050E+06     16.8915E+06    -265.353E+03         23.5846
             503     8.85753E-03     42.3075E-03         1.42284     998.431E-03        -3.51164         1.30632        -3.39512     998.431E-03     640.034E-03     32.6314E-03    -16.2146E-03    -16.4168E-03    -15.9517E-03     32.1663E-03    -16.2146E-03     9.50525E-03     20.2131E+06     4.50055E+06    -87.1989E+06     4.49818E+06    -87.1965E+06     20.2131E+06     -308.38E+03         23.2874
             504     7.87336E-03     42.2975E-03         1.92604     960.083E-03        -3.96006         1.31366        -3.34769     960.083E-03         3.39502     32.6793E-03    -16.2652E-03    -16.4141E-03    -16.0028E-03     32.2680E-03    -16.2652E-03     8.93825E-03     20.4337E+06     2.65855E+06    -106.577E+06     2.65735E+06    -106.575E+06     20.4337E+06    -84.4664E+03         23.0637
             505     6.88894E-03     42.2891E-03         1.76310     915.666E-03        -3.73127         1.24523        -3.21339     915.666E-03         2.63844     32.7026E-03    -16.3064E-03    -16.3962E-03    -16.0523E-03     32.3587E-03    -16.3064E-03     8.18230E-03     19.4923E+06     146.936E+03    -122.712E+06     146.355E+03    -122.711E+06     19.4923E+06    -14.0411E+03         22.8914
             506     5.90480E-03     42.2809E-03         1.20967     871.753E-03        -3.11107         1.13487        -3.03628     871.753E-03     994.260E-03     32.7043E-03    -16.3268E-03    -16.3775E-03    -16.0925E-03     32.4194E-03    -16.3268E-03     7.44606E-03     14.9069E+06    -2.71595E+06    -136.700E+06    -2.71652E+06    -136.700E+06     14.9069E+06    -64.9249E+03         22.7574
             507     4.92046E-03     42.2739E-03         1.25028     829.568E-03        -3.09369         1.04973        -2.89314     829.568E-03         1.78878     32.7070E-03    -16.3441E-03    -16.3629E-03    -16.1374E-03     32.4832E-03    -16.3457E-03     6.59721E-03     8.94746E+06    -5.55738E+06    -152.849E+06    -5.55841E+06    -152.848E+06     8.94746E+06    -237.026E+03         22.6533
             508     3.93630E-03     42.2674E-03         1.68808     786.585E-03        -3.47940     968.512E-03        -2.75983     786.585E-03         3.40176     32.7509E-03    -16.3611E-03    -16.3897E-03    -16.2247E-03     32.5902E-03    -16.3656E-03     5.57869E-03     3.22311E+06    -8.45517E+06    -169.832E+06    -8.45691E+06    -169.830E+06     3.22311E+06    -468.302E+03         22.5739
             509     2.95218E-03     42.2624E-03         1.54098     734.676E-03        -3.27500     919.306E-03        -2.65332     734.676E-03         1.86604     32.7607E-03    -16.3637E-03    -16.3970E-03    -16.2927E-03     32.6616E-03    -16.3688E-03     4.36309E-03    -3.05040E+06    -11.2090E+06    -182.995E+06    -11.2109E+06    -182.993E+06    -3.05040E+06    -543.106E+03         22.5157
             510     1.96811E-03     42.2586E-03         1.31975     687.390E-03        -2.98319     758.653E-03        -2.42210     687.390E-03         1.51768     32.7185E-03    -16.3505E-03    -16.3680E-03    -16.3113E-03     32.6685E-03    -16.3572E-03     3.06125E-03    -9.29333E+06    -13.6373E+06    -189.149E+06    -13.6382E+06    -189.148E+06    -9.29333E+06    -304.395E+03         22.4762
             511     984.069E-06     42.2561E-03         3.14706     137.046E-03        -4.24231         1.20408        -2.29934     137.046E-03        -2.45708     32.6902E-03    -16.3014E-03    -16.3888E-03    -16.3662E-03     32.6720E-03    -16.3057E-03     1.78271E-03    -13.6296E+06    -15.4964E+06    -190.200E+06    -15.5006E+06    -190.196E+06    -13.6296E+06    -156.687E+03         22.4530
             512     16.7338E-03     41.3923E-03         1.05014     892.112E-03        -3.10299     885.809E-03        -3.09668         1.05014     80.7734E-03     31.2686E-03    -14.9776E-03    -16.2910E-03    -14.7418E-03     30.3376E-03    -15.5958E-03     6.12782E-03     198.258E+06     33.4551E+06    -36.0879E+06    -1.80893E+06     198.243E+06    -809.366E+03     121.803E+03         31.4553
             513     15.7489E-03     41.3751E-03         1.11635     992.002E-03        -3.25313     935.783E-03        -3.13961         1.05905        -1.09316     32.4868E-03    -15.3844E-03    -17.1024E-03    -15.2663E-03     30.6506E-03    -15.3844E-03     18.7175E-03     144.791E+06    -910.640E+03    -60.0382E+06    -864.039E+03     144.745E+06    -60.0382E+06    -362.136E+03         29.6436
             514     14.7642E-03     41.3539E-03         1.16711         1.06582        -3.36106     988.102E-03        -3.18205         1.06582        -1.74927     32.9085E-03    -15.5664E-03    -17.3421E-03    -15.6291E-03     31.1955E-03    -15.5664E-03     18.1789E-03     90.7113E+06     1.17730E+06    -41.5099E+06     1.21887E+06     90.6697E+06    -41.5099E+06    -818.938E+03         27.9033
             515     13.7799E-03     41.3379E-03         1.14170         1.06946        -3.32170         1.04791        -3.22791         1.06946        -1.24721     32.7926E-03    -15.7637E-03    -17.0289E-03    -15.6769E-03     31.4406E-03    -15.7637E-03     16.1816E-03     46.2526E+06     3.36721E+06    -16.5394E+06     3.48298E+06     46.1369E+06    -16.5394E+06     724.488E+03         26.4572
             516     12.7953E-03     41.3208E-03         1.15994         1.07008        -3.31940         1.08067        -3.24013         1.07008        -1.16477     32.5976E-03    -15.9145E-03    -16.6830E-03    -15.6633E-03     31.5778E-03    -15.9145E-03     13.9320E-03     20.2367E+06     4.40241E+06    -905.416E+03     6.36190E+06     15.0518E+06     2.31994E+06     1.24540E+06         25.3587
             517     11.8108E-03     41.3092E-03         1.19469         1.06935        -3.33018         1.08368        -3.21917         1.06935        -1.39940     32.5548E-03    -15.9937E-03    -16.5611E-03    -15.7831E-03     31.7768E-03    -15.9937E-03     12.2642E-03     7.81930E+06     4.78096E+06    -20.9391E+06     7.78311E+06    -20.9029E+06     4.78096E+06     219.191E+03         24.5622
             518     10.8264E-03     41.2959E-03         1.25180         1.06902        -3.36596         1.07046        -3.18462         1.06902        -1.76530     32.6735E-03    -16.0784E-03    -16.5951E-03    -15.8947E-03     31.9730E-03    -16.0784E-03     11.6468E-03     10.9165E+06     6.24117E+06    -50.3499E+06     7.39098E+06    -50.3441E+06     9.76101E+06    -66.7919E+03         23.9946
             519     9.84184E-03     41.2852E-03         1.22783         1.02309        -3.28202         1.03956        -3.14160         1.07094        -1.42981     32.6417E-03    -16.1615E-03    -16.4801E-03    -15.9287E-03     32.0903E-03    -16.1615E-03     10.3284E-03     17.2380E+06     6.08153E+06    -69.2274E+06     6.07788E+06    -69.2237E+06     17.2380E+06    -207.259E+03         23.5879
             520     8.85761E-03     41.2748E-03         1.20135         1.00105        -3.22132         1.00141        -3.09769         1.07736     568.441E-03     32.6487E-03    -16.2219E-03    -16.4268E-03    -15.9671E-03     32.1891E-03    -16.2219E-03     9.45155E-03     20.2667E+06     4.43160E+06    -87.1222E+06     4.42925E+06    -87.1198E+06     20.2667E+06    -328.063E+03         23.2899
             521     7.87324E-03     41.2657E-03         1.66740         1.06071        -3.73276     983.500E-03        -3.07731         1.08916         3.32694     32.6849E-03    -16.2704E-03    -16.4145E-03    -16.0066E-03     32.2770E-03    -16.2704E-03     8.90699E-03     20.1582E+06     2.42805E+06    -106.396E+06     2.42695E+06    -106.395E+06     20.1582E+06    -96.2787E+03         23.0656
             522     6.88898E-03     41.2566E-03         1.62615         1.04910        -3.66101         1.01923        -3.10814         1.10315         2.55113     32.7001E-03    -16.3122E-03    -16.3879E-03    -16.0435E-03     32.3557E-03    -16.3122E-03     8.18546E-03     19.1420E+06     108.493E+03    -122.471E+06     108.010E+03    -122.470E+06     19.1420E+06    -43.2438E+03         22.8930
             523     5.90464E-03     41.2488E-03         1.21200         1.05968        -3.23746         1.07908        -3.15859         1.11373     990.290E-03     32.7151E-03    -16.3369E-03    -16.3782E-03    -16.0956E-03     32.4324E-03    -16.3369E-03     7.41893E-03     15.1456E+06    -2.47333E+06    -136.342E+06    -2.47370E+06    -136.342E+06     15.1456E+06    -77.8416E+03         22.7587
             524     4.92048E-03     41.2415E-03         1.31626         1.11504        -3.38493         1.14943        -3.21810         1.11504         1.73238     32.7439E-03    -16.3532E-03    -16.3908E-03    -16.1672E-03     32.5204E-03    -16.3532E-03     6.59779E-03     9.11088E+06    -5.34519E+06    -152.082E+06    -5.34610E+06    -152.081E+06     9.11088E+06    -172.838E+03         22.6545
             525     3.93630E-03     41.2353E-03         1.86149         1.10654        -3.91402         1.16190        -3.21443         1.10654         3.50405     32.7590E-03    -16.3683E-03    -16.3907E-03    -16.2289E-03     32.5999E-03    -16.3711E-03     5.54999E-03     3.27009E+06    -8.23091E+06    -169.455E+06    -8.23261E+06    -169.453E+06     3.27009E+06    -422.246E+03         22.5750
             526     2.95214E-03     41.2300E-03         1.83970         1.09177        -3.87532         1.14925        -3.18488         1.09177         1.72935     32.7594E-03    -16.3690E-03    -16.3904E-03    -16.2820E-03     32.6619E-03    -16.3799E-03     4.32791E-03    -2.75471E+06    -11.1511E+06    -182.843E+06    -11.1528E+06    -182.841E+06    -2.75471E+06    -461.253E+03         22.5166
             527     1.96813E-03     41.2263E-03         1.82783         1.08465        -3.83663         1.08089        -3.08969         1.08465         1.79296     32.7494E-03    -16.3553E-03    -16.3941E-03    -16.3320E-03     32.6998E-03    -16.3678E-03     3.04876E-03    -9.21780E+06    -13.5657E+06    -188.946E+06    -13.5675E+06    -188.944E+06    -9.21780E+06    -374.221E+03         22.4769
             528     983.995E-06     41.2239E-03         4.25768     514.460E-03        -5.68279         1.65924        -3.08435     514.460E-03        -3.37294     32.7041E-03    -16.2920E-03    -16.4121E-03    -16.3898E-03     32.6861E-03    -16.2964E-03     1.77507E-03    -13.8795E+06    -15.8333E+06    -190.226E+06    -15.2397E+06    -190.219E+06    -14.4801E+06    -178.523E+03         22.4536
             529     16.7341E-03     40.3617E-03         1.06298     858.002E-03        -2.96223     853.255E-03        -2.95748         1.06298     96.7299E-03     31.3250E-03    -14.8741E-03    -16.4509E-03    -14.7825E-03     30.3943E-03    -15.6119E-03     6.31280E-03     199.042E+06     34.1734E+06    -35.7943E+06    -1.99770E+06     199.031E+06     388.128E+03    -309.060E+03         31.4430
             530     15.7490E-03     40.3417E-03         1.13658     998.746E-03        -3.17271     955.861E-03        -3.06619         1.07294        -1.02813     32.6218E-03    -15.3935E-03    -17.2283E-03    -15.3571E-03     30.7507E-03    -15.3935E-03     18.9285E-03     145.840E+06     512.609E+03    -58.9857E+06     534.871E+03     145.818E+06    -58.9857E+06     954.349E+03         29.6405
             531     14.7644E-03     40.3227E-03         1.18369         1.07894        -3.29141         1.01420        -3.12193         1.07894        -1.69482     32.8811E-03    -15.5709E-03    -17.3102E-03    -15.5794E-03     31.1503E-03    -15.5709E-03     18.2346E-03     90.7178E+06     2.37677E+06    -41.6834E+06     2.40209E+06     90.6925E+06    -41.6834E+06     854.152E+03         27.9071
             532     13.7797E-03     40.3044E-03         1.13025         1.07106        -3.21859         1.02997        -3.13042         1.08317        -1.19325     32.7922E-03    -15.7604E-03    -17.0318E-03    -15.6813E-03     31.4417E-03    -15.7604E-03     16.1765E-03     45.6491E+06     4.38871E+06    -18.9469E+06     4.61271E+06     45.4251E+06    -18.9469E+06    -1.02992E+06         26.4637
             533     12.7952E-03     40.2897E-03         1.11234         1.07249        -3.18540         1.01907        -3.10757         1.08793        -1.12325     32.6592E-03    -15.9128E-03    -16.7464E-03    -15.7138E-03     31.6266E-03    -15.9128E-03     14.0272E-03     20.0293E+06     5.52981E+06    -2.52422E+06     7.48011E+06     15.0134E+06     541.380E+03    -679.765E+03         25.3653
             534     11.8105E-03     40.2761E-03         1.13687         1.08150        -3.19956         1.01032        -3.08586         1.09434        -1.38171     32.6127E-03    -15.9992E-03    -16.6135E-03    -15.8459E-03     31.8451E-03    -15.9992E-03     12.1963E-03     8.67330E+06     5.22416E+06    -20.0774E+06     8.64782E+06    -20.0519E+06     5.22416E+06     544.765E+03         24.5677
             535     10.8263E-03     40.2643E-03         1.17192         1.09170        -3.22835     962.692E-03        -3.03210         1.10467        -1.77512     32.6774E-03    -16.0795E-03    -16.5979E-03    -15.9085E-03     31.9880E-03    -16.0795E-03     11.5607E-03     11.4054E+06     6.47533E+06    -49.9894E+06     8.16135E+06    -49.9828E+06     9.71277E+06     581.350E+03         23.9989
             536     9.84193E-03     40.2524E-03         1.16906     955.479E-03        -3.07628     841.163E-03        -2.91880         1.12590        -1.45837     32.6429E-03    -16.1655E-03    -16.4774E-03    -15.9288E-03     32.0943E-03    -16.1655E-03     10.2999E-03     17.8664E+06     6.97255E+06    -68.5507E+06     6.95929E+06    -68.5375E+06     17.8664E+06     564.756E+03         23.5909
             537     8.85757E-03     40.2430E-03         1.16563     856.039E-03        -2.96422     720.023E-03        -2.82821         1.16563     526.236E-03     32.6421E-03    -16.2267E-03    -16.4154E-03    -15.9582E-03     32.1849E-03    -16.2267E-03     9.42556E-03     20.6213E+06     4.70982E+06    -86.6444E+06     4.69878E+06    -86.6333E+06     20.6213E+06     242.276E+03         23.2921
             538     7.87319E-03     40.2332E-03         1.55346         1.08111        -3.56442     706.225E-03        -2.85982         1.22375         3.30829     32.6895E-03    -16.2739E-03    -16.4156E-03    -16.0078E-03     32.2817E-03    -16.2739E-03     8.90452E-03     19.9418E+06     2.42281E+06    -106.160E+06     2.42224E+06    -106.160E+06     19.9418E+06    -157.682E+03         23.0673
             539     6.88892E-03     40.2246E-03         1.62007         1.09169        -3.62547     828.772E-03        -3.03284         1.29036         2.52280     32.6996E-03    -16.3149E-03    -16.3847E-03    -16.0416E-03     32.3565E-03    -16.3149E-03     8.17067E-03     18.6621E+06     82.6064E+03    -122.130E+06     81.9892E+03    -122.130E+06     18.6621E+06    -211.270E+03         22.8943
             540     5.90464E-03     40.2164E-03         1.36334         1.07846        -3.33991         1.00878        -3.26051         1.35362     978.649E-03     32.7254E-03    -16.3411E-03    -16.3843E-03    -16.0997E-03     32.4408E-03    -16.3411E-03     7.44574E-03     14.7760E+06    -2.60142E+06    -136.054E+06    -2.60208E+06    -136.054E+06     14.7760E+06    -235.263E+03         22.7598
             541     4.92041E-03     40.2093E-03         1.45711         1.26044        -3.60640         1.17685        -3.47289         1.40719         1.57838     32.7697E-03    -16.3591E-03    -16.4106E-03    -16.1869E-03     32.5460E-03    -16.3591E-03     6.59873E-03     9.37838E+06    -5.38999E+06    -151.682E+06    -5.39042E+06    -151.681E+06     9.37838E+06    -180.122E+03         22.6554
             542     3.93630E-03     40.2029E-03         1.98706         1.38284        -4.25436         1.28571        -3.62327         1.45309         3.38584     32.7666E-03    -16.3699E-03    -16.3968E-03    -16.2346E-03     32.6084E-03    -16.3738E-03     5.54041E-03     3.37113E+06    -8.38715E+06    -168.858E+06    -8.38808E+06    -168.857E+06     3.37113E+06    -171.723E+03         22.5758
             543     2.95222E-03     40.1979E-03         2.07324         1.49770        -4.45404         1.36728        -3.74808         1.49770         1.44780     32.7590E-03    -16.3688E-03    -16.3902E-03    -16.2790E-03     32.6599E-03    -16.3809E-03     4.36479E-03    -3.10107E+06     -11.221E+06    -182.496E+06    -11.2233E+06    -182.494E+06    -3.10107E+06    -404.289E+03         22.5173
             544     1.96799E-03     40.1939E-03         2.27407         1.54682        -4.68955         1.44417        -3.85965         1.54682         1.86420     32.7621E-03    -16.3623E-03    -16.3998E-03    -16.3417E-03     32.7122E-03    -16.3705E-03     3.05257E-03    -9.02960E+06    -13.7304E+06    -188.650E+06    -13.7333E+06    -188.647E+06    -9.02960E+06    -396.161E+03         22.4775
             545     984.152E-06     40.1916E-03         5.09561     942.098E-03        -6.89524         2.20561        -4.00524     942.098E-03        -4.01369     32.7008E-03    -16.2990E-03    -16.4017E-03    -16.3848E-03     32.6838E-03    -16.2990E-03     1.70407E-03    -13.4549E+06    -16.5540E+06    -190.162E+06    -15.9580E+06    -190.157E+06    -14.0555E+06     248.420E+03         22.4541
             546     16.7329E-03     39.3270E-03         1.06621     823.304E-03        -2.82022     818.755E-03        -2.81567         1.06621     115.968E-03     31.2246E-03    -14.7344E-03    -16.4902E-03    -14.7803E-03     30.3983E-03    -15.6180E-03     6.59570E-03     199.352E+06     32.9965E+06    -35.4762E+06    -2.45514E+06     199.302E+06      26.124E+03    -523.704E+03         31.4299
             547     15.7489E-03     39.3114E-03         1.13228     992.224E-03        -3.05349     948.794E-03        -2.95529         1.07751    -955.010E-03     32.6989E-03    -15.3931E-03    -17.3058E-03    -15.5037E-03     30.8967E-03    -15.3931E-03     18.5910E-03     144.282E+06    -195.916E+03    -60.3786E+06    -148.077E+03     144.235E+06    -60.3786E+06    -42.8477E+03         29.6365
             548     14.7639E-03     39.2888E-03         1.15637         1.07518        -3.15761     989.253E-03        -3.00004         1.08473        -1.60518     32.7983E-03    -15.5725E-03    -17.2258E-03    -15.5231E-03     31.0956E-03    -15.5725E-03     18.0474E-03     91.9561E+06     4.95381E+06    -40.4924E+06     4.97033E+06     91.9396E+06    -40.4924E+06     994.318E+03         27.9101
             549     13.7797E-03     39.2737E-03         1.10913         1.03640        -3.06353     972.275E-03        -2.98254         1.09227        -1.10858     32.7297E-03    -15.7660E-03    -16.9638E-03    -15.6446E-03     31.4106E-03    -15.7660E-03     15.9727E-03     47.8628E+06     6.52924E+06    -17.5751E+06     6.75495E+06     47.6371E+06    -17.5751E+06    -562.710E+03         26.4696
             550     12.7948E-03     39.2562E-03         1.10284         1.01543        -3.02365     943.124E-03        -2.95134         1.10284        -1.04490     32.7179E-03    -15.9113E-03    -16.8066E-03    -15.7963E-03     31.7076E-03    -15.9113E-03     13.8760E-03     18.3083E+06     4.58205E+06    -4.66213E+06     6.16066E+06     13.3560E+06    -1.28837E+06    -812.456E+03         25.3714
             551     11.8110E-03     39.2447E-03         1.11911     993.186E-03        -3.00272     881.562E-03        -2.89110         1.11911        -1.31494     32.6003E-03    -15.9939E-03    -16.6064E-03    -15.8584E-03     31.8522E-03    -15.9939E-03     12.0405E-03     6.14451E+06     3.54394E+06    -20.2980E+06     6.08219E+06    -20.2356E+06     3.54394E+06     494.060E+03         24.5730
             552     10.8262E-03     39.2315E-03         1.14649     977.181E-03        -3.00088     770.649E-03        -2.79435         1.14649        -1.72271     32.6516E-03    -16.0746E-03    -16.5769E-03    -15.8914E-03     31.9660E-03    -16.0746E-03     11.5221E-03     10.0235E+06     5.49782E+06    -49.2405E+06     6.67901E+06    -49.2253E+06     8.82707E+06     694.760E+03         24.0028
             553     9.84194E-03     39.2207E-03         1.19175     809.267E-03        -2.86921     640.405E-03        -2.70034         1.19175        -1.43097     32.6182E-03    -16.1632E-03    -16.4549E-03    -15.9100E-03     32.0732E-03    -16.1632E-03     10.2630E-03     17.2866E+06     6.45534E+06    -68.6557E+06     6.44401E+06    -68.6444E+06     17.2866E+06     727.780E+03         23.5938
             554     8.85743E-03     39.2104E-03         1.25932     694.529E-03        -2.81387     553.683E-03        -2.67302         1.25932     514.710E-03     32.6304E-03    -16.2292E-03    -16.4011E-03    -15.9485E-03     32.1777E-03    -16.2292E-03     9.37577E-03     21.2776E+06     5.27178E+06    -85.7435E+06     5.25807E+06    -85.7298E+06     21.2776E+06     783.381E+03         23.2941
             555     7.87323E-03     39.2012E-03         1.55371         1.08153        -3.48438     567.401E-03        -2.76483         1.34830         3.26813     32.6755E-03    -16.2779E-03    -16.3976E-03    -15.9938E-03     32.2717E-03    -16.2779E-03     8.85996E-03     20.4861E+06     2.88078E+06    -105.349E+06     2.87698E+06    -105.346E+06     20.4861E+06     234.518E+03         23.0687
             556     6.88886E-03     39.1922E-03         1.65842         1.08318        -3.57763     686.171E-03        -2.97521         1.45301         2.44684     32.7020E-03    -16.3171E-03    -16.3849E-03    -16.0409E-03     32.3580E-03    -16.3171E-03     8.18047E-03     18.3189E+06     37.0132E+03    -121.768E+06     35.8774E+03    -121.767E+06     18.3189E+06    -234.721E+03         22.8954
             557     5.90460E-03     39.1844E-03         1.56814     933.868E-03        -3.32625     860.025E-03        -3.25240         1.56814     890.906E-03     32.7479E-03    -16.3426E-03    -16.4053E-03    -16.1188E-03     32.4613E-03    -16.3426E-03     7.47657E-03     14.4177E+06    -2.73462E+06    -135.831E+06    -2.73575E+06    -135.830E+06     14.4177E+06    -256.263E+03         22.7607
             558     4.92043E-03     39.1768E-03         1.69027         1.17979        -3.68894         1.07522        -3.58437         1.69027         1.37184     32.7606E-03    -16.3554E-03    -16.4052E-03    -16.1766E-03     32.5375E-03    -16.3609E-03     6.58525E-03     9.07992E+06    -5.69994E+06    -151.420E+06    -5.70037E+06    -151.420E+06     9.07992E+06    -150.571E+03         22.6561
             559     3.93628E-03     39.1708E-03         2.13210         1.56634        -4.51727         1.34235        -3.97356         1.81238         3.17658     32.7681E-03    -16.3690E-03    -16.3992E-03    -16.2323E-03     32.6106E-03    -16.3784E-03     5.53323E-03     3.31863E+06    -8.60554E+06    -168.400E+06    -8.60624E+06    -168.400E+06     3.31863E+06    -225.607E+03         22.5763
             560     2.95206E-03     39.1655E-03         2.30441         1.91904        -5.03936         1.64283        -4.37777         1.91904         1.20490     32.7833E-03    -16.3793E-03    -16.4040E-03    -16.3002E-03     32.6834E-03    -16.3832E-03     4.37920E-03    -3.09182E+06    -11.4625E+06    -182.042E+06    -11.4645E+06    -182.040E+06    -3.09182E+06    -282.650E+03         22.5178
             561     1.96821E-03     39.1618E-03         2.68493         1.99911        -5.48995         1.86944        -4.67447         1.99911         1.85883     32.7432E-03    -16.3550E-03    -16.3882E-03    -16.3187E-03     32.6928E-03    -16.3741E-03     3.07830E-03    -9.57398E+06    -14.2650E+06    -188.549E+06    -14.2668E+06    -188.548E+06    -9.57398E+06    -57.1249E+03         22.4779
             562     983.963E-06     39.1592E-03         5.63189         1.34825        -7.77594         2.71715        -4.86120         1.34825        -4.35814     32.7217E-03    -16.3272E-03    -16.3944E-03    -16.3572E-03     32.7036E-03    -16.3463E-03     1.75202E-03    -13.7505E+06    -17.0609E+06    -189.443E+06    -16.0556E+06    -189.440E+06    -14.7586E+06    -176.757E+03         22.4545
             563     16.7341E-03     38.2965E-03         1.05722     764.337E-03        -2.64159     758.784E-03        -2.63603         1.05722     137.064E-03     31.3195E-03    -14.9244E-03    -16.3951E-03    -14.8550E-03     30.4591E-03    -15.6041E-03     6.42957E-03     200.121E+06     34.0211E+06    -35.0470E+06    -1.83117E+06     200.051E+06     875.174E+03     568.650E+03         31.4166
             564     15.7489E-03     38.2770E-03         1.09012     952.105E-03        -2.86320     873.206E-03        -2.76627         1.07209    -913.631E-03     32.4793E-03    -15.3783E-03    -17.1010E-03    -15.3928E-03     30.7711E-03    -15.3783E-03     18.0622E-03     143.418E+06    -1.81548E+06    -60.8342E+06    -1.69285E+06     143.295E+06    -60.8342E+06    -1.32594E+06         29.6322
             565     14.7649E-03     38.2585E-03         1.10195         1.04642        -2.96800     911.688E-03        -2.81525         1.08392        -1.52507     32.6772E-03    -15.5641E-03    -17.1131E-03    -15.4757E-03     31.0398E-03    -15.5641E-03     17.7230E-03     91.6564E+06     2.53800E+06    -40.4425E+06     2.60579E+06     91.5886E+06    -40.4425E+06    -980.457E+03         27.9128
             566     13.7793E-03     38.2401E-03         1.09684     970.044E-03        -2.88154     895.498E-03        -2.80699         1.09684        -1.02525     32.7022E-03    -15.7692E-03    -16.9330E-03    -15.6148E-03     31.3839E-03    -15.7692E-03     15.9252E-03     49.1132E+06     5.61102E+06    -14.6031E+06     5.69454E+06     49.0297E+06    -14.6031E+06     1.13878E+06         26.4753
             567     12.7957E-03     38.2248E-03         1.11494     901.596E-03        -2.82165     833.868E-03        -2.75392         1.11494    -963.657E-03     32.6117E-03    -15.9129E-03    -16.6988E-03    -15.7328E-03     31.6457E-03    -15.9129E-03     13.5855E-03     18.4514E+06     3.82456E+06    -2.74230E+06     5.27766E+06     13.5379E+06     718.121E+03     898.155E+03         25.3773
             568     11.8104E-03     38.2118E-03         1.14383     823.495E-03        -2.76181     715.356E-03        -2.65368         1.14383        -1.22235     32.5283E-03    -15.9890E-03    -16.5394E-03    -15.7913E-03     31.7802E-03    -15.9890E-03     12.0204E-03     5.18828E+06     3.01550E+06    -20.6077E+06     4.81369E+06    -20.5326E+06     3.31496E+06    -60.2544E+03         24.5779
             569     10.8265E-03     38.1998E-03         1.19023     776.557E-03        -2.75194     570.907E-03        -2.54629         1.19023        -1.61005     32.6434E-03    -16.0712E-03    -16.5722E-03    -15.8969E-03     31.9681E-03    -16.0712E-03     11.4355E-03     9.23255E+06     5.00543E+06    -48.9672E+06     5.43059E+06    -48.9433E+06     8.78350E+06     54.0157E+03         24.0065
             570     9.84185E-03     38.1881E-03         1.25840     637.155E-03        -2.67491     469.529E-03        -2.50729         1.25840        -1.33536     32.5870E-03    -16.1561E-03    -16.4309E-03    -15.8901E-03     32.0462E-03    -16.1561E-03     10.2186E-03     16.6400E+06     5.63793E+06    -68.5742E+06     5.63612E+06    -68.5724E+06     16.6400E+06     102.358E+03         23.5963
             571     8.85768E-03     38.1785E-03         1.34862     586.803E-03        -2.70778     447.872E-03        -2.56885         1.34862     533.534E-03     32.5948E-03    -16.2253E-03    -16.3695E-03    -15.9182E-03     32.1435E-03    -16.2253E-03     9.35562E-03     21.0662E+06     5.01625E+06    -85.5077E+06     5.01097E+06    -85.5025E+06     21.0662E+06     399.359E+03         23.2959
             572     7.87313E-03     38.1688E-03         1.54606         1.10714        -3.41663     494.821E-03        -2.71811         1.45985         3.17232     32.6513E-03    -16.2798E-03    -16.3715E-03    -15.9699E-03     32.2497E-03    -16.2798E-03     8.83061E-03     21.2410E+06     3.40778E+06    -104.475E+06     3.40301E+06    -104.470E+06     21.2410E+06     605.839E+03         23.0700
             573     6.88885E-03     38.1602E-03         1.67900         1.08484        -3.51645     590.268E-03        -2.93567         1.59279         2.29182     32.7080E-03    -16.3194E-03    -16.3886E-03    -16.0442E-03     32.3636E-03    -16.3194E-03     8.18826E-03     18.8597E+06     595.438E+03    -121.011E+06     593.305E+03    -121.009E+06     18.8597E+06     192.884E+03         22.8964
             574     5.90462E-03     38.1519E-03         1.74965     803.539E-03        -3.29827     740.609E-03        -3.23534         1.74965     741.166E-03     32.7474E-03    -16.3434E-03    -16.4040E-03    -16.1161E-03     32.4595E-03    -16.3434E-03     7.49253E-03     14.3535E+06    -2.53516E+06    -135.570E+06    -2.53736E+06    -135.567E+06     14.3535E+06    -139.788E+03         22.7614
             575     4.92044E-03     38.1448E-03         1.92653         1.09726        -3.76760         1.01132        -3.68166         1.92653         1.22839     32.7563E-03    -16.3582E-03    -16.3982E-03    -16.1694E-03     32.5331E-03    -16.3637E-03     6.58860E-03     9.17688E+06    -5.28387E+06    -150.984E+06    -5.28503E+06    -150.983E+06     9.17688E+06    -185.725E+03         22.6566
             576     3.93618E-03     38.1384E-03         2.30586         1.71305        -4.76337         1.42573        -4.27436         2.10416         3.07772     32.7799E-03    -16.3758E-03    -16.4042E-03    -16.2389E-03     32.6214E-03    -16.3826E-03     5.55088E-03     3.45566E+06    -8.33194E+06    -167.948E+06    -8.33264E+06    -167.947E+06     3.45566E+06    -246.795E+03         22.5767
             577     2.95226E-03     38.1333E-03         2.48496         2.24260        -5.46936         1.86848        -4.86481         2.25453         1.14369     32.7823E-03    -16.3795E-03    -16.4028E-03    -16.2904E-03     32.6816E-03    -16.3912E-03     4.40021E-03    -2.85834E+06    -11.4345E+06    -181.869E+06    -11.4351E+06    -181.868E+06    -2.85834E+06    -166.272E+03         22.5180
             578     1.96796E-03     38.1294E-03         2.96689         2.34508        -6.04406         2.20865        -5.29776         2.35701         1.86363     32.7512E-03    -16.3600E-03    -16.3912E-03    -16.3106E-03     32.7001E-03    -16.3896E-03     3.09306E-03    -9.56001E+06    -13.8120E+06    -188.263E+06    -13.8124E+06    -188.262E+06    -9.56001E+06    -26.3578E+03         22.4781
             579     983.989E-06     38.1270E-03         5.89465         1.66369        -8.28399         3.12616        -5.51550         1.66369        -4.41492     32.7698E-03    -16.3431E-03    -16.4267E-03    -16.3887E-03     32.7510E-03    -16.3623E-03     1.82191E-03    -13.6720E+06    -16.2394E+06    -188.646E+06    -15.2372E+06    -188.640E+06    -14.6800E+06    -3.46265E+03         22.4548
             580     16.7346E-03     37.2646E-03         1.03689     643.613E-03        -2.38846     638.413E-03        -2.38326         1.03689     122.884E-03     31.5332E-03    -15.1654E-03    -16.3677E-03    -14.9784E-03     30.5597E-03    -15.5813E-03     6.54190E-03     200.446E+06     35.8713E+06    -35.9309E+06    -1.16662E+06     200.417E+06     1.13635E+06     846.826E+03         31.4025
             581     15.7498E-03     37.2449E-03         1.05827     845.517E-03        -2.61448     742.420E-03        -2.51138         1.05827    -896.438E-03     32.3396E-03    -15.3582E-03    -16.9814E-03    -15.2000E-03     30.5582E-03    -15.3582E-03     18.4024E-03     145.846E+06     844.807E+03    -59.2170E+06     948.377E+03     145.743E+06    -59.2170E+06     486.168E+03         29.6271
             582     14.7642E-03     37.2263E-03         1.07736     951.424E-03        -2.73988     793.507E-03        -2.58196         1.07736        -1.47661     32.6892E-03    -15.5443E-03    -17.1449E-03    -15.5004E-03     31.0447E-03    -15.5443E-03     17.7850E-03     90.9676E+06     2.17651E+06    -41.3969E+06     2.28151E+06     90.8626E+06    -41.3969E+06    -1.16644E+06         27.9149
             583     13.7805E-03     37.2080E-03         1.09823     848.739E-03        -2.65523     776.260E-03        -2.58275         1.09823    -963.101E-03     32.6852E-03    -15.7473E-03    -16.9380E-03    -15.5806E-03     31.3279E-03    -15.7473E-03     16.1518E-03     46.9868E+06     4.22281E+06    -16.5491E+06     4.34758E+06     46.8621E+06    -16.5491E+06     696.778E+03         26.4806
             584     12.7951E-03     37.1925E-03         1.12687     748.852E-03        -2.57770     683.625E-03        -2.51248         1.12687    -891.866E-03     32.5086E-03    -15.9026E-03    -16.6060E-03    -15.6301E-03     31.5326E-03    -15.9026E-03     13.6123E-03     20.1025E+06     4.75155E+06    -290.673E+03     6.49925E+06     15.8378E+06     2.22626E+06     1.32457E+06         25.3828
             585     11.8112E-03     37.1799E-03         1.16956     664.008E-03        -2.52841     560.108E-03        -2.42451         1.16956        -1.13118     32.5167E-03    -15.9820E-03    -16.5347E-03    -15.7832E-03     31.7653E-03    -15.9820E-03     12.0440E-03     7.46679E+06     4.25994E+06    -19.9646E+06     7.12982E+06    -19.9271E+06     4.55941E+06    -76.7645E+03         24.5825
             586     10.8263E-03     37.1673E-03         1.23099     642.104E-03        -2.56336     446.595E-03        -2.36785         1.23099        -1.49756     32.6033E-03    -16.0664E-03    -16.5369E-03    -15.8635E-03     31.9299E-03    -16.0664E-03     11.4062E-03     10.8134E+06     5.77433E+06    -49.2765E+06     6.99145E+06    -49.2625E+06     9.58226E+06    -320.581E+03         24.0099
             587     9.84221E-03     37.1562E-03         1.31481     518.797E-03        -2.51908     361.275E-03        -2.36156         1.31481        -1.23158     32.5677E-03    -16.1517E-03    -16.4159E-03    -15.8723E-03     32.0240E-03    -16.1517E-03     10.2488E-03     17.0949E+06     6.21837E+06    -67.9561E+06     6.21681E+06    -67.9546E+06     17.0949E+06    -86.1443E+03         23.5987
             588     8.85745E-03     37.1461E-03         1.42343     478.165E-03        -2.58239     337.023E-03        -2.44125         1.42343     560.188E-03     32.5708E-03    -16.2203E-03    -16.3505E-03    -15.8922E-03     32.1125E-03    -16.2203E-03     9.41949E-03     20.4697E+06     4.72813E+06    -85.8953E+06     4.72629E+06    -85.8934E+06     20.4697E+06    -102.891E+03         23.2976
             589     7.87326E-03     37.1368E-03         1.56528         1.08167        -3.31996     409.230E-03        -2.63842         1.55618         3.07819     32.6504E-03    -16.2764E-03    -16.3740E-03    -15.9708E-03     32.2471E-03    -16.2764E-03     8.84963E-03     20.9034E+06     2.98059E+06    -104.233E+06     2.97820E+06    -104.230E+06     20.9034E+06     253.268E+03         23.0712
             590     6.88888E-03     37.1279E-03         1.72038         1.10480        -3.49049     555.199E-03        -2.93178         1.71129         2.15515     32.6988E-03    -16.3198E-03    -16.3790E-03    -16.0321E-03     32.3519E-03    -16.3198E-03     8.21518E-03     19.5724E+06     946.643E+03    -120.117E+06     944.630E+03    -120.115E+06     19.5724E+06     472.360E+03         22.8973
             591     5.90461E-03     37.1198E-03         1.88629     834.297E-03        -3.38240     787.720E-03        -3.33582         1.88629     600.083E-03     32.7252E-03    -16.3446E-03    -16.3806E-03    -16.0918E-03     32.4364E-03    -16.3446E-03     7.49976E-03     14.6950E+06    -1.85338E+06    -134.829E+06    -1.85544E+06    -134.827E+06     14.6950E+06     151.668E+03         22.7622
             592     4.92033E-03     37.1124E-03         2.07355         1.19117        -3.92635         1.12401        -3.85919         2.07355         1.12978     32.7548E-03    -16.3630E-03    -16.3918E-03    -16.1627E-03     32.5299E-03    -16.3673E-03     6.61276E-03     9.05751E+06    -5.05367E+06    -150.603E+06    -5.05549E+06    -150.602E+06     9.05751E+06    -150.674E+03         22.6573
             593     3.93631E-03     37.1061E-03         2.39258         1.85047        -4.90536         1.54577        -4.46620         2.25811         2.96743     32.7771E-03    -16.3755E-03    -16.4016E-03    -16.2250E-03     32.6160E-03    -16.3910E-03     5.59604E-03     3.42480E+06    -7.98431E+06    -167.643E+06    -7.98490E+06    -167.642E+06     3.42480E+06    -132.074E+03         22.5773
             594     2.95198E-03     37.1010E-03         2.56049         2.36033        -5.57689         1.95531        -5.03740         2.42602         1.12648     32.7991E-03    -16.3836E-03    -16.4155E-03    -16.2908E-03     32.6961E-03    -16.4053E-03     4.44897E-03    -2.88174E+06    -10.7854E+06    -181.506E+06    -10.7860E+06    -181.506E+06    -2.88174E+06    -211.966E+03         22.5185
             595     1.96808E-03     37.0971E-03         3.04579         2.49201        -6.18718         2.34619        -5.55327         2.55770         1.73973     32.8190E-03    -16.3873E-03    -16.4318E-03    -16.3701E-03     32.7678E-03    -16.3977E-03     3.09197E-03    -8.74422E+06    -13.3331E+06    -187.756E+06    -13.3339E+06    -187.755E+06    -8.74422E+06    -203.748E+03         22.4785
             596     984.010E-06     37.0946E-03         5.80444         1.82645        -8.27316         3.39551        -5.86422         1.82645        -4.16009     32.7560E-03    -16.3260E-03    -16.4300E-03    -16.4118E-03     32.7378E-03    -16.3260E-03     1.79453E-03    -13.1217E+06    -15.5015E+06    -188.082E+06    -15.2064E+06    -188.078E+06    -13.4210E+06     198.664E+03         22.4552
             597     16.7346E-03     36.2318E-03         1.00755     499.988E-03        -2.10109     495.904E-03        -2.09700         1.00755     91.9463E-03     31.5727E-03    -15.1502E-03    -16.4225E-03    -15.0685E-03     30.6416E-03    -15.5731E-03     6.38344E-03     199.950E+06     34.0036E+06    -36.7858E+06    -2.25694E+06     199.935E+06    -510.434E+03    -596.614E+03         31.3873
             598     15.7493E-03     36.2139E-03         1.03633     699.771E-03        -2.33486     586.936E-03        -2.22203         1.03633    -875.723E-03     32.4559E-03    -15.3494E-03    -17.1065E-03    -15.2946E-03     30.6440E-03    -15.3494E-03     18.5911E-03     146.918E+06     882.019E+03    -59.0728E+06      920.04E+03     146.880E+06    -59.0728E+06     726.482E+03         29.6213
             599     14.7652E-03     36.1932E-03         1.06471     793.895E-03        -2.46078     623.267E-03        -2.29015         1.06471        -1.42781     32.6800E-03    -15.5392E-03    -17.1408E-03    -15.4698E-03     31.0091E-03    -15.5392E-03     17.8898E-03     91.9851E+06     3.52558E+06    -39.7339E+06     3.61658E+06     91.8941E+06    -39.7339E+06     1.38708E+06         27.9167
             600     13.7799E-03     36.1767E-03         1.09715     670.044E-03        -2.36818     596.142E-03        -2.29428         1.09715    -892.613E-03     32.6373E-03    -15.7308E-03    -16.9065E-03    -15.5440E-03     31.2748E-03    -15.7308E-03     16.2001E-03     46.3336E+06     4.47999E+06    -18.2657E+06     4.81904E+06     45.9945E+06    -18.2657E+06    -612.005E+03         26.4857
             601     12.7957E-03     36.1599E-03         1.13869     586.007E-03        -2.32224     525.404E-03        -2.26164         1.13869    -802.114E-03     32.5261E-03    -15.8839E-03    -16.6422E-03    -15.6245E-03     31.5084E-03    -15.8839E-03     13.8663E-03     20.8249E+06     5.20553E+06    -2.13828E+06     7.45350E+06     16.1601E+06     278.551E+03    -356.351E+03         25.3882
             602     11.8108E-03     36.1479E-03         1.19369     542.776E-03        -2.33092     445.104E-03        -2.23325         1.19369        -1.03951     32.5047E-03    -15.9746E-03    -16.5301E-03    -15.7761E-03     31.7507E-03    -15.9746E-03     12.0649E-03     8.70198E+06     5.07104E+06    -18.7466E+06     8.63602E+06    -18.6806E+06     5.07104E+06     604.802E+03         24.5870
             603     10.8266E-03     36.1351E-03         1.26582     560.064E-03        -2.41780     372.350E-03        -2.23009         1.26582        -1.41243     32.5613E-03    -16.0618E-03    -16.4996E-03    -15.8120E-03     31.8738E-03    -16.0618E-03     11.5127E-03     11.2315E+06     6.24541E+06    -49.0035E+06     7.83524E+06    -49.0010E+06     9.63918E+06     133.688E+03         24.0133
             604     9.84184E-03     36.1241E-03         1.35943     459.711E-03        -2.40885     307.512E-03        -2.25665         1.35943        -1.17317     32.5530E-03    -16.1531E-03    -16.3998E-03    -15.8517E-03     32.0049E-03    -16.1531E-03     10.2847E-03     17.4571E+06     6.73454E+06    -67.9391E+06     6.73398E+06    -67.9385E+06     17.4571E+06     11.6818E+03         23.6012
             605     8.85771E-03     36.1140E-03         1.47914     427.951E-03        -2.49243     279.048E-03        -2.34353         1.47914     583.398E-03     32.5849E-03    -16.2214E-03    -16.3634E-03    -15.8996E-03     32.1210E-03    -16.2214E-03     9.47936E-03     20.6539E+06     5.05317E+06    -85.5646E+06     5.05163E+06    -85.5631E+06     20.6539E+06     85.3438E+03         23.2994
             606     7.87316E-03     36.1046E-03         1.62484         1.04476        -3.24904     367.876E-03        -2.57215         1.62484         3.04252     32.6518E-03    -16.2758E-03    -16.3760E-03    -15.9630E-03     32.2388E-03    -16.2758E-03     8.95607E-03     20.5090E+06     2.96962E+06    -104.184E+06     2.96764E+06    -104.182E+06     20.5090E+06     96.4791E+03         23.0726
             607     6.88891E-03     36.0956E-03         1.78831         1.15159        -3.51500     606.097E-03        -2.96950         1.78831         2.11442     32.7023E-03    -16.3198E-03    -16.3825E-03    -16.0282E-03     32.3481E-03    -16.3198E-03     8.30003E-03     19.0647E+06     675.235E+03    -119.909E+06     674.354E+03    -119.908E+06     19.0647E+06     221.810E+03         22.8986
             608     5.90457E-03     36.0876E-03         1.95747     975.763E-03        -3.50714     945.214E-03        -3.47659         1.95747     490.999E-03     32.7232E-03    -16.3469E-03    -16.3762E-03    -16.0834E-03     32.4303E-03    -16.3469E-03     7.55143E-03     14.5485E+06    -2.05219E+06    -134.084E+06    -2.05324E+06    -134.083E+06     14.5485E+06     362.572E+03         22.7634
             609     4.92041E-03     36.0801E-03         2.12531         1.34076        -4.04006         1.29239        -3.99169         2.12531     990.825E-03     32.7373E-03    -16.3525E-03    -16.3848E-03    -16.1380E-03     32.5100E-03    -16.3720E-03     6.64319E-03     8.63452E+06    -5.04649E+06    -149.922E+06    -5.04779E+06    -149.921E+06     8.63452E+06     158.143E+03         22.6585
             610     3.93606E-03     36.0740E-03         2.36909         1.92740        -4.86955         1.64851        -4.51020         2.28864         2.68215     32.7836E-03    -16.3734E-03    -16.4102E-03    -16.2182E-03     32.6211E-03    -16.4029E-03     5.62305E-03     3.13851E+06    -8.07995E+06    -167.313E+06    -8.08057E+06    -167.312E+06     3.13851E+06     -68.199E+03         22.5784
             611     2.95209E-03     36.0686E-03         2.52647         2.34055        -5.42856         1.98119        -4.98874         2.44602         1.01411     32.8515E-03    -16.4055E-03    -16.4460E-03    -16.3323E-03     32.7478E-03    -16.4155E-03     4.46533E-03    -2.92284E+06    -10.9504E+06    -180.960E+06    -10.9510E+06    -180.960E+06    -2.92284E+06    -142.517E+03         22.5195
             612     1.96798E-03     36.0648E-03         2.93444         2.47436        -5.96628         2.35375        -5.49106         2.57983         1.39775     32.8421E-03    -16.3956E-03    -16.4465E-03    -16.3952E-03     32.7908E-03    -16.3956E-03     3.10648E-03    -8.83710E+06    -13.5959E+06    -187.369E+06    -13.5969E+06    -187.368E+06    -8.83710E+06    -189.247E+03         22.4793
             613     984.155E-06     36.0622E-03         5.32491         1.80647        -7.67738         3.46596        -5.81844         1.80647        -3.62239     32.7344E-03    -16.3243E-03    -16.4101E-03    -16.3924E-03     32.7166E-03    -16.3243E-03     1.74019E-03    -13.6199E+06    -15.7800E+06    -187.682E+06    -15.4821E+06    -187.681E+06    -13.9192E+06    -335.972E+03         22.4559
             614     16.7340E-03     35.1996E-03     970.094E-03     375.413E-03        -1.82306     370.295E-03        -1.81794     970.094E-03     95.8040E-03     31.5085E-03    -15.0167E-03    -16.4918E-03    -15.0495E-03     30.6337E-03    -15.5843E-03     6.34438E-03     200.680E+06     33.2809E+06    -36.1020E+06    -2.44603E+06     200.662E+06    -357.845E+03    -629.651E+03         31.3720
             615     15.7501E-03     35.1813E-03         1.00608     533.612E-03        -2.02901     405.964E-03        -1.90136         1.00608    -851.430E-03     32.6318E-03    -15.3578E-03    -17.2741E-03    -15.4326E-03     30.7904E-03    -15.3578E-03     18.7817E-03     145.009E+06    -468.436E+03    -59.9465E+06    -440.382E+03     144.981E+06    -59.9465E+06     28.6576E+03         29.6152
             616     14.7645E-03     35.1616E-03         1.04546     600.561E-03        -2.14086     411.314E-03        -1.95161         1.04546        -1.36864     32.7881E-03    -15.5430E-03    -17.2451E-03    -15.4973E-03     31.0403E-03    -15.5430E-03     18.2948E-03     93.0574E+06     4.83162E+06    -38.9781E+06     4.88767E+06     93.0013E+06    -38.9781E+06     1.02411E+06         27.9183
             617     13.7804E-03     35.1442E-03         1.09117     471.231E-03        -2.05816     395.550E-03        -1.98248         1.09117    -811.997E-03     32.6936E-03    -15.7320E-03    -16.9616E-03    -15.5957E-03     31.3278E-03    -15.7320E-03     16.2382E-03     49.1756E+06     7.85920E+06    -16.5155E+06     8.23776E+06     48.7970E+06    -16.5155E+06     96.0242E+03         26.4908
             618     12.7953E-03     35.1282E-03         1.14543     432.447E-03        -2.07224     379.259E-03        -2.01905         1.14543    -699.285E-03     32.5494E-03    -15.8798E-03    -16.6696E-03    -15.6286E-03     31.5083E-03    -15.8798E-03     14.0524E-03     18.8828E+06     5.20116E+06    -3.93978E+06     7.28639E+06     14.0609E+06    -1.20310E+06    -262.519E+03         25.3938
             619     11.8111E-03     35.1153E-03         1.21100     436.115E-03        -2.14058     347.212E-03        -2.05168         1.21100    -938.421E-03     32.4683E-03    -15.9759E-03    -16.4924E-03    -15.7297E-03     31.7055E-03    -15.9759E-03     12.1252E-03     7.05756E+06     4.58953E+06    -18.2891E+06     6.95851E+06    -18.1901E+06     4.58953E+06     712.904E+03         24.5917
             620     10.8263E-03     35.1034E-03         1.29228     484.167E-03        -2.26933     300.670E-03        -2.08584         1.29228        -1.33903     32.5716E-03    -16.0651E-03    -16.5065E-03    -15.8160E-03     31.8811E-03    -16.0651E-03     11.5512E-03     10.5520E+06     6.70040E+06    -47.5042E+06     7.31933E+06    -47.4884E+06     9.91726E+06     351.970E+03         24.0168
             621     9.84210E-03     35.0917E-03         1.39293     439.858E-03        -2.32481     287.128E-03        -2.17208         1.39293        -1.15272     32.5641E-03    -16.1550E-03    -16.4090E-03    -15.8545E-03     32.0095E-03    -16.1550E-03     10.3358E-03     17.1653E+06     6.66317E+06    -68.0780E+06     6.66081E+06    -68.0757E+06     17.1653E+06     16.3132E+03         23.6038
             622     8.85744E-03     35.0821E-03         1.51393     487.395E-03        -2.48916     336.288E-03        -2.33805         1.51393     594.137E-03     32.5828E-03    -16.2236E-03    -16.3591E-03    -15.8963E-03     32.1199E-03    -16.2236E-03     9.47265E-03     20.6486E+06     5.39027E+06      -85.03E+06     5.38868E+06    -85.0284E+06     20.6486E+06     324.200E+03         23.3015
             623     7.87315E-03     35.0722E-03         1.65272         1.12041        -3.25718     481.631E-03        -2.61840         1.65272         3.01186     32.6576E-03    -16.2783E-03    -16.3793E-03    -15.9632E-03     32.2415E-03    -16.2783E-03     8.98627E-03     20.3057E+06     3.30840E+06    -103.974E+06     3.30645E+06    -103.972E+06     20.3057E+06     304.813E+03         23.0744
             624     6.88876E-03     35.0636E-03         1.80189         1.24442        -3.52749     737.985E-03        -3.02106         1.80189         2.09429     32.7096E-03    -16.3219E-03    -16.3877E-03    -16.0353E-03     32.3572E-03    -16.3219E-03     8.28316E-03     18.5803E+06     518.222E+03    -119.776E+06     516.585E+03    -119.774E+06     18.5803E+06     312.718E+03         22.9002
             625     5.90456E-03     35.0552E-03         1.95226         1.07317        -3.50762         1.05722        -3.49167         1.95226     379.998E-03     32.7179E-03    -16.3392E-03    -16.3787E-03    -16.0751E-03     32.4255E-03    -16.3504E-03     7.54251E-03     14.2575E+06    -2.32625E+06    -133.590E+06    -2.32711E+06    -133.589E+06     14.2575E+06     327.915E+03         22.7650
             626     4.92024E-03     35.0480E-03         2.09977         1.40182        -3.98363         1.36720        -3.94901         2.09977     855.133E-03     32.7374E-03    -16.3522E-03    -16.3852E-03    -16.1317E-03     32.5103E-03    -16.3786E-03     6.64314E-03     8.59289E+06    -5.14371E+06    -149.310E+06     -5.1444E+06    -149.309E+06     8.59289E+06     307.492E+03         22.6600
             627     3.93615E-03     35.0416E-03         2.29436         1.92511        -4.69769         1.71075        -4.42758         2.23860         2.34730     32.8270E-03    -16.3917E-03    -16.4354E-03    -16.2562E-03     32.6632E-03    -16.4070E-03     5.64732E-03     3.21444E+06    -8.17132E+06    -166.681E+06    -8.17182E+06    -166.681E+06     3.21444E+06     194.475E+03         22.5798
             628     2.95200E-03     35.0363E-03         2.41726         2.27898        -5.15913         2.01707        -4.84146         2.36150     918.045E-03     32.8662E-03    -16.4126E-03    -16.4536E-03    -16.3512E-03     32.7637E-03    -16.4126E-03     4.43700E-03    -2.60680E+06    -11.1942E+06    -180.457E+06    -11.1946E+06    -180.457E+06    -2.60680E+06    -39.3817E+03         22.5208
             629     1.96811E-03     35.0323E-03         2.69966         2.36669        -5.52172         2.32576        -5.23033         2.44921     963.496E-03     32.7921E-03    -16.3740E-03    -16.4181E-03    -16.3446E-03     32.7420E-03    -16.3974E-03     3.06378E-03    -9.42291E+06    -13.8253E+06    -186.930E+06    -13.8259E+06    -186.930E+06    -9.42291E+06    -224.067E+03         22.4805
             630     983.898E-06     35.0300E-03         4.57257         1.61637        -6.63288         3.34273        -5.40304         1.61637        -2.85843     32.7706E-03    -16.3374E-03    -16.4333E-03    -16.3919E-03     32.7527E-03    -16.3609E-03     1.77247E-03    -14.3644E+06    -15.5250E+06    -187.695E+06    -15.4893E+06    -187.693E+06    -14.4015E+06    -451.410E+03         22.4569
             631     16.7340E-03     34.1663E-03     925.379E-03     247.848E-03        -1.54284     241.125E-03        -1.53612     925.379E-03     132.622E-03     31.3477E-03    -15.0054E-03    -16.3423E-03    -14.9077E-03     30.4995E-03    -15.5917E-03     6.11503E-03     200.885E+06     32.9761E+06    -36.0189E+06    -2.66089E+06     200.875E+06    -372.345E+03     93.5031E+03         31.3574
             632     15.7486E-03     34.1498E-03     968.702E-03     365.997E-03        -1.72026     211.362E-03        -1.56562     968.702E-03    -817.003E-03     32.5279E-03    -15.3668E-03    -17.1611E-03    -15.3653E-03     30.7321E-03    -15.3668E-03     18.5104E-03     145.081E+06    -1.23454E+06    -61.1552E+06    -1.21188E+06     145.059E+06    -61.1552E+06    -880.111E+03         29.6095
             633     14.7647E-03     34.1288E-03         1.01897     424.738E-03        -1.83637     202.119E-03        -1.61375         1.01897        -1.31338     32.8726E-03    -15.5450E-03    -17.3276E-03    -15.5775E-03     31.1225E-03    -15.5450E-03     18.3526E-03     92.5404E+06     3.21731E+06    -41.9824E+06     3.24004E+06     92.5176E+06    -41.9824E+06    -1.25267E+06         27.9202
             634     13.7798E-03     34.1123E-03         1.07636     300.067E-03        -1.77093     219.591E-03        -1.69046         1.07636    -737.394E-03     32.7726E-03    -15.7446E-03    -17.0281E-03    -15.6579E-03     31.4025E-03    -15.7446E-03     16.2802E-03     48.9991E+06     5.88520E+06    -16.6606E+06     6.04381E+06     48.8405E+06    -16.6606E+06     1.08122E+06         26.4964
             635     12.7956E-03     34.0959E-03         1.14151     284.890E-03        -1.82022     237.463E-03        -1.77279         1.14151    -605.123E-03     32.5812E-03    -15.8930E-03    -16.6882E-03    -15.6516E-03     31.5446E-03    -15.8930E-03     14.0527E-03     19.8237E+06     4.08281E+06    -1.78487E+06     6.98693E+06     14.9702E+06     164.474E+03     1.18482E+06         25.3999
             636     11.8106E-03     34.0835E-03         1.21699     321.342E-03        -1.93170     238.503E-03        -1.84886         1.21699    -844.021E-03     32.4794E-03    -15.9799E-03    -16.4995E-03    -15.7244E-03     31.7044E-03    -15.9799E-03     12.2223E-03     7.72602E+06     4.25304E+06    -18.3058E+06     7.68549E+06    -18.2653E+06     4.25304E+06    -144.160E+03         24.5968
             637     10.8265E-03     34.0709E-03         1.30596     422.373E-03        -2.12259     246.645E-03        -1.94686         1.30596        -1.26262     32.6117E-03    -16.0714E-03    -16.5403E-03    -15.8493E-03     31.9207E-03    -16.0714E-03     11.5634E-03     11.0290E+06     7.44385E+06    -46.8451E+06     8.10285E+06    -46.8012E+06     10.3261E+06     524.750E+03         24.0208
             638     9.84184E-03     34.0597E-03         1.40893     461.277E-03        -2.26287     314.185E-03        -2.11578         1.40893        -1.12055     32.5901E-03    -16.1570E-03    -16.4331E-03    -15.8774E-03     32.0344E-03    -16.1570E-03     10.3542E-03     16.9743E+06     6.87335E+06    -67.3627E+06     6.84772E+06    -67.3370E+06     16.9743E+06     483.308E+03         23.6069
             639     8.85760E-03     34.0497E-03         1.52210     611.836E-03        -2.52411     470.626E-03        -2.38290         1.52210     586.503E-03     32.6012E-03    -16.2235E-03    -16.3777E-03    -15.9154E-03     32.1389E-03    -16.2235E-03     9.47018E-03     19.9796E+06     4.83960E+06    -85.0854E+06     4.83290E+06    -85.0787E+06     19.9796E+06     427.165E+03         23.3039
             640     7.87313E-03     34.0402E-03         1.66187         1.24302        -3.29132     703.960E-03        -2.72918         1.63880         2.91923     32.6728E-03    -16.2755E-03    -16.3973E-03    -15.9839E-03     32.2593E-03    -16.2755E-03     8.96235E-03     19.6664E+06     2.57752E+06    -103.637E+06     2.57077E+06    -103.630E+06     19.6664E+06     622.072E+03         23.0766
             641     6.88889E-03     34.0311E-03         1.77929         1.34180        -3.50619     924.803E-03        -3.06612         1.75621         2.02962     32.6994E-03    -16.3182E-03    -16.3811E-03    -16.0311E-03     32.3494E-03    -16.3182E-03     8.25217E-03     18.2598E+06     83.1868E+03    -119.102E+06     81.1694E+03    -119.100E+06     18.2598E+06     453.565E+03         22.9022
             642     5.90454E-03     34.0231E-03         1.87635         1.14740        -3.41077         1.13943        -3.40280         1.87635     284.010E-03     32.7095E-03    -16.3358E-03    -16.3737E-03    -16.0760E-03     32.4230E-03    -16.3470E-03     7.46525E-03     14.0700E+06    -2.59534E+06    -133.065E+06    -2.59677E+06    -133.064E+06     14.0700E+06     412.930E+03         22.7668
             643     4.92030E-03     34.0157E-03         1.99730         1.43153        -3.81446         1.39331        -3.77624         1.99730     844.028E-03     32.7551E-03    -16.3605E-03    -16.3947E-03    -16.1603E-03     32.5320E-03    -16.3716E-03     6.59272E-03     8.42024E+06    -5.62653E+06    -148.968E+06    -5.62785E+06    -148.967E+06     8.42024E+06     414.532E+03         22.6618
             644     3.93610E-03     34.0093E-03         2.18317         1.86650        -4.42869         1.72568        -4.20870         2.10401         2.17416     32.8185E-03    -16.3907E-03    -16.4278E-03    -16.2651E-03     32.6558E-03    -16.3907E-03     5.62602E-03     2.68883E+06    -8.66308E+06    -166.015E+06    -8.66398E+06    -166.014E+06     2.68883E+06      268.75E+03         22.5814
             645     2.95219E-03     34.0038E-03         2.26235         2.12341        -4.74442         1.98567        -4.52752         2.18319         1.02712     32.8090E-03    -16.3881E-03    -16.4209E-03    -16.3116E-03     32.7081E-03    -16.3965E-03     4.39783E-03    -3.35254E+06    -11.6004E+06    -179.974E+06    -11.6009E+06    -179.974E+06    -3.35254E+06     42.6210E+03         22.5221
             646     1.96800E-03     34.0001E-03         2.38958         2.15783        -4.89721         2.20787        -4.77529         2.21761     567.769E-03     32.7674E-03    -16.3587E-03    -16.4087E-03    -16.3279E-03     32.7185E-03    -16.3906E-03     3.02223E-03    -9.59047E+06    -14.1509E+06    -186.346E+06    -14.1518E+06    -186.345E+06    -9.59047E+06    -167.245E+03         22.4816
             647     983.992E-06     33.9976E-03         3.70759         1.32617        -5.36976         3.11257        -4.77474         1.32617        -1.86700     32.7587E-03    -16.3214E-03    -16.4373E-03    -16.3961E-03     32.7409E-03    -16.3448E-03     1.77820E-03    -14.8823E+06    -16.2224E+06    -187.583E+06    -16.1870E+06    -187.582E+06    -14.9195E+06    -192.367E+03         22.4578
             648     16.7343E-03     33.1357E-03     876.345E-03     119.179E-03        -1.27118     110.698E-03        -1.26270     876.345E-03     149.709E-03     31.3534E-03    -15.0053E-03    -16.3481E-03    -14.8853E-03     30.4783E-03    -15.5931E-03     6.09684E-03     201.229E+06     35.0357E+06    -36.6226E+06    -1.34348E+06     201.216E+06    -230.312E+03     405.680E+03         31.3436
             649     15.7495E-03     33.1165E-03     925.585E-03     232.216E-03        -1.44881     53.8776E-03        -1.27047     925.585E-03    -766.230E-03     32.4629E-03    -15.3694E-03    -17.0935E-03    -15.3030E-03     30.6725E-03    -15.3694E-03     18.4698E-03     146.845E+06    -186.616E+03    -61.0524E+06    -155.402E+03     146.813E+06    -61.0524E+06    -64.6007E+03         29.6046
             650     14.7643E-03     33.0975E-03     983.801E-03     288.535E-03        -1.57054     31.7251E-03        -1.31373     983.801E-03        -1.25873     32.8153E-03    -15.5572E-03    -17.2581E-03    -15.5297E-03     31.0869E-03    -15.5572E-03     18.2306E-03     92.0552E+06     229.728E+03    -42.6006E+06     254.683E+03     92.0302E+06    -42.6006E+06    -549.942E+03         27.9227
             651     13.7799E-03     33.0794E-03         1.05043     148.117E-03        -1.49684     56.5733E-03        -1.40530         1.05043    -691.105E-03     32.7707E-03    -15.7452E-03    -17.0255E-03    -15.6605E-03     31.4057E-03    -15.7452E-03     16.2473E-03     47.4629E+06     2.49813E+06    -20.1731E+06     2.77275E+06     47.1883E+06    -20.1731E+06    -713.635E+03         26.5023
             652     12.7952E-03     33.0641E-03         1.12535     140.258E-03        -1.56209     89.9853E-03        -1.51182         1.12535    -560.557E-03     32.6153E-03    -15.8924E-03    -16.7230E-03    -15.6985E-03     31.5908E-03    -15.8924E-03     13.9838E-03     21.7128E+06     4.36008E+06    -2.41590E+06     7.64404E+06     17.0935E+06    -1.08063E+06    -668.343E+03         25.4063
             653     11.8109E-03     33.0511E-03         1.20923     234.358E-03        -1.73951     146.283E-03        -1.65143         1.20923    -813.972E-03     32.5469E-03    -15.9857E-03    -16.5612E-03    -15.7850E-03     31.7707E-03    -15.9857E-03     12.2484E-03     9.59071E+06     4.45479E+06    -18.6796E+06     9.55510E+06    -18.6440E+06     4.45479E+06     9.90902E+03         24.6023
             654     10.8262E-03     33.0389E-03         1.30117     418.564E-03        -2.01500     249.622E-03        -1.84606         1.30117        -1.22173     32.6290E-03    -16.0757E-03    -16.5533E-03    -15.8687E-03     31.9443E-03    -16.0757E-03     11.5079E-03     12.2208E+06     6.54013E+06    -47.7881E+06     8.59748E+06    -47.7332E+06     10.1086E+06     1.16317E+06         24.0252
             655     9.84196E-03     33.0274E-03         1.39851     542.099E-03        -2.23468     403.652E-03        -2.09624         1.39851        -1.10242     32.6042E-03    -16.1626E-03    -16.4416E-03    -15.8935E-03     32.0561E-03    -16.1626E-03     10.2932E-03     17.7725E+06     7.06585E+06    -66.1812E+06     7.00203E+06    -66.1174E+06     17.7725E+06     1.70689E+06         23.6103
             656     8.85742E-03     33.0176E-03         1.49662     751.175E-03        -2.53881     620.464E-03        -2.40810         1.49662     551.933E-03     32.6331E-03    -16.2239E-03    -16.4092E-03    -15.9459E-03     32.1698E-03    -16.2239E-03     9.48507E-03     19.8325E+06     4.38610E+06    -84.7950E+06     4.34873E+06    -84.7577E+06     19.8325E+06     1.10186E+06         23.3067
             657     7.87322E-03     33.0079E-03         1.67135         1.29824        -3.25796     890.655E-03        -2.76745         1.58843         2.78535     32.6863E-03    -16.2719E-03    -16.4144E-03    -16.0000E-03     32.2719E-03    -16.2719E-03     8.97756E-03     19.4625E+06     1.90465E+06    -102.859E+06     1.89676E+06    -102.851E+06     19.4625E+06     690.672E+03         23.0790
             658     6.88884E-03     32.9991E-03         1.75299         1.42547        -3.46638         1.12801        -3.08599         1.67006         1.95339     32.7049E-03    -16.3116E-03    -16.3933E-03    -16.0412E-03     32.3528E-03    -16.3116E-03     8.27522E-03     17.9922E+06    -424.668E+03    -118.461E+06    -427.512E+03    -118.458E+06     17.9922E+06     439.254E+03         22.9043
             659     5.90461E-03     32.9908E-03         1.74409         1.31192        -3.34492         1.30862        -3.34162         1.74409     212.239E-03     32.7362E-03    -16.3353E-03    -16.4009E-03    -16.1147E-03     32.4500E-03    -16.3353E-03     7.46603E-03     13.8323E+06    -3.14932E+06    -132.725E+06    -3.15057E+06    -132.724E+06     13.8323E+06     355.900E+03         22.7687
             660     4.92044E-03     32.9835E-03         1.81349         1.52724        -3.62561         1.46949        -3.56786         1.81349     912.452E-03     32.7663E-03    -16.3498E-03    -16.4165E-03    -16.1931E-03     32.5429E-03    -16.3498E-03     6.59844E-03     8.25855E+06    -5.83390E+06    -148.496E+06    -5.83554E+06    -148.494E+06     8.25855E+06     477.693E+03         22.6634
             661     3.93637E-03     32.9769E-03         1.97837         1.77200        -4.02451         1.67624        -3.82104         1.87066         2.09763     32.7547E-03    -16.3570E-03    -16.3977E-03    -16.2305E-03     32.5934E-03    -16.3629E-03     5.59431E-03     2.36273E+06    -8.67027E+06    -165.302E+06    -8.67205E+06    -165.301E+06     2.36273E+06     409.405E+03         22.5827
             662     2.95207E-03     32.9717E-03         2.01986         1.84727        -4.11675         1.79996        -3.96173         1.91216         1.26002     32.7413E-03    -16.3593E-03    -16.3821E-03    -16.2684E-03     32.6420E-03    -16.3736E-03     4.35886E-03    -3.66855E+06    -11.5892E+06    -179.309E+06    -11.5908E+06    -179.308E+06    -3.66855E+06     71.9529E+03         22.5231
             663     1.96807E-03     32.9677E-03         2.03139         1.86099        -4.13519         1.94086        -4.10955         1.92588     195.057E-03     32.7471E-03    -16.3577E-03    -16.3894E-03    -16.3323E-03     32.6985E-03    -16.3662E-03     3.01869E-03    -9.61913E+06    -14.0782E+06    -185.928E+06    -14.0797E+06    -185.926E+06    -9.61913E+06    -142.153E+03         22.4823
             664     984.124E-06     32.9653E-03         2.96127         1.02534        -4.21311         2.81734        -4.06918         1.02534    -683.611E-03     32.7013E-03    -16.3053E-03    -16.3960E-03    -16.3781E-03     32.6834E-03    -16.3053E-03     1.78553E-03    -14.3425E+06    -15.6779E+06    -187.400E+06    -15.6668E+06    -187.398E+06    -14.3556E+06    -104.661E+03         22.4582
             665     16.7335E-03     32.1020E-03     825.246E-03     33.8016E-03        -1.05479     24.2269E-03        -1.04521     825.246E-03     176.242E-03     31.3224E-03    -14.9601E-03    -16.3623E-03    -14.8648E-03     30.4631E-03    -15.5983E-03     6.04450E-03     201.702E+06     33.4471E+06    -35.8379E+06    -2.08023E+06     201.684E+06    -291.864E+03    -44.7142E+03         31.3301
             666     15.7489E-03     32.0856E-03     877.007E-03     150.793E-03        -1.23598    -44.3028E-03        -1.04088     877.007E-03    -687.591E-03     32.5353E-03    -15.3777E-03    -17.1576E-03    -15.3633E-03     30.7410E-03    -15.3777E-03     18.5049E-03     146.610E+06     312.635E+03    -60.2125E+06     353.234E+03     146.569E+06    -60.2125E+06     1.09290E+06         29.5999
             667     14.7643E-03     32.0644E-03     939.650E-03     193.626E-03        -1.34380    -102.544E-03        -1.04763     939.650E-03        -1.19381     32.8052E-03    -15.5613E-03    -17.2439E-03    -15.5286E-03     31.0899E-03    -15.5613E-03     18.1397E-03     93.3534E+06     4.17553E+06    -40.9213E+06     4.20757E+06     93.3213E+06    -40.9213E+06     821.253E+03         27.9254
             668     13.7797E-03     32.0479E-03         1.01391     9.14473E-03        -1.23034    -113.796E-03        -1.10740         1.01391    -675.723E-03     32.7028E-03    -15.7420E-03    -16.9608E-03    -15.6022E-03     31.3442E-03    -15.7420E-03     16.1969E-03     49.3699E+06     5.98115E+06    -20.5242E+06     6.25338E+06     49.0976E+06    -20.5242E+06    -2.16432E+06         26.5084
             669     12.7952E-03     32.0314E-03         1.09754     27.0867E-03        -1.32742    -43.6967E-03        -1.25664         1.09754    -580.730E-03     32.6655E-03    -15.8905E-03    -16.7750E-03    -15.7426E-03     31.6331E-03    -15.8905E-03     14.0115E-03     19.8806E+06     4.37300E+06    -6.00991E+06     6.64850E+06     15.4169E+06    -3.82175E+06    -2.00001E+06         25.4129
             670     11.8106E-03     32.0192E-03         1.18590     219.215E-03        -1.60500     108.733E-03        -1.49452         1.18590    -863.654E-03     32.5947E-03    -15.9868E-03    -16.6079E-03    -15.8499E-03     31.8366E-03    -15.9868E-03     12.1188E-03     6.59976E+06     2.70329E+06    -19.7074E+06     6.55891E+06    -19.6666E+06     2.70329E+06     589.891E+03         24.6081
             671     10.8264E-03     32.0064E-03         1.27414     485.754E-03        -1.95773     311.725E-03        -1.78370         1.27414        -1.25045     32.6267E-03    -16.0725E-03    -16.5542E-03    -15.8713E-03     31.9438E-03    -16.0725E-03     11.4932E-03     10.6076E+06     4.87907E+06    -48.1334E+06     6.71043E+06    -48.0913E+06     8.73413E+06     1.46778E+06         24.0297
             672     9.84182E-03     31.9955E-03         1.35851     673.639E-03        -2.22758     536.470E-03        -2.09041         1.35851        -1.13941     32.6158E-03    -16.1638E-03    -16.4520E-03    -15.9096E-03     32.0734E-03    -16.1638E-03     10.2405E-03     17.9963E+06     6.38039E+06    -66.0645E+06     6.31749E+06    -66.0016E+06     17.9963E+06     2.05790E+06         23.6138
             673     8.85758E-03     31.9852E-03         1.43628     896.744E-03        -2.52452     764.978E-03        -2.39276         1.43628     508.262E-03     32.6318E-03    -16.2240E-03    -16.4078E-03    -15.9488E-03     32.1728E-03    -16.2240E-03     9.44256E-03     20.8996E+06     4.97412E+06    -83.2659E+06     4.91734E+06    -83.2091E+06     20.8996E+06     1.85079E+06         23.3096
             674     7.87316E-03     31.9758E-03         1.65736         1.31221        -3.15969         1.01918        -2.71229         1.50301         2.67557     32.6965E-03    -16.2695E-03    -16.4270E-03    -16.0156E-03     32.2851E-03    -16.2695E-03     8.94566E-03     20.2204E+06     2.51626E+06    -101.797E+06     2.50530E+06    -101.786E+06     20.2204E+06     765.028E+03         23.0814
             675     6.88893E-03     31.9667E-03         1.70758         1.47605        -3.37282         1.29185        -3.03176         1.55072         1.90152     32.7256E-03    -16.3041E-03    -16.4215E-03    -16.0728E-03     32.3769E-03    -16.3041E-03     8.24193E-03     18.3606E+06    -225.258E+03    -117.707E+06    -229.321E+03    -117.703E+06     18.3606E+06     529.010E+03         22.9063
             676     5.90469E-03     31.9586E-03         1.62498         1.45422        -3.26752         1.50320        -3.26538         1.57386     146.204E-03     32.7409E-03    -16.3202E-03    -16.4207E-03    -16.1328E-03     32.4530E-03    -16.3202E-03     7.49171E-03     13.5847E+06    -3.18441E+06    -132.477E+06    -3.18645E+06    -132.475E+06     13.5847E+06     363.346E+03         22.7703
             677     4.92056E-03     31.9510E-03         1.69783         1.52945        -3.40689         1.56122        -3.32099         1.58016     954.099E-03     32.7472E-03    -16.3308E-03    -16.4164E-03    -16.1898E-03     32.5207E-03    -16.3308E-03     6.64315E-03     8.04166E+06    -6.07097E+06    -148.159E+06    -6.07195E+06    -148.158E+06     8.04166E+06     347.854E+03         22.6646
             678     3.93635E-03     31.9448E-03         1.76449         1.57609        -3.50503         1.57042        -3.31671         1.58183         1.94483     32.7294E-03    -16.3345E-03    -16.3949E-03    -16.2268E-03     32.5671E-03    -16.3404E-03     5.60638E-03     2.35176E+06    -8.77511E+06    -164.657E+06    -8.77677E+06    -164.656E+06     2.35176E+06     484.783E+03         22.5835
             679     2.95230E-03     31.9394E-03         1.70706         1.55392        -3.39903         1.54081        -3.26870         1.58984         1.44840     32.7076E-03    -16.3377E-03    -16.3699E-03    -16.2642E-03     32.6078E-03    -16.3436E-03     4.37199E-03    -3.77666E+06    -11.4702E+06    -178.556E+06    -11.4719E+06    -178.554E+06    -3.77666E+06     174.836E+03         22.5236
             680     1.96817E-03     31.9355E-03         1.73442         1.55615        -3.42108         1.61050        -3.33308         1.59207    -194.222E-03     32.6800E-03    -16.3331E-03    -16.3469E-03    -16.2974E-03     32.6306E-03    -16.3331E-03     3.03689E-03    -9.87467E+06    -13.9392E+06    -185.634E+06    -13.9405E+06    -185.632E+06    -9.87467E+06    -124.255E+03         22.4824
             681     983.990E-06     31.9330E-03         2.69698     737.943E-03        -3.55321         2.43522        -3.29145     737.943E-03     576.404E-03     32.6391E-03    -16.2692E-03    -16.3699E-03    -16.3527E-03     32.6219E-03    -16.2692E-03     1.72031E-03    -14.5125E+06    -15.8103E+06    -187.226E+06    -15.7986E+06    -187.224E+06    -14.5256E+06    -232.615E+03         22.4581
             682     16.7343E-03     31.0709E-03     772.855E-03     5.11218E-03    -908.664E-03    -10.5818E-03    -892.970E-03     772.855E-03     215.734E-03     31.3502E-03    -15.0009E-03    -16.3494E-03    -14.8869E-03     30.4842E-03    -15.5973E-03     5.85462E-03     202.121E+06     33.3296E+06    -35.8839E+06    -2.33994E+06     202.106E+06    -199.846E+03     95.6501E+03         31.3171
             683     15.7491E-03     31.0525E-03     824.729E-03     109.343E-03        -1.06735    -117.527E-03    -840.481E-03     824.729E-03    -635.983E-03     32.4959E-03    -15.3726E-03    -17.1233E-03    -15.3625E-03     30.7351E-03    -15.3726E-03     18.3308E-03     145.618E+06    -545.825E+03    -61.3286E+06    -475.196E+03     145.547E+06    -61.3286E+06    -475.889E+03         29.5955
             684     14.7646E-03     31.0326E-03     890.027E-03     147.357E-03        -1.16522    -213.181E-03    -804.686E-03     890.027E-03        -1.16280     32.7307E-03    -15.5541E-03    -17.1765E-03    -15.4836E-03     31.0378E-03    -15.5541E-03     18.0152E-03     94.5996E+06     5.64007E+06    -41.4165E+06     5.70591E+06     94.5337E+06    -41.4165E+06    -423.180E+03         27.9281
             685     13.7796E-03     31.0156E-03     968.992E-03    -61.9552E-03        -1.02658    -235.439E-03    -853.101E-03     968.992E-03    -702.784E-03     32.7245E-03    -15.7505E-03    -16.9740E-03    -15.6155E-03     31.3660E-03    -15.7505E-03     16.1965E-03     50.9742E+06     7.62837E+06    -18.1444E+06     7.83778E+06     50.7648E+06    -18.1444E+06     224.390E+03         26.5146
             686     12.7950E-03     30.9992E-03         1.05646    -13.9740E-03        -1.15375    -117.654E-03        -1.05007         1.05646    -651.753E-03     32.6697E-03    -15.9011E-03    -16.7686E-03    -15.7633E-03     31.6644E-03    -15.9011E-03     13.8172E-03     18.1310E+06     3.34177E+06    -5.19517E+06     5.11907E+06     13.7863E+06    -2.62777E+06     693.252E+03         25.4195
             687     11.8109E-03     30.9867E-03         1.14369     261.397E-03        -1.51024     118.797E-03        -1.36764         1.14369    -960.569E-03     32.5358E-03    -15.9857E-03    -16.5501E-03    -15.8091E-03     31.7948E-03    -15.9857E-03     11.9698E-03     3.56235E+06     1.61618E+06    -20.1120E+06     3.44137E+06    -19.9910E+06     1.61618E+06     528.813E+03         24.6139
             688     10.8262E-03     30.9746E-03         1.22325     591.304E-03        -1.91563     397.849E-03        -1.72217         1.22325        -1.33718     32.6418E-03    -16.0688E-03    -16.5730E-03    -15.8866E-03     31.9554E-03    -16.0688E-03     11.5257E-03     7.80360E+06     3.94115E+06    -47.8605E+06     4.18459E+06    -47.8410E+06     7.54059E+06     605.889E+03         24.0344
             689     9.84203E-03     30.9628E-03         1.29124     815.212E-03        -2.20282     666.792E-03        -2.05440         1.29124        -1.22781     32.6148E-03    -16.1565E-03    -16.4583E-03    -15.9129E-03     32.0694E-03    -16.1565E-03     10.2687E-03     16.5741E+06     4.79364E+06    -66.4087E+06     4.77047E+06    -66.3855E+06     16.5741E+06     1.02059E+06         23.6175
             690     8.85755E-03     30.9533E-03         1.34616         1.03854        -2.47765     903.756E-03        -2.34286         1.34616     440.512E-03     32.6400E-03    -16.2177E-03    -16.4223E-03    -15.9591E-03     32.1768E-03    -16.2177E-03     9.48751E-03     20.8222E+06     4.58784E+06    -81.8452E+06     4.56071E+06    -81.8181E+06     20.8222E+06     1.26884E+06         23.3124
             691     7.87326E-03     30.9433E-03         1.63039         1.30986        -3.03037         1.14586        -2.62057         1.38458         2.56390     32.7170E-03    -16.2612E-03    -16.4558E-03    -16.0444E-03     32.3056E-03    -16.2612E-03     8.94815E-03     20.5766E+06     3.25628E+06    -100.813E+06     3.24090E+06    -100.798E+06     20.5766E+06     1.06618E+06         23.0836
             692     6.88903E-03     30.9346E-03         1.69125         1.39943        -3.17952         1.38251        -2.87077         1.39943         1.84125     32.7273E-03    -16.2926E-03    -16.4347E-03    -16.0887E-03     32.3812E-03    -16.2926E-03     8.21398E-03     18.6673E+06     420.303E+03    -117.248E+06     411.493E+03    -117.240E+06     18.6673E+06     889.210E+03         22.9081
             693     5.90479E-03     30.9261E-03         1.55032         1.38586        -3.02111         1.54629        -3.01708         1.38586     59.7424E-03     32.7127E-03    -16.3063E-03    -16.4064E-03    -16.1176E-03     32.4239E-03    -16.3063E-03     7.50036E-03     13.7232E+06    -2.86758E+06    -131.780E+06    -2.87285E+06    -131.775E+06     13.7232E+06     732.286E+03         22.7716
             694     4.92055E-03     30.9190E-03         1.67272         1.35109        -3.09561         1.55073        -2.97362         1.35109     956.411E-03     32.7144E-03    -16.3177E-03    -16.3967E-03    -16.1709E-03     32.4886E-03    -16.3177E-03     6.62684E-03     7.94083E+06    -6.20477E+06    -147.881E+06    -6.20692E+06    -147.879E+06     7.94083E+06     471.187E+03         22.6653
             695     3.93644E-03     30.9124E-03         1.65535         1.30886        -3.01667         1.47559        -2.83691         1.30886         1.76412     32.7141E-03    -16.3238E-03    -16.3904E-03    -16.2289E-03     32.5527E-03    -16.3238E-03     5.59566E-03     1.88913E+06    -9.26665E+06    -164.171E+06    -9.26817E+06    -164.169E+06     1.88913E+06     462.437E+03         22.5838
             696     2.95231E-03     30.9073E-03         1.52134         1.27417        -2.82028         1.34909        -2.64803         1.27417         1.61309     32.6841E-03    -16.3184E-03    -16.3657E-03    -16.2648E-03     32.5832E-03    -16.3184E-03     4.39464E-03    -4.63964E+06    -12.0751E+06    -177.869E+06    -12.0762E+06    -177.868E+06    -4.63964E+06     341.962E+03         22.5235
             697     1.96817E-03     30.9033E-03         1.69135         1.23956        -2.94565         1.32314        -2.57744         1.23956    -552.321E-03     32.6320E-03    -16.3007E-03    -16.3313E-03    -16.2812E-03     32.5819E-03    -16.3007E-03     3.05613E-03    -10.7157E+06    -14.6873E+06    -185.136E+06    -14.6893E+06    -185.134E+06    -10.7157E+06     210.875E+03         22.4821
             698     984.201E-06     30.9008E-03         3.11156     434.101E-03        -3.55003         2.00145        -2.43992     434.101E-03         1.77457     32.5655E-03    -16.2392E-03    -16.3263E-03    -16.3093E-03     32.5485E-03    -16.2392E-03     1.68639E-03    -15.5174E+06    -16.8754E+06    -186.879E+06    -16.8777E+06    -186.877E+06    -15.5174E+06    -43.9159E+03         22.4576
             699     16.7336E-03     30.0386E-03     722.884E-03    -28.0244E-03    -767.937E-03    -45.9620E-03    -749.999E-03     722.884E-03     205.486E-03     31.4286E-03    -14.9608E-03    -16.4677E-03    -14.9273E-03     30.5243E-03    -15.5970E-03     6.18538E-03     202.548E+06     34.5123E+06    -36.2456E+06    -1.64587E+06     202.544E+06     -83.136E+03     212.283E+03         31.3047
             700     15.7494E-03     30.0203E-03     774.685E-03     98.1360E-03    -932.104E-03    -176.423E-03    -657.545E-03     774.685E-03    -661.926E-03     32.5020E-03    -15.3726E-03    -17.1293E-03    -15.3332E-03     30.7058E-03    -15.3726E-03     18.5232E-03     147.459E+06     141.873E+03    -60.7352E+06     184.160E+03     147.416E+06    -60.7352E+06    -651.624E+03         29.5912
             701     14.7642E-03     30.0008E-03     840.391E-03     185.536E-03        -1.07230    -264.270E-03    -622.496E-03     840.391E-03        -1.20166     32.7790E-03    -15.5579E-03    -17.2211E-03    -15.5049E-03     31.0628E-03    -15.5579E-03     18.1617E-03     93.9093E+06     1.78076E+06    -42.1316E+06     1.82133E+06     93.8687E+06    -42.1316E+06    -937.297E+03         27.9309
             702     13.7797E-03     29.9832E-03     917.546E-03    -2.60424E-03    -947.226E-03    -235.688E-03    -714.142E-03     917.546E-03    -779.937E-03     32.8232E-03    -15.7568E-03    -17.0664E-03    -15.7136E-03     31.4703E-03    -15.7568E-03     16.1862E-03     49.1655E+06     2.95885E+06    -17.8586E+06     3.24423E+06     48.8801E+06    -17.8586E+06     2.03253E+06         26.5207
             703     12.7956E-03     29.9668E-03     999.605E-03     53.2445E-03        -1.07283    -85.5086E-03    -934.074E-03     999.605E-03    -738.318E-03     32.5646E-03    -15.9035E-03    -16.6612E-03    -15.6757E-03     31.5791E-03    -15.9035E-03     13.6953E-03     19.0178E+06     2.64389E+06    -2.11111E+06     4.72470E+06     15.3687E+06    -542.840E+03     2.45645E+06         25.4262
             704     11.8105E-03     29.9549E-03         1.07872     339.064E-03        -1.42854     160.291E-03        -1.24976         1.07872        -1.05986     32.5122E-03    -15.9860E-03    -16.5262E-03    -15.7718E-03     31.7578E-03    -15.9860E-03     12.0678E-03     5.68560E+06     3.07630E+06    -18.8784E+06     5.57452E+06    -18.7673E+06     3.07630E+06     347.557E+03         24.6198
             705     10.8264E-03     29.9419E-03         1.14735     685.620E-03        -1.83647     458.322E-03        -1.60917         1.14735        -1.44067     32.6475E-03    -16.0687E-03    -16.5787E-03    -15.8945E-03     31.9632E-03    -16.0687E-03     11.5106E-03     8.71229E+06     4.82469E+06    -47.8826E+06     5.52402E+06    -47.8798E+06     8.01021E+06     63.3240E+03         24.0392
             706     9.84188E-03     29.9311E-03         1.20014     924.709E-03        -2.12253     750.282E-03        -1.94810         1.20014        -1.34558     32.6240E-03    -16.1497E-03    -16.4742E-03    -15.9224E-03     32.0722E-03    -16.1497E-03     10.3348E-03     15.6546E+06     4.95354E+06    -66.0231E+06     4.95101E+06    -66.0206E+06     15.6546E+06     44.2628E+03         23.6212
             707     8.85757E-03     29.9207E-03         1.28011         1.10589        -2.37864         1.01613        -2.24239         1.23362     322.656E-03     32.6719E-03    -16.2086E-03    -16.4633E-03    -15.9966E-03     32.2052E-03    -16.2086E-03     9.52835E-03     19.6785E+06     3.98016E+06    -81.7683E+06     3.97609E+06    -81.7643E+06     19.6785E+06     209.565E+03         23.3153
             708     7.87336E-03     29.9113E-03         1.62442         1.23912        -2.85301         1.25035        -2.48391         1.24408         2.40655     32.7097E-03    -16.2493E-03    -16.4604E-03    -16.0479E-03     32.2972E-03    -16.2493E-03     8.96354E-03     19.4670E+06     2.23611E+06    -100.521E+06     2.22409E+06    -100.509E+06     19.4670E+06     1.06446E+06         23.0858
             709     6.88907E-03     29.9021E-03         1.66978         1.23093        -2.88639         1.39031        -2.60692         1.23093         1.75409     32.7172E-03    -16.2813E-03    -16.4359E-03    -16.0866E-03     32.3679E-03    -16.2813E-03     8.24819E-03     18.1744E+06    -47.5293E+03    -116.868E+06    -62.2456E+03    -116.853E+06     18.1744E+06     1.28684E+06         22.9096
             710     5.90487E-03     29.8942E-03         1.44105         1.19877        -2.61863         1.43129        -2.60887         1.19877    -22.3117E-03     32.7078E-03    -16.2943E-03    -16.4135E-03    -16.1257E-03     32.4200E-03    -16.2943E-03     7.48825E-03     13.7944E+06    -2.89458E+06    -130.958E+06    -2.90460E+06    -130.948E+06     13.7944E+06     1.11611E+06         22.7725
             711     4.92065E-03     29.8865E-03         1.59872         1.15073        -2.71264         1.42414        -2.53806         1.15073     986.346E-03     32.6928E-03    -16.3021E-03    -16.3907E-03    -16.1657E-03     32.4678E-03    -16.3021E-03     6.61317E-03     7.84356E+06    -6.00381E+06    -147.153E+06    -6.00960E+06    -147.147E+06     7.84356E+06     816.978E+03         22.6657
             712     3.93649E-03     29.8803E-03         1.59689         1.08334        -2.62023         1.39415        -2.41749         1.08334         1.69297     32.6796E-03    -16.3094E-03    -16.3702E-03    -16.2107E-03     32.5201E-03    -16.3094E-03     5.55653E-03     1.99144E+06    -9.04190E+06    -163.811E+06    -9.04407E+06    -163.809E+06     1.99144E+06     572.453E+03         22.5838
             713     2.95231E-03     29.8749E-03         1.52777         1.00456        -2.44253         1.23754        -2.15229         1.00456         1.83333     32.6518E-03    -16.3059E-03    -16.3459E-03    -16.2461E-03     32.5523E-03    -16.3062E-03     4.36439E-03    -4.31591E+06    -11.9059E+06    -177.156E+06    -11.9106E+06    -177.151E+06    -4.31591E+06     704.036E+03         22.5232
             714     1.96831E-03     29.8712E-03         1.92906     922.119E-03        -2.75081         1.09263        -1.91438     922.119E-03    -823.623E-03     32.6029E-03    -16.2879E-03    -16.3150E-03    -16.2622E-03     32.5525E-03    -16.2903E-03     3.06921E-03    -10.6802E+06    -14.5801E+06    -184.447E+06    -14.5851E+06    -184.442E+06    -10.6802E+06     736.292E+03         22.4815
             715     984.058E-06     29.8686E-03         3.93998     161.727E-03        -3.98717         1.59574        -1.64294     161.727E-03         2.80212     32.5534E-03    -16.2537E-03    -16.2998E-03    -16.2799E-03     32.5357E-03    -16.2558E-03     1.73629E-03    -14.9200E+06    -16.3747E+06    -185.954E+06    -15.9576E+06    -185.952E+06    -15.3394E+06     134.694E+03         22.4569
             716     16.7338E-03     29.0057E-03     681.209E-03    -87.0141E-03    -598.801E-03    -101.376E-03    -584.438E-03     681.209E-03     126.964E-03     31.2900E-03    -14.9293E-03    -16.3607E-03    -14.8450E-03     30.4418E-03    -15.5968E-03     6.18086E-03     202.437E+06     33.5978E+06    -36.4582E+06    -1.78704E+06     202.434E+06    -1.07058E+06    -144.841E+03         31.2932
             717     15.7488E-03     28.9884E-03     732.596E-03     122.244E-03    -834.833E-03    -188.438E-03    -524.151E-03     732.596E-03    -756.255E-03     32.5291E-03    -15.3738E-03    -17.1554E-03    -15.4151E-03     30.7889E-03    -15.3738E-03     18.2490E-03     148.508E+06    -845.669E+03    -61.3687E+06    -833.140E+03     148.496E+06    -61.3687E+06     311.722E+03         29.5875
             718     14.7642E-03     28.9685E-03     793.773E-03     305.593E-03        -1.05943    -199.761E-03    -554.073E-03     793.773E-03        -1.31160     32.9074E-03    -15.5551E-03    -17.3524E-03    -15.6659E-03     31.2210E-03    -15.5551E-03     18.0573E-03     93.6008E+06     513.259E+03    -42.4197E+06     546.780E+03     93.5673E+06    -42.4197E+06     1.11107E+06         27.9341
             719     13.7802E-03     28.9504E-03     860.683E-03     153.726E-03    -956.989E-03    -109.547E-03    -693.716E-03     860.683E-03    -907.169E-03     32.7178E-03    -15.7393E-03    -16.9785E-03    -15.6405E-03     31.3797E-03    -15.7393E-03     16.0734E-03     47.5937E+06     2.58552E+06    -20.4349E+06     2.89155E+06     47.2877E+06    -20.4349E+06     508.777E+03         26.5273
             720     12.7950E-03     28.9354E-03     928.200E-03     210.387E-03        -1.06585     48.3034E-03    -903.768E-03     928.200E-03    -848.922E-03     32.5117E-03    -15.8871E-03    -16.6246E-03    -15.6224E-03     31.5095E-03    -15.8871E-03     13.8077E-03     21.1774E+06     3.86823E+06    -2.87582E+06     7.11712E+06     17.1267E+06    -2.07401E+06     413.456E+03         25.4332
             721     11.8109E-03     28.9220E-03     992.164E-03     459.128E-03        -1.36631     243.218E-03        -1.15040     992.164E-03        -1.17763     32.5352E-03    -15.9824E-03    -16.5528E-03    -15.7868E-03     31.7691E-03    -15.9824E-03     12.1667E-03     8.77655E+06     3.39619E+06    -18.1354E+06     8.70853E+06    -18.0674E+06     3.39619E+06     890.214E+03         24.6260
             722     10.8262E-03     28.9102E-03         1.04763     765.769E-03        -1.71844     487.475E-03        -1.44015         1.04763        -1.56470     32.6459E-03    -16.0656E-03    -16.5803E-03    -15.8949E-03     31.9605E-03    -16.0656E-03     11.5236E-03     10.2790E+06     5.26495E+06    -47.5812E+06     7.60934E+06    -47.5564E+06     7.90982E+06     791.676E+03         24.0442
             723     9.84193E-03     28.8985E-03         1.09399     985.309E-03        -1.97656     775.116E-03        -1.75983         1.08745        -1.48620     32.6685E-03    -16.1455E-03    -16.5230E-03    -15.9665E-03     32.1120E-03    -16.1455E-03     10.3853E-03     15.5080E+06     6.04608E+06    -65.0900E+06     6.04075E+06    -65.0846E+06     15.5080E+06     250.533E+03         23.6251
             724     8.85770E-03     28.8887E-03         1.23063         1.07059        -2.19210         1.05116        -2.04681         1.10476     172.551E-03     32.6789E-03    -16.2020E-03    -16.4769E-03    -16.0104E-03     32.2124E-03    -16.2020E-03     9.52949E-03     18.8308E+06     3.83968E+06    -82.3928E+06     3.83120E+06    -82.3843E+06     18.8308E+06     470.843E+03         23.3181
             725     7.87333E-03     28.8788E-03         1.59181         1.09682        -2.57530         1.25048        -2.23398         1.09682         2.22752     32.6969E-03    -16.2426E-03    -16.4544E-03    -16.0408E-03     32.2834E-03    -16.2426E-03     8.97240E-03     18.7198E+06     1.38708E+06    -100.550E+06     1.37567E+06    -100.538E+06     18.7198E+06     1.01783E+06         23.0877
             726     6.88910E-03     28.8701E-03         1.58310         1.06791        -2.53197         1.31994        -2.26882         1.06791         1.66487     32.7109E-03    -16.2714E-03    -16.4394E-03    -16.0887E-03     32.3601E-03    -16.2714E-03     8.26578E-03     17.1013E+06    -1.09979E+06    -116.295E+06    -1.11174E+06    -116.283E+06     17.1013E+06     1.15068E+06         22.9108
             727     5.90489E-03     28.8616E-03         1.31627         1.02602        -2.21383         1.29755        -2.19512         1.02602    -79.8007E-03     32.7083E-03    -16.2830E-03    -16.4254E-03    -16.1377E-03     32.4207E-03    -16.2830E-03     7.48621E-03     13.0954E+06    -3.60164E+06    -130.349E+06    -3.61362E+06    -130.337E+06     13.0954E+06     1.23043E+06         22.7731
             728     4.92074E-03     28.8546E-03         1.50624     973.769E-03        -2.33288         1.25819        -2.08483     973.769E-03         1.02731     32.6842E-03    -16.2878E-03    -16.3964E-03    -16.1719E-03     32.4597E-03    -16.2878E-03     6.60698E-03     7.57384E+06    -6.32108E+06    -146.184E+06    -6.33103E+06    -146.174E+06     7.57384E+06     1.12774E+06         22.6659
             729     3.93652E-03     28.8479E-03         1.48654     903.167E-03        -2.21740         1.23225        -1.96311     903.167E-03         1.65720     32.6520E-03    -16.2930E-03    -16.3590E-03    -16.2006E-03     32.4936E-03    -16.2930E-03     5.53109E-03     1.76203E+06    -9.48603E+06    -163.153E+06    -9.49114E+06    -163.148E+06     1.76203E+06     801.793E+03         22.5837
             730     2.95244E-03     28.8430E-03         1.54712     813.428E-03        -2.15813         1.10032        -1.71133     813.428E-03         2.02287     32.6067E-03    -16.2896E-03    -16.3171E-03    -16.2160E-03     32.5090E-03    -16.2930E-03     4.32511E-03    -4.28809E+06    -12.3372E+06    -176.886E+06    -12.3422E+06    -176.881E+06    -4.28809E+06     821.326E+03         22.5229
             731     1.96813E-03     28.8389E-03         2.27118     714.488E-03        -2.76919     916.773E-03        -1.41479     714.488E-03        -1.04094     32.5614E-03    -16.2735E-03    -16.2879E-03    -16.2238E-03     32.5117E-03    -16.2879E-03     3.03599E-03    -10.2498E+06    -14.4013E+06    -183.404E+06    -14.4061E+06    -183.399E+06    -10.2498E+06     801.981E+03         22.4812
             732     984.125E-06     28.8367E-03         4.80569     37.2625E-03        -4.61130         1.28997        -1.09557     37.2625E-03         3.61766     32.5627E-03    -16.2351E-03    -16.3276E-03    -16.2992E-03     32.5453E-03    -16.2461E-03     1.73603E-03    -14.4468E+06    -16.3056E+06    -184.697E+06    -15.8886E+06    -184.694E+06    -14.8662E+06     457.415E+03         22.4565
             733     16.7338E-03     27.9739E-03     649.060E-03    -106.569E-03    -457.063E-03    -126.065E-03    -437.566E-03     649.060E-03     66.0074E-03     31.3772E-03    -14.9838E-03    -16.3935E-03    -14.9100E-03     30.5032E-03    -15.5933E-03     6.12704E-03     202.865E+06     32.9891E+06    -35.9349E+06    -1.86667E+06     202.858E+06    -1.07199E+06     340.978E+03         31.2830
             734     15.7489E-03     27.9561E-03     697.174E-03     193.859E-03    -777.745E-03    -124.943E-03    -458.943E-03     697.174E-03    -845.306E-03     32.6026E-03    -15.3653E-03    -17.2373E-03    -15.5156E-03     30.8809E-03    -15.3653E-03     18.1945E-03     147.584E+06    -1.07551E+06    -61.7485E+06    -1.05181E+06     147.561E+06    -61.7485E+06     1.22442E+06         29.5850
             735     14.7650E-03     27.9355E-03     748.358E-03     459.820E-03        -1.07355    -37.4194E-03    -576.311E-03     748.358E-03        -1.42004     32.7685E-03    -15.5431E-03    -17.2254E-03    -15.5739E-03     31.1170E-03    -15.5431E-03     17.8437E-03     94.6900E+06     2.50451E+06    -42.1684E+06     2.54459E+06     94.6500E+06    -42.1684E+06     1.50977E+06         27.9381
             736     13.7797E-03     27.9192E-03     799.121E-03     347.513E-03    -994.502E-03     86.0922E-03    -733.081E-03     799.121E-03        -1.03432     32.6015E-03    -15.7258E-03    -16.8757E-03    -15.5083E-03     31.2341E-03    -15.7258E-03     16.2095E-03     49.6418E+06     6.03926E+06    -21.3581E+06     6.23405E+06     49.4470E+06    -21.3581E+06    -915.220E+03         26.5343
             737     12.7955E-03     27.9025E-03     847.527E-03     408.494E-03        -1.08800     223.525E-03    -903.035E-03     847.527E-03    -984.677E-03     32.5805E-03    -15.8788E-03    -16.7017E-03    -15.6767E-03     31.5555E-03    -15.8788E-03     13.9594E-03     19.7721E+06     4.58489E+06    -6.37267E+06     7.27732E+06     15.4586E+06    -4.75154E+06    -735.124E+03         25.4407
             738     11.8106E-03     27.8904E-03     891.978E-03     626.850E-03        -1.33629     372.670E-03        -1.08211     891.978E-03        -1.31718     32.5319E-03    -15.9795E-03    -16.5524E-03    -15.7906E-03     31.7701E-03    -15.9795E-03     12.1344E-03     7.23405E+06     2.00671E+06    -18.5058E+06     7.07727E+06    -18.3490E+06     2.00671E+06     1.71954E+06         24.6326
             739     10.8263E-03     27.8776E-03     979.404E-03     830.408E-03        -1.61508     546.694E-03        -1.28165     929.684E-03        -1.69601     32.6538E-03    -16.0606E-03    -16.5932E-03    -15.9057E-03     31.9663E-03    -16.0606E-03     11.5436E-03     9.65792E+06      4.4265E+06    -46.3490E+06     6.97248E+06    -46.2900E+06     7.05295E+06     1.45068E+06         24.0494
             740     9.84199E-03     27.8664E-03         1.04890     940.592E-03        -1.78417     763.103E-03        -1.51303     955.252E-03        -1.61552     32.6697E-03    -16.1442E-03    -16.5255E-03    -15.9686E-03     32.1128E-03    -16.1442E-03     10.3890E-03     15.3333E+06     5.88705E+06    -64.8824E+06     5.85099E+06    -64.8463E+06     15.3333E+06     1.31211E+06         23.6289
             741     8.85759E-03     27.8562E-03         1.14165     963.120E-03        -1.89219     968.573E-03        -1.71912     963.120E-03     57.7579E-03     32.6768E-03    -16.1999E-03    -16.4768E-03    -16.0088E-03     32.2087E-03    -16.1999E-03     9.54484E-03     18.5084E+06     3.53832E+06    -82.1997E+06     3.50060E+06    -82.1620E+06     18.5084E+06     1.45421E+06         23.3208
             742     7.87340E-03     27.8468E-03         1.46338     951.232E-03        -2.19631         1.11487        -1.84780     951.232E-03         2.09451     32.7211E-03    -16.2378E-03    -16.4833E-03    -16.0710E-03     32.3088E-03    -16.2378E-03     8.96267E-03     18.3684E+06     1.08396E+06    -100.139E+06     1.07283E+06    -100.128E+06     18.3684E+06     1.02593E+06         23.0894
             743     6.88915E-03     27.8376E-03         1.46044     920.462E-03        -2.15588         1.19074        -1.88618     920.462E-03         1.60372     32.7091E-03    -16.2631E-03    -16.4460E-03    -16.0984E-03     32.3615E-03    -16.2631E-03     8.23064E-03     16.7951E+06    -1.29581E+06    -115.728E+06    -1.30521E+06    -115.719E+06     16.7951E+06     1.02008E+06         22.9118
             744     5.90493E-03     27.8296E-03         1.20058     875.420E-03        -1.83898         1.17095        -1.80934     875.420E-03    -102.409E-03     32.6894E-03    -16.2737E-03    -16.4157E-03    -16.1300E-03     32.4038E-03    -16.2737E-03     7.45661E-03     12.7682E+06    -3.99591E+06    -130.017E+06    -4.00464E+06    -130.009E+06     12.7682E+06     1.04034E+06         22.7736
             745     4.92072E-03     27.8221E-03         1.38842     825.818E-03        -1.95600         1.06594        -1.63353     825.818E-03         1.02829     32.6679E-03    -16.2796E-03    -16.3883E-03    -16.1666E-03     32.4463E-03    -16.2796E-03     6.56357E-03     7.70027E+06    -6.72807E+06    -145.522E+06    -6.73811E+06    -145.512E+06     7.70027E+06     1.17243E+06         22.6660
             746     3.93664E-03     27.8160E-03         1.28524     776.067E-03        -1.77719     976.173E-03        -1.46812     776.067E-03         1.53650     32.6327E-03    -16.2849E-03    -16.3478E-03    -16.1899E-03     32.4747E-03    -16.2849E-03     5.52452E-03     2.20393E+06    -9.53655E+06    -162.297E+06    -9.54734E+06    -162.286E+06     2.20393E+06     1.22758E+06         22.5836
             747     2.95239E-03     27.8106E-03         1.47785     722.154E-03        -1.88845     893.120E-03        -1.30373     722.154E-03         2.08204     32.5978E-03    -16.2794E-03    -16.3184E-03    -16.2179E-03     32.5005E-03    -16.2825E-03     4.31245E-03    -3.86728E+06    -12.5901E+06    -176.301E+06    -12.5955E+06    -176.296E+06    -3.86728E+06     674.263E+03         22.5228
             748     1.96837E-03     27.8071E-03         2.54289     658.609E-03        -2.87226     798.386E-03        -1.12776     658.609E-03        -1.19940     32.5431E-03    -16.2517E-03    -16.2915E-03    -16.2309E-03     32.4946E-03    -16.2637E-03     3.00548E-03    -10.1819E+06    -15.1303E+06    -182.409E+06    -15.1318E+06    -182.407E+06    -10.1819E+06     368.129E+03         22.4812
             749     984.053E-06     27.8042E-03         5.41054     124.498E-03        -5.19348         1.12314    -906.078E-03     124.498E-03         4.15969     32.4862E-03    -16.1860E-03    -16.3002E-03    -16.2741E-03     32.4690E-03    -16.1949E-03     1.72234E-03    -15.4141E+06    -17.1596E+06    -183.748E+06    -17.0912E+06    -183.745E+06    -15.4850E+06     608.754E+03         22.4567
             750     16.7338E-03     26.9425E-03     621.032E-03    -36.6621E-03    -382.986E-03    -75.5700E-03    -344.078E-03     621.032E-03     49.4822E-03     31.5374E-03    -15.0308E-03    -16.5066E-03    -15.0107E-03     30.6013E-03    -15.5906E-03     6.31675E-03     202.561E+06     32.8095E+06    -36.3993E+06    -2.25224E+06     202.548E+06    -1.32520E+06     643.939E+03         31.2736
             751     15.7496E-03     26.9226E-03     674.191E-03     300.860E-03    -751.141E-03     15.7837E-03    -453.131E-03     661.257E-03    -902.949E-03     32.5897E-03    -15.3664E-03    -17.2233E-03    -15.4124E-03     30.7788E-03    -15.3664E-03     18.6364E-03     147.256E+06     457.542E+03    -60.8681E+06     476.032E+03     147.237E+06    -60.8681E+06     1.40221E+06         29.5830
             752     14.7644E-03     26.9044E-03     711.983E-03     595.896E-03        -1.06916     146.623E-03    -606.955E-03     699.048E-03        -1.48234     32.7007E-03    -15.5478E-03    -17.1529E-03    -15.4644E-03     31.0123E-03    -15.5478E-03     17.9922E-03     96.4159E+06     4.89096E+06    -41.2312E+06     4.89896E+06     96.4079E+06    -41.2312E+06     363.211E+03         27.9424
             753     13.7798E-03     26.8866E-03     732.832E-03     531.896E-03        -1.01229     274.626E-03    -755.023E-03     732.832E-03        -1.12835     32.6826E-03    -15.7438E-03    -16.9388E-03    -15.5487E-03     31.2925E-03    -15.7438E-03     16.3689E-03     51.7862E+06     6.14148E+06    -18.9889E+06     6.29866E+06     51.6290E+06    -18.9889E+06     484.310E+03         26.5417
             754     12.7949E-03     26.8707E-03     776.702E-03     589.814E-03        -1.09968     401.255E-03    -896.349E-03     761.927E-03        -1.10366     32.6322E-03    -15.8938E-03    -16.7385E-03    -15.6966E-03     31.5904E-03    -15.8938E-03     14.0664E-03     17.9161E+06     1.65839E+06    -6.05223E+06     4.58854E+06     13.4745E+06    -4.54079E+06     1.11315E+06         25.4485
             755     11.8108E-03     26.8579E-03     866.287E-03     730.352E-03        -1.31493     534.001E-03        -1.03730     785.004E-03        -1.43202     32.5911E-03    -15.9774E-03    -16.6136E-03    -15.8475E-03     31.8249E-03    -15.9774E-03     12.1833E-03     4.64265E+06     283.750E+03    -18.4556E+06     4.53082E+06    -18.3438E+06     283.750E+03     1.14653E+06         24.6393
             756     10.8264E-03     26.8456E-03         1.02442     797.913E-03        -1.52604     656.726E-03        -1.16102     800.579E-03        -1.78429     32.6681E-03    -16.0595E-03    -16.6086E-03    -15.9139E-03     31.9734E-03    -16.0595E-03     11.6034E-03     8.23346E+06     4.02843E+06    -45.4604E+06     5.46749E+06    -45.3940E+06     6.72799E+06     1.49173E+06         24.0544
             757     9.84191E-03     26.8340E-03         1.05277     809.215E-03        -1.55331     736.308E-03        -1.23685     809.215E-03        -1.68138     32.6580E-03    -16.1425E-03    -16.5155E-03    -15.9598E-03     32.1022E-03    -16.1425E-03     10.3761E-03     14.8132E+06     4.91893E+06    -65.2321E+06     4.84933E+06    -65.1625E+06     14.8132E+06     1.98962E+06         23.6324
             758     8.85764E-03     26.8241E-03         1.01213     812.198E-03        -1.50669     796.695E-03        -1.29125     812.198E-03    -4.70302E-03     32.6865E-03    -16.1973E-03    -16.4892E-03    -16.0252E-03     32.2225E-03    -16.1973E-03     9.50548E-03     18.6917E+06     3.50672E+06    -81.0762E+06     3.45570E+06    -81.0252E+06     18.6917E+06     1.84067E+06         23.3229
             759     7.87338E-03     26.8142E-03         1.28801     806.105E-03        -1.77016     894.945E-03        -1.37710     806.105E-03         1.99904     32.7240E-03    -16.2332E-03    -16.4908E-03    -16.0826E-03     32.3158E-03    -16.2332E-03     8.91977E-03     18.5171E+06     1.24056E+06    -99.4600E+06     1.21880E+06    -99.4383E+06     18.5171E+06     1.33494E+06         23.0906
             760     6.88922E-03     26.8056E-03         1.28708     784.990E-03        -1.73996     985.912E-03        -1.43880     784.990E-03         1.54987     32.7077E-03    -16.2565E-03    -16.4512E-03    -16.1051E-03     32.3616E-03    -16.2565E-03     8.21335E-03     16.8149E+06    -1.50029E+06    -115.189E+06    -1.51177E+06    -115.177E+06     16.8149E+06     1.12830E+06         22.9123
             761     5.90500E-03     26.7972E-03         1.00249     752.362E-03        -1.40829     960.098E-03        -1.36590     752.362E-03    -113.299E-03     32.6695E-03    -16.2642E-03    -16.4053E-03    -16.1194E-03     32.3836E-03    -16.2642E-03     7.45791E-03     12.3467E+06    -4.39228E+06    -129.511E+06    -4.40210E+06    -129.501E+06     12.3467E+06     1.08892E+06         22.7737
             762     4.92083E-03     26.7901E-03         1.22502     723.097E-03        -1.58027     835.780E-03        -1.19103     723.097E-03     995.922E-03     32.6322E-03    -16.2714E-03    -16.3608E-03    -16.1398E-03     32.4112E-03    -16.2714E-03     6.54726E-03     6.97227E+06    -7.44732E+06    -145.315E+06    -7.45639E+06    -145.306E+06     6.97227E+06     1.11355E+06         22.6660
             763     3.93654E-03     26.7836E-03         1.11698     680.674E-03        -1.40332     727.238E-03        -1.04208     709.181E-03         1.42633     32.6098E-03    -16.2804E-03    -16.3294E-03    -16.1722E-03     32.4526E-03    -16.2804E-03     5.51173E-03     1.67099E+06    -10.3338E+06    -161.686E+06    -10.3442E+06    -161.675E+06     1.67099E+06     1.23459E+06         22.5836
             764     2.95246E-03     26.7787E-03         1.37951     680.793E-03        -1.64075     694.348E-03    -984.092E-03     709.299E-03         2.04724     32.5976E-03    -16.2749E-03    -16.3227E-03    -16.2242E-03     32.4991E-03    -16.2749E-03     4.33849E-03    -4.57064E+06    -13.3484E+06    -174.870E+06    -13.3561E+06    -174.862E+06    -4.57064E+06      890.89E+03         22.5230
             765     1.96827E-03     26.7746E-03         2.61347     713.561E-03        -2.88993     706.942E-03    -983.408E-03     713.561E-03        -1.26698     32.5463E-03    -16.2421E-03    -16.3042E-03    -16.2549E-03     32.4969E-03    -16.2421E-03     3.03213E-03    -11.2378E+06    -16.5919E+06    -181.759E+06    -16.5942E+06    -181.757E+06    -11.2378E+06     379.758E+03         22.4816
             766     984.324E-06     26.7725E-03         5.56750     362.388E-03        -5.48277         1.06865    -983.920E-03     362.388E-03         4.35654     32.4130E-03    -16.1612E-03    -16.2519E-03    -16.2347E-03     32.3959E-03    -16.1612E-03     1.70419E-03    -16.8622E+06    -18.8382E+06    -182.883E+06    -18.7344E+06    -182.882E+06    -16.9666E+06     263.417E+03         22.4573
             767     16.7339E-03     25.9087E-03     588.676E-03     80.9081E-03    -327.260E-03     12.0838E-03    -258.436E-03     588.676E-03     34.8461E-03     31.4407E-03    -15.0888E-03    -16.3518E-03    -14.9362E-03     30.5255E-03    -15.5893E-03     6.17091E-03     201.928E+06     33.2115E+06    -37.5268E+06    -2.24387E+06     201.919E+06    -2.06216E+06     263.816E+03         31.2644
             768     15.7487E-03     25.8919E-03     696.233E-03     383.478E-03    -733.565E-03     188.740E-03    -461.118E-03     618.524E-03    -932.636E-03     32.4173E-03    -15.3698E-03    -17.0475E-03    -15.2463E-03     30.6161E-03    -15.3698E-03     18.5186E-03     147.392E+06     532.013E+03    -61.9416E+06     539.753E+03     147.384E+06    -61.9416E+06     278.922E+03         29.5811
             769     14.7640E-03     25.8711E-03     757.728E-03     624.166E-03        -1.03134     316.115E-03    -607.410E-03     641.850E-03        -1.49816     32.7569E-03    -15.5670E-03    -17.1900E-03    -15.5211E-03     31.0881E-03    -15.5670E-03     17.8906E-03     96.6112E+06     3.91757E+06    -40.3502E+06     3.94627E+06     96.5825E+06    -40.3502E+06     664.083E+03         27.9467
             770     13.7797E-03     25.8551E-03     729.953E-03     611.753E-03    -984.113E-03     440.294E-03    -742.073E-03     659.372E-03        -1.15334     32.7541E-03    -15.7690E-03    -16.9850E-03    -15.6350E-03     31.4041E-03    -15.7690E-03     16.1608E-03     51.4742E+06     4.06558E+06    -16.4638E+06     4.38032E+06     51.1594E+06    -16.4638E+06     2.76039E+06         26.5491
             771     12.7951E-03     25.8381E-03     799.145E-03     639.471E-03        -1.07005     578.215E-03    -879.054E-03     669.406E-03        -1.12090     32.6251E-03    -15.9024E-03    -16.7228E-03    -15.6821E-03     31.5844E-03    -15.9024E-03     14.0721E-03     19.0273E+06     721.386E+03    -3.57404E+06     4.44602E+06     15.2296E+06    -3.50093E+06     2.49447E+06         25.4560
             772     11.8105E-03     25.8258E-03     959.323E-03     670.520E-03        -1.24697     694.435E-03    -982.079E-03     670.520E-03        -1.43136     32.6163E-03    -15.9770E-03    -16.6393E-03    -15.8674E-03     31.8444E-03    -15.9770E-03     12.2322E-03     4.58434E+06    -50.4674E+03    -18.9912E+06     4.51401E+06    -18.1600E+06    -811.279E+03     734.599E+03         24.6453
             773     10.8263E-03     25.8131E-03         1.10869     664.605E-03        -1.37479     739.292E-03        -1.00539     664.605E-03        -1.76200     32.7288E-03    -16.0620E-03    -16.6668E-03    -15.9725E-03     32.0345E-03    -16.0620E-03     11.6166E-03     7.43455E+06     3.23056E+06    -45.9037E+06     4.31813E+06     -45.859E+06     6.30228E+06     1.30104E+06         24.0587
             774     9.84199E-03     25.8020E-03         1.03282     658.227E-03        -1.27900     686.085E-03    -932.271E-03     658.227E-03        -1.64185     32.6910E-03    -16.1361E-03    -16.5549E-03    -15.9979E-03     32.1339E-03    -16.1361E-03     10.3925E-03     14.1306E+06     4.26283E+06    -64.5005E+06     4.21450E+06    -64.4522E+06     14.1306E+06     1.64020E+06         23.6349
             775     8.85772E-03     25.7915E-03     884.970E-03     657.340E-03        -1.12029     620.649E-03    -855.970E-03     657.340E-03    -18.5513E-03     32.6749E-03    -16.1886E-03    -16.4863E-03    -16.0230E-03     32.2116E-03    -16.1886E-03     9.49757E-03     18.1374E+06     3.52651E+06    -80.6036E+06     3.49429E+06    -80.5714E+06     18.1374E+06     1.61907E+06         23.3242
             776     7.87348E-03     25.7822E-03         1.12410     659.219E-03        -1.35385     639.165E-03    -868.914E-03     659.219E-03         1.91982     32.6961E-03    -16.2272E-03    -16.4689E-03    -16.0598E-03     32.2870E-03    -16.2272E-03     8.92363E-03     18.4642E+06     1.72597E+06    -98.7701E+06     1.68650E+06    -98.7307E+06     18.4642E+06     1.89796E+06         23.0909
             777     6.88919E-03     25.7731E-03         1.06649     642.568E-03        -1.26944     679.317E-03    -897.441E-03     657.743E-03         1.49526     32.6912E-03    -16.2519E-03    -16.4392E-03    -16.0937E-03     32.3456E-03    -16.2519E-03     8.20430E-03     16.5641E+06    -1.24450E+06    -114.631E+06    -1.27117E+06    -114.604E+06     16.5641E+06     1.63603E+06         22.9121
             778     5.90501E-03     25.7652E-03     741.504E-03     631.156E-03    -918.342E-03     656.654E-03    -857.565E-03     655.228E-03    -111.525E-03     32.6504E-03    -16.2607E-03    -16.3897E-03    -16.1034E-03     32.3641E-03    -16.2607E-03     7.46115E-03     11.7949E+06    -4.62940E+06    -128.896E+06    -4.65032E+06    -128.876E+06     11.7949E+06     1.57486E+06         22.7734
             779     4.92074E-03     25.7577E-03         1.07355     650.727E-03        -1.24828     609.352E-03    -792.980E-03     659.624E-03     990.202E-03     32.6166E-03    -16.2687E-03    -16.3479E-03    -16.1255E-03     32.3942E-03    -16.2687E-03     6.56621E-03     5.96103E+06    -7.94617E+06    -144.804E+06    -7.96320E+06    -144.787E+06     5.96103E+06     1.45981E+06         22.6657
             780     3.93663E-03     25.7518E-03         1.05595     604.293E-03        -1.15820     563.710E-03    -740.452E-03     678.789E-03         1.44270     32.6073E-03    -16.2770E-03    -16.3303E-03    -16.1720E-03     32.4490E-03    -16.2770E-03     5.53117E-03     148.707E+03    -11.2255E+06    -160.954E+06    -11.2361E+06    -160.944E+06     148.707E+03     1.24255E+06         22.5836
             781     2.95237E-03     25.7463E-03         1.31378     643.561E-03        -1.43265     568.307E-03    -761.670E-03     718.057E-03         2.01346     32.5873E-03    -16.2732E-03    -16.3140E-03    -16.2151E-03     32.4883E-03    -16.2732E-03     4.34616E-03    -6.05640E+06    -14.2783E+06    -173.750E+06    -14.2865E+06    -173.741E+06    -6.05640E+06     1.11048E+06         22.5232
             782     1.96833E-03     25.7428E-03         2.53329     776.652E-03        -2.76576     642.267E-03    -874.733E-03     776.652E-03        -1.24642     32.5341E-03    -16.2427E-03    -16.2914E-03    -16.2307E-03     32.4847E-03    -16.2540E-03     3.03000E-03    -12.2984E+06    -16.9156E+06    -180.803E+06    -16.9193E+06    -180.800E+06    -12.2984E+06     688.446E+03         22.4821
             783     984.097E-06     25.7401E-03         5.36246     588.989E-03        -5.40058         1.03180        -1.06991     588.989E-03         4.23208     32.4678E-03    -16.1810E-03    -16.2867E-03    -16.2581E-03     32.4505E-03    -16.1924E-03     1.71461E-03    -17.0697E+06    -18.7404E+06    -182.065E+06    -18.7094E+06    -182.062E+06    -17.1032E+06    -73.2223E+03         22.4579
             784     16.7340E-03     24.8781E-03     542.822E-03     200.721E-03    -254.816E-03     40.9603E-03    -95.0554E-03     542.822E-03    -14.3679E-03     31.3609E-03    -14.9940E-03    -16.3669E-03    -14.8524E-03     30.4460E-03    -15.5936E-03     6.14290E-03     202.012E+06     33.1501E+06    -37.5889E+06    -1.98827E+06     202.005E+06    -2.44299E+06    -106.979E+03         31.2549
             785     15.7491E-03     24.8588E-03     728.006E-03     407.300E-03    -662.898E-03     321.332E-03    -413.404E-03     564.480E-03    -925.380E-03     32.4809E-03    -15.3801E-03    -17.1008E-03    -15.2822E-03     30.6623E-03    -15.3801E-03     18.6219E-03     147.830E+06    -242.591E+03    -61.7194E+06    -230.513E+03     147.817E+06    -61.7194E+06     643.059E+03         29.5785
             786     14.7644E-03     24.8397E-03     863.581E-03     573.772E-03    -971.634E-03     486.566E-03    -594.619E-03     573.772E-03        -1.46173     32.8200E-03    -15.5821E-03    -17.2379E-03    -15.5481E-03     31.1302E-03    -15.5821E-03     18.0112E-03     95.0532E+06     1.64544E+06    -39.8538E+06     1.72062E+06     94.9780E+06    -39.8538E+06     1.94038E+06         27.9503
             787     13.7795E-03     24.8220E-03     824.202E-03     573.533E-03    -932.564E-03     622.379E-03    -730.740E-03     573.533E-03        -1.09054     32.7978E-03    -15.7768E-03    -17.0210E-03    -15.6937E-03     31.4705E-03    -15.7768E-03     16.0374E-03     50.6748E+06     3.40340E+06    -16.1055E+06     3.66322E+06     50.4150E+06    -16.1055E+06     3.03460E+06         26.5554
             788     12.7951E-03     24.8066E-03     894.711E-03     563.387E-03    -985.593E-03     741.779E-03    -832.662E-03     563.387E-03        -1.02103     32.6335E-03    -15.9038E-03    -16.7296E-03    -15.7023E-03     31.6061E-03    -15.9038E-03     14.0137E-03     20.8768E+06     2.76731E+06    -2.20565E+06     5.41462E+06     18.2294E+06    -2.20565E+06     2.31828E+06         25.4621
             789     11.8105E-03     24.7931E-03         1.01905     544.731E-03        -1.07803     789.235E-03    -848.211E-03     544.731E-03        -1.30032     32.6035E-03    -15.9802E-03    -16.6233E-03    -15.8522E-03     31.8324E-03    -15.9802E-03     12.2205E-03     6.19079E+06     1.27009E+06    -19.0975E+06     5.87307E+06    -17.7002E+06     190.512E+03     1.31086E+06         24.6499
             790     10.8263E-03     24.7811E-03         1.09168     523.708E-03        -1.11497     726.058E-03    -749.348E-03     523.708E-03        -1.62556     32.7601E-03    -16.0589E-03    -16.7012E-03    -16.0208E-03     32.0797E-03    -16.0589E-03     11.5128E-03     8.21842E+06     3.57860E+06    -46.2850E+06     5.70957E+06    -46.2520E+06     6.05447E+06     1.30149E+06         24.0614
             791     9.84204E-03     24.7693E-03     972.311E-03     508.377E-03    -966.523E-03     599.041E-03    -593.253E-03     508.377E-03        -1.52323     32.6986E-03    -16.1287E-03    -16.5699E-03    -16.0165E-03     32.1452E-03    -16.1287E-03     10.3619E-03     13.8654E+06     5.04391E+06    -63.4445E+06     5.01551E+06    -63.4161E+06     13.8654E+06     1.36659E+06         23.6360
             792     8.85775E-03     24.7596E-03     809.170E-03     504.355E-03    -789.237E-03     468.286E-03    -448.353E-03     504.355E-03     21.4105E-03     32.6490E-03    -16.1804E-03    -16.4686E-03    -16.0040E-03     32.1844E-03    -16.1804E-03     9.50754E-03     17.1751E+06     3.60775E+06      -80.68E+06     3.57775E+06    -80.6500E+06     17.1751E+06     1.57874E+06         23.3241
             793     7.87341E-03     24.7496E-03         1.04211     514.224E-03        -1.02300     366.592E-03    -347.488E-03     514.224E-03         1.87939     32.6715E-03    -16.2213E-03    -16.4502E-03    -16.0389E-03     32.2602E-03    -16.2213E-03     8.94309E-03     17.5991E+06     1.72816E+06    -98.4304E+06     1.68409E+06    -98.3863E+06     17.5991E+06     2.09250E+06         23.0901
             794     6.88923E-03     24.7411E-03     923.153E-03     472.207E-03    -850.986E-03     334.790E-03    -327.154E-03     536.737E-03         1.44176     32.6623E-03    -16.2528E-03    -16.4095E-03    -16.0641E-03     32.3170E-03    -16.2528E-03     8.19720E-03     16.4793E+06    -810.333E+03    -114.030E+06    -863.073E+03    -113.978E+06     16.4793E+06     2.37437E+06         22.9111
             795     5.90493E-03     24.7328E-03     568.405E-03     448.698E-03    -456.831E-03     351.545E-03    -359.679E-03     568.405E-03    -88.5347E-03     32.6409E-03    -16.2673E-03    -16.3736E-03    -16.0885E-03     32.3558E-03    -16.2673E-03     7.44374E-03     11.9966E+06    -3.97102E+06    -128.330E+06    -4.01759E+06    -128.283E+06     11.9966E+06     2.32398E+06         22.7723
             796     4.92075E-03     24.7258E-03     971.815E-03     551.356E-03    -941.788E-03     400.691E-03    -425.841E-03     606.533E-03     988.576E-03     32.6274E-03    -16.2776E-03    -16.3498E-03    -16.1276E-03     32.4052E-03    -16.2776E-03     6.56586E-03     6.17458E+06    -7.29966E+06    -143.690E+06    -7.33334E+06    -143.656E+06     6.17458E+06     2.08986E+06         22.6650
             797     3.93646E-03     24.7193E-03         1.01645     569.924E-03    -979.983E-03     456.435E-03    -501.212E-03     651.168E-03         1.48386     32.6261E-03    -16.2870E-03    -16.3392E-03    -16.1800E-03     32.4670E-03    -16.2870E-03     5.54568E-03     234.549E+03    -10.6607E+06    -159.876E+06    -10.6821E+06    -159.855E+06     234.549E+03     1.69717E+06         22.5832
             798     2.95244E-03     24.7145E-03         1.24992     621.428E-03        -1.24382     538.713E-03    -613.854E-03     702.673E-03         1.94561     32.5975E-03    -16.2852E-03    -16.3123E-03    -16.2110E-03     32.4981E-03    -16.2871E-03     4.35926E-03    -6.15548E+06    -13.6712E+06    -173.019E+06    -13.6817E+06    -173.009E+06    -6.15548E+06     1.26266E+06         22.5232
             799     1.96818E-03     24.7104E-03         2.37426     766.248E-03        -2.48951     620.666E-03    -735.913E-03     766.248E-03        -1.15374     32.5500E-03    -16.2640E-03    -16.2859E-03    -16.2176E-03     32.5006E-03    -16.2829E-03     3.02350E-03    -12.3074E+06    -15.7799E+06    -179.496E+06    -15.7844E+06    -179.491E+06    -12.3074E+06     687.017E+03         22.4824
             800     984.062E-06     24.7084E-03         4.88054     692.307E-03        -4.91371     912.701E-03    -945.867E-03     692.307E-03         3.79584     32.5631E-03    -16.2445E-03    -16.3186E-03    -16.2844E-03     32.5458E-03    -16.2615E-03     1.73947E-03    -16.1505E+06    -17.6273E+06    -181.203E+06    -17.0944E+06    -181.200E+06    -16.6864E+06     10.3330E+03         22.4583
             801     16.7331E-03     23.8444E-03     511.414E-03     284.984E-03    -173.803E-03    -16.6266E-03     165.825E-03     473.396E-03    -24.0995E-03     31.2317E-03    -14.8214E-03    -16.4102E-03    -14.7589E-03     30.3647E-03    -15.6058E-03     6.24473E-03     202.136E+06     32.7976E+06    -37.4590E+06    -2.35061E+06     202.119E+06    -2.29350E+06    -345.593E+03         31.2441
             802     15.7486E-03     23.8277E-03     716.158E-03     359.729E-03    -480.270E-03     367.314E-03    -262.334E-03     490.638E-03    -830.850E-03     32.6178E-03    -15.3995E-03    -17.2182E-03    -15.3987E-03     30.7983E-03    -15.3995E-03     18.6568E-03     146.137E+06    -717.847E+03    -60.7071E+06    -662.944E+03     146.082E+06    -60.7071E+06     1.23698E+06         29.5744
             803     14.7637E-03     23.8066E-03     941.668E-03     487.906E-03    -851.000E-03     635.360E-03    -544.693E-03     487.906E-03        -1.31755     32.9136E-03    -15.5969E-03    -17.3167E-03    -15.6064E-03     31.2033E-03    -15.5969E-03     18.1291E-03     94.5802E+06     1.90004E+06    -38.2131E+06     2.01780E+06     94.4624E+06    -38.2131E+06     3.06699E+06         27.9520
             804     13.7797E-03     23.7903E-03     934.350E-03     469.617E-03    -831.099E-03     794.148E-03    -690.897E-03     469.617E-03    -924.205E-03     32.8246E-03    -15.7674E-03    -17.0572E-03    -15.7386E-03     31.5059E-03    -15.7674E-03     15.9977E-03     51.7049E+06     4.07048E+06    -17.9282E+06     4.19834E+06     51.5771E+06    -17.9282E+06     1.69901E+06         26.5596
             805     12.7951E-03     23.7738E-03     949.841E-03     440.688E-03    -813.336E-03     844.035E-03    -707.530E-03     440.688E-03    -828.488E-03     32.7168E-03    -15.8897E-03    -16.8272E-03    -15.8073E-03     31.6970E-03    -15.8897E-03     13.9710E-03     22.0314E+06     3.48518E+06    -3.89178E+06     6.84112E+06     18.6755E+06    -3.89178E+06     1.17105E+06         25.4662
             806     11.8107E-03     23.7614E-03     972.191E-03     407.937E-03    -791.741E-03     778.728E-03    -598.278E-03     407.937E-03        -1.08134     32.6288E-03    -15.9713E-03    -16.6575E-03    -15.8949E-03     31.8662E-03    -15.9713E-03     12.1647E-03      8.3979E+06     1.47819E+06    -17.7962E+06     7.95900E+06    -16.7641E+06     884.963E+03     2.02627E+06         24.6525
             807     10.8263E-03     23.7483E-03         1.00113     378.906E-03    -778.115E-03     639.732E-03    -416.720E-03     378.906E-03        -1.40477     32.6903E-03    -16.0479E-03    -16.6424E-03    -15.9645E-03     32.0124E-03    -16.0479E-03     11.4715E-03     9.18474E+06     4.37464E+06    -45.9779E+06     7.52802E+06    -45.9010E+06     5.95445E+06      1.8769E+06         24.0622
             808     9.84209E-03     23.7374E-03     887.307E-03     359.899E-03    -633.168E-03     470.448E-03    -216.309E-03     359.899E-03        -1.33568     32.6656E-03    -16.1246E-03    -16.5409E-03    -15.9958E-03     32.1205E-03    -16.1246E-03     10.2814E-03     14.1466E+06     6.34691E+06    -63.2908E+06     6.27336E+06    -63.2173E+06     14.1466E+06     2.12532E+06         23.6352
             809     8.85771E-03     23.7270E-03     792.727E-03     356.874E-03    -525.782E-03     285.573E-03    -18.6283E-03     356.874E-03     133.788E-03     32.6328E-03    -16.1779E-03    -16.4549E-03    -15.9955E-03     32.1734E-03    -16.1779E-03     9.45052E-03     17.3309E+06     4.11785E+06    -80.1585E+06     4.04439E+06    -80.0850E+06     17.3309E+06     2.30819E+06         23.3222
             810     7.87350E-03     23.7177E-03         1.10682     375.291E-03    -848.540E-03     123.252E-03     135.025E-03     375.291E-03         1.91979     32.6305E-03    -16.2184E-03    -16.4121E-03    -16.0032E-03     32.2216E-03    -16.2184E-03     8.91224E-03     16.8348E+06     1.56046E+06    -98.4074E+06     1.50509E+06    -98.3520E+06     16.8348E+06     2.33167E+06         23.0878
             811     6.88910E-03     23.7086E-03     919.610E-03     365.785E-03    -639.708E-03     62.0825E-03     168.464E-03     415.141E-03         1.42755     32.6339E-03    -16.2559E-03    -16.3780E-03    -16.0319E-03     32.2878E-03    -16.2559E-03     8.19961E-03     15.9586E+06    -940.551E+03    -113.799E+06    -1.00759E+06    -113.732E+06     15.9586E+06     2.72203E+06         22.9086
             812     5.90489E-03     23.7008E-03     483.608E-03     359.472E-03    -179.513E-03     85.8620E-03     106.115E-03     471.591E-03    -40.8118E-03     32.6389E-03    -16.2768E-03    -16.3621E-03    -16.0783E-03     32.3551E-03    -16.2768E-03     7.42641E-03     12.1892E+06    -3.66796E+06    -127.415E+06    -3.73624E+06    -127.346E+06     12.1892E+06     2.86544E+06         22.7701
             813     4.92061E-03     23.6934E-03     871.789E-03     475.502E-03    -663.570E-03     186.248E-03    -40.7921E-03     538.265E-03     928.009E-03     32.6429E-03    -16.2906E-03    -16.3524E-03    -16.1306E-03     32.4212E-03    -16.2906E-03     6.56069E-03     6.67878E+06    -6.70585E+06    -142.487E+06    -6.76269E+06     -142.43E+06     6.67878E+06     2.73863E+06         22.6631
             814     3.93652E-03     23.6874E-03     938.776E-03     557.968E-03    -789.112E-03     347.447E-03    -245.067E-03     605.253E-03         1.46632     32.6394E-03    -16.3029E-03    -16.3364E-03    -16.1783E-03     32.4812E-03    -16.3030E-03     5.52755E-03     741.995E+03    -9.88724E+06    -158.522E+06    -9.92375E+06    -158.485E+06     741.995E+03     2.24428E+06         22.5818
             815     2.95223E-03     23.6820E-03         1.13485     605.612E-03        -1.01307     558.581E-03    -484.089E-03     652.896E-03         1.76591     32.6188E-03    -16.3036E-03    -16.3152E-03    -16.2118E-03     32.5206E-03    -16.3087E-03     4.33618E-03    -5.76545E+06    -12.8569E+06    -171.629E+06    -12.8722E+06    -171.613E+06    -5.76545E+06     1.43042E+06         22.5223
             816     1.96818E-03     23.6786E-03         2.06871     682.598E-03        -1.99484     625.532E-03    -551.668E-03     682.598E-03    -951.350E-03     32.6083E-03    -16.2965E-03    -16.3118E-03    -16.2518E-03     32.5591E-03    -16.3073E-03     3.02483E-03    -11.7874E+06    -15.3044E+06    -178.166E+06    -15.3101E+06    -178.160E+06    -11.7874E+06     796.118E+03         22.4818
             817     984.063E-06     23.6758E-03         4.04762     677.159E-03        -3.95486     715.990E-03    -623.233E-03     677.159E-03         3.07004     32.6064E-03    -16.2712E-03    -16.3352E-03    -16.3120E-03     32.5888E-03    -16.2768E-03     1.76152E-03    -15.7325E+06    -17.4388E+06    -180.224E+06    -16.9061E+06    -180.221E+06    -16.2684E+06     584.018E+03         22.4578
             818     16.7337E-03     22.8128E-03     566.150E-03     307.488E-03    -129.669E-03    -92.4035E-03     465.920E-03     370.452E-03     63.9961E-03     31.1746E-03    -14.7931E-03    -16.3815E-03    -14.7293E-03     30.3362E-03    -15.6069E-03     6.27323E-03     202.359E+06     33.0983E+06    -37.5054E+06    -2.44924E+06     202.339E+06    -1.93731E+06     323.882E+03         31.2317
             819     15.7485E-03     22.7949E-03     654.649E-03     321.280E-03    -266.954E-03     329.449E-03    -4.71763E-03     384.244E-03    -655.053E-03     32.6056E-03    -15.3914E-03    -17.2143E-03    -15.4705E-03     30.8618E-03    -15.3914E-03     18.2870E-03     144.301E+06    -847.883E+03    -62.4321E+06    -789.205E+03     144.243E+06    -62.4321E+06     608.072E+03         29.5685
             820     14.7644E-03     22.7746E-03     920.359E-03     373.838E-03    -607.534E-03     667.117E-03    -354.292E-03     373.838E-03        -1.08471     32.8573E-03    -15.5827E-03    -17.2746E-03    -15.6279E-03     31.2105E-03    -15.5827E-03     17.8043E-03     94.2708E+06     4.22096E+06    -39.4321E+06     4.31087E+06     94.1808E+06    -39.4321E+06     1.82716E+06         27.9516
             821     13.7794E-03     22.7576E-03     927.871E-03     344.163E-03    -594.370E-03     837.480E-03    -503.980E-03     344.163E-03    -688.856E-03     32.8071E-03    -15.7581E-03    -17.0490E-03    -15.7535E-03     31.5116E-03    -15.7581E-03     15.8519E-03     53.6931E+06     7.05825E+06    -17.1861E+06     7.22357E+06     53.5277E+06    -17.1861E+06     1.72334E+06         26.5615
             822     12.7952E-03     22.7416E-03     897.368E-03     304.290E-03    -521.705E-03     828.503E-03    -452.840E-03     304.290E-03    -591.890E-03     32.7503E-03    -15.8773E-03    -16.8730E-03    -15.8869E-03     31.7641E-03    -15.8773E-03     13.7444E-03     21.4767E+06     3.19845E+06    -4.71562E+06     6.58344E+06     18.0918E+06    -4.71562E+06     1.37720E+06         25.4680
             823     11.8109E-03     22.7287E-03     864.599E-03     263.985E-03    -438.850E-03     702.079E-03    -276.329E-03     263.985E-03    -829.097E-03     32.5742E-03    -15.9560E-03    -16.6182E-03    -15.8705E-03     31.8265E-03    -15.9560E-03     12.0367E-03     6.79778E+06     796.659E+03    -17.6415E+06     6.45540E+06    -16.5250E+06     22.5062E+03     2.20088E+06         24.6528
             824     10.8265E-03     22.7165E-03     898.817E-03     230.626E-03    -427.876E-03     523.975E-03    -53.0338E-03     230.626E-03        -1.15007     32.6243E-03    -16.0371E-03    -16.5872E-03    -15.9067E-03     31.9438E-03    -16.0371E-03     11.4769E-03     8.31964E+06     4.37910E+06    -45.4377E+06     6.72037E+06    -45.3030E+06     5.84374E+06     2.52955E+06         24.0607
             825     9.84202E-03     22.7047E-03     834.981E-03     211.467E-03    -334.614E-03     295.030E-03     205.337E-03     211.467E-03        -1.08246     32.6111E-03    -16.1168E-03    -16.4942E-03    -15.9553E-03     32.0721E-03    -16.1168E-03     10.2108E-03     13.8480E+06     6.23465E+06    -63.6759E+06     6.11851E+06    -63.5598E+06     13.8480E+06     2.80067E+06         23.6322
             826     8.85785E-03     22.6951E-03     875.755E-03     213.708E-03    -369.140E-03     72.1464E-03     434.468E-03     213.708E-03     299.537E-03     32.5930E-03    -16.1751E-03    -16.4180E-03    -15.9672E-03     32.1422E-03    -16.1751E-03     9.35574E-03     17.9472E+06     4.78476E+06    -79.4332E+06     4.65575E+06    -79.3042E+06     17.9472E+06     3.20048E+06         23.3182
             827     7.87339E-03     22.6853E-03         1.30654     238.879E-03    -815.972E-03    -58.5461E-03     549.117E-03     238.879E-03         2.01459     32.6001E-03    -16.2178E-03    -16.3823E-03    -15.9791E-03     32.1969E-03    -16.2178E-03     8.84570E-03     17.2377E+06     2.26893E+06    -97.9562E+06     2.16120E+06    -97.8484E+06     17.2377E+06     3.19287E+06         23.0833
             828     6.88913E-03     22.6767E-03         1.09928     284.837E-03    -639.948E-03    -114.648E-03     573.979E-03     284.837E-03         1.46551     32.6072E-03    -16.2557E-03    -16.3514E-03    -16.0090E-03     32.2648E-03    -16.2557E-03     8.15078E-03     15.6774E+06    -627.015E+03    -113.370E+06    -712.394E+03    -113.284E+06     15.6774E+06     3.07684E+06         22.9040
             829     5.90480E-03     22.6684E-03     608.034E-03     336.596E-03    -181.943E-03    -135.919E-03     545.527E-03     353.079E-03     26.0915E-03     32.6233E-03    -16.2813E-03    -16.3421E-03    -16.0615E-03     32.3427E-03    -16.2813E-03     7.38108E-03     12.1279E+06    -3.54659E+06    -126.619E+06    -3.62521E+06    -126.540E+06     12.1279E+06     3.09279E+06         22.7658
             830     4.92062E-03     22.6614E-03     861.634E-03     421.858E-03    -500.091E-03    -15.5717E-03     360.631E-03     438.342E-03     814.899E-03     32.6402E-03    -16.2990E-03    -16.3412E-03    -16.1220E-03     32.4210E-03    -16.2990E-03     6.52234E-03     6.80160E+06    -6.40083E+06    -141.416E+06    -6.47192E+06    -141.345E+06     6.80160E+06     3.07873E+06         22.6591
             831     3.93634E-03     22.6549E-03     905.996E-03     508.313E-03    -607.843E-03     221.855E-03     64.2693E-03     520.342E-03         1.42924     32.6497E-03    -16.3149E-03    -16.3348E-03    -16.1790E-03     32.4939E-03    -16.3149E-03     5.48538E-03     1.15803E+06    -9.18417E+06    -156.907E+06    -9.23146E+06    -156.860E+06     1.15803E+06     2.59206E+06         22.5783
             832     2.95229E-03     22.6501E-03         1.00027     556.038E-03    -731.529E-03     502.339E-03    -245.628E-03     568.068E-03         1.52417     32.6499E-03    -16.3201E-03    -16.3298E-03    -16.2293E-03     32.5539E-03    -16.3246E-03     4.28742E-03    -4.69820E+06    -12.0699E+06    -169.739E+06    -12.0961E+06    -169.713E+06    -4.69820E+06     1.89772E+06         22.5192
             833     1.96810E-03     22.6460E-03         1.58989     578.668E-03        -1.30999     578.504E-03    -298.605E-03     578.668E-03    -634.164E-03     32.6413E-03    -16.3155E-03    -16.3257E-03    -16.2725E-03     32.5925E-03    -16.3200E-03     3.02282E-03    -10.9472E+06    -15.0291E+06    -176.814E+06    -15.0427E+06    -176.801E+06    -10.9472E+06     1.31676E+06         22.4790
             834     984.077E-06     22.6439E-03         2.90924     622.615E-03        -2.65689     534.239E-03    -281.887E-03     622.615E-03         2.13434     32.6174E-03    -16.2580E-03    -16.3594E-03    -16.3417E-03     32.5997E-03    -16.2580E-03     1.75220E-03    -15.8813E+06    -17.4454E+06    -178.907E+06    -17.3253E+06    -178.899E+06    -16.0094E+06     1.07331E+06         22.4552
             835     16.7334E-03     21.7810E-03     791.185E-03     228.360E-03    -169.103E-03    -159.772E-03     781.854E-03     228.360E-03     183.288E-03     31.3338E-03    -14.8872E-03    -16.4465E-03    -14.8508E-03     30.4383E-03    -15.5875E-03     6.55947E-03     201.908E+06     32.1188E+06    -37.5202E+06    -2.02074E+06     201.896E+06    -3.36958E+06     980.100E+03         31.2175
             836     15.7491E-03     21.7620E-03     685.885E-03     237.890E-03    -112.511E-03     231.844E-03     341.530E-03     237.890E-03    -460.572E-03     32.5778E-03    -15.3673E-03    -17.2105E-03    -15.4526E-03     30.8199E-03    -15.3673E-03     18.3733E-03     145.143E+06    -854.253E+03    -63.8316E+06    -836.904E+03     145.126E+06    -63.8316E+06     649.777E+03         29.5608
             837     14.7643E-03     21.7427E-03     799.598E-03     225.329E-03    -236.979E-03     516.380E-03     46.2382E-03     225.329E-03    -833.761E-03     32.8277E-03    -15.5478E-03    -17.2799E-03    -15.6503E-03     31.1980E-03    -15.5478E-03     17.7363E-03     93.4709E+06     2.72993E+06    -43.5709E+06     2.75842E+06     93.4424E+06    -43.5709E+06    -142.439E+03         27.9492
             838     13.7799E-03     21.7252E-03     740.273E-03     207.543E-03    -170.693E-03     665.926E-03    -84.8483E-03     196.046E-03    -423.981E-03     32.7979E-03    -15.7408E-03    -17.0570E-03    -15.7645E-03     31.5053E-03    -15.7408E-03     15.8276E-03     53.0167E+06     5.38761E+06    -17.5065E+06     5.71801E+06     52.6863E+06    -17.5065E+06     2.24353E+06         26.5614
             839     12.7956E-03     21.7090E-03     720.160E-03     187.034E-03    -128.229E-03     679.472E-03    -57.3022E-03     156.795E-03    -330.127E-03     32.6188E-03    -15.8740E-03    -16.7448E-03    -15.7902E-03     31.6641E-03    -15.8740E-03     13.5079E-03     22.7862E+06     3.25182E+06    -1.56019E+06     6.56145E+06     19.4765E+06    -1.56019E+06     3.02811E+06         25.4675
             840     11.8110E-03     21.6969E-03     731.250E-03     160.684E-03    -103.842E-03     578.211E-03     94.4592E-03     115.422E-03    -561.618E-03     32.5247E-03    -15.9425E-03    -16.5822E-03    -15.8415E-03     31.7839E-03    -15.9425E-03     11.9707E-03     6.70815E+06     828.978E+03    -17.8805E+06     6.38985E+06    -16.8324E+06     99.2304E+03     1.98450E+06         24.6506
             841     10.8265E-03     21.6840E-03     842.887E-03     107.601E-03    -152.063E-03     372.946E-03     344.399E-03     81.0806E-03    -883.207E-03     32.6076E-03    -16.0218E-03    -16.5858E-03    -15.9152E-03     31.9371E-03    -16.0218E-03     11.3896E-03     8.41233E+06     4.12134E+06    -45.4154E+06     6.58979E+06    -45.2584E+06     5.78686E+06     2.81953E+06         24.0565
             842     9.84235E-03     21.6728E-03     910.906E-03     63.9839E-03    -167.550E-03     107.927E-03     635.429E-03     63.9839E-03    -805.282E-03     32.5328E-03    -16.1001E-03    -16.4327E-03    -15.9036E-03     32.0037E-03    -16.1001E-03     10.1047E-03     13.3959E+06     5.94791E+06    -63.4448E+06     5.79869E+06    -63.2956E+06     13.3959E+06     3.15585E+06         23.6263
             843     8.85775E-03     21.6627E-03         1.09011     70.1403E-03    -346.643E-03    -106.231E-03     849.696E-03     70.1403E-03     481.986E-03     32.5269E-03    -16.1620E-03    -16.3648E-03    -15.9235E-03     32.0855E-03    -16.1620E-03     9.24498E-03     17.4437E+06     4.57492E+06    -79.5607E+06     4.43052E+06    -79.4163E+06     17.4437E+06     3.47394E+06         23.3112
             844     7.87354E-03     21.6533E-03         1.57660     97.7701E-03    -851.552E-03    -208.774E-03     933.822E-03     97.7701E-03         2.11479     32.5733E-03    -16.2088E-03    -16.3645E-03    -15.9735E-03     32.1822E-03    -16.2088E-03     8.70757E-03     17.7421E+06     2.77501E+06    -96.9585E+06     2.61104E+06    -96.7945E+06     17.7421E+06     4.00157E+06         23.0756
             845     6.88915E-03     21.6443E-03         1.39796     143.215E-03    -703.353E-03    -242.208E-03     936.819E-03     143.215E-03         1.51916     32.5721E-03    -16.2444E-03    -16.3276E-03    -15.9945E-03     32.2389E-03    -16.2444E-03     8.03676E-03     15.7753E+06    -58.4074E+03    -112.262E+06    -190.681E+03    -112.129E+06     15.7753E+06     3.79638E+06         22.8961
             846     5.90486E-03     21.6364E-03     921.348E-03     208.531E-03    -271.613E-03    -259.082E-03     908.818E-03     208.531E-03     130.324E-03     32.5806E-03    -16.2701E-03    -16.3105E-03    -16.0360E-03     32.3061E-03    -16.2701E-03     7.29598E-03     11.6864E+06    -3.23394E+06    -125.905E+06    -3.33452E+06    -125.804E+06     11.6864E+06     3.48984E+06         22.7579
             847     4.92056E-03     21.6290E-03         1.00619     290.832E-03    -417.782E-03    -154.017E-03     742.429E-03     290.832E-03     734.677E-03     32.6075E-03    -16.2926E-03    -16.3149E-03    -16.1015E-03     32.3941E-03    -16.2926E-03     6.42886E-03     6.75153E+06    -6.24460E+06    -140.273E+06    -6.32706E+06    -140.190E+06     6.75153E+06     3.30329E+06         22.6515
             848     3.93642E-03     21.6230E-03         1.04414     374.237E-03    -515.471E-03     54.2666E-03     474.398E-03     374.237E-03         1.44800     32.6278E-03    -16.3055E-03    -16.3223E-03    -16.1659E-03     32.4766E-03    -16.3107E-03     5.40484E-03     1.09567E+06    -9.37278E+06    -155.264E+06    -9.43285E+06    -155.204E+06     1.09567E+06     2.90684E+06         22.5709
             849     2.95220E-03     21.6176E-03     932.238E-03     434.242E-03    -445.784E-03     308.907E-03     177.547E-03     434.242E-03         1.29483     32.6457E-03    -16.3124E-03    -16.3333E-03    -16.2327E-03     32.5516E-03    -16.3189E-03     4.24541E-03    -4.90976E+06    -12.2285E+06    -168.033E+06    -12.2647E+06    -167.997E+06    -4.90976E+06     2.29484E+06         22.5121
             850     1.96817E-03     21.6141E-03         1.00369     473.926E-03    -523.155E-03     396.400E-03     84.1346E-03     473.926E-03    -248.181E-03     32.6379E-03    -16.3118E-03    -16.3261E-03    -16.2770E-03     32.5900E-03    -16.3130E-03     2.99370E-03    -10.3404E+06    -14.4921E+06    -175.120E+06    -14.5122E+06    -175.099E+06    -10.3404E+06     1.71092E+06         22.4720
             851     984.049E-06     21.6112E-03         1.58941     611.635E-03        -1.23100     374.413E-03    -16.0023E-03     611.635E-03         1.06725     32.6002E-03    -16.2648E-03    -16.3354E-03    -16.3181E-03     32.5829E-03    -16.2648E-03     1.73014E-03    -14.5202E+06    -16.3508E+06    -176.807E+06    -16.2339E+06    -176.796E+06    -14.6483E+06     1.03127E+06         22.4485
             852     16.7343E-03     20.7487E-03         1.15759     49.3810E-03    -270.030E-03    -261.112E-03         1.14868     49.3810E-03     212.760E-03     31.4722E-03    -15.0329E-03    -16.4392E-03    -15.0096E-03     30.5818E-03    -15.5723E-03     6.66275E-03     201.380E+06     32.4605E+06    -38.0677E+06    -1.47830E+06     201.377E+06    -4.12581E+06     685.501E+03         31.2014
             853     15.7491E-03     20.7300E-03     939.594E-03     55.8939E-03    -92.5252E-03     60.5769E-03     786.492E-03     55.8939E-03    -331.612E-03     32.5583E-03    -15.3471E-03    -17.2112E-03    -15.4488E-03     30.7959E-03    -15.3471E-03     18.3922E-03     146.115E+06     64.2868E+03    -64.0396E+06      75.811E+03     146.104E+06    -64.0396E+06     938.970E+03         29.5511
             854     14.7646E-03     20.7102E-03     860.334E-03     78.3994E-03    -58.2120E-03     234.067E-03     600.559E-03     45.8959E-03    -639.774E-03     32.8532E-03    -15.5259E-03    -17.3273E-03    -15.7013E-03     31.2271E-03    -15.5259E-03     17.7249E-03     93.8345E+06     1.89553E+06    -44.2778E+06     1.94744E+06     93.7826E+06    -44.2778E+06     1.04678E+06         27.9448
             855     13.7804E-03     20.6927E-03     730.377E-03     133.676E-03     7.08533E-03     335.985E-03     509.841E-03     25.3126E-03    -193.158E-03     32.7411E-03    -15.7031E-03    -17.0380E-03    -15.7382E-03     31.4413E-03    -15.7031E-03     15.8661E-03     50.8927E+06     3.84326E+06    -21.7236E+06     4.20191E+06     50.5340E+06    -21.7236E+06     783.158E+03         26.5590
             856     12.7956E-03     20.6771E-03     702.459E-03     174.087E-03    -3.73339E-03     394.200E-03     482.346E-03    -3.73339E-03    -92.6655E-03     32.5452E-03    -15.8418E-03    -16.7034E-03    -15.7418E-03     31.5836E-03    -15.8418E-03     13.5179E-03     23.9884E+06     3.49813E+06    -3.87480E+06     7.65208E+06     19.6027E+06    -3.64301E+06     2.40941E+06         25.4643
             857     11.8112E-03     20.6644E-03     765.703E-03     153.488E-03    -37.1506E-03     346.764E-03     572.428E-03    -37.1506E-03    -324.383E-03     32.5332E-03    -15.9200E-03    -16.6131E-03    -15.8938E-03     31.8138E-03    -15.9200E-03     11.8029E-03     9.32627E+06     715.713E+03    -17.5544E+06     7.99393E+06    -15.9920E+06     485.656E+03     3.53107E+06         24.6454
             858     10.8270E-03     20.6519E-03     961.506E-03     27.5505E-03    -96.9090E-03     176.198E-03     781.887E-03    -65.9373E-03    -647.769E-03     32.5592E-03    -15.9921E-03    -16.5671E-03    -15.9201E-03     31.9122E-03    -15.9921E-03     11.1834E-03     8.42482E+06     3.29318E+06    -45.6278E+06     6.64944E+06    -45.4051E+06     4.84582E+06     3.18458E+06         24.0489
             859     9.84238E-03     20.6406E-03         1.13413    -75.4513E-03    -159.222E-03    -45.4243E-03         1.02514    -80.2606E-03    -580.304E-03     32.4681E-03    -16.0718E-03    -16.3964E-03    -15.8861E-03     31.9579E-03    -16.0718E-03     9.91291E-03     13.2773E+06     6.15756E+06    -63.0152E+06     5.95977E+06    -62.8174E+06     13.2773E+06     3.61740E+06         23.6165
             860     8.85812E-03     20.6307E-03         1.37744    -74.7362E-03    -397.920E-03    -230.996E-03         1.21052    -74.7362E-03     614.808E-03     32.4582E-03    -16.1313E-03    -16.3269E-03    -15.9035E-03     32.0348E-03    -16.1313E-03     9.04615E-03     16.8113E+06     4.35254E+06    -79.6041E+06     4.15651E+06    -79.4081E+06     16.8113E+06     3.97061E+06         23.2997
             861     7.87364E-03     20.6210E-03         1.85595    -49.6471E-03    -893.302E-03    -333.683E-03         1.29633    -49.6471E-03         2.17920     32.4919E-03    -16.1769E-03    -16.3151E-03    -15.9415E-03     32.1184E-03    -16.1769E-03     8.50039E-03     17.0352E+06     2.20282E+06    -96.4707E+06     2.02444E+06    -96.2923E+06     17.0352E+06     4.18942E+06         23.0630
             862     6.88936E-03     20.6124E-03         1.67145    -10.7960E-03    -733.455E-03    -324.605E-03         1.26260    -10.7960E-03         1.53553     32.5067E-03    -16.2124E-03    -16.2942E-03    -15.9762E-03     32.1887E-03    -16.2124E-03     7.84490E-03     15.5829E+06    -67.7607E+03    -111.137E+06    -249.412E+03    -110.955E+06     15.5829E+06     4.45456E+06         22.8828
             863     5.90501E-03     20.6041E-03         1.20519     36.7775E-03    -293.280E-03    -281.131E-03         1.19304     36.7775E-03     243.798E-03     32.5068E-03    -16.2361E-03    -16.2707E-03    -16.0080E-03     32.2441E-03    -16.2361E-03     7.12974E-03     11.4747E+06    -3.08248E+06    -124.588E+06    -3.23368E+06    -124.437E+06     11.4747E+06     4.23193E+06         22.7443
             864     4.92073E-03     20.5970E-03         1.23077     94.0567E-03    -353.908E-03    -227.698E-03         1.10456     94.0567E-03     686.326E-03     32.5234E-03    -16.2539E-03    -16.2695E-03    -16.0602E-03     32.3186E-03    -16.2584E-03     6.29174E-03     6.29305E+06    -6.47514E+06    -138.997E+06    -6.59015E+06    -138.882E+06     6.29305E+06     3.86707E+06         22.6378
             865     3.93647E-03     20.5905E-03         1.37858     164.507E-03    -548.203E-03    -152.658E-03     983.030E-03     164.507E-03         1.49733     32.5548E-03    -16.2679E-03    -16.2869E-03    -16.1319E-03     32.4095E-03    -16.2776E-03     5.29235E-03     839.901E+03    -9.51325E+06    -153.474E+06    -9.58994E+06    -153.398E+06     839.901E+03     3.24401E+06         22.5573
             866     2.95231E-03     20.5857E-03         1.13424     239.081E-03    -361.100E-03     22.4283E-03     750.715E-03     239.081E-03         1.05328     32.5803E-03    -16.2794E-03    -16.3009E-03    -16.2032E-03     32.4897E-03    -16.2864E-03     4.16323E-03    -4.89915E+06    -12.3020E+06    -166.130E+06    -12.3424E+06    -166.090E+06    -4.89915E+06     2.41401E+06         22.4986
             867     1.96818E-03     20.5815E-03     837.499E-03     323.462E-03    -116.731E-03     126.980E-03     593.789E-03     323.462E-03     137.611E-03     32.5718E-03    -16.2748E-03    -16.2970E-03    -16.2492E-03     32.5259E-03    -16.2767E-03     2.92251E-03    -10.5293E+06    -14.7682E+06    -173.065E+06    -14.7883E+06    -173.045E+06    -10.5293E+06     1.60481E+06         22.4587
             868     984.126E-06     20.5795E-03         1.05357     565.430E-03    -563.292E-03     178.679E-03     311.597E-03     565.430E-03    -121.633E-03     32.5227E-03    -16.2252E-03    -16.2975E-03    -16.2812E-03     32.5064E-03    -16.2252E-03     1.67781E-03    -14.3036E+06    -16.5362E+06    -174.606E+06    -16.0084E+06    -174.599E+06    -14.8383E+06     657.165E+03         22.4352
             869     16.7339E-03     19.7161E-03         1.59177    -158.153E-03    -425.969E-03    -420.628E-03         1.58643    -158.153E-03     184.085E-03     31.5515E-03    -15.1322E-03    -16.4192E-03    -15.1282E-03     30.6935E-03    -15.5653E-03     6.42866E-03     201.465E+06     32.4660E+06    -37.7800E+06    -1.81227E+06     201.463E+06    -3.49959E+06     522.843E+03         31.1839
             870     15.7496E-03     19.6981E-03         1.40225    -151.250E-03    -268.082E-03    -211.958E-03         1.34613    -151.250E-03    -259.557E-03     32.6218E-03    -15.3331E-03    -17.2887E-03    -15.5091E-03     30.8422E-03    -15.3331E-03     18.4887E-03     145.130E+06     417.299E+03    -63.7076E+06     431.815E+03     145.116E+06    -63.7076E+06     1.04502E+06         29.5396
             871     14.7650E-03     19.6774E-03         1.28884    -122.009E-03    -200.750E-03    -105.680E-03         1.22668    -154.919E-03    -514.462E-03     32.8701E-03    -15.5114E-03    -17.3587E-03    -15.7205E-03     31.2319E-03    -15.5114E-03     17.7560E-03     94.4192E+06     4.38438E+06    -42.3516E+06     4.43575E+06     94.3678E+06    -42.3516E+06     1.86167E+06         27.9380
             872     13.7803E-03     19.6609E-03         1.18398    -60.9206E-03    -164.219E-03    -47.0565E-03         1.17012    -164.219E-03    -55.6519E-03     32.6982E-03    -15.6877E-03    -17.0105E-03    -15.7589E-03     31.4466E-03    -15.6877E-03     15.5671E-03     51.6338E+06     5.47282E+06    -19.7267E+06     5.78750E+06     51.3191E+06    -19.7267E+06     1.25138E+06         26.5537
             873     12.7960E-03     19.6446E-03         1.15304    -13.5074E-03    -177.760E-03    -8.44824E-03         1.14799    -177.760E-03     56.3793E-03     32.5747E-03    -15.8139E-03    -16.7609E-03    -15.8233E-03     31.6371E-03    -15.8139E-03     13.3519E-03     20.4175E+06     1.60541E+06    -5.35362E+06     4.72575E+06     17.0654E+06    -5.12183E+06     2.02991E+06         25.4577
             874     11.8117E-03     19.6321E-03         1.18727    -21.8068E-03    -194.083E-03    -12.2400E-03         1.17770    -194.083E-03    -150.311E-03     32.4876E-03    -15.8825E-03    -16.6051E-03    -15.9239E-03     31.8064E-03    -15.8825E-03     11.4839E-03     6.98456E+06    -191.036E+03    -17.1291E+06     5.56587E+06    -15.6059E+06    -295.453E+03     4.00337E+06         24.6360
             875     10.8272E-03     19.6197E-03         1.31506    -123.583E-03    -209.850E-03    -69.1402E-03         1.26062    -209.850E-03    -484.129E-03     32.4907E-03    -15.9475E-03    -16.5431E-03    -15.9352E-03     31.8828E-03    -15.9475E-03     10.8328E-03     7.88629E+06     3.41507E+06    -44.6599E+06     6.24545E+06    -44.3122E+06     4.70821E+06     3.85894E+06         24.0363
             876     9.84299E-03     19.6085E-03         1.44219    -211.556E-03    -242.213E-03    -186.716E-03         1.39454    -219.409E-03    -427.115E-03     32.4048E-03    -16.0206E-03    -16.3842E-03    -15.9065E-03     31.9271E-03    -16.0206E-03     9.58339E-03     12.7272E+06     5.70673E+06    -63.2829E+06     5.48645E+06    -63.0626E+06     12.7272E+06     3.85130E+06         23.6010
             877     8.85850E-03     19.5985E-03         1.66045    -216.565E-03    -451.024E-03    -321.606E-03         1.53103    -216.565E-03     688.117E-03     32.3672E-03    -16.0740E-03    -16.2933E-03    -15.8991E-03     31.9730E-03    -16.0740E-03     8.71934E-03     16.8294E+06     4.58391E+06     -78.856E+06     4.33089E+06    -78.6030E+06     16.8294E+06     4.54364E+06         23.2818
             878     7.87416E-03     19.5891E-03         2.09725    -200.611E-03    -897.926E-03    -383.677E-03         1.58300    -200.611E-03         2.20620     32.3757E-03    -16.1142E-03    -16.2615E-03    -15.9164E-03     32.0306E-03    -16.1142E-03     8.15361E-03     16.9304E+06     2.37580E+06    -96.1112E+06     2.15674E+06    -95.8921E+06     16.9304E+06     4.60643E+06         23.0432
             879     6.88972E-03     19.5802E-03         1.91894    -179.102E-03    -727.575E-03    -339.392E-03         1.53076    -179.102E-03         1.52142     32.3606E-03    -16.1467E-03    -16.2140E-03    -15.9219E-03     32.0686E-03    -16.1467E-03     7.50183E-03     15.5046E+06    -319.076E+03    -110.444E+06    -536.516E+03    -110.227E+06     15.5046E+06     4.88216E+06         22.8618
             880     5.90538E-03     19.5722E-03         1.51334    -157.159E-03    -323.471E-03    -300.653E-03         1.49052    -157.159E-03     343.381E-03     32.3634E-03    -16.1666E-03    -16.1969E-03    -15.9523E-03     32.1188E-03    -16.1666E-03     6.86475E-03     11.3682E+06    -3.15408E+06    -123.191E+06    -3.36036E+06    -122.985E+06     11.3682E+06     4.94471E+06         22.7224
             881     4.92104E-03     19.5648E-03         1.54486    -130.052E-03    -359.248E-03    -296.603E-03         1.48222    -130.052E-03     638.692E-03     32.3800E-03    -16.1807E-03    -16.1994E-03    -16.0037E-03     32.1889E-03    -16.1852E-03     6.06383E-03     6.25661E+06    -6.15095E+06    -137.190E+06    -6.30291E+06    -137.038E+06     6.25661E+06     4.41102E+06         22.6154
             882     3.93673E-03     19.5586E-03         1.82400    -85.3409E-03    -658.664E-03    -321.622E-03         1.48696    -85.3409E-03         1.56595     32.4011E-03    -16.1915E-03    -16.2096E-03    -16.0631E-03     32.2651E-03    -16.2020E-03     5.10795E-03     821.154E+03    -9.20756E+06    -151.476E+06    -9.30421E+06    -151.380E+06     821.154E+03     3.62529E+06         22.5345
             883     2.95253E-03     19.5533E-03         1.70668    -21.2465E-03    -589.152E-03    -236.837E-03         1.35437    -21.2465E-03     821.514E-03     32.4255E-03    -16.2034E-03    -16.2221E-03    -16.1289E-03     32.3402E-03    -16.2113E-03     4.02986E-03    -4.71570E+06    -12.2932E+06    -164.096E+06    -12.3481E+06    -164.041E+06    -4.71570E+06     2.79435E+06         22.4756
             884     1.96833E-03     19.5497E-03         1.48995     62.4503E-03    -423.637E-03    -133.302E-03         1.19962     62.4503E-03     534.296E-03     32.4136E-03    -16.1967E-03    -16.2169E-03    -16.1719E-03     32.3705E-03    -16.1986E-03     2.82299E-03    -10.7959E+06    -14.9774E+06    -170.755E+06    -15.0000E+06    -170.732E+06    -10.7959E+06     1.68816E+06         22.4356
             885     984.169E-06     19.5469E-03         2.12232     323.548E-03        -1.30694    -102.646E-03     918.028E-03     323.548E-03        -1.33326     32.3611E-03    -16.1441E-03    -16.2170E-03    -16.2021E-03     32.3462E-03    -16.1441E-03     1.59326E-03    -15.5314E+06    -17.3391E+06    -172.905E+06    -16.8097E+06    -172.899E+06    -16.0661E+06     779.475E+03         22.4122
             886     16.7347E-03     18.6839E-03         2.08940    -384.389E-03    -637.336E-03    -633.987E-03         2.08605    -384.389E-03     179.084E-03     31.7028E-03    -15.1797E-03    -16.5231E-03    -15.2415E-03     30.7986E-03    -15.5571E-03     6.28058E-03     201.248E+06     32.5549E+06    -37.6575E+06    -1.63849E+06     201.243E+06    -3.45945E+06     497.334E+03         31.1650
             887     15.7496E-03     18.6657E-03         2.01221    -374.245E-03    -582.312E-03    -554.838E-03         1.98474    -374.245E-03    -224.104E-03     32.7397E-03    -15.3189E-03    -17.4208E-03    -15.6416E-03     30.9605E-03    -15.3189E-03     18.5376E-03     144.670E+06     433.563E+03    -63.3866E+06     442.792E+03     144.661E+06    -63.3866E+06     955.537E+03         29.5260
             888     14.7652E-03     18.6451E-03         1.94057    -367.995E-03    -526.810E-03    -498.002E-03         1.91217    -368.401E-03    -465.804E-03     32.8840E-03    -15.4893E-03    -17.3948E-03    -15.7949E-03     31.2842E-03    -15.4893E-03     17.5663E-03     93.3503E+06     3.51219E+06    -42.4484E+06     3.55366E+06     93.3088E+06    -42.4484E+06     1.36305E+06         27.9285
             889     13.7811E-03     18.6285E-03         1.87817    -357.548E-03    -479.389E-03    -467.394E-03         1.87261    -363.980E-03    -31.9633E-03     32.7792E-03    -15.6692E-03    -17.1101E-03    -15.9004E-03     31.5696E-03    -15.6692E-03     15.3339E-03     52.0277E+06     5.22619E+06    -16.6268E+06     5.58967E+06     51.6642E+06    -16.6268E+06     3.17243E+06         26.5448
             890     12.7966E-03     18.6123E-03         1.85462    -343.168E-03    -465.772E-03    -447.095E-03         1.85261    -359.838E-03     82.5474E-03     32.6402E-03    -15.7796E-03    -16.8606E-03    -15.9743E-03     31.7538E-03    -15.7796E-03     13.0128E-03     21.4810E+06     1.87612E+06    -2.01847E+06     6.14487E+06     17.1203E+06    -1.92651E+06     3.34660E+06         25.4467
             891     11.8123E-03     18.5999E-03         1.82734    -329.496E-03    -441.566E-03    -413.295E-03         1.82597    -356.396E-03    -79.0602E-03     32.4549E-03    -15.8211E-03    -16.6338E-03    -16.0031E-03     31.8242E-03    -15.8211E-03     11.0511E-03     6.70998E+06    -161.863E+03    -17.3647E+06     6.21149E+06    -16.7618E+06    -266.280E+03     2.87246E+06         24.6212
             892     10.8281E-03     18.5876E-03         1.82266    -335.771E-03    -420.236E-03    -372.572E-03         1.79430    -355.070E-03    -403.472E-03     32.4299E-03    -15.8767E-03    -16.5532E-03    -16.0069E-03     31.8836E-03    -15.8767E-03     10.2671E-03     8.54073E+06     4.66936E+06    -43.8829E+06     6.89970E+06    -43.5011E+06     5.92857E+06     4.18114E+06         24.0173
             893     9.84371E-03     18.5764E-03         1.82553    -352.043E-03    -399.834E-03    -369.583E-03         1.79832    -355.087E-03    -336.434E-03     32.3026E-03    -15.9338E-03    -16.3688E-03    -15.9443E-03     31.8781E-03    -15.9338E-03     9.02380E-03     13.2591E+06     6.38496E+06    -63.0145E+06     6.07829E+06    -62.7078E+06     13.2591E+06     4.43397E+06         23.5780
             894     8.85935E-03     18.5666E-03         1.92153    -353.855E-03    -491.887E-03    -386.870E-03         1.81652    -353.855E-03     708.231E-03     32.2305E-03    -15.9725E-03    -16.2580E-03    -15.9111E-03     31.8836E-03    -15.9725E-03     8.16306E-03     16.8156E+06     4.60388E+06    -78.6436E+06     4.35076E+06    -78.3905E+06     16.8156E+06     4.57757E+06         23.2553
             895     7.87498E-03     18.5570E-03         2.27652    -352.637E-03    -843.912E-03    -363.547E-03         1.79615    -352.637E-03         2.17720     32.1883E-03    -16.0025E-03    -16.1858E-03    -15.8850E-03     31.8876E-03    -16.0025E-03     7.59043E-03     17.5136E+06     2.88028E+06    -95.3194E+06     2.60085E+06    -95.0400E+06     17.5136E+06     5.21554E+06         23.0139
             896     6.89058E-03     18.5484E-03         2.14691    -324.122E-03    -731.844E-03    -324.769E-03         1.77125    -355.532E-03         1.47228     32.1318E-03    -16.0265E-03    -16.1052E-03    -15.8509E-03     31.8774E-03    -16.0265E-03     6.97649E-03     16.2093E+06     310.178E+03    -109.704E+06     41.9563E+03    -109.435E+06     16.2093E+06     5.41425E+06         22.8302
             897     5.90604E-03     18.5402E-03         1.86060    -328.116E-03    -422.564E-03    -355.567E-03         1.82502    -359.526E-03     413.661E-03     32.1044E-03    -16.0373E-03    -16.0671E-03    -15.8528E-03     31.8902E-03    -16.0373E-03     6.39656E-03     11.6972E+06    -2.63158E+06    -121.794E+06    -2.87714E+06    -121.549E+06     11.6972E+06     5.38088E+06         22.6891
             898     4.92164E-03     18.5330E-03         1.91832    -343.737E-03    -443.458E-03    -384.044E-03         1.87401    -358.834E-03     583.970E-03     32.1105E-03    -16.0481E-03    -16.0624E-03    -15.8924E-03     31.9422E-03    -16.0498E-03     5.66616E-03     6.51894E+06    -5.58389E+06    -135.270E+06    -5.76918E+06    -135.085E+06     6.51894E+06     4.84912E+06         22.5808
             899     3.93729E-03     18.5266E-03         2.28493    -335.108E-03    -793.965E-03    -410.947E-03         1.91700    -350.205E-03         1.67760     32.1191E-03    -16.0541E-03    -16.0650E-03    -15.9351E-03     31.9978E-03    -16.0627E-03     4.80300E-03     1.08221E+06    -8.68044E+06    -149.397E+06    -8.81405E+06    -149.263E+06     1.08221E+06     4.29585E+06         22.4990
             900     2.95284E-03     18.5215E-03         2.40415    -337.247E-03    -893.924E-03    -378.247E-03         1.88848    -337.247E-03     632.900E-03     32.1311E-03    -16.0584E-03    -16.0726E-03    -15.9870E-03     32.0542E-03    -16.0671E-03     3.80524E-03    -5.10600E+06    -11.7184E+06    -161.620E+06    -11.7971E+06    -161.541E+06    -5.10600E+06     3.31177E+06         22.4394
             901     1.96860E-03     18.5175E-03         2.53274    -315.551E-03        -1.01108    -380.575E-03         1.90224    -315.551E-03     926.941E-03     32.1243E-03    -16.0534E-03    -16.0709E-03    -16.0244E-03     32.0855E-03    -16.0611E-03     2.66965E-03    -10.6933E+06    -14.1303E+06    -168.459E+06    -14.1590E+06    -168.431E+06    -10.6933E+06     2.02777E+06         22.3989
             902     984.297E-06     18.5153E-03         3.94954    -115.953E-03        -2.61152    -485.014E-03         1.82304    -115.953E-03        -2.45117     32.1030E-03    -16.0246E-03    -16.0783E-03    -16.0589E-03     32.0896E-03    -16.0306E-03     1.49351E-03    -14.4191E+06    -16.0016E+06    -170.786E+06    -15.6915E+06    -170.777E+06    -14.7382E+06     1.09100E+06         22.3750
             903     16.7340E-03     17.6521E-03         2.60973    -618.451E-03    -865.117E-03    -862.600E-03         2.60721    -618.451E-03     177.327E-03     31.8738E-03    -15.1199E-03    -16.7539E-03    -15.3836E-03     30.9393E-03    -15.5556E-03     6.46517E-03     200.892E+06     32.8232E+06    -38.2922E+06    -1.83333E+06     200.887E+06    -3.63066E+06    -33.1768E+03         31.1445
             904     15.7501E-03     17.6324E-03         2.66155    -604.504E-03    -930.488E-03    -912.941E-03         2.64401    -604.504E-03    -238.054E-03     32.9733E-03    -15.3044E-03    -17.6689E-03    -15.9139E-03     31.2183E-03    -15.3044E-03     18.5218E-03     144.732E+06     972.941E+03    -63.2301E+06     988.322E+03     144.717E+06    -63.2301E+06     817.120E+03         29.5102
             905     14.7660E-03     17.6134E-03         2.66325    -587.397E-03    -954.999E-03    -935.968E-03         2.64422    -587.397E-03    -485.339E-03     33.0314E-03    -15.4607E-03    -17.5707E-03    -16.0066E-03     31.4673E-03    -15.4607E-03     17.4659E-03     92.4624E+06     4.38720E+06    -41.9392E+06     4.45210E+06     92.3975E+06    -41.9392E+06     1.84726E+06         27.9157
             906     13.7813E-03     17.5955E-03         2.61238    -566.701E-03    -926.477E-03    -922.531E-03         2.60843    -566.701E-03    -78.3138E-03     32.9766E-03    -15.6186E-03    -17.3580E-03    -16.1775E-03     31.7961E-03    -15.6186E-03     15.1999E-03     50.4466E+06     6.60262E+06    -16.6797E+06     6.86967E+06     50.1795E+06    -16.6797E+06     2.95085E+06         26.5318
             907     12.7976E-03     17.5801E-03         2.53341    -544.679E-03    -864.112E-03    -862.984E-03         2.53228    -544.679E-03     34.5121E-03     32.7526E-03    -15.7058E-03    -17.0468E-03    -16.2433E-03     31.9491E-03    -15.7058E-03     12.4178E-03     23.2605E+06     4.03769E+06    -1.21061E+06     8.48771E+06     18.2673E+06    -667.440E+03     3.60281E+06         25.4304
             908     11.8135E-03     17.5675E-03         2.44242    -524.017E-03    -782.260E-03    -781.348E-03         2.44150    -524.017E-03    -99.5125E-03     32.4836E-03    -15.7241E-03    -16.7595E-03    -16.2062E-03     31.9304E-03    -15.7241E-03     10.3686E-03     9.59539E+06     1.17110E+06    -17.5586E+06     8.58866E+06    -16.5518E+06     1.17110E+06     3.62546E+06         24.6001
             909     10.8294E-03     17.5554E-03         2.36520    -506.747E-03    -711.041E-03    -692.620E-03         2.34678    -506.747E-03    -387.149E-03     32.3694E-03    -15.7553E-03    -16.6140E-03    -16.1481E-03     31.9035E-03    -15.7553E-03     9.47409E-03     10.0469E+06     5.03942E+06    -44.6662E+06     8.01637E+06    -44.3131E+06     6.71686E+06     4.17516E+06         23.9908
             910     9.84513E-03     17.5445E-03         2.26070    -494.921E-03    -612.820E-03    -594.819E-03         2.24270    -494.921E-03    -288.622E-03     32.1827E-03    -15.7892E-03    -16.3934E-03    -16.0470E-03     31.8363E-03    -15.7892E-03     8.13050E-03     14.8650E+06     7.77583E+06    -62.3609E+06     7.37098E+06    -61.9561E+06     14.8650E+06     5.13987E+06         23.5463
             911     8.86087E-03     17.5346E-03         2.20359    -492.193E-03    -557.877E-03    -476.335E-03         2.12205    -492.193E-03     684.279E-03     31.9980E-03    -15.8035E-03    -16.1945E-03    -15.9195E-03     31.7230E-03    -15.8035E-03     7.23830E-03     18.0398E+06     6.00842E+06    -78.2764E+06     5.67415E+06    -77.9421E+06     18.0398E+06     5.13400E+06         23.2188
             912     7.87640E-03     17.5254E-03         2.45759    -502.497E-03    -800.569E-03    -372.414E-03         2.02944    -502.497E-03         2.09742     31.8769E-03    -15.8141E-03    -16.0629E-03    -15.8243E-03     31.6383E-03    -15.8141E-03     6.72262E-03     18.3711E+06     3.78729E+06    -94.9492E+06     3.50133E+06    -94.6632E+06     18.3711E+06     5.29821E+06         22.9731
             913     6.89186E-03     17.5166E-03         2.36833    -422.223E-03    -784.014E-03    -333.041E-03         2.02081    -525.682E-03         1.39980     31.7910E-03    -15.8212E-03    -15.9698E-03    -15.7689E-03     31.5901E-03    -15.8212E-03     6.15855E-03     17.4229E+06     1.57370E+06    -108.792E+06     1.26038E+06    -108.479E+06     17.4229E+06     5.87104E+06         22.7858
             914     5.90739E-03     17.5087E-03         2.17478    -426.016E-03    -570.066E-03    -389.781E-03         2.12300    -554.515E-03     481.691E-03     31.6944E-03    -15.8145E-03    -15.8799E-03    -15.7109E-03     31.5255E-03    -15.8145E-03     5.63858E-03     12.8584E+06    -1.22181E+06    -120.252E+06    -1.52305E+06    -119.950E+06     12.8584E+06     5.95262E+06         22.6416
             915     4.92274E-03     17.5013E-03         2.28300    -485.772E-03    -598.611E-03    -449.032E-03         2.23071    -583.060E-03     556.679E-03     31.6337E-03    -15.8098E-03    -15.8239E-03    -15.6850E-03     31.4988E-03    -15.8138E-03     5.02873E-03     6.99626E+06    -4.41985E+06    -133.510E+06    -4.66611E+06    -133.264E+06     6.99626E+06     5.58504E+06         22.5308
             916     3.93808E-03     17.4952E-03         2.73304    -543.314E-03    -966.926E-03    -474.377E-03         2.31273    -615.561E-03         1.78931     31.6372E-03    -15.8149E-03    -15.8223E-03    -15.7194E-03     31.5393E-03    -15.8199E-03     4.27627E-03     1.43994E+06    -7.59185E+06    -147.226E+06    -7.77283E+06    -147.045E+06     1.43994E+06     4.98581E+06         22.4471
             917     2.95362E-03     17.4898E-03         3.05699    -664.018E-03        -1.14887    -487.684E-03         2.39581    -664.018E-03     483.044E-03     31.6296E-03    -15.8081E-03    -15.8214E-03    -15.7481E-03     31.5672E-03    -15.8191E-03     3.39726E-03    -4.77270E+06    -10.4934E+06    -158.660E+06    -10.6056E+06    -158.548E+06    -4.77270E+06     3.97624E+06         22.3860
             918     1.96898E-03     17.4861E-03         3.52262    -712.521E-03        -1.53335    -641.195E-03         2.63047    -712.521E-03         1.25596     31.6189E-03    -15.8003E-03    -15.8186E-03    -15.7709E-03     31.5872E-03    -15.8163E-03     2.38613E-03    -10.3012E+06    -13.0205E+06    -165.677E+06    -13.0674E+06    -165.630E+06    -10.3012E+06     2.52518E+06         22.3443
             919     984.454E-06     17.4835E-03         5.63352    -590.187E-03        -3.74365    -872.621E-03         2.76250    -590.187E-03        -3.44975     31.6244E-03    -15.7745E-03    -15.8499E-03    -15.8329E-03     31.6134E-03    -15.7805E-03     1.34273E-03    -13.4559E+06    -14.9873E+06    -168.189E+06    -14.6794E+06    -168.178E+06    -13.7750E+06     1.03934E+06         22.3197
             920     16.7341E-03     16.6180E-03         3.09566    -847.551E-03        -1.05404        -1.05305         3.09467    -847.551E-03     118.704E-03     31.8888E-03    -15.1122E-03    -16.7766E-03    -15.4789E-03     31.0336E-03    -15.5547E-03     6.53486E-03     200.970E+06     32.3687E+06    -37.7185E+06    -2.43376E+06     200.969E+06    -2.91499E+06    -308.813E+03         31.1228
             921     15.7502E-03     16.6003E-03         3.27559    -831.741E-03        -1.24789        -1.23364         3.26134    -831.741E-03    -310.149E-03     33.1605E-03    -15.2892E-03    -17.8713E-03    -16.1913E-03     31.4805E-03    -15.2892E-03     18.2030E-03     143.678E+06    -204.897E+03    -63.3321E+06    -187.857E+03     143.661E+06    -63.3321E+06    -63.0928E+03         29.4923
             922     14.7659E-03     16.5801E-03         3.35966    -805.279E-03        -1.36130        -1.34338         3.34174    -805.279E-03    -554.488E-03     33.3951E-03    -15.4205E-03    -17.9746E-03    -16.4784E-03     31.8988E-03    -15.4205E-03     17.1940E-03     91.7187E+06     4.78579E+06    -41.1962E+06     4.84940E+06     91.6551E+06    -41.1962E+06     1.32469E+06         27.9002
             923     13.7828E-03     16.5631E-03         3.31511    -770.323E-03        -1.35257        -1.34837         3.31091    -770.323E-03    -161.391E-03     33.2556E-03    -15.5402E-03    -17.7153E-03    -16.6469E-03     32.1871E-03    -15.5402E-03     14.5530E-03     49.5655E+06     7.29126E+06    -16.1177E+06     7.56229E+06     49.2945E+06    -16.1177E+06     2.82110E+06         26.5151
             924     12.7988E-03     16.5470E-03         3.18821    -732.500E-03        -1.25735        -1.25627         3.18713    -732.500E-03    -53.4221E-03     32.8705E-03    -15.5885E-03    -17.2821E-03    -16.6006E-03     32.1891E-03    -15.5885E-03     11.4248E-03     21.9409E+06     4.80947E+06    -1.56376E+06     7.83726E+06     17.8103E+06    -460.985E+03     3.83676E+06         25.4095
             925     11.8154E-03     16.5353E-03         3.02974    -697.050E-03        -1.12247        -1.12066         3.02793    -697.050E-03    -172.153E-03     32.5262E-03    -15.5722E-03    -16.9539E-03    -16.5158E-03     32.0880E-03    -15.5722E-03     9.23850E-03     9.65551E+06     2.79513E+06    -16.6362E+06     8.23250E+06    -15.2132E+06     2.79513E+06     4.21917E+06         24.5731
             926     10.8313E-03     16.5232E-03         2.88102    -667.404E-03    -992.080E-03    -974.525E-03         2.86347    -667.404E-03    -436.237E-03     32.3209E-03    -15.5597E-03    -16.7612E-03    -16.4047E-03     31.9644E-03    -15.5597E-03     8.26349E-03     10.3980E+06     6.08862E+06    -45.1512E+06     8.58359E+06    -44.8151E+06     7.56691E+06     4.15669E+06         23.9572
             927     9.84752E-03     16.5124E-03         2.70830    -646.545E-03    -835.603E-03    -818.716E-03         2.69142    -646.545E-03    -313.076E-03     31.9779E-03    -15.5539E-03    -16.4239E-03    -16.1794E-03     31.7333E-03    -15.5539E-03     6.79204E-03     15.9730E+06     8.90246E+06    -62.5907E+06     8.53255E+06    -62.2208E+06     15.9730E+06     5.06712E+06         23.5059
             928     8.86318E-03     16.5030E-03         2.56711    -638.828E-03    -703.876E-03    -649.253E-03         2.51248    -638.828E-03     610.310E-03     31.6607E-03    -15.5333E-03    -16.1274E-03    -15.9399E-03     31.4732E-03    -15.5333E-03     5.92692E-03     19.8004E+06     7.99603E+06    -77.3322E+06     7.58629E+06    -76.9224E+06     19.8004E+06     5.77765E+06         23.1718
             929     7.87875E-03     16.4939E-03         2.72146    -649.440E-03    -850.432E-03    -491.303E-03         2.36233    -649.440E-03         1.99497     31.4434E-03    -15.5103E-03    -15.9331E-03    -15.7741E-03     31.2844E-03    -15.5103E-03     5.42259E-03     19.7784E+06     5.73233E+06    -94.5345E+06     5.39029E+06    -94.1924E+06     19.7784E+06     5.79215E+06         22.9201
             930     6.89416E-03     16.4854E-03         2.59978    -506.468E-03    -867.698E-03    -385.683E-03         2.29296    -681.668E-03         1.31986     31.2363E-03    -15.4865E-03    -15.7498E-03    -15.6174E-03     31.1039E-03    -15.4865E-03     4.93189E-03     18.4391E+06     3.05353E+06    -108.247E+06     2.71468E+06    -107.909E+06     18.4391E+06     6.13067E+06         22.7272
             931     5.90941E-03     16.4775E-03         2.44209    -471.355E-03    -731.491E-03    -401.450E-03         2.37219    -731.491E-03     539.844E-03     31.0596E-03    -15.4548E-03    -15.6048E-03    -15.4929E-03     30.9477E-03    -15.4548E-03     4.51799E-03     14.1990E+06     453.871E+03    -119.019E+06     95.0065E+03    -118.660E+06     14.1990E+06     6.53538E+06         22.5781
             932     4.92455E-03     16.4705E-03         2.60898    -559.433E-03    -790.377E-03    -488.733E-03         2.53828    -790.377E-03     524.931E-03     30.9286E-03    -15.4277E-03    -15.5009E-03    -15.4083E-03     30.8384E-03    -15.4301E-03     4.04218E-03     8.44829E+06    -2.51141E+06    -131.396E+06    -2.84899E+06    -131.059E+06     8.44829E+06     6.54605E+06         22.4631
             933     3.93968E-03     16.4640E-03         3.15709    -709.395E-03        -1.16343    -586.333E-03         2.72601    -855.404E-03         1.80821     30.8483E-03    -15.4116E-03    -15.4367E-03    -15.3657E-03     30.7824E-03    -15.4167E-03     3.44743E-03     2.45625E+06    -5.75916E+06    -144.798E+06    -6.00904E+06    -144.549E+06     2.45625E+06     5.80911E+06         22.3758
             934     2.95468E-03     16.4590E-03         3.64553    -932.111E-03        -1.40547    -680.318E-03         2.92038    -932.111E-03     326.812E-03     30.8134E-03    -15.3969E-03    -15.4165E-03    -15.3634E-03     30.7713E-03    -15.4079E-03     2.73742E-03    -3.11278E+06    -8.78902E+06    -155.697E+06    -8.95189E+06    -155.534E+06    -3.11278E+06     4.83569E+06         22.3118
             935     1.96982E-03     16.4550E-03         4.32208        -1.00397        -1.97619    -887.851E-03         3.23374        -1.00397         1.51059     30.7831E-03    -15.3803E-03    -15.4028E-03    -15.3672E-03     30.7615E-03    -15.3943E-03     1.94026E-03    -8.67825E+06    -11.5572E+06    -161.976E+06    -11.6437E+06    -161.890E+06    -8.67825E+06     3.41233E+06         22.2681
             936     984.943E-06     16.4527E-03         6.94408    -921.831E-03        -4.65908        -1.14538         3.43038    -921.831E-03        -4.29364     30.7614E-03    -15.3423E-03    -15.4190E-03    -15.4056E-03     30.7536E-03    -15.3480E-03     1.11842E-03    -12.6843E+06    -14.2821E+06    -165.123E+06    -13.7614E+06    -165.101E+06    -13.2273E+06     1.47677E+06         22.2422
             937     16.7347E-03     15.5856E-03         3.51629        -1.03789        -1.21278        -1.18911         3.51596        -1.06122     67.6052E-03     32.0764E-03    -15.2887E-03    -16.7878E-03    -15.7006E-03     31.2358E-03    -15.5353E-03     6.46030E-03     201.520E+06     33.1714E+06    -36.9462E+06    -1.91958E+06     201.520E+06    -1.85509E+06    -23.6313E+03         31.1005
             938     15.7504E-03     15.5670E-03         3.78696        -1.04716        -1.47577        -1.46197         3.77316        -1.04716    -368.945E-03     33.4404E-03    -15.2480E-03    -18.1924E-03    -16.6018E-03     31.8498E-03    -15.2480E-03     17.8381E-03     143.686E+06    -739.563E+03    -62.7549E+06    -733.556E+03     143.680E+06    -62.7549E+06    -372.841E+03         29.4737
             939     14.7677E-03     15.5470E-03         3.93434        -1.01741        -1.65613        -1.63752         3.91573        -1.01741    -622.814E-03     33.8507E-03    -15.3378E-03    -18.5129E-03    -17.1850E-03     32.5228E-03    -15.3378E-03     16.3525E-03     89.6937E+06      1.7946E+06    -41.9105E+06     1.83024E+06     89.6580E+06    -41.9105E+06     572.303E+03         27.8836
             940     13.7842E-03     15.5295E-03         3.92589    -974.913E-03        -1.69136        -1.68643         3.92096    -974.913E-03    -243.673E-03     33.5140E-03    -15.4081E-03    -18.1058E-03    -17.2215E-03     32.6296E-03    -15.4081E-03     13.3157E-03     48.2255E+06     4.25038E+06    -15.8956E+06     4.52078E+06     47.9551E+06    -15.8956E+06     2.65070E+06         26.4969
             941     12.8016E-03     15.5143E-03         3.80642    -926.095E-03        -1.61483        -1.61287         3.80446    -926.095E-03    -149.590E-03     32.9983E-03    -15.4036E-03    -17.5946E-03    -17.0715E-03     32.4751E-03    -15.4036E-03     9.99898E-03     21.7709E+06     4.32825E+06     95.9199E+03     7.00030E+06     18.2962E+06     898.556E+03     3.21017E+06         25.3862
             942     11.8179E-03     15.5026E-03         3.60637    -878.413E-03        -1.45077        -1.44724         3.60284    -878.413E-03    -264.544E-03     32.5851E-03    -15.3315E-03    -17.2535E-03    -16.9543E-03     32.2859E-03    -15.3315E-03     7.63660E-03     9.76756E+06     4.39155E+06    -15.8010E+06     8.93677E+06    -14.9703E+06     4.39155E+06     3.18269E+06         24.5427
             943     10.8348E-03     15.4909E-03         3.38314    -838.713E-03        -1.25687        -1.23594         3.36220    -838.713E-03    -536.322E-03     32.1999E-03    -15.2619E-03    -16.9380E-03    -16.7120E-03     31.9740E-03    -15.2619E-03     6.52645E-03     11.5560E+06     7.98735E+06    -45.0895E+06     9.95527E+06    -44.7972E+06     9.29574E+06     3.97727E+06         23.9186
             944     9.85088E-03     15.4807E-03         3.16464    -810.832E-03        -1.06228        -1.04291         3.14527    -810.832E-03    -399.494E-03     31.6742E-03    -15.1990E-03    -16.4752E-03    -16.3368E-03     31.5358E-03    -15.1990E-03     5.02234E-03     16.9086E+06     10.1582E+06    -63.1752E+06     9.85951E+06    -62.8765E+06     16.9086E+06     4.66514E+06         23.4588
             945     8.86678E-03     15.4716E-03         2.99494    -796.180E-03    -911.407E-03    -878.367E-03         2.96190    -796.180E-03     499.934E-03     31.2288E-03    -15.1262E-03    -16.1026E-03    -16.0056E-03     31.1319E-03    -15.1262E-03     4.15931E-03     21.1601E+06     9.42715E+06    -77.0324E+06     9.04924E+06    -76.6545E+06     21.1601E+06     5.69191E+06         23.1161
             946     7.88236E-03     15.4628E-03         3.06716    -799.637E-03    -986.032E-03    -692.665E-03         2.77380    -799.637E-03         1.88768     30.8408E-03    -15.0534E-03    -15.7874E-03    -15.7097E-03     30.7631E-03    -15.0534E-03     3.67181E-03     21.8867E+06     7.79624E+06    -93.6851E+06     7.37902E+06    -93.2679E+06     21.8867E+06     6.46661E+06         22.8559
             947     6.89763E-03     15.4548E-03         2.89651    -632.474E-03    -982.033E-03    -521.675E-03         2.63317    -829.488E-03         1.26648     30.4647E-03    -14.9825E-03    -15.4822E-03    -15.4200E-03     30.4026E-03    -14.9825E-03     3.24396E-03     20.6405E+06     5.34510E+06    -107.662E+06     4.94801E+06    -107.265E+06     20.6405E+06     6.67805E+06         22.6550
             948     5.91257E-03     15.4472E-03         2.74445    -564.957E-03    -885.866E-03    -485.706E-03         2.66520    -885.866E-03     587.715E-03     30.1408E-03    -14.9076E-03    -15.2332E-03    -15.1810E-03     30.0886E-03    -14.9076E-03     2.95191E-03     16.4060E+06     2.48509E+06    -117.944E+06     2.08358E+06    -117.543E+06     16.4060E+06     6.93590E+06         22.4985
             949     4.92746E-03     15.4401E-03         2.92956    -657.540E-03    -958.725E-03    -573.015E-03         2.84504    -958.725E-03     481.021E-03     29.8868E-03    -14.8449E-03    -15.0420E-03    -14.9998E-03     29.8446E-03    -14.8449E-03     2.64677E-03     11.1400E+06    -313.939E+03    -129.505E+06    -704.027E+03    -129.115E+06     11.1400E+06     7.08633E+06         22.3768
             950     3.94207E-03     15.4342E-03         3.55052    -857.325E-03        -1.35286    -742.749E-03         3.11771        -1.03461         1.81834     29.6874E-03    -14.7943E-03    -14.8932E-03    -14.8585E-03     29.6555E-03    -14.7970E-03     2.29717E-03     5.35356E+06    -3.09353E+06    -142.022E+06    -3.42561E+06    -141.690E+06     5.35356E+06     6.72496E+06         22.2838
             951     2.95663E-03     15.4290E-03         4.12977        -1.10543        -1.65793    -903.516E-03         3.37536        -1.10543     229.847E-03     29.5584E-03    -14.7578E-03    -14.8006E-03    -14.7773E-03     29.5378E-03    -14.7606E-03     1.84028E-03    -470.920E+03    -6.04150E+06    -152.476E+06    -6.27270E+06    -152.244E+06    -470.920E+03     5.75257E+06         22.2153
             952     1.97111E-03     15.4252E-03         4.90552        -1.16169        -2.34470        -1.07313         3.63395        -1.16169         1.77152     29.4695E-03    -14.7213E-03    -14.7482E-03    -14.7317E-03     29.4586E-03    -14.7270E-03     1.31387E-03    -5.86129E+06    -8.66892E+06    -157.587E+06    -8.80184E+06    -157.455E+06    -5.86129E+06     4.32850E+06         22.1682
             953     985.499E-06     15.4227E-03         7.86817        -1.11108        -5.33778        -1.25717         3.78756        -1.11108        -4.84618     29.4085E-03    -14.6586E-03    -14.7499E-03    -14.7402E-03     29.4045E-03    -14.6643E-03     769.804E-06    -9.54087E+06    -11.2907E+06    -160.969E+06    -10.7946E+06    -160.922E+06    -10.0839E+06     2.41091E+06         22.1400
             954     16.7353E-03     14.5533E-03         3.85385        -1.17571        -1.34671        -1.26682         3.85343        -1.25519     69.3447E-03     32.6111E-03    -15.3910E-03    -17.2201E-03    -16.2871E-03     31.7898E-03    -15.5026E-03     6.78382E-03     201.761E+06     32.8645E+06    -36.2885E+06    -2.06894E+06     201.759E+06    -1.35253E+06    -76.9397E+03         31.0772
             955     15.7520E-03     14.5330E-03         4.16147        -1.24716        -1.58695        -1.57422         4.14874        -1.24716    -379.368E-03     34.1447E-03    -15.1767E-03    -18.9680E-03    -17.4276E-03     32.6043E-03    -15.1767E-03     17.8207E-03     144.188E+06    -406.263E+03    -60.5086E+06    -383.665E+03     144.165E+06    -60.5086E+06     1.07667E+06         29.4549
             956     14.7693E-03     14.5128E-03         4.36455        -1.22124        -1.82224        -1.80390         4.34621        -1.22124    -656.724E-03     34.3758E-03    -15.2052E-03    -19.1705E-03    -17.9840E-03     33.1892E-03    -15.2052E-03     15.5725E-03     89.2170E+06     1.37930E+06    -40.4076E+06     1.41005E+06     89.1862E+06    -40.4076E+06     1.42667E+06         27.8675
             957     13.7878E-03     14.4959E-03         4.42084        -1.17894        -1.92252        -1.91662         4.41494        -1.17894    -323.196E-03     33.8806E-03    -15.1951E-03    -18.6855E-03    -17.9849E-03     33.1801E-03    -15.1951E-03     11.9780E-03     47.9724E+06     4.12726E+06    -16.8546E+06     4.37586E+06     47.7238E+06    -16.8546E+06     293.172E+03         26.4794
             958     12.8047E-03     14.4811E-03         4.34239        -1.12628        -1.89145        -1.88799         4.33893        -1.12628    -253.290E-03     33.2295E-03    -15.1200E-03    -18.1095E-03    -17.7300E-03     32.8500E-03    -15.1200E-03     8.47280E-03     22.5333E+06     5.60597E+06    -914.863E+03     8.63769E+06     18.0610E+06     525.704E+03     604.194E+03         25.3635
             959     11.8226E-03     14.4696E-03         4.15144        -1.07170        -1.74461        -1.73865         4.14547        -1.07170    -373.904E-03     32.6356E-03    -14.9854E-03    -17.6502E-03    -17.4737E-03     32.4591E-03    -14.9854E-03     5.86539E-03     10.9200E+06     5.75700E+06    -16.1028E+06     10.6208E+06    -15.8036E+06     5.75700E+06     2.52820E+06         24.5123
             960     10.8393E-03     14.4588E-03         3.91221        -1.02355        -1.54361        -1.51880         3.88740        -1.02355    -655.352E-03     32.0400E-03    -14.8457E-03    -17.1943E-03    -17.0793E-03     31.9250E-03    -14.8457E-03     4.55065E-03     13.2600E+06     8.81514E+06    -45.3936E+06     10.7754E+06    -45.1553E+06     11.0614E+06     3.61707E+06         23.8787
             961     9.85588E-03     14.4491E-03         3.66348    -986.862E-03        -1.32929        -1.30716         3.64135    -986.862E-03    -503.080E-03     31.3560E-03    -14.7094E-03    -16.6467E-03    -16.5934E-03     31.3028E-03    -14.7094E-03     2.92839E-03     19.0111E+06     10.9633E+06    -63.1938E+06     10.7218E+06    -62.9522E+06     19.0111E+06     4.21258E+06         23.4085
             962     8.87191E-03     14.4407E-03         3.44109    -963.893E-03        -1.13518        -1.11680         3.42271    -963.893E-03     368.102E-03     30.6925E-03    -14.5602E-03    -16.1323E-03    -16.1033E-03     30.6635E-03    -14.5602E-03     2.04031E-03     23.1926E+06     10.5140E+06    -77.3652E+06     10.2108E+06    -77.0619E+06     23.1926E+06     5.12786E+06         23.0549
             963     7.88746E-03     14.4325E-03         3.44856    -958.914E-03        -1.15488    -924.065E-03         3.21775    -958.914E-03         1.75050     30.0753E-03    -14.4156E-03    -15.6597E-03    -15.6393E-03     30.0549E-03    -14.4156E-03     1.52092E-03     24.8537E+06     9.59918E+06    -93.2409E+06     9.22009E+06    -92.8618E+06     24.8537E+06     6.21189E+06         22.7837
             964     6.90256E-03     14.4250E-03         3.28896    -832.783E-03        -1.12321    -762.704E-03         3.07326    -977.588E-03         1.20371     29.4758E-03    -14.2768E-03    -15.1990E-03    -15.1847E-03     29.4615E-03    -14.2768E-03     1.15969E-03     24.7267E+06     7.88743E+06    -106.622E+06     7.46775E+06    -106.202E+06     24.7267E+06     6.91660E+06         22.5720
             965     5.91736E-03     14.4178E-03         3.14706    -784.118E-03        -1.02000    -706.377E-03         3.06932        -1.02000     614.914E-03     28.9122E-03    -14.1344E-03    -14.7778E-03    -14.7660E-03     28.9004E-03    -14.1344E-03     1.04120E-03     20.4554E+06     5.41578E+06    -116.694E+06     4.99268E+06    -116.271E+06     20.4554E+06     7.17106E+06         22.4052
             966     4.93156E-03     14.4113E-03         3.28642    -845.625E-03        -1.07865    -760.436E-03         3.20123        -1.07865     473.545E-03     28.4426E-03    -14.0123E-03    -14.4303E-03    -14.4206E-03     28.4329E-03    -14.0123E-03     949.587E-06     15.0598E+06     2.78171E+06    -127.903E+06     2.38119E+06    -127.502E+06     15.0598E+06     7.21581E+06         22.2742
             967     3.94563E-03     14.4054E-03         3.87111    -999.249E-03        -1.48248    -899.177E-03         3.42975        -1.14120         1.86641     28.0819E-03    -13.9129E-03    -14.1690E-03    -14.1613E-03     28.0742E-03    -13.9129E-03     858.257E-06     9.59979E+06     181.095E+03    -139.486E+06    -190.411E+03    -139.115E+06     9.59979E+06     7.18946E+06         22.1731
             968     2.95940E-03     14.4007E-03         4.43131        -1.19748        -1.81481        -1.04317         3.65968        -1.19748     221.255E-03     27.7895E-03    -13.8268E-03    -13.9627E-03    -13.9574E-03     27.7842E-03    -13.8268E-03     719.137E-06     3.28114E+06    -2.34091E+06    -148.775E+06    -2.63171E+06    -148.484E+06     3.28114E+06     6.45856E+06         22.0979
             969     1.97299E-03     14.3969E-03         5.25640        -1.23886        -2.56865        -1.17703         3.86478        -1.23886         1.98771     27.5803E-03    -13.7556E-03    -13.8247E-03    -13.8219E-03     27.5775E-03    -13.7556E-03     532.322E-06    -2.23815E+06    -4.59130E+06    -152.902E+06    -4.76250E+06    -152.731E+06    -2.23815E+06     4.97701E+06         22.0458
             970     986.614E-06     14.3946E-03         8.42750        -1.23402        -5.72017        -1.27492         3.98224        -1.23402        -5.12093     27.4378E-03    -13.6724E-03    -13.7654E-03    -13.7643E-03     27.4368E-03    -13.6724E-03     282.947E-06    -5.03749E+06    -6.73974E+06    -155.600E+06    -6.10793E+06    -155.531E+06    -5.73869E+06     2.91270E+06         22.0145
             971     16.7352E-03     13.5175E-03         4.10331        -1.25729        -1.45687        -1.28414         4.10255        -1.42927     92.4301E-03     33.2946E-03    -15.3994E-03    -17.8952E-03    -17.0562E-03     32.5080E-03    -15.4518E-03     7.34032E-03     201.219E+06     32.3923E+06    -36.5713E+06    -2.28430E+06     201.212E+06    -1.88776E+06    -292.048E+03         31.0519
             972     15.7538E-03     13.4995E-03         4.41190        -1.40551        -1.62681        -1.59111         4.40163        -1.43094    -354.576E-03     35.0672E-03    -15.0700E-03    -19.9971E-03    -18.5207E-03     33.5907E-03    -15.0700E-03     17.7749E-03     143.403E+06     266.082E+03    -59.7810E+06     293.186E+03     143.376E+06    -59.7810E+06     767.673E+03         29.4355
             973     14.7724E-03     13.4772E-03         4.66831        -1.41436        -1.88206        -1.86552         4.65176        -1.41436    -650.654E-03     35.0511E-03    -15.0220E-03    -20.0291E-03    -18.9719E-03     33.9938E-03    -15.0220E-03     14.8563E-03       90.74E+06     6.02816E+06    -37.9653E+06     6.06910E+06     90.6991E+06    -37.9653E+06     803.778E+03         27.8524
             974     13.7908E-03     13.4620E-03         4.78745        -1.37929        -2.03879        -2.03185         4.78051        -1.37929    -384.986E-03     34.3942E-03    -14.9303E-03    -19.4639E-03    -18.9178E-03     33.8481E-03    -14.9303E-03     10.6643E-03     49.6210E+06     8.75398E+06    -14.4779E+06     8.96932E+06     49.4057E+06    -14.4779E+06    -684.033E+03         26.4644
             975     12.8100E-03     13.4469E-03         4.76173        -1.33116        -2.05648        -2.05110         4.75634        -1.33116    -345.763E-03     33.5552E-03    -14.7747E-03    -18.7805E-03    -18.5211E-03     33.2959E-03    -14.7747E-03     6.94921E-03     21.2241E+06     6.46572E+06    -1.58860E+06     8.36398E+06     16.0982E+06     1.63905E+06    -2.09297E+03         25.3442
             976     11.8275E-03     13.4370E-03         4.62990        -1.27753        -1.96831        -1.96001         4.62160        -1.27753    -466.290E-03     32.7254E-03    -14.5538E-03    -18.1716E-03    -18.0802E-03     32.6340E-03    -14.5538E-03     4.20564E-03     9.54584E+06     6.26342E+06    -17.3345E+06     8.63492E+06    -17.1709E+06     7.01072E+06     1.71406E+06         24.4852
             977     10.8453E-03     13.4263E-03         4.44785        -1.22495        -1.83030        -1.80455         4.42210        -1.22495    -732.647E-03     31.9934E-03    -14.3228E-03    -17.6706E-03    -17.6252E-03     31.9480E-03    -14.3228E-03     2.57520E-03     14.4531E+06     9.50900E+06    -45.1550E+06     10.1179E+06    -45.0197E+06     13.7089E+06     2.57785E+06         23.8415
             978     9.86227E-03     13.4181E-03         4.20692        -1.17887        -1.63395        -1.61150         4.18448        -1.17887    -571.063E-03     31.0600E-03    -14.0868E-03    -16.9733E-03    -16.9624E-03     31.0491E-03    -14.0868E-03     745.877E-06     22.0892E+06     10.9590E+06    -63.0709E+06     10.8232E+06    -62.9350E+06     22.0892E+06     3.05602E+06         23.3594
             979     8.87853E-03     13.4102E-03         3.94226        -1.14468        -1.40887        -1.39919         3.93258        -1.14468     250.207E-03     30.1123E-03    -13.8368E-03    -16.2754E-03    -16.2676E-03     30.1044E-03    -13.8368E-03    -209.616E-06     26.5589E+06     11.1565E+06    -77.5959E+06     10.9874E+06    -77.4268E+06     26.5589E+06     3.74597E+06         22.9930
             980     7.89423E-03     13.4030E-03         3.89351        -1.12666        -1.38587        -1.20983         3.71747        -1.12666         1.59813     29.1861E-03    -13.5928E-03    -15.5933E-03    -15.5825E-03     29.1753E-03    -13.5928E-03    -770.537E-06     28.6212E+06     11.0386E+06    -93.4097E+06     10.7997E+06    -93.1708E+06     28.6212E+06     4.86630E+06         22.7085
             981     6.90921E-03     13.3962E-03         3.74849        -1.07275        -1.29662        -1.07270         3.57818        -1.12636         1.11180     28.2648E-03    -13.3602E-03    -14.9046E-03    -14.8911E-03     28.2512E-03    -13.3602E-03    -1.04674E-03     29.3868E+06     10.3444E+06    -105.863E+06     10.0385E+06    -105.557E+06     29.3868E+06     5.87730E+06         22.4834
             982     5.92339E-03     13.3899E-03         3.62281        -1.06027        -1.17504        -1.02168         3.55014        -1.14095     623.100E-03     27.4034E-03    -13.1312E-03    -14.2723E-03    -14.2589E-03     27.3900E-03    -13.1312E-03    -1.02609E-03     26.0232E+06     8.98992E+06    -115.677E+06     8.64168E+06    -115.329E+06     26.0232E+06     6.53298E+06         22.3038
             983     4.93717E-03     13.3839E-03         3.68792        -1.08328        -1.19870        -1.03956         3.60937        -1.16388     506.706E-03     26.6474E-03    -12.9252E-03    -13.7222E-03    -13.7111E-03     26.6363E-03    -12.9252E-03    -906.852E-06     20.8357E+06     7.05764E+06    -126.075E+06     6.69285E+06    -125.710E+06     20.8357E+06     6.93808E+06         22.1611
             984     3.95033E-03     13.3788E-03         4.12753        -1.13773        -1.55739        -1.07400         3.69765        -1.19124         1.88554     26.0126E-03    -12.7530E-03    -13.2596E-03    -13.2517E-03     26.0047E-03    -12.7530E-03    -725.933E-06     15.4972E+06     4.65484E+06    -137.371E+06     4.30826E+06    -137.024E+06     15.4972E+06     6.99626E+06         22.0497
             985     2.96314E-03     13.3742E-03         4.56440        -1.22409        -1.87631        -1.11537         3.80346        -1.22409     219.432E-03     25.5059E-03    -12.6050E-03    -12.9008E-03    -12.8962E-03     25.5012E-03    -12.6050E-03    -525.479E-06     9.87339E+06     2.41932E+06    -145.009E+06     2.13400E+06    -144.723E+06     9.87339E+06     6.44042E+06         21.9660
             986     1.97566E-03     13.3710E-03         5.37115        -1.25340        -2.62353        -1.20851         3.95613        -1.25340         2.04462     25.1032E-03    -12.4807E-03    -12.6225E-03    -12.6203E-03     25.1010E-03    -12.4807E-03    -325.856E-06     4.26529E+06     914.193E+03    -148.088E+06     750.085E+03    -147.924E+06     4.26529E+06     4.77839E+06         21.9076
             987     987.834E-06     13.3686E-03         8.62623        -1.26159        -5.84552        -1.26756         4.04827        -1.26159        -5.27371     24.8433E-03    -12.3921E-03    -12.4512E-03    -12.4505E-03     24.8425E-03    -12.3921E-03    -192.190E-06     1.75021E+06     115.221E+03    -150.037E+06     759.399E+03    -149.980E+06     1.04902E+06     2.67537E+06         21.8724
             988     16.7373E-03     12.4850E-03         4.28088        -1.26569        -1.58417        -1.26508         4.28026        -1.58417     89.2776E-03     34.1808E-03    -15.3820E-03    -18.7988E-03    -17.9821E-03     33.3641E-03    -15.3820E-03     8.14744E-03     201.873E+06     33.8941E+06    -36.5585E+06    -1.77841E+06     201.868E+06    -880.316E+03    -552.136E+03         31.0217
             989     15.7555E-03     12.4616E-03         4.57640        -1.49935        -1.65865        -1.55182         4.56743        -1.59721    -327.246E-03     35.8822E-03    -14.9385E-03    -20.9437E-03    -19.5190E-03     34.4575E-03    -14.9385E-03     17.7215E-03     142.996E+06     1.16634E+06    -58.4244E+06     1.21221E+06     142.950E+06    -58.4244E+06    -1.51219E+06         29.4130
             990     14.7758E-03     12.4431E-03         4.84987        -1.59389        -1.84483        -1.82928         4.83432        -1.59389    -641.612E-03     35.8217E-03    -14.8229E-03    -20.9988E-03    -20.0629E-03     34.8858E-03    -14.8229E-03     14.2529E-03     90.4492E+06     5.66166E+06    -34.7504E+06     5.73732E+06     90.3735E+06    -34.7504E+06    -744.851E+03         27.8367
             991     13.7957E-03     12.4256E-03         5.01227        -1.57292        -2.03046        -2.02286         5.00468        -1.57292    -420.966E-03     34.9899E-03    -14.6558E-03    -20.3340E-03    -19.8970E-03     34.5529E-03    -14.6558E-03     9.54898E-03     49.7630E+06     7.93199E+06    -9.42838E+06     7.23358E+06     49.6776E+06    -8.64452E+06     953.553E+03         26.4512
             992     12.8148E-03     12.4137E-03         5.06098        -1.53774        -2.10951        -2.10275         5.05423        -1.53774    -406.391E-03     33.9373E-03    -14.4032E-03    -19.5341E-03    -19.3767E-03     33.7800E-03    -14.4032E-03     5.46171E-03     21.1959E+06     7.99556E+06     1.88671E+06     7.25222E+06     16.4204E+06     7.40555E+06     661.155E+03         25.3285
             993     11.8338E-03     12.4032E-03         5.02201        -1.49323        -2.10576        -2.09634         5.01259        -1.49323    -514.527E-03     33.0217E-03    -14.0669E-03    -18.9547E-03    -18.9119E-03     32.9789E-03    -14.0669E-03     2.79861E-03     10.7244E+06     8.11836E+06    -17.8859E+06     8.07983E+06    -17.8474E+06     10.7244E+06    -181.234E+03         24.4630
             994     10.8521E-03     12.3944E-03         4.93218        -1.44343        -2.05767        -2.03355         4.90806        -1.44343    -756.171E-03     32.0461E-03    -13.7214E-03    -18.3247E-03    -18.3100E-03     32.0314E-03    -13.7214E-03     692.661E-06     17.9223E+06     9.72001E+06    -45.2695E+06     9.67559E+06    -45.2251E+06     17.9223E+06     341.438E+03         23.8096
             995     9.86975E-03     12.3868E-03         4.77055        -1.39180        -1.94613        -1.92527         4.74969        -1.39180    -600.663E-03     30.8151E-03    -13.3652E-03    -17.4499E-03    -17.4343E-03     30.7995E-03    -13.3652E-03    -1.27412E-03     26.8177E+06     11.1101E+06    -62.8321E+06     11.0729E+06    -62.7948E+06     26.8177E+06     730.734E+03         23.3156
             996     8.88654E-03     12.3806E-03         4.54932        -1.34271        -1.77915        -1.77448         4.54466        -1.34271     149.650E-03     29.5336E-03    -12.9934E-03    -16.5402E-03    -16.5058E-03     29.4992E-03    -12.9934E-03    -2.29180E-03     31.5376E+06     12.0752E+06    -78.0892E+06     12.0278E+06    -78.0417E+06     31.5376E+06     1.28638E+06         22.9357
             997     7.90222E-03     12.3743E-03         4.44411        -1.30182        -1.72141        -1.59269         4.31539        -1.30182         1.42907     28.2307E-03    -12.6259E-03    -15.6047E-03    -15.5506E-03     28.1766E-03    -12.6259E-03    -2.88472E-03     33.5710E+06     12.8922E+06    -93.7382E+06     12.8188E+06    -93.6648E+06     33.5710E+06     2.14164E+06         22.6367
             998     6.91698E-03     12.3690E-03         4.25490        -1.27051        -1.56518        -1.43340         4.12579        -1.27318     983.121E-03     26.9406E-03    -12.2794E-03    -14.6612E-03    -14.5953E-03     26.8747E-03    -12.2794E-03    -3.13305E-03     35.4215E+06     13.2117E+06    -105.981E+06     13.0876E+06    -105.857E+06     35.4215E+06     3.30000E+06         22.3971
             999     5.93090E-03     12.3636E-03         4.11539        -1.24976        -1.43810        -1.37269         4.05264        -1.25242     573.689E-03     25.6978E-03    -11.9427E-03    -13.7551E-03    -13.6915E-03     25.6342E-03    -11.9427E-03    -3.00025E-03     33.2740E+06     12.7158E+06    -115.187E+06     12.5347E+06    -115.005E+06     33.2740E+06     4.61657E+06         22.2034
            1000     4.94384E-03     12.3588E-03         4.09924        -1.23041        -1.42376        -1.35499         4.03047        -1.23041     460.651E-03     24.5708E-03    -11.6367E-03    -12.9340E-03    -12.8810E-03     24.5177E-03    -11.6367E-03    -2.66389E-03     29.0894E+06     11.5985E+06    -124.755E+06     11.3756E+06    -124.532E+06     29.0894E+06     5.35189E+06         22.0476
            1001     3.95611E-03     12.3543E-03         4.36319        -1.20686        -1.68556        -1.29722         3.97485        -1.20686         1.78107     23.6039E-03    -11.3768E-03    -12.2271E-03    -12.1879E-03     23.5647E-03    -11.3768E-03    -2.21826E-03     25.0811E+06     10.4312E+06    -135.028E+06     10.2111E+06    -134.808E+06     25.0811E+06     5.48477E+06         21.9249
            1002     2.96768E-03     12.3507E-03         4.63617        -1.18999        -1.94307        -1.22324         3.91635        -1.18999     134.080E-03     22.7915E-03    -11.1541E-03    -11.6374E-03    -11.6136E-03     22.7677E-03    -11.1541E-03    -1.67344E-03     20.1075E+06     9.40076E+06    -141.496E+06     9.23920E+06    -141.334E+06     20.1075E+06     4.51973E+06         21.8321
            1003     1.97877E-03     12.3477E-03         5.31243        -1.17930        -2.60076        -1.19910         3.91077        -1.17930         1.93845     22.1656E-03    -10.9790E-03    -11.1867E-03    -11.1752E-03     22.1542E-03    -10.9790E-03    -1.12680E-03     14.9373E+06     8.96021E+06    -144.093E+06     8.88348E+06    -144.016E+06     14.9373E+06     2.90683E+06         21.7670
            1004     989.499E-06     12.3461E-03         8.53484        -1.18083        -5.79952        -1.16736         3.90268        -1.18083        -5.38908     21.7785E-03    -10.8451E-03    -10.9334E-03    -10.9298E-03     21.7748E-03    -10.8451E-03    -581.454E-06     10.3840E+06     8.33881E+06    -145.497E+06     8.34385E+06    -145.474E+06     10.3556E+06     1.75082E+06         21.7277
            1005     16.7380E-03     11.4472E-03         4.40708        -1.23477        -1.72042        -1.23447         4.40678        -1.72042     68.0062E-03     35.1176E-03    -15.3144E-03    -19.8032E-03    -18.9771E-03     34.2914E-03    -15.3144E-03     9.13360E-03     204.113E+06     35.2323E+06    -33.8649E+06    -2.01386E+06     204.100E+06     3.39420E+06    -1.14986E+06         30.9802
            1006     15.7588E-03     11.4267E-03         4.67087        -1.47977        -1.74578        -1.47224         4.66282        -1.74524    -306.210E-03     36.6980E-03    -14.8127E-03    -21.8853E-03    -20.4367E-03     35.2494E-03    -14.8127E-03     18.1423E-03     143.610E+06    -316.269E+03    -53.5796E+06    -261.717E+03     143.555E+06    -53.5796E+06    -2.24622E+06         29.3816
            1007     14.7787E-03     11.4051E-03         4.92002        -1.66141        -1.81893        -1.70761         4.90545        -1.75817    -619.860E-03     36.6139E-03    -14.6249E-03    -21.9890E-03    -21.1030E-03     35.7279E-03    -14.6249E-03     13.9549E-03     87.6752E+06     2.58480E+06    -30.5539E+06     2.68682E+06     87.5732E+06    -30.5539E+06    -1.46794E+06         27.8153
            1008     13.8000E-03     11.3905E-03         5.11087        -1.73338        -1.93870        -1.90747         5.10325        -1.75699    -424.056E-03     35.6134E-03    -14.3646E-03    -21.2488E-03    -20.9029E-03     35.2675E-03    -14.3646E-03     8.52339E-03     49.4014E+06     8.02769E+06    -5.46032E+06     6.33907E+06     49.3154E+06    -3.68572E+06    -67.3122E+03         26.4356
            1009     12.8204E-03     11.3784E-03         5.24571        -1.74189        -2.05981        -2.05289         5.23878        -1.74189    -418.961E-03     34.4480E-03    -14.0110E-03    -20.4369E-03    -20.3335E-03     34.3445E-03    -14.0110E-03     4.44738E-03     25.7152E+06     10.5035E+06     4.30015E+06     8.70953E+06     18.2112E+06     13.5982E+06    -319.531E+03         25.3137
            1010     11.8402E-03     11.3699E-03         5.31833        -1.71416        -2.15102        -2.14211         5.30942        -1.71416    -508.291E-03     33.4542E-03    -13.5653E-03    -19.8889E-03    -19.8693E-03     33.4346E-03    -13.5653E-03     1.71905E-03     17.6769E+06     9.43868E+06    -17.0510E+06     9.30505E+06    -16.9174E+06     17.6769E+06    -1.70934E+06         24.4443
            1011     10.8596E-03     11.3617E-03         5.34841        -1.67474        -2.21233        -2.19169         5.32778        -1.67474    -728.793E-03     32.1933E-03    -13.0934E-03    -19.0999E-03    -19.0834E-03     32.1768E-03    -13.0934E-03    -809.742E-06     24.8107E+06     11.0725E+06    -45.2628E+06     10.8475E+06    -45.0378E+06     24.8107E+06    -2.97905E+06         23.7836
            1012     9.87790E-03     11.3564E-03         5.33097        -1.62270        -2.24492        -2.22698         5.31303        -1.62270    -589.108E-03     30.6287E-03    -12.6070E-03    -18.0218E-03    -17.9731E-03     30.5800E-03    -12.6070E-03    -2.91991E-03     34.1303E+06     13.5936E+06    -63.2676E+06     13.3911E+06    -63.0652E+06     34.1303E+06    -3.10167E+06         23.2796
            1013     8.89489E-03     11.3511E-03         5.22002        -1.55825        -2.20234        -2.20031         5.21798        -1.55825     74.5077E-03     28.9887E-03    -12.1042E-03    -16.8846E-03    -16.7927E-03     28.8969E-03    -12.1042E-03    -3.98546E-03     39.2869E+06     15.3472E+06    -79.0572E+06     15.2276E+06    -78.9376E+06     39.2869E+06    -2.47204E+06         22.8878
            1014     7.91089E-03     11.3472E-03         5.08972        -1.48827        -2.14736        -2.05647         4.99883        -1.48827         1.25696     27.2972E-03    -11.6040E-03    -15.6933E-03    -15.5633E-03     27.1672E-03    -11.6040E-03    -4.63759E-03     41.5012E+06     16.2018E+06    -94.3490E+06     16.1377E+06    -94.2849E+06     41.5012E+06    -1.53642E+06         22.5760
            1015     6.92555E-03     11.3429E-03         4.83949        -1.42164        -1.96475        -1.87034         4.74509        -1.42164     850.525E-03     25.5723E-03    -11.1310E-03    -14.4414E-03    -14.2938E-03     25.4247E-03    -11.1310E-03    -4.78869E-03     43.6484E+06     16.2901E+06    -107.014E+06     16.2529E+06    -106.977E+06     43.6484E+06    -320.472E+03         22.3230
            1016     5.93894E-03     11.3395E-03         4.61864        -1.35750        -1.79919        -1.75063         4.57009        -1.35750     477.851E-03     23.8980E-03    -10.6793E-03    -13.2187E-03    -13.0782E-03     23.7575E-03    -10.6793E-03    -4.49917E-03     42.7295E+06     16.1147E+06    -115.604E+06     16.0604E+06    -115.550E+06     42.7295E+06     1.09285E+06         22.1163
            1017     4.95116E-03     11.3358E-03         4.47975        -1.28842        -1.71235        -1.65602         4.42343        -1.28842     342.564E-03     22.3646E-03    -10.2697E-03    -12.0949E-03    -11.9784E-03     22.2481E-03    -10.2697E-03    -3.94299E-03     39.8999E+06     15.7846E+06    -124.046E+06     15.7227E+06    -123.984E+06     39.8999E+06     1.93823E+06         21.9485
            1018     3.96234E-03     11.3328E-03         4.58784        -1.21237        -1.87076        -1.52867         4.24575        -1.21237         1.63756     21.0281E-03    -9.91176E-03    -11.1164E-03    -11.0304E-03     20.9422E-03    -9.91176E-03    -3.26320E-03     35.5293E+06     15.2962E+06    -133.285E+06     15.2335E+06    -133.222E+06     35.5293E+06     1.74879E+06         21.8155
            1019     2.97265E-03     11.3299E-03         4.69425        -1.13495        -2.02194        -1.36259         4.03490        -1.13495     67.0949E-03     19.8837E-03    -9.60049E-03    -10.2832E-03    -10.2300E-03     19.8305E-03    -9.60049E-03    -2.46812E-03     28.2458E+06     14.8140E+06    -138.776E+06     14.7794E+06    -138.741E+06     28.2458E+06     891.473E+03         21.7145
            1020     1.98213E-03     11.3279E-03         5.19650        -1.07135        -2.56169        -1.17361         3.80842        -1.07135         1.85722     19.0306E-03    -9.36374E-03    -9.66687E-03    -9.64066E-03     19.0044E-03    -9.36374E-03    -1.66826E-03     21.0406E+06     13.8575E+06    -142.328E+06     13.8454E+06    -142.316E+06     21.0406E+06     140.768E+03         21.6432
            1021     991.168E-06     11.3264E-03         8.27291        -1.08941        -5.59803        -1.00183         3.67671        -1.08941        -5.25871     18.4933E-03    -9.16088E-03    -9.33239E-03    -9.32372E-03     18.4846E-03    -9.16088E-03    -869.687E-06     15.6263E+06     12.3577E+06    -143.377E+06     12.3788E+06    -143.370E+06     15.5979E+06     250.884E+03         21.6001
            1022     16.7405E-03     10.4116E-03         4.49122        -1.18688        -1.83959        -1.18651         4.49085        -1.83959     60.7652E-03     35.9223E-03    -15.2467E-03    -20.6756E-03    -19.7893E-03     35.0360E-03    -15.2467E-03     9.78516E-03     205.639E+06     35.4321E+06    -31.3569E+06    -2.95575E+06     205.625E+06     7.04477E+06    -885.748E+03         30.9188
            1023     15.7600E-03     10.3885E-03         4.70597        -1.36485        -1.87675        -1.35798         4.69910        -1.87675    -294.035E-03     37.4439E-03    -14.7028E-03    -22.7411E-03    -21.1615E-03     35.8643E-03    -14.7028E-03     19.1878E-03     145.463E+06    -2.23643E+06    -47.9277E+06    -2.15424E+06     145.381E+06    -47.9277E+06    -2.18289E+06         29.3325
            1024     14.7828E-03     10.3680E-03         4.92182        -1.55361        -1.90752        -1.54012         4.90833        -1.90752    -590.219E-03     37.4331E-03    -14.4478E-03    -22.9853E-03    -22.0474E-03     36.4952E-03    -14.4478E-03     14.4721E-03     86.9009E+06     1.80914E+06    -25.6977E+06     2.06945E+06     86.6406E+06    -25.6977E+06    -3.84189E+06         27.7793
            1025     13.8043E-03     10.3533E-03         5.13087        -1.72264        -1.94740        -1.73379         5.12336        -1.92874    -408.579E-03     36.3496E-03    -14.1008E-03    -22.2487E-03    -21.9349E-03     36.0357E-03    -14.1008E-03     8.19878E-03     47.8681E+06     10.9468E+06    -4.44965E+06     6.00149E+06     47.6199E+06     743.959E+03    -3.03140E+06         26.4096
            1026     12.8256E-03     10.3437E-03         5.33441        -1.84644        -2.02165        -1.92374         5.32802        -1.93796    -397.780E-03     35.1417E-03    -13.6535E-03    -21.4881E-03    -21.4056E-03     35.0592E-03    -13.6535E-03     4.00447E-03     30.0166E+06     14.5178E+06     4.26939E+06     8.21251E+06     19.8000E+06     20.7913E+06    -2.64212E+06         25.2929
            1027     11.8464E-03     10.3352E-03         5.52819        -1.91255        -2.13985        -2.11188         5.52030        -1.93263    -479.362E-03     33.8995E-03    -13.0975E-03    -20.8020E-03    -20.7893E-03     33.8868E-03    -13.0975E-03     1.05149E-03     26.9340E+06     12.9085E+06    -15.9029E+06     11.1804E+06    -14.1748E+06     26.9340E+06    -5.13468E+06         24.4245
            1028     10.8667E-03     10.3294E-03         5.71280        -1.90870        -2.31994        -2.30281         5.69567        -1.90870    -683.795E-03     32.3690E-03    -12.5058E-03    -19.8632E-03    -19.8342E-03     32.3400E-03    -12.5058E-03    -1.80734E-03     34.3704E+06     15.6868E+06    -45.2362E+06     14.6615E+06    -44.2109E+06     34.3704E+06    -7.40351E+06         23.7615
            1029     9.88559E-03     10.3256E-03         5.84733        -1.86086        -2.49930        -2.48432         5.83236        -1.86086    -553.317E-03     30.4957E-03    -11.8953E-03    -18.6004E-03    -18.5169E-03     30.4122E-03    -11.8953E-03    -3.96732E-03     43.5166E+06     17.9611E+06    -64.7394E+06     17.1096E+06    -63.8879E+06     43.5166E+06    -7.96580E+06         23.2526
            1030     8.90321E-03     10.3229E-03         5.85617        -1.78651        -2.58462        -2.58387         5.85541        -1.78651     24.7524E-03     28.4629E-03    -11.2683E-03    -17.1946E-03    -17.0534E-03     28.3217E-03    -11.2683E-03    -5.01717E-03     48.9091E+06     19.5898E+06    -80.9279E+06     18.9818E+06    -80.3200E+06     48.9091E+06    -7.28349E+06         22.8541
            1031     7.91922E-03     10.3204E-03         5.76646        -1.69067        -2.59521        -2.53153         5.70278        -1.69067         1.09549     26.3526E-03    -10.6506E-03    -15.7021E-03    -15.5147E-03     26.1653E-03    -10.6506E-03    -5.58440E-03     51.6321E+06     20.2939E+06    -96.3478E+06     19.9432E+06    -95.9970E+06     51.6321E+06    -5.85729E+06         22.5344
            1032     6.93371E-03     10.3189E-03         5.48938        -1.58382        -2.42414        -2.35568         5.42091        -1.58382     725.744E-03     24.2201E-03    -10.0694E-03    -14.1507E-03    -13.9479E-03     24.0173E-03    -10.0694E-03    -5.55758E-03     54.5862E+06     20.1566E+06    -108.551E+06     19.9505E+06    -108.345E+06     54.5862E+06    -4.57665E+06         22.2731
            1033     5.94658E-03     10.3170E-03         5.15121        -1.47272        -2.18884        -2.15223         5.11460        -1.47272     379.524E-03     22.1485E-03    -9.51817E-03    -12.6304E-03    -12.4439E-03     21.9621E-03    -9.51817E-03    -5.07568E-03     53.8386E+06     19.4057E+06    -117.015E+06     19.2510E+06    -116.861E+06     53.8386E+06    -3.76537E+06         22.0579
            1034     4.95804E-03     10.3155E-03         4.85433        -1.35811        -1.98868        -1.94272         4.80837        -1.35811     225.350E-03     20.2431E-03    -9.00930E-03    -11.2338E-03    -11.0842E-03     20.0935E-03    -9.00930E-03    -4.32439E-03     48.8848E+06     18.4685E+06    -124.519E+06     18.3564E+06    -124.407E+06     48.8848E+06    -2.90748E+06         21.8823
            1035     3.96814E-03     10.3137E-03         4.78460        -1.24202        -2.00937        -1.70572         4.48095        -1.24202         1.49622     18.5777E-03    -8.55635E-03    -10.0213E-03    -9.91288E-03     18.4692E-03    -8.55635E-03    -3.50430E-03     40.0252E+06     17.0111E+06    -132.816E+06     16.9350E+06    -132.740E+06     40.0252E+06    -2.71067E+06         21.7422
            1036     2.97712E-03     10.3125E-03         4.72701        -1.13427        -2.02733        -1.43420         4.13388        -1.13427     47.3098E-03     17.1984E-03    -8.17334E-03    -9.02509E-03    -8.95777E-03     17.1311E-03    -8.17334E-03    -2.62972E-03     29.5980E+06     15.1792E+06    -138.553E+06     15.1147E+06    -138.488E+06     29.5980E+06    -2.66946E+06         21.6350
            1037     1.98529E-03     10.3111E-03         5.14734        -1.05722        -2.49636        -1.16585         3.81682        -1.05722         1.84366     16.1633E-03    -7.88015E-03    -8.28313E-03    -8.25056E-03     16.1307E-03    -7.88015E-03    -1.74016E-03     20.5263E+06     13.4131E+06    -142.934E+06     13.3796E+06    -142.901E+06     20.5263E+06    -2.04330E+06         21.5588
            1038     992.870E-06     10.3105E-03         8.03256        -1.08117        -5.33659    -979.054E-03         3.67503        -1.08117        -4.92503     15.4815E-03    -7.65773E-03    -7.82380E-03    -7.81320E-03     15.4709E-03    -7.65773E-03    -921.000E-06     14.5554E+06     11.5411E+06    -144.481E+06     11.7882E+06    -144.464E+06     14.2921E+06    -1.35218E+06         21.5124
            1039     16.7412E-03     9.37486E-03         4.54530        -1.11728        -1.94483        -1.11672         4.54474        -1.94483     60.2791E-03     36.8249E-03    -15.1879E-03    -21.6370E-03    -20.6294E-03     35.8173E-03    -15.1879E-03     10.1800E-03     206.985E+06     37.1586E+06    -29.8152E+06    -2.72465E+06     206.981E+06     10.0720E+06    -482.956E+03         30.8283
            1040     15.7626E-03     9.35105E-03         4.70905        -1.23324        -1.99464        -1.22728         4.70309        -1.99464    -284.797E-03     38.1231E-03    -14.6029E-03    -23.5203E-03    -21.8113E-03     36.4142E-03    -14.6029E-03     20.1453E-03     148.714E+06    -1.37198E+06    -42.3989E+06    -1.27852E+06     148.620E+06    -42.3989E+06    -2.27071E+06         29.2563
            1041     14.7838E-03     9.32917E-03         4.90234        -1.38138        -2.04301        -1.36940         4.89036        -2.04301    -547.976E-03     38.0360E-03    -14.3056E-03    -23.7304E-03    -22.8133E-03     37.1189E-03    -14.3056E-03     14.2781E-03     89.0841E+06     114.299E+03    -18.6599E+06     636.441E+03     88.5619E+06    -18.6599E+06    -5.80292E+06         27.7193
            1042     13.8071E-03     9.31625E-03         5.12177        -1.55860        -2.08604        -1.55193         5.11510        -2.08604    -371.142E-03     36.9729E-03    -13.8772E-03    -23.0957E-03    -22.8338E-03     36.7110E-03    -13.8772E-03     7.41780E-03     48.3150E+06     9.91674E+06    -2.90427E+06     3.83563E+06     46.4090E+06     5.08283E+06    -7.37401E+06         26.3637
            1043     12.8299E-03     9.30700E-03         5.38028        -1.77817        -2.11958        -1.77275         5.37486        -2.11958    -358.363E-03     35.6548E-03    -13.3417E-03    -22.3131E-03    -22.2516E-03     35.5933E-03    -13.3417E-03     3.51248E-03     35.0411E+06     20.3141E+06     2.79594E+06     10.1433E+06     21.2698E+06     26.7380E+06    -8.45278E+06         25.2577
            1044     11.8518E-03     9.30086E-03         5.68582        -2.01147        -2.18256        -2.04998         5.67931        -2.13754    -431.193E-03     34.1855E-03    -12.7092E-03    -21.4763E-03    -21.4649E-03     34.1741E-03    -12.7092E-03     781.355E-06     36.6299E+06     20.5156E+06    -16.1832E+06     15.4950E+06    -11.1626E+06     36.6299E+06    -10.5093E+06         24.3970
            1045     10.8725E-03     9.29639E-03         6.01075        -2.12038        -2.38954        -2.36459         5.99683        -2.13142    -624.509E-03     32.3880E-03    -12.0330E-03    -20.3551E-03    -20.3224E-03     32.3553E-03    -12.0330E-03    -2.10968E-03     44.0437E+06     20.5941E+06    -46.4304E+06     18.1235E+06    -43.9598E+06     44.0437E+06    -12.3074E+06         23.7396
            1046     9.89206E-03     9.29540E-03         6.26730        -2.09332        -2.66891        -2.65656         6.25495        -2.09332    -508.553E-03     30.2275E-03    -11.3381E-03    -18.8894E-03    -18.8026E-03     30.1407E-03    -11.3381E-03    -4.06887E-03     53.4815E+06     21.9703E+06    -66.6831E+06     19.9306E+06    -64.6434E+06     53.4815E+06    -13.0361E+06         23.2346
            1047     8.90984E-03     9.29470E-03         6.38720        -2.01881        -2.86425        -2.86396         6.38691        -2.01881     6.50420E-03     27.8491E-03    -10.6307E-03    -17.2184E-03    -17.0869E-03     27.7176E-03    -10.6307E-03    -4.81352E-03     58.6492E+06     22.7147E+06    -84.2671E+06     21.1170E+06    -82.6695E+06     58.6492E+06    -12.6171E+06         22.8388
            1048     7.92581E-03     9.29540E-03         6.37533        -1.90951        -2.96378        -2.91669         6.32824        -1.90951     982.613E-03     25.4201E-03    -9.94439E-03    -15.4757E-03    -15.3126E-03     25.2570E-03    -9.94439E-03    -5.11270E-03     62.0214E+06     22.9689E+06    -99.9576E+06     21.8855E+06    -98.8742E+06     62.0214E+06    -11.0621E+06         22.5206
            1049     6.93992E-03     9.29575E-03         6.11722        -1.77477        -2.83953        -2.78746         6.06515        -1.77477     631.033E-03     23.0117E-03    -9.29398E-03    -13.7178E-03    -13.5489E-03     22.8429E-03    -9.29398E-03    -4.92809E-03     64.0773E+06     22.3601E+06    -111.038E+06     21.6162E+06    -110.294E+06     64.0773E+06    -9.56190E+06         22.2600
            1050     5.95233E-03     9.29674E-03         5.71580        -1.62602        -2.57728        -2.54839         5.68691        -1.62602     315.877E-03     20.6842E-03    -8.66919E-03    -12.0150E-03    -11.8692E-03     20.5384E-03    -8.66919E-03    -4.30520E-03     59.4008E+06     20.5468E+06    -119.228E+06     19.9810E+06    -118.662E+06     59.4008E+06    -8.55108E+06         22.0448
            1051     4.96296E-03     9.29685E-03         5.28583        -1.47247        -2.28307        -2.24299         5.24576        -1.47247     130.661E-03     18.5655E-03    -8.09289E-03    -10.4726E-03    -10.3619E-03     18.4547E-03    -8.09289E-03    -3.52771E-03     49.4325E+06     17.8473E+06    -126.830E+06     17.4269E+06    -126.410E+06     49.4325E+06    -7.50154E+06         21.8679
            1052     3.97224E-03     9.29730E-03         4.99993        -1.33052        -2.11384        -1.85177         4.73787        -1.33052         1.31640     16.7412E-03    -7.58886E-03    -9.15235E-03    -9.07462E-03     16.6635E-03    -7.58886E-03    -2.77853E-03     37.1769E+06     15.0395E+06    -134.347E+06     14.7458E+06    -134.053E+06     37.1769E+06    -6.33237E+06         21.7255
            1053     2.98030E-03     9.29713E-03         4.81364        -1.22401        -2.00006        -1.47287         4.28645        -1.22401    -35.1849E-03     15.2631E-03    -7.17733E-03    -8.08574E-03    -8.03952E-03     15.2168E-03    -7.17733E-03    -2.01081E-03     25.8246E+06     12.4111E+06    -140.775E+06     12.2230E+06    -140.586E+06     25.8246E+06    -5.24374E+06         21.6154
            1054     1.98744E-03     9.29730E-03         5.23441        -1.16279        -2.45156        -1.24201         4.02485        -1.16279         1.76191     14.1630E-03    -6.86811E-03    -7.29490E-03    -7.27365E-03     14.1418E-03    -6.86811E-03    -1.28087E-03     16.9573E+06     9.96447E+06    -145.936E+06     9.87023E+06    -145.842E+06     16.9573E+06    -3.54702E+06         21.5364
            1055     993.869E-06     9.29700E-03         7.94802        -1.16132        -5.14333        -1.12471         3.92940        -1.16132        -4.71204     13.4347E-03    -6.65078E-03    -6.78392E-03    -6.77706E-03     13.4278E-03    -6.65078E-03    -695.236E-06     10.2473E+06     7.82072E+06    -147.313E+06     8.08018E+06    -147.284E+06     9.95888E+06    -2.09252E+06         21.4879
            1056     16.7425E-03     8.33750E-03         4.59286        -1.04633        -2.03952        -1.04592         4.59246        -2.03952     26.8625E-03     37.8648E-03    -15.1660E-03    -22.6988E-03    -21.5445E-03     36.7104E-03    -15.1660E-03     10.6562E-03     208.403E+06     39.7248E+06    -28.6493E+06    -2.64909E+06     208.391E+06     13.7365E+06    -1.33172E+06         30.7021
            1057     15.7638E-03     8.31229E-03         4.70007        -1.09882        -2.10145        -1.09373         4.69498        -2.10145    -273.052E-03     39.0924E-03    -14.5219E-03    -24.5705E-03    -22.6380E-03     37.1600E-03    -14.5219E-03     21.7149E-03     151.194E+06    -612.288E+03    -38.8352E+06    -533.715E+03     151.115E+06    -38.8352E+06    -2.86905E+06         29.1456
            1058     14.7879E-03     8.29051E-03         4.88715        -1.22869        -2.16608        -1.21903         4.87749        -2.16608    -484.429E-03     38.6973E-03    -14.1814E-03    -24.5158E-03    -23.5312E-03     37.7127E-03    -14.1814E-03     14.8110E-03     93.9390E+06     1.73201E+06    -11.6089E+06     2.58414E+06     93.0869E+06    -11.6089E+06    -6.93107E+06         27.6269
            1059     13.8110E-03     8.27774E-03         5.13148        -1.41388        -2.22789        -1.40889         5.12649        -2.22789    -305.529E-03     37.2688E-03    -13.6954E-03    -23.5734E-03    -23.3336E-03     37.0290E-03    -13.6954E-03     7.16381E-03     54.2510E+06     12.1830E+06     486.682E+03     6.40944E+06     49.4345E+06     11.0768E+06    -12.9615E+06         26.2892
            1060     12.8335E-03     8.27096E-03         5.44194        -1.66698        -2.28147        -1.66311         5.43806        -2.28147    -292.316E-03     35.6664E-03    -13.1151E-03    -22.5514E-03    -22.4915E-03     35.6066E-03    -13.1151E-03     3.59045E-03     40.6857E+06     24.7990E+06    -1.96866E+06     11.1151E+06     21.3106E+06     31.0904E+06    -16.0462E+06         25.2001
            1061     11.8553E-03     8.26556E-03         5.81581        -1.99382        -2.31936        -1.98934         5.81132        -2.31936    -349.405E-03     33.9786E-03    -12.4694E-03    -21.5091E-03    -21.4930E-03     33.9624E-03    -12.4694E-03     1.22106E-03     44.2973E+06     25.0593E+06    -20.2022E+06     15.2561E+06    -10.3990E+06     44.2973E+06    -16.2823E+06         24.3559
            1062     10.8763E-03     8.26418E-03         6.21725        -2.25077        -2.45443        -2.36297         6.20689        -2.33188    -530.909E-03     31.9404E-03    -11.7808E-03    -20.1596E-03    -20.1422E-03     31.9230E-03    -11.7808E-03    -1.28169E-03     52.8249E+06     23.0978E+06    -48.4346E+06     18.2423E+06    -43.5790E+06     52.8249E+06    -17.5494E+06         23.7148
            1063     9.89555E-03     8.26505E-03         6.56662        -2.30944        -2.73968        -2.73021         6.55715        -2.30944    -437.325E-03     29.5815E-03    -11.0863E-03    -18.4952E-03    -18.4528E-03     29.5391E-03    -11.0863E-03    -2.54876E-03     62.5122E+06     24.2977E+06    -69.8772E+06     20.2819E+06    -65.8613E+06     62.5122E+06    -18.7225E+06         23.2261
            1064     8.91300E-03     8.26788E-03         6.77958        -2.24562        -3.01526        -3.01511         6.77943        -2.24562     16.7411E-03     27.1518E-03    -10.3914E-03    -16.7605E-03    -16.7034E-03     27.0947E-03    -10.3914E-03    -2.76149E-03     68.2009E+06     24.6601E+06    -88.6381E+06     21.4653E+06    -85.4433E+06     68.2009E+06    -18.4140E+06         22.8459
            1065     7.92858E-03     8.27058E-03         6.82926        -2.14077        -3.17091        -3.13400         6.79235        -2.14077     897.953E-03     24.6953E-03    -9.70871E-03    -14.9866E-03    -14.9219E-03     24.6306E-03    -9.70871E-03    -2.68753E-03     69.5431E+06     23.7011E+06    -105.000E+06     21.3948E+06    -102.694E+06     69.5431E+06    -16.7655E+06         22.5427
            1066     6.94237E-03     8.27426E-03         6.64299        -2.00164        -3.12122        -3.07952         6.60129        -2.00164     548.748E-03     22.2948E-03    -9.04352E-03    -13.2513E-03    -13.1890E-03     22.2325E-03    -9.04352E-03    -2.35589E-03     66.1586E+06     21.6399E+06    -115.295E+06     20.0100E+06    -113.665E+06     66.1586E+06    -14.6077E+06         22.2954
            1067     5.95423E-03     8.27713E-03         6.27898        -1.83686        -2.91171        -2.88927         6.25654        -1.83686     247.768E-03     20.0291E-03    -8.39999E-03    -11.6291E-03    -11.5793E-03     19.9793E-03    -8.39999E-03    -1.87698E-03     56.1224E+06     18.8579E+06    -123.013E+06     17.6713E+06    -121.826E+06     56.1224E+06    -12.7319E+06         22.0909
            1068     4.96465E-03     8.27999E-03         5.79383        -1.66034        -2.58521        -2.54747         5.75608        -1.66034    -9.16021E-03     17.9504E-03    -7.81579E-03    -10.1346E-03    -10.0988E-03     17.9146E-03    -7.81579E-03    -1.40520E-03     43.8314E+06     15.4991E+06    -130.717E+06     14.6893E+06    -129.907E+06     43.8314E+06    -10.6604E+06         21.9214
            1069     3.97351E-03     8.28184E-03         5.36630        -1.49821        -2.29305        -2.08457         5.15782        -1.49821         1.05744     16.1473E-03    -7.31331E-03    -8.83401E-03    -8.81000E-03     16.1233E-03    -7.31331E-03    -1.02694E-03     31.4042E+06     11.7874E+06    -137.996E+06     11.2709E+06    -137.479E+06     31.4042E+06    -8.69224E+06         21.7832
            1070     2.98122E-03     8.28366E-03         5.11800        -1.37597        -2.13282        -1.66882         4.65400        -1.37597    -275.134E-03     14.6896E-03    -6.90623E-03    -7.78333E-03    -7.77027E-03     14.6765E-03    -6.90623E-03    -674.753E-06     20.1714E+06     8.27890E+06    -144.660E+06     7.96810E+06    -144.350E+06     20.1714E+06    -6.70948E+06         21.6749
            1071     1.98798E-03     8.28448E-03         5.43796        -1.29883        -2.50004        -1.41175         4.34967        -1.29883         1.52131     13.6105E-03    -6.60125E-03    -7.00921E-03    -7.00356E-03     13.6048E-03    -6.60125E-03    -406.597E-06     11.0815E+06     5.25508E+06    -150.031E+06     5.11755E+06    -149.894E+06     11.0815E+06    -4.45423E+06         21.5964
            1072     994.217E-06     8.28536E-03         7.96193        -1.26761        -5.03033        -1.27348         4.20507        -1.26761        -4.73465     12.9146E-03    -6.39520E-03    -6.51941E-03    -6.51743E-03     12.9126E-03    -6.39520E-03    -227.060E-06     5.34205E+06     3.57798E+06    -151.283E+06     3.59753E+06    -151.238E+06     5.27749E+06    -2.37975E+06         21.5479
            1073     16.7418E-03     7.29909E-03         4.65754    -996.700E-03        -2.12827    -996.493E-03         4.65733        -2.12827     5.87128E-03     39.0054E-03    -15.2284E-03    -23.7769E-03    -22.2998E-03     37.5282E-03    -15.2284E-03     12.2561E-03     210.180E+06     40.5102E+06    -26.7567E+06    -3.90663E+06     210.155E+06     17.6860E+06    -1.52247E+06         30.5388
            1074     15.7646E-03     7.27316E-03         4.71429    -998.087E-03        -2.20025    -994.589E-03         4.71079        -2.20025    -227.550E-03     40.3275E-03    -14.5261E-03    -25.8014E-03    -23.3729E-03     37.8990E-03    -14.5261E-03     24.6888E-03     154.029E+06    -3.33930E+06    -37.9316E+06    -3.13950E+06     153.829E+06    -37.9316E+06    -4.71887E+06         28.9969
            1075     14.7877E-03     7.25032E-03         4.90092        -1.11929        -2.27802        -1.11300         4.89463        -2.27802    -383.278E-03     39.3939E-03    -14.1496E-03    -25.2443E-03    -24.0199E-03     38.1696E-03    -14.1496E-03     16.8302E-03     101.054E+06     3.74890E+06    -12.6329E+06     1.06135E+06     99.6736E+06    -8.56515E+06    -9.89700E+06         27.4972
            1076     13.8119E-03     7.23987E-03         5.18508        -1.33294        -2.35398        -1.32997         5.18211        -2.35398    -197.961E-03     37.3577E-03    -13.6535E-03    -23.7042E-03    -23.3785E-03     37.0320E-03    -13.6535E-03     8.47452E-03     61.9089E+06     16.5184E+06    -2.82964E+06     4.40326E+06      55.222E+06     15.9724E+06    -17.2874E+06         26.1808
            1077     12.8348E-03     7.23445E-03         5.53375        -1.61149        -2.42184        -1.60956         5.53181        -2.42184    -171.232E-03     35.2365E-03    -13.0811E-03    -22.1554E-03    -22.0253E-03     35.1064E-03    -13.0811E-03     5.25622E-03     44.6804E+06     28.1741E+06    -10.5287E+06     7.58956E+06     21.4285E+06     33.3077E+06    -22.5894E+06         25.1155
            1078     11.8563E-03     7.23157E-03         5.92382        -1.93971        -2.47535        -1.93759         5.92170        -2.47535    -212.223E-03     33.1099E-03    -12.4978E-03    -20.6120E-03    -20.5211E-03     33.0189E-03    -12.4978E-03     3.71971E-03     47.4604E+06     28.1913E+06    -28.3751E+06     11.7730E+06    -11.9567E+06     47.4604E+06    -23.7052E+06         24.2981
            1079     10.8761E-03     7.23205E-03         6.34586        -2.28645        -2.54053        -2.31475         6.33974        -2.50610    -373.040E-03     30.8968E-03    -11.9126E-03    -18.9842E-03    -18.9301E-03     30.8427E-03    -11.9126E-03     1.97136E-03     57.6926E+06     24.4391E+06    -52.7382E+06     15.6414E+06    -43.9405E+06     57.6926E+06    -23.9603E+06         23.6866
            1080     9.89407E-03     7.23644E-03         6.75142        -2.47673        -2.74868        -2.71583         6.74548        -2.50364    -297.924E-03     28.7412E-03    -11.3441E-03    -17.3971E-03    -17.3298E-03     28.6738E-03    -11.3441E-03     1.71472E-03     67.7241E+06     24.9833E+06    -74.1363E+06     17.8933E+06    -67.0463E+06     67.7241E+06    -25.2521E+06         23.2288
            1081     8.91050E-03     7.24087E-03         7.03257        -2.45996        -3.04388        -3.04373         7.03241        -2.45996     59.2694E-03     26.7402E-03    -10.7808E-03    -15.9593E-03    -15.8725E-03     26.6533E-03    -10.7808E-03     2.03905E-03     73.2423E+06     24.8377E+06    -95.0868E+06     19.1292E+06    -89.3783E+06     73.2423E+06    -25.0675E+06         22.8797
            1082     7.92543E-03     7.24705E-03         7.13107        -2.37538        -3.22644        -3.19819         7.10282        -2.37538     798.047E-03     24.7604E-03    -10.1927E-03    -14.5677E-03    -14.4696E-03     24.6622E-03    -10.1927E-03     2.27422E-03     69.5122E+06     22.9760E+06    -112.110E+06     19.1133E+06    -108.248E+06     69.5122E+06    -22.2299E+06         22.6065
            1083     6.93866E-03     7.25235E-03         7.02528        -2.25549        -3.23622        -3.20270         6.99177        -2.25549     433.697E-03     22.8419E-03    -9.59185E-03    -13.2501E-03    -13.1510E-03     22.7428E-03    -9.59185E-03     2.42686E-03     60.0541E+06     20.0495E+06    -121.174E+06     17.4072E+06    -118.532E+06     60.0541E+06    -18.9795E+06         22.3867
            1084     5.95085E-03     7.25803E-03         6.75828        -2.10469        -3.10955        -3.09184         6.74057        -2.10469     158.162E-03     20.9796E-03    -9.00995E-03    -11.9697E-03    -11.8835E-03     20.8934E-03    -9.00995E-03     2.31603E-03     48.7462E+06     16.4318E+06    -128.750E+06     14.6143E+06    -126.932E+06     48.7462E+06    -15.9678E+06         22.2051
            1085     4.96146E-03     7.26244E-03         6.36656        -1.93115        -2.87159        -2.83477         6.32973        -1.93115    -169.773E-03     19.1538E-03    -8.46545E-03    -10.6883E-03    -10.6212E-03     19.0866E-03    -8.46545E-03     2.05847E-03     36.3872E+06     12.5241E+06    -136.234E+06     11.3907E+06    -135.100E+06     36.3872E+06    -12.7790E+06         22.0532
            1086     3.97095E-03     7.26661E-03         5.95994        -1.75198        -2.61595        -2.45566         5.79965        -1.75198     813.381E-03     17.4834E-03    -7.98579E-03    -9.49757E-03    -9.45194E-03     17.4377E-03    -7.98579E-03     1.66945E-03     24.8416E+06     8.64462E+06    -142.949E+06     7.98669E+06    -142.291E+06     24.8416E+06    -9.77776E+06         21.9277
            1087     2.97923E-03     7.26942E-03         5.66009        -1.58620        -2.44957        -2.04901         5.25953        -1.58620    -505.018E-03     16.0756E-03    -7.59103E-03    -8.48458E-03    -8.45774E-03     16.0488E-03    -7.59103E-03     1.24911E-03     14.7839E+06     4.59415E+06    -149.568E+06     4.25368E+06    -149.227E+06     14.7839E+06    -7.07463E+06         21.8280
            1088     1.98674E-03     7.27179E-03         5.76977        -1.45663        -2.65912        -1.66447         4.77513        -1.45663         1.32778     14.9912E-03    -7.29077E-03    -7.70043E-03    -7.68755E-03     14.9783E-03    -7.29077E-03     835.526E-06     6.22232E+06     1.36320E+06    -154.374E+06     1.21609E+06    -154.226E+06     6.22232E+06    -4.57793E+06         21.7549
            1089     993.478E-06     7.27290E-03         8.04132        -1.39198        -4.97733        -1.41675         4.48074        -1.39198        -4.74396     14.3054E-03    -7.09585E-03    -7.20955E-03    -7.20506E-03     14.3009E-03    -7.09585E-03     460.268E-06     429.737E+03    -679.039E+03    -155.965E+06    -684.506E+03    -155.919E+06     388.442E+03    -2.46092E+06         21.7093
            1090     16.7389E-03     6.26079E-03         4.76089    -995.090E-03        -2.21771    -994.710E-03         4.76051        -2.21771     53.6371E-03     40.3955E-03    -15.4206E-03    -24.9749E-03    -23.0316E-03     38.4522E-03    -15.4206E-03     14.0797E-03     212.481E+06     40.7523E+06    -24.5635E+06    -5.49965E+06     212.458E+06     21.7117E+06    -149.912E+03         30.3469
            1091     15.7617E-03     6.23200E-03         4.80332    -983.793E-03        -2.29566    -982.300E-03         4.80182        -2.29566    -126.465E-03     41.6223E-03    -14.6391E-03    -26.9833E-03    -23.9891E-03     38.6282E-03    -14.6391E-03     27.7136E-03     159.268E+06    -7.07039E+06    -43.0485E+06    -6.73280E+06     158.931E+06    -43.0485E+06    -5.74910E+06         28.8175
            1092     14.7867E-03     6.21098E-03         4.98683        -1.09715        -2.38065        -1.09462         4.98430        -2.38065    -227.508E-03     39.6507E-03    -14.2255E-03    -25.4252E-03    -24.0444E-03     38.2699E-03    -14.2255E-03     18.0259E-03     109.500E+06    -1.16068E+06    -22.1795E+06    -3.17985E+06     107.451E+06    -18.1118E+06    -13.3355E+06         27.3357
            1093     13.8099E-03     6.20088E-03         5.28253        -1.31616        -2.46480        -1.31472         5.28109        -2.46480    -46.3368E-03     36.4768E-03    -13.8004E-03    -22.6764E-03    -22.2418E-03     36.0421E-03    -13.8004E-03     9.82973E-03     69.9770E+06     10.3146E+06    -7.69684E+06     551.010E+03     61.7428E+06     10.3010E+06    -21.6565E+06         26.0428
            1094     12.8317E-03     6.19968E-03         5.63175        -1.58599        -2.54243        -1.58518         5.63094        -2.54243    -9.44484E-03     33.7956E-03    -13.3606E-03    -20.4350E-03    -20.0382E-03     33.3988E-03    -13.3606E-03     8.65356E-03     47.0720E+06     24.4253E+06    -17.8961E+06     4.12657E+06     23.1741E+06     26.3005E+06    -28.2594E+06         25.0078
            1095     11.8510E-03     6.19827E-03         6.01415        -1.89374        -2.60867        -1.89299         6.01340        -2.60867    -24.2994E-03     31.6901E-03    -12.9868E-03    -18.7033E-03    -18.1794E-03     31.1662E-03    -12.9868E-03     9.35562E-03      42.116E+06     28.7547E+06    -37.7621E+06     7.35606E+06    -14.3019E+06     40.0545E+06    -31.0170E+06         24.2282
            1096     10.8685E-03     6.20239E-03         6.43701        -2.25842        -2.65608        -2.25572         6.43432        -2.65608    -154.704E-03     29.9859E-03    -12.6495E-03    -17.3364E-03    -16.8022E-03     29.4517E-03    -12.6495E-03     8.83948E-03     51.0176E+06     25.4432E+06    -60.3629E+06     10.8832E+06    -45.8029E+06     51.0176E+06    -31.5626E+06         23.6600
            1097     9.88452E-03     6.20792E-03         6.85542        -2.56703        -2.75725        -2.64662         6.85260        -2.67484    -112.456E-03     28.6918E-03    -12.3329E-03    -16.3589E-03    -15.7498E-03     28.0827E-03    -12.3329E-03     9.28144E-03     61.0746E+06     24.7645E+06    -79.9532E+06     13.6677E+06    -68.8564E+06     61.0746E+06    -31.9367E+06         23.2481
            1098     8.89956E-03     6.21504E-03         7.17519        -2.65721        -2.98222        -2.98176         7.17473        -2.65721     117.986E-03     27.6243E-03    -12.0128E-03    -15.6115E-03    -14.9649E-03     26.9777E-03    -12.0128E-03     9.60853E-03     65.9225E+06     22.7338E+06    -103.475E+06     14.1464E+06    -94.8877E+06     65.9225E+06    -31.3471E+06         22.9449
            1099     7.91372E-03     6.22225E-03         7.31822        -2.60347        -3.17641        -3.15556         7.29737        -2.60347     690.889E-03     26.6103E-03    -11.6240E-03    -14.9863E-03    -14.3539E-03     25.9779E-03    -11.6240E-03     9.49635E-03     59.7655E+06     19.6548E+06    -121.872E+06     13.8210E+06    -116.039E+06     59.7655E+06    -27.8050E+06         22.7158
            1100     6.92756E-03     6.22979E-03         7.26667        -2.52081        -3.20293        -3.17536         7.23909        -2.52081     285.952E-03     25.5034E-03    -11.1700E-03    -14.3334E-03    -13.7659E-03     24.9359E-03    -11.1700E-03     8.93437E-03     48.0964E+06     16.7873E+06    -129.561E+06     13.0907E+06    -125.865E+06     48.0964E+06    -22.6795E+06         22.5366
            1101     5.94037E-03     6.23648E-03         7.11289        -2.41283        -3.14437        -3.12808         7.09660        -2.41283     64.0937E-03     24.1810E-03    -10.7074E-03    -13.4735E-03    -13.0294E-03     23.7368E-03    -10.7074E-03     7.78378E-03     38.4368E+06     12.9474E+06    -136.100E+06     10.7344E+06    -133.887E+06     38.4368E+06    -17.8504E+06         22.3903
            1102     4.95265E-03     6.24316E-03         6.93563        -2.27379        -3.08523        -3.05029         6.90069        -2.27379    -269.959E-03     22.7160E-03    -10.2392E-03    -12.4769E-03    -12.1493E-03     22.3884E-03    -10.2392E-03     6.50180E-03     27.7856E+06     8.50907E+06    -142.798E+06     7.19318E+06    -141.482E+06     27.7856E+06    -13.9111E+06         22.2674
            1103     3.96372E-03     6.24846E-03         6.66225        -2.10497        -2.95236        -2.81991         6.52980        -2.10497     684.805E-03     21.2255E-03    -9.79367E-03    -11.4318E-03    -11.2175E-03     21.0111E-03    -9.79367E-03     5.08360E-03     17.6301E+06     4.40775E+06    -149.159E+06     3.70679E+06    -148.458E+06     17.6301E+06    -10.1015E+06         22.1645
            1104     2.97397E-03     6.25312E-03         6.33848        -1.92926        -2.77079        -2.43731         6.00500        -1.92926    -555.620E-03     19.8236E-03    -9.40125E-03    -10.4224E-03    -10.3026E-03     19.7038E-03    -9.40125E-03     3.64989E-03     8.91934E+06     834.568E+03    -154.662E+06     526.856E+03    -154.354E+06     8.91934E+06    -6.76585E+06         22.0816
            1105     1.98313E-03     6.25625E-03         6.36296        -1.77960        -2.91715        -2.03374         5.47954        -1.77960         1.35654     18.6628E-03    -9.09585E-03    -9.56693E-03    -9.51346E-03     18.6093E-03    -9.09585E-03     2.34561E-03     1.94261E+06    -2.16895E+06    -158.950E+06    -2.30438E+06    -158.815E+06     1.94261E+06    -4.39850E+06         22.0199
            1106     991.779E-06     6.25845E-03         8.39530        -1.68990        -5.02699        -1.73995         5.10826        -1.68990        -4.60543     17.9234E-03    -8.90021E-03    -9.02324E-03    -9.00453E-03     17.9047E-03    -8.90021E-03     1.32331E-03    -2.78509E+06    -4.16841E+06    -160.266E+06    -4.06196E+06    -160.225E+06    -2.93336E+06    -1.99804E+06         21.9811
            1107     16.7341E-03     5.22180E-03         4.90082        -1.04654        -2.31205        -1.04556         4.89984        -2.31205     139.952E-03     42.3797E-03    -15.7728E-03    -26.6069E-03    -23.9944E-03     39.7673E-03    -15.7728E-03     16.6821E-03     214.544E+06     42.6409E+06    -22.5862E+06    -4.72384E+06     214.513E+06     24.8091E+06     1.80979E+06         30.1501
            1108     15.7575E-03     5.19022E-03         4.98342        -1.07182        -2.39146        -1.07127         4.98287        -2.39146     18.0749E-03     43.0625E-03    -14.8808E-03    -28.1817E-03    -24.4355E-03     39.3163E-03    -14.8808E-03     31.2235E-03     168.080E+06    -5.76123E+06    -55.1760E+06    -5.45027E+06     167.769E+06    -55.1760E+06    -3.77910E+06         28.6303
            1109     14.7822E-03     5.17015E-03         5.16903        -1.18709        -2.47672        -1.18663         5.16856        -2.47672    -37.6966E-03     38.7151E-03    -14.4313E-03    -24.2838E-03    -22.6650E-03     37.0963E-03    -14.4313E-03     19.4762E-03     119.966E+06    -6.30600E+06    -48.0617E+06    -3.66183E+06     117.322E+06    -48.0617E+06    -15.1856E+06         27.1639
            1110     13.8040E-03     5.16545E-03         5.42766        -1.36514        -2.56261        -1.36364         5.42616        -2.56261     125.226E-03     34.0088E-03    -14.2420E-03    -19.7668E-03    -18.8053E-03     33.0473E-03    -14.2420E-03     13.5752E-03     77.0400E+06    -3.89396E+06    -20.2912E+06    -881.840E+03     68.0262E+06    -14.2895E+06    -24.7720E+06         25.8950
            1111     12.8212E-03     5.16665E-03         5.73627        -1.58748        -2.64595        -1.58599         5.73477        -2.64595     156.557E-03     31.7904E-03    -14.1514E-03    -17.6390E-03    -16.1303E-03     30.2817E-03    -14.1514E-03     15.6794E-03     49.0434E+06     5.01277E+06        -23.E+06     323.094E+03     25.9432E+06     4.78992E+06    -31.5126E+06         24.8961
            1112     11.8363E-03     5.16868E-03         6.09932        -1.86469        -2.72220        -1.86330         6.09792        -2.72220     161.589E-03     31.0565E-03    -14.1317E-03    -16.9248E-03    -14.9887E-03     29.1204E-03    -14.1317E-03     18.0222E-03     34.3649E+06     12.1940E+06    -45.3111E+06     1.82664E+06    -15.5735E+06     14.9945E+06    -36.0673E+06         24.1645
            1113     10.8504E-03     5.17307E-03         6.51226        -2.20412        -2.78393        -2.20240         6.51054        -2.78393     57.1148E-03     30.6261E-03    -14.1429E-03    -16.4832E-03    -14.6062E-03     28.7491E-03    -14.1429E-03     17.8318E-03     33.7916E+06     15.9328E+06    -69.1075E+06     4.72309E+06    -48.9509E+06     24.8446E+06    -38.0655E+06         23.6517
            1114     9.86467E-03     5.18054E-03         6.91451        -2.55072        -2.82960        -2.55587         6.91301        -2.82294     58.0678E-03     30.4877E-03    -14.1516E-03    -16.3361E-03    -14.5103E-03     28.6619E-03    -14.1516E-03     17.7693E-03     37.3754E+06     19.3892E+06    -88.5235E+06     6.95510E+06    -73.6024E+06     34.8884E+06    -37.3767E+06         23.2978
            1115     8.87879E-03     5.18741E-03         7.22693        -2.76053        -2.92562        -2.85069         7.22583        -2.83435     182.587E-03     30.4260E-03    -14.1387E-03    -16.2874E-03    -14.5353E-03     28.6740E-03    -14.1387E-03     17.5178E-03     41.4289E+06     17.9866E+06    -111.698E+06     7.18923E+06    -100.900E+06     41.4289E+06    -35.4546E+06         23.0517
            1116     7.89341E-03     5.19597E-03         7.38903        -2.80903        -3.03536        -3.00826         7.37328        -2.82038     616.275E-03     30.5240E-03    -14.0405E-03    -16.4835E-03    -14.8536E-03     28.8940E-03    -14.0405E-03     17.0108E-03     39.8107E+06     14.1346E+06    -133.102E+06     6.41353E+06    -125.381E+06     39.8107E+06    -32.5795E+06         22.8768
            1117     6.90805E-03     5.20316E-03         7.41858        -2.78778        -3.07980        -3.05636         7.39515        -2.78778     166.949E-03     30.3004E-03    -13.8202E-03    -16.4803E-03    -15.1367E-03     28.9569E-03    -13.8202E-03     15.4932E-03     32.9037E+06     11.0579E+06    -141.375E+06     6.23156E+06    -136.549E+06     32.9037E+06    -26.2907E+06         22.7478
            1118     5.92318E-03     5.21155E-03         7.40091        -2.73770        -3.09907        -3.08352         7.38537        -2.73770    -1.58615E-03     29.5496E-03    -13.5220E-03    -16.0277E-03    -15.0238E-03     28.5457E-03    -13.5220E-03     13.2835E-03     26.1476E+06     7.84149E+06    -145.078E+06     5.31408E+06    -142.550E+06     26.1476E+06    -19.2091E+06         22.6470
            1119     4.93751E-03     5.21875E-03         7.39370        -2.66122        -3.14611        -3.11346         7.36105        -2.66122    -321.415E-03     28.5058E-03    -13.1718E-03    -15.3340E-03    -14.6192E-03     27.7910E-03    -13.1718E-03     11.0266E-03     17.7532E+06     3.97668E+06    -150.281E+06     2.67435E+06    -148.978E+06     17.7532E+06    -13.8892E+06         22.5635
            1120     3.95164E-03     5.22587E-03         7.28554        -2.55802        -3.11112        -3.00013         7.17455        -2.55802     586.493E-03     27.2884E-03    -12.8041E-03    -14.4843E-03    -14.0199E-03     26.8240E-03    -12.8041E-03     8.67981E-03     10.0315E+06     23.2187E+03    -155.545E+06    -614.587E+03    -154.907E+06     10.0315E+06    -9.76435E+06         22.4930
            1121     2.96476E-03     5.23142E-03         7.12868        -2.44778        -3.02977        -2.76025         6.85916        -2.44778    -571.714E-03     26.0277E-03    -12.4418E-03    -13.5858E-03    -13.3262E-03     25.7680E-03    -12.4418E-03     6.28786E-03     3.09786E+06    -3.15164E+06    -159.816E+06    -3.42763E+06    -159.540E+06     3.09786E+06    -6.34464E+06         22.4352
            1122     1.97726E-03     5.23617E-03         7.28141        -2.35265        -3.24930        -2.51365         6.54577        -2.35265         1.40045     24.8653E-03    -12.1093E-03    -12.7560E-03    -12.6444E-03     24.7537E-03    -12.1093E-03     3.94861E-03    -2.91591E+06    -5.95400E+06    -163.409E+06    -6.05335E+06    -163.310E+06    -2.91591E+06    -3.76135E+06         22.3916
            1123     988.750E-06     5.23879E-03         9.17540        -2.29651        -5.18392        -2.32346         6.31495        -2.29651        -4.48743     23.9049E-03    -11.8088E-03    -12.0962E-03    -12.0643E-03     23.8731E-03    -11.8088E-03     1.96773E-03    -6.57201E+06    -8.20778E+06    -163.912E+06    -8.09950E+06    -163.874E+06    -6.71843E+06    -1.86040E+06         22.3636
            1124     16.7238E-03     4.18103E-03         5.04325        -1.11799        -2.40862        -1.11634         5.04159        -2.40862     200.157E-03     44.4702E-03    -16.3512E-03    -28.1191E-03    -24.7589E-03     41.1101E-03    -16.3512E-03     20.7286E-03     216.230E+06     39.3096E+06    -18.1665E+06    -5.38616E+06     216.184E+06     26.5753E+06     2.68141E+06         29.9929
            1125     15.7493E-03     4.14603E-03         5.21064        -1.22142        -2.48704        -1.22025         5.20946        -2.48704     156.017E-03     43.7875E-03    -15.4769E-03    -28.3107E-03    -23.6368E-03     39.1136E-03    -15.4769E-03     34.8668E-03     177.650E+06    -4.78835E+06    -54.6442E+06    -4.64995E+06     177.512E+06    -54.6442E+06    -1.64476E+06         28.4792
            1126     14.7724E-03     4.13286E-03         5.41658        -1.35427        -2.56798        -1.35351         5.41581        -2.56798     127.882E-03     36.2347E-03    -15.0054E-03    -21.2293E-03    -18.9961E-03     34.0904E-03    -15.0943E-03     21.5207E-03     130.944E+06    -6.15371E+06    -70.8135E+06    -4.19542E+06     128.985E+06    -70.8135E+06    -12.4312E+06         27.0252
            1127     13.7874E-03     4.13409E-03         5.62910        -1.48501        -2.65025        -1.48206         5.62615        -2.65025     263.295E-03     31.2271E-03    -14.4010E-03    -16.8261E-03    -14.0580E-03     29.2602E-03    -15.2022E-03     18.4220E-03     82.9417E+06    -13.0204E+06     -50.364E+06    -4.80357E+06     74.7249E+06     -50.364E+06    -24.4023E+06         25.7812
            1128     12.7988E-03     4.13858E-03         5.88369        -1.64983        -2.73380        -1.64665         5.88051        -2.73380     288.866E-03     30.7009E-03    -14.4199E-03    -16.2810E-03    -12.0469E-03     27.5830E-03    -15.5361E-03     22.6837E-03     50.5936E+06    -17.6322E+06    -39.8190E+06    -3.34226E+06     28.7954E+06    -32.3108E+06    -32.1560E+06         24.8241
            1129     11.8105E-03     4.13925E-03         6.20341        -1.87661        -2.81492        -1.87387         6.20068        -2.81492     284.458E-03     31.9780E-03    -15.3358E-03    -16.6422E-03    -12.4611E-03     28.3733E-03    -15.9122E-03     25.1622E-03     30.4982E+06    -19.5634E+06    -53.1541E+06    -1.92667E+06    -15.8560E+06    -24.4366E+06    -37.3245E+06         24.1483
            1130     10.8232E-03     4.14499E-03         6.56230        -2.14953        -2.88769        -2.14743         6.56019        -2.88769     184.444E-03     32.7455E-03    -15.7981E-03    -16.9474E-03    -13.4177E-03     29.6861E-03    -16.2684E-03     23.7260E-03     21.2387E+06    -16.2810E+06    -75.0270E+06    -1.27232E+06    -52.5160E+06    -16.2810E+06    -40.2550E+06         23.6984
            1131     9.83688E-03     4.15000E-03         6.91000        -2.42673        -2.94702        -2.42513         6.90841        -2.94702     171.154E-03     33.2644E-03    -15.9661E-03    -17.2983E-03    -13.9126E-03     30.5145E-03    -16.6019E-03     22.7662E-03     16.9085E+06    -7.58844E+06    -96.7945E+06    -588.326E+03    -80.3041E+06    -6.58197E+06    -39.4545E+06         23.4085
            1132     8.85139E-03     4.15861E-03         7.19052        -2.65529        -2.99117        -2.65348         7.18871        -2.99117     242.719E-03     34.2778E-03    -16.5806E-03    -17.6972E-03    -14.7250E-03     31.6436E-03    -16.9186E-03     22.7085E-03     16.6757E+06    -1.77323E+06    -119.647E+06    -55.3287E+03    -107.778E+06     3.08838E+06    -37.3336E+06         23.2241
            1133     7.86613E-03     4.16459E-03         7.37026        -2.78840        -3.03237        -2.78471         7.35805        -3.02385     563.805E-03     35.4563E-03    -17.1594E-03    -18.2969E-03    -15.9641E-03     33.1235E-03    -17.1594E-03     21.8512E-03     16.5715E+06     3.32443E+06    -143.077E+06    -54.3900E+03    -134.555E+06     11.4284E+06    -34.6540E+06         23.1069
            1134     6.88299E-03     4.17234E-03         7.51866        -2.87116        -3.09032        -2.89455         7.50002        -3.04828     118.720E-03     35.9560E-03    -17.2467E-03    -18.7092E-03    -16.8833E-03     34.1300E-03    -17.2467E-03     19.5979E-03     13.7663E+06     4.78198E+06    -154.767E+06    -565.746E+03    -149.258E+06     13.6045E+06    -28.8311E+06         23.0319
            1135     5.89993E-03     4.17987E-03         7.65203        -2.93430        -3.14692        -3.00606         7.63872        -3.06184     1.61542E-03     35.9832E-03    -17.1953E-03    -18.7879E-03    -17.4106E-03     34.6059E-03    -17.1953E-03     17.0958E-03     10.6274E+06     1.70763E+06    -156.349E+06    -1.14399E+06    -153.497E+06     10.6274E+06    -20.6358E+06         22.9817
            1136     4.91774E-03     4.18839E-03         7.76296        -2.97134        -3.19710        -3.07469         7.73187        -3.06265    -354.900E-03     35.6709E-03    -17.0528E-03    -18.6180E-03    -17.6419E-03     34.6947E-03    -17.0528E-03     14.3623E-03     6.21465E+06    -888.196E+03    -158.654E+06    -2.13735E+06    -157.405E+06     6.21465E+06    -13.6276E+06         22.9443
            1137     3.93487E-03     4.19566E-03         7.83188        -2.98436        -3.22036        -3.06045         7.74562        -3.05801     415.298E-03     35.0012E-03    -16.8458E-03    -18.1555E-03    -17.5260E-03     34.3718E-03    -16.8458E-03     11.4086E-03     1.14069E+06    -3.69934E+06    -161.843E+06    -4.20762E+06    -161.335E+06     1.14069E+06    -8.69344E+06         22.9137
            1138     2.95206E-03     4.20271E-03         7.99449        -3.01247        -3.31769        -3.06206         7.77909        -3.05270    -709.408E-03     34.1795E-03    -16.6051E-03    -17.5744E-03    -17.2190E-03     33.8241E-03    -16.6051E-03     8.43712E-03    -3.11505E+06    -6.72685E+06    -164.808E+06    -6.92579E+06    -164.609E+06    -3.11505E+06    -5.38282E+06         22.8880
            1139     1.96859E-03     4.20791E-03         8.35496        -3.05201        -3.60880        -3.03490         7.78106        -3.05201         1.23099     33.3316E-03    -16.3270E-03    -17.0046E-03    -16.8469E-03     33.1739E-03    -16.3270E-03     5.41827E-03    -6.76295E+06    -9.16184E+06    -167.238E+06    -9.22333E+06    -167.176E+06    -6.76295E+06    -2.85673E+06         22.8680
            1140     985.013E-06     4.21205E-03         10.1377        -3.11717        -5.30277        -2.98898         7.82395        -3.11717        -4.35736     32.3476E-03    -15.9881E-03    -16.3595E-03    -16.2912E-03     32.3070E-03    -16.0158E-03     2.48918E-03    -9.96377E+06    -11.5844E+06    -167.269E+06    -11.2438E+06    -167.246E+06    -10.3273E+06    -1.86925E+06         22.8546
            1141     16.7106E-03     3.13611E-03         5.17135        -1.19550        -2.49974        -1.19311         5.16895        -2.49974     245.193E-03     45.4662E-03    -17.2895E-03    -28.1767E-03    -23.6071E-03     40.8966E-03    -17.2895E-03     28.0112E-03     218.509E+06     35.9169E+06    -11.9963E+06    -5.49708E+06     218.456E+06     29.4706E+06     3.15467E+06         29.9485
            1142     15.7347E-03     3.10349E-03         5.42972        -1.37499        -2.57645        -1.37295         5.42768        -2.57645     229.390E-03     42.8666E-03    -16.4500E-03    -26.4166E-03    -19.7826E-03     36.4467E-03    -16.6642E-03     39.4579E-03     184.455E+06    -5.36123E+06    -43.2519E+06    -5.33053E+06     184.425E+06    -43.2519E+06    -247.109E+03         28.4371
            1143     14.7517E-03     3.10026E-03         5.66504        -1.53185        -2.65216        -1.53026         5.66345        -2.65216     211.639E-03     34.8602E-03    -16.2596E-03    -18.6006E-03    -13.4347E-03     29.9975E-03    -16.5628E-03     29.1989E-03     140.486E+06    -4.53163E+06    -76.7420E+06    -3.68018E+06     139.634E+06    -76.7420E+06    -8.05233E+06         26.9935
            1144     13.7630E-03     3.10671E-03         5.87865        -1.66502        -2.72787        -1.66105         5.87469        -2.72787     333.699E-03     33.3245E-03    -16.1359E-03    -17.1886E-03    -11.3318E-03     28.2690E-03    -16.9371E-03     29.0049E-03     89.4425E+06    -9.42188E+06    -79.9172E+06    -3.31379E+06     83.3344E+06    -79.9172E+06    -20.3035E+06         25.7776
            1145     12.7725E-03     3.11141E-03         6.09372        -1.79178        -2.80537        -1.78774         6.08969        -2.80537     344.237E-03     34.0698E-03    -16.3760E-03    -17.6938E-03    -11.6604E-03     29.1526E-03    -17.4922E-03     29.8730E-03     49.3705E+06    -23.0910E+06    -71.3734E+06    -4.12642E+06     30.4059E+06    -71.3734E+06    -29.5633E+06         24.8686
            1146     11.7816E-03     3.11095E-03         6.32463        -1.92889        -2.88483        -1.92570         6.32144        -2.88483     320.017E-03     35.0372E-03    -16.8373E-03    -18.1999E-03    -12.5724E-03     30.6240E-03    -18.0516E-03     28.7011E-03     26.1192E+06    -40.7216E+06    -72.2408E+06    -4.13565E+06    -16.3458E+06    -66.3617E+06    -34.0498E+06         24.2526
            1147     10.7945E-03     3.11216E-03         6.57290        -2.08201        -2.96533        -2.07977         6.57066        -2.96533     227.130E-03     34.8831E-03    -16.2548E-03    -18.6282E-03    -13.2593E-03     31.8875E-03    -18.6282E-03     23.9265E-03     15.4184E+06    -52.7452E+06    -81.7547E+06    -4.13301E+06    -55.1163E+06    -59.8322E+06    -36.5757E+06         23.8657
            1148     9.80798E-03     3.11968E-03         6.83285        -2.24951        -3.04557        -2.24774         6.83108        -3.04557     213.529E-03     35.7675E-03    -16.5181E-03    -19.2494E-03    -13.7848E-03     33.0342E-03    -19.2494E-03     23.2463E-03     9.95336E+06    -50.6650E+06    -101.255E+06     -4.6039E+06    -86.6973E+06    -50.6650E+06    -37.0305E+06         23.6372
            1149     8.82127E-03     3.12433E-03         7.09057        -2.41945        -3.12467        -2.41753         7.08865        -3.12467     243.714E-03     38.0424E-03    -18.1221E-03    -19.9203E-03    -15.5443E-03     35.4143E-03    -19.8700E-03     23.6199E-03     6.14798E+06    -38.8382E+06    -125.857E+06    -4.49024E+06    -115.219E+06    -38.8382E+06    -35.5434E+06         23.5109
            1150     7.83842E-03     3.12923E-03         7.31296        -2.55537        -3.20470        -2.54681         7.30439        -3.20470     473.187E-03     39.8635E-03    -19.2980E-03    -20.5654E-03    -17.3088E-03     37.7226E-03    -20.4138E-03     21.9417E-03     2.46986E+06    -24.8772E+06    -150.535E+06    -5.16206E+06    -142.903E+06    -24.8772E+06    -32.9665E+06         23.4480
            1151     6.85591E-03     3.13509E-03         7.55584        -2.70709        -3.28733        -2.69429         7.54305        -3.28733     102.927E-03     40.9691E-03    -19.8370E-03    -21.1320E-03    -18.4829E-03     39.3263E-03    -20.8433E-03     19.6091E-03    -796.967E+03    -14.6598E+06    -166.648E+06    -6.23087E+06    -161.566E+06    -14.3077E+06    -28.2525E+06         23.4237
            1152     5.87510E-03     3.14240E-03         7.83072        -2.88409        -3.36948        -2.87444         7.82106        -3.36948     32.2997E-03     41.9396E-03    -20.3438E-03    -21.5958E-03    -19.5181E-03     40.6725E-03    -21.1543E-03     17.4976E-03    -2.69575E+06    -10.6569E+06    -168.801E+06    -6.87416E+06    -166.056E+06    -9.22374E+06    -20.6271E+06         23.4222
            1153     4.89486E-03     3.14950E-03         8.14245        -3.09315        -3.44657        -3.06727         8.11657        -3.44657    -350.115E-03     42.7500E-03    -20.8516E-03    -21.8984E-03    -20.4665E-03     41.8249E-03    -21.3584E-03     15.1484E-03    -4.75126E+06    -8.95845E+06    -167.859E+06    -7.70889E+06    -166.733E+06    -7.12739E+06    -13.0035E+06         23.4315
            1154     3.91610E-03     3.15747E-03         8.41268        -3.25244        -3.52281        -3.19521         8.35545        -3.52281     226.194E-03     43.2314E-03    -21.2726E-03    -21.9588E-03    -21.1885E-03     42.6275E-03    -21.4390E-03     12.3072E-03    -7.44255E+06    -9.24977E+06    -168.301E+06    -8.71234E+06    -167.918E+06    -8.36296E+06    -7.46232E+06         23.4434
            1155     2.93698E-03     3.16436E-03         8.80061        -3.45707        -3.66377        -3.36394         8.64392        -3.60021    -816.935E-03     43.2468E-03    -21.4204E-03    -21.8263E-03    -21.4930E-03     42.9135E-03    -21.4204E-03     9.07074E-03    -9.09916E+06    -10.7219E+06    -169.370E+06    -10.1062E+06    -169.257E+06    -9.82770E+06    -4.01633E+06         23.4534
            1156     1.95828E-03     3.17028E-03         9.29191        -3.67844        -3.90622        -3.50440         8.89242        -3.68077     934.224E-03     42.9015E-03    -21.2305E-03    -21.6710E-03    -21.3796E-03     42.7565E-03    -21.3769E-03     5.83722E-03    -10.1792E+06    -11.6393E+06    -170.186E+06    -11.3766E+06    -170.153E+06    -10.4741E+06    -2.07943E+06         23.4602
            1157     979.080E-06     3.17480E-03         10.8493        -3.90133        -5.21262        -3.54284         9.17951        -3.90133        -3.92733     42.7254E-03    -21.2141E-03    -21.5113E-03    -21.2960E-03     42.6841E-03    -21.3882E-03     2.92385E-03    -11.6430E+06    -12.7303E+06    -169.771E+06    -12.0620E+06    -169.760E+06    -12.3226E+06    -980.433E+03         23.4638
            1158     16.6857E-03     2.08962E-03         5.28318        -1.26371        -2.57562        -1.26098         5.28044        -2.57562     258.559E-03     43.7241E-03    -18.6741E-03    -25.0500E-03    -19.4317E-03     38.1058E-03    -18.6741E-03     34.0653E-03     220.948E+06     34.3520E+06    -5.57257E+06    -2.51062E+06     220.899E+06     31.3396E+06     3.29612E+06         30.1289
            1159     15.7056E-03     2.06529E-03         5.61364        -1.49877        -2.65094        -1.49724         5.61211        -2.65094     195.748E-03     40.1440E-03    -17.0770E-03    -23.0670E-03    -14.2805E-03     32.7368E-03    -18.4563E-03     40.0540E-03     188.011E+06    -2.59939E+06    -36.0430E+06    -2.57447E+06     187.986E+06    -36.0430E+06     1.56161E+06         28.6187
            1160     14.7123E-03     2.07759E-03         5.88187        -1.69113        -2.72204        -1.68978         5.88052        -2.72204     196.445E-03     35.0853E-03    -16.2126E-03    -18.8726E-03    -10.5214E-03     29.1959E-03    -18.6745E-03     32.2821E-03     148.164E+06    -1.24821E+06    -81.1858E+06    -814.099E+03     147.729E+06    -81.1858E+06    -4.86086E+06         27.1879
            1161     13.7199E-03     2.07226E-03         6.12721        -1.85795        -2.79027        -1.85486         6.12412        -2.79027     302.822E-03     36.6518E-03    -17.2007E-03    -19.4511E-03    -11.9252E-03     31.1248E-03    -19.1996E-03     31.8645E-03     95.2556E+06    -2.13680E+06    -99.4355E+06     1.14596E+06     91.9728E+06    -99.4355E+06    -14.2981E+06         26.0047
            1162     12.7366E-03     2.08105E-03         6.30908        -1.95658        -2.85887        -1.95356         6.30606        -2.85887     303.313E-03     39.3197E-03    -18.8405E-03    -20.4792E-03    -14.8540E-03     34.6109E-03    -19.7569E-03     31.4694E-03     45.9769E+06    -14.2905E+06    -100.487E+06     438.134E+03     31.2482E+06    -100.487E+06    -22.3075E+06         25.1451
            1163     11.7540E-03     2.07489E-03         6.43205        -1.98839        -2.93354        -1.98597         6.42963        -2.93354     279.928E-03     39.2962E-03    -18.3724E-03    -20.9238E-03    -15.4094E-03     35.6643E-03    -20.2549E-03     27.3622E-03     20.5310E+06    -38.3442E+06    -100.332E+06    -1.14259E+06    -16.6706E+06    -100.332E+06    -26.4734E+06         24.5846
            1164     10.7688E-03     2.08009E-03         6.56276        -2.01770        -3.01906        -2.01599         6.56104        -3.01906     211.945E-03     37.2262E-03    -16.3451E-03    -20.8811E-03    -14.1529E-03     35.0340E-03    -20.8811E-03     21.0247E-03     10.1037E+06    -66.8271E+06    -99.8686E+06    -2.52368E+06    -57.0445E+06    -97.0238E+06    -28.2056E+06         24.2516
            1165     9.78059E-03     2.08510E-03         6.74477        -2.08953        -3.11658        -2.08836         6.74360        -3.11658     181.445E-03     38.7922E-03    -17.1382E-03    -21.6541E-03    -15.0494E-03     36.7035E-03    -21.6541E-03     20.9678E-03     5.41941E+06    -82.5087E+06    -107.769E+06    -3.92084E+06    -91.8158E+06    -89.1214E+06    -29.2993E+06         24.0741
            1166     8.79684E-03     2.08625E-03         6.97518        -2.20181        -3.22544        -2.20068         6.97405        -3.22544     173.921E-03     41.2348E-03    -18.7973E-03    -22.4375E-03    -17.0346E-03     39.4722E-03    -22.4375E-03     19.7939E-03     1.61241E+06    -76.8083E+06    -128.552E+06    -5.15780E+06    -121.782E+06    -76.8083E+06    -28.1359E+06         23.9954
            1167     7.81383E-03     2.08871E-03         7.22217        -2.32026        -3.34721        -2.31559         7.21750        -3.34721     333.494E-03     42.8918E-03    -19.6905E-03    -23.2013E-03    -18.3906E-03     41.5919E-03    -23.2013E-03     17.3915E-03    -2.05421E+06    -61.1720E+06    -154.858E+06    -6.93259E+06    -149.980E+06    -61.1720E+06    -26.1460E+06         23.9763
            1168     6.83300E-03     2.09343E-03         7.52957        -2.48104        -3.48388        -2.47412         7.52264        -3.48388     72.9015E-03     44.6301E-03    -20.6747E-03    -23.9554E-03    -19.6834E-03     43.6388E-03    -23.9554E-03     15.5509E-03    -5.66240E+06    -44.1971E+06    -174.866E+06    -9.05045E+06    -171.477E+06    -44.1971E+06    -23.1377E+06         23.9932
            1169     5.85281E-03     2.09841E-03         7.94593        -2.73321        -3.63095        -2.72759         7.94031        -3.63095     46.2123E-03     46.4497E-03    -21.7939E-03    -24.6557E-03    -21.0255E-03     45.6812E-03    -24.6557E-03     14.0113E-03    -8.86015E+06    -30.6281E+06    -179.803E+06    -10.7802E+06    -177.883E+06    -30.6281E+06    -17.4082E+06         24.0322
            1170     4.87451E-03     2.10428E-03         8.48927        -3.10447        -3.77379        -3.08971         8.47451        -3.77379    -249.039E-03     48.3093E-03    -23.0269E-03    -25.2824E-03    -22.4438E-03     47.7263E-03    -25.2824E-03     12.4979E-03    -11.2197E+06    -22.0179E+06    -176.538E+06    -12.0010E+06    -175.757E+06    -22.0179E+06    -10.8975E+06         24.0818
            1171     3.89730E-03     2.10998E-03         8.97333        -3.42007        -3.90529        -3.38977         8.94303        -3.90529     160.925E-03     50.2333E-03    -24.4104E-03    -25.8230E-03    -24.0269E-03     49.8248E-03    -25.7979E-03     10.7402E-03    -12.7153E+06    -17.4411E+06    -174.527E+06    -12.9767E+06    -174.266E+06    -17.4411E+06    -6.08163E+06         24.1322
            1172     2.92272E-03     2.11632E-03         9.47475        -3.75327        -4.02790        -3.66831         9.38979        -4.02790    -627.872E-03     51.6725E-03    -25.4941E-03    -26.1783E-03    -25.2920E-03     51.4445E-03    -26.1525E-03     8.06930E-03    -13.0165E+06    -15.6408E+06    -173.155E+06    -13.0775E+06    -173.094E+06    -15.6408E+06    -2.83435E+06         24.1758
            1173     1.94802E-03     2.12236E-03         9.97815        -4.07213        -4.18806        -3.88638         9.75672        -4.15239     744.960E-03     52.3851E-03    -25.9640E-03    -26.4211E-03    -25.8740E-03     52.2943E-03    -26.4203E-03     5.04971E-03    -12.8384E+06    -14.3025E+06    -172.494E+06    -12.8535E+06    -172.479E+06    -14.3025E+06    -1.46678E+06         24.2085
            1174     973.169E-06     2.12697E-03         11.1445        -4.45642        -4.94434        -3.94121         10.1781        -4.49322        -2.97681     53.1203E-03    -26.3946E-03    -26.7257E-03    -26.3657E-03     53.0903E-03    -26.7246E-03     2.91960E-03    -12.6408E+06    -13.7326E+06    -171.511E+06    -13.1927E+06    -171.503E+06    -13.1889E+06    -817.557E+03         24.2289
            1175     16.6599E-03     1.04293E-03         5.36656        -1.28119        -2.62615        -1.27955         5.36492        -2.62615     172.413E-03     44.1208E-03    -20.4576E-03    -23.6632E-03    -18.0359E-03     38.4934E-03    -20.4576E-03     36.3222E-03     223.236E+06     35.0358E+06    -2.01601E+06     1.31820E+06     223.199E+06     31.7393E+06     2.85620E+06         30.6855
            1176     15.6676E-03     1.04166E-03         5.73212        -1.57279        -2.70142        -1.57236         5.73169        -2.70142     93.7363E-03     40.0291E-03    -18.4921E-03    -21.5370E-03    -14.7669E-03     35.1529E-03    -20.3860E-03     31.0343E-03     189.150E+06     382.240E+03    -33.6007E+06     449.458E+03     189.083E+06    -33.6007E+06     123.118E+03         29.1842
            1177     14.6812E-03     1.03879E-03         6.06339        -1.83364        -2.76832        -1.83312         6.06287        -2.76832     115.063E-03     37.4694E-03    -16.9007E-03    -20.5686E-03    -14.2151E-03     34.7837E-03    -20.5686E-03     20.8305E-03     152.538E+06     2.72641E+06    -82.5411E+06     2.89341E+06     152.371E+06    -82.5411E+06    -2.63434E+06         27.7727
            1178     13.6974E-03     1.04412E-03         6.30218        -1.99821        -2.82960        -1.99707         6.30103        -2.82960     170.992E-03     38.1912E-03    -17.2524E-03    -20.9388E-03    -15.4054E-03     36.3442E-03    -20.9388E-03     16.6470E-03     98.7489E+06     3.91989E+06    -110.282E+06     5.07838E+06     97.5904E+06    -110.282E+06    -6.63839E+06         26.6209
            1179     12.7084E-03     1.03703E-03         6.43417        -2.05029        -2.89217        -2.04912         6.43300        -2.89217     178.213E-03     39.1898E-03    -17.2210E-03    -21.9688E-03    -15.9560E-03     37.4042E-03    -21.4481E-03     16.9410E-03     42.4064E+06    -1.45500E+06    -117.862E+06     6.30973E+06     34.6417E+06    -117.862E+06    -11.7102E+06         25.7989
            1180     11.7292E-03     1.03527E-03         6.50501        -2.03075        -2.96400        -2.02973         6.50399        -2.96400     171.296E-03     39.3442E-03    -16.7887E-03    -22.5555E-03    -15.8683E-03     37.9032E-03    -22.0349E-03     15.6544E-03     14.3076E+06    -26.4136E+06    -121.530E+06     4.54099E+06    -16.6470E+06    -121.530E+06    -14.5781E+06         25.2766
            1181     10.7442E-03     1.04500E-03         6.57443        -1.99649        -3.05145        -1.99575         6.57369        -3.05145     132.902E-03     40.2740E-03    -17.5708E-03    -22.7032E-03    -16.5431E-03     39.2463E-03    -22.7032E-03     14.0610E-03     6.28134E+06    -64.4740E+06    -121.881E+06     1.26344E+06    -59.4561E+06    -121.881E+06    -15.9916E+06         24.9801
            1182     9.76157E-03     1.04445E-03         6.69268        -1.99556        -3.15822        -1.99522         6.69234        -3.15822     92.0211E-03     42.3726E-03    -18.9615E-03    -23.4111E-03    -17.9932E-03     41.4043E-03    -23.4111E-03     13.8459E-03     2.00799E+06    -95.1407E+06    -119.586E+06    -1.36614E+06    -95.0975E+06    -116.255E+06    -16.2259E+06         24.8369
            1183     8.77975E-03     1.04423E-03         6.87981        -2.04525        -3.28608        -2.04496         6.87952        -3.28608     84.2073E-03     43.4339E-03    -19.2529E-03    -24.1810E-03    -18.5955E-03     42.7765E-03    -24.1810E-03     11.4441E-03    -1.91539E+06    -102.048E+06    -130.983E+06    -4.37709E+06    -126.484E+06    -104.085E+06    -15.6955E+06         24.7896
            1184     7.79834E-03     1.04553E-03         7.11993        -2.12636        -3.43797        -2.12493         7.11850        -3.43797     172.506E-03     44.6903E-03    -19.6256E-03    -25.0647E-03    -19.1759E-03     44.2405E-03    -25.0647E-03     9.60423E-03    -5.19270E+06    -86.9737E+06    -156.290E+06    -6.92897E+06    -154.553E+06    -86.9737E+06    -14.5279E+06         24.7990
            1185     6.81707E-03     1.04744E-03         7.48884        -2.30792        -3.61444        -2.30567         7.48659        -3.61444     24.3141E-03     46.7354E-03    -20.6984E-03    -26.0370E-03    -20.3630E-03     46.3999E-03    -26.0370E-03     8.46324E-03    -8.75713E+06    -67.9470E+06    -178.938E+06    -10.0146E+06    -177.681E+06    -67.9470E+06    -13.0807E+06         24.8432
            1186     5.83816E-03     1.05042E-03         8.02231        -2.63078        -3.80689        -2.62875         8.02028        -3.80689     26.0748E-03     49.1746E-03    -22.1466E-03    -27.0280E-03    -21.8860E-03     48.9140E-03    -27.0280E-03     7.68023E-03    -12.1615E+06    -49.9737E+06    -187.084E+06    -12.9193E+06    -186.326E+06    -49.9737E+06    -10.3414E+06         24.9096
            1187     4.86017E-03     1.05356E-03         8.69124        -3.07632        -3.99824        -3.07172         8.68664        -3.99824    -108.955E-03     51.7778E-03    -23.7739E-03    -28.0039E-03    -23.5716E-03     51.5755E-03    -28.0039E-03     6.99242E-03    -14.1920E+06    -35.2814E+06    -182.985E+06    -14.5160E+06    -182.661E+06    -35.2814E+06    -6.36853E+06         24.9874
            1188     3.88444E-03     1.05666E-03         9.33683        -3.50472        -4.17627        -3.49458         9.32670        -4.17627     128.022E-03     54.5139E-03    -25.5574E-03    -28.9565E-03    -25.4010E-03     54.3575E-03    -28.9565E-03     6.34355E-03    -15.2052E+06    -25.1115E+06    -178.872E+06    -15.3036E+06    -178.774E+06    -25.1115E+06    -3.47036E+06         25.0658
            1189     2.91021E-03     1.05961E-03         9.98618        -3.95398        -4.32792        -3.92770         9.95990        -4.32792    -279.018E-03     57.3162E-03    -27.4751E-03    -29.8411E-03    -27.3786E-03     57.2197E-03    -29.8411E-03     5.11007E-03    -15.4164E+06    -19.4798E+06    -175.660E+06    -15.4469E+06    -175.629E+06    -19.4798E+06    -1.98561E+06         25.1349
            1190     1.93911E-03     1.06484E-03         10.4568        -4.27248        -4.45961        -4.19714         10.3815        -4.45961     495.751E-03     59.9565E-03    -29.3896E-03    -30.5670E-03    -29.3433E-03     59.9103E-03    -30.5670E-03     3.83707E-03    -15.2191E+06    -16.7923E+06    -174.410E+06    -15.3424E+06    -174.400E+06    -16.6789E+06    -906.800E+03         25.1878
            1191     969.805E-06     1.06753E-03         11.1460        -4.49395        -4.90167        -4.17316         10.7995        -4.87593        -1.60885     61.7658E-03    -30.5894E-03    -31.1764E-03    -30.7841E-03     61.7425E-03    -30.9584E-03     2.85392E-03    -14.9346E+06    -16.0444E+06    -173.417E+06    -15.6031E+06    -173.406E+06    -15.3871E+06    -981.896E+03         25.2216
            1192     984.133E-06     57.7389E-03         1.80009     919.011E-03        -4.79440         1.66906        -4.66337     919.011E-03    -203.565E-03     32.5994E-03    -16.2702E-03    -16.3292E-03    -16.3122E-03     32.5824E-03    -16.2702E-03     1.71495E-03    -14.8921E+06    -16.3532E+06    -190.461E+06    -16.1524E+06    -190.458E+06    -15.0964E+06    -210.751E+03         22.4458
            1193     1.96821E-03     57.7414E-03         1.40049         1.25147        -4.70673         1.31189        -4.66381         1.29714     557.458E-03     32.6685E-03    -16.3206E-03    -16.3479E-03    -16.2996E-03     32.6203E-03    -16.3206E-03     3.00161E-03    -9.57059E+06    -14.1538E+06    -188.280E+06    -14.1573E+06    -188.277E+06    -9.57059E+06     181.540E+03         22.4687
            1194     2.95228E-03     57.7452E-03         1.48661         1.24381        -4.75462         1.22562        -4.53931         1.28948         1.99490     32.7396E-03    -16.3504E-03    -16.3892E-03    -16.2924E-03     32.6428E-03    -16.3504E-03     4.31055E-03    -2.43001E+06    -11.4152E+06    -184.253E+06    -11.4171E+06    -184.251E+06    -2.43001E+06     511.488E+03         22.5072
            1195     3.93639E-03     57.7504E-03         1.59412         1.27446        -4.89701         1.24521        -4.54810         1.27446         2.91586     32.7465E-03    -16.3603E-03    -16.3863E-03    -16.2331E-03     32.5934E-03    -16.3603E-03     5.45394E-03     4.26256E+06    -8.36857E+06    -174.299E+06    -8.36969E+06    -174.298E+06     4.26256E+06     402.260E+03         22.5637
            1196     4.92055E-03     57.7564E-03         1.40435         1.24028        -4.67104         1.20094        -4.49122         1.26387         1.87929     32.7257E-03    -16.3438E-03    -16.3819E-03    -16.1645E-03     32.5083E-03    -16.3438E-03     6.49809E-03     9.42520E+06    -5.29413E+06    -157.938E+06    -5.29484E+06    -157.937E+06     9.42520E+06     308.778E+03         22.6410
            1197     5.90478E-03     57.7638E-03         1.26560         1.15397        -4.44142         1.13444        -4.40394         1.24765     904.653E-03     32.7115E-03    -16.3229E-03    -16.3886E-03    -16.1083E-03     32.4311E-03    -16.3229E-03     7.39043E-03     14.2813E+06    -2.62065E+06    -141.311E+06    -2.62113E+06    -141.310E+06     14.2813E+06     172.928E+03         22.7425
            1198     6.88903E-03     57.7717E-03         1.52618         1.15348        -4.68494         1.02294        -4.25179         1.22357         2.63255     32.6874E-03    -16.3022E-03    -16.3852E-03    -16.0490E-03     32.3512E-03    -16.3022E-03     8.08751E-03     18.6623E+06    -79.2616E+03    -126.863E+06    -79.6927E+03    -126.863E+06     18.6623E+06    -52.4900E+03         22.8731
            1199     7.87339E-03     57.7806E-03         1.49500         1.13082        -4.61833     924.142E-03        -4.10903         1.19239         3.19777     32.6562E-03    -16.2621E-03    -16.3942E-03    -15.9941E-03     32.2562E-03    -16.2621E-03     8.81438E-03     19.8026E+06     2.15065E+06    -110.905E+06     2.15024E+06    -110.905E+06     19.8026E+06    -50.5315E+03         23.0402
            1200     8.85763E-03     57.7899E-03         1.15714     925.956E-03        -4.07317     822.199E-03        -3.96941         1.15714     610.174E-03     32.6164E-03    -16.2126E-03    -16.4038E-03    -15.9473E-03     32.1599E-03    -16.2126E-03     9.41471E-03     20.0017E+06     4.67795E+06    -91.9372E+06     4.66984E+06    -91.9291E+06     20.0017E+06     142.655E+03         23.2559
            1201     9.84218E-03     57.8000E-03         1.11850     834.767E-03        -3.94671     712.657E-03        -3.82460         1.11850        -1.35201     32.6263E-03    -16.1524E-03    -16.4738E-03    -15.9312E-03     32.0837E-03    -16.1524E-03     10.2476E-03     17.3359E+06     6.70496E+06    -73.6599E+06     6.68959E+06    -73.6445E+06     17.3359E+06     205.394E+03         23.5406
            1202     10.8265E-03     57.8111E-03         1.07761     787.595E-03        -3.85642     617.738E-03        -3.68656         1.07761        -1.72890     32.6782E-03    -16.0705E-03    -16.6077E-03    -15.9268E-03     31.9974E-03    -16.0705E-03     11.4876E-03     10.9796E+06     6.19210E+06    -54.9133E+06     7.58609E+06    -54.8924E+06     9.56479E+06    -17.8203E+03         23.9281
            1203     11.8107E-03     57.8238E-03         1.03760     683.601E-03        -3.70070     571.702E-03        -3.58880         1.03760        -1.38177     32.5545E-03    -15.9878E-03    -16.5668E-03    -15.8049E-03     31.7927E-03    -15.9878E-03     12.1374E-03     8.12188E+06     4.68624E+06    -24.8288E+06     8.05296E+06    -24.7599E+06     4.68624E+06    -656.270E+03         24.4722
            1204     12.7957E-03     57.8361E-03         1.00204     655.199E-03        -3.61960     574.106E-03        -3.53850         1.00204        -1.15637     32.6402E-03    -15.8982E-03    -16.7420E-03    -15.7421E-03     31.6403E-03    -15.8982E-03     13.8181E-03     17.7198E+06     4.15066E+06    -5.25924E+06     6.39405E+06     10.8516E+06    -634.458E+03    -1.40908E+06         25.2467
            1205     13.7794E-03     57.8525E-03     973.181E-03     695.164E-03        -3.62210     617.464E-03        -3.54440     973.181E-03        -1.14085     32.6982E-03    -15.7623E-03    -16.9359E-03    -15.6111E-03     31.3734E-03    -15.7623E-03     15.9831E-03     41.5838E+06     1.79663E+06    -17.4037E+06     2.08595E+06     41.2944E+06    -17.4037E+06    -1.03104E+06         26.3388
            1206     14.7649E-03     57.8691E-03     966.914E-03     823.189E-03        -3.74729     710.615E-03        -3.62045     952.649E-03        -1.49434     32.6529E-03    -15.5713E-03    -17.0816E-03    -15.4161E-03     30.9875E-03    -15.5713E-03     17.8408E-03     84.3023E+06    -1.00540E+06    -40.3155E+06    -975.415E+03     84.2724E+06    -40.3155E+06    -5.09853E+03         27.8244
            1207     15.7490E-03     57.8892E-03     972.627E-03     916.240E-03        -3.85580     867.378E-03        -3.77667     942.358E-03    -867.394E-03     32.5155E-03    -15.3784E-03    -17.1371E-03    -15.3616E-03     30.7400E-03    -15.3784E-03     18.4197E-03     138.218E+06    -1.51630E+06    -60.1948E+06    -1.48749E+06     138.190E+06    -60.1948E+06     187.709E+03         29.6860
            1208     16.7347E-03     57.9079E-03         1.10419     938.516E-03        -4.01994         1.09403        -4.01570     944.445E-03     194.361E-03     31.4342E-03    -14.9962E-03    -16.4380E-03    -14.9273E-03     30.5307E-03    -15.6034E-03     6.07148E-03     193.228E+06     34.0844E+06    -35.2333E+06    -1.43704E+06     193.216E+06     300.843E+03     269.943E+03         31.6722
            1209     984.054E-06     58.7712E-03         2.02666     807.631E-03        -4.96720         1.34805        -4.28859     807.631E-03        -1.44837     32.6530E-03    -16.2892E-03    -16.3638E-03    -16.3430E-03     32.6361E-03    -16.2931E-03     1.71121E-03    -14.2399E+06    -15.6174E+06    -190.361E+06    -15.5343E+06    -190.358E+06    -14.3259E+06    -325.499E+03         22.4441
            1210     1.96814E-03     58.7735E-03         1.31115         1.06826        -4.49487         1.15761        -4.36642         1.09335         1.03493     32.6918E-03    -16.3359E-03    -16.3559E-03    -16.3027E-03     32.6425E-03    -16.3398E-03     3.02797E-03    -10.0267E+06    -14.2210E+06    -189.412E+06    -14.2237E+06    -189.410E+06    -10.0267E+06     72.8230E+03         22.4670
            1211     2.95222E-03     58.7775E-03         1.47278         1.09340        -4.65175         1.17700        -4.38107         1.11849         1.76764     32.7228E-03    -16.3537E-03    -16.3691E-03    -16.2710E-03     32.6259E-03    -16.3549E-03     4.31692E-03    -3.65653E+06    -11.7665E+06    -184.756E+06    -11.7682E+06    -184.754E+06    -3.65653E+06     486.164E+03         22.5056
            1212     3.93637E-03     58.7825E-03         1.66028         1.14454        -4.89475         1.28049        -4.51496         1.14454         2.99943     32.7376E-03    -16.3578E-03    -16.3799E-03    -16.2254E-03     32.5843E-03    -16.3590E-03     5.45259E-03     3.26974E+06    -8.74268E+06    -174.495E+06    -8.74404E+06    -174.493E+06     3.26974E+06     471.870E+03         22.5623
            1213     4.92056E-03     58.7888E-03         1.42301         1.17098        -4.68511         1.27188        -4.53398         1.17098         1.82134     32.7359E-03    -16.3434E-03    -16.3925E-03    -16.1751E-03     32.5186E-03    -16.3434E-03     6.50077E-03     8.74495E+06    -5.60354E+06    -158.065E+06    -5.60512E+06    -158.063E+06     8.74495E+06     179.072E+03         22.6396
            1214     5.90476E-03     58.7959E-03         1.30347         1.17173        -4.55970         1.24284        -4.51266         1.18532     996.507E-03     32.7054E-03    -16.3232E-03    -16.3821E-03    -16.1017E-03     32.4250E-03    -16.3232E-03     7.38865E-03     13.9094E+06    -2.34643E+06    -141.491E+06    -2.34749E+06    -141.490E+06     13.9094E+06     32.5945E+03         22.7410
            1215     6.88902E-03     58.8040E-03         1.63640         1.17708        -4.88065         1.20382        -4.46166         1.19067         2.64546     32.6819E-03    -16.3010E-03    -16.3809E-03    -16.0421E-03     32.3431E-03    -16.3010E-03     8.11821E-03     18.3289E+06     458.331E+03    -127.314E+06     457.835E+03    -127.313E+06     18.3289E+06     222.503E+03         22.8714
            1216     7.87332E-03     58.8126E-03         1.64090         1.17870        -4.87228         1.14217        -4.38338         1.18852         3.24426     32.6664E-03    -16.2617E-03    -16.4048E-03    -16.0022E-03     32.2639E-03    -16.2617E-03     8.84357E-03     19.8539E+06     2.73461E+06    -110.944E+06     2.73421E+06    -110.944E+06     19.8539E+06     166.423E+03         23.0383
            1217     8.85777E-03     58.8222E-03         1.21206         1.02450        -4.28400     974.447E-03        -4.19641         1.17452     690.986E-03     32.6333E-03    -16.2133E-03    -16.4200E-03    -15.9617E-03     32.1750E-03    -16.2133E-03     9.43541E-03     19.7843E+06     4.37192E+06    -92.0258E+06     4.36978E+06    -92.0236E+06     19.7843E+06    -205.994E+03         23.2534
            1218     9.84200E-03     58.8321E-03         1.14487     873.246E-03        -4.06569     770.620E-03        -3.96306         1.14487        -1.19961     32.6354E-03    -16.1545E-03    -16.4809E-03    -15.9374E-03     32.0919E-03    -16.1545E-03     10.2580E-03     16.7423E+06     5.72776E+06    -74.5340E+06     5.72064E+06    -74.5269E+06     16.7423E+06     155.463E+03         23.5372
            1219     10.8264E-03     58.8435E-03         1.10527     782.978E-03        -3.93093     639.657E-03        -3.78761         1.10527        -1.59226     32.6515E-03    -16.0731E-03    -16.5784E-03    -15.8944E-03     31.9675E-03    -16.0731E-03     11.5060E-03     9.80481E+06     5.92860E+06    -54.5664E+06     6.22631E+06    -54.5513E+06     9.49199E+06     176.025E+03         23.9233
            1220     11.8109E-03     58.8558E-03         1.06461     680.486E-03        -3.77104     588.893E-03        -3.67944         1.06461        -1.25628     32.5971E-03    -15.9894E-03    -16.6078E-03    -15.8420E-03     31.8314E-03    -15.9894E-03     12.1790E-03     5.48052E+06     3.87371E+06    -24.6178E+06     5.45785E+06    -24.5951E+06     3.87371E+06    -425.208E+03         24.4658
            1221     12.7950E-03     58.8685E-03         1.02746     637.372E-03        -3.67199     567.818E-03        -3.60244         1.02746        -1.07240     32.6291E-03    -15.9101E-03    -16.7190E-03    -15.7095E-03     31.6196E-03    -15.9101E-03     13.8695E-03     15.3150E+06     2.60092E+06     -4.6126E+06     4.04102E+06     9.34969E+06    -87.4385E+03     879.381E+03         25.2388
            1222     13.7802E-03     58.8847E-03     995.153E-03     644.853E-03        -3.63449     575.012E-03        -3.56465     995.153E-03        -1.07168     32.6697E-03    -15.7696E-03    -16.9001E-03    -15.5879E-03     31.3575E-03    -15.7696E-03     15.9095E-03     41.8720E+06     2.57345E+06    -15.9469E+06     2.76380E+06     41.6817E+06    -15.9469E+06     628.368E+03         26.3301
            1223     14.7643E-03     58.9009E-03     969.294E-03     754.056E-03        -3.71890     632.119E-03        -3.59696     969.294E-03        -1.44339     32.8680E-03    -15.5698E-03    -17.2982E-03    -15.6036E-03     31.1734E-03    -15.5698E-03     18.0496E-03     85.5230E+06     2.00146E+06    -40.5143E+06     2.05198E+06     85.4725E+06    -40.5143E+06    -1.46771E+06         27.8179
            1224     15.7493E-03     58.9221E-03     953.409E-03     870.927E-03        -3.82769     792.938E-03        -3.74970     953.409E-03    -839.110E-03     32.5409E-03    -15.3799E-03    -17.1610E-03    -15.3827E-03     30.7626E-03    -15.3799E-03     18.4318E-03     137.054E+06    -332.864E+03    -62.0782E+06    -308.742E+03     137.030E+06    -62.0782E+06    -1.46689E+06         29.6875
            1225     16.7334E-03     58.9392E-03         1.09619     931.459E-03        -4.03579         1.07266        -4.03297     952.171E-03     168.040E-03     31.2379E-03    -14.9364E-03    -16.3016E-03    -14.7923E-03     30.3952E-03    -15.6029E-03     6.02196E-03     191.832E+06     33.4522E+06    -36.5548E+06    -1.48562E+06     191.824E+06    -1.60932E+06    -105.756E+03         31.6867
            1226     984.033E-06     59.8032E-03         2.77978     767.569E-03        -5.73782         1.01716        -3.97520     767.569E-03        -2.58351     32.6787E-03    -16.2936E-03    -16.3851E-03    -16.3637E-03     32.6612E-03    -16.2975E-03     1.71076E-03    -13.6518E+06    -14.8528E+06    -190.928E+06    -14.8262E+06    -190.926E+06    -13.6805E+06     142.960E+03         22.4426
            1227     1.96812E-03     59.8059E-03         1.42540     922.498E-03        -4.51682         1.04454        -4.13596     922.498E-03         1.45787     32.7011E-03    -16.3412E-03    -16.3599E-03    -16.3024E-03     32.6507E-03    -16.3483E-03     3.07350E-03    -9.68401E+06    -13.7140E+06    -190.044E+06    -13.7149E+06    -190.043E+06    -9.68401E+06     357.432E+03         22.4654
            1228     2.95224E-03     59.8096E-03         1.50701     977.382E-03        -4.62878         1.12643        -4.24820     977.382E-03         1.55372     32.7194E-03    -16.3534E-03    -16.3660E-03    -16.2643E-03     32.6222E-03    -16.3579E-03     4.32426E-03    -3.70365E+06    -11.5542E+06    -185.628E+06    -11.5558E+06    -185.626E+06    -3.70365E+06     431.843E+03         22.5041
            1229     3.93639E-03     59.8148E-03         1.69814         1.03136        -4.87693         1.26853        -4.44732         1.03136         3.08462     32.7394E-03    -16.3553E-03    -16.3841E-03    -16.2280E-03     32.5845E-03    -16.3565E-03     5.48080E-03     2.64341E+06    -8.87931E+06    -174.577E+06    -8.88126E+06    -174.575E+06     2.64341E+06     399.916E+03         22.5609
            1230     4.92051E-03     59.8209E-03         1.45769         1.08405        -4.69107         1.31964        -4.55302         1.08405         1.80454     32.7255E-03    -16.3405E-03    -16.3850E-03    -16.1665E-03     32.5071E-03    -16.3405E-03     6.51760E-03     8.21653E+06    -5.84518E+06    -157.786E+06    -5.84634E+06    -157.784E+06     8.21653E+06    -76.6457E+03         22.6382
            1231     5.90474E-03     59.8282E-03         1.39816         1.12471        -4.66568         1.33521        -4.60273         1.12471         1.12386     32.6883E-03    -16.3202E-03    -16.3680E-03    -16.0875E-03     32.4077E-03    -16.3202E-03     7.38712E-03     13.3189E+06    -2.93725E+06    -142.118E+06    -2.93808E+06    -142.118E+06     13.3189E+06    -133.314E+03         22.7396
            1232     6.88911E-03     59.8361E-03         1.73386         1.15371        -5.01354         1.31887        -4.59854         1.15371         2.65225     32.6748E-03    -16.2969E-03    -16.3779E-03    -16.0381E-03     32.3350E-03    -16.2969E-03     8.12881E-03     17.7897E+06     25.7561E+03    -127.855E+06     24.6816E+03    -127.854E+06     17.7897E+06    -33.4592E+03         22.8698
            1233     7.87341E-03     59.8449E-03         1.76060         1.17202        -5.04231         1.27998        -4.56170         1.17202         3.27532     32.6846E-03    -16.2613E-03    -16.4233E-03    -16.0201E-03     32.2814E-03    -16.2613E-03     8.85508E-03     20.0871E+06     2.83173E+06    -111.080E+06     2.82989E+06    -111.079E+06     20.0871E+06     140.483E+03         23.0363
            1234     8.85763E-03     59.8543E-03         1.27846         1.11097        -4.49231         1.13655        -4.41586         1.17643     768.375E-03     32.6458E-03    -16.2167E-03    -16.4291E-03    -15.9709E-03     32.1876E-03    -16.2167E-03     9.43643E-03     20.4496E+06     4.58963E+06    -92.1780E+06     4.58509E+06    -92.1734E+06     20.4496E+06     453.666E+03         23.2508
            1235     9.84207E-03     59.8644E-03         1.16224         1.00268        -4.26558     922.066E-03        -4.18497         1.16224        -1.04801     32.6201E-03    -16.1537E-03    -16.4664E-03    -15.9151E-03     32.0688E-03    -16.1537E-03     10.3236E-03     16.4115E+06     5.46852E+06    -75.2850E+06     5.46362E+06    -75.2801E+06     16.4115E+06     251.183E+03         23.5336
            1236     10.8265E-03     59.8755E-03         1.13204     839.656E-03        -4.06364     727.092E-03        -3.95107         1.13204        -1.44449     32.6508E-03    -16.0679E-03    -16.5830E-03    -15.8935E-03     31.9614E-03    -16.0679E-03     11.5571E-03     9.71863E+06     5.58681E+06    -54.5136E+06     6.40646E+06    -54.5107E+06     8.89617E+06     132.892E+03         23.9184
            1237     11.8108E-03     59.8881E-03         1.09395     683.276E-03        -3.85044     613.842E-03        -3.78100         1.09395        -1.11271     32.5740E-03    -15.9857E-03    -16.5883E-03    -15.8069E-03     31.7926E-03    -15.9857E-03     12.2950E-03     6.55908E+06     4.03137E+06    -25.0158E+06     6.50749E+06    -24.9642E+06     4.03137E+06     620.981E+03         24.4592
            1238     12.7954E-03     59.9009E-03         1.05577     629.168E-03        -3.73454     573.468E-03        -3.67884         1.05577    -972.396E-03     32.6111E-03    -15.8953E-03    -16.7159E-03    -15.6906E-03     31.5859E-03    -15.8953E-03     13.9951E-03     16.2148E+06     5.22933E+06    -6.61691E+06     7.44122E+06     8.37943E+06    -993.452E+03    -14.2731E+03         25.2307
            1239     13.7798E-03     59.9162E-03         1.02212     647.267E-03        -3.70433     587.332E-03        -3.64439         1.02212        -1.00277     32.7678E-03    -15.7449E-03    -17.0229E-03    -15.6844E-03     31.4293E-03    -15.7449E-03     16.0954E-03     43.5072E+06     8.82438E+06    -17.3367E+06     9.41501E+06     42.9165E+06    -17.3367E+06    -892.413E+03         26.3215
            1240     14.7646E-03     59.9340E-03     995.894E-03     770.805E-03        -3.79860     659.581E-03        -3.68738     995.894E-03        -1.39520     32.9044E-03    -15.5584E-03    -17.3460E-03    -15.6042E-03     31.1625E-03    -15.5584E-03     18.3097E-03     86.0479E+06     6.10661E+06    -40.6479E+06     6.16465E+06     85.9899E+06    -40.6479E+06    -451.280E+03         27.8113
            1241     15.7487E-03     59.9537E-03     980.336E-03     894.301E-03        -3.90989     822.070E-03        -3.83766     980.336E-03    -826.321E-03     32.5998E-03    -15.3792E-03    -17.2206E-03    -15.3868E-03     30.7661E-03    -15.3792E-03     18.7319E-03     136.114E+06    -249.647E+03    -61.6880E+06    -222.709E+03     136.087E+06    -61.6880E+06    -382.179E+03         29.6892
            1242     16.7344E-03     59.9717E-03         1.10499     957.226E-03        -4.09666         1.08091        -4.09417     978.818E-03     145.699E-03     31.3741E-03    -14.9612E-03    -16.4129E-03    -14.8892E-03     30.4975E-03    -15.6084E-03     6.30023E-03     191.095E+06     33.6433E+06    -37.3030E+06    -2.67809E+06     191.092E+06    -978.788E+03    -365.825E+03         31.7019
            1243     984.131E-06     60.8357E-03         3.66382     795.137E-03        -6.70020     775.213E-03        -3.81159     795.137E-03        -3.59392     32.6409E-03    -16.2818E-03    -16.3591E-03    -16.3411E-03     32.6229E-03    -16.2818E-03     1.76237E-03    -14.8709E+06    -16.4967E+06    -192.117E+06    -16.1605E+06    -192.116E+06    -15.2079E+06     252.129E+03         22.4414
            1244     1.96814E-03     60.8380E-03         1.66954     823.994E-03        -4.71617     979.829E-03        -4.02646     823.994E-03         1.76823     32.7012E-03    -16.3351E-03    -16.3661E-03    -16.3131E-03     32.6515E-03    -16.3384E-03     3.05328E-03    -10.0343E+06    -14.2964E+06    -190.716E+06    -14.2979E+06    -190.714E+06    -10.0343E+06     431.393E+03         22.4642
            1245     2.95225E-03     60.8419E-03         1.59910     894.268E-03        -4.69158         1.08335        -4.17582     894.268E-03         1.37574     32.7281E-03    -16.3541E-03    -16.3740E-03    -16.2742E-03     32.6315E-03    -16.3574E-03     4.30840E-03    -3.48506E+06    -11.6159E+06    -186.068E+06    -11.6180E+06    -186.066E+06    -3.48506E+06     392.469E+03         22.5029
            1246     3.93635E-03     60.8469E-03         1.72511     960.177E-03        -4.88699         1.23716        -4.39905     960.177E-03         3.18151     32.7235E-03    -16.3532E-03    -16.3703E-03    -16.2130E-03     32.5676E-03    -16.3546E-03     5.49379E-03     2.73791E+06    -8.60848E+06    -174.675E+06    -8.61014E+06    -174.674E+06     2.73791E+06     188.370E+03         22.5596
            1247     4.92058E-03     60.8532E-03         1.46637         1.02497        -4.69289         1.32909        -4.55560         1.02497         1.81327     32.7016E-03    -16.3341E-03    -16.3675E-03    -16.1467E-03     32.4823E-03    -16.3355E-03     6.53072E-03     8.25965E+06    -5.81173E+06    -157.913E+06    -5.81216E+06    -157.912E+06     8.25965E+06     81.3981E+03         22.6370
            1248     5.90485E-03     60.8602E-03         1.45258         1.07942        -4.72878         1.37092        -4.64712         1.07942         1.23982     32.6938E-03    -16.3169E-03    -16.3769E-03    -16.0972E-03     32.4141E-03    -16.3169E-03     7.37768E-03     13.5933E+06    -3.24400E+06    -142.292E+06    -3.24419E+06    -142.292E+06     13.5933E+06    -69.3950E+03         22.7383
            1249     6.88903E-03     60.8683E-03         1.78022         1.12036        -5.08039         1.35690        -4.65707         1.12036         2.66920     32.6885E-03    -16.2943E-03    -16.3942E-03    -16.0543E-03     32.3486E-03    -16.2943E-03     8.13222E-03     17.5865E+06    -556.707E+03    -127.959E+06    -557.515E+03    -127.959E+06     17.5865E+06    -280.660E+03         22.8683
            1250     7.87337E-03     60.8770E-03         1.81781         1.14835        -5.12993         1.32959        -4.64171         1.14835         3.32010     32.6813E-03    -16.2587E-03    -16.4226E-03    -16.0167E-03     32.2754E-03    -16.2587E-03     8.88356E-03     19.2856E+06     1.95463E+06    -111.917E+06     1.95305E+06    -111.915E+06     19.2856E+06    -18.6344E+03         23.0344
            1251     8.85772E-03     60.8867E-03         1.33722         1.15685        -4.64949         1.25696        -4.57700         1.16462     834.535E-03     32.6227E-03    -16.2135E-03    -16.4092E-03    -15.9516E-03     32.1651E-03    -16.2135E-03     9.42710E-03     19.9744E+06     4.47924E+06    -92.9544E+06     4.47427E+06    -92.9495E+06     19.9744E+06     338.479E+03         23.2483
            1252     9.84211E-03     60.8963E-03         1.19894         1.13112        -4.48149         1.09836        -4.41606         1.16627    -928.881E-03     32.6003E-03    -16.1496E-03    -16.4507E-03    -15.8997E-03     32.0493E-03    -16.1496E-03     10.3132E-03     16.8648E+06     6.72584E+06    -74.8650E+06     6.72087E+06    -74.8600E+06     16.8648E+06     12.3381E+03         23.5301
            1253     10.8265E-03     60.9079E-03         1.15555     962.816E-03        -4.25872     876.656E-03        -4.16749         1.15048        -1.33914     32.6436E-03    -16.0616E-03    -16.5820E-03    -15.8835E-03     31.9451E-03    -16.0616E-03     11.6289E-03     10.4400E+06     6.06908E+06    -55.2341E+06     7.64174E+06    -55.2329E+06     8.86606E+06    -85.5541E+03         23.9137
            1254     11.8109E-03     60.9202E-03         1.12065     754.366E-03        -3.99448     698.521E-03        -3.93863         1.12065        -1.01695     32.5138E-03    -15.9801E-03    -16.5337E-03    -15.7572E-03     31.7373E-03    -15.9801E-03     12.2428E-03     8.71070E+06     4.96740E+06    -25.5649E+06     8.57737E+06    -25.4316E+06     4.96740E+06     10.4764E+03         24.4531
            1255     12.7957E-03     60.9327E-03         1.08596     677.187E-03        -3.85615     632.135E-03        -3.81110         1.08596    -882.354E-03     32.5950E-03    -15.8895E-03    -16.7055E-03    -15.6757E-03     31.5652E-03    -15.8895E-03     14.0021E-03     18.7256E+06     6.14283E+06    -5.78019E+06     8.60326E+06     9.82824E+06     656.754E+03    -1.08518E+06         25.2232
            1256     13.7801E-03     60.9491E-03         1.05512     714.615E-03        -3.84472     666.122E-03        -3.79623         1.05512    -912.675E-03     32.7893E-03    -15.7497E-03    -17.0397E-03    -15.6879E-03     31.4376E-03    -15.7497E-03     16.1830E-03     42.3151E+06     5.23962E+06    -15.9968E+06     5.66770E+06     41.8871E+06    -15.9968E+06    -784.287E+03         26.3133
            1257     14.7645E-03     60.9656E-03         1.03319     866.868E-03        -3.96816     771.517E-03        -3.87281         1.03319        -1.32248     32.7543E-03    -15.5637E-03    -17.1907E-03    -15.4711E-03     31.0348E-03    -15.5637E-03     18.1403E-03     84.5198E+06     2.93998E+06    -38.7637E+06     2.95587E+06     84.5039E+06    -38.7637E+06     937.408E+03         27.8053
            1258     15.7501E-03     60.9861E-03         1.03226     987.141E-03        -4.08498     933.800E-03        -4.02192         1.02254    -799.332E-03     32.5953E-03    -15.3747E-03    -17.2206E-03    -15.3699E-03     30.7446E-03    -15.3747E-03     18.8232E-03     136.893E+06    -600.199E+03    -59.5782E+06    -583.305E+03     136.876E+06    -59.5782E+06     678.620E+03         29.6916
            1259     16.7338E-03     61.0039E-03         1.15135         1.01703        -4.22807         1.14164        -4.22518         1.02384     156.472E-03     31.5705E-03    -15.0357E-03    -16.5349E-03    -15.0389E-03     30.6410E-03    -15.6021E-03     6.23217E-03     190.827E+06     32.4850E+06    -36.3707E+06    -3.33825E+06     190.819E+06    -539.592E+03    -449.859E+03         31.7181
            1260     984.067E-06     61.8677E-03         4.41997     919.182E-03        -7.62831     608.958E-03        -3.81730     919.182E-03        -4.45876     32.6273E-03    -16.2468E-03    -16.3805E-03    -16.3622E-03     32.6091E-03    -16.2468E-03     1.80355E-03    -15.1968E+06    -17.5043E+06    -192.990E+06    -17.1677E+06    -192.990E+06    -15.5339E+06     140.696E+03         22.4404
            1261     1.96818E-03     61.8703E-03         1.91743     802.046E-03        -4.99450     953.589E-03        -4.03066     802.046E-03         1.96332     32.6828E-03    -16.3307E-03    -16.3521E-03    -16.3026E-03     32.6332E-03    -16.3307E-03     3.04387E-03    -10.8253E+06    -15.1816E+06    -191.634E+06    -15.1828E+06    -191.633E+06    -10.8253E+06     331.526E+03         22.4632
            1262     2.95222E-03     61.8740E-03         1.70393     872.512E-03        -4.82727         1.06780        -4.19114     872.512E-03         1.19735     32.7064E-03    -16.3470E-03    -16.3594E-03    -16.2619E-03     32.6089E-03    -16.3470E-03     4.32579E-03    -4.51590E+06    -12.7215E+06    -186.358E+06    -12.7230E+06    -186.357E+06    -4.51590E+06     255.075E+03         22.5019
            1263     3.93641E-03     61.8791E-03         1.73277     938.680E-03        -4.92259         1.20749        -4.39731     938.680E-03         3.22325     32.7007E-03    -16.3438E-03    -16.3569E-03    -16.1992E-03     32.5444E-03    -16.3452E-03     5.50072E-03     1.89983E+06    -10.0309E+06    -174.829E+06    -10.0320E+06    -174.828E+06     1.89983E+06     161.621E+03         22.5585
            1264     4.92064E-03     61.8853E-03         1.41822         1.00036        -4.66969         1.28138        -4.53285         1.00036         1.78238     32.6921E-03    -16.3268E-03    -16.3653E-03    -16.1453E-03     32.4734E-03    -16.3282E-03     6.51942E-03     7.65051E+06    -6.96048E+06    -158.301E+06    -6.96084E+06    -158.301E+06     7.65051E+06     97.2562E+03         22.6358
            1265     5.90480E-03     61.8926E-03         1.42429         1.05151        -4.72017         1.32934        -4.62523         1.05151         1.29912     32.6899E-03    -16.3113E-03    -16.3786E-03    -16.1001E-03     32.4115E-03    -16.3113E-03     7.36173E-03     13.2949E+06    -3.72525E+06    -142.248E+06    -3.72591E+06    -142.247E+06     13.2949E+06    -164.923E+03         22.7370
            1266     6.88915E-03     61.9004E-03         1.77329         1.09222        -5.09433         1.34063        -4.66167         1.09222         2.67822     32.6968E-03    -16.2912E-03    -16.4055E-03    -16.0643E-03     32.3555E-03    -16.2912E-03     8.14820E-03     17.3715E+06    -926.059E+03    -128.194E+06    -926.754E+03    -128.193E+06     17.3715E+06    -226.086E+03         22.8668
            1267     7.87337E-03     61.9093E-03         1.84012         1.12357        -5.17781         1.34452        -4.68221         1.12357         3.34225     32.6676E-03    -16.2547E-03    -16.4130E-03    -16.0066E-03     32.2612E-03    -16.2547E-03     8.88823E-03     18.6779E+06     1.56718E+06    -112.530E+06     1.56553E+06    -112.529E+06     18.6779E+06    -245.538E+03         23.0325
            1268     8.85775E-03     61.9186E-03         1.37727         1.14621        -4.72839         1.30874        -4.65986         1.14621     877.559E-03     32.6030E-03    -16.2073E-03    -16.3957E-03    -15.9380E-03     32.1453E-03    -16.2073E-03     9.42430E-03     19.2360E+06     4.02599E+06    -93.2045E+06     4.02283E+06    -93.2014E+06     19.2360E+06    -463.499E+03         23.2460
            1269     9.84213E-03     61.9287E-03         1.25460         1.15715        -4.61145         1.19861        -4.55546         1.15715    -838.339E-03     32.5976E-03    -16.1453E-03    -16.4523E-03    -15.9023E-03     32.0477E-03    -16.1453E-03     10.3066E-03     16.5328E+06     6.05077E+06    -74.8250E+06     6.04743E+06    -74.8216E+06     16.5328E+06    -477.749E+03         23.5271
            1270     10.8266E-03     61.9398E-03         1.18962         1.07582        -4.45386         1.03523        -4.37738         1.15373        -1.26427     32.5915E-03    -16.0591E-03    -16.5324E-03    -15.8412E-03     31.9003E-03    -16.0591E-03     11.5559E-03     10.3443E+06     5.60688E+06    -55.9868E+06     7.06640E+06    -55.9843E+06     8.88236E+06    -238.674E+03         23.9096
            1271     11.8112E-03     61.9524E-03         1.13788     930.059E-03        -4.23238     885.587E-03        -4.18791         1.13788    -952.193E-03     32.5240E-03    -15.9763E-03    -16.5477E-03    -15.7825E-03     31.7588E-03    -15.9763E-03     12.1592E-03     6.68259E+06     4.54162E+06    -25.4975E+06     6.56610E+06    -25.3810E+06     4.54162E+06    -314.691E+03         24.4476
            1272     12.7954E-03     61.9648E-03         1.11599     848.681E-03        -4.10331     812.919E-03        -4.06755         1.11599    -827.037E-03     32.5944E-03    -15.8987E-03    -16.6957E-03    -15.6877E-03     31.5864E-03    -15.8987E-03     13.8535E-03     15.5177E+06     4.22807E+06    -3.76685E+06     4.82911E+06     9.61348E+06     1.53637E+06     326.104E+03         25.2164
            1273     13.7803E-03     61.9811E-03         1.09586     879.296E-03        -4.09143     842.486E-03        -4.05462         1.09586    -839.368E-03     32.6755E-03    -15.7604E-03    -16.9151E-03    -15.5921E-03     31.3525E-03    -15.7604E-03     15.9745E-03     40.6134E+06     2.82792E+06    -14.6044E+06     2.87491E+06     40.5664E+06    -14.6044E+06     967.960E+03         26.3058
            1274     14.7649E-03     61.9980E-03         1.10204     997.955E-03        -4.20504     938.029E-03        -4.12592         1.08284        -1.25573     32.7613E-03    -15.5609E-03    -17.2003E-03    -15.5611E-03     31.1220E-03    -15.5609E-03     17.7529E-03     84.0794E+06     1.03472E+06    -39.5561E+06     1.05713E+06     84.0570E+06    -39.5561E+06    -95.2883E+03         27.7996
            1275     15.7492E-03     62.0175E-03         1.13467         1.07324        -4.30528         1.07468        -4.25102         1.07898    -758.590E-03     32.4907E-03    -15.3693E-03    -17.1214E-03    -15.3241E-03     30.6934E-03    -15.3693E-03     18.5366E-03     136.792E+06    -550.505E+03    -60.6215E+06    -534.821E+03     136.776E+06    -60.6215E+06    -54.5816E+03         29.6941
            1276     16.7346E-03     62.0373E-03         1.24875         1.08438        -4.41701         1.24624        -4.41450         1.08438     162.855E-03     31.4353E-03    -15.0722E-03    -16.3631E-03    -14.8962E-03     30.4879E-03    -15.5917E-03     6.15499E-03     190.739E+06     33.1825E+06    -36.0235E+06    -1.79742E+06     190.734E+06    -1.03824E+06    -103.515E+03         31.7345
            1277     984.095E-06     62.9000E-03         4.88813         1.18097        -8.41238     463.822E-03        -3.98808         1.18097        -5.04127     32.6203E-03    -16.2605E-03    -16.3598E-03    -16.3385E-03     32.6022E-03    -16.2637E-03     1.79233E-03    -16.3435E+06    -18.9373E+06    -193.652E+06    -18.5164E+06    -193.651E+06    -16.7649E+06     129.043E+03         22.4398
            1278     1.96815E-03     62.9024E-03         2.11565     848.708E-03        -5.28825     952.742E-03        -4.12534     848.708E-03         2.09388     32.6406E-03    -16.3132E-03    -16.3274E-03    -16.2669E-03     32.5908E-03    -16.3239E-03     3.04671E-03    -11.3536E+06    -16.0454E+06    -192.314E+06    -16.0460E+06    -192.313E+06    -11.3536E+06     147.313E+03         22.4624
            1279     2.95234E-03     62.9062E-03         1.77103     900.071E-03        -4.97468         1.05092        -4.25457     900.071E-03         1.03317     32.6767E-03    -16.3267E-03    -16.3500E-03    -16.2448E-03     32.5790E-03    -16.3343E-03     4.33021E-03    -4.82215E+06    -13.4635E+06    -187.009E+06    -13.4642E+06    -187.008E+06    -4.82215E+06     222.401E+03         22.5009
            1280     3.93648E-03     62.9112E-03         1.69506     950.714E-03        -4.94392         1.15350        -4.40236     950.714E-03         3.18970     32.7131E-03    -16.3374E-03    -16.3757E-03    -16.2204E-03     32.5578E-03    -16.3374E-03     5.48647E-03     2.07083E+06    -10.3590E+06    -175.011E+06    -10.3599E+06    -175.010E+06     2.07083E+06     266.506E+03         22.5575
            1281     4.92059E-03     62.9175E-03         1.33918     997.122E-03        -4.63177         1.20712        -4.49971     997.122E-03         1.70384     32.6940E-03    -16.3248E-03    -16.3692E-03    -16.1512E-03     32.4760E-03    -16.3248E-03     6.50764E-03     7.75433E+06    -7.16704E+06    -158.311E+06    -7.16813E+06    -158.310E+06     7.75433E+06    -110.585E+03         22.6346
            1282     5.90490E-03     62.9246E-03         1.34863         1.03563        -4.67139         1.24624        -4.56900         1.03563         1.30635     32.6827E-03    -16.3075E-03    -16.3752E-03    -16.0954E-03     32.4029E-03    -16.3075E-03     7.37812E-03     12.9826E+06    -4.13086E+06    -142.473E+06    -4.13226E+06    -142.472E+06     12.9826E+06    -345.440E+03         22.7357
            1283     6.88908E-03     62.9327E-03         1.71807         1.06861        -5.06044         1.28646        -4.62883         1.06861         2.64195     32.6883E-03    -16.2885E-03    -16.3999E-03    -16.0590E-03     32.3475E-03    -16.2885E-03     8.14372E-03     17.2965E+06    -1.14626E+06    -128.573E+06    -1.14820E+06    -128.571E+06     17.2965E+06    -372.365E+03         22.8653
            1284     7.87343E-03     62.9414E-03         1.82327         1.09858        -5.18133         1.33234        -4.69040         1.09858         3.30522     32.6549E-03    -16.2516E-03    -16.4033E-03    -15.9997E-03     32.2513E-03    -16.2516E-03     8.85570E-03     18.7089E+06     1.56298E+06    -112.750E+06     1.55989E+06    -112.747E+06     18.7089E+06    -467.721E+03         23.0308
            1285     8.85777E-03     62.9509E-03         1.37582         1.12345        -4.75203         1.31214        -4.68835         1.12345     882.042E-03     32.6040E-03    -16.2028E-03    -16.4011E-03    -15.9426E-03     32.1454E-03    -16.2028E-03     9.43289E-03     18.8030E+06     3.37722E+06    -93.2129E+06     3.37355E+06    -93.2093E+06     18.8030E+06    -556.687E+03         23.2439
            1286     9.84218E-03     62.9607E-03         1.29224         1.13881        -4.67810         1.24090        -4.62676         1.13881    -781.187E-03     32.5920E-03    -16.1419E-03    -16.4500E-03    -15.9039E-03     32.0458E-03    -16.1419E-03     10.2745E-03     15.6358E+06     4.33255E+06    -75.3486E+06     4.32879E+06    -75.3448E+06     15.6358E+06    -402.334E+03         23.5244
            1287     10.8266E-03     62.9720E-03         1.25703         1.13153        -4.62310         1.17614        -4.55583         1.14515        -1.19977     32.6216E-03    -16.0592E-03    -16.5624E-03    -15.8823E-03     31.9414E-03    -16.0592E-03     11.4724E-03     8.85287E+06     4.36714E+06    -56.0055E+06     5.03525E+06    -55.9907E+06     8.16994E+06    -568.823E+03         23.9060
            1288     11.8109E-03     62.9843E-03         1.20830         1.09816        -4.51937         1.12481        -4.48336         1.14565    -892.507E-03     32.5502E-03    -15.9776E-03    -16.5726E-03    -15.8142E-03     31.7918E-03    -15.9776E-03     12.1118E-03     5.75723E+06     3.34574E+06    -26.5561E+06     5.65323E+06    -26.5044E+06     3.39801E+06    -17.1190E+03         24.4426
            1289     12.7956E-03     62.9974E-03         1.20579         1.06646        -4.45653         1.09785        -4.42539         1.14325    -817.846E-03     32.5779E-03    -15.9017E-03    -16.6762E-03    -15.6791E-03     31.5808E-03    -15.9017E-03     13.7794E-03     15.6285E+06     4.24794E+06    -4.50177E+06     5.93061E+06     8.27767E+06     1.16641E+06     1.09892E+06         25.2099
            1290     13.7799E-03     63.0128E-03         1.21064         1.08035        -4.45236         1.11674        -4.41931         1.14120    -842.730E-03     32.7126E-03    -15.7540E-03    -16.9586E-03    -15.6310E-03     31.3850E-03    -15.7540E-03     16.0113E-03     40.5650E+06     5.77870E+06    -15.8056E+06     5.83769E+06     40.5061E+06    -15.8056E+06     754.306E+03         26.2983
            1291     14.7647E-03     63.0303E-03         1.24949         1.12401        -4.51846         1.16190        -4.44880         1.14194        -1.23159     32.8628E-03    -15.5550E-03    -17.3078E-03    -15.6453E-03     31.2003E-03    -15.5550E-03     17.9156E-03     85.0050E+06     3.44178E+06    -41.0599E+06     3.48057E+06     84.9662E+06    -41.0599E+06     85.5194E+03         27.7938
            1292     15.7490E-03     63.0503E-03         1.28108         1.14654        -4.55863         1.23332        -4.51087         1.14654    -741.114E-03     32.4658E-03    -15.3713E-03    -17.0945E-03    -15.3388E-03     30.7102E-03    -15.3713E-03     18.3058E-03     136.332E+06    -468.957E+03    -62.1144E+06    -432.270E+03     136.295E+06    -62.1144E+06    -613.138E+03         29.6959
            1293     16.7343E-03     63.0677E-03         1.34643         1.15570        -4.61311         1.34470        -4.61137         1.15570     139.822E-03     31.2995E-03    -15.0132E-03    -16.2863E-03    -14.8230E-03     30.4205E-03    -15.5976E-03     6.17339E-03     189.517E+06     33.9708E+06    -37.4958E+06    -1.83731E+06     189.505E+06    -1.67575E+06    -634.548E+03         31.7499
            1294     984.064E-06     63.9322E-03         4.99825         1.51500        -8.91020     402.011E-03        -4.31396         1.51500        -5.21378     32.6056E-03    -16.2783E-03    -16.3272E-03    -16.2909E-03     32.5880E-03    -16.2971E-03     1.76319E-03    -17.6449E+06    -19.4294E+06    -193.797E+06    -18.9117E+06    -193.795E+06    -18.1641E+06    -387.443E+03         22.4392
            1295     1.96821E-03     63.9345E-03         2.19162     957.662E-03        -5.52572     952.621E-03        -4.28672     957.662E-03         2.19629     32.6126E-03    -16.2881E-03    -16.3246E-03    -16.2492E-03     32.5637E-03    -16.3145E-03     3.01721E-03    -12.5087E+06    -17.0982E+06    -193.055E+06    -17.0989E+06    -193.054E+06    -12.5087E+06    -192.341E+03         22.4617
            1296     2.95235E-03     63.9383E-03         1.74642     961.957E-03        -5.06126     993.245E-03        -4.30809     961.957E-03     959.171E-03     32.6732E-03    -16.3199E-03    -16.3534E-03    -16.2485E-03     32.5760E-03    -16.3274E-03     4.31853E-03    -5.25702E+06    -14.0921E+06    -187.581E+06    -14.0922E+06    -187.581E+06    -5.25702E+06     2.37310E+03         22.5000
            1297     3.93644E-03     63.9435E-03         1.61371     978.300E-03        -4.93447         1.06552        -4.38628     978.300E-03         3.12634     32.6998E-03    -16.3313E-03    -16.3685E-03    -16.2133E-03     32.5447E-03    -16.3313E-03     5.48164E-03     1.62472E+06    -10.5476E+06    -175.448E+06    -10.5482E+06    -175.447E+06     1.62472E+06     6.95559E+03         22.5564
            1298     4.92067E-03     63.9496E-03         1.25704         1.00191        -4.59375         1.12804        -4.46475         1.00191         1.63704     32.6900E-03    -16.3187E-03    -16.3712E-03    -16.1539E-03     32.4726E-03    -16.3187E-03     6.49952E-03     7.39474E+06    -7.30706E+06    -158.271E+06    -7.30851E+06     -158.27E+06     7.39474E+06    -138.607E+03         22.6334
            1299     5.90485E-03     63.9568E-03         1.26429         1.02557        -4.61628         1.15832        -4.51031         1.02557         1.28730     32.6815E-03    -16.3040E-03    -16.3775E-03    -16.0971E-03     32.4011E-03    -16.3040E-03     7.38491E-03     12.8199E+06    -4.32967E+06    -142.600E+06    -4.33264E+06    -142.597E+06     12.8199E+06    -419.964E+03         22.7343
            1300     6.88917E-03     63.9648E-03         1.63115         1.04785        -4.99285         1.20657        -4.56826         1.04785         2.56679     32.6681E-03    -16.2842E-03    -16.3839E-03    -16.0430E-03     32.3273E-03    -16.2842E-03     8.14214E-03     16.9690E+06    -1.45756E+06    -128.931E+06    -1.46105E+06    -128.928E+06     16.9690E+06    -463.925E+03         22.8638
            1301     7.87344E-03     63.9735E-03         1.74874         1.07134        -5.12394         1.26908        -4.64429         1.07134         3.21765     32.6566E-03    -16.2468E-03    -16.4097E-03    -16.0065E-03     32.2533E-03    -16.2468E-03     8.85172E-03     18.2151E+06     836.155E+03    -112.962E+06     833.536E+03    -112.959E+06     18.2151E+06    -396.911E+03         23.0291
            1302     8.85782E-03     63.9830E-03         1.36006         1.09490        -4.75311         1.30156        -4.69461         1.09490     835.818E-03     32.6155E-03    -16.1995E-03    -16.4160E-03    -15.9602E-03     32.1597E-03    -16.1995E-03     9.40868E-03     18.2173E+06     2.78319E+06    -93.4912E+06     2.78078E+06    -93.4887E+06     18.2173E+06    -451.970E+03         23.2419
            1303     9.84213E-03     63.9930E-03         1.34918         1.11542        -4.75915         1.30142        -4.71139         1.11542    -770.140E-03     32.6073E-03    -16.1402E-03    -16.4671E-03    -15.9255E-03     32.0657E-03    -16.1402E-03     10.2348E-03     15.0749E+06     4.35874E+06    -75.7796E+06     4.35675E+06    -75.7776E+06     15.0749E+06    -270.318E+03         23.5218
            1304     10.8266E-03     64.0041E-03         1.37334         1.13263        -4.78894         1.31107        -4.72666         1.13263        -1.18408     32.6669E-03    -16.0587E-03    -16.6082E-03    -15.9229E-03     31.9816E-03    -16.0587E-03     11.5227E-03     8.05137E+06     3.99519E+06    -55.8831E+06     4.63831E+06    -55.8660E+06     7.39114E+06    -213.981E+03         23.9023
            1305     11.8108E-03     64.0169E-03         1.38622         1.14923        -4.79754         1.35398        -4.76530         1.14923    -888.999E-03     32.5962E-03    -15.9808E-03    -16.6154E-03    -15.8522E-03     31.8329E-03    -15.9808E-03     12.1615E-03     4.56738E+06     2.08362E+06    -27.6045E+06     4.43424E+06    -27.5237E+06     2.13589E+06    -400.408E+03         24.4375
            1306     12.7953E-03     64.0291E-03         1.43445         1.16712        -4.83633         1.40540        -4.80727         1.16712    -845.972E-03     32.5535E-03    -15.9087E-03    -16.6448E-03    -15.6681E-03     31.5768E-03    -15.9087E-03     13.6405E-03     15.1181E+06     3.25005E+06    -5.92095E+06     4.98013E+06     6.99255E+06     474.548E+03     184.671E+03         25.2031
            1307     13.7803E-03     64.0454E-03         1.46750         1.18571        -4.86303         1.43483        -4.83037         1.18571    -896.224E-03     32.7395E-03    -15.7612E-03    -16.9783E-03    -15.6388E-03     31.3999E-03    -15.7612E-03     16.0745E-03     41.3926E+06     4.74861E+06    -15.8125E+06     4.77678E+06     41.3644E+06    -15.8125E+06     200.301E+03         26.2905
            1308     14.7643E-03     64.0625E-03         1.50080         1.20327        -4.89393         1.43599        -4.82913         1.20327        -1.26128     32.7550E-03    -15.5598E-03    -17.1952E-03    -15.5149E-03     31.0748E-03    -15.5598E-03     17.9768E-03     84.9655E+06     3.92520E+06    -40.5139E+06     3.98730E+06     84.9034E+06    -40.5139E+06    -727.198E+03         27.7876
            1309     15.7496E-03     64.0824E-03         1.47192         1.21880        -4.86068         1.42823        -4.81699         1.21880    -766.110E-03     32.5566E-03    -15.3750E-03    -17.1816E-03    -15.3942E-03     30.7692E-03    -15.3750E-03     18.4973E-03     135.972E+06     1.44188E+06    -60.9042E+06     1.53484E+06     135.879E+06    -60.9042E+06    -216.883E+03         29.6976
            1310     16.7336E-03     64.1001E-03         1.43032         1.23202        -4.80610         1.42846        -4.80424         1.23202     122.220E-03     31.4857E-03    -14.9299E-03    -16.5559E-03    -14.9595E-03     30.5618E-03    -15.6023E-03     6.51124E-03     189.212E+06     33.9952E+06    -37.2033E+06    -1.47458E+06     189.176E+06    -1.69745E+06     204.489E+03         31.7648
            1311     984.035E-06     64.9642E-03         4.79936         1.81764        -9.06543     392.935E-03        -4.65901         1.81764        -5.08031     32.6037E-03    -16.2575E-03    -16.3462E-03    -16.3136E-03     32.5867E-03    -16.2731E-03     1.68523E-03    -16.2789E+06    -17.7358E+06    -193.827E+06    -17.6426E+06    -193.823E+06    -16.3768E+06    -304.251E+03         22.4385
            1312     1.96823E-03     64.9667E-03         2.14590         1.07818        -5.65154     968.404E-03        -4.47404         1.07818         2.22530     32.6414E-03    -16.2994E-03    -16.3420E-03    -16.2774E-03     32.5924E-03    -16.3150E-03     3.02529E-03    -12.3292E+06    -16.5448E+06    -193.421E+06    -16.5479E+06    -193.418E+06    -12.3292E+06    -79.8981E+03         22.4609
            1313     2.95227E-03     64.9705E-03         1.65569         1.03429        -5.09040     933.807E-03        -4.36852         1.03429     957.422E-03     32.6728E-03    -16.3278E-03    -16.3450E-03    -16.2472E-03     32.5760E-03    -16.3288E-03     4.30488E-03    -6.02325E+06    -14.0873E+06    -187.921E+06    -14.0886E+06    -187.920E+06    -6.02325E+06    -401.082E+03         22.4990
            1314     3.93651E-03     64.9756E-03         1.50881         1.01244        -4.90378     974.826E-03        -4.37036         1.01300         3.05519     32.6693E-03    -16.3275E-03    -16.3418E-03    -16.1861E-03     32.5146E-03    -16.3286E-03     5.47095E-03     861.063E+03    -10.8865E+06    -175.833E+06    -10.8878E+06    -175.832E+06     861.063E+03    -413.576E+03         22.5553
            1315     4.92066E-03     64.9818E-03         1.16251         1.01010        -4.54467         1.03376        -4.41648         1.01066         1.60803     32.6778E-03    -16.3125E-03    -16.3654E-03    -16.1470E-03     32.4595E-03    -16.3125E-03     6.51137E-03     6.65230E+06    -7.67112E+06    -158.704E+06    -7.67261E+06    -158.703E+06     6.65230E+06    -347.864E+03         22.6322
            1316     5.90490E-03     64.9890E-03         1.17287         1.01717        -4.55199         1.06767        -4.44679         1.01717         1.25174     32.6796E-03    -16.2989E-03    -16.3807E-03    -16.1013E-03     32.4003E-03    -16.2989E-03     7.37344E-03     12.4003E+06    -4.59025E+06    -142.566E+06    -4.59315E+06    -142.563E+06     12.4003E+06    -388.405E+03         22.7331
            1317     6.88915E-03     64.9969E-03         1.52490         1.02712        -4.90492         1.10927        -4.48929         1.02712         2.48471     32.6670E-03    -16.2823E-03    -16.3847E-03    -16.0477E-03     32.3300E-03    -16.2823E-03     8.09552E-03     16.7619E+06    -1.79850E+06    -129.313E+06    -1.80392E+06    -129.307E+06     16.7619E+06    -552.340E+03         22.8624
            1318     7.87353E-03     65.0057E-03         1.65304         1.04185        -5.04210         1.18723        -4.57629         1.04185         3.10792     32.6609E-03    -16.2449E-03    -16.4160E-03    -16.0140E-03     32.2589E-03    -16.2449E-03     8.83808E-03     18.0133E+06     969.764E+03    -113.150E+06     964.910E+03    -113.145E+06     18.0133E+06    -556.237E+03         23.0275
            1319     8.85772E-03     65.0152E-03         1.34332         1.06327        -4.75084         1.29030        -4.69782         1.06327     756.942E-03     32.6241E-03    -16.1975E-03    -16.4266E-03    -15.9716E-03     32.1691E-03    -16.1975E-03     9.40226E-03     17.9064E+06     3.22940E+06    -93.7600E+06     3.22543E+06    -93.7561E+06     17.9064E+06    -577.489E+03         23.2398
            1320     9.84219E-03     65.0250E-03         1.42351         1.08980        -4.85572         1.37371        -4.80592         1.08980    -833.550E-03     32.6373E-03    -16.1400E-03    -16.4972E-03    -15.9511E-03     32.0911E-03    -16.1400E-03     10.2796E-03     14.7452E+06     4.76515E+06    -76.3049E+06     4.76202E+06    -76.3018E+06     14.7452E+06    -436.013E+03         23.5191
            1321     10.8264E-03     65.0365E-03         1.52472         1.11918        -4.97801         1.45780        -4.91108         1.11918        -1.26888     32.6811E-03    -16.0603E-03    -16.6207E-03    -15.9334E-03     31.9937E-03    -16.0603E-03     11.5463E-03     8.68615E+06     4.25881E+06    -56.3070E+06     5.57929E+06    -56.3026E+06     7.36128E+06     78.9079E+03         23.8983
            1322     11.8110E-03     65.0488E-03         1.61148         1.15214        -5.07739         1.57483        -5.04074         1.15214    -987.290E-03     32.5823E-03    -15.9819E-03    -16.6004E-03    -15.8324E-03     31.8143E-03    -15.9819E-03     12.1950E-03     5.24813E+06     2.27380E+06    -27.5477E+06     5.16365E+06    -27.4632E+06     2.27380E+06     125.494E+03         24.4318
            1323     12.7952E-03     65.0617E-03         1.71547         1.18896        -5.19462         1.68369        -5.16283         1.18896    -927.991E-03     32.6643E-03    -15.8991E-03    -16.7652E-03    -15.7706E-03     31.6697E-03    -15.8991E-03     13.8009E-03     14.7216E+06     3.17275E+06    -8.34188E+06     4.98620E+06     6.76070E+06    -2.19444E+06    -1.04121E+06         25.1958
            1324     13.7795E-03     65.0768E-03         1.76334         1.22644        -5.25371         1.72934        -5.21971         1.22644    -963.722E-03     32.6913E-03    -15.7505E-03    -16.9408E-03    -15.5889E-03     31.3394E-03    -15.7505E-03     16.1297E-03     41.4779E+06     5.61957E+06    -18.5756E+06     5.87529E+06     41.2222E+06    -18.5756E+06    -1.29369E+06         26.2822
            1325     14.7647E-03     65.0954E-03         1.77265         1.26011        -5.27470         1.70703        -5.20908         1.26011        -1.33108     32.6950E-03    -15.5556E-03    -17.1394E-03    -15.4667E-03     31.0222E-03    -15.5556E-03     17.9280E-03     84.5019E+06     3.96618E+06    -41.6828E+06     4.02741E+06     84.4407E+06    -41.6828E+06    -1.04397E+06         27.7810
            1326     15.7494E-03     65.1132E-03         1.68309         1.28709        -5.18883         1.63886        -5.14461         1.28709    -836.186E-03     32.5613E-03    -15.3746E-03    -17.1867E-03    -15.4176E-03     30.7922E-03    -15.3746E-03     18.4103E-03     134.945E+06    -71.9674E+03    -61.8129E+06     14.7690E+03     134.859E+06    -61.8129E+06    -443.837E+03         29.6988
            1327     16.7345E-03     65.1342E-03         1.54614         1.30589        -5.03800         1.54436        -5.03621         1.30589     87.6148E-03     31.4067E-03    -14.9623E-03    -16.4444E-03    -14.8781E-03     30.4753E-03    -15.5972E-03     6.14600E-03     188.922E+06     32.3754E+06    -36.2413E+06    -1.27638E+06     188.877E+06    -2.54456E+06     777.231E+03         31.7799
            1328     984.210E-06     65.9964E-03         4.35931         2.00432        -8.86140     292.347E-03        -4.79443         2.00432        -4.79979     32.6085E-03    -16.2467E-03    -16.3619E-03    -16.3452E-03     32.5918E-03    -16.2467E-03     1.67641E-03    -15.8359E+06    -17.6464E+06    -194.713E+06    -17.6501E+06    -194.709E+06    -15.8359E+06     241.988E+03         22.4376
            1329     1.96812E-03     65.9989E-03         2.05551         1.12407        -5.65027         1.02668        -4.62145         1.12407         2.12679     32.6724E-03    -16.3192E-03    -16.3532E-03    -16.3004E-03     32.6237E-03    -16.3234E-03     3.01275E-03    -11.1861E+06    -15.5153E+06    -193.334E+06    -15.5179E+06    -193.331E+06    -11.1861E+06     89.0342E+03         22.4600
            1330     2.95232E-03     66.0027E-03         1.59871         1.07931        -5.12504     956.478E-03        -4.48280         1.07931     980.291E-03     32.6717E-03    -16.3307E-03    -16.3410E-03    -16.2397E-03     32.5755E-03    -16.3359E-03     4.29462E-03    -5.49045E+06    -13.3545E+06    -188.015E+06    -13.3560E+06    -188.014E+06    -5.49045E+06    -306.019E+03         22.4981
            1331     3.93641E-03     66.0077E-03         1.43568         1.02628        -4.88386     920.660E-03        -4.38615         1.04359         2.98084     32.6731E-03    -16.3292E-03    -16.3439E-03    -16.1884E-03     32.5186E-03    -16.3302E-03     5.46655E-03     657.811E+03    -10.9285E+06    -175.955E+06    -10.9310E+06    -175.953E+06     657.811E+03    -424.929E+03         22.5543
            1332     4.92070E-03     66.0139E-03         1.08279         1.00279        -4.49327     938.113E-03        -4.36590         1.02010         1.60071     32.6634E-03    -16.3123E-03    -16.3512E-03    -16.1333E-03     32.4456E-03    -16.3123E-03     6.50269E-03     6.28807E+06    -7.91422E+06    -158.950E+06    -7.91827E+06    -158.946E+06     6.28807E+06    -751.163E+03         22.6312
            1333     5.90492E-03     66.0212E-03         1.07716     990.388E-03        -4.46458     959.391E-03        -4.36426         1.00784         1.20711     32.6764E-03    -16.2973E-03    -16.3791E-03    -16.1009E-03     32.3982E-03    -16.2973E-03     7.35782E-03     11.9933E+06    -4.70839E+06    -143.058E+06    -4.71263E+06    -143.053E+06     11.9933E+06    -663.706E+03         22.7319
            1334     6.88916E-03     66.0291E-03         1.43357     987.138E-03        -4.81392         1.01759        -4.41540         1.00459         2.40629     32.6891E-03    -16.2830E-03    -16.4062E-03    -16.0708E-03     32.3537E-03    -16.2830E-03     8.08038E-03     16.7949E+06    -1.48000E+06    -129.343E+06    -1.48646E+06    -129.336E+06     16.7949E+06    -774.197E+03         22.8611
            1335     7.87336E-03     66.0379E-03         1.57989         1.01309        -4.98293         1.13765        -4.54068         1.01309         2.97505     32.6526E-03    -16.2462E-03    -16.4064E-03    -16.0041E-03     32.2503E-03    -16.2462E-03     8.83792E-03     17.9966E+06     1.35166E+06    -113.446E+06     1.33972E+06    -113.434E+06     17.9966E+06    -1.05051E+06         23.0258
            1336     8.85788E-03     66.0473E-03         1.32607         1.03421        -4.75255         1.27873        -4.70522         1.03421     654.142E-03     32.6204E-03    -16.1976E-03    -16.4227E-03    -15.9647E-03     32.1623E-03    -16.1976E-03     9.43279E-03     17.8665E+06     3.60853E+06    -94.2713E+06       3.599E+06    -94.2617E+06     17.8665E+06    -782.602E+03         23.2376
            1337     9.84207E-03     66.0573E-03         1.48509         1.06569        -4.94266         1.42803        -4.88561         1.06569    -949.091E-03     32.6551E-03    -16.1412E-03    -16.5140E-03    -15.9639E-03     32.1051E-03    -16.1412E-03     10.3186E-03     15.0163E+06     5.24459E+06    -76.5729E+06     5.23575E+06    -76.5641E+06     15.0163E+06    -623.759E+03         23.5160
            1338     10.8266E-03     66.0686E-03         1.68901         1.10654        -5.18055         1.61047        -5.10201         1.10654        -1.41703     32.6882E-03    -16.0616E-03    -16.6266E-03    -15.9338E-03     31.9954E-03    -16.0616E-03     11.5929E-03     9.31032E+06     4.53863E+06    -57.2550E+06     6.34957E+06    -57.2477E+06     7.49216E+06    -465.911E+03         23.8939
            1339     11.8107E-03     66.0812E-03         1.83196         1.15568        -5.35846         1.78569        -5.31220         1.15568        -1.14608     32.5512E-03    -15.9831E-03    -16.5680E-03    -15.8035E-03     31.7866E-03    -15.9831E-03     12.1595E-03     7.37288E+06     3.35872E+06    -27.7552E+06     7.31783E+06    -27.7002E+06     3.35872E+06    -116.030E+03         24.4258
            1340     12.7957E-03     66.0934E-03         1.95142         1.20915        -5.50874         1.91211        -5.46943         1.20915        -1.06839     32.6389E-03    -15.8953E-03    -16.7436E-03    -15.7090E-03     31.6043E-03    -15.8953E-03     14.0282E-03     17.3388E+06     5.12523E+06    -7.12514E+06     7.51916E+06     8.43431E+06    -614.611E+03    -1.29475E+06         25.1882
            1341     13.7798E-03     66.1102E-03         2.00313         1.26168        -5.59070         1.96408        -5.55165         1.26168        -1.07619     32.7544E-03    -15.7448E-03    -17.0096E-03    -15.6684E-03     31.4132E-03    -15.7448E-03     16.1083E-03     40.7005E+06     5.52348E+06    -18.9215E+06     5.81607E+06     40.4079E+06    -18.9215E+06    -2.25121E+06         26.2738
            1342     14.7648E-03     66.1255E-03         1.99519         1.30803        -5.60651         1.92582        -5.53714         1.30803        -1.42463     32.8732E-03    -15.5585E-03    -17.3146E-03    -15.6023E-03     31.1609E-03    -15.5585E-03     18.1255E-03     83.1248E+06     2.87937E+06    -42.2657E+06     2.93573E+06     83.0684E+06    -42.2657E+06    -49.6086E+03         27.7741
            1343     15.7487E-03     66.1483E-03         1.86733         1.34438        -5.49097         1.82080        -5.44444         1.34438    -927.075E-03     32.5494E-03    -15.3803E-03    -17.1691E-03    -15.3963E-03     30.7766E-03    -15.3803E-03     18.3875E-03     134.572E+06    -1.08892E+06    -62.2863E+06    -1.05958E+06     134.543E+06    -62.2863E+06     386.146E+03         29.6998
            1344     16.7337E-03     66.1630E-03         1.69225         1.36933        -5.30703         1.69029        -5.30507         1.36933     12.2587E-03     31.2452E-03    -14.9309E-03    -16.3142E-03    -14.8245E-03     30.4295E-03    -15.6050E-03     6.04060E-03     187.989E+06     32.3376E+06    -37.1654E+06    -2.38576E+06     187.967E+06    -2.41994E+06    -116.234E+03         31.7958
            1345     984.008E-06     67.0287E-03         3.63284         2.05691        -8.22324     105.749E-03        -4.69614         2.05691        -4.27215     32.6233E-03    -16.2544E-03    -16.3689E-03    -16.3414E-03     32.6061E-03    -16.2648E-03     1.73302E-03    -16.7289E+06    -18.2087E+06    -195.716E+06    -17.9448E+06    -195.714E+06    -16.9956E+06    -61.6555E+03         22.4367
            1346     1.96819E-03     67.0310E-03         1.88902         1.07868        -5.48099         1.06853        -4.66050         1.07868         1.91595     32.6528E-03    -16.3107E-03    -16.3421E-03    -16.2791E-03     32.6043E-03    -16.3252E-03     3.00652E-03    -11.5888E+06    -16.0037E+06    -193.641E+06    -16.0040E+06    -193.641E+06    -11.5888E+06     78.9309E+03         22.4591
            1347     2.95227E-03     67.0348E-03         1.57692         1.07115        -5.13844         1.04229        -4.60381         1.07115         1.06426     32.6902E-03    -16.3363E-03    -16.3539E-03    -16.2539E-03     32.5943E-03    -16.3404E-03     4.29017E-03    -4.69067E+06    -13.4049E+06    -188.416E+06    -13.4054E+06    -188.415E+06    -4.69067E+06     12.2605E+03         22.4973
            1348     3.93650E-03     67.0398E-03         1.40163         1.02430        -4.88774     924.777E-03        -4.43712         1.05053         2.90435     32.6981E-03    -16.3354E-03    -16.3627E-03    -16.2088E-03     32.5443E-03    -16.3354E-03     5.45687E-03     1.06527E+06    -10.5048E+06    -175.671E+06    -10.5069E+06    -175.669E+06     1.06527E+06    -348.176E+03         22.5535
            1349     4.92059E-03     67.0461E-03         1.03216     985.439E-03        -4.46190     871.870E-03        -4.33611         1.01995         1.59919     32.6756E-03    -16.3176E-03    -16.3579E-03    -16.1420E-03     32.4596E-03    -16.3176E-03     6.47706E-03     6.33523E+06    -7.57468E+06    -158.586E+06    -7.58310E+06    -158.577E+06     6.33523E+06    -1.03254E+06         22.6303
            1350     5.90489E-03     67.0532E-03         1.00643     943.449E-03        -4.38460     864.319E-03        -4.29325     994.215E-03         1.14632     32.6640E-03    -16.3014E-03    -16.3626E-03    -16.0838E-03     32.3852E-03    -16.3014E-03     7.36060E-03     11.8386E+06    -4.52248E+06    -143.662E+06    -4.53227E+06    -143.652E+06     11.8386E+06    -1.12530E+06         22.7308
            1351     6.88912E-03     67.0614E-03         1.36567     938.856E-03        -4.73730     955.037E-03        -4.36916     981.349E-03         2.30407     32.6773E-03    -16.2825E-03    -16.3948E-03    -16.0573E-03     32.3398E-03    -16.2825E-03     8.10507E-03     16.4546E+06    -1.44528E+06    -129.388E+06    -1.45699E+06    -129.377E+06     16.4546E+06    -1.12652E+06         22.8598
            1352     7.87350E-03     67.0699E-03         1.51715     987.176E-03        -4.94054         1.11369        -4.53708     987.176E-03         2.79943     32.6684E-03    -16.2481E-03    -16.4203E-03    -16.0209E-03     32.2690E-03    -16.2481E-03     8.81071E-03     18.0675E+06     1.13951E+06    -113.419E+06     1.12170E+06    -113.402E+06     18.0675E+06    -1.34655E+06         23.0241
            1353     8.85771E-03     67.0795E-03         1.34161         1.01100        -4.79172         1.30101        -4.75112         1.01100     515.436E-03     32.6235E-03    -16.2007E-03    -16.4228E-03    -15.9642E-03     32.1649E-03    -16.2007E-03     9.43679E-03     17.8426E+06     3.47697E+06    -94.8463E+06     3.44917E+06    -94.8185E+06     17.8426E+06    -1.35432E+06         23.2354
            1354     9.84222E-03     67.0894E-03         1.56904         1.04977        -5.06095         1.50553        -4.99743         1.04977        -1.07903     32.6348E-03    -16.1416E-03    -16.4932E-03    -15.9426E-03     32.0841E-03    -16.1416E-03     10.3245E-03     14.9232E+06     5.58841E+06    -76.9941E+06     5.56309E+06    -76.9688E+06     14.9232E+06    -1.08456E+06         23.5127
            1355     10.8264E-03     67.1008E-03         1.82220         1.10123        -5.36154         1.73269        -5.27203         1.10123        -1.55972     32.6433E-03    -16.0611E-03    -16.5822E-03    -15.8898E-03     31.9508E-03    -16.0611E-03     11.5769E-03     9.26482E+06     4.96961E+06    -58.0027E+06     6.51151E+06    -57.9756E+06     7.69583E+06    -1.00311E+06         23.8894
            1356     11.8111E-03     67.1132E-03         1.98895         1.16207        -5.57870         1.93163        -5.52139         1.16207        -1.31214     32.5609E-03    -15.9772E-03    -16.5837E-03    -15.8110E-03     31.7883E-03    -15.9772E-03     12.2256E-03     7.08635E+06     2.84369E+06    -27.9583E+06     7.01658E+06    -27.8885E+06     2.84369E+06    -1.21676E+06         24.4196
            1357     12.7951E-03     67.1258E-03         2.11594         1.22658        -5.75413         2.06554        -5.70373         1.22658        -1.25023     32.5658E-03    -15.8973E-03    -16.6686E-03    -15.6573E-03     31.5546E-03    -15.8973E-03     13.8660E-03     17.2005E+06     3.99942E+06    -4.93801E+06     6.63367E+06     9.01995E+06     608.298E+03    -783.452E+03         25.1805
            1358     13.7806E-03     67.1416E-03         2.17351         1.28899        -5.85532         2.12410        -5.80591         1.28899        -1.25235     32.7879E-03    -15.7595E-03    -17.0284E-03    -15.6973E-03     31.4568E-03    -15.7595E-03     16.0470E-03     40.5289E+06     4.36119E+06    -15.5967E+06     4.40077E+06     40.4894E+06    -15.5967E+06    -720.289E+03         26.2653
            1359     14.7639E-03     67.1593E-03         2.16454         1.34411        -5.88269         2.08889        -5.80704         1.34411        -1.53934     32.8647E-03    -15.5672E-03    -17.2975E-03    -15.5820E-03     31.1493E-03    -15.5672E-03     18.1409E-03     80.7377E+06     2.12342E+06    -40.8482E+06     2.17598E+06     80.6852E+06    -40.8482E+06    -581.939E+03         27.7672
            1360     15.7498E-03     67.1785E-03         2.02067         1.38781        -5.76155         1.97188        -5.71276         1.38781        -1.01035     32.5346E-03    -15.3834E-03    -17.1513E-03    -15.3063E-03     30.6897E-03    -15.3834E-03     18.7547E-03     133.981E+06     261.427E+03    -60.2001E+06     290.437E+03     133.952E+06    -60.2001E+06     610.201E+03         29.7016
            1361     16.7341E-03     67.1974E-03         1.80576         1.41787        -5.54895         1.80375        -5.54694         1.41787    -52.5377E-03     31.4555E-03    -14.9986E-03    -16.4568E-03    -14.9322E-03     30.5404E-03    -15.6083E-03     6.35605E-03     188.692E+06     33.7073E+06    -36.1723E+06    -2.10870E+06     188.685E+06    -349.289E+03     329.745E+03         31.8132
            1362     984.100E-06     68.0607E-03         2.82089         1.92502        -7.31404    -56.8885E-03        -4.59881         2.08757        -3.43810     32.6162E-03    -16.2683E-03    -16.3479E-03    -16.3201E-03     32.5987E-03    -16.2786E-03     1.74188E-03    -17.2116E+06    -18.8394E+06    -196.401E+06    -18.5756E+06    -196.398E+06    -17.4783E+06    -377.093E+03         22.4357
            1363     1.96820E-03     68.0632E-03         1.58756         1.01550        -5.15673         1.01632        -4.58549         1.01550         1.68461     32.6477E-03    -16.3110E-03    -16.3366E-03    -16.2780E-03     32.5993E-03    -16.3214E-03     3.00820E-03    -12.4974E+06    -17.0035E+06    -194.507E+06    -17.0039E+06    -194.506E+06    -12.4974E+06     58.1693E+03         22.4582
            1364     2.95234E-03     68.0669E-03         1.46268         1.02046        -5.01512         1.05038        -4.60282         1.02046         1.21793     32.7048E-03    -16.3386E-03    -16.3663E-03    -16.2706E-03     32.6091E-03    -16.3386E-03     4.28406E-03    -5.65681E+06    -14.1639E+06    -188.599E+06    -14.1647E+06    -188.598E+06    -5.65681E+06    -222.525E+03         22.4966
            1365     3.93634E-03     68.0721E-03         1.36094         1.00765        -4.87041     952.965E-03        -4.47192         1.01713         2.81277     32.7079E-03    -16.3374E-03    -16.3705E-03    -16.2170E-03     32.5544E-03    -16.3374E-03     5.45415E-03     520.318E+03    -10.7925E+06    -175.123E+06    -10.7982E+06    -175.117E+06     520.318E+03    -754.143E+03         22.5528
            1366     4.92064E-03     68.0782E-03         1.01376     975.491E-03        -4.47268     869.602E-03        -4.34920     996.179E-03         1.61098     32.6844E-03    -16.3210E-03    -16.3635E-03    -16.1464E-03     32.4674E-03    -16.3210E-03     6.49170E-03     5.92992E+06    -7.67906E+06    -158.350E+06    -7.68944E+06    -158.340E+06     5.92992E+06    -1.06066E+06         22.6295
            1367     5.90478E-03     68.0855E-03     972.292E-03     917.151E-03        -4.36312     840.207E-03        -4.28617     972.292E-03         1.06313     32.6653E-03    -16.3059E-03    -16.3595E-03    -16.0810E-03     32.3869E-03    -16.3059E-03     7.35840E-03     11.5978E+06    -4.84878E+06    -143.771E+06    -4.86622E+06    -143.754E+06     11.5978E+06    -1.30655E+06         22.7299
            1368     6.88921E-03     68.0934E-03         1.31037     915.474E-03        -4.70094     935.723E-03        -4.37023     959.411E-03         2.18638     32.6577E-03    -16.2831E-03    -16.3746E-03    -16.0360E-03     32.3192E-03    -16.2831E-03     8.11149E-03     15.8014E+06    -2.05489E+06    -129.572E+06    -2.07711E+06    -129.549E+06     15.8014E+06    -1.56781E+06         22.8586
            1369     7.87336E-03     68.1023E-03         1.48880     967.671E-03        -4.93773         1.12923        -4.57816     967.671E-03         2.61951     32.6805E-03    -16.2478E-03    -16.4327E-03    -16.0329E-03     32.2807E-03    -16.2478E-03     8.82023E-03     17.5601E+06     818.960E+03    -113.338E+06     787.015E+03    -113.306E+06     17.5601E+06    -1.72614E+06         23.0226
            1370     8.85776E-03     68.1115E-03         1.41588     998.805E-03        -4.90186         1.37883        -4.86481     998.805E-03     381.805E-03     32.6367E-03    -16.2020E-03    -16.4347E-03    -15.9771E-03     32.1792E-03    -16.2020E-03     9.42761E-03     17.4213E+06     3.21470E+06    -94.7519E+06     3.16797E+06    -94.7052E+06     17.4213E+06    -1.98706E+06         23.2332
            1371     9.84202E-03     68.1218E-03         1.68220         1.04812        -5.22162         1.61159        -5.15101         1.04812        -1.21149     32.5940E-03    -16.1401E-03    -16.4539E-03    -15.9007E-03     32.0408E-03    -16.1401E-03     10.3398E-03     13.9687E+06     5.18935E+06    -77.8442E+06     5.12397E+06    -77.7788E+06     13.9687E+06    -1.95686E+06         23.5096
            1372     10.8267E-03     68.1328E-03         1.90990         1.10827        -5.50979         1.80893        -5.40883         1.10827        -1.69241     32.6194E-03    -16.0577E-03    -16.5617E-03    -15.8761E-03     31.9339E-03    -16.0577E-03     11.5185E-03     9.08981E+06     4.89346E+06    -58.4453E+06     6.69761E+06    -58.3839E+06     7.22423E+06    -1.56687E+06         23.8850
            1373     11.8109E-03     68.1454E-03         2.05378         1.17400        -5.71263         1.98277        -5.64162         1.17400        -1.47391     32.5448E-03    -15.9716E-03    -16.5732E-03    -15.8064E-03     31.7780E-03    -15.9716E-03     12.1762E-03     6.64688E+06     1.95934E+06    -28.1234E+06     6.55693E+06    -28.0334E+06     1.95934E+06    -1.33194E+06         24.4136
            1374     12.7958E-03     68.1580E-03         2.19136         1.24196        -5.90985         2.12722        -5.84571         1.24196        -1.42787     32.6558E-03    -15.8961E-03    -16.7597E-03    -15.7646E-03     31.6607E-03    -15.8961E-03     13.8047E-03     15.3760E+06     3.15585E+06    -5.90720E+06     5.91410E+06     7.38854E+06    -678.039E+03    -505.318E+03         25.1729
            1375     13.7794E-03     68.1737E-03         2.26993         1.30842        -6.04151         2.20875        -5.98033         1.30842        -1.41654     32.7116E-03    -15.7669E-03    -16.9446E-03    -15.6111E-03     31.3780E-03    -15.7669E-03     16.0316E-03     39.9374E+06     4.85177E+06    -14.7529E+06     4.86694E+06     39.9223E+06    -14.7529E+06     613.551E+03         26.2564
            1376     14.7653E-03     68.1915E-03         2.28029         1.36854        -6.10016         2.19769        -6.01755         1.36854        -1.64559     32.7335E-03    -15.5660E-03    -17.1675E-03    -15.5074E-03     31.0733E-03    -15.5660E-03     17.8659E-03     80.6463E+06     1.69909E+06    -40.7389E+06     1.72245E+06     80.6229E+06    -40.7389E+06    -344.397E+03         27.7600
            1377     15.7492E-03     68.2102E-03         2.13143         1.41729        -5.98785         2.08004        -5.93647         1.41729        -1.07160     32.4740E-03    -15.3789E-03    -17.0951E-03    -15.3375E-03     30.7164E-03    -15.3789E-03     18.3182E-03     132.696E+06    -1.63076E+06    -61.3343E+06    -1.60681E+06     132.672E+06    -61.3343E+06    -738.447E+03         29.7030
            1378     16.7345E-03     68.2299E-03         1.87204         1.45062        -5.74422         1.86963        -5.74182         1.45062    -74.3597E-03     31.3988E-03    -15.0658E-03    -16.3329E-03    -14.8780E-03     30.4832E-03    -15.6052E-03     6.00566E-03     188.285E+06     32.5533E+06    -35.3604E+06    -2.31249E+06     188.273E+06    -483.133E+03     205.358E+03         31.8307
            1379     984.105E-06     69.0930E-03         2.37167         1.39297        -6.37431    -167.527E-03        -4.58368         2.14152        -2.51770     32.6194E-03    -16.2624E-03    -16.3570E-03    -16.3400E-03     32.6024E-03    -16.2624E-03     1.73389E-03    -17.4255E+06    -19.1972E+06    -197.139E+06    -19.1984E+06    -197.138E+06    -17.4255E+06     62.2424E+03         22.4344
            1380     1.96817E-03     69.0953E-03         1.23378     962.104E-03        -4.78615     895.498E-03        -4.45448     968.710E-03         1.41488     32.6725E-03    -16.3245E-03    -16.3480E-03    -16.3001E-03     32.6246E-03    -16.3245E-03     2.98655E-03    -13.2799E+06    -17.4318E+06    -194.994E+06    -17.4327E+06    -194.993E+06    -13.2799E+06    -175.675E+03         22.4572
            1381     2.95223E-03     69.0992E-03         1.24216     940.755E-03        -4.75657     930.802E-03        -4.45182     947.361E-03         1.34725     32.6886E-03    -16.3348E-03    -16.3538E-03    -16.2558E-03     32.5922E-03    -16.3364E-03     4.29891E-03    -7.43576E+06    -14.7929E+06    -188.311E+06    -14.7954E+06    -188.308E+06    -7.43576E+06    -625.551E+03         22.4958
            1382     3.93646E-03     69.1042E-03         1.28591     943.427E-03        -4.77132     937.573E-03        -4.42298     943.427E-03         2.67401     32.6928E-03    -16.3323E-03    -16.3605E-03    -16.2039E-03     32.5378E-03    -16.3339E-03     5.47798E-03    -729.061E+03    -11.8984E+06    -174.755E+06    -11.9072E+06    -174.747E+06    -729.061E+03    -1.09293E+06         22.5521
            1383     4.92055E-03     69.1104E-03         1.06103     938.923E-03        -4.52377     938.126E-03        -4.40379     941.855E-03         1.61207     32.6876E-03    -16.3205E-03    -16.3672E-03    -16.1492E-03     32.4696E-03    -16.3205E-03     6.50765E-03     5.22152E+06    -8.80098E+06    -158.531E+06    -8.81558E+06    -158.516E+06     5.22152E+06    -1.31012E+06         22.6289
            1384     5.90489E-03     69.1176E-03         1.00031     917.742E-03        -4.43198     920.859E-03        -4.37436     939.572E-03     965.343E-03     32.6810E-03    -16.3062E-03    -16.3748E-03    -16.0968E-03     32.4030E-03    -16.3062E-03     7.35527E-03     10.9765E+06    -5.50248E+06    -143.429E+06    -5.52663E+06    -143.405E+06     10.9765E+06    -1.61585E+06         22.7292
            1385     6.88898E-03     69.1256E-03         1.32071     923.761E-03        -4.76324         1.01020        -4.47162     942.658E-03         2.09832     32.6669E-03    -16.2860E-03    -16.3809E-03    -16.0420E-03     32.3281E-03    -16.2860E-03     8.11565E-03     15.4120E+06    -2.18160E+06    -129.701E+06    -2.21729E+06    -129.666E+06     15.4120E+06    -2.02979E+06         22.8576
            1386     7.87352E-03     69.1343E-03         1.53390     963.479E-03        -5.02276         1.21958        -4.70843     963.479E-03         2.46906     32.6642E-03    -16.2477E-03    -16.4165E-03    -16.0110E-03     32.2587E-03    -16.2477E-03     8.87759E-03     16.8266E+06     480.846E+03    -113.422E+06     435.303E+03    -113.377E+06     16.8266E+06    -2.13775E+06         23.0213
            1387     8.85764E-03     69.1440E-03         1.50600         1.00551        -5.04636         1.47173        -5.01208         1.00551     267.952E-03     32.6299E-03    -16.2011E-03    -16.4288E-03    -15.9730E-03     32.1741E-03    -16.2011E-03     9.41054E-03     16.9343E+06     2.75491E+06    -94.4313E+06     2.67929E+06    -94.3557E+06     16.9343E+06    -2.49226E+06         23.2313
            1388     9.84217E-03     69.1536E-03         1.76025         1.06254        -5.36294         1.68086        -5.28355         1.06254        -1.34197     32.5986E-03    -16.1405E-03    -16.4581E-03    -15.9081E-03     32.0486E-03    -16.1405E-03     10.3042E-03     13.4451E+06     4.50723E+06    -78.0965E+06     4.40660E+06    -77.9959E+06     13.4451E+06    -2.68641E+06         23.5068
            1389     10.8264E-03     69.1652E-03         1.96150         1.12648        -5.63015         1.84724        -5.51589         1.12648        -1.82992     32.6477E-03    -16.0594E-03    -16.5884E-03    -15.9017E-03     31.9611E-03    -16.0594E-03     11.5373E-03     7.91073E+06     3.90223E+06    -59.2411E+06     5.36983E+06    -59.1130E+06     6.31504E+06     -2.4421E+06         23.8808
            1390     11.8110E-03     69.1775E-03         2.07586         1.19280        -5.81114         1.99154        -5.72682         1.19280        -1.62207     32.5888E-03    -15.9793E-03    -16.6095E-03    -15.8578E-03     31.8372E-03    -15.9793E-03     12.0690E-03     6.17382E+06     1.75682E+06    -29.2344E+06     6.04116E+06    -29.1018E+06     1.75682E+06    -1.40272E+06         24.4077
            1391     12.7952E-03     69.1901E-03         2.20122         1.25972        -5.99917         2.12667        -5.92462         1.25972        -1.55231     32.5960E-03    -15.9080E-03    -16.6881E-03    -15.6865E-03     31.5944E-03    -15.9080E-03     13.8029E-03     14.0787E+06     2.69549E+06    -5.93114E+06     5.47581E+06     5.45732E+06    -90.1035E+03     57.7487E+03         25.1651
            1392     13.7802E-03     69.2065E-03         2.28466         1.32519        -6.14442         2.21630        -6.07607         1.32519        -1.51146     32.6771E-03    -15.7726E-03    -16.9045E-03    -15.5833E-03     31.3559E-03    -15.7726E-03     15.9634E-03     37.9865E+06     3.72103E+06    -14.7607E+06     3.76613E+06     37.9414E+06    -14.7607E+06     1.21306E+06         26.2472
            1393     14.7643E-03     69.2224E-03         2.30212         1.38492        -6.21784         2.21403        -6.12976         1.38492        -1.71592     32.8582E-03    -15.5681E-03    -17.2901E-03    -15.5945E-03     31.1626E-03    -15.5681E-03     18.0550E-03     82.6823E+06     1.22969E+06    -40.4594E+06     1.26112E+06     82.6509E+06    -40.4594E+06     662.383E+03         27.7520
            1394     15.7490E-03     69.2443E-03         2.15535         1.43364        -6.11988         2.10101        -6.06554         1.43364        -1.12455     32.5591E-03    -15.3789E-03    -17.1802E-03    -15.4454E-03     30.8243E-03    -15.3789E-03     18.2031E-03     133.206E+06    -1.94693E+06    -63.0209E+06    -1.92473E+06     133.184E+06    -63.0209E+06    -1.43482E+06         29.7033
            1395     16.7338E-03     69.2596E-03         1.92333         1.46794        -5.92170         1.92060        -5.91897         1.46794    -99.4688E-03     31.2725E-03    -14.9282E-03    -16.3443E-03    -14.8656E-03     30.4747E-03    -15.6090E-03     6.03574E-03     186.277E+06     32.5558E+06    -37.2436E+06    -2.14048E+06     186.255E+06    -2.52520E+06    -943.676E+03         31.8471
            1396     984.087E-06     70.1251E-03         2.16392     565.640E-03        -5.37022    -288.877E-03        -4.45610         2.10431        -1.58771     32.6403E-03    -16.2767E-03    -16.3637E-03    -16.3431E-03     32.6230E-03    -16.2799E-03     1.74723E-03    -18.0311E+06    -19.4319E+06    -197.609E+06    -18.9468E+06    -197.608E+06    -18.5175E+06    -8.74918E+03         22.4333
            1397     1.96812E-03     70.1276E-03     948.344E-03     851.336E-03        -4.42825     776.809E-03        -4.28670     881.321E-03         1.05825     32.6702E-03    -16.3255E-03    -16.3447E-03    -16.2928E-03     32.6215E-03    -16.3288E-03     3.01106E-03    -13.8863E+06    -17.4764E+06    -195.000E+06    -17.4780E+06    -194.998E+06    -13.8863E+06    -337.948E+03         22.4562
            1398     2.95228E-03     70.1313E-03         1.04343     842.729E-03        -4.50062     816.881E-03        -4.28068     849.335E-03         1.43038     32.6840E-03    -16.3363E-03    -16.3477E-03    -16.2493E-03     32.5871E-03    -16.3379E-03     4.30914E-03    -7.66506E+06    -15.2330E+06    -188.076E+06    -15.2377E+06    -188.071E+06    -7.66506E+06    -882.601E+03         22.4949
            1399     3.93638E-03     70.1364E-03         1.19348     849.019E-03        -4.62546     893.864E-03        -4.32584     849.019E-03         2.49478     32.6888E-03    -16.3315E-03    -16.3573E-03    -16.2009E-03     32.5340E-03    -16.3331E-03     5.47551E-03    -1.11487E+06    -12.2752E+06    -174.552E+06    -12.2866E+06    -174.540E+06    -1.11487E+06    -1.29504E+06         22.5514
            1400     4.92065E-03     70.1426E-03         1.15274     870.274E-03        -4.58779         1.03171        -4.46675     870.274E-03         1.61270     32.6916E-03    -16.3198E-03    -16.3718E-03    -16.1548E-03     32.4745E-03    -16.3198E-03     6.49479E-03     4.83791E+06    -9.05305E+06    -158.300E+06    -9.07839E+06    -158.274E+06     4.83791E+06    -1.88039E+06         22.6282
            1401     5.90473E-03     70.1498E-03         1.14728     902.809E-03        -4.60570         1.10360        -4.56202     902.809E-03     908.424E-03     32.6845E-03    -16.3046E-03    -16.3800E-03    -16.1010E-03     32.4056E-03    -16.3046E-03     7.36716E-03     10.3119E+06    -5.73301E+06    -143.049E+06    -5.77154E+06    -143.011E+06     10.3119E+06    -2.25326E+06         22.7285
            1402     6.88918E-03     70.1577E-03         1.45442     938.276E-03        -4.95280         1.20178        -4.70015     938.276E-03         2.05175     32.6898E-03    -16.2873E-03    -16.4026E-03    -16.0638E-03     32.3510E-03    -16.2873E-03     8.12070E-03     14.8966E+06    -2.55700E+06    -129.474E+06    -2.60808E+06    -129.423E+06     14.8966E+06    -2.49385E+06         22.8568
            1403     7.87324E-03     70.1665E-03         1.63145     981.059E-03        -5.18391         1.36180        -4.91427     981.059E-03         2.33725     32.6523E-03    -16.2507E-03    -16.4016E-03    -15.9972E-03     32.2479E-03    -16.2507E-03     8.86139E-03     16.5181E+06     311.538E+03    -113.602E+06     248.852E+03    -113.540E+06     16.5181E+06    -2.60072E+06         23.0201
            1404     8.85783E-03     70.1761E-03         1.58137         1.03377        -5.19439         1.54840        -5.16142         1.03377     174.098E-03     32.6125E-03    -16.2013E-03    -16.4112E-03    -15.9548E-03     32.1561E-03    -16.2013E-03     9.41432E-03     16.5341E+06     2.44957E+06    -94.3712E+06     2.36272E+06    -94.2844E+06     16.5341E+06    -2.72070E+06         23.2296
            1405     9.84198E-03     70.1859E-03         1.79204         1.09343        -5.47246         1.70692        -5.38733         1.09343        -1.42809     32.6330E-03    -16.1425E-03    -16.4905E-03    -15.9481E-03     32.0907E-03    -16.1425E-03     10.2435E-03     12.9845E+06     3.59375E+06    -78.2314E+06     3.49562E+06    -78.1332E+06     12.9845E+06    -2.71374E+06         23.5042
            1406     10.8265E-03     70.1972E-03         1.98359         1.15660        -5.73084         1.86212        -5.60938         1.15660        -1.90430     32.6733E-03    -16.0626E-03    -16.6106E-03    -15.9157E-03     31.9783E-03    -16.0626E-03     11.5999E-03     6.57755E+06     2.68810E+06    -59.5066E+06     3.79703E+06    -59.3756E+06     5.33767E+06    -2.61145E+06         23.8767
            1407     11.8107E-03     70.2099E-03         2.08809         1.22147        -5.90356         1.99814        -5.81362         1.22147        -1.68516     32.6025E-03    -15.9819E-03    -16.6207E-03    -15.8514E-03     31.8332E-03    -15.9819E-03     12.2095E-03     4.24269E+06    -11.9317E+03    -31.1899E+06     3.98795E+06    -30.9351E+06    -11.9317E+03    -2.09820E+06         24.4017
            1408     12.7952E-03     70.2224E-03         2.17119         1.28533        -6.05384         2.09283        -5.97549         1.28533        -1.59406     32.5270E-03    -15.9098E-03    -16.6171E-03    -15.6285E-03     31.5383E-03    -15.9098E-03     13.7039E-03     12.6265E+06     2.11341E+06    -7.99447E+06     4.97766E+06     2.96457E+06    -1.19680E+06    -373.725E+03         25.1572
            1409     13.7801E-03     70.2378E-03         2.20951         1.34508        -6.15499         2.13715        -6.08263         1.34508        -1.54738     32.6873E-03    -15.7629E-03    -16.9243E-03    -15.5811E-03     31.3440E-03    -15.7629E-03     16.0849E-03     37.7004E+06     5.96924E+06    -16.0375E+06     6.04882E+06     37.6208E+06    -16.0375E+06     174.696E+03         26.2381
            1410     14.7646E-03     70.2560E-03         2.20269         1.39746        -6.20734         2.11119        -6.11584         1.39746        -1.73609     32.8233E-03    -15.5592E-03    -17.2641E-03    -15.5308E-03     31.0900E-03    -15.5592E-03     18.2480E-03     83.1823E+06     5.96263E+06    -39.9793E+06     6.02705E+06     83.1178E+06    -39.9793E+06     53.8743E+03         27.7439
            1411     15.7495E-03     70.2749E-03         2.09534         1.44008        -6.15618         2.03839        -6.09923         1.44008        -1.16200     32.6652E-03    -15.3791E-03    -17.2861E-03    -15.4483E-03     30.8274E-03    -15.3791E-03     18.7699E-03     134.217E+06     2.22145E+06    -60.2288E+06     2.25273E+06     134.185E+06    -60.2288E+06     169.188E+03         29.7035
            1412     16.7336E-03     70.2940E-03         1.96336         1.47314        -6.07812         1.95999        -6.07475         1.47314    -143.544E-03     31.5233E-03    -14.9522E-03    -16.5711E-03    -14.9974E-03     30.6043E-03    -15.6070E-03     6.34067E-03     185.699E+06     32.6925E+06    -37.3536E+06    -2.11491E+06     185.665E+06    -2.51228E+06    -560.605E+03         31.8639
            1413     984.019E-06     71.1573E-03         1.93375    -201.673E-03        -4.39827    -453.106E-03        -4.14684         1.93375    -586.844E-03     32.6420E-03    -16.2856E-03    -16.3564E-03    -16.3294E-03     32.6245E-03    -16.2951E-03     1.75047E-03    -18.3150E+06    -20.1121E+06    -197.873E+06    -19.6274E+06    -197.871E+06    -18.8014E+06    -483.015E+03         22.4323
            1414     1.96821E-03     71.1597E-03     788.176E-03     680.400E-03        -4.13247     693.504E-03        -4.08802     730.619E-03     705.586E-03     32.6518E-03    -16.3177E-03    -16.3341E-03    -16.2757E-03     32.6029E-03    -16.3272E-03     3.02092E-03    -14.2320E+06    -18.3162E+06    -194.939E+06    -18.3177E+06    -194.938E+06    -14.2320E+06    -446.691E+03         22.4553
            1415     2.95224E-03     71.1635E-03     964.233E-03     732.380E-03        -4.35084     801.636E-03        -4.18825     732.380E-03         1.54209     32.6984E-03    -16.3368E-03    -16.3616E-03    -16.2651E-03     32.6019E-03    -16.3368E-03     4.30350E-03    -7.77293E+06    -15.8150E+06    -187.544E+06    -15.8232E+06    -187.536E+06    -7.77293E+06    -1.06305E+06         22.4941
            1416     3.93642E-03     71.1685E-03         1.17602     763.619E-03        -4.56595     924.636E-03        -4.31457     763.619E-03         2.32752     32.6986E-03    -16.3323E-03    -16.3663E-03    -16.2114E-03     32.5436E-03    -16.3323E-03     5.47619E-03    -1.96329E+06    -12.6469E+06    -174.044E+06    -12.6695E+06    -174.021E+06    -1.96329E+06    -1.83106E+06         22.5507
            1417     4.92050E-03     71.1748E-03         1.26881     815.750E-03        -4.69014         1.13868        -4.56001     815.750E-03         1.65006     32.6793E-03    -16.3172E-03    -16.3620E-03    -16.1445E-03     32.4618E-03    -16.3172E-03     6.50043E-03     3.74228E+06    -9.35295E+06    -157.808E+06    -9.39343E+06    -157.768E+06     3.74228E+06    -2.41228E+06         22.6276
            1418     5.90489E-03     71.1819E-03         1.33605     882.740E-03        -4.81554         1.30042        -4.77991     882.740E-03     891.680E-03     32.6915E-03    -16.3034E-03    -16.3881E-03    -16.1089E-03     32.4123E-03    -16.3034E-03     7.37068E-03     9.53596E+06    -6.22152E+06    -142.600E+06    -6.28345E+06    -142.538E+06     9.53596E+06    -2.87102E+06         22.7279
            1419     6.88895E-03     71.1900E-03         1.63675     951.397E-03        -5.19038         1.42398        -4.97761     951.397E-03         2.00599     32.6983E-03    -16.2870E-03    -16.4112E-03    -16.0726E-03     32.3597E-03    -16.2870E-03     8.11998E-03     14.0460E+06    -3.09280E+06    -129.114E+06    -3.17784E+06    -129.029E+06     14.0460E+06    -3.21124E+06         22.8560
            1420     7.87340E-03     71.1987E-03         1.75877         1.01775        -5.38976         1.53441        -5.16539         1.01775         2.20830     32.6602E-03    -16.2523E-03    -16.4079E-03    -16.0078E-03     32.2601E-03    -16.2523E-03     8.81750E-03     15.7674E+06     41.0082E+03    -113.820E+06    -57.7199E+03    -113.721E+06     15.7674E+06    -3.30154E+06         23.0190
            1421     8.85761E-03     71.2081E-03         1.67977         1.08203        -5.38457         1.64892        -5.35372         1.08203     136.159E-03     32.6096E-03    -16.2030E-03    -16.4065E-03    -15.9472E-03     32.1502E-03    -16.2030E-03     9.44108E-03     15.8712E+06     2.44932E+06    -94.8713E+06     2.36401E+06     -94.786E+06     15.8712E+06    -2.85624E+06         23.2279
            1422     9.84211E-03     71.2183E-03         1.83568         1.14467        -5.60891         1.75547        -5.52870         1.14467        -1.41455     32.6518E-03    -16.1442E-03    -16.5076E-03    -15.9639E-03     32.1081E-03    -16.1442E-03     10.2683E-03     12.6214E+06     4.02614E+06    -78.3484E+06     3.93857E+06    -78.2609E+06     12.6214E+06    -2.62478E+06         23.5016
            1423     10.8263E-03     71.2291E-03         1.98392         1.20606        -5.82370         1.86966        -5.70944         1.20606        -1.85933     32.6707E-03    -16.0623E-03    -16.6084E-03    -15.9153E-03     31.9776E-03    -16.0623E-03     11.5793E-03     7.09549E+06     2.50832E+06    -59.6323E+06     4.75758E+06    -59.5256E+06     4.73952E+06    -2.54486E+06         23.8726
            1424     11.8109E-03     71.2422E-03         2.04782         1.26594        -5.95235         1.96244        -5.86697         1.26594        -1.64143     32.4989E-03    -15.9750E-03    -16.5238E-03    -15.7475E-03     31.7225E-03    -15.9750E-03     12.2400E-03     5.05062E+06    -1.19879E+06    -32.3210E+06     4.78285E+06    -32.0532E+06    -1.19879E+06    -2.56927E+06         24.3958
            1425     12.7954E-03     71.2542E-03         2.07360         1.32157        -6.04324         1.99723        -5.96687         1.32157        -1.56536     32.6104E-03    -15.8895E-03    -16.7209E-03    -15.7228E-03     31.6123E-03    -15.8895E-03     13.8017E-03     13.6819E+06     1.54274E+06    -11.8767E+06     6.08479E+06     1.84460E+06    -4.58141E+06    -3.21227E+06         25.1496
            1426     13.7797E-03     71.2703E-03         2.05525         1.36991        -6.08244         1.98167        -6.00887         1.36991        -1.54003     32.7104E-03    -15.7469E-03    -16.9636E-03    -15.6169E-03     31.3637E-03    -15.7469E-03     16.1144E-03     38.1742E+06     6.90108E+06    -18.9561E+06     7.80601E+06     37.2693E+06    -18.9561E+06    -2.37208E+06         26.2292
            1427     14.7648E-03     71.2875E-03         2.04567         1.41023        -6.13002         1.95387        -6.03822         1.41023        -1.71585     32.7117E-03    -15.5557E-03    -17.1560E-03    -15.4795E-03     31.0352E-03    -15.5557E-03     17.9415E-03     81.2554E+06     5.64318E+06    -41.3772E+06     5.69106E+06     81.2075E+06    -41.3772E+06    -48.4549E+03         27.7359
            1428     15.7497E-03     71.3074E-03         2.00589         1.44432        -6.15125         1.94905        -6.09441         1.44432        -1.14638     32.4669E-03    -15.3756E-03    -17.0913E-03    -15.3234E-03     30.6990E-03    -15.3756E-03     18.3594E-03     132.989E+06     1.09824E+06    -60.6753E+06     1.11770E+06     132.970E+06    -60.6753E+06     1.43539E+06         29.7036
            1429     16.7347E-03     71.3262E-03         1.95751         1.47429        -6.17176         1.95442        -6.16866         1.47429    -150.843E-03     31.4546E-03    -15.1035E-03    -16.3510E-03    -14.9420E-03     30.5423E-03    -15.6003E-03     5.98647E-03     186.084E+06     32.7412E+06    -36.2243E+06    -1.71811E+06     186.064E+06    -1.74504E+06     606.604E+03         31.8808
            1430     984.103E-06     72.1895E-03         1.74547    -392.198E-03        -4.04912    -577.005E-03        -3.84926         1.73042     380.726E-03     32.6280E-03    -16.2688E-03    -16.3592E-03    -16.3359E-03     32.6110E-03    -16.2751E-03     1.71327E-03    -19.0968E+06    -21.4766E+06    -198.207E+06    -21.2224E+06    -198.206E+06    -19.3523E+06    -341.714E+03         22.4314
            1431     1.96812E-03     72.1918E-03     756.243E-03     565.620E-03        -4.01799     656.274E-03        -3.94486     592.460E-03     422.770E-03     32.6704E-03    -16.3228E-03    -16.3476E-03    -16.2926E-03     32.6217E-03    -16.3291E-03     3.01339E-03    -14.2464E+06    -18.9863E+06    -194.486E+06    -18.9920E+06    -194.480E+06    -14.2464E+06    -636.831E+03         22.4544
            1432     2.95230E-03     72.1957E-03         1.00570     644.032E-03        -4.34462     859.275E-03        -4.19820     644.032E-03         1.70030     32.6950E-03    -16.3364E-03    -16.3586E-03    -16.2622E-03     32.5986E-03    -16.3364E-03     4.30139E-03     -8.7097E+06    -16.1036E+06    -186.733E+06    -16.1200E+06    -186.717E+06     -8.7097E+06    -1.54652E+06         22.4934
            1433     3.93631E-03     72.2008E-03         1.26956     721.094E-03        -4.65833         1.05158        -4.44034     721.094E-03         2.21941     32.6927E-03    -16.3305E-03    -16.3622E-03    -16.2075E-03     32.5380E-03    -16.3305E-03     5.47192E-03    -2.86499E+06    -13.1151E+06    -173.207E+06    -13.1491E+06    -173.173E+06    -2.86499E+06    -2.27801E+06         22.5501
            1434     4.92063E-03     72.2069E-03         1.40589     808.058E-03        -4.86235         1.26397        -4.72043     808.058E-03         1.69743     32.6899E-03    -16.3167E-03    -16.3732E-03    -16.1549E-03     32.4716E-03    -16.3167E-03     6.51217E-03     2.91201E+06    -9.98516E+06    -157.107E+06    -10.0470E+06    -157.045E+06     2.91201E+06    -2.96647E+06         22.6269
            1435     5.90469E-03     72.2142E-03         1.46365     898.500E-03        -4.99871         1.43405        -4.96910     898.500E-03     854.832E-03     32.6991E-03    -16.3039E-03    -16.3951E-03    -16.1148E-03     32.4188E-03    -16.3039E-03     7.38719E-03     8.72828E+06    -6.58177E+06    -142.044E+06    -6.68087E+06    -141.945E+06     8.72828E+06    -3.59991E+06         22.7271
            1436     6.88906E-03     72.2221E-03         1.78131     987.043E-03        -5.41115         1.59692        -5.22676     987.043E-03         1.97324     32.6908E-03    -16.2870E-03    -16.4038E-03    -16.0655E-03     32.3525E-03    -16.2870E-03     8.11624E-03     13.1910E+06    -3.29715E+06    -128.853E+06    -3.43347E+06    -128.717E+06     13.1910E+06    -4.09849E+06         22.8551
            1437     7.87324E-03     72.2308E-03         1.92535         1.07233        -5.64965         1.73192        -5.45621         1.07233         2.13628     32.6798E-03    -16.2522E-03    -16.4277E-03    -16.0271E-03     32.2793E-03    -16.2522E-03     8.82588E-03     14.7745E+06    -231.783E+03    -113.804E+06    -398.575E+03    -113.637E+06     14.7745E+06    -4.27214E+06         23.0178
            1438     8.85763E-03     72.2403E-03         1.84630         1.15129        -5.65855         1.81813        -5.63038         1.15129     182.822E-03     32.6309E-03    -16.2057E-03    -16.4252E-03    -15.9684E-03     32.1741E-03    -16.2057E-03     9.42037E-03     15.0393E+06     2.73538E+06    -95.6983E+06     2.57665E+06    -95.5396E+06     15.0393E+06    -3.86561E+06         23.2261
            1439     9.84199E-03     72.2502E-03         1.91762         1.22072        -5.80297         1.85119        -5.73653         1.22072        -1.30467     32.6381E-03    -16.1467E-03    -16.4914E-03    -15.9396E-03     32.0863E-03    -16.1467E-03     10.3321E-03     12.3356E+06     5.14718E+06    -78.7668E+06     5.00515E+06    -78.6248E+06     12.3356E+06    -3.37423E+06         23.4988
            1440     10.8263E-03     72.2618E-03         1.95544         1.27950        -5.90259         1.85797        -5.80511         1.27950        -1.73082     32.6359E-03    -16.0635E-03    -16.5724E-03    -15.8898E-03     31.9533E-03    -16.0635E-03     11.4980E-03     8.26684E+06     3.26932E+06    -60.3868E+06     6.43366E+06    -60.2340E+06     4.94970E+06    -3.13002E+06         23.8684
            1441     11.8108E-03     72.2737E-03         1.92560         1.32841        -5.92909         1.84899        -5.85248         1.32841        -1.54352     32.5020E-03    -15.9773E-03    -16.5247E-03    -15.7622E-03     31.7395E-03    -15.9773E-03     12.1305E-03     7.83045E+06     115.211E+03    -31.9769E+06     7.33278E+06    -31.4793E+06     115.211E+03    -3.37369E+06         24.3899
            1442     12.7955E-03     72.2867E-03         1.90129         1.36867        -5.95559         1.83095        -5.88525         1.36867        -1.47950     32.5802E-03    -15.8869E-03    -16.6933E-03    -15.6888E-03     31.5757E-03    -15.8869E-03     13.8432E-03     14.3208E+06     1.64133E+06    -11.6715E+06     6.51814E+06     2.38080E+06    -4.60830E+06    -4.16803E+06         25.1420
            1443     13.7799E-03     72.3025E-03         1.88003         1.40178        -5.98484         1.81271        -5.91752         1.40178        -1.44889     32.7681E-03    -15.7502E-03    -17.0179E-03    -15.6897E-03     31.4399E-03    -15.7502E-03     16.0328E-03     34.9452E+06     2.74598E+06    -20.6078E+06     3.67156E+06     34.0197E+06    -20.6078E+06    -2.76988E+06         26.2203
            1444     14.7645E-03     72.3192E-03         1.90855         1.43016        -6.06461         1.82573        -5.98179         1.43016        -1.61078     32.8826E-03    -15.5652E-03    -17.3174E-03    -15.6228E-03     31.1881E-03    -15.5652E-03     18.0758E-03     78.8616E+06     1.27514E+06    -43.2123E+06     1.30676E+06     78.8299E+06    -43.2123E+06    -84.9302E+03         27.7276
            1445     15.7486E-03     72.3403E-03         1.90862         1.45632        -6.12743         1.85816        -6.07697         1.45632        -1.04715     32.3837E-03    -15.3817E-03    -17.0021E-03    -15.2753E-03     30.6570E-03    -15.3817E-03     18.1092E-03     132.234E+06    -1.05015E+06    -62.7117E+06    -1.04424E+06     132.228E+06    -62.7117E+06     815.561E+03         29.7027
            1446     16.7341E-03     72.3566E-03         1.90206         1.48142        -6.19828         1.89992        -6.19614         1.48142    -84.6717E-03     31.2434E-03    -15.0316E-03    -16.2118E-03    -14.8276E-03     30.4354E-03    -15.6079E-03     6.04566E-03     186.031E+06     32.4598E+06    -36.2088E+06    -1.92715E+06     186.028E+06    -1.81857E+06     690.081E+03         31.8963
            1447     984.093E-06     73.2216E-03         1.67003     80.9722E-03        -4.47733    -544.820E-03        -3.77229         1.59079         1.17004     32.6479E-03    -16.2834E-03    -16.3645E-03    -16.3476E-03     32.6310E-03    -16.2834E-03     1.71281E-03    -19.7097E+06    -21.1725E+06    -198.167E+06    -20.9197E+06    -198.164E+06    -19.9652E+06    -431.706E+03         22.4304
            1448     1.96816E-03     73.2241E-03     866.971E-03     553.393E-03        -4.15471     674.516E-03        -3.96225     553.393E-03     152.122E-03     32.6873E-03    -16.3334E-03    -16.3539E-03    -16.3053E-03     32.6387E-03    -16.3334E-03     3.00936E-03    -15.2781E+06    -18.9221E+06    -193.735E+06    -18.9317E+06    -193.725E+06    -15.2781E+06    -1.04362E+06         22.4537
            1449     2.95215E-03     73.2279E-03         1.09978     635.412E-03        -4.46871     944.984E-03        -4.31392     635.412E-03         1.78693     32.6917E-03    -16.3409E-03    -16.3508E-03    -16.2546E-03     32.5955E-03    -16.3409E-03     4.29689E-03    -9.35458E+06    -16.4771E+06    -185.666E+06    -16.5034E+06    -185.639E+06    -9.35458E+06    -1.99987E+06         22.4928
            1450     3.93645E-03     73.2329E-03         1.36968     742.278E-03        -4.81986         1.18239        -4.63257     742.278E-03         2.07397     32.6946E-03    -16.3329E-03    -16.3617E-03    -16.2080E-03     32.5409E-03    -16.3329E-03     5.45570E-03    -3.45061E+06    -13.6149E+06    -172.145E+06    -13.6681E+06    -172.092E+06    -3.45061E+06    -2.82641E+06         22.5495
            1451     4.92046E-03     73.2391E-03         1.53782     851.799E-03        -5.07840         1.39298        -4.93356     851.799E-03         1.69125     32.7004E-03    -16.3186E-03    -16.3818E-03    -16.1638E-03     32.4824E-03    -16.3186E-03     6.50780E-03     2.27147E+06    -10.2661E+06    -156.018E+06    -10.3652E+06    -155.919E+06     2.27147E+06    -3.70821E+06         22.6262
            1452     5.90478E-03     73.2463E-03         1.58215     956.584E-03        -5.21486         1.55818        -5.19089     956.584E-03     803.084E-03     32.6850E-03    -16.3039E-03    -16.3811E-03    -16.1000E-03     32.4039E-03    -16.3039E-03     7.39584E-03     7.72349E+06    -6.97458E+06    -141.509E+06    -7.12332E+06    -141.360E+06     7.72349E+06    -4.43310E+06         22.7262
            1453     6.88894E-03     73.2543E-03         1.91302         1.05658        -5.64812         1.74511        -5.48021         1.05658         1.97320     32.6893E-03    -16.2854E-03    -16.4039E-03    -16.0634E-03     32.3488E-03    -16.2854E-03     8.14005E-03     12.2483E+06    -3.65048E+06    -128.345E+06    -3.85159E+06    -128.144E+06     12.2483E+06    -4.94530E+06         22.8540
            1454     7.87330E-03     73.2630E-03         2.09173         1.15410        -5.93382         1.91453        -5.75661         1.15410         2.14191     32.6947E-03    -16.2517E-03    -16.4430E-03    -16.0399E-03     32.2916E-03    -16.2517E-03     8.85648E-03     13.9092E+06    -578.853E+03    -113.520E+06    -839.211E+03    -113.259E+06     13.9092E+06    -5.36605E+06         23.0164
            1455     8.85753E-03     73.2725E-03         2.01902         1.24407        -5.95472         1.99102        -5.92672         1.24407     282.060E-03     32.6618E-03    -16.2079E-03    -16.4539E-03    -15.9957E-03     32.2036E-03    -16.2079E-03     9.44021E-03     14.0888E+06     2.31870E+06    -96.1588E+06     2.00322E+06    -95.8433E+06     14.0888E+06    -5.45120E+06         23.2242
            1456     9.84186E-03     73.2824E-03         1.98914         1.31747        -6.00001         1.93446        -5.94533         1.31747        -1.18202     32.6094E-03    -16.1494E-03    -16.4599E-03    -15.9077E-03     32.0571E-03    -16.1494E-03     10.3288E-03     11.5152E+06     4.97722E+06    -79.7583E+06     4.67848E+06    -79.4596E+06     11.5152E+06    -4.92197E+06         23.4959
            1457     10.8264E-03     73.2938E-03         1.90331         1.36985        -5.96653         1.81952        -5.88274         1.36985        -1.60866     32.6235E-03    -16.0664E-03    -16.5571E-03    -15.8780E-03     31.9444E-03    -16.0664E-03     11.4684E-03     8.13655E+06     3.57781E+06    -61.1510E+06     6.56979E+06    -60.8646E+06     4.85818E+06    -4.26005E+06         23.8643
            1458     11.8109E-03     73.3060E-03         1.78496         1.40437        -5.88865         1.71739        -5.82109         1.40437        -1.43085     32.5621E-03    -15.9830E-03    -16.5791E-03    -15.8233E-03     31.8063E-03    -15.9830E-03     12.0925E-03     7.33136E+06     261.463E+03    -31.8152E+06     6.74896E+06    -31.2328E+06     261.463E+03    -3.89193E+06         24.3842
            1459     12.7951E-03     73.3188E-03         1.73850         1.42799        -5.87947         1.67856        -5.81953         1.42799        -1.34021     32.5414E-03    -15.9043E-03    -16.6371E-03    -15.6460E-03     31.5504E-03    -15.9043E-03     13.7392E-03     11.7851E+06     1.78762E+06    -9.39026E+06     5.30504E+06     1.73396E+06    -2.85652E+06    -2.77162E+06         25.1344
            1460     13.7802E-03     73.3343E-03         1.75266         1.44752        -5.93249         1.69931        -5.87913         1.44752        -1.26744     32.7803E-03    -15.7594E-03    -17.0210E-03    -15.6782E-03     31.4375E-03    -15.7594E-03     16.1134E-03     31.8487E+06     3.45376E+06    -20.1596E+06     3.63123E+06     31.6712E+06    -20.1596E+06    -1.65160E+06         26.2112
            1461     14.7641E-03     73.3524E-03         1.78876         1.46595        -6.01469         1.72360        -5.94953         1.46595        -1.40426     32.8716E-03    -15.5604E-03    -17.3111E-03    -15.6014E-03     31.1618E-03    -15.5604E-03     18.1608E-03     77.0223E+06     1.49648E+06    -44.8843E+06     1.54137E+06     76.9774E+06    -44.8843E+06    -1.27485E+06         27.7189
            1462     15.7496E-03     73.3713E-03         1.78994         1.48360        -6.07312         1.74969        -6.03287         1.48360    -886.980E-03     32.5376E-03    -15.3825E-03    -17.1551E-03    -15.3933E-03     30.7758E-03    -15.3825E-03     18.3568E-03     131.803E+06    -809.843E+03    -63.3753E+06    -792.407E+03     131.786E+06    -63.3753E+06    -405.962E+03         29.7013
            1463     16.7338E-03     73.3899E-03         1.84340         1.50234        -6.20181         1.84179        -6.20021         1.50234    -2.94122E-03     31.3748E-03    -14.9271E-03    -16.4478E-03    -14.9026E-03     30.5171E-03    -15.6145E-03     6.29201E-03     185.834E+06     32.7155E+06    -37.1627E+06    -2.00559E+06     185.831E+06    -2.43839E+06     444.035E+03         31.9108
            1464     984.003E-06     74.2538E-03         1.77315     682.161E-03        -5.21939    -381.680E-03        -3.96726         1.58486         1.78067     32.6906E-03    -16.2925E-03    -16.3981E-03    -16.3772E-03     32.6734E-03    -16.2963E-03     1.73605E-03    -20.0653E+06    -20.9053E+06    -197.483E+06    -20.8968E+06    -197.479E+06    -20.0774E+06     -659.66E+03         22.4297
            1465     1.96807E-03     74.2563E-03         1.08233     631.956E-03        -4.48798     751.607E-03        -4.15725     631.956E-03    -162.070E-03     32.6838E-03    -16.3364E-03    -16.3474E-03    -16.2934E-03     32.6355E-03    -16.3421E-03     3.00275E-03    -16.4573E+06    -19.3357E+06    -192.670E+06    -19.3556E+06    -192.650E+06    -16.4573E+06    -1.60737E+06         22.4531
            1466     2.95228E-03     74.2601E-03         1.17977     713.543E-03        -4.66204         1.02081        -4.50308     713.543E-03         1.73181     32.7026E-03    -16.3431E-03    -16.3595E-03    -16.2615E-03     32.6066E-03    -16.3451E-03     4.29098E-03    -10.1097E+06    -16.8492E+06    -184.424E+06    -16.8900E+06    -184.383E+06    -10.1097E+06    -2.49396E+06         22.4922
            1467     3.93622E-03     74.2651E-03         1.44138     823.072E-03        -5.01136         1.28517        -4.85514     823.072E-03         1.84534     32.7105E-03    -16.3385E-03    -16.3720E-03    -16.2170E-03     32.5555E-03    -16.3385E-03     5.47732E-03    -3.81505E+06    -13.7057E+06    -170.555E+06    -13.7881E+06    -170.472E+06    -3.81505E+06    -3.46948E+06         22.5488
            1468     4.92053E-03     74.2714E-03         1.68879     942.304E-03        -5.35474         1.55015        -5.21610     942.304E-03         1.63945     32.6918E-03    -16.3214E-03    -16.3704E-03    -16.1521E-03     32.4735E-03    -16.3214E-03     6.51312E-03     1.43440E+06    -10.6142E+06    -154.939E+06    -10.7620E+06    -154.792E+06     1.43440E+06    -4.55445E+06         22.6254
            1469     5.90466E-03     74.2785E-03         1.75955         1.06037        -5.53151         1.73733        -5.50929         1.06037     783.865E-03     32.6817E-03    -16.3050E-03    -16.3767E-03    -16.0970E-03     32.4020E-03    -16.3050E-03     7.37709E-03     6.95745E+06    -7.34655E+06    -140.590E+06    -7.56433E+06    -140.372E+06     6.95745E+06    -5.31446E+06         22.7252
            1470     6.88903E-03     74.2865E-03         2.05270         1.16972        -5.93389         1.89622        -5.77741         1.16972         1.99522     32.6866E-03    -16.2864E-03    -16.4002E-03    -16.0596E-03     32.3460E-03    -16.2864E-03     8.14057E-03     11.6178E+06    -3.96969E+06    -127.543E+06    -4.26208E+06    -127.251E+06     11.6178E+06    -5.94753E+06         22.8527
            1471     7.87319E-03     74.2953E-03         2.19228         1.27007        -6.17881         2.02692        -6.01345         1.27007         2.14766     32.6912E-03    -16.2527E-03    -16.4385E-03    -16.0341E-03     32.2868E-03    -16.2527E-03     8.86998E-03     13.3518E+06    -902.353E+03    -113.103E+06    -1.26862E+06    -112.737E+06     13.3518E+06    -6.35239E+06         23.0147
            1472     8.85755E-03     74.3047E-03         2.08554         1.35742        -6.16068         2.05714        -6.13228         1.35742     368.139E-03     32.6531E-03    -16.2078E-03    -16.4453E-03    -15.9837E-03     32.1916E-03    -16.2078E-03     9.47272E-03     13.3648E+06     1.59990E+06    -95.9213E+06     1.15232E+06    -95.4737E+06     13.3648E+06    -6.54086E+06         23.2219
            1473     9.84187E-03     74.3147E-03         1.99421         1.42370        -6.13202         1.94935        -6.08717         1.42370        -1.06799     32.6237E-03    -16.1483E-03    -16.4755E-03    -15.9279E-03     32.0761E-03    -16.1483E-03     10.2959E-03     10.1477E+06     3.82123E+06    -80.3002E+06     3.29049E+06    -79.7695E+06     10.1477E+06    -6.52883E+06         23.4929
            1474     10.8263E-03     74.3256E-03         1.85956         1.46578        -6.03728         1.78886        -5.96658         1.46578        -1.48388     32.6414E-03    -16.0671E-03    -16.5743E-03    -15.8867E-03     31.9538E-03    -16.0671E-03     11.5332E-03     6.81903E+06     2.51524E+06    -62.1801E+06     5.28781E+06    -61.6184E+06     3.48472E+06    -6.02261E+06         23.8601
            1475     11.8106E-03     74.3386E-03         1.72367         1.48905        -5.92787         1.66882        -5.87301         1.48905        -1.28864     32.5385E-03    -15.9838E-03    -16.5547E-03    -15.7962E-03     31.7799E-03    -15.9838E-03     12.1097E-03     6.93669E+06    -936.897E+03    -33.6482E+06     6.48033E+06    -33.1918E+06    -936.897E+03    -4.23664E+06         24.3784
            1476     12.7955E-03     74.3504E-03         1.67174         1.50241        -5.90335         1.62639        -5.85799         1.50241        -1.16611     32.6457E-03    -15.9101E-03    -16.7356E-03    -15.7379E-03     31.6480E-03    -15.9101E-03     13.7914E-03     12.0858E+06     2.05199E+06    -10.2477E+06     6.52785E+06     208.241E+03    -2.84603E+06    -2.16147E+06         25.1269
            1477     13.7795E-03     74.3669E-03         1.66602         1.51250        -5.92599         1.62869        -5.88866         1.51250        -1.05944     32.7307E-03    -15.7588E-03    -16.9719E-03    -15.6240E-03     31.3827E-03    -15.7588E-03     16.1319E-03     31.1225E+06     5.11628E+06    -21.0719E+06     5.27871E+06     30.9600E+06    -21.0719E+06    -1.55720E+06         26.2017
            1478     14.7648E-03     74.3839E-03         1.66573         1.52110        -5.96141         1.61910        -5.91477         1.52110        -1.17603     32.7583E-03    -15.5526E-03    -17.2057E-03    -15.5131E-03     31.0657E-03    -15.5526E-03     18.0321E-03     75.8869E+06     2.94535E+06    -46.2457E+06     3.00781E+06     75.8244E+06    -46.2457E+06    -1.66173E+06         27.7096
            1479     15.7489E-03     74.4039E-03         1.68063         1.52925        -6.02058         1.65058        -5.99054         1.52925    -724.129E-03     32.6147E-03    -15.3763E-03    -17.2384E-03    -15.4768E-03     30.8530E-03    -15.3763E-03     18.3886E-03     130.573E+06    -717.112E+03    -64.7209E+06    -697.535E+03     130.554E+06    -64.7209E+06    -1.25861E+06         29.6993
            1480     16.7337E-03     74.4221E-03         1.80545         1.54145        -6.20768         1.80470        -6.20694         1.54145     39.3464E-03     31.3804E-03    -14.9121E-03    -16.4683E-03    -14.9072E-03     30.5097E-03    -15.6025E-03     6.10242E-03     184.986E+06     30.7215E+06    -38.3902E+06    -2.28289E+06     184.982E+06    -5.38142E+06    -90.2974E+03         31.9256
            1481     984.037E-06     75.2861E-03         1.96203         1.21846        -5.98623    -120.601E-03        -4.38127         1.69614         2.24830     32.6911E-03    -16.3026E-03    -16.3885E-03    -16.3675E-03     32.6739E-03    -16.3063E-03     1.72972E-03    -21.3526E+06    -22.3880E+06    -196.325E+06    -22.2418E+06    -196.317E+06    -21.5073E+06    -1.08234E+06         22.4290
            1482     1.96810E-03     75.2885E-03         1.30455     805.738E-03        -4.91639     875.034E-03        -4.48687     805.738E-03    -416.222E-03     32.6967E-03    -16.3403E-03    -16.3564E-03    -16.3021E-03     32.6482E-03    -16.3461E-03     3.01120E-03    -17.2230E+06    -20.4583E+06    -190.879E+06    -20.4897E+06    -190.848E+06    -17.2230E+06    -2.11708E+06         22.4524
            1483     2.95209E-03     75.2923E-03         1.26917     864.337E-03        -4.93647         1.10757        -4.77488     864.337E-03         1.64030     32.7066E-03    -16.3444E-03    -16.3622E-03    -16.2632E-03     32.6098E-03    -16.3465E-03     4.30934E-03    -11.6397E+06    -17.8226E+06    -182.926E+06    -17.8955E+06    -182.853E+06    -11.6397E+06    -3.33310E+06         22.4914
            1484     3.93636E-03     75.2974E-03         1.55293     963.287E-03        -5.29267         1.42346        -5.16320     963.287E-03         1.62068     32.7030E-03    -16.3381E-03    -16.3649E-03    -16.2087E-03     32.5469E-03    -16.3382E-03     5.49749E-03    -5.24360E+06    -14.5713E+06    -169.028E+06    -14.7004E+06    -168.899E+06    -5.24360E+06    -4.32253E+06         22.5479
            1485     4.92040E-03     75.3035E-03         1.86206         1.08676        -5.70434         1.73564        -5.57792         1.08676         1.58834     32.6974E-03    -16.3237E-03    -16.3737E-03    -16.1552E-03     32.4789E-03    -16.3237E-03     6.51760E-03     876.081E+03    -11.1092E+06    -153.393E+06    -11.3214E+06    -153.181E+06     876.081E+03    -5.40969E+06         22.6244
            1486     5.90470E-03     75.3107E-03         1.93869         1.21170        -5.89005         1.91758        -5.86894         1.21170     775.240E-03     32.6965E-03    -16.3080E-03    -16.3885E-03    -16.1082E-03     32.4162E-03    -16.3080E-03     7.38584E-03     6.41786E+06    -7.57020E+06    -139.236E+06    -7.88382E+06    -138.923E+06     6.41786E+06    -6.35292E+06         22.7240
            1487     6.88881E-03     75.3187E-03         2.14617         1.32062        -6.20561         2.00329        -6.06272         1.32062         1.97476     32.6839E-03    -16.2891E-03    -16.3948E-03    -16.0550E-03     32.3441E-03    -16.2891E-03     8.13230E-03     10.8679E+06    -4.27386E+06    -126.758E+06    -4.66643E+06    -126.365E+06     10.8679E+06    -6.89901E+06         22.8513
            1488     7.87325E-03     75.3274E-03         2.19689         1.41051        -6.34662         2.04737        -6.19711         1.41051         2.08271     32.6696E-03    -16.2538E-03    -16.4158E-03    -16.0092E-03     32.2630E-03    -16.2538E-03     8.88807E-03     12.5964E+06    -1.46970E+06    -112.589E+06    -1.93724E+06    -112.122E+06     12.5964E+06    -7.15505E+06         23.0128
            1489     8.85747E-03     75.3369E-03         2.05424         1.48190        -6.27410         2.02789        -6.24774         1.48190     408.345E-03     32.6308E-03    -16.2061E-03    -16.4247E-03    -15.9658E-03     32.1719E-03    -16.2061E-03     9.44296E-03     12.6456E+06     1.26721E+06    -95.3793E+06     659.688E+03    -94.7717E+06     12.6456E+06    -7.53578E+06         23.2196
            1490     9.84194E-03     75.3467E-03         1.96163         1.53308        -6.22555         1.92676        -6.19068         1.53308    -930.757E-03     32.6360E-03    -16.1457E-03    -16.4903E-03    -15.9408E-03     32.0865E-03    -16.1457E-03     10.3082E-03     9.15161E+06     3.39497E+06    -80.2725E+06     2.66906E+06    -79.5466E+06     9.15161E+06    -7.68842E+06         23.4899
            1491     10.8261E-03     75.3581E-03         1.85646         1.56467        -6.14658         1.80140        -6.09152         1.56467        -1.31106     32.6353E-03    -16.0631E-03    -16.5722E-03    -15.8820E-03     31.9450E-03    -16.0631E-03     11.5587E-03     5.26516E+06     781.898E+03    -63.0208E+06     3.60986E+06    -62.1704E+06     1.58677E+06    -7.37764E+06         23.8559
            1492     11.8109E-03     75.3702E-03         1.75094         1.58191        -6.06026         1.70930        -6.01861         1.58191        -1.12806     32.5671E-03    -15.9849E-03    -16.5822E-03    -15.8213E-03     31.8062E-03    -15.9849E-03     12.1344E-03     5.52490E+06    -2.64188E+06    -36.5586E+06     4.66679E+06    -35.7005E+06    -2.64188E+06    -5.79146E+06         24.3726
            1493     12.7950E-03     75.3831E-03         1.68075         1.58436        -6.00106         1.64035        -5.96667         1.59038        -1.01896     32.6435E-03    -15.9161E-03    -16.7274E-03    -15.7290E-03     31.6451E-03    -15.9161E-03     13.8033E-03     10.8851E+06     1.42665E+06    -12.5766E+06     5.70547E+06    -2.49399E+06    -3.47630E+06    -3.00578E+06         25.1192
            1494     13.7799E-03     75.3989E-03         1.63298         1.55902        -5.94464         1.57112        -5.91661         1.59285    -911.429E-03     32.6946E-03    -15.7592E-03    -16.9355E-03    -15.5977E-03     31.3568E-03    -15.7592E-03     16.0608E-03     31.2964E+06     5.41635E+06    -21.3076E+06     5.67671E+06     31.0361E+06    -21.3076E+06    -2.12510E+06         26.1923
            1495     14.7642E-03     75.4157E-03         1.61985         1.55509        -5.94667         1.54683        -5.91051         1.59195        -1.02270     32.8269E-03    -15.5511E-03    -17.2758E-03    -15.5397E-03     31.0907E-03    -15.5511E-03     18.2643E-03     75.5647E+06     4.35742E+06    -46.5478E+06     4.49044E+06     75.4317E+06    -46.5478E+06    -2.59130E+06         27.7004
            1496     15.7493E-03     75.4367E-03         1.64913         1.58349        -6.03242         1.61597        -6.00831         1.59253    -626.389E-03     32.5504E-03    -15.3618E-03    -17.1886E-03    -15.3829E-03     30.7447E-03    -15.3618E-03     18.5784E-03     128.453E+06     1.92545E+06    -67.0545E+06     1.98293E+06     128.395E+06    -67.0545E+06    -1.05245E+06         29.6975
            1497     16.7340E-03     75.4537E-03         1.78060         1.59945        -6.21678         1.78019        -6.21637         1.59945     44.2285E-03     31.3209E-03    -14.9551E-03    -16.3658E-03    -14.8763E-03     30.4570E-03    -15.5807E-03     6.12438E-03     184.090E+06     31.6776E+06    -40.6571E+06    -750.595E+03     184.079E+06    -8.21800E+06     117.425E+03         31.9417
            1498     984.043E-06     76.3183E-03         2.11883         1.69238        -6.64729     284.738E-03        -4.95812         1.83731         2.58572     32.6784E-03    -16.3064E-03    -16.3720E-03    -16.3547E-03     32.6611E-03    -16.3064E-03     1.73896E-03    -22.2871E+06    -23.2692E+06    -194.527E+06    -23.1426E+06    -194.511E+06    -22.4298E+06    -1.49480E+06         22.4282
            1499     1.96806E-03     76.3208E-03         1.53119         1.06468        -5.43259         1.07600        -4.97740         1.06468    -479.870E-03     32.7010E-03    -16.3409E-03    -16.3601E-03    -16.3113E-03     32.6522E-03    -16.3409E-03     3.01945E-03    -18.5353E+06    -21.5876E+06    -188.890E+06    -21.6328E+06    -188.845E+06    -18.5353E+06    -2.65455E+06         22.4516
            1500     2.95218E-03     76.3245E-03         1.44035         1.09786        -5.36553         1.27344        -5.19863         1.09786         1.61630     32.7126E-03    -16.3470E-03    -16.3656E-03    -16.2684E-03     32.6155E-03    -16.3471E-03     4.31516E-03    -12.6085E+06    -18.9941E+06    -180.633E+06    -19.1065E+06    -180.521E+06    -12.6085E+06    -4.11589E+06         22.4905
            1501     3.93619E-03     76.3296E-03         1.71000         1.18060        -5.69123         1.59769        -5.57892         1.18060         1.46240     32.6969E-03    -16.3372E-03    -16.3597E-03    -16.2036E-03     32.5409E-03    -16.3374E-03     5.49584E-03    -6.68676E+06    -15.6777E+06    -167.268E+06    -15.8929E+06    -167.053E+06    -6.68676E+06    -5.59373E+06         22.5469
            1502     4.92047E-03     76.3358E-03         1.98613         1.29227        -6.05718         1.87263        -5.94368         1.29227         1.53542     32.6964E-03    -16.3221E-03    -16.3743E-03    -16.1542E-03     32.4763E-03    -16.3221E-03     6.54008E-03    -402.782E+03    -11.8613E+06    -151.577E+06    -12.1823E+06    -151.257E+06    -402.782E+03    -6.59608E+06         22.6233
            1503     5.90455E-03     76.3429E-03         2.01218         1.40114        -6.17596         1.99295        -6.15673         1.40114     739.062E-03     32.6982E-03    -16.3092E-03    -16.3891E-03    -16.1075E-03     32.4167E-03    -16.3092E-03     7.40426E-03     5.68394E+06    -8.16001E+06    -137.775E+06    -8.58667E+06    -137.348E+06     5.68394E+06    -7.37820E+06         22.7228
            1504     6.88893E-03     76.3509E-03         2.14898         1.48985        -6.39616         2.02110        -6.26828         1.48985         1.89536     32.6943E-03    -16.2909E-03    -16.4034E-03    -16.0625E-03     32.3534E-03    -16.2909E-03     8.14498E-03     10.1073E+06    -4.65489E+06    -125.914E+06    -5.17742E+06    -125.392E+06     10.1073E+06    -7.90363E+06         22.8499
            1505     7.87307E-03     76.3595E-03         2.15651         1.55817        -6.47278         2.02266        -6.33892         1.55817         1.99016     32.6641E-03    -16.2553E-03    -16.4088E-03    -16.0042E-03     32.2595E-03    -16.2553E-03     8.86661E-03     11.9687E+06    -1.28492E+06    -111.911E+06    -1.91622E+06    -111.279E+06     11.9687E+06    -8.26546E+06         23.0110
            1506     8.85755E-03     76.3691E-03         2.02137         1.61000        -6.38399         1.99776        -6.36038         1.61000     439.765E-03     32.6103E-03    -16.2056E-03    -16.4046E-03    -15.9445E-03     32.1501E-03    -16.2056E-03     9.44963E-03     12.0072E+06     1.48582E+06    -94.8677E+06     693.157E+03    -94.0750E+06     12.0072E+06    -8.63214E+06         23.2173
            1507     9.84174E-03     76.3789E-03         1.95206         1.64677        -6.34484         1.92722        -6.32000         1.64677    -783.511E-03     32.6124E-03    -16.1436E-03    -16.4688E-03    -15.9182E-03     32.0618E-03    -16.1436E-03     10.3167E-03     8.42335E+06     3.27891E+06    -80.3831E+06     2.40739E+06    -79.5116E+06     8.42335E+06    -8.46527E+06         23.4869
            1508     10.8264E-03     76.3901E-03         1.87982         1.66974        -6.28737         1.83971        -6.24726         1.66974        -1.13773     32.6594E-03    -16.0609E-03    -16.5985E-03    -15.9147E-03     31.9756E-03    -16.0609E-03     11.5118E-03     4.56653E+06     185.566E+03    -63.1427E+06     3.10361E+06    -62.1896E+06     695.379E+03    -7.81723E+06         23.8519
            1509     11.8104E-03     76.4025E-03         1.78316         1.67511        -6.19429         1.74502        -6.16240         1.68135        -1.00583     32.5845E-03    -15.9840E-03    -16.6005E-03    -15.8316E-03     31.8157E-03    -15.9840E-03     12.2005E-03     4.54445E+06    -4.33805E+06    -38.5426E+06     3.15248E+06    -37.1506E+06    -4.33805E+06     -7.2394E+06         24.3670
            1510     12.7951E-03     76.4153E-03         1.70962         1.64348        -6.09381         1.64116        -6.06550         1.68362    -935.582E-03     32.5612E-03    -15.8995E-03    -16.6617E-03    -15.6502E-03     31.5497E-03    -15.8995E-03     13.8795E-03     11.4079E+06    -781.969E+03    -17.7328E+06     5.43852E+06    -5.00021E+06    -7.54522E+06    -6.36873E+06         25.1118
            1511     13.7798E-03     76.4306E-03         1.67916         1.58612        -6.01343         1.56265        -5.98996         1.67916    -841.343E-03     32.7325E-03    -15.7405E-03    -16.9920E-03    -15.6344E-03     31.3749E-03    -15.7405E-03     16.1903E-03     33.2401E+06     6.34130E+06    -23.5995E+06     8.68307E+06     30.8983E+06    -23.5995E+06    -5.00344E+06         26.1836
            1512     14.7646E-03     76.4485E-03         1.67283         1.59491        -6.02767         1.56366        -5.99641         1.67283    -958.891E-03     32.8326E-03    -15.5501E-03    -17.2825E-03    -15.5452E-03     31.0953E-03    -15.5501E-03     18.2823E-03     73.6508E+06     6.74511E+06    -46.2428E+06     7.06598E+06     73.3299E+06    -46.2428E+06    -2.73384E+06         27.6920
            1513     15.7491E-03     76.4681E-03         1.68826         1.65127        -6.11550         1.64825        -6.09426         1.67004    -595.120E-03     32.4392E-03    -15.3561E-03    -17.0830E-03    -15.2872E-03     30.6433E-03    -15.3561E-03     18.4919E-03     125.123E+06     1.48270E+06    -68.2860E+06     1.54538E+06     125.060E+06    -68.2860E+06    -165.539E+03         29.6966
            1514     16.7344E-03     76.4864E-03         1.77365         1.67331        -6.24401         1.77324        -6.24360         1.67331     47.4744E-03     31.3440E-03    -15.0039E-03    -16.3401E-03    -14.9003E-03     30.4688E-03    -15.5684E-03     6.05886E-03     183.818E+06     30.3514E+06    -41.6566E+06    -1.68983E+06     183.809E+06    -9.60694E+06     418.107E+03         31.9589
            1515     984.025E-06     77.3506E-03         2.31357         1.99898        -7.17047     772.668E-03        -5.62956         1.99898         2.69016     32.6759E-03    -16.2863E-03    -16.3896E-03    -16.3720E-03     32.6583E-03    -16.2863E-03     1.76478E-03    -22.7379E+06    -24.1390E+06    -192.061E+06    -23.7625E+06    -192.039E+06    -23.1364E+06    -1.69592E+06         22.4273
            1516     1.96809E-03     77.3530E-03         1.80955         1.39069        -6.06006         1.40629        -5.65679         1.39069    -458.244E-03     32.7013E-03    -16.3406E-03    -16.3607E-03    -16.3118E-03     32.6524E-03    -16.3406E-03     3.02069E-03    -19.0556E+06    -22.1727E+06    -186.400E+06    -22.2469E+06    -186.326E+06    -19.0556E+06    -3.35517E+06         22.4506
            1517     2.95209E-03     77.3568E-03         1.68719         1.41611        -5.94509         1.53711        -5.79501         1.41611         1.54868     32.7132E-03    -16.3465E-03    -16.3667E-03    -16.2699E-03     32.6164E-03    -16.3465E-03     4.31121E-03    -13.1503E+06    -19.3586E+06    -177.899E+06    -19.5191E+06    -177.738E+06    -13.1503E+06    -4.93854E+06         22.4896
            1518     3.93626E-03     77.3618E-03         1.83837         1.47173        -6.13012         1.74217        -6.03392         1.47173         1.31599     32.7054E-03    -16.3378E-03    -16.3676E-03    -16.2110E-03     32.5488E-03    -16.3378E-03     5.50433E-03    -7.26919E+06    -16.1798E+06    -164.526E+06    -16.4835E+06    -164.222E+06    -7.26919E+06    -6.58613E+06         22.5459
            1519     4.92034E-03     77.3680E-03         1.99850         1.54302        -6.33520         1.90064        -6.23735         1.54302         1.43383     32.6895E-03    -16.3211E-03    -16.3684E-03    -16.1470E-03     32.4680E-03    -16.3211E-03     6.55905E-03    -1.66059E+06    -12.8086E+06    -149.642E+06    -13.2799E+06    -149.171E+06    -1.66059E+06    -7.93957E+06         22.6222
            1520     5.90464E-03     77.3753E-03         1.97605         1.60956        -6.36379         1.95936        -6.34711         1.60956     677.092E-03     32.6919E-03    -16.3083E-03    -16.3836E-03    -16.1022E-03     32.4104E-03    -16.3083E-03     7.40244E-03     4.53745E+06    -8.96773E+06    -136.473E+06    -9.58084E+06    -135.860E+06     4.53745E+06    -8.74689E+06         22.7216
            1521     6.88876E-03     77.3830E-03         2.09337         1.66268        -6.52737         1.97779        -6.41178         1.66268         1.81625     32.6963E-03    -16.2907E-03    -16.4056E-03    -16.0642E-03     32.3549E-03    -16.2907E-03     8.15099E-03     9.36325E+06    -4.78877E+06    -124.718E+06    -5.54534E+06    -123.961E+06     9.36325E+06    -9.42256E+06         22.8484
            1522     7.87311E-03     77.3919E-03         2.12437         1.70512        -6.59940         2.00257        -6.47760         1.70512         1.91880     32.6694E-03    -16.2545E-03    -16.4150E-03    -16.0102E-03     32.2646E-03    -16.2545E-03     8.87155E-03     11.1471E+06    -870.201E+03    -111.078E+06    -1.78478E+06    -110.163E+06     11.1471E+06    -9.92539E+06         23.0094
            1523     8.85736E-03     77.4011E-03         2.02149         1.73940        -6.52686         1.99942        -6.50480         1.73940     461.101E-03     32.6035E-03    -16.2070E-03    -16.3964E-03    -15.9374E-03     32.1445E-03    -16.2070E-03     9.43621E-03     11.5483E+06     1.90825E+06    -94.7340E+06     955.869E+03    -93.7816E+06     11.5483E+06    -9.52963E+06         23.2152
            1524     9.84199E-03     77.4112E-03         1.96254         1.76398        -6.48438         1.94239        -6.46423         1.76398    -700.658E-03     32.6009E-03    -16.1439E-03    -16.4569E-03    -15.9099E-03     32.0538E-03    -16.1439E-03     10.2836E-03     8.53349E+06     3.40185E+06    -80.3331E+06     2.81033E+06     -79.267E+06     8.05895E+06    -9.34983E+06         23.4842
            1525     10.8260E-03     77.4221E-03         1.88852         1.76765        -6.40613         1.84445        -6.37157         1.77716        -1.06622     32.6704E-03    -16.0582E-03    -16.6122E-03    -15.9185E-03     31.9767E-03    -16.0582E-03     11.5907E-03     5.86598E+06    -330.796E+03    -64.1951E+06     4.42832E+06    -63.0053E+06    -82.8574E+03    -8.98217E+06         23.8481
            1526     11.8107E-03     77.4350E-03         1.80928         1.73226        -6.28478         1.73238        -6.25505         1.77943    -975.885E-03     32.5310E-03    -15.9796E-03    -16.5514E-03    -15.7844E-03     31.7640E-03    -15.9796E-03     12.1742E-03     7.71979E+06    -4.23647E+06    -38.8921E+06     5.80662E+06    -36.9789E+06    -4.23647E+06    -8.59257E+06         24.3616
            1527     12.7953E-03     77.4467E-03         1.77385         1.67671        -6.19316         1.64955        -6.16601         1.77385    -922.049E-03     32.5647E-03    -15.8785E-03    -16.6862E-03    -15.6720E-03     31.5505E-03    -15.8785E-03     13.8784E-03     14.8234E+06    -2.77234E+06    -20.5095E+06     6.60054E+06    -4.51242E+06    -10.5465E+06    -9.86878E+06         25.1050
            1528     13.7799E-03     77.4633E-03         1.76572         1.65814        -6.16595         1.63582        -6.14363         1.76572    -830.123E-03     32.7498E-03    -15.7279E-03    -17.0219E-03    -15.6568E-03     31.3847E-03    -15.7279E-03     16.2476E-03     32.1615E+06     1.34946E+06    -27.5482E+06     5.93469E+06     27.5763E+06    -27.5482E+06    -7.99760E+06         26.1757
            1529     14.7643E-03     77.4801E-03         1.75944         1.69502        -6.19958         1.66516        -6.16971         1.75944    -950.176E-03     32.7604E-03    -15.5586E-03    -17.2019E-03    -15.5019E-03     31.0605E-03    -15.5586E-03     18.0690E-03     68.9695E+06     3.34751E+06    -46.7587E+06     3.72195E+06     68.5951E+06    -46.7587E+06    -2.54947E+06         27.6845
            1530     15.7495E-03     77.5004E-03         1.76044         1.73507        -6.24547         1.71819        -6.22486         1.75671    -604.979E-03     32.4451E-03    -15.3585E-03    -17.0866E-03    -15.3009E-03     30.6594E-03    -15.3585E-03     18.4535E-03     122.988E+06     526.632E+03    -68.4362E+06     549.866E+03     122.965E+06    -68.4362E+06     531.264E+03         29.6963
            1531     16.7339E-03     77.5182E-03         1.80628         1.75254        -6.31496         1.80058        -6.31458         1.75786     32.8407E-03     31.3713E-03    -14.9991E-03    -16.3722E-03    -14.9120E-03     30.4786E-03    -15.5666E-03     6.15645E-03     184.119E+06     30.1740E+06    -41.7391E+06    -1.75056E+06     184.111E+06    -9.80609E+06     441.559E+03         31.9763
            1532     984.048E-06     78.3829E-03         2.51539         2.18584        -7.57800         1.26155        -6.32416         2.18584         2.51251     32.6832E-03    -16.2932E-03    -16.3900E-03    -16.3692E-03     32.6658E-03    -16.2966E-03     1.75388E-03    -23.4638E+06    -25.1971E+06    -188.759E+06    -24.8379E+06    -188.720E+06    -23.8623E+06    -2.14423E+06         22.4264
            1533     1.96802E-03     78.3853E-03         2.11375         1.74002        -6.72262         1.80153        -6.41041         1.74002    -481.044E-03     32.6913E-03    -16.3382E-03    -16.3530E-03    -16.3004E-03     32.6421E-03    -16.3417E-03     3.02394E-03    -19.7240E+06    -22.6838E+06    -183.120E+06    -22.7955E+06    -183.008E+06    -19.7240E+06    -4.11857E+06         22.4498
            1534     2.95213E-03     78.3891E-03         1.94342         1.76733        -6.56577         1.83096        -6.45331         1.76733         1.37465     32.7096E-03    -16.3439E-03    -16.3656E-03    -16.2683E-03     32.6122E-03    -16.3440E-03     4.32523E-03    -13.9385E+06    -19.8859E+06    -174.815E+06    -20.1120E+06    -174.589E+06    -13.9385E+06    -5.79481E+06         22.4887
            1535     3.93619E-03     78.3940E-03         1.94236         1.78885        -6.55929         1.86334        -6.48027         1.78885         1.16406     32.7160E-03    -16.3382E-03    -16.3778E-03    -16.2218E-03     32.5600E-03    -16.3382E-03     5.49675E-03    -7.70463E+06    -16.6298E+06    -161.371E+06    -17.0295E+06    -160.971E+06    -7.70463E+06    -7.48719E+06         22.5450
            1536     4.92036E-03     78.4003E-03         1.97586         1.79287        -6.57357         1.88086        -6.49291         1.80722         1.32266     32.6965E-03    -16.3248E-03    -16.3717E-03    -16.1525E-03     32.4773E-03    -16.3248E-03     6.52690E-03    -1.92844E+06    -13.0766E+06    -147.177E+06    -13.6956E+06    -146.558E+06    -1.92844E+06    -9.01193E+06         22.6210
            1537     5.90451E-03     78.4073E-03         1.93567         1.79950        -6.52166         1.89720        -6.50612         1.82242     650.815E-03     32.6794E-03    -16.3075E-03    -16.3719E-03    -16.0889E-03     32.3964E-03    -16.3075E-03     7.41728E-03     3.39113E+06    -9.32201E+06    -134.675E+06    -10.1893E+06    -133.807E+06     3.39113E+06    -10.3121E+06         22.7202
            1538     6.88880E-03     78.4155E-03         2.03606         1.82755        -6.64385         1.92017        -6.53655         1.83612         1.75722     32.6821E-03    -16.2873E-03    -16.3947E-03    -16.0520E-03     32.3394E-03    -16.2873E-03     8.16732E-03     7.99753E+06    -5.23875E+06    -123.342E+06    -6.34263E+06    -122.238E+06     7.99753E+06    -11.2906E+06         22.8469
            1539     7.87307E-03     78.4238E-03         2.08820         1.85126        -6.71693         1.97606        -6.60478         1.85126         1.84278     32.6722E-03    -16.2523E-03    -16.4199E-03    -16.0162E-03     32.2686E-03    -16.2523E-03     8.85856E-03     9.78375E+06    -1.62736E+06    -110.530E+06    -2.88494E+06    -109.272E+06     9.78375E+06    -11.5877E+06         23.0077
            1540     8.85743E-03     78.4336E-03         2.00665         1.86694        -6.64934         1.98695        -6.62964         1.86694     437.788E-03     32.6242E-03    -16.2077E-03    -16.4166E-03    -15.9616E-03     32.1693E-03    -16.2077E-03     9.40072E-03     10.4692E+06     1.97240E+06    -94.8661E+06     575.107E+03    -93.4688E+06     10.4692E+06    -11.4142E+06         23.2133
            1541     9.84162E-03     78.4430E-03         1.95009         1.86057        -6.57835         1.91374        -6.55803         1.87659    -699.149E-03     32.6013E-03    -16.1459E-03    -16.4554E-03    -15.9087E-03     32.0546E-03    -16.1459E-03     10.2751E-03     9.06544E+06     4.13187E+06    -80.1792E+06     3.96442E+06    -78.6470E+06     7.70077E+06    -11.2394E+06         23.4817
            1542     10.8264E-03     78.4546E-03         1.90173         1.81525        -6.47554         1.80471        -6.43954         1.87626        -1.08998     32.6129E-03    -16.0592E-03    -16.5537E-03    -15.8623E-03     31.9215E-03    -16.0592E-03     11.5628E-03     7.54639E+06    -196.599E+03    -65.2957E+06     5.84415E+06    -63.5934E+06    -196.599E+03    -10.9283E+06         23.8445
            1543     11.8106E-03     78.4666E-03         1.86834         1.76316        -6.38159         1.73181        -6.35024         1.86834        -1.00708     32.5263E-03    -15.9780E-03    -16.5483E-03    -15.7951E-03     31.7731E-03    -15.9780E-03     12.0649E-03     9.76347E+06    -4.07069E+06    -39.3133E+06     6.95776E+06    -36.5075E+06    -4.07069E+06    -10.5722E+06         24.3566
            1544     12.7952E-03     78.4792E-03         1.85870         1.75639        -6.35681         1.72816        -6.32858         1.85870    -954.284E-03     32.6290E-03    -15.8885E-03    -16.7405E-03    -15.7379E-03     31.6263E-03    -15.8885E-03     13.8129E-03     14.3399E+06    -3.01826E+06    -18.1403E+06     5.98934E+06    -3.64898E+06    -9.15902E+06    -9.91661E+06         25.0987
            1545     13.7797E-03     78.4950E-03         1.85187         1.78843        -6.37849         1.76587        -6.35593         1.85187    -851.860E-03     32.7125E-03    -15.7429E-03    -16.9696E-03    -15.6335E-03     31.3764E-03    -15.7429E-03     16.0663E-03     26.9115E+06    -1.44673E+06    -27.9889E+06     2.54955E+06     22.9152E+06    -27.9889E+06    -7.71137E+06         26.1680
            1546     14.7646E-03     78.5124E-03         1.84839         1.81999        -6.40204         1.79113        -6.37319         1.84839    -954.226E-03     32.7594E-03    -15.5616E-03    -17.1978E-03    -15.5183E-03     31.0799E-03    -15.5616E-03     17.9526E-03     64.7959E+06    -174.258E+03    -49.3852E+06     405.966E+03     64.2157E+06    -49.3852E+06    -4.03489E+06         27.6767
            1547     15.7491E-03     78.5320E-03         1.84687         1.82729        -6.40556         1.80700        -6.38527         1.84687    -641.947E-03     32.4581E-03    -15.3584E-03    -17.0998E-03    -15.3503E-03     30.7087E-03    -15.3584E-03     18.2636E-03     121.166E+06    -1.26052E+06    -70.8891E+06    -1.20338E+06     121.109E+06    -70.8891E+06    -1.47377E+06         29.6952
            1548     16.7344E-03     78.5506E-03         1.86333         1.83099        -6.41942         1.84695        -6.41880         1.84674    -29.2840E-03     31.2595E-03    -14.9382E-03    -16.3213E-03    -14.8510E-03     30.4152E-03    -15.5642E-03     6.06918E-03     183.165E+06     28.9020E+06    -42.8164E+06    -1.96148E+06     183.130E+06    -11.9171E+06    -142.549E+03         31.9928
            1549     983.940E-06     79.4152E-03         2.65129         2.37440        -7.91308         1.77663        -7.03842         2.37440         2.14030     32.6988E-03    -16.3107E-03    -16.3881E-03    -16.3640E-03     32.6815E-03    -16.3176E-03     1.73568E-03    -23.8780E+06    -25.9058E+06    -184.535E+06    -25.2696E+06    -184.482E+06    -24.5674E+06    -2.42508E+06         22.4255
            1550     1.96806E-03     79.4176E-03         2.33643         2.08551        -7.29925         2.12184        -7.08467         2.08551    -446.048E-03     32.6857E-03    -16.3391E-03    -16.3466E-03    -16.2914E-03     32.6373E-03    -16.3460E-03     3.00470E-03    -20.5511E+06    -23.5064E+06    -179.311E+06    -23.6699E+06    -179.148E+06    -20.5511E+06    -4.91567E+06         22.4488
            1551     2.95210E-03     79.4213E-03         2.16389         2.07106        -7.09262         2.06800        -7.01748         2.09180         1.21279     32.7057E-03    -16.3450E-03    -16.3607E-03    -16.2630E-03     32.6081E-03    -16.3450E-03     4.32334E-03    -14.6601E+06    -20.6791E+06    -171.275E+06    -20.9949E+06    -170.959E+06    -14.6601E+06    -6.76367E+06         22.4877
            1552     3.93615E-03     79.4264E-03         2.10406         2.04333        -6.97926         2.00508        -6.91681         2.07987         1.09289     32.7159E-03    -16.3382E-03    -16.3777E-03    -16.2209E-03     32.5591E-03    -16.3382E-03     5.51301E-03    -8.46408E+06    -17.1697E+06    -158.201E+06    -17.6967E+06    -157.674E+06    -8.46408E+06    -8.50514E+06         22.5439
            1553     4.92027E-03     79.4325E-03         2.07568         1.96292        -6.84660         1.91610        -6.78193         2.05783         1.25486     32.7025E-03    -16.3250E-03    -16.3774E-03    -16.1585E-03     32.4836E-03    -16.3250E-03     6.52346E-03    -2.71509E+06    -13.4236E+06    -144.292E+06    -14.2252E+06    -143.491E+06    -2.71509E+06    -10.1101E+06         22.6198
            1554     5.90449E-03     79.4397E-03         2.03066         1.87115        -6.69222         1.85672        -6.67779         2.03066     653.562E-03     32.6795E-03    -16.3089E-03    -16.3706E-03    -16.0891E-03     32.3980E-03    -16.3089E-03     7.39888E-03     2.77353E+06    -9.45026E+06    -132.039E+06    -10.5957E+06    -130.893E+06     2.77353E+06    -11.7043E+06         22.7187
            1555     6.88877E-03     79.4475E-03         2.04980         1.91278        -6.74493         1.85937        -6.64874         2.00702         1.66209     32.6781E-03    -16.2878E-03    -16.3903E-03    -16.0493E-03     32.3371E-03    -16.2878E-03     8.14559E-03     6.91101E+06    -5.78071E+06    -121.652E+06    -7.25418E+06    -120.178E+06     6.91101E+06    -12.9314E+06         22.8453
            1556     7.87298E-03     79.4563E-03         2.06090         1.94486        -6.78829         1.91408        -6.68943         1.99281         1.71533     32.6767E-03    -16.2529E-03    -16.4238E-03    -16.0227E-03     32.2756E-03    -16.2529E-03     8.83300E-03     8.59705E+06    -1.79259E+06    -109.702E+06    -3.55861E+06    -107.936E+06     8.59705E+06    -13.5956E+06         23.0059
            1557     8.85727E-03     79.4654E-03         2.01352         1.90650        -6.69928         1.91887        -6.68343         1.98530     356.787E-03     32.6240E-03    -16.2063E-03    -16.4178E-03    -15.9628E-03     32.1691E-03    -16.2063E-03     9.40026E-03     8.92513E+06     2.18032E+06    -94.4340E+06     60.2169E+03    -92.3138E+06     8.92513E+06    -14.0388E+06         23.2114
            1558     9.84178E-03     79.4755E-03         1.97904         1.86556        -6.62010         1.84712        -6.59874         1.97613    -726.482E-03     32.6079E-03    -16.1458E-03    -16.4622E-03    -15.9162E-03     32.0619E-03    -16.1458E-03     10.2741E-03     8.04980E+06     3.42806E+06    -80.6103E+06     3.08119E+06    -78.2843E+06     6.07062E+06    -13.8739E+06         23.4792
            1559     10.8260E-03     79.4863E-03         1.96245         1.82087        -6.54753         1.78324        -6.50991         1.96245        -1.11858     32.6025E-03    -16.0643E-03    -16.5382E-03    -15.8584E-03     31.9228E-03    -16.0643E-03     11.4652E-03     7.67965E+06    -780.520E+03    -65.9818E+06     5.29953E+06    -63.6017E+06    -780.520E+03    -12.9278E+06         23.8409
            1560     11.8107E-03     79.4991E-03         1.94884         1.82897        -6.53059         1.79565        -6.49727         1.94884        -1.05260     32.5313E-03    -15.9800E-03    -16.5512E-03    -15.7970E-03     31.7770E-03    -15.9800E-03     12.0748E-03     8.82122E+06    -5.60467E+06    -40.4399E+06     5.50108E+06    -37.1197E+06    -5.60467E+06    -11.6821E+06         24.3515
            1561     12.7951E-03     79.5111E-03         1.94222         1.88561        -6.57080         1.85732        -6.54057         1.94029        -1.00869     32.6564E-03    -15.9021E-03    -16.7543E-03    -15.7524E-03     31.6545E-03    -15.9021E-03     13.8300E-03     12.1985E+06    -3.96943E+06    -17.3923E+06     4.88502E+06    -5.29771E+06    -8.75062E+06    -9.46949E+06         25.0919
            1562     13.7796E-03     79.5275E-03         1.93924         1.92194        -6.59534         1.90002        -6.57118         1.93701    -901.187E-03     32.7591E-03    -15.7647E-03    -16.9944E-03    -15.6839E-03     31.4486E-03    -15.7647E-03     15.9289E-03     24.5935E+06     360.120E+03    -25.7019E+06     4.10169E+06     20.8519E+06    -25.7019E+06    -7.28185E+06         26.1597
            1563     14.7642E-03     79.5438E-03         1.94018         1.93108        -6.60070         1.90537        -6.57093         1.93612    -990.498E-03     32.8180E-03    -15.5670E-03    -17.2510E-03    -15.5692E-03     31.1361E-03    -15.5670E-03     17.9696E-03     62.1009E+06     1.38683E+06    -50.7747E+06     2.25255E+06     61.2352E+06    -50.7747E+06    -5.61248E+06         27.6678
            1564     15.7489E-03     79.5650E-03         1.93914         1.91130        -6.57558         1.89418        -6.55470         1.93538    -703.137E-03     32.4943E-03    -15.3579E-03    -17.1364E-03    -15.3755E-03     30.7334E-03    -15.3579E-03     18.3289E-03     118.586E+06    -512.731E+03    -73.7605E+06    -344.508E+03     118.418E+06    -73.7605E+06    -3.62352E+06         29.6926
            1565     16.7334E-03     79.5816E-03         1.93340         1.87501        -6.52354         1.87416        -6.52269         1.93340    -114.580E-03     31.2076E-03    -14.8633E-03    -16.3443E-03    -14.8055E-03     30.3733E-03    -15.5678E-03     6.12035E-03     181.573E+06     28.7804E+06    -44.1927E+06    -1.79298E+06     181.540E+06    -13.5867E+06    -1.16464E+06         32.0084
            1566     984.030E-06     80.4476E-03         2.76893         2.56710        -8.22984         2.30154        -7.76244         2.56710         1.63325     32.6972E-03    -16.3050E-03    -16.3923E-03    -16.3717E-03     32.6801E-03    -16.3084E-03     1.72060E-03    -24.4275E+06    -26.4672E+06    -180.030E+06    -25.8384E+06    -179.969E+06    -25.1169E+06    -2.84286E+06         22.4242
            1567     1.96796E-03     80.4499E-03         2.51321         2.36502        -7.76181         2.34050        -7.64029         2.41622    -215.887E-03     32.7047E-03    -16.3465E-03    -16.3583E-03    -16.3064E-03     32.6563E-03    -16.3500E-03     3.01113E-03    -20.8677E+06    -24.1530E+06    -174.743E+06    -24.3503E+06    -174.546E+06    -20.8677E+06    -5.22235E+06         22.4476
            1568     2.95202E-03     80.4537E-03         2.38478         2.25434        -7.49052         2.21611        -7.43980         2.37229         1.13171     32.7024E-03    -16.3493E-03    -16.3532E-03    -16.2551E-03     32.6049E-03    -16.3497E-03     4.32148E-03    -15.3268E+06    -21.4701E+06    -167.238E+06    -21.8829E+06    -166.825E+06    -15.3268E+06    -7.64711E+06         22.4864
            1569     3.93617E-03     80.4587E-03         2.32399         2.18779        -7.34137         2.13664        -7.29022         2.32399         1.11832     32.6953E-03    -16.3364E-03    -16.3589E-03    -16.2009E-03     32.5378E-03    -16.3369E-03     5.52373E-03    -9.58878E+06    -17.9050E+06    -154.688E+06    -18.6127E+06    -153.980E+06    -9.58878E+06    -9.66011E+06         22.5425
            1570     4.92027E-03     80.4649E-03         2.27420         2.05155        -7.12856         1.99837        -7.07539         2.27420         1.20911     32.7012E-03    -16.3224E-03    -16.3787E-03    -16.1597E-03     32.4821E-03    -16.3224E-03     6.52637E-03    -3.63429E+06    -13.8607E+06    -141.008E+06    -14.9582E+06    -139.910E+06    -3.63429E+06    -11.6404E+06         22.6183
            1571     5.90443E-03     80.4718E-03         2.21861         1.88035        -6.88699         1.86768        -6.87432         2.21861     643.286E-03     32.7027E-03    -16.3099E-03    -16.3929E-03    -16.1120E-03     32.4218E-03    -16.3099E-03     7.39410E-03     2.10293E+06    -9.68938E+06    -129.119E+06    -11.1813E+06    -127.627E+06     2.10293E+06    -13.1857E+06         22.7172
            1572     6.88859E-03     80.4799E-03         2.16511         1.89327        -6.83765         1.80871        -6.75309         2.16511         1.53856     32.6843E-03    -16.2909E-03    -16.3934E-03    -16.0517E-03     32.3426E-03    -16.2909E-03     8.15360E-03     6.30687E+06    -5.50758E+06    -119.375E+06    -7.39961E+06    -117.483E+06     6.30687E+06    -14.4892E+06         22.8436
            1573     7.87295E-03     80.4884E-03         2.12184         1.90567        -6.80722         1.81914        -6.72069         2.12184         1.57956     32.6622E-03    -16.2530E-03    -16.4092E-03    -16.0034E-03     32.2563E-03    -16.2530E-03     8.87998E-03     7.58220E+06    -1.55569E+06    -107.999E+06    -3.95484E+06    -105.600E+06     7.58220E+06    -15.6958E+06         23.0041
            1574     8.85725E-03     80.4979E-03         2.08906         1.83508        -6.70528         1.82231        -6.69251         2.08906     271.023E-03     32.6277E-03    -16.2051E-03    -16.4226E-03    -15.9661E-03     32.1712E-03    -16.2051E-03     9.41770E-03     7.53886E+06     2.04819E+06    -93.7304E+06    -878.351E+03    -90.8039E+06     7.53886E+06    -16.3947E+06         23.2093
            1575     9.84156E-03     80.5074E-03         2.06271         1.83620        -6.67567         1.81528        -6.65475         2.06271    -736.624E-03     32.6262E-03    -16.1468E-03    -16.4794E-03    -15.9339E-03     32.0807E-03    -16.1468E-03     10.2702E-03     6.51914E+06     2.51252E+06    -81.1285E+06     1.52995E+06    -78.0316E+06     4.40478E+06    -15.9658E+06         23.4768
            1576     10.8261E-03     80.5189E-03         2.04164         1.86762        -6.67774         1.83139        -6.64151         2.04164        -1.10984     32.6357E-03    -16.0669E-03    -16.5688E-03    -15.8946E-03     31.9615E-03    -16.0669E-03     11.4300E-03     6.72093E+06    -2.77827E+06    -66.9480E+06     3.33973E+06    -63.5668E+06    -2.77827E+06    -15.2545E+06         23.8374
            1577     11.8104E-03     80.5306E-03         2.02752         1.92990        -6.71153         1.89612        -6.67775         2.02752        -1.07813     32.5460E-03    -15.9836E-03    -16.5624E-03    -15.8048E-03     31.7884E-03    -15.9836E-03     12.1015E-03     9.21200E+06    -7.62716E+06    -42.6809E+06     5.27226E+06    -38.7411E+06    -7.62716E+06    -13.4433E+06         24.3461
            1578     12.7950E-03     80.5438E-03         2.02522         1.99551        -6.76310         1.96758        -6.73097         2.02103        -1.05791     32.6205E-03    -15.9074E-03    -16.7131E-03    -15.7132E-03     31.6206E-03    -15.9074E-03     13.8238E-03     13.1911E+06    -5.77592E+06    -19.0730E+06     6.24862E+06    -8.09609E+06    -9.81037E+06    -10.5369E+06         25.0845
            1579     13.7795E-03     80.5591E-03         2.03015         2.01964        -6.78282         2.00437        -6.75703         2.01964    -947.159E-03     32.8178E-03    -15.7675E-03    -17.0503E-03    -15.7269E-03     31.4944E-03    -15.7675E-03     16.0166E-03     25.7907E+06     245.235E+03    -26.2229E+06     5.91540E+06     20.1205E+06    -26.2229E+06    -8.51207E+06         26.1503
            1580     14.7640E-03     80.5767E-03         2.03108         2.01979        -6.78030         1.99931        -6.74853         2.01979        -1.03974     32.8188E-03    -15.5695E-03    -17.2493E-03    -15.5625E-03     31.1320E-03    -15.5695E-03     18.0100E-03     60.6885E+06     3.16951E+06    -51.5323E+06     4.46801E+06     59.3900E+06    -51.5323E+06    -7.20625E+06         27.6578
            1581     15.7489E-03     80.5960E-03         2.02366         1.97623        -6.72866         1.95873        -6.70620         2.01870    -753.337E-03     32.4754E-03    -15.3528E-03    -17.1226E-03    -15.3097E-03     30.6625E-03    -15.3528E-03     18.6027E-03     114.973E+06     1.33952E+06    -75.8615E+06     1.63873E+06     114.674E+06    -75.8615E+06    -4.58148E+06         29.6894
            1582     16.7341E-03     80.6148E-03         2.01437         1.89939        -6.64148         1.89815        -6.64024         2.01437    -152.187E-03     31.3197E-03    -14.8982E-03    -16.4215E-03    -14.8361E-03     30.3970E-03    -15.5609E-03     6.26596E-03     179.405E+06     29.4825E+06    -45.7749E+06    -816.536E+03     179.380E+06    -15.4504E+06    -1.39109E+06         32.0245
            1583     983.961E-06     81.4798E-03         2.87115         2.70631        -8.47834         2.71494        -8.32213         2.70631     966.887E-03     32.6707E-03    -16.2993E-03    -16.3714E-03    -16.3540E-03     32.6535E-03    -16.2994E-03     1.72021E-03    -25.2731E+06    -27.1272E+06    -175.340E+06    -26.7048E+06    -175.256E+06    -25.7790E+06    -3.15198E+06         22.4226
            1584     1.96802E-03     81.4823E-03         2.69997         2.54963        -8.12529         2.52729        -8.07733         2.67435     78.0084E-03     32.6979E-03    -16.3390E-03    -16.3589E-03    -16.3088E-03     32.6480E-03    -16.3392E-03     3.05214E-03    -21.6244E+06    -24.7660E+06    -169.769E+06    -24.9962E+06    -169.539E+06    -21.6244E+06    -5.59338E+06         22.4460
            1585     2.95201E-03     81.4859E-03         2.59270         2.35002        -7.78633         2.31924        -7.75555         2.59270         1.01173     32.7183E-03    -16.3467E-03    -16.3715E-03    -16.2733E-03     32.6205E-03    -16.3472E-03     4.33545E-03    -15.7488E+06    -21.8834E+06    -162.357E+06    -22.4134E+06    -161.827E+06    -15.7488E+06    -8.38564E+06         22.4849
            1586     3.93606E-03     81.4910E-03         2.51074         2.25475        -7.58155         2.21333        -7.54013         2.51074         1.14076     32.6939E-03    -16.3378E-03    -16.3561E-03    -16.1981E-03     32.5364E-03    -16.3383E-03     5.51776E-03    -9.98735E+06    -18.1899E+06    -150.387E+06    -19.1358E+06    -149.441E+06    -9.98735E+06    -11.0085E+06         22.5410
            1587     4.92024E-03     81.4971E-03         2.43859         2.12144        -7.35322         2.08042        -7.31219         2.43859         1.12682     32.6885E-03    -16.3217E-03    -16.3669E-03    -16.1466E-03     32.4682E-03    -16.3217E-03     6.54497E-03    -4.25904E+06    -13.9932E+06    -137.331E+06    -15.4281E+06    -135.896E+06    -4.25904E+06    -13.1103E+06         22.6168
            1588     5.90437E-03     81.5042E-03         2.36802         1.95176        -7.09615         1.94043        -7.08483         2.36802     634.654E-03     32.7027E-03    -16.3073E-03    -16.3953E-03    -16.1125E-03     32.4199E-03    -16.3073E-03     7.41798E-03     1.27717E+06    -9.61404E+06    -126.068E+06    -11.5899E+06    -124.093E+06     1.27717E+06    -14.9438E+06         22.7157
            1589     6.88864E-03     81.5121E-03         2.29774         1.87656        -6.94439         1.79994        -6.86778         2.29774         1.44163     32.6885E-03    -16.2895E-03    -16.3990E-03    -16.0570E-03     32.3465E-03    -16.2895E-03     8.15928E-03     5.61730E+06    -5.12975E+06    -116.754E+06    -7.62445E+06    -114.259E+06     5.61730E+06    -16.4157E+06         22.8420
            1590     7.87286E-03     81.5206E-03         2.23297         1.82977        -6.83339         1.75132        -6.75493         2.23297         1.47947     32.6486E-03    -16.2520E-03    -16.3966E-03    -15.9904E-03     32.2425E-03    -16.2520E-03     8.87892E-03     6.97077E+06    -1.10020E+06    -105.894E+06    -4.16545E+06    -102.829E+06     6.97077E+06    -17.5684E+06         23.0024
            1591     8.85723E-03     81.5300E-03         2.18112         1.78455        -6.74169         1.77468        -6.73182         2.18112     216.973E-03     32.6258E-03    -16.2024E-03    -16.4234E-03    -15.9611E-03     32.1635E-03    -16.2024E-03     9.47678E-03     6.44369E+06     2.24620E+06    -92.6816E+06    -1.45935E+06    -88.9760E+06     6.44369E+06    -18.3136E+06         23.2073
            1592     9.84153E-03     81.5398E-03         2.14422         1.86228        -6.78172         1.84160        -6.76104         2.14422    -736.603E-03     32.6459E-03    -16.1443E-03    -16.5016E-03    -15.9518E-03     32.0961E-03    -16.1443E-03     10.3173E-03     6.22919E+06     1.59401E+06    -81.6914E+06     1.02359E+06    -77.7396E+06     2.84782E+06    -18.0405E+06         23.4742
            1593     10.8258E-03     81.5508E-03         2.12103         1.96065        -6.84978         1.92474        -6.81386         2.12103        -1.12169     32.6885E-03    -16.0646E-03    -16.6239E-03    -15.9409E-03     32.0055E-03    -16.0646E-03     11.5121E-03     7.10940E+06    -4.66969E+06    -67.2694E+06     2.76844E+06    -62.9284E+06    -4.66969E+06    -17.2820E+06         23.8337
            1594     11.8103E-03     81.5631E-03         2.10828         2.02747        -6.89093         1.99373        -6.85720         2.10828        -1.09427     32.5923E-03    -15.9864E-03    -16.6059E-03    -15.8489E-03     31.8353E-03    -15.9864E-03     12.1076E-03     9.40626E+06    -9.97589E+06    -45.6174E+06     3.69581E+06    -39.9070E+06    -9.97589E+06    -16.3639E+06         24.3406
            1595     12.7948E-03     81.5755E-03         2.10453         2.07350        -6.91765         2.04282        -6.88472         2.10227        -1.08547     32.5978E-03    -15.9157E-03    -16.6821E-03    -15.6779E-03     31.5936E-03    -15.9157E-03     13.8246E-03     13.7711E+06    -8.46335E+06    -22.6683E+06     5.57937E+06    -11.5122E+06    -11.4276E+06    -13.3861E+06         25.0766
            1596     13.7795E-03     81.5917E-03         2.10863         2.09453        -6.93563         2.07643        -6.90923         2.10034    -969.003E-03     32.6990E-03    -15.7662E-03    -16.9328E-03    -15.5829E-03     31.3491E-03    -15.7662E-03     16.1324E-03     26.5794E+06    -1.07780E+06    -27.1971E+06     6.89965E+06     18.6019E+06    -27.1971E+06    -10.4408E+06         26.1404
            1597     14.7641E-03     81.6086E-03         2.10672         2.08348        -6.92104         2.05953        -6.88986         2.09949        -1.04095     32.7735E-03    -15.5614E-03    -17.2121E-03    -15.5126E-03     31.0739E-03    -15.5614E-03     18.0721E-03     59.3402E+06     3.28494E+06    -52.5837E+06     5.25621E+06     57.3689E+06    -52.5837E+06    -8.60473E+06         27.6477
            1598     15.7490E-03     81.6280E-03         2.09780         2.02342        -6.85839         2.00254        -6.83632         2.09661    -760.078E-03     32.5109E-03    -15.3435E-03    -17.1675E-03    -15.3380E-03     30.6815E-03    -15.3435E-03     18.7052E-03     111.205E+06     627.129E+03    -77.9298E+06     1.00692E+06     110.826E+06    -77.9298E+06    -4.92971E+06         29.6865
            1599     16.7337E-03     81.6468E-03         2.09052         1.95406        -6.79234         1.95269        -6.79097         2.09052    -151.712E-03     31.3236E-03    -14.9263E-03    -16.3973E-03    -14.8352E-03     30.3774E-03    -15.5422E-03     6.22314E-03     176.680E+06     26.5985E+06    -47.5504E+06    -1.67902E+06     176.652E+06    -19.2447E+06    -1.59137E+06         32.0419
            1600     984.036E-06     82.5123E-03         2.97853         2.63862        -8.50844         2.95023        -8.48015         2.63862     129.320E-03     32.6526E-03    -16.2897E-03    -16.3629E-03    -16.3456E-03     32.6354E-03    -16.2898E-03     1.72395E-03    -25.6594E+06    -27.2366E+06    -169.899E+06    -26.8363E+06    -169.793E+06    -26.1653E+06    -3.35683E+06         22.4211
            1601     1.96801E-03     82.5145E-03         2.79953         2.65618        -8.31710         2.67474        -8.30656         2.77043     284.443E-03     32.6805E-03    -16.3293E-03    -16.3511E-03    -16.3011E-03     32.6306E-03    -16.3295E-03     3.04907E-03    -21.9250E+06    -24.6684E+06    -164.430E+06    -24.9895E+06    -164.109E+06    -21.9250E+06    -6.50655E+06         22.4445
            1602     2.95203E-03     82.5185E-03         2.70397         2.46620        -7.99690         2.44801        -7.97872         2.70397     799.584E-03     32.7132E-03    -16.3392E-03    -16.3740E-03    -16.2759E-03     32.6151E-03    -16.3392E-03     4.34325E-03    -15.8564E+06    -21.4735E+06    -156.873E+06    -22.1595E+06    -156.187E+06    -15.8564E+06    -9.39228E+06         22.4833
            1603     3.93606E-03     82.5233E-03         2.62221         2.34137        -7.76305         2.30706        -7.72874         2.62221         1.14083     32.7111E-03    -16.3363E-03    -16.3748E-03    -16.2171E-03     32.5534E-03    -16.3363E-03     5.52417E-03    -9.85635E+06    -17.7589E+06    -145.429E+06    -18.9588E+06    -144.229E+06    -9.85635E+06    -12.1819E+06         22.5395
            1604     4.92018E-03     82.5295E-03         2.54610         2.20577        -7.52776         2.17442        -7.49641         2.54610         1.05780     32.6868E-03    -16.3207E-03    -16.3662E-03    -16.1443E-03     32.4650E-03    -16.3207E-03     6.56658E-03    -4.58505E+06    -13.6245E+06    -133.080E+06    -15.4652E+06    -131.239E+06    -4.58505E+06    -14.5674E+06         22.6154
            1605     5.90439E-03     82.5365E-03         2.47196         2.03467        -7.26646         2.02171        -7.25349         2.47196     687.414E-03     32.6799E-03    -16.3042E-03    -16.3756E-03    -16.0930E-03     32.3972E-03    -16.3042E-03     7.41540E-03     725.771E+03    -9.18659E+06    -122.516E+06    -11.7577E+06    -119.945E+06     725.771E+03    -16.7767E+06         22.7144
            1606     6.88854E-03     82.5444E-03         2.39643         1.92800        -7.07704         1.85581        -7.00485         2.39643         1.39084     32.6778E-03    -16.2850E-03    -16.3928E-03    -16.0510E-03     32.3360E-03    -16.2850E-03     8.15442E-03     4.92064E+06    -4.66640E+06    -114.045E+06    -7.93500E+06    -110.777E+06     4.92064E+06    -18.5441E+06         22.8408
            1607     7.87283E-03     82.5529E-03         2.32529         1.86772        -6.94916         1.79424        -6.87567         2.32529         1.41941     32.6620E-03    -16.2483E-03    -16.4137E-03    -16.0074E-03     32.2556E-03    -16.2483E-03     8.88551E-03     6.25599E+06    -183.220E+03    -103.714E+06    -4.12847E+06    -99.7687E+06     6.25599E+06    -19.7262E+06         23.0010
            1608     8.85717E-03     82.5621E-03         2.26831         1.83417        -6.86408         1.82649        -6.85640         2.26831     182.141E-03     32.6152E-03    -16.2013E-03    -16.4139E-03    -15.9516E-03     32.1529E-03    -16.2013E-03     9.47347E-03     6.16021E+06     3.42817E+06    -91.3050E+06    -1.01124E+06    -86.7744E+06     6.06903E+06    -20.1627E+06         23.2055
            1609     9.84156E-03     82.5721E-03         2.22846         1.92635        -6.92321         1.90583        -6.90269         2.22846    -734.872E-03     32.6349E-03    -16.1414E-03    -16.4935E-03    -15.9434E-03     32.0848E-03    -16.1414E-03     10.3207E-03     7.00359E+06     1.51941E+06    -81.6573E+06     1.38128E+06    -76.5945E+06     2.07888E+06    -20.4451E+06         23.4716
            1610     10.8259E-03     82.5829E-03         2.20402         2.03727        -7.00396         2.00110        -6.96780         2.20402        -1.14052     32.7109E-03    -16.0603E-03    -16.6506E-03    -15.9562E-03     32.0165E-03    -16.0603E-03     11.6082E-03     8.73445E+06    -5.93025E+06    -68.3637E+06     3.33981E+06    -62.9691E+06    -5.93025E+06    -19.5895E+06         23.8297
            1611     11.8102E-03     82.5955E-03         2.19116         2.11366        -7.05524         2.08034        -7.02193         2.19116        -1.10315     32.6119E-03    -15.9855E-03    -16.6264E-03    -15.8611E-03     31.8466E-03    -15.9855E-03     12.1804E-03     10.8976E+06    -10.7073E+06    -46.6716E+06     4.24226E+06    -40.0163E+06    -10.7073E+06    -17.9868E+06         24.3349
            1612     12.7946E-03     82.6074E-03         2.18509         2.15045        -7.07239         2.11922        -7.04116         2.18509        -1.07123     32.6094E-03    -15.9029E-03    -16.7065E-03    -15.6795E-03     31.5824E-03    -15.9029E-03     13.9608E-03     16.5206E+06    -12.6507E+06    -26.7494E+06     5.17944E+06    -12.9996E+06    -15.0594E+06    -17.3468E+06         25.0690
            1613     13.7794E-03     82.6236E-03         2.18164         2.14610        -7.05576         2.12175        -7.03141         2.18164    -939.795E-03     32.5934E-03    -15.7496E-03    -16.8438E-03    -15.4912E-03     31.2408E-03    -15.7496E-03     16.1242E-03     27.8951E+06    -5.34966E+06    -31.0823E+06     7.47398E+06     15.0714E+06    -31.0823E+06    -14.5165E+06         26.1311
            1614     14.7646E-03     82.6401E-03         2.17800         2.11917        -7.02876         2.09231        -7.00190         2.17800    -978.486E-03     32.7475E-03    -15.5557E-03    -17.1918E-03    -15.4838E-03     31.0395E-03    -15.5557E-03     18.0881E-03     57.0946E+06     3.82320E+06    -53.0814E+06       6.946E+06     53.9719E+06    -53.0814E+06    -9.18249E+06         27.6381
            1615     15.7490E-03     82.6607E-03         2.17246         2.06021        -6.97697         2.04176        -6.95853         2.17246    -700.941E-03     32.5905E-03    -15.3346E-03    -17.2559E-03    -15.4603E-03     30.7949E-03    -15.3346E-03     18.5459E-03     107.551E+06     1.97604E+06    -79.6478E+06     2.30395E+06     107.223E+06    -79.6478E+06    -4.62508E+06         29.6839
            1616     16.7342E-03     82.6781E-03         2.16423         1.99309        -6.92083         1.99198        -6.91972         2.16423    -135.704E-03     31.2524E-03    -14.8559E-03    -16.3964E-03    -14.8550E-03     30.3820E-03    -15.5271E-03     6.03670E-03     173.535E+06     24.9300E+06    -49.6260E+06    -1.54234E+06     173.495E+06    -23.1133E+06    -2.11313E+06         32.0600
            1617     983.952E-06     83.5445E-03         3.15159         2.37964        -8.39284         3.04251        -8.28375         2.37964    -716.630E-03     32.6656E-03    -16.2871E-03    -16.3786E-03    -16.3614E-03     32.6485E-03    -16.2871E-03     1.71331E-03    -24.9821E+06    -26.2360E+06    -163.200E+06    -25.9629E+06    -163.062E+06    -25.3933E+06    -3.91820E+06         22.4200
            1618     1.96797E-03     83.5471E-03         2.79240         2.66086        -8.29575         2.72122        -8.27651         2.71281     549.963E-03     32.6736E-03    -16.3289E-03    -16.3447E-03    -16.2926E-03     32.6238E-03    -16.3313E-03     3.04777E-03    -21.5533E+06    -23.8895E+06    -158.107E+06    -24.3133E+06    -157.684E+06    -21.5533E+06    -7.31879E+06         22.4433
            1619     2.95200E-03     83.5507E-03         2.71869         2.59392        -8.11433         2.59401        -8.09314         2.69742     651.804E-03     32.6871E-03    -16.3312E-03    -16.3558E-03    -16.2549E-03     32.5884E-03    -16.3336E-03     4.34981E-03    -15.9633E+06    -20.9131E+06    -151.179E+06    -21.7873E+06    -150.305E+06    -15.9633E+06    -10.4583E+06         22.4821
            1620     3.93610E-03     83.5558E-03         2.67868         2.49027        -7.94777         2.47578        -7.91201         2.65741         1.20911     32.7048E-03    -16.3285E-03    -16.3763E-03    -16.2188E-03     32.5473E-03    -16.3285E-03     5.52374E-03    -10.0087E+06    -17.1079E+06    -140.117E+06    -18.6246E+06    -138.601E+06    -10.0087E+06    -13.3962E+06         22.5382
            1621     4.92013E-03     83.5618E-03         2.60275         2.31031        -7.66618         2.28195        -7.63782         2.60275         1.05654     32.6924E-03    -16.3166E-03    -16.3759E-03    -16.1538E-03     32.4704E-03    -16.3166E-03     6.56791E-03    -4.48328E+06    -12.7856E+06    -128.183E+06    -15.1516E+06    -125.817E+06    -4.48328E+06    -16.2012E+06         22.6142
            1622     5.90430E-03     83.5689E-03         2.53390         2.10696        -7.38127         2.08956        -7.36386         2.53390     782.195E-03     32.6625E-03    -16.3005E-03    -16.3620E-03    -16.0772E-03     32.3778E-03    -16.3005E-03     7.44057E-03     730.160E+03    -8.10070E+06    -118.454E+06    -11.3664E+06    -115.188E+06     730.160E+03    -18.6050E+06         22.7133
            1623     6.88857E-03     83.5767E-03         2.46253         2.04402        -7.23596         1.97692        -7.16886         2.46253         1.35706     32.6650E-03    -16.2798E-03    -16.3852E-03    -16.0415E-03     32.3213E-03    -16.2798E-03     8.17593E-03     4.77507E+06    -3.50917E+06    -110.695E+06    -7.63160E+06    -106.573E+06     4.77507E+06    -20.5346E+06         22.8398
            1624     7.87287E-03     83.5851E-03         2.40100         2.03113        -7.16443         1.96351        -7.09680         2.40100         1.37076     32.6872E-03    -16.2448E-03    -16.4423E-03    -16.0346E-03     32.2794E-03    -16.2448E-03     8.90625E-03     5.82661E+06     667.411E+03    -101.373E+06    -4.33340E+06    -96.3720E+06     5.82661E+06    -21.9406E+06         22.9999
            1625     8.85704E-03     83.5945E-03         2.35346         1.98352        -7.07938         1.97755        -7.07342         2.35346     155.015E-03     32.6374E-03    -16.2026E-03    -16.4349E-03    -15.9781E-03     32.1807E-03    -16.2026E-03     9.42330E-03     6.38556E+06     4.30671E+06    -90.2042E+06    -928.021E+03    -84.3360E+06     5.75210E+06    -22.7825E+06         23.2038
            1626     9.84148E-03     83.6040E-03         2.31807         2.03070        -7.09732         2.01107        -7.07768         2.31807    -722.196E-03     32.6185E-03    -16.1443E-03    -16.4742E-03    -15.9239E-03     32.0682E-03    -16.1443E-03     10.3103E-03     8.75804E+06     2.23380E+06    -80.9474E+06     2.29982E+06    -74.4892E+06     2.23380E+06    -23.1214E+06         23.4687
            1627     10.8258E-03     83.6154E-03         2.29335         2.09951        -7.14268         2.06548        -7.10865         2.29335        -1.11636     32.6575E-03    -16.0592E-03    -16.5983E-03    -15.9040E-03     31.9633E-03    -16.0592E-03     11.5996E-03     11.4213E+06    -6.29719E+06    -70.0068E+06     4.60414E+06    -63.1897E+06    -6.29719E+06    -22.4934E+06         23.8254
            1628     11.8104E-03     83.6274E-03         2.27833         2.17208        -7.18930         2.14097        -7.15818         2.27833        -1.07554     32.5762E-03    -15.9801E-03    -16.5961E-03    -15.8308E-03     31.8109E-03    -15.9801E-03     12.1729E-03     14.8587E+06    -10.7376E+06    -48.6315E+06     6.83659E+06    -40.6094E+06    -10.7376E+06    -20.6970E+06         24.3290
            1629     12.7950E-03     83.6398E-03         2.27037         2.21169        -7.20910         2.18315        -7.18056         2.27037        -1.03258     32.5852E-03    -15.8948E-03    -16.6904E-03    -15.6842E-03     31.5790E-03    -15.8948E-03     13.8384E-03     20.5131E+06    -12.9127E+06    -26.8406E+06     7.50493E+06    -11.8844E+06    -14.8608E+06    -19.4888E+06         25.0619
            1630     13.7796E-03     83.6552E-03         2.26465         2.18484        -7.17107         2.16366        -7.14989         2.26465    -881.274E-03     32.6768E-03    -15.7391E-03    -16.9377E-03    -15.6095E-03     31.3485E-03    -15.7391E-03     16.0050E-03     27.4365E+06    -10.3106E+06    -34.6943E+06     5.86646E+06     11.2595E+06    -34.6943E+06    -17.7938E+06         26.1228
            1631     14.7640E-03     83.6722E-03         2.25781         2.14222        -7.12862         2.11921        -7.10561         2.25781    -910.327E-03     32.7691E-03    -15.5548E-03    -17.2143E-03    -15.5183E-03     31.0731E-03    -15.5548E-03     18.0359E-03     53.0475E+06    -491.341E+03    -56.6647E+06     4.96801E+06     47.5881E+06    -56.6647E+06    -11.8496E+06         27.6292
            1632     15.7492E-03     83.6926E-03         2.24873         2.07597        -7.07091         2.06045        -7.05539         2.24873    -634.280E-03     32.5169E-03    -15.3424E-03    -17.1744E-03    -15.3735E-03     30.7160E-03    -15.3424E-03     18.5451E-03     102.780E+06     2.45962E+06    -79.9597E+06     2.94192E+06     102.298E+06    -79.9597E+06    -5.02403E+06         29.6814
            1633     16.7333E-03     83.7105E-03         2.23628         1.98270        -6.99051         1.98194        -6.98975         2.23628    -117.476E-03     31.2392E-03    -14.8414E-03    -16.3978E-03    -14.8182E-03     30.3420E-03    -15.5239E-03     6.03221E-03     170.498E+06     24.6959E+06    -49.0393E+06    -319.378E+03     170.460E+06    -23.9857E+06    -1.97596E+06         32.0782
            1634     984.000E-06     84.5772E-03         3.46006         2.18409        -8.48092         3.06608        -8.08694         2.18409        -1.43388     32.6674E-03    -16.2951E-03    -16.3722E-03    -16.3546E-03     32.6497E-03    -16.2951E-03     1.75353E-03    -23.8919E+06    -25.1028E+06    -155.796E+06    -24.8617E+06    -155.626E+06    -24.3031E+06    -4.26157E+06         22.4194
            1635     1.96795E-03     84.5793E-03         2.78580         2.62197        -8.21951         2.69050        -8.14028         2.63805         1.00847     32.6754E-03    -16.3298E-03    -16.3456E-03    -16.2935E-03     32.6256E-03    -16.3321E-03     3.04770E-03    -20.5193E+06    -22.7876E+06    -150.993E+06    -23.3186E+06    -150.462E+06    -20.5193E+06    -7.99803E+06         22.4426
            1636     2.95201E-03     84.5833E-03         2.71302         2.63556        -8.12068         2.65531        -8.07904         2.65164     663.641E-03     32.6870E-03    -16.3320E-03    -16.3550E-03    -16.2540E-03     32.5884E-03    -16.3344E-03     4.34917E-03    -15.0024E+06    -19.5541E+06    -144.763E+06    -20.6699E+06    -143.647E+06    -15.0024E+06    -11.5596E+06         22.4813
            1637     3.93601E-03     84.5881E-03         2.70550         2.56868        -8.02276         2.58029        -7.97298         2.64412         1.38816     32.6811E-03    -16.3259E-03    -16.3552E-03    -16.1978E-03     32.5237E-03    -16.3259E-03     5.51972E-03    -9.21380E+06    -15.4503E+06    -134.366E+06    -17.3764E+06    -132.440E+06    -9.21380E+06    -14.8360E+06         22.5375
            1638     4.92020E-03     84.5943E-03         2.61230         2.40532        -7.74677         2.37499        -7.71644         2.61230         1.09534     32.6713E-03    -16.3102E-03    -16.3611E-03    -16.1390E-03     32.4492E-03    -16.3102E-03     6.56593E-03    -3.76399E+06    -11.0546E+06    -122.797E+06    -13.9889E+06    -119.863E+06    -3.76399E+06    -17.7245E+06         22.6135
            1639     5.90432E-03     84.6011E-03         2.56012         2.24126        -7.51417         2.21881        -7.49173         2.56012     870.601E-03     32.6678E-03    -16.2953E-03    -16.3725E-03    -16.0891E-03     32.3844E-03    -16.2953E-03     7.42560E-03     1.30901E+06    -6.65616E+06    -113.891E+06    -10.6811E+06    -109.866E+06     1.30901E+06    -20.2902E+06         22.7126
            1640     6.88859E-03     84.6089E-03         2.50735         2.22797        -7.43986         2.16400        -7.37589         2.50735         1.33978     32.6882E-03    -16.2786E-03    -16.4096E-03    -16.0668E-03     32.3454E-03    -16.2786E-03     8.16694E-03     5.26290E+06    -2.15421E+06    -106.783E+06    -7.24865E+06    -101.689E+06     5.26290E+06    -22.4330E+06         22.8389
            1641     7.87272E-03     84.6175E-03         2.46622         2.25800        -7.42731         2.19377        -7.36308         2.46622         1.35062     32.6879E-03    -16.2464E-03    -16.4416E-03    -16.0367E-03     32.2831E-03    -16.2464E-03     8.87660E-03     6.24092E+06     2.41009E+06    -98.6168E+06    -3.80715E+06    -92.3996E+06     6.24092E+06    -24.1883E+06         22.9985
            1642     8.85709E-03     84.6267E-03         2.43668         2.20416        -7.35286         2.19968        -7.34838         2.43668     164.293E-03     32.6421E-03    -16.2026E-03    -16.4395E-03    -15.9819E-03     32.1845E-03    -16.2026E-03     9.43063E-03     7.37507E+06     5.10237E+06    -88.6459E+06    -574.309E+03    -81.1901E+06     5.59593E+06    -25.5348E+06         23.2017
            1643     9.84128E-03     84.6363E-03         2.41243         2.19008        -7.32346         2.17353        -7.30690         2.41243    -655.530E-03     32.6237E-03    -16.1445E-03    -16.4791E-03    -15.9265E-03     32.0711E-03    -16.1445E-03     10.3359E-03     10.7442E+06     1.83370E+06    -80.4193E+06     2.44535E+06    -72.1205E+06     1.83370E+06    -26.1572E+06         23.4656
            1644     10.8259E-03     84.6473E-03         2.39100         2.18770        -7.30234         2.15902        -7.27365         2.39100        -1.03948     32.6268E-03    -16.0611E-03    -16.5657E-03    -15.8730E-03     31.9340E-03    -16.0611E-03     11.5784E-03     13.5806E+06    -6.54126E+06    -71.2764E+06     4.90887E+06    -62.6047E+06    -6.54126E+06    -25.6194E+06         23.8207
            1645     11.8103E-03     84.6596E-03         2.37323         2.19827        -7.28996         2.17198        -7.26367         2.37323    -996.938E-03     32.5427E-03    -15.9762E-03    -16.5665E-03    -15.8065E-03     31.7828E-03    -15.9762E-03     12.1234E-03     16.4811E+06    -12.3103E+06    -51.9465E+06     6.00827E+06    -41.4736E+06    -12.3103E+06    -24.1708E+06         24.3227
            1646     12.7947E-03     84.6718E-03         2.35973         2.22049        -7.28947         2.19578        -7.26476         2.35973    -966.958E-03     32.5720E-03    -15.9018E-03    -16.6702E-03    -15.6955E-03     31.5973E-03    -15.9018E-03     13.6337E-03     20.9162E+06    -14.0266E+06    -27.1476E+06     6.69206E+06    -12.7042E+06    -14.2459E+06    -21.1606E+06         25.0547
            1647     13.7794E-03     84.6873E-03         2.34918         2.21210        -7.27135         2.19431        -7.25356         2.34918    -813.865E-03     32.7675E-03    -15.7633E-03    -17.0042E-03    -15.6825E-03     31.4458E-03    -15.7633E-03     15.9853E-03     25.9844E+06    -11.0696E+06    -31.7280E+06     5.43136E+06     9.37462E+06    -31.6192E+06    -17.7715E+06         26.1146
            1648     14.7641E-03     84.7045E-03         2.33815         2.15185        -7.21107         2.13169        -7.19092         2.33815    -853.758E-03     32.8849E-03    -15.5705E-03    -17.3144E-03    -15.6332E-03     31.2037E-03    -15.5705E-03     18.0195E-03     48.5992E+06    -4.81178E+06    -58.2695E+06     1.92104E+06     41.8664E+06    -58.2695E+06    -14.5204E+06         27.6201
            1649     15.7487E-03     84.7240E-03         2.32379         2.05443        -7.12257         2.04026        -7.10839         2.32379    -606.179E-03     32.3081E-03    -15.3472E-03    -16.9609E-03    -15.1980E-03     30.5451E-03    -15.3472E-03     18.2861E-03     95.6932E+06    -1.65591E+06    -83.9820E+06    -328.202E+03     94.3655E+06    -83.9820E+06    -8.44229E+06         29.6780
            1650     16.7347E-03     84.7428E-03         2.30576         1.96533        -7.04233         1.96469        -7.04169         2.30576    -100.186E-03     31.0865E-03    -14.9306E-03    -16.1559E-03    -14.6747E-03     30.1965E-03    -15.5218E-03     5.96911E-03     166.888E+06     23.8163E+06    -50.0802E+06    -745.858E+03     166.752E+06    -25.3824E+06    -2.34784E+06         32.0952
            1651     983.941E-06     85.6094E-03         3.94498         2.12230        -8.88098         3.14768        -8.08368         2.12230        -2.07746     32.6608E-03    -16.2846E-03    -16.3762E-03    -16.3584E-03     32.6430E-03    -16.2846E-03     1.76718E-03    -22.2741E+06    -23.3544E+06    -147.832E+06    -23.2608E+06    -147.621E+06    -22.5789E+06    -4.63746E+06         22.4189
            1652     1.96799E-03     85.6120E-03         2.84268         2.61136        -8.22813         2.63754        -8.04715         2.63552         1.42889     32.6879E-03    -16.3331E-03    -16.3549E-03    -16.3054E-03     32.6384E-03    -16.3331E-03     3.04134E-03    -18.5107E+06    -20.7266E+06    -143.130E+06    -21.4081E+06    -142.448E+06    -18.5107E+06    -8.82020E+06         22.4422
            1653     2.95190E-03     85.6155E-03         2.67161         2.60264        -8.00937         2.57150        -7.93342         2.62680     661.439E-03     32.6883E-03    -16.3373E-03    -16.3510E-03    -16.2527E-03     32.5900E-03    -16.3373E-03     4.34035E-03    -13.1669E+06    -17.3508E+06    -137.556E+06    -18.7644E+06    -136.143E+06    -13.1669E+06    -12.7598E+06         22.4809
            1654     3.93605E-03     85.6206E-03         2.65209         2.55268        -7.91531         2.52627        -7.84409         2.60728         1.54779     32.6658E-03    -16.3255E-03    -16.3403E-03    -16.1829E-03     32.5084E-03    -16.3255E-03     5.51844E-03    -7.72356E+06    -13.2857E+06    -127.926E+06    -15.6670E+06    -125.545E+06    -7.72356E+06    -16.1723E+06         22.5370
            1655     4.92013E-03     85.6265E-03         2.60325         2.48367        -7.78140         2.46887        -7.74861         2.58526         1.11021     32.6624E-03    -16.3080E-03    -16.3543E-03    -16.1342E-03     32.4422E-03    -16.3080E-03     6.53798E-03    -2.35257E+06    -8.79044E+06    -117.170E+06    -12.3434E+06    -113.617E+06    -2.35257E+06    -19.1623E+06         22.6130
            1656     5.90437E-03     85.6336E-03         2.58151         2.44850        -7.71325         2.43885        -7.68523         2.56314     957.252E-03     32.6960E-03    -16.2966E-03    -16.3993E-03    -16.1184E-03     32.4150E-03    -16.2966E-03     7.39687E-03     2.91752E+06    -4.26548E+06    -108.682E+06    -9.08625E+06    -103.862E+06     2.91752E+06    -21.8201E+06         22.7119
            1657     6.88841E-03     85.6413E-03         2.57472         2.44964        -7.69765         2.41804        -7.63527         2.54394         1.34174     32.7104E-03    -16.2824E-03    -16.4281E-03    -16.0860E-03     32.3684E-03    -16.2824E-03     8.16170E-03     6.45791E+06     249.172E+03    -102.480E+06    -5.86566E+06    -96.3654E+06     6.45791E+06    -24.2376E+06         22.8377
            1658     7.87273E-03     85.6499E-03         2.56404         2.46883        -7.70391         2.44012        -7.64094         2.52977         1.36579     32.6679E-03    -16.2488E-03    -16.4192E-03    -16.0145E-03     32.2633E-03    -16.2488E-03     8.87018E-03     7.44771E+06     4.59782E+06    -95.4216E+06    -2.56154E+06    -87.8510E+06     7.03645E+06    -26.4218E+06         22.9967
            1659     8.85695E-03     85.6589E-03         2.52428         2.44069        -7.63945         2.44084        -7.63574         2.52042     217.121E-03     32.6220E-03    -16.2020E-03    -16.4200E-03    -15.9602E-03     32.1622E-03    -16.2020E-03     9.44918E-03     9.54883E+06     6.10410E+06    -86.3015E+06     449.778E+03    -77.2479E+06     6.14954E+06    -27.9386E+06         23.1992
            1660     9.84146E-03     85.6687E-03         2.51006         2.38643        -7.58119         2.37352        -7.56828         2.51006    -546.732E-03     32.6306E-03    -16.1437E-03    -16.4869E-03    -15.9384E-03     32.0821E-03    -16.1437E-03     10.3048E-03     12.6005E+06     1.93962E+06    -79.2385E+06     2.60956E+06    -69.2476E+06     1.93962E+06    -28.5691E+06         23.4622
            1661     10.8256E-03     85.6794E-03         2.49445         2.30049        -7.48280         2.27747        -7.45978         2.49445    -943.088E-03     32.6302E-03    -16.0628E-03    -16.5674E-03    -15.8792E-03     31.9420E-03    -16.0628E-03     11.5384E-03     14.6505E+06    -6.92975E+06    -72.0135E+06     3.96087E+06    -61.3238E+06    -6.92975E+06    -28.4260E+06         23.8158
            1662     11.8102E-03     85.6918E-03         2.47477         2.23215        -7.39386         2.21063        -7.37234         2.47477    -905.753E-03     32.5274E-03    -15.9736E-03    -16.5538E-03    -15.7826E-03     31.7562E-03    -15.9736E-03     12.2070E-03     17.8210E+06    -13.8479E+06    -54.5654E+06     5.32192E+06    -42.0664E+06    -13.8479E+06    -27.0137E+06         24.3161
            1663     12.7948E-03     85.7038E-03         2.45463         2.20487        -7.34426         2.18418        -7.32357         2.45463    -884.332E-03     32.6274E-03    -15.8983E-03    -16.7291E-03    -15.7433E-03     31.6416E-03    -15.8983E-03     13.7353E-03     21.5956E+06    -16.6788E+06    -31.2371E+06     6.17862E+06    -15.8201E+06    -16.6788E+06    -23.5405E+06         25.0467
            1664     13.7794E-03     85.7193E-03         2.43591         2.18061        -7.30594         2.16561        -7.29094         2.43591    -744.806E-03     32.8057E-03    -15.7752E-03    -17.0306E-03    -15.7078E-03     31.4830E-03    -15.7752E-03     16.0014E-03     26.7553E+06    -11.4799E+06    -31.8407E+06     6.31093E+06     7.78650E+06    -30.6627E+06    -18.8826E+06         26.1051
            1665     14.7640E-03     85.7365E-03         2.41704         2.11648        -7.24270         2.09927        -7.22548         2.41704    -784.681E-03     32.8645E-03    -15.5782E-03    -17.2863E-03    -15.5783E-03     31.1565E-03    -15.5782E-03     18.1366E-03     46.1551E+06    -2.63514E+06    -57.5604E+06     5.09321E+06     38.4267E+06    -57.5604E+06    -15.7970E+06         27.6094
            1666     15.7483E-03     85.7565E-03         2.39565         2.02075        -7.15378         2.00823        -7.14127         2.39565    -583.762E-03     32.3919E-03    -15.3451E-03    -17.0468E-03    -15.2900E-03     30.6351E-03    -15.3451E-03     18.2760E-03     88.5920E+06    -1.21023E+06    -86.8748E+06     1.00156E+06     86.3802E+06    -86.8748E+06    -11.2662E+06         29.6729
            1667     16.7335E-03     85.7728E-03         2.37220         1.95983        -7.10041         1.95902        -7.09960         2.37220    -109.681E-03     31.0596E-03    -14.8280E-03    -16.2316E-03    -14.7054E-03     30.2244E-03    -15.5191E-03     6.22522E-03     162.063E+06     21.3431E+06    -51.3848E+06    -1.21616E+06     161.816E+06    -28.5791E+06    -3.74340E+06         32.1109
            1668     984.026E-06     86.6422E-03         4.46323         2.01951        -9.25630         3.25206        -8.04512         2.01951        -2.73329     32.6825E-03    -16.2966E-03    -16.3859E-03    -16.3594E-03     32.6651E-03    -16.3056E-03     1.73583E-03    -19.3061E+06    -20.0048E+06    -138.605E+06    -19.9831E+06    -138.307E+06    -19.6262E+06    -5.44306E+06         22.4185
            1669     1.96788E-03     86.6444E-03         2.88831         2.57453        -8.19754         2.55751        -7.91215         2.61995         1.60128     32.6739E-03    -16.3247E-03    -16.3492E-03    -16.2871E-03     32.6242E-03    -16.3371E-03     3.04690E-03    -15.7286E+06    -17.4725E+06    -134.566E+06    -18.3332E+06    -133.690E+06    -15.7439E+06    -9.82441E+06         22.4418
            1670     2.95199E-03     86.6482E-03         2.61030         2.53703        -7.83313         2.45272        -7.72096         2.58244     506.562E-03     32.6825E-03    -16.3327E-03    -16.3498E-03    -16.2477E-03     32.5837E-03    -16.3360E-03     4.35363E-03    -10.3546E+06    -14.1023E+06    -129.803E+06    -15.8325E+06    -128.073E+06    -10.3546E+06    -13.8598E+06         22.4806
            1671     3.93599E-03     86.6529E-03         2.60340         2.53162        -7.80072         2.49659        -7.71570         2.55340         1.57796     32.6857E-03    -16.3263E-03    -16.3594E-03    -16.2022E-03     32.5285E-03    -16.3263E-03     5.51748E-03    -5.05811E+06    -10.1139E+06    -120.954E+06    -12.9889E+06    -118.079E+06    -5.05811E+06    -17.4360E+06         22.5367
            1672     4.92016E-03     86.6591E-03         2.66327         2.52966        -7.84306         2.60521        -7.80679         2.55145         1.11161     32.6921E-03    -16.3128E-03    -16.3793E-03    -16.1591E-03     32.4718E-03    -16.3128E-03     6.54187E-03     94.0215E+03    -5.45068E+06    -110.919E+06    -9.73462E+06    -106.635E+06     94.0215E+03    -20.6824E+06         22.6124
            1673     5.90420E-03     86.6659E-03         2.70614         2.56558        -7.91919         2.67107        -7.88412         2.56558         1.07703     32.7036E-03    -16.3022E-03    -16.4014E-03    -16.1179E-03     32.4201E-03    -16.3022E-03     7.42904E-03     5.21872E+06    -408.530E+03    -103.353E+06    -6.10515E+06    -97.6564E+06     5.21872E+06    -23.4638E+06         22.7108
            1674     6.88847E-03     86.6739E-03         2.74882         2.58214        -7.96780         2.68793        -7.90691         2.58214         1.36746     32.6927E-03    -16.2851E-03    -16.4076E-03    -16.0637E-03     32.3488E-03    -16.2851E-03     8.18147E-03     8.64685E+06     4.18117E+06    -97.7231E+06    -2.87106E+06    -90.6709E+06     8.64685E+06    -25.8073E+06         22.8361
            1675     7.87263E-03     86.6821E-03         2.76243         2.59670        -7.99204         2.70112        -7.93073         2.59670         1.38497     32.6675E-03    -16.2487E-03    -16.4188E-03    -16.0122E-03     32.2609E-03    -16.2487E-03     8.89024E-03     10.0787E+06     7.22090E+06    -91.2648E+06    -285.950E+03    -82.5406E+06     8.86134E+06    -28.0870E+06         22.9945
            1676     8.85705E-03     86.6914E-03         2.67273         2.60275        -7.91145         2.66484        -7.90795         2.60714     291.432E-03     32.6294E-03    -16.2022E-03    -16.4273E-03    -15.9661E-03     32.1683E-03    -16.2022E-03     9.46502E-03     12.5271E+06     7.56846E+06    -83.3379E+06     1.98321E+06    -72.7940E+06     7.56846E+06    -29.9287E+06         23.1964
            1677     9.84123E-03     86.7008E-03         2.62426         2.54965        -7.81433         2.55590        -7.80492         2.60860    -415.471E-03     32.6230E-03    -16.1448E-03    -16.4781E-03    -15.9300E-03     32.0748E-03    -16.1448E-03     10.2993E-03     14.9395E+06     2.89800E+06    -77.9502E+06     3.67153E+06    -66.6822E+06     2.89800E+06    -30.3151E+06         23.4585
            1678     10.8258E-03     86.7118E-03         2.59825         2.42218        -7.66801         2.40529        -7.65113         2.59825    -821.439E-03     32.6235E-03    -16.0625E-03    -16.5610E-03    -15.8765E-03     31.9390E-03    -16.0625E-03     11.5076E-03     16.7644E+06    -6.27496E+06    -71.0129E+06     4.53775E+06    -58.7862E+06    -6.27496E+06    -30.2871E+06         23.8108
            1679     11.8102E-03     86.7235E-03         2.57829         2.29826        -7.52400         2.28155        -7.50729         2.57829    -807.000E-03     32.5265E-03    -15.9724E-03    -16.5541E-03    -15.7822E-03     31.7546E-03    -15.9724E-03     12.2117E-03     19.5398E+06    -14.3320E+06    -56.5461E+06     5.01274E+06    -42.0190E+06    -14.3320E+06    -29.6989E+06         24.3091
            1680     12.7948E-03     86.7362E-03         2.55319         2.20542        -7.40870         2.18905        -7.39232         2.55319    -791.074E-03     32.6707E-03    -15.8986E-03    -16.7721E-03    -15.7664E-03     31.6650E-03    -15.8986E-03     13.8785E-03     23.1198E+06    -17.9298E+06    -36.2714E+06     5.92944E+06    -19.0810E+06    -17.9298E+06    -26.5373E+06         25.0377
            1681     13.7792E-03     86.7514E-03         2.52549         2.11476        -7.30243         2.10373        -7.29141         2.52549    -635.190E-03     32.7851E-03    -15.7692E-03    -17.0158E-03    -15.6898E-03     31.4591E-03    -15.7692E-03     16.0193E-03     29.7382E+06    -14.1895E+06    -35.6565E+06     7.21776E+06     5.14872E+06    -32.4743E+06    -22.8190E+06         26.0942
            1682     14.7639E-03     86.7685E-03         2.49624         2.04095        -7.22412         2.02852        -7.21169         2.49624    -663.135E-03     32.7027E-03    -15.5691E-03    -17.1337E-03    -15.4293E-03     30.9983E-03    -15.5691E-03     18.0513E-03     45.7913E+06    -3.98836E+06    -58.7539E+06     7.15359E+06     34.6494E+06    -58.7539E+06    -18.4053E+06         27.5974
            1683     15.7497E-03     86.7877E-03         2.46648         1.97934        -7.16752         1.97017        -7.15834         2.46648    -499.387E-03     32.5129E-03    -15.3438E-03    -17.1691E-03    -15.3872E-03     30.7310E-03    -15.3438E-03     18.4473E-03     82.1052E+06     1.55774E+06    -86.6122E+06     4.15903E+06     79.5039E+06    -86.6122E+06    -11.4250E+06         29.6671
            1684     16.7337E-03     86.8061E-03         2.43720         1.94176        -7.14119         1.94114        -7.14057         2.43720    -107.292E-03     31.1780E-03    -14.7422E-03    -16.4358E-03    -14.8151E-03     30.3242E-03    -15.5090E-03     6.37346E-03     155.908E+06     20.3011E+06    -52.0678E+06    -110.987E+03     155.640E+06    -31.3880E+06    -4.14919E+06         32.1270
            1685     983.819E-06     87.6745E-03         4.81775         1.81206        -9.34852         3.16469        -7.69546         1.81206        -3.32366     32.6877E-03    -16.3030E-03    -16.3847E-03    -16.3501E-03     32.6704E-03    -16.3202E-03     1.73565E-03    -15.0059E+06    -15.5184E+06    -128.415E+06    -15.6330E+06    -128.047E+06    -15.2598E+06    -5.91665E+06         22.4182
            1686     1.96799E-03     87.6770E-03         2.88565         2.45639        -8.02041         2.46141        -7.62229         2.48251         1.69244     32.6538E-03    -16.3138E-03    -16.3400E-03    -16.2694E-03     32.6038E-03    -16.3344E-03     3.05186E-03    -11.9881E+06    -13.4377E+06    -125.160E+06    -14.4915E+06    -124.091E+06    -12.0033E+06    -10.6188E+06         22.4415
            1687     2.95196E-03     87.6805E-03         2.65024         2.45154        -7.73395         2.48352        -7.59336         2.47766     300.701E-03     32.6888E-03    -16.3299E-03    -16.3589E-03    -16.2567E-03     32.5899E-03    -16.3332E-03     4.35766E-03    -6.55566E+06    -10.0451E+06    -121.314E+06    -12.1592E+06    -119.200E+06    -6.55566E+06    -14.9859E+06         22.4803
            1688     3.93604E-03     87.6856E-03         2.74103         2.49770        -7.85039         2.65307        -7.76243         2.49770         1.53535     32.7128E-03    -16.3290E-03    -16.3838E-03    -16.2262E-03     32.5552E-03    -16.3290E-03     5.52563E-03    -1.13099E+06    -5.25179E+06    -113.505E+06    -8.75892E+06    -109.998E+06    -1.13099E+06    -18.9715E+06         22.5362
            1689     4.92004E-03     87.6914E-03         2.82447         2.54132        -7.97029         2.78400        -7.92982         2.54132         1.11334     32.7090E-03    -16.3157E-03    -16.3933E-03    -16.1700E-03     32.4857E-03    -16.3157E-03     6.58741E-03     3.47668E+06    -226.778E+03    -104.240E+06    -5.30620E+06    -99.1601E+06     3.47668E+06    -22.3033E+06         22.6114
            1690     5.90425E-03     87.6986E-03         2.89713         2.58803        -8.08458         2.85522        -8.04267         2.58803         1.18615     32.6909E-03    -16.3036E-03    -16.3874E-03    -16.1014E-03     32.4049E-03    -16.3036E-03     7.46137E-03     8.19977E+06     4.37393E+06    -97.8400E+06    -2.20310E+06    -91.2629E+06     8.19977E+06    -25.0211E+06         22.7092
            1691     6.88843E-03     87.7060E-03         2.96142         2.63012        -8.18720         2.90271        -8.12848         2.63012         1.38379     32.6746E-03    -16.2842E-03    -16.3904E-03    -16.0454E-03     32.3296E-03    -16.2842E-03     8.19083E-03     11.6749E+06     8.90782E+06    -92.8935E+06     899.249E+03    -84.8849E+06     11.6749E+06    -27.3564E+06         22.8340
            1692     7.87278E-03     87.7146E-03         2.99437         2.66693        -8.25056         2.93577        -8.19196         2.66693         1.38152     32.6759E-03    -16.2474E-03    -16.4284E-03    -16.0198E-03     32.2672E-03    -16.2474E-03     8.91417E-03     14.0184E+06     11.3735E+06    -86.3236E+06     3.55109E+06    -76.6094E+06     12.1266E+06    -29.4700E+06         22.9920
            1693     8.85692E-03     87.7235E-03         2.87637         2.69435        -8.16198         2.87279        -8.15840         2.69435     351.938E-03     32.6304E-03    -16.2032E-03    -16.4272E-03    -15.9643E-03     32.1675E-03    -16.2032E-03     9.48275E-03     16.4711E+06     10.6101E+06    -79.7146E+06     5.14313E+06    -68.3867E+06     10.6101E+06    -30.9732E+06         23.1933
            1694     9.84142E-03     87.7332E-03         2.75937         2.66945        -8.02539         2.71673        -8.01898         2.70568    -263.962E-03     32.6177E-03    -16.1444E-03    -16.4732E-03    -15.9192E-03     32.0637E-03    -16.1444E-03     10.3503E-03     18.4644E+06     5.22770E+06    -75.9529E+06     6.19726E+06    -63.6858E+06     5.22770E+06    -31.7295E+06         23.4547
            1695     10.8257E-03     87.7437E-03         2.69951         2.54016        -7.84024         2.52918        -7.82926         2.69951    -664.508E-03     32.6519E-03    -16.0605E-03    -16.5913E-03    -15.9085E-03     31.9690E-03    -16.0605E-03     11.5060E-03     20.1924E+06    -4.51183E+06     -69.349E+06     6.88893E+06    -56.0455E+06    -4.51183E+06    -31.7738E+06         23.8057
            1696     11.8102E-03     87.7560E-03         2.67977         2.37696        -7.66015         2.36468        -7.64788         2.67977    -691.384E-03     32.5618E-03    -15.9746E-03    -16.5871E-03    -15.8217E-03     31.7963E-03    -15.9746E-03     12.1692E-03     22.5820E+06    -12.8278E+06    -56.3039E+06     6.78660E+06    -40.5085E+06    -12.8278E+06    -31.3475E+06         24.3018
            1697     12.7947E-03     87.7678E-03         2.65145         2.23652        -7.49485         2.22432        -7.48265         2.65145    -679.064E-03     32.6322E-03    -15.8875E-03    -16.7447E-03    -15.7053E-03     31.5928E-03    -15.8875E-03     14.0734E-03     27.6431E+06    -19.5365E+06    -40.4100E+06     7.68992E+06    -20.4568E+06    -19.5365E+06    -30.6967E+06         25.0280
            1698     13.7794E-03     87.7841E-03         2.61735         2.09151        -7.33220         2.08470        -7.32540         2.61735    -479.849E-03     32.7011E-03    -15.7521E-03    -16.9489E-03    -15.6165E-03     31.3686E-03    -15.7521E-03     16.0437E-03     32.5575E+06    -18.4931E+06    -39.4457E+06     8.60146E+06     1.03928E+06    -35.0220E+06    -27.0063E+06         26.0828
            1699     14.7644E-03     87.7995E-03         2.57936         1.97507        -7.20679         1.96715        -7.19886         2.57936    -505.172E-03     32.7288E-03    -15.5689E-03    -17.1599E-03    -15.4865E-03     31.0554E-03    -15.5689E-03     17.8914E-03     43.4960E+06    -7.35753E+06    -58.7855E+06     6.31423E+06     29.8243E+06    -58.7855E+06    -19.8558E+06         27.5853
            1700     15.7484E-03     87.8202E-03         2.54056         1.91264        -7.14668         1.90636        -7.14040         2.54056    -390.481E-03     32.4736E-03    -15.3422E-03    -17.1314E-03    -15.3213E-03     30.6635E-03    -15.3422E-03     18.5808E-03     74.1955E+06    -1.13249E+06    -88.3902E+06     1.81881E+06     71.2442E+06    -88.3902E+06    -11.9967E+06         29.6613
            1701     16.7342E-03     87.8374E-03         2.50374         1.89631        -7.13948         1.89603        -7.13920         2.50374    -72.0100E-03     31.1437E-03    -14.8222E-03    -16.3215E-03    -14.7535E-03     30.2349E-03    -15.4814E-03     6.09678E-03     148.937E+06     15.6620E+06    -53.8107E+06    -1.09960E+06     148.585E+06    -36.6967E+06    -4.92273E+06         32.1445
            1702     984.066E-06     88.7074E-03         5.05696         1.59114        -9.29675         2.99498        -7.23477         1.59114        -3.56832     32.6461E-03    -16.2708E-03    -16.3753E-03    -16.3499E-03     32.6289E-03    -16.2790E-03     1.72233E-03    -9.35862E+06    -10.1369E+06    -118.133E+06    -10.2752E+06    -117.756E+06    -9.59722E+06    -5.87673E+06         22.4178
            1703     1.96794E-03     88.7094E-03         2.94629         2.31663        -7.87312         2.41242        -7.33925         2.31663         1.95369     32.6830E-03    -16.3182E-03    -16.3648E-03    -16.3068E-03     32.6332E-03    -16.3264E-03     3.04726E-03    -6.36459E+06    -8.16995E+06    -114.507E+06    -9.39986E+06    -113.278E+06    -6.36459E+06    -10.9983E+06         22.4412
            1704     2.95198E-03     88.7133E-03         2.79449         2.38248        -7.75305         2.63542        -7.59397         2.38248     227.056E-03     32.7011E-03    -16.3364E-03    -16.3647E-03    -16.2661E-03     32.6025E-03    -16.3364E-03     4.35129E-03    -1.43847E+06    -4.32802E+06    -111.651E+06    -6.93577E+06    -109.044E+06    -1.43847E+06    -16.3009E+06         22.4797
            1705     3.93598E-03     88.7180E-03         2.95553         2.47339        -7.98476         2.86402        -7.89326         2.47339         1.50663     32.7003E-03    -16.3291E-03    -16.3712E-03    -16.2120E-03     32.5411E-03    -16.3291E-03     5.55019E-03     3.16255E+06     459.380E+03    -105.511E+06    -3.83199E+06    -101.219E+06     3.16255E+06    -20.7076E+06         22.5351
            1706     4.92015E-03     88.7241E-03         3.01390         2.56314        -8.12804         2.97087        -8.08501         2.56314         1.08532     32.6931E-03    -16.3130E-03    -16.3800E-03    -16.1548E-03     32.4678E-03    -16.3130E-03     6.61603E-03     7.57117E+06     5.38372E+06    -97.6601E+06    -589.642E+03    -91.6868E+06     7.57117E+06    -23.9853E+06         22.6097
            1707     5.90427E-03     88.7308E-03         3.05574         2.63548        -8.24041         3.01011        -8.19478         2.63548         1.24836     32.6849E-03    -16.3004E-03    -16.3845E-03    -16.0975E-03     32.3979E-03    -16.3004E-03     7.47349E-03     12.4371E+06     10.2247E+06    -92.0833E+06     2.70101E+06    -84.5597E+06     12.4371E+06    -26.6483E+06         22.7070
            1708     6.88853E-03     88.7387E-03         3.10670         2.69278        -8.34260         3.05091        -8.28680         2.69278         1.37249     32.6798E-03    -16.2811E-03    -16.3987E-03    -16.0520E-03     32.3331E-03    -16.2811E-03     8.21300E-03     16.1420E+06     14.5707E+06    -87.7245E+06     5.85508E+06    -78.6877E+06     15.8208E+06    -29.0395E+06         22.8312
            1709     7.87272E-03     88.7468E-03         3.15587         2.74140        -8.43724         3.10013        -8.38150         2.74140         1.37418     32.6548E-03    -16.2446E-03    -16.4102E-03    -15.9977E-03     32.2423E-03    -16.2446E-03     8.95073E-03     18.8895E+06     16.1102E+06    -81.8423E+06     8.33300E+06    -71.3846E+06     16.2091E+06    -30.6687E+06         22.9887
            1710     8.85715E-03     88.7561E-03         3.05758         2.77973        -8.37792         3.05316        -8.37349         2.77973     433.738E-03     32.6185E-03    -16.2013E-03    -16.4172E-03    -15.9531E-03     32.1544E-03    -16.2013E-03     9.49448E-03     21.6129E+06     15.0642E+06    -75.6352E+06      9.9226E+06    -63.9448E+06     15.0642E+06    -31.6045E+06         23.1896
            1711     9.84147E-03     88.7651E-03         2.89772         2.77907        -8.22396         2.87328        -8.21988         2.79944    -87.9974E-03     32.6384E-03    -16.1428E-03    -16.4956E-03    -15.9412E-03     32.0841E-03    -16.1428E-03     10.3556E-03     23.7029E+06     9.55909E+06    -72.2833E+06     10.7933E+06    -59.3737E+06     9.55909E+06    -32.7323E+06         23.4503
            1712     10.8259E-03     88.7764E-03         2.79728         2.65263        -7.99988         2.64702        -7.99426         2.79728    -481.882E-03     32.6755E-03    -16.0591E-03    -16.6164E-03    -15.9275E-03     31.9866E-03    -16.0591E-03     11.5612E-03     25.0457E+06    -1.22891E+06    -67.8328E+06     11.0149E+06    -53.8020E+06    -1.22891E+06    -33.2356E+06         23.8000
            1713     11.8102E-03     88.7876E-03         2.77788         2.45748        -7.78746         2.45028        -7.78025         2.77788    -532.681E-03     32.5727E-03    -15.9749E-03    -16.5978E-03    -15.8236E-03     31.7985E-03    -15.9749E-03     12.2401E-03     27.7979E+06    -9.22994E+06    -54.9012E+06     11.0538E+06    -38.1571E+06    -9.22994E+06    -32.9096E+06         24.2941
            1714     12.7948E-03     88.8003E-03         2.74749         2.28838        -7.59176         2.28134        -7.58472         2.74749    -516.995E-03     32.5840E-03    -15.8860E-03    -16.6980E-03    -15.6532E-03     31.5392E-03    -15.8860E-03     14.0985E-03     30.7313E+06    -17.0029E+06    -40.5629E+06     9.42753E+06    -19.2591E+06    -17.0029E+06    -32.3919E+06         25.0182
            1715     13.7797E-03     88.8153E-03         2.70963         2.11722        -7.39719         2.11420        -7.39417         2.70963    -309.179E-03     32.6755E-03    -15.7471E-03    -16.9284E-03    -15.5980E-03     31.3451E-03    -15.7471E-03     16.0255E-03     30.4984E+06    -21.7790E+06    -42.2458E+06     6.45315E+06    -4.19765E+06    -35.7820E+06    -28.5820E+06         26.0715
            1716     14.7641E-03     88.8323E-03         2.66582         1.95023        -7.21902         1.94626        -7.21504         2.66582    -339.430E-03     32.7759E-03    -15.5660E-03    -17.2100E-03    -15.5496E-03     31.1156E-03    -15.5660E-03     17.8440E-03     40.2679E+06    -12.2713E+06    -59.8025E+06     4.21566E+06     23.7810E+06    -59.8025E+06    -21.6442E+06         27.5733
            1717     15.7497E-03     88.8510E-03         2.61892         1.84261        -7.10808         1.83895        -7.10442         2.61892    -300.596E-03     32.4434E-03    -15.3425E-03    -17.1009E-03    -15.2996E-03     30.6421E-03    -15.3425E-03     18.5283E-03     67.5701E+06    -2.27377E+06    -89.0214E+06     1.87318E+06     63.4231E+06    -89.0214E+06    -14.1685E+06         29.6553
            1718     16.7342E-03     88.8698E-03         2.57379         1.83750        -7.10837         1.83733        -7.10820         2.57379    -45.0614E-03     31.0676E-03    -14.8244E-03    -16.2432E-03    -14.6938E-03     30.1577E-03    -15.4638E-03     6.08382E-03     141.373E+06     13.2264E+06    -54.0820E+06    -174.291E+03     140.685E+06    -39.9930E+06    -6.34098E+06         32.1624
            1719     984.019E-06     89.7397E-03         5.27931         1.53277        -9.38222         3.03525        -7.13816         1.53277        -3.48570     32.6496E-03    -16.2712E-03    -16.3785E-03    -16.3586E-03     32.6328E-03    -16.2742E-03     1.69674E-03    -2.35383E+06    -3.11476E+06    -107.312E+06    -3.16997E+06    -106.861E+06    -2.74924E+06    -6.36808E+06         22.4170
            1720     1.96800E-03     89.7423E-03         3.07832         2.31783        -7.94419         2.45211        -7.31798         2.31783         2.24079     32.6964E-03    -16.3265E-03    -16.3699E-03    -16.3172E-03     32.6468E-03    -16.3296E-03     3.03959E-03     1.19536E+06    -92.4388E+03    -103.167E+06    -1.42633E+06    -101.759E+06     1.12184E+06    -11.5830E+06         22.4402
            1721     2.95193E-03     89.7457E-03         2.86941         2.40205        -7.78368         2.70368        -7.61795         2.40205     237.588E-03     32.7081E-03    -16.3408E-03    -16.3672E-03    -16.2679E-03     32.6087E-03    -16.3408E-03     4.36555E-03     6.03444E+06     3.77131E+06    -100.920E+06     784.473E+03    -97.9336E+06     6.03444E+06    -17.2146E+06         22.4784
            1722     3.93607E-03     89.7507E-03         3.03962         2.50732        -8.04898         2.94440        -7.95377         2.50732         1.45674     32.6937E-03    -16.3335E-03    -16.3603E-03    -16.2007E-03     32.5341E-03    -16.3335E-03     5.55858E-03     10.4549E+06     8.09377E+06    -96.5432E+06     3.20304E+06    -91.6525E+06     10.4549E+06    -21.9424E+06         22.5332
            1723     4.92017E-03     89.7564E-03         3.15402         2.61235        -8.25893         3.11246        -8.21738         2.61235         1.00188     32.6743E-03    -16.3125E-03    -16.3618E-03    -16.1369E-03     32.4495E-03    -16.3125E-03     6.60744E-03     13.9827E+06     12.5667E+06    -90.5485E+06     5.78532E+06    -83.7254E+06     13.9409E+06    -25.5550E+06         22.6071
            1724     5.90438E-03     89.7635E-03         3.20806         2.70132        -8.40284         3.16325        -8.35803         2.70132         1.25697     32.6689E-03    -16.2939E-03    -16.3750E-03    -16.0865E-03     32.3805E-03    -16.2939E-03     7.48993E-03     18.0989E+06     17.1553E+06    -86.0154E+06     8.83035E+06    -77.4279E+06     17.8363E+06    -28.4922E+06         22.7036
            1725     6.88859E-03     89.7709E-03         3.22988         2.76954        -8.48454         3.17742        -8.43209         2.76954         1.35222     32.6633E-03    -16.2733E-03    -16.3900E-03    -16.0389E-03     32.3121E-03    -16.2733E-03     8.26216E-03     22.0497E+06     20.6299E+06    -82.4458E+06     11.7602E+06    -72.4569E+06     20.9305E+06    -30.6535E+06         22.8271
            1726     7.87292E-03     89.7794E-03         3.26056         2.82340        -8.56530         3.20794        -8.51268         2.82340         1.36157     32.6396E-03    -16.2371E-03    -16.4025E-03    -15.9881E-03     32.2251E-03    -16.2371E-03     8.97204E-03     24.9955E+06     21.0900E+06    -77.7339E+06     13.9667E+06    -66.7051E+06     21.0900E+06    -31.7841E+06         22.9840
            1727     8.85729E-03     89.7880E-03         3.17530         2.86509        -8.52398         3.16932        -8.51800         2.86509     523.507E-03     32.6197E-03    -16.1956E-03    -16.4241E-03    -15.9559E-03     32.1515E-03    -16.1956E-03     9.53484E-03     27.7454E+06     20.2780E+06    -71.6094E+06     15.6156E+06    -59.4795E+06     20.2780E+06    -32.4998E+06         23.1843
            1728     9.84159E-03     89.7979E-03         3.01424         2.88200        -8.38385         3.00400        -8.38018         2.88858     85.4307E-03     32.6304E-03    -16.1396E-03    -16.4908E-03    -15.9327E-03     32.0723E-03    -16.1396E-03     10.3935E-03     29.4258E+06     15.1141E+06    -68.2592E+06     16.3317E+06    -55.1651E+06     15.1141E+06    -33.2761E+06         23.4441
            1729     10.8260E-03     89.8080E-03         2.89439         2.76794        -8.15586         2.77021        -8.15357         2.88982    -295.931E-03     32.6442E-03    -16.0550E-03    -16.5892E-03    -15.8874E-03     31.9424E-03    -16.0550E-03     11.6543E-03     30.4596E+06     4.06609E+06    -65.0831E+06     16.0223E+06    -50.6458E+06     4.06609E+06    -34.1604E+06         23.7924
            1730     11.8106E-03     89.8204E-03         2.87185         2.55039        -7.91381         2.54686        -7.91029         2.87185    -360.904E-03     32.5574E-03    -15.9680E-03    -16.5894E-03    -15.8071E-03     31.7751E-03    -15.9680E-03     12.3013E-03     31.5207E+06    -5.00123E+06    -53.4302E+06     14.5772E+06    -36.4868E+06    -5.00123E+06    -33.6913E+06         24.2850
            1731     12.7952E-03     89.8316E-03         2.84041         2.34935        -7.68326         2.34593        -7.67983         2.84041    -349.087E-03     32.5968E-03    -15.8902E-03    -16.7065E-03    -15.6682E-03     31.5585E-03    -15.8902E-03     14.0520E-03     31.3164E+06    -11.5334E+06    -38.3823E+06     11.8865E+06    -18.9525E+06    -11.5334E+06    -31.0215E+06         25.0076
            1732     13.7796E-03     89.8479E-03         2.79949         2.15208        -7.45814         2.15092        -7.45698         2.79949    -147.233E-03     32.7180E-03    -15.7429E-03    -16.9751E-03    -15.6167E-03     31.3596E-03    -15.7429E-03     16.2003E-03     30.9636E+06    -20.4051E+06    -41.6649E+06     8.83328E+06    -6.77208E+06    -33.1675E+06    -28.6955E+06         26.0595
            1733     14.7647E-03     89.8634E-03         2.75134         1.96238        -7.24774         1.96038        -7.24574         2.75134    -193.514E-03     32.8238E-03    -15.5521E-03    -17.2717E-03    -15.5883E-03     31.1405E-03    -15.5521E-03     18.0004E-03     40.1680E+06    -15.4062E+06    -60.2614E+06     6.47337E+06     18.2885E+06    -60.2614E+06    -24.6218E+06         27.5602
            1734     15.7487E-03     89.8837E-03         2.69905         1.82637        -7.10218         1.82438        -7.10019         2.69905    -222.433E-03     32.4396E-03    -15.3398E-03    -17.0998E-03    -15.3229E-03     30.6627E-03    -15.3398E-03     18.4072E-03     61.1507E+06    -3.01234E+06    -88.8404E+06     3.24579E+06     54.8925E+06    -88.8404E+06    -16.4839E+06         29.6479
            1735     16.7346E-03     89.9002E-03         2.64783         1.80519        -7.08512         1.80505        -7.08498         2.64783    -42.1540E-03     30.9971E-03    -14.7839E-03    -16.2132E-03    -14.6730E-03     30.1225E-03    -15.4495E-03     6.26682E-03     133.026E+06     11.4486E+06    -54.2180E+06     505.674E+03     132.038E+06    -42.2867E+06    -7.37967E+06         32.1790
            1736     983.911E-06     90.7726E-03         5.43383         1.71487        -9.65464         3.24555        -7.46635         1.71487        -3.43585     32.6834E-03    -16.2937E-03    -16.3898E-03    -16.3635E-03     32.6658E-03    -16.3023E-03     1.73481E-03     5.80102E+06     4.67116E+06    -95.0186E+06     4.95434E+06    -94.3848E+06     4.88409E+06    -7.47555E+06         22.4149
            1737     1.96797E-03     90.7748E-03         3.17994         2.49584        -8.15569         2.55616        -7.53190         2.49584         2.27328     32.6639E-03    -16.3230E-03    -16.3409E-03    -16.2815E-03     32.6132E-03    -16.3316E-03     3.07749E-03     9.03332E+06     8.17225E+06    -91.4205E+06     6.95789E+06    -89.6111E+06     8.43827E+06    -12.9527E+06         22.4376
            1738     2.95208E-03     90.7785E-03         2.85504         2.53762        -7.84606         2.69371        -7.68472         2.53762     156.144E-03     32.7038E-03    -16.3388E-03    -16.3650E-03    -16.2659E-03     32.6047E-03    -16.3388E-03     4.36367E-03     14.7135E+06     13.1723E+06    -89.9246E+06     9.70918E+06    -86.4614E+06     14.7135E+06    -18.3922E+06         22.4753
            1739     3.93608E-03     90.7831E-03         3.02176         2.60527        -8.06657         2.93291        -7.97772         2.60527         1.33185     32.7017E-03    -16.3380E-03    -16.3637E-03    -16.2058E-03     32.5439E-03    -16.3380E-03     5.52898E-03     20.1974E+06     18.1451E+06    -86.9399E+06     12.8260E+06    -81.6208E+06     20.1974E+06    -22.9232E+06         22.5295
            1740     4.92026E-03     90.7892E-03         3.20530         2.69395        -8.33426         3.16482        -8.29379         2.69395     925.447E-03     32.6585E-03    -16.3133E-03    -16.3452E-03    -16.1203E-03     32.4336E-03    -16.3133E-03     6.60312E-03     23.6660E+06     22.2502E+06    -82.2422E+06     15.5368E+06    -74.8902E+06     23.0274E+06    -26.7284E+06         22.6025
            1741     5.90449E-03     90.7957E-03         3.31724         2.78259        -8.52886         3.27362        -8.48523         2.78259         1.25425     32.6316E-03    -16.2850E-03    -16.3466E-03    -16.0552E-03     32.3402E-03    -16.2850E-03     7.52278E-03     26.7370E+06     25.3454E+06    -78.9664E+06     17.5939E+06    -69.8234E+06     25.3454E+06    -29.6878E+06         22.6979
            1742     6.88880E-03     90.8035E-03         3.34037         2.85537        -8.61963         3.29204        -8.57129         2.85537         1.31821     32.6212E-03    -16.2577E-03    -16.3635E-03    -16.0085E-03     32.2662E-03    -16.2577E-03     8.30099E-03     29.6348E+06     27.1035E+06    -77.0366E+06     19.2054E+06    -66.6073E+06     27.1035E+06    -31.6676E+06         22.8204
            1743     7.87315E-03     90.8115E-03         3.33270         2.91063        -8.65859         3.28438        -8.61027         2.91063         1.31824     32.6292E-03    -16.2192E-03    -16.4100E-03    -15.9870E-03     32.2063E-03    -16.2192E-03     9.06064E-03     32.3153E+06     26.6377E+06    -73.1969E+06     20.7756E+06    -61.6572E+06     26.6377E+06    -32.9112E+06         22.9763
            1744     8.85740E-03     90.8207E-03         3.23420         2.95014        -8.60193         3.22737        -8.59510         2.95014     568.063E-03     32.5909E-03    -16.1777E-03    -16.4132E-03    -15.9329E-03     32.1106E-03    -16.1777E-03     9.65102E-03     34.6209E+06     25.5065E+06    -67.8906E+06     22.1508E+06    -55.4205E+06     25.5065E+06    -33.4951E+06         23.1755
            1745     9.84197E-03     90.8297E-03         3.09695         2.97235        -8.49127         3.09321        -8.48752         2.97235     226.491E-03     32.5672E-03    -16.1207E-03    -16.4465E-03    -15.8731E-03     31.9938E-03    -16.1207E-03     10.5193E-03     35.5011E+06     20.4881E+06    -64.6634E+06     22.6639E+06    -51.8262E+06     20.4881E+06    -33.4767E+06         23.4342
            1746     10.8264E-03     90.8407E-03         2.98848         2.86634        -8.27851         2.87950        -8.27808         2.97489    -121.820E-03     32.6161E-03    -16.0346E-03    -16.5815E-03    -15.8648E-03     31.8995E-03    -16.0346E-03     11.7740E-03     35.1313E+06     9.42012E+06    -60.8560E+06     21.2386E+06    -46.9633E+06     9.42012E+06    -33.6836E+06         23.7813
            1747     11.8110E-03     90.8519E-03         2.95820         2.64132        -8.02283         2.63997        -8.02148         2.95820    -213.607E-03     32.5695E-03    -15.9512E-03    -16.6183E-03    -15.8251E-03     31.7763E-03    -15.9512E-03     12.3904E-03     34.2602E+06    -405.957E+03    -51.2645E+06     18.5736E+06    -35.5779E+06    -405.957E+03    -32.9767E+06         24.2725
            1748     12.7954E-03     90.8644E-03         2.92637         2.41932        -7.76571         2.41795        -7.76434         2.92637    -218.372E-03     32.5828E-03    -15.8752E-03    -16.7076E-03    -15.6770E-03     31.5522E-03    -15.8752E-03     14.0107E-03     34.1620E+06    -7.36662E+06    -37.3531E+06     16.5931E+06    -19.7842E+06    -7.36662E+06    -30.5879E+06         24.9940
            1749     13.7805E-03     90.8789E-03         2.88363         2.20308        -7.51481         2.20255        -7.51428         2.88363     2.48967E-03     32.7427E-03    -15.7289E-03    -17.0138E-03    -15.6279E-03     31.3567E-03    -15.7289E-03     16.3581E-03     34.7384E+06    -17.2856E+06    -37.8214E+06     14.2867E+06    -6.20318E+06    -28.4522E+06    -28.7881E+06         26.0448
            1750     14.7647E-03     90.8963E-03         2.83328         2.01475        -7.29781         2.01375        -7.29680         2.83328    -40.7851E-03     32.8254E-03    -15.5440E-03    -17.2814E-03    -15.5754E-03     31.1194E-03    -15.5440E-03     18.1374E-03     39.3957E+06    -15.5251E+06    -56.5247E+06     10.2455E+06     13.6251E+06    -56.5247E+06    -25.8466E+06         27.5450
            1751     15.7504E-03     90.9144E-03         2.77915         1.87823        -7.14074         1.87751        -7.14001         2.77915    -108.219E-03     32.4584E-03    -15.3317E-03    -17.1267E-03    -15.3394E-03     30.6711E-03    -15.3317E-03     18.4750E-03     53.8939E+06    -3.37184E+06    -87.1533E+06     5.49016E+06     45.0319E+06    -87.1533E+06    -17.6866E+06         29.6389
            1752     16.7348E-03     90.9325E-03         2.72487         1.80738        -7.06101         1.80730        -7.06093         2.72487    -21.8111E-03     31.0572E-03    -14.7848E-03    -16.2724E-03    -14.7285E-03     30.1567E-03    -15.4282E-03     6.49689E-03     124.760E+06     10.2510E+06    -54.0409E+06     1.17443E+06     123.493E+06    -43.6974E+06    -7.58791E+06         32.1938
            1753     984.012E-06     91.8051E-03         5.45839         1.94048        -9.84561         3.42280        -7.81002         1.94048        -3.48467     32.6463E-03    -16.2764E-03    -16.3699E-03    -16.3462E-03     32.6282E-03    -16.2820E-03     1.77153E-03     13.7574E+06     12.5176E+06    -81.0198E+06     12.6078E+06    -80.0831E+06     12.7306E+06     -8.5566E+06         22.4100
            1754     1.96805E-03     91.8076E-03         3.26686         2.68498        -8.36324         2.69704        -7.79342         2.68498         2.05093     32.6519E-03    -16.3120E-03    -16.3399E-03    -16.2829E-03     32.6004E-03    -16.3175E-03     3.09846E-03     17.2565E+06     16.0300E+06    -78.6341E+06     14.6896E+06    -76.1466E+06     16.1094E+06    -14.9200E+06         22.4320
            1755     2.95206E-03     91.8111E-03         2.94687         2.70422        -8.04324         2.79819        -7.89456         2.70422    -59.2672E-03     32.6589E-03    -16.3187E-03    -16.3402E-03    -16.2352E-03     32.5585E-03    -16.3233E-03     4.38806E-03     22.8494E+06     21.3952E+06    -78.7924E+06     17.9124E+06    -74.3310E+06     21.8709E+06    -20.5647E+06         22.4688
            1756     3.93620E-03     91.8160E-03         3.05167         2.74955        -8.17513         2.98094        -8.10440         2.74955         1.12521     32.6551E-03    -16.3169E-03    -16.3382E-03    -16.1742E-03     32.4958E-03    -16.3216E-03     5.54921E-03     29.1406E+06     27.5240E+06    -77.5544E+06     22.0048E+06    -71.1199E+06     28.2253E+06    -25.1870E+06         22.5219
            1757     4.92040E-03     91.8215E-03         3.20163         2.81409        -8.38376         3.16199        -8.34412         2.81409     846.489E-03     32.6219E-03    -16.3014E-03    -16.3205E-03    -16.0930E-03     32.3944E-03    -16.3014E-03     6.63570E-03     34.5245E+06     32.4943E+06    -74.1460E+06     26.1625E+06    -66.0890E+06     32.7993E+06    -28.3782E+06         22.5937
            1758     5.90471E-03     91.8284E-03         3.31457         2.88220        -8.55874         3.27249        -8.51666         2.88220         1.22620     32.5864E-03    -16.2701E-03    -16.3163E-03    -16.0210E-03     32.2911E-03    -16.2701E-03     7.56632E-03     38.4345E+06     35.2623E+06    -71.7958E+06     29.1117E+06    -62.4729E+06     35.2623E+06    -30.6616E+06         22.6877
            1759     6.88910E-03     91.8356E-03         3.36827         2.94289        -8.66392         3.32727        -8.62292         2.94289         1.22456     32.5743E-03    -16.2360E-03    -16.3383E-03    -15.9759E-03     32.2119E-03    -16.2360E-03     8.37794E-03     41.2666E+06     36.2916E+06    -70.8769E+06     31.0042E+06    -60.6146E+06     36.2916E+06    -32.3119E+06         22.8086
            1760     7.87344E-03     91.8441E-03         3.37630         2.99245        -8.71638         3.33585        -8.67592         2.99245         1.19928     32.5602E-03    -16.1900E-03    -16.3701E-03    -15.9308E-03     32.1208E-03    -16.1900E-03     9.22016E-03     43.0047E+06     34.8489E+06    -67.8374E+06     31.8058E+06    -56.6386E+06     34.8489E+06    -33.3521E+06         22.9628
            1761     8.85799E-03     91.8527E-03         3.28808         3.02863        -8.66168         3.28202        -8.65562         3.02863     534.392E-03     32.5179E-03    -16.1428E-03    -16.3751E-03    -15.8756E-03     32.0184E-03    -16.1428E-03     9.83086E-03     43.5505E+06     32.7178E+06    -63.7895E+06     31.6568E+06    -51.8958E+06     32.7178E+06    -33.6489E+06         23.1606
            1762     9.84238E-03     91.8621E-03         3.15543         3.04041        -8.54438         3.14404        -8.54074         3.04817     297.383E-03     32.5207E-03    -16.0843E-03    -16.4363E-03    -15.8419E-03     31.9263E-03    -16.0843E-03     10.7007E-03     42.5673E+06     27.2267E+06    -60.9857E+06     30.6377E+06    -49.0561E+06     27.2267E+06    -33.0281E+06         23.4182
            1763     10.8271E-03     91.8724E-03         3.05769         2.93000        -8.33526         2.93896        -8.33519         3.04867    -7.49734E-03     32.5936E-03    -16.0009E-03    -16.5927E-03    -15.8487E-03     31.8496E-03    -16.0009E-03     11.9905E-03     40.5781E+06     16.3204E+06    -56.3840E+06     28.4534E+06    -44.2593E+06     16.3204E+06    -31.9856E+06         23.7641
            1764     11.8114E-03     91.8845E-03         3.03115         2.71370        -8.08785         2.71293        -8.08708         3.03115    -137.643E-03     32.5502E-03    -15.9204E-03    -16.6298E-03    -15.8034E-03     31.7239E-03    -15.9204E-03     12.6406E-03     38.8185E+06     6.34534E+06    -47.7049E+06     25.1290E+06    -34.0154E+06     6.34534E+06    -31.3860E+06         24.2541
            1765     12.7962E-03     91.8958E-03         2.99971         2.50724        -7.84445         2.50644        -7.84365         2.99971    -149.819E-03     32.6263E-03    -15.8386E-03    -16.7877E-03    -15.7245E-03     31.5632E-03    -15.8386E-03     14.2550E-03     38.2281E+06    -3.14176E+06    -36.1251E+06     21.8985E+06    -19.7955E+06    -3.14176E+06    -30.5473E+06         24.9748
            1766     13.7805E-03     91.9112E-03         2.95866         2.31489        -7.61127         2.31384        -7.61022         2.95866     110.036E-03     32.7953E-03    -15.7058E-03    -17.0894E-03    -15.6659E-03     31.3717E-03    -15.7058E-03     16.5908E-03     36.2782E+06    -14.5519E+06    -33.5742E+06     18.1030E+06    -6.69644E+06    -23.2544E+06    -27.7661E+06         26.0255
            1767     14.7658E-03     91.9277E-03         2.91055         2.12455        -7.38522         2.12339        -7.38406         2.91055     98.9577E-03     32.8304E-03    -15.5345E-03    -17.2959E-03    -15.5907E-03     31.1252E-03    -15.5345E-03     18.1551E-03     37.4094E+06    -14.1319E+06    -50.6641E+06     12.4446E+06     10.8329E+06    -50.6641E+06    -24.5214E+06         27.5263
            1768     15.7500E-03     91.9463E-03         2.85726         1.95099        -7.17777         1.95075        -7.17753         2.85726    -1.68133E-03     32.4881E-03    -15.3241E-03    -17.1641E-03    -15.4327E-03     30.7567E-03    -15.3241E-03     18.2076E-03     45.7908E+06    -4.77014E+06    -84.5557E+06     5.77282E+06     35.2479E+06    -84.5557E+06    -18.3764E+06         29.6272
            1769     16.7357E-03     91.9637E-03         2.80039         1.80181        -6.99456         1.80167        -6.99442         2.80039     6.39756E-03     31.0229E-03    -14.7608E-03    -16.2621E-03    -14.7488E-03     30.1504E-03    -15.4016E-03     6.27494E-03     115.346E+06     6.14396E+06    -52.6417E+06     1.23569E+06     113.424E+06    -45.8120E+06    -7.64645E+06         32.2075
            1770     984.105E-06     92.8382E-03         5.33297         2.07418        -9.78559         3.51813        -7.97075         2.07418        -3.31154     32.6041E-03    -16.2502E-03    -16.3539E-03    -16.3356E-03     32.5858E-03    -16.2502E-03     1.80004E-03     25.4138E+06     23.9145E+06    -64.3682E+06     24.1872E+06    -63.1416E+06     23.9145E+06    -9.58293E+06         22.4001
            1771     1.96804E-03     92.8402E-03         3.36864         2.80932        -8.53131         2.86121        -8.02387         2.80932         1.82617     32.6037E-03    -16.2848E-03    -16.3189E-03    -16.2568E-03     32.5521E-03    -16.2953E-03     3.09568E-03     28.4544E+06     26.6394E+06    -64.5960E+06     25.3446E+06    -61.4862E+06     26.6394E+06    -16.5281E+06         22.4210
            1772     2.95220E-03     92.8439E-03         3.14596         2.85073        -8.31719         3.01861        -8.18985         2.85073    -261.686E-03     32.5581E-03    -16.2671E-03    -16.2910E-03    -16.1659E-03     32.4532E-03    -16.2873E-03     4.46947E-03     33.4513E+06     30.6979E+06    -66.6362E+06     27.8527E+06    -61.0376E+06     30.6979E+06    -22.7835E+06         22.4561
            1773     3.93642E-03     92.8483E-03         3.16243         2.90516        -8.37283         3.11133        -8.32173         2.90516     886.439E-03     32.5407E-03    -16.2616E-03    -16.2792E-03    -16.1018E-03     32.3731E-03    -16.2713E-03     5.68358E-03     39.2114E+06     35.7329E+06    -67.5515E+06     31.1808E+06    -59.5210E+06     35.7329E+06    -28.1050E+06         22.5073
            1774     4.92067E-03     92.8542E-03         3.20481         2.95337        -8.44760         3.16976        -8.41255         2.95337     713.337E-03     32.5278E-03    -16.2511E-03    -16.2768E-03    -16.0395E-03     32.2906E-03    -16.2511E-03     6.76532E-03     44.5548E+06     40.2734E+06    -67.3668E+06     35.0082E+06    -57.8201E+06     40.2734E+06    -31.2143E+06         22.5771
            1775     5.90507E-03     92.8605E-03         3.23152         2.99268        -8.51024         3.19523        -8.47395         2.99268         1.13116     32.4863E-03    -16.2193E-03    -16.2670E-03    -15.9572E-03     32.1765E-03    -16.2193E-03     7.73367E-03     49.3273E+06     43.2853E+06    -65.6610E+06     38.8985E+06    -55.2323E+06     43.2853E+06    -32.9923E+06         22.6688
            1776     6.88947E-03     92.8682E-03         3.29300         3.02693        -8.59760         3.26054        -8.56514         3.02693         1.08993     32.4573E-03    -16.1828E-03    -16.2744E-03    -15.8900E-03     32.0728E-03    -16.1828E-03     8.60855E-03     52.8684E+06     44.8400E+06    -65.8381E+06     42.1304E+06    -55.1002E+06     44.8400E+06    -34.0383E+06         22.7873
            1777     7.87410E-03     92.8760E-03         3.37421         3.06175        -8.70868         3.34291        -8.67738         3.06175         1.02610     32.4326E-03    -16.1338E-03    -16.2988E-03    -15.8335E-03     31.9673E-03    -16.1338E-03     9.46696E-03     54.4459E+06     44.1037E+06    -63.1153E+06     43.8617E+06    -52.5311E+06     44.1037E+06    -33.6307E+06         22.9394
            1778     8.85863E-03     92.8851E-03         3.32943         3.09272        -8.69397         3.32474        -8.68928         3.09272     460.559E-03     32.4087E-03    -16.0862E-03    -16.3225E-03    -15.7940E-03     31.8802E-03    -16.0862E-03     10.0906E-03     53.7716E+06     42.6705E+06    -59.1502E+06     43.3617E+06    -48.7403E+06     42.6705E+06    -32.6146E+06         23.1355
            1779     9.84336E-03     92.8939E-03         3.19556         3.07701        -8.54152         3.16058        -8.53823         3.10869     302.724E-03     32.4650E-03    -16.0268E-03    -16.4382E-03    -15.8042E-03     31.8309E-03    -16.0268E-03     11.0384E-03     51.5620E+06     36.7647E+06    -56.9266E+06     41.3925E+06    -46.7571E+06     36.7647E+06    -31.5376E+06         23.3919
            1780     10.8277E-03     92.9047E-03         3.10486         2.95292        -8.32440         2.95286        -8.32434         3.10486     11.4113E-03     32.5412E-03    -15.9447E-03    -16.5965E-03    -15.8010E-03     31.7457E-03    -15.9447E-03     12.3851E-03     48.6837E+06     25.6100E+06    -52.9464E+06     38.7687E+06    -43.0314E+06     25.6100E+06    -30.0448E+06         23.7370
            1781     11.8126E-03     92.9161E-03         3.08568         2.78001        -8.12160         2.77929        -8.12088         3.08568    -134.404E-03     32.4897E-03    -15.8653E-03    -16.6245E-03    -15.7457E-03     31.6109E-03    -15.8653E-03     13.0189E-03     46.0700E+06     16.0245E+06    -42.9303E+06     35.1365E+06    -31.9967E+06     16.0245E+06    -28.9276E+06         24.2264
            1782     12.7971E-03     92.9281E-03         3.05691         2.62696        -7.92936         2.62626        -7.92866         3.05691    -130.827E-03     32.6882E-03    -15.7784E-03    -16.9098E-03    -15.7720E-03     31.5504E-03    -15.7784E-03     14.7602E-03     42.8864E+06     3.90729E+06    -32.2081E+06     29.8505E+06    -19.1722E+06     3.90729E+06    -28.1607E+06         24.9476
            1783     13.7819E-03     92.9430E-03         3.02110         2.46272        -7.72346         2.46132        -7.72206         3.02110     158.103E-03     32.9070E-03    -15.6561E-03    -17.2509E-03    -15.7712E-03     31.4273E-03    -15.6561E-03     16.9657E-03     37.6938E+06    -10.8269E+06    -29.1247E+06     23.7515E+06    -8.62879E+06    -17.3805E+06    -25.1629E+06         25.9998
            1784     14.7662E-03     92.9595E-03         2.97775         2.25077        -7.46670         2.24936        -7.46529         2.97775     160.168E-03     32.9391E-03    -15.5035E-03    -17.4356E-03    -15.6425E-03     31.1460E-03    -15.5035E-03     18.6263E-03     35.2314E+06    -10.3111E+06    -43.5240E+06     16.4983E+06     8.42197E+06    -43.5240E+06    -20.9853E+06         27.5027
            1785     15.7513E-03     92.9783E-03         2.92586         2.00959        -7.17683         2.00951        -7.17675         2.92586     17.0491E-03     32.7368E-03    -15.3024E-03    -17.4344E-03    -15.5912E-03     30.8936E-03    -15.3024E-03     18.8510E-03     38.0473E+06    -2.20757E+06    -79.4224E+06     7.61097E+06     28.2288E+06    -79.4224E+06    -15.6404E+06         29.6120
            1786     16.7355E-03     92.9949E-03         2.86578         1.77468        -6.88218         1.77461        -6.88210         2.86578     11.0260E-03     31.0931E-03    -14.6943E-03    -16.3988E-03    -14.8378E-03     30.1875E-03    -15.3497E-03     6.45082E-03     105.945E+06     1.15983E+06    -51.0530E+06     1.53988E+06     103.956E+06    -49.4439E+06    -7.57582E+06         32.2206
            1787     983.999E-06     93.8706E-03         5.09761         2.25537        -9.67316         3.61022        -8.18577         2.25537        -2.83519     32.5191E-03    -16.2026E-03    -16.3165E-03    -16.2767E-03     32.4997E-03    -16.2230E-03     1.84450E-03     40.9131E+06     39.6151E+06    -46.1278E+06     39.5183E+06    -44.8031E+06     39.6852E+06    -10.1259E+06         22.3807
            1788     1.96825E-03     93.8731E-03         3.43733         2.94844        -8.67400         3.00943        -8.24609         2.94844         1.70031     32.4474E-03    -16.2047E-03    -16.2427E-03    -16.1540E-03     32.3937E-03    -16.2397E-03     3.15213E-03     43.9087E+06     41.3899E+06    -48.8093E+06     40.3921E+06    -45.2927E+06     41.3899E+06    -17.4142E+06         22.4000
            1789     2.95247E-03     93.8761E-03         3.24533         2.99053        -8.48822         3.14851        -8.39140         2.99053    -356.252E-03     32.3902E-03    -16.1824E-03    -16.2079E-03    -16.0722E-03     32.2801E-03    -16.2079E-03     4.56263E-03     48.2383E+06     43.2362E+06    -52.8968E+06     41.8310E+06    -46.4895E+06     43.2362E+06    -24.4703E+06         22.4327
            1790     3.93682E-03     93.8810E-03         3.24282         3.03860        -8.50313         3.20807        -8.46837         3.03860     625.245E-03     32.3434E-03    -16.1634E-03    -16.1800E-03    -15.9888E-03     32.1631E-03    -16.1743E-03     5.87161E-03     52.5196E+06     45.4241E+06    -56.1098E+06     43.5162E+06    -47.1065E+06     45.4241E+06    -29.9241E+06         22.4810
            1791     4.92124E-03     93.8863E-03         3.22987         3.07324        -8.50975         3.20201        -8.48190         3.07324     529.975E-03     32.3152E-03    -16.1417E-03    -16.1736E-03    -15.9149E-03     32.0565E-03    -16.1417E-03     7.03747E-03     56.3393E+06     47.6489E+06    -59.4852E+06     45.4056E+06    -48.5515E+06     47.6489E+06    -33.8445E+06         22.5475
            1792     5.90569E-03     93.8930E-03         3.18424         3.09211        -8.47463         3.15708        -8.44746         3.09211     968.307E-03     32.2537E-03    -16.1008E-03    -16.1530E-03    -15.8099E-03     31.9106E-03    -16.1008E-03     8.10128E-03     59.4326E+06     49.3237E+06    -59.7277E+06     47.6321E+06    -47.9272E+06     49.3237E+06    -35.5913E+06         22.6357
            1793     6.89040E-03     93.9000E-03         3.21153         3.10405        -8.51287         3.18757        -8.48892         3.10405     922.720E-03     32.2155E-03    -16.0590E-03    -16.1565E-03    -15.7240E-03     31.7830E-03    -16.0590E-03     9.08650E-03     60.8556E+06     50.2517E+06    -61.7507E+06     49.2433E+06    -50.1383E+06     50.2517E+06    -35.8941E+06         22.7508
            1794     7.87502E-03     93.9082E-03         3.29952         3.12028        -8.61187         3.27671        -8.58906         3.12028     841.301E-03     32.2175E-03    -16.0037E-03    -16.2138E-03    -15.6857E-03     31.6894E-03    -16.0037E-03     10.0388E-03     61.0328E+06     48.5587E+06    -60.7330E+06     50.2714E+06    -49.9716E+06     48.5587E+06    -34.5545E+06         22.8999
            1795     8.85984E-03     93.9167E-03         3.27651         3.13795        -8.60693         3.27331        -8.60373         3.13795     365.113E-03     32.2308E-03    -15.9563E-03    -16.2745E-03    -15.6705E-03     31.6268E-03    -15.9563E-03     10.7420E-03     61.1473E+06     48.0902E+06    -56.1791E+06     51.2337E+06    -46.2654E+06     48.0902E+06    -32.6302E+06         23.0938
            1796     9.84449E-03     93.9261E-03         3.18870         3.09786        -8.47470         3.13859        -8.47211         3.14538     251.142E-03     32.3177E-03    -15.9030E-03    -16.4147E-03    -15.6923E-03     31.5952E-03    -15.9030E-03     11.7442E-03     60.2461E+06     43.8208E+06    -54.4578E+06     51.2980E+06    -45.5097E+06     43.8208E+06    -30.7103E+06         23.3491
            1797     10.8294E-03     93.9364E-03         3.13791         2.97631        -8.29235         2.97614        -8.29218         3.13791    -50.5442E-03     32.4657E-03    -15.8277E-03    -16.6380E-03    -15.7465E-03     31.5742E-03    -15.8277E-03     13.0908E-03      57.119E+06     33.5210E+06    -50.7934E+06     49.1634E+06    -42.8377E+06     33.5210E+06    -28.1267E+06         23.6940
            1798     11.8139E-03     93.9482E-03         3.11993         2.86022        -8.14676         2.85909        -8.14563         3.11993    -199.720E-03     32.4926E-03    -15.7621E-03    -16.7305E-03    -15.7629E-03     31.5250E-03    -15.7621E-03     13.6605E-03     53.0167E+06     25.3814E+06    -39.0330E+06     44.8852E+06    -30.9015E+06     25.3814E+06    -25.9133E+06         24.1844
            1799     12.7989E-03     93.9597E-03         3.09591         2.74628        -7.99088         2.74525        -7.98985         3.09591    -176.873E-03     32.7228E-03    -15.6900E-03    -17.0329E-03    -15.8008E-03     31.4907E-03    -15.6900E-03     15.3736E-03     47.6521E+06     13.8026E+06    -27.8117E+06     39.1361E+06    -19.2957E+06     13.8026E+06    -23.5229E+06         24.9082
            1800     13.7832E-03     93.9753E-03         3.06502         2.56651        -7.76514         2.56541        -7.76405         3.06502     110.123E-03     32.9565E-03    -15.5762E-03    -17.3803E-03    -15.8191E-03     31.3953E-03    -15.5762E-03     17.4455E-03     38.9576E+06    -5.07224E+06    -23.6594E+06     30.7050E+06    -11.4081E+06    -9.07092E+06    -19.8199E+06         25.9646
            1801     14.7680E-03     93.9911E-03         3.02437         2.32559        -7.47270         2.32442        -7.47153         3.02437     97.8209E-03     33.0748E-03    -15.4407E-03    -17.6340E-03    -15.7654E-03     31.2061E-03    -15.4407E-03     19.0663E-03     31.5955E+06    -6.15793E+06    -35.2764E+06     20.2662E+06     5.17137E+06    -35.2764E+06    -15.4825E+06         27.4726
            1802     15.7529E-03     94.0099E-03         2.97266         2.04677        -7.12889         2.04652        -7.12864         2.97266    -75.3897E-03     32.8611E-03    -15.2632E-03    -17.5979E-03    -15.6975E-03     30.9607E-03    -15.2632E-03     19.1853E-03     31.2312E+06     2.78014E+06    -69.8815E+06     10.3103E+06     23.7011E+06    -69.8815E+06    -11.1277E+06         29.5938
            1803     16.7376E-03     94.0274E-03         2.90978         1.74496        -6.74532         1.74473        -6.74510         2.90978    -67.3262E-03     31.1863E-03    -14.8147E-03    -16.3716E-03    -14.9821E-03     30.2609E-03    -15.2788E-03     6.32615E-03     98.2371E+06     1.35514E+06    -49.4329E+06     2.87499E+06     96.7173E+06    -49.4329E+06    -6.28819E+06         32.2346
            1804     984.251E-06     94.9036E-03         4.89555         2.52789        -9.68894         3.75824        -8.55163         2.52789        -2.35519     32.1596E-03    -16.0470E-03    -16.1125E-03    -16.0677E-03     32.1389E-03    -16.0712E-03     1.85539E-03     52.0255E+06     50.2777E+06    -27.8386E+06     50.4163E+06    -26.2995E+06     50.3478E+06    -10.4687E+06         22.3454
            1805     1.96857E-03     94.9053E-03         3.44490         3.13624        -8.79906         3.10708        -8.46124         3.13624         1.56821     32.0886E-03    -16.0268E-03    -16.0617E-03    -15.9726E-03     32.0278E-03    -16.0552E-03     3.32916E-03     55.3490E+06     51.2871E+06    -31.7717E+06     51.1687E+06    -27.5914E+06     51.2871E+06    -18.1699E+06         22.3626
            1806     2.95297E-03     94.9088E-03         3.22158         3.11298        -8.51419         3.13496        -8.44483         3.13022    -390.318E-03     32.0406E-03    -16.0092E-03    -16.0314E-03    -15.8994E-03     31.9186E-03    -16.0192E-03     4.78059E-03     59.7627E+06     51.7385E+06    -38.2462E+06     52.2621E+06    -30.7456E+06     51.7385E+06    -25.8819E+06         22.3922
            1807     3.93751E-03     94.9129E-03         3.23283         3.12093        -8.49070         3.19208        -8.46720         3.13818     401.599E-03     31.9559E-03    -15.9679E-03    -15.9881E-03    -15.7725E-03     31.7523E-03    -15.9798E-03     6.18648E-03     64.0248E+06     52.9189E+06    -44.2223E+06     53.8098E+06    -34.0074E+06     52.9189E+06    -31.5656E+06         22.4363
            1808     4.92217E-03     94.9186E-03         3.24649         3.15249        -8.51618         3.22469        -8.49439         3.15249     378.207E-03     31.8739E-03    -15.9271E-03    -15.9469E-03    -15.6427E-03     31.5759E-03    -15.9332E-03     7.49295E-03     67.2659E+06     54.2003E+06    -50.2652E+06     55.2894E+06    -38.2888E+06     54.2003E+06    -35.5241E+06         22.4980
            1809     5.90702E-03     94.9246E-03         3.21236         3.16258        -8.48260         3.19287        -8.46312         3.16258     804.898E-03     31.8140E-03    -15.8763E-03    -15.9377E-03    -15.5346E-03     31.4109E-03    -15.8763E-03     8.70316E-03     68.5368E+06     54.2631E+06    -53.6489E+06     56.0228E+06    -41.1348E+06     54.2631E+06    -37.0440E+06         22.5814
            1810     6.89187E-03     94.9319E-03         3.19620         3.15485        -8.45660         3.16916        -8.44042         3.16571     738.630E-03     31.8078E-03    -15.8261E-03    -15.9817E-03    -15.4650E-03     31.2911E-03    -15.8261E-03     9.85452E-03     67.8456E+06     54.3675E+06    -57.2508E+06     56.1085E+06    -45.5137E+06     54.3675E+06    -36.4274E+06         22.6919
            1811     7.87693E-03     94.9396E-03         3.21277         3.12207        -8.44209         3.15388        -8.42668         3.16555     655.732E-03     31.8427E-03    -15.7637E-03    -16.0790E-03    -15.4366E-03     31.2003E-03    -15.7637E-03     10.9875E-03     66.4877E+06     51.3058E+06    -58.2275E+06     55.6688E+06    -47.4086E+06     51.3058E+06    -35.0918E+06         22.8370
            1812     8.86183E-03     94.9486E-03         3.19297         3.09997        -8.39556         3.12805        -8.39375         3.16308     253.772E-03     31.9028E-03    -15.7084E-03    -16.1945E-03    -15.4429E-03     31.1512E-03    -15.7084E-03     11.9019E-03     65.6208E+06     49.1614E+06    -54.6310E+06     55.2660E+06    -44.2762E+06     49.1614E+06    -33.7329E+06         23.0283
            1813     9.84689E-03     94.9574E-03         3.16200         3.07995        -8.34119         3.08288        -8.33958         3.15747     172.155E-03     32.0867E-03    -15.6677E-03    -16.4191E-03    -15.5256E-03     31.1933E-03    -15.6677E-03     12.9981E-03     63.6655E+06     46.0053E+06    -54.6534E+06     54.8479E+06    -45.8358E+06     46.0053E+06    -30.9811E+06         23.2826
            1814     10.8317E-03     94.9681E-03         3.14777         3.01705        -8.25305         3.01646        -8.25246         3.14777    -124.976E-03     32.3662E-03    -15.6082E-03    -16.7580E-03    -15.6727E-03     31.2809E-03    -15.6082E-03     14.4036E-03     59.6441E+06     36.7268E+06    -51.0581E+06     52.9296E+06    -44.3435E+06     36.7268E+06    -26.3829E+06         23.6285
            1815     11.8165E-03     94.9798E-03         3.13300         2.92419        -8.12797         2.92157        -8.12535         3.13300    -315.369E-03     32.5538E-03    -15.5680E-03    -16.9858E-03    -15.8203E-03     31.3884E-03    -15.5680E-03     14.9899E-03     55.0270E+06     30.7770E+06    -36.9217E+06     49.0132E+06    -30.9079E+06     30.7770E+06    -22.6076E+06         24.1219
            1816     12.8009E-03     94.9916E-03         3.11182         2.79201        -7.95434         2.78943        -7.95177         3.11182    -300.739E-03     32.8493E-03    -15.5275E-03    -17.3218E-03    -15.9049E-03     31.4324E-03    -15.5275E-03     16.5375E-03     49.0795E+06     20.6913E+06     -26.791E+06     43.8264E+06    -21.5379E+06     20.6913E+06    -19.1180E+06         24.8513
            1817     13.7857E-03     95.0070E-03         3.08198         2.59345        -7.70321         2.59254        -7.70229         3.08198    -16.9931E-03     33.1199E-03    -15.4446E-03    -17.6753E-03    -15.9705E-03     31.4152E-03    -15.4446E-03     18.2910E-03     39.2526E+06    -200.191E+03    -22.2062E+06     35.8990E+06    -17.6896E+06    -1.36315E+06    -12.2847E+06         25.9158
            1818     14.7702E-03     95.0228E-03         3.04109         2.33921        -7.38621         2.33810        -7.38510         3.04109    -31.9445E-03     33.4357E-03    -15.3470E-03    -18.0887E-03    -16.1063E-03     31.4533E-03    -15.3470E-03     19.7810E-03     28.4470E+06    -534.310E+03    -27.2835E+06     23.3215E+06     2.33887E+06    -25.0312E+06    -6.21777E+06         27.4337
            1819     15.7540E-03     95.0424E-03         2.98806         2.04207        -7.01530         2.04079        -7.01402         2.98806    -202.381E-03     33.0396E-03    -15.2162E-03    -17.8233E-03    -15.9063E-03     31.1225E-03    -15.2162E-03     19.3182E-03     26.0068E+06     6.85014E+06    -56.2584E+06     10.2243E+06     22.6326E+06    -56.2584E+06    -5.56198E+06         29.5720
            1820     16.7392E-03     95.0578E-03         2.92248         1.70101        -6.58084         1.69993        -6.57976         2.92248    -179.346E-03     31.1938E-03    -14.9370E-03    -16.2568E-03    -15.1039E-03     30.3158E-03    -15.2119E-03     6.13362E-03     93.0304E+06     1.75094E+06    -44.1042E+06     2.68661E+06     92.0947E+06    -44.1042E+06    -4.49966E+06         32.2513
            1821     984.580E-06     95.9354E-03         4.71293         2.73491        -9.63038         3.87547        -8.79292         2.73491        -1.97236     31.5036E-03    -15.7104E-03    -15.7932E-03    -15.7665E-03     31.4806E-03    -15.7142E-03     1.91662E-03     64.6309E+06     61.3361E+06    -9.01023E+06     62.5532E+06    -7.21840E+06     61.6219E+06    -10.7305E+06         22.2857
            1822     1.96926E-03     95.9376E-03         3.42921         3.27512        -8.84948         3.17266        -8.59663         3.27881         1.37067     31.4486E-03    -15.7101E-03    -15.7385E-03    -15.6618E-03     31.3784E-03    -15.7166E-03     3.54140E-03     66.8796E+06     60.1754E+06    -13.6213E+06     61.9307E+06    -8.67237E+06     60.1754E+06    -18.9690E+06         22.3004
            1823     2.95396E-03     95.9405E-03         3.23680         3.17605        -8.51056         3.12988        -8.46257         3.23499    -419.104E-03     31.3720E-03    -15.6783E-03    -15.6937E-03    -15.5456E-03     31.2266E-03    -15.6810E-03     5.15300E-03     70.2180E+06     59.6939E+06    -22.8610E+06     61.6176E+06    -14.2607E+06     59.6939E+06    -26.8953E+06         22.3259
            1824     3.93877E-03     95.9448E-03         3.22220         3.13374        -8.41359         3.13299        -8.39895         3.20831     232.006E-03     31.2493E-03    -15.6173E-03    -15.6320E-03    -15.3787E-03     31.0021E-03    -15.6234E-03     6.72825E-03     72.8182E+06     58.1377E+06    -31.9171E+06     61.3627E+06    -20.4616E+06     58.1377E+06    -32.6563E+06         22.3648
            1825     4.92389E-03     95.9498E-03         3.23952         3.18023        -8.44452         3.20401        -8.42833         3.19955     274.565E-03     31.1219E-03    -15.5471E-03    -15.5748E-03    -15.1983E-03     30.7515E-03    -15.5532E-03     8.22959E-03     73.7655E+06     56.3524E+06    -40.9504E+06     60.7380E+06    -27.9229E+06     56.3524E+06    -36.3772E+06         22.4207
            1826     5.90913E-03     95.9560E-03         3.23375         3.18879        -8.43844         3.20830        -8.42499         3.20079     653.573E-03     31.0722E-03    -15.4770E-03    -15.5951E-03    -15.0836E-03     30.5606E-03    -15.4770E-03     9.66334E-03     72.7607E+06     54.0183E+06    -47.8850E+06     59.7470E+06    -34.8714E+06     54.0183E+06    -37.4099E+06         22.4982
            1827     6.89453E-03     95.9628E-03         3.20425         3.14176        -8.35550         3.13913        -8.34598         3.19736     555.161E-03     31.1090E-03    -15.4136E-03    -15.6954E-03    -15.0265E-03     30.4402E-03    -15.4136E-03     11.0516E-03     70.7467E+06     52.7899E+06    -53.2003E+06     58.7440E+06    -41.1976E+06     52.7899E+06    -36.5945E+06         22.6033
            1828     7.87981E-03     95.9707E-03         3.18480         3.05876        -8.25078         3.04965        -8.24167         3.18480     444.889E-03     31.2036E-03    -15.3484E-03    -15.8552E-03    -15.0078E-03     30.3562E-03    -15.3484E-03     12.4475E-03     68.5831E+06     49.8266E+06    -55.5678E+06     57.7502E+06    -44.7349E+06     49.8266E+06    -35.0075E+06         22.7442
            1829     8.86531E-03     95.9793E-03         3.16760         3.01135        -8.18623         3.01055        -8.18544         3.16760     118.649E-03     31.3697E-03    -15.2897E-03    -16.0799E-03    -15.0697E-03     30.3595E-03    -15.2897E-03     13.6377E-03     65.0843E+06     46.4119E+06    -52.4651E+06     55.1757E+06    -42.5565E+06     46.4119E+06    -32.6543E+06         22.9333
            1830     9.85054E-03     95.9887E-03         3.15184         3.01387        -8.16501         3.01304        -8.16418         3.15184     76.2507E-03     31.7271E-03    -15.2657E-03    -16.4614E-03    -15.2647E-03     30.5304E-03    -15.2657E-03     14.9264E-03     59.7904E+06     43.1904E+06    -54.9055E+06     51.4138E+06    -46.5289E+06     43.1904E+06    -29.7554E+06         23.1879
            1831     10.8356E-03     95.9992E-03         3.13805         2.99243        -8.12135         2.99092        -8.11985         3.13805    -218.679E-03     32.2072E-03    -15.2278E-03    -16.9793E-03    -15.5421E-03     30.7699E-03    -15.2278E-03     16.5034E-03     54.3004E+06     33.3271E+06    -54.0358E+06     48.1522E+06    -47.8876E+06     33.3271E+06    -25.0166E+06         23.5365
            1832     11.8204E-03     96.0114E-03         3.12181         2.90383        -7.99928         2.89853        -7.99398         3.12181    -459.081E-03     32.5742E-03    -15.2182E-03    -17.3559E-03    -15.8131E-03     31.0314E-03    -15.2182E-03     17.2278E-03     49.4048E+06     28.7974E+06    -37.7210E+06     44.6169E+06    -32.9331E+06     28.7974E+06    -19.8149E+06         24.0354
            1833     12.8050E-03     96.0235E-03         3.09861         2.75152        -7.79975         2.74589        -7.79412         3.09861    -470.247E-03     33.1024E-03    -15.2305E-03    -17.8720E-03    -16.1108E-03     31.3412E-03    -15.2305E-03     18.5505E-03     42.5470E+06     21.3899E+06    -29.1450E+06     39.1917E+06    -25.7897E+06     21.3899E+06    -14.6453E+06         24.7740
            1834     13.7891E-03     96.0385E-03         3.06644         2.55891        -7.54883         2.55716        -7.54708         3.06644    -175.150E-03     33.7085E-03    -15.2075E-03    -18.5010E-03    -16.4803E-03     31.6878E-03    -15.2075E-03     20.1160E-03     33.0566E+06     145.071E+03    -28.7488E+06     31.9510E+06    -27.6432E+06     145.071E+03    -5.56197E+06         25.8516
            1835     14.7729E-03     96.0554E-03         3.02388         2.30958        -7.23066         2.30801        -7.22909         3.02388    -159.046E-03     33.9736E-03    -15.1783E-03    -18.7952E-03    -16.5621E-03     31.7404E-03    -15.1783E-03     21.2132E-03     27.6622E+06     1.03878E+06    -24.0452E+06     23.5549E+06    -1.80719E+06    -17.0920E+06     3.16301E+06         27.3872
            1836     15.7573E-03     96.0744E-03         2.96886         1.99202        -6.83346         1.98942        -6.83085         2.96886    -300.487E-03     33.5075E-03    -15.1138E-03    -18.3937E-03    -16.3463E-03     31.4601E-03    -15.1138E-03     20.1313E-03     29.8336E+06     10.0385E+06    -40.5503E+06     12.9961E+06     26.8760E+06    -40.5503E+06     2.50057E+06         29.5530
            1837     16.7411E-03     96.0896E-03         2.90046         1.62840        -6.37696         1.62660        -6.37515         2.90046    -239.098E-03     31.5691E-03    -14.9997E-03    -16.5694E-03    -15.5280E-03     30.6547E-03    -15.1267E-03     6.46158E-03     91.9789E+06     3.66270E+06    -33.8905E+06     3.98749E+06     91.6541E+06    -33.8905E+06    -1.67877E+06         32.2818
            1838     985.123E-06     96.9671E-03         4.39530         2.83585        -9.30806         3.81706        -8.72982         2.83585        -1.49635     30.4630E-03    -15.1651E-03    -15.2979E-03    -15.2698E-03     30.4349E-03    -15.1651E-03     2.11652E-03     75.8248E+06     72.1577E+06     10.4842E+06     73.3939E+06     12.6292E+06     72.4435E+06    -10.7859E+06         22.1924
            1839     1.97016E-03     96.9687E-03         3.41220         3.30285        -8.76522         3.22740        -8.58412         3.30655         1.17924     30.3763E-03    -15.1724E-03    -15.2039E-03    -15.1086E-03     30.2900E-03    -15.1815E-03     3.83373E-03     77.6719E+06     69.4168E+06     4.82638E+06     72.0903E+06     10.4079E+06     69.4168E+06    -19.0588E+06         22.2040
            1840     2.95550E-03     96.9717E-03         3.27800         3.21298        -8.50249         3.18801        -8.47217         3.27264    -410.782E-03     30.2229E-03    -15.1050E-03    -15.1179E-03    -14.9210E-03     30.0384E-03    -15.1174E-03     5.67667E-03     79.2051E+06     65.8246E+06    -6.99149E+06     69.9607E+06     2.25295E+06     65.8246E+06    -26.5871E+06         22.2250
            1841     3.94105E-03     96.9755E-03         3.24472         3.14242        -8.35770         3.13385        -8.34912         3.24472     88.8888E-03     30.0803E-03    -15.0244E-03    -15.0558E-03    -14.7349E-03     29.7628E-03    -15.0278E-03     7.46596E-03     78.9814E+06     60.5507E+06    -19.1877E+06     67.0396E+06    -7.24584E+06     60.5507E+06    -32.0542E+06         22.2584
            1842     4.92671E-03     96.9803E-03         3.23013         3.14261        -8.31306         3.13890        -8.30177         3.22255     169.690E-03     29.9726E-03    -14.9322E-03    -15.0404E-03    -14.5534E-03     29.4856E-03    -14.9322E-03     9.23466E-03     76.9261E+06     54.9984E+06    -30.8504E+06     63.6213E+06    -17.5456E+06     54.9984E+06    -35.4453E+06         22.3083
            1843     5.91264E-03     96.9860E-03         3.21438         3.11941        -8.25079         3.11845        -8.24225         3.20680     506.351E-03     29.9350E-03    -14.8389E-03    -15.0961E-03    -14.4055E-03     29.2444E-03    -14.8389E-03     10.9863E-03     72.8059E+06     49.5137E+06    -41.8032E+06     59.8370E+06    -28.8342E+06     49.5137E+06    -36.2760E+06         22.3800
            1844     6.89857E-03     96.9929E-03         3.18968         3.06049        -8.15983         3.05518        -8.15451         3.18968     406.279E-03     29.9975E-03    -14.7526E-03    -15.2450E-03    -14.3182E-03     29.0708E-03    -14.7526E-03     12.7251E-03     67.6956E+06     44.7289E+06    -49.1811E+06     55.7834E+06    -37.2689E+06     44.7289E+06    -35.3537E+06         22.4805
            1845     7.88474E-03     97.0005E-03         3.16985         3.01552        -8.08716         3.01009        -8.08174         3.16985     249.117E-03     30.2291E-03    -14.6815E-03    -15.5475E-03    -14.3574E-03     29.0389E-03    -14.6815E-03     14.4771E-03     62.0524E+06     40.3238E+06    -53.5672E+06     51.4308E+06    -42.9456E+06     40.3238E+06    -33.3679E+06         22.6189
            1846     8.87067E-03     97.0093E-03         3.15024         2.98220        -8.03132         2.98162        -8.03074         3.15024    -27.8561E-03     30.5932E-03    -14.6310E-03    -15.9622E-03    -14.5304E-03     29.1614E-03    -14.6310E-03     15.9901E-03     55.4305E+06     36.2516E+06    -51.5553E+06     46.6373E+06    -42.7621E+06     36.2516E+06    -29.3744E+06         22.8081
            1847     9.85642E-03     97.0188E-03         3.13077         2.93497        -7.96113         2.93428        -7.96044         3.13077    -41.2924E-03     31.1737E-03    -14.6346E-03    -16.5391E-03    -14.8483E-03     29.4828E-03    -14.6346E-03     17.5490E-03     48.0147E+06     34.6159E+06    -53.5661E+06     41.0226E+06    -46.5740E+06     34.6159E+06    -25.6373E+06         23.0662
            1848     10.8417E-03     97.0298E-03         3.10952         2.86960        -7.86436         2.86644        -7.86121         3.10952    -331.889E-03     31.9619E-03    -14.6334E-03    -17.3285E-03    -15.3299E-03     29.9633E-03    -14.6334E-03     19.3594E-03     40.7168E+06     24.5105E+06    -56.6855E+06     35.2831E+06    -51.2518E+06     24.5105E+06    -22.3322E+06         23.4215
            1849     11.8266E-03     97.0424E-03         3.08495         2.78090        -7.73681         2.77254        -7.72845         3.08495    -578.093E-03     32.5799E-03    -14.6655E-03    -17.9144E-03    -15.8051E-03     30.4705E-03    -14.6655E-03     20.1413E-03     34.7738E+06     19.5796E+06    -40.6305E+06     30.6003E+06    -36.4570E+06     19.5796E+06    -17.2208E+06         23.9302
            1850     12.8111E-03     97.0550E-03         3.05540         2.65183        -7.55524         2.64295        -7.54636         3.05540    -593.839E-03     33.4796E-03    -14.7535E-03    -18.7261E-03    -16.4272E-03     31.1807E-03    -14.7535E-03     21.3591E-03     27.9520E+06     15.2699E+06    -34.7558E+06     25.8381E+06    -32.6420E+06     15.2699E+06    -10.0955E+06         24.6823
            1851     13.7947E-03     97.0709E-03         3.01899         2.47065        -7.31067         2.46730        -7.30732         3.01899    -296.533E-03     34.4710E-03    -14.8089E-03    -19.6621E-03    -17.1225E-03     31.9314E-03    -14.8089E-03     22.8635E-03     20.3247E+06    -5.45458E+06    -39.8906E+06     19.5830E+06    -39.1489E+06    -5.45458E+06     6.41769E+03         25.7780
            1852     14.7777E-03     97.0880E-03         2.97325         2.22409        -6.99391         2.22177        -6.99159         2.97325    -241.005E-03     34.8589E-03    -14.8712E-03    -19.9877E-03    -17.3870E-03     32.2583E-03    -14.8712E-03     23.2994E-03     23.0969E+06    -6.95627E+06    -28.1149E+06     13.2228E+06    -7.41134E+06    -17.7858E+06     8.23935E+06         27.3430
            1853     15.7610E-03     97.1065E-03         2.91550         1.90665        -6.59721         1.90274        -6.59330         2.91550    -362.111E-03     34.2664E-03    -14.9133E-03    -19.3531E-03    -17.1442E-03     32.0575E-03    -14.9133E-03     21.2199E-03     36.0868E+06     4.47650E+06    -30.2472E+06     8.37992E+06     32.1834E+06    -30.2472E+06     7.59967E+06         29.5645
            1854     16.7445E-03     97.1227E-03         2.84518         1.55178        -6.15436         1.54931        -6.15189         2.84518    -269.082E-03     32.1831E-03    -15.0011E-03    -17.1820E-03    -16.2099E-03     31.2109E-03    -15.0011E-03     6.55041E-03     95.8256E+06     5.87031E+06    -22.7878E+06     3.63515E+06     95.5093E+06    -20.2364E+06     2.00035E+06         32.3724
            1855     985.833E-06     97.9973E-03         4.04238         2.84809        -8.85046         3.66413        -8.47222         2.84809        -1.02261     28.8049E-03    -14.3589E-03    -14.4461E-03    -14.3982E-03     28.7670E-03    -14.3688E-03     2.40705E-03     82.2926E+06     78.3756E+06     29.9264E+06     79.5823E+06     32.3410E+06     78.6712E+06    -10.2077E+06         22.0566
            1856     1.97183E-03     97.9988E-03         3.35973         3.25124        -8.54247         3.23232        -8.41505         3.25124         1.00975     28.6626E-03    -14.3141E-03    -14.3484E-03    -14.2188E-03     28.5492E-03    -14.3304E-03     4.26735E-03     82.9426E+06     73.4987E+06     22.3108E+06     76.8961E+06     28.3574E+06     73.4987E+06    -18.0046E+06         22.0654
            1857     2.95799E-03     98.0012E-03         3.26501         3.21763        -8.39707         3.22177        -8.37905         3.24284    -403.572E-03     28.4956E-03    -14.2256E-03    -14.2700E-03    -14.0166E-03     28.2519E-03    -14.2353E-03     6.32419E-03     82.6968E+06     66.2246E+06     8.41125E+06     73.0921E+06     18.0159E+06     66.2246E+06    -24.8692E+06         22.0824
            1858     3.94438E-03     98.0048E-03         3.23006         3.16275        -8.26719         3.15727        -8.26171         3.23006    -73.0667E-03     28.3450E-03    -14.1179E-03    -14.2270E-03    -13.7982E-03     27.9195E-03    -14.1213E-03     8.36514E-03     79.7407E+06     57.3116E+06    -6.65637E+06     67.7798E+06     5.30448E+06     57.3116E+06    -29.8159E+06         22.1113
            1859     4.93102E-03     98.0092E-03         3.20679         3.07520        -8.12713         3.06698        -8.11891         3.20679     45.1511E-03     28.2679E-03    -14.0007E-03    -14.2673E-03    -13.6016E-03     27.6023E-03    -14.0007E-03     10.4473E-03     73.8849E+06     47.4594E+06    -21.1995E+06     61.2595E+06    -8.57407E+06     47.4594E+06    -32.2438E+06         22.1569
            1860     5.91775E-03     98.0147E-03         3.17654         2.98946        -7.98489         2.98454        -7.97997         3.17654     372.751E-03     28.2802E-03    -13.8867E-03    -14.3935E-03    -13.4317E-03     27.3184E-03    -13.8867E-03     12.5561E-03     65.4974E+06     37.8598E+06    -35.2910E+06     53.6537E+06    -23.4473E+06     37.8598E+06    -32.4187E+06         22.2254
            1861     6.90482E-03     98.0211E-03         3.14778         2.97682        -7.92646         2.97417        -7.92381         3.14778     280.171E-03     28.4552E-03    -13.7840E-03    -14.6713E-03    -13.3642E-03     27.1481E-03    -13.7840E-03     14.6744E-03     55.9187E+06     29.1933E+06    -44.9404E+06     45.3232E+06    -34.3449E+06     29.1933E+06    -30.9162E+06         22.3247
            1862     7.89176E-03     98.0289E-03         3.12663         2.99670        -7.91791         2.99335        -7.91456         3.12663     97.9740E-03     28.8970E-03    -13.7190E-03    -15.1780E-03    -13.4886E-03     27.2077E-03    -13.7190E-03     16.8130E-03     45.0157E+06     23.2604E+06    -51.0702E+06     36.1351E+06    -42.1896E+06     23.2604E+06    -27.7738E+06         22.4649
            1863     8.87845E-03     98.0378E-03         3.10941         2.95879        -7.85564         2.95790        -7.85475         3.10941    -152.902E-03     29.5174E-03    -13.6918E-03    -15.8256E-03    -13.7856E-03     27.4774E-03    -13.6918E-03     18.6954E-03     34.2133E+06     18.5147E+06    -51.8530E+06     27.0882E+06    -44.7279E+06     18.5147E+06    -23.6947E+06         22.6596
            1864     9.86483E-03     98.0477E-03         3.08842         2.84870        -7.72135         2.84767        -7.72032         3.08842    -160.381E-03     30.4351E-03    -13.7348E-03    -16.7003E-03    -14.3026E-03     28.0373E-03    -13.7348E-03     20.6139E-03     26.5158E+06     16.5777E+06    -52.6936E+06     19.3438E+06    -47.2857E+06     18.3419E+06    -19.6229E+06         22.9271
            1865     10.8505E-03     98.0594E-03         3.06011         2.72103        -7.55714         2.71630        -7.55241         3.06011    -416.110E-03     31.6348E-03    -13.8057E-03    -17.8292E-03    -15.0759E-03     28.8816E-03    -13.8057E-03     22.6052E-03     18.6055E+06     10.6816E+06    -56.4530E+06     12.5747E+06    -52.1864E+06     12.4457E+06    -17.1420E+06         23.2956
            1866     11.8354E-03     98.0728E-03         3.02590         2.60922        -7.39650         2.59856        -7.38584         3.02590    -644.242E-03     32.6435E-03    -13.9112E-03    -18.7323E-03    -15.8948E-03     29.8060E-03    -13.9112E-03     23.4103E-03     13.4930E+06     5.30692E+06    -44.1059E+06     7.31143E+06    -40.4077E+06      7.7903E+06    -13.6906E+06         23.8205
            1867     12.8195E-03     98.0864E-03         2.98755         2.48891        -7.21858         2.47809        -7.20776         2.98755    -641.806E-03     33.9690E-03    -14.0946E-03    -19.8744E-03    -16.8692E-03     30.9637E-03    -14.0946E-03     24.6689E-03     9.36606E+06     1.37542E+06    -42.3706E+06     3.90261E+06    -40.6735E+06     5.14182E+06    -6.95230E+06         24.5911
            1868     13.8025E-03     98.1034E-03         2.94391         2.30869        -6.97245         2.30445        -6.96820         2.94391    -348.535E-03     35.2367E-03    -14.2505E-03    -20.9862E-03    -17.8686E-03     32.1191E-03    -14.2505E-03     25.7034E-03     3.41330E+06    -15.8644E+06    -53.2496E+06     1.12478E+06    -52.2441E+06    -14.5813E+06     3.45384E+06         25.7105
            1869     14.7849E-03     98.1211E-03         2.89208         2.06805        -6.65950         2.06505        -6.65650         2.89208    -287.206E-03     36.0322E-03    -14.4219E-03    -21.6103E-03    -18.5326E-03     32.9544E-03    -14.4219E-03     25.9029E-03     16.6774E+06    -18.2079E+06    -35.8379E+06    -2.51457E+06    -12.2322E+06    -22.6216E+06     11.1680E+06         27.3179
            1870     15.7660E-03     98.1409E-03         2.83016         1.78283        -6.30116         1.77780        -6.29613         2.83016    -402.873E-03     35.5667E-03    -14.6089E-03    -20.9578E-03    -18.5407E-03     33.1496E-03    -14.6089E-03     22.6074E-03     42.4512E+06    -7.25591E+06    -24.5407E+06    -4.88327E+06     40.0785E+06    -24.5407E+06     7.62602E+06         29.6403
            1871     16.7487E-03     98.1544E-03         2.75874         1.47511        -5.91554         1.47166        -5.91209         2.75874    -314.068E-03     33.2453E-03    -14.8548E-03    -18.3905E-03    -17.4551E-03     32.3099E-03    -14.8548E-03     6.30592E-03     100.155E+06     9.61456E+06    -15.6796E+06    -2.56488E+06     99.9115E+06    -3.25649E+06     1.47761E+06         32.6173
            1872     986.996E-06     99.0254E-03         3.77756         2.77802        -8.37851         3.54096        -8.14191         2.77802    -651.756E-03     26.4082E-03    -13.1689E-03    -13.2393E-03    -13.1800E-03     26.3588E-03    -13.1788E-03     2.60262E-03     87.8310E+06     83.1480E+06     47.8196E+06     85.0671E+06     50.2879E+06     83.4437E+06    -8.88311E+06         21.8733
            1873     1.97422E-03     99.0267E-03         3.24539         3.15901        -8.21961         3.15769        -8.13192         3.15901     844.191E-03     26.2586E-03    -13.1012E-03    -13.1574E-03    -12.9977E-03     26.1088E-03    -13.1111E-03     4.69459E-03     86.6201E+06     75.4413E+06     38.7430E+06     80.6100E+06     44.7531E+06     75.4413E+06    -15.7281E+06         21.8805
            1874     2.96152E-03     99.0289E-03         3.19150         3.14889        -8.13429         3.16978        -8.12374         3.16008    -419.227E-03     26.1211E-03    -13.0001E-03    -13.1210E-03    -12.7975E-03     25.7976E-03    -13.0001E-03     6.96129E-03     82.4475E+06     64.0309E+06     22.7714E+06     73.5625E+06     31.6565E+06     64.0309E+06    -21.2237E+06         21.8956
            1875     3.94912E-03     99.0319E-03         3.15611         3.11729        -8.04095         3.11389        -8.03755         3.15611    -198.413E-03     25.9885E-03    -12.8633E-03    -13.1252E-03    -12.5470E-03     25.4103E-03    -12.8633E-03     9.30961E-03     74.2680E+06     49.1245E+06     5.51426E+06     63.9937E+06     15.7886E+06     49.1245E+06    -24.5081E+06         21.9230
            1876     4.93693E-03     99.0359E-03         3.13861         3.02634        -7.89833         3.02031        -7.89230         3.13861    -5.06339E-03     25.9530E-03    -12.7173E-03    -13.2357E-03    -12.3213E-03     25.0386E-03    -12.7173E-03     11.7043E-03     62.2326E+06     32.7739E+06    -12.3880E+06     52.0896E+06    -2.24496E+06     32.7739E+06    -25.5440E+06         21.9685
            1877     5.92508E-03     99.0410E-03         3.11089         2.92862        -7.75239         2.92554        -7.74931         3.11089     295.652E-03     26.1114E-03    -12.5902E-03    -13.5212E-03    -12.1968E-03     24.7870E-03    -12.5902E-03     14.1260E-03     47.5939E+06     18.3218E+06    -28.6506E+06     38.8111E+06    -19.8679E+06     18.3218E+06    -24.2909E+06         22.0393
            1878     6.91312E-03     99.0473E-03         3.08354         2.92478        -7.70155         2.92374        -7.70051         3.08354     177.668E-03     26.5342E-03    -12.4999E-03    -14.0343E-03    -12.2298E-03     24.7297E-03    -12.4999E-03     16.6090E-03     31.8227E+06     7.16308E+06    -40.3989E+06     24.5734E+06    -33.1496E+06     7.16308E+06    -21.6541E+06         22.1440
            1879     7.90109E-03     99.0550E-03         3.06370         2.94007        -7.68606         2.93791        -7.68390         3.06370    -24.2626E-03     27.2451E-03    -12.4681E-03    -14.7771E-03    -12.4528E-03     24.9209E-03    -12.4681E-03     19.1067E-03     16.3399E+06     882.681E+03    -48.6111E+06     10.8560E+06    -43.1272E+06     882.681E+03    -17.9689E+06         22.2932
            1880     8.88880E-03     99.0644E-03         3.04592         2.88073        -7.60477         2.87939        -7.60343         3.04592    -212.304E-03     28.2246E-03    -12.4965E-03    -15.7281E-03    -12.9468E-03     25.4433E-03    -12.4965E-03     21.3216E-03     5.94033E+06    -4.38643E+06    -50.6476E+06    -1.18595E+06    -46.4448E+06    -1.46295E+06    -14.3831E+06         22.5009
            1881     9.87576E-03     99.0750E-03         3.02235         2.75302        -7.44374         2.75186        -7.44258         3.02235    -196.146E-03     29.5774E-03    -12.6115E-03    -16.9659E-03    -13.7509E-03     26.3624E-03    -12.6115E-03     23.5374E-03     4.15496E+06    -9.42732E+06    -51.8259E+06    -10.3301E+06    -48.1833E+06     1.41524E+06    -12.1975E+06         22.7857
            1882     10.8618E-03     99.0879E-03         2.98968         2.59429        -7.24431         2.58908        -7.23910         2.98968    -427.067E-03     31.2706E-03    -12.7853E-03    -18.4853E-03    -14.8812E-03     27.6665E-03    -12.7853E-03     25.7427E-03     1.48007E+06    -13.1881E+06    -55.0736E+06    -16.3498E+06    -51.8940E+06     1.46215E+06    -10.9962E+06         23.1752
            1883     11.8465E-03     99.1025E-03         2.94860         2.43621        -7.03182         2.42494        -7.02055         2.94860    -646.541E-03     32.7397E-03    -13.0030E-03    -19.7366E-03    -16.1305E-03     29.1335E-03    -13.0030E-03     26.5032E-03    -348.155E+03    -16.2583E+06    -47.2457E+06    -20.3160E+06    -43.1701E+06    -366.074E+03    -9.41151E+06         23.7229
            1884     12.8301E-03     99.1175E-03         2.90074         2.26674        -6.79706         2.25590        -6.78622         2.90074    -620.190E-03     34.4924E-03    -13.2990E-03    -21.1934E-03    -17.4746E-03     30.7736E-03    -13.2990E-03     27.7795E-03    -2.93526E+06    -18.9001E+06    -49.9037E+06    -21.5493E+06    -47.2545E+06    -2.93526E+06    -5.46899E+06         24.5176
            1885     13.8122E-03     99.1363E-03         2.84653         2.06954        -6.52949         2.06554        -6.52549         2.84653    -318.166E-03     36.2187E-03    -13.5784E-03    -22.6403E-03    -18.9604E-03     32.5388E-03    -13.5784E-03     28.4487E-03    -12.3863E+06    -29.6634E+06    -65.3344E+06    -19.8800E+06    -64.6445E+06    -22.8596E+06     2.35535E+06         25.6659
            1886     14.7930E-03     99.1547E-03         2.78569         1.85397        -6.24308         1.85104        -6.24015         2.78569    -265.783E-03     37.2506E-03    -13.8839E-03    -23.3667E-03    -19.9121E-03     33.7960E-03    -13.8839E-03     28.1033E-03     11.3801E+06    -24.8557E+06    -43.1929E+06    -15.4782E+06    -15.8266E+06    -25.3637E+06     8.84074E+06         27.3259
            1887     15.7738E-03     99.1766E-03         2.71832         1.62110        -5.94039         1.61618        -5.93548         2.71832    -385.056E-03     37.0722E-03    -14.2258E-03    -22.8465E-03    -20.2862E-03     34.5119E-03    -14.2258E-03     23.8008E-03     52.8523E+06    -10.2403E+06    -18.9899E+06    -10.7306E+06     51.5298E+06    -17.1772E+06     4.49564E+06         29.7854
            1888     16.7526E-03     99.1891E-03         2.64572         1.37469        -5.63207         1.37105        -5.62843         2.64572    -317.812E-03     35.2723E-03    -14.7099E-03    -20.5624E-03    -19.6380E-03     34.3479E-03    -14.7099E-03     5.82544E-03     103.568E+06     26.4313E+06    -12.8798E+06    -6.37647E+06     103.493E+06     20.0024E+06    -2.32497E+06         33.0572
            1889     988.617E-06     100.051E-03         3.47297         2.72393        -7.88941         3.33896        -7.75540         2.72393    -369.358E-03     23.2615E-03    -11.5894E-03    -11.6721E-03    -11.6100E-03     23.1994E-03    -11.5894E-03     2.71253E-03     87.7721E+06     82.6515E+06     62.5873E+06     85.0893E+06     65.2700E+06     82.6515E+06    -7.22310E+06         21.6441
            1890     1.97724E-03     100.052E-03         3.09021         3.03197        -7.81113         3.03469        -7.75560         3.03197     644.624E-03     23.1441E-03    -11.5201E-03    -11.6240E-03    -11.4283E-03     22.9484E-03    -11.5201E-03     5.02536E-03     83.5290E+06     71.1973E+06     52.3782E+06     78.2928E+06     57.6144E+06     71.1973E+06    -11.5578E+06         21.6519
            1891     2.96617E-03     100.054E-03         3.06617         3.03172        -7.76319         3.05527        -7.75624         3.03566    -444.910E-03     23.0423E-03    -11.3981E-03    -11.6442E-03    -11.2185E-03     22.6166E-03    -11.3981E-03     7.48732E-03     74.1350E+06     55.0756E+06      34.837E+06     67.6054E+06     41.3667E+06     55.0756E+06    -14.6051E+06         21.6687
            1892     3.95526E-03     100.056E-03         3.04409         3.02036        -7.70354         3.02516        -7.70134         3.03709    -263.911E-03     23.0052E-03    -11.2514E-03    -11.7538E-03    -10.9899E-03     22.2412E-03    -11.2514E-03     10.0505E-03     59.5860E+06     34.9017E+06     15.6604E+06     53.4548E+06     21.7915E+06     34.9017E+06    -15.0832E+06         21.6998
            1893     4.94467E-03     100.060E-03         3.03054         2.98859        -7.63597         2.98456        -7.63194         3.03054     19.9196E-03     23.1460E-03    -11.1105E-03    -12.0355E-03    -10.8265E-03     21.9370E-03    -11.1105E-03     12.6911E-03     40.3427E+06     14.0737E+06    -4.43678E+06     35.5805E+06     325.455E+03     14.0737E+06    -13.2832E+06         21.7520
            1894     5.93406E-03     100.064E-03         3.01822         2.93420        -7.54340         2.93192        -7.54111         3.01822     253.678E-03     23.5711E-03    -11.0089E-03    -12.5622E-03    -10.8145E-03     21.8234E-03    -11.0089E-03     15.3877E-03     19.0187E+06    -3.43696E+06    -22.9957E+06     15.6128E+06    -19.5898E+06    -3.43696E+06    -10.2674E+06         21.8330
            1895     6.92344E-03     100.071E-03         3.00167         2.87942        -7.46327         2.87917        -7.46301         3.00167     87.8184E-03     24.3213E-03    -10.9703E-03    -13.3510E-03    -10.9876E-03     21.9579E-03    -10.9703E-03     18.1699E-03    -1.03133E+06    -14.6874E+06    -36.8285E+06    -3.74457E+06    -34.2491E+06    -14.5536E+06    -6.87702E+06         21.9517
            1896     7.91248E-03     100.079E-03         2.98354         2.84672        -7.40046         2.84506        -7.39880         2.98354    -123.723E-03     25.4498E-03    -11.0145E-03    -14.4353E-03    -11.4308E-03     22.4453E-03    -11.0145E-03     20.9772E-03    -12.7754E+06    -22.9617E+06    -46.0754E+06    -20.0312E+06    -44.0707E+06    -17.7106E+06    -4.92699E+06         22.1186
            1897     8.90089E-03     100.089E-03         2.96355         2.77680        -7.29988         2.77523        -7.29830         2.96355    -217.553E-03     26.8906E-03    -11.1413E-03    -15.7493E-03    -12.1985E-03     23.3397E-03    -11.1413E-03     23.5070E-03    -13.5969E+06    -30.4872E+06    -48.7310E+06    -31.0932E+06    -47.1121E+06    -14.6098E+06    -4.00214E+06         22.3476
            1898     9.88830E-03     100.101E-03         2.93694         2.63584        -7.12434         2.63507        -7.12358         2.93694    -155.132E-03     28.7225E-03    -11.3587E-03    -17.3638E-03    -13.3236E-03     24.6823E-03    -11.3587E-03     26.0209E-03    -7.52729E+06    -34.8232E+06    -50.4077E+06    -37.6349E+06    -47.5959E+06    -7.52729E+06    -4.15638E+06         22.6569
            1899     10.8745E-03     100.115E-03         2.90045         2.46223        -6.90039         2.45759        -6.89574         2.90045    -380.924E-03     30.9595E-03    -11.6506E-03    -19.3089E-03    -14.8585E-03     26.5091E-03    -11.6506E-03     28.5266E-03    -3.50973E+06    -37.3585E+06    -54.4029E+06    -40.8756E+06    -50.8858E+06    -3.50973E+06    -5.48713E+06         23.0734
            1900     11.8590E-03     100.132E-03         2.85378         2.26080        -6.63863         2.25072        -6.62855         2.85378    -594.089E-03     32.9200E-03    -11.9990E-03    -20.9210E-03    -16.5838E-03     28.5828E-03    -11.9990E-03     29.2528E-03    -2.41367E+06    -33.4477E+06    -50.4817E+06    -40.8121E+06    -43.1174E+06    -2.41367E+06    -6.58507E+06         23.6490
            1901     12.8417E-03     100.148E-03         2.79727         2.03128        -6.34037         2.02240        -6.33149         2.79727    -534.872E-03     35.0831E-03    -12.4251E-03    -22.6580E-03    -18.3323E-03     30.7574E-03    -12.4251E-03     30.3902E-03    -4.99299E+06    -30.6145E+06    -56.4699E+06    -37.3420E+06    -49.7424E+06    -4.99299E+06    -6.94481E+06         24.4717
            1902     13.8230E-03     100.170E-03         2.73251         1.80776        -6.04182         1.80487        -6.03893         2.73251    -213.369E-03     37.3838E-03    -12.8412E-03    -24.5426E-03    -20.3051E-03     33.1463E-03    -12.8412E-03     31.2100E-03    -17.4471E+06    -38.4654E+06    -74.7531E+06    -30.4418E+06    -73.6589E+06    -26.5649E+06    -3.74363E+06         25.6515
            1903     14.8019E-03     100.190E-03         2.66221         1.61080        -5.77208         1.60891        -5.77019         2.66221    -160.322E-03     38.7828E-03    -13.3051E-03    -25.4777E-03    -21.7038E-03     35.0089E-03    -13.3051E-03     30.2028E-03     10.6132E+06    -24.8009E+06    -49.6435E+06    -21.5576E+06    -17.4727E+06    -24.8009E+06    -83.2159E+03         27.3661
            1904     15.7800E-03     100.213E-03         2.58884         1.43049        -5.52783         1.42728        -5.52462         2.58884    -294.182E-03     38.7840E-03    -13.8218E-03    -24.9622E-03    -22.3142E-03     36.1359E-03    -13.8218E-03     24.9691E-03     61.7554E+06    -5.76355E+06    -15.0736E+06    -11.6046E+06     61.1502E+06    -8.62730E+06    -2.95934E+06         29.9710
            1905     16.7588E-03     100.227E-03         2.51475         1.25371        -5.29952         1.25131        -5.29713         2.51475    -243.950E-03     38.0839E-03    -14.5530E-03    -23.5309E-03    -22.5305E-03     37.0835E-03    -14.5530E-03     5.39095E-03     104.700E+06     43.6410E+06    -7.76422E+06    -4.44892E+06     104.249E+06     40.7773E+06    -5.76219E+06         33.5687
            1906     990.400E-06     101.073E-03         3.13847         2.66823        -7.37704         3.07051        -7.30908         2.66823    -109.335E-03     19.4526E-03    -9.67507E-03    -9.77752E-03    -9.69873E-03     19.3738E-03    -9.67507E-03     2.79221E-03     82.7694E+06     74.7464E+06     67.3189E+06     76.0864E+06     75.0995E+06     73.6489E+06    -4.12026E+06         21.3785
            1907     1.98102E-03     101.073E-03         2.92508         2.87363        -7.34126         2.89120        -7.30738         2.87363     481.278E-03     19.3860E-03    -9.60123E-03    -9.78473E-03    -9.53852E-03     19.1398E-03    -9.60123E-03     5.15520E-03     73.1638E+06     62.1788E+06     53.5034E+06     66.2388E+06     64.5033E+06     58.1039E+06    -4.86941E+06         21.3901
            1908     2.97170E-03     101.075E-03         2.92953         2.88445        -7.34974         2.92435        -7.34456         2.88445    -432.230E-03     19.3836E-03    -9.48228E-03    -9.90137E-03    -9.36375E-03     18.8460E-03    -9.48228E-03     7.70839E-03     56.9635E+06     42.9263E+06     33.0170E+06     51.1031E+06     44.5082E+06     37.2955E+06    -3.83881E+06         21.4136
            1909     3.96264E-03     101.077E-03         2.93874         2.89559        -7.33765         2.93636        -7.33551         2.89583    -294.993E-03     19.5574E-03    -9.36017E-03    -10.1972E-03    -9.23768E-03     18.5978E-03    -9.36017E-03     10.3790E-03     37.9142E+06     17.0761E+06     10.3577E+06     30.7893E+06     21.0338E+06     13.5249E+06    -146.188E+03         21.4553
            1910     4.95357E-03     101.080E-03         2.94459         2.90349        -7.33375         2.94101        -7.33081         2.90413     34.0937E-03     20.0210E-03    -9.27497E-03    -10.7461E-03    -9.23250E-03     18.5075E-03    -9.27497E-03     13.1904E-03     17.0506E+06    -6.95957E+06    -12.7316E+06     7.82966E+06    -2.61296E+06    -7.85728E+06     4.75758E+06         21.5220
            1911     5.94445E-03     101.085E-03         2.92177         2.89372        -7.28836         2.90642        -7.28646         2.90716     239.432E-03     20.8281E-03    -9.25475E-03    -11.5734E-03    -9.39943E-03     18.6542E-03    -9.25475E-03     16.1186E-03    -3.51719E+06    -22.6586E+06    -33.7602E+06    -14.5926E+06    -22.6849E+06    -22.6586E+06     8.63711E+06         21.6214
            1912     6.93497E-03     101.091E-03         2.90210         2.83348        -7.19529         2.83391        -7.19514         2.90153     54.9327E-03     22.0340E-03    -9.31700E-03    -12.7170E-03    -9.81334E-03     19.1303E-03    -9.31700E-03     19.1611E-03    -20.8731E+06    -28.5940E+06    -48.1095E+06    -33.0847E+06    -36.0318E+06    -28.4601E+06     9.94976E+06         21.7620
            1913     7.92496E-03     101.100E-03         2.88723         2.75182        -7.08931         2.75036        -7.08786         2.88723    -162.567E-03     23.6799E-03    -9.47330E-03    -14.2066E-03    -10.5477E-03     20.0210E-03    -9.47330E-03     22.3279E-03    -25.1074E+06    -34.2641E+06    -54.4284E+06    -45.6224E+06    -42.7746E+06     -25.403E+06     8.29491E+06         21.9539
            1914     8.91387E-03     101.111E-03         2.86558         2.65144        -6.95366         2.64996        -6.95218         2.86558    -187.749E-03     25.6239E-03    -9.71780E-03    -15.9061E-03    -11.6220E-03     21.3398E-03    -9.71780E-03     25.2278E-03    -17.7874E+06    -42.3291E+06    -55.4303E+06    -52.2161E+06    -45.5433E+06    -17.7874E+06     4.76165E+06         22.2102
            1915     9.90178E-03     101.125E-03         2.83528         2.49676        -6.75390         2.49645        -6.75359         2.83528    -88.5779E-03     27.9859E-03    -10.0481E-03    -17.9378E-03    -13.0998E-03     23.1479E-03    -10.0481E-03     28.1694E-03    -8.54911E+06    -44.5154E+06    -54.0382E+06    -53.5204E+06    -45.0332E+06    -8.54911E+06     1.33619E+06         22.5485
            1916     10.8878E-03     101.141E-03         2.79409         2.30052        -6.50288         2.29721        -6.49957         2.79409    -295.479E-03     30.7608E-03    -10.4629E-03    -20.2979E-03    -15.0211E-03     25.4841E-03    -10.4629E-03     31.0590E-03    -2.49769E+06    -44.8319E+06    -54.2870E+06    -51.4700E+06    -47.6490E+06    -2.49769E+06    -2.43216E+06         22.9948
            1917     11.8719E-03     101.160E-03         2.74144         2.07170        -6.21029         2.06450        -6.20309         2.74144    -483.171E-03     33.2021E-03    -10.9421E-03    -22.2600E-03    -17.1444E-03     28.0865E-03    -10.9421E-03     32.0357E-03    -248.515E+03    -34.9010E+06    -52.1105E+06    -47.3824E+06    -39.6291E+06    -248.515E+03    -6.85610E+06         23.6002
            1918     12.8537E-03     101.180E-03         2.67797         1.81877        -5.88418         1.81328        -5.87870         2.67797    -391.728E-03     35.8684E-03    -11.5106E-03    -24.3578E-03    -19.3537E-03     30.8644E-03    -11.5106E-03     33.2290E-03    -2.06222E+06    -27.2281E+06    -60.4887E+06    -40.4900E+06    -47.2268E+06    -2.06222E+06    -11.4930E+06         24.4526
            1919     13.8336E-03     101.203E-03         2.60575         1.57887        -5.56815         1.57715        -5.56643         2.60575    -68.8578E-03     38.7635E-03    -12.0776E-03    -26.6859E-03    -21.7824E-03     33.8600E-03    -12.0776E-03     34.4061E-03    -13.3406E+06    -37.4577E+06    -81.5401E+06    -30.6082E+06    -76.9682E+06    -24.7619E+06    -13.7776E+06         25.6645
            1920     14.8113E-03     101.227E-03         2.52845         1.38321        -5.29923         1.38219        -5.29822         2.52845    -14.7667E-03     40.5318E-03    -12.7060E-03    -27.8258E-03    -23.5986E-03     36.3046E-03    -12.7060E-03     32.8737E-03     16.6174E+06    -20.2708E+06    -52.5688E+06    -18.2062E+06    -17.7453E+06    -20.2708E+06    -12.7046E+06         27.4277
            1921     15.7876E-03     101.251E-03         2.44995         1.22980        -5.08198         1.22859        -5.08077         2.44995    -165.183E-03     41.2255E-03    -13.4269E-03    -27.7986E-03    -24.9225E-03     38.3494E-03    -13.4269E-03     27.1483E-03     66.7623E+06     2.33751E+06    -10.0614E+06    -7.94133E+06     64.6422E+06     2.33751E+06    -11.0864E+06         30.1530
            1922     16.7618E-03     101.267E-03         2.37394         1.11022        -4.91384         1.10924        -4.91286         2.37394    -150.755E-03     41.4409E-03    -14.3829E-03    -27.0581E-03    -25.9204E-03     40.3032E-03    -14.3829E-03     6.42447E-03     101.374E+06     53.3737E+06    -3.67182E+06    -2.96529E+06     100.668E+06     53.3737E+06    -7.11482E+06         33.9923
            1923     992.618E-06     102.090E-03         2.93484         2.53086        -6.87687         2.89920        -6.84416         2.53379     132.553E-03     15.1811E-03    -7.52109E-03    -7.65996E-03    -7.56556E-03     15.0867E-03    -7.52109E-03     2.72274E-03     76.8947E+06     57.8647E+06     54.5356E+06     57.0914E+06     75.4364E+06     56.7672E+06     3.15253E+06         21.0941
            1924     1.98513E-03     102.091E-03         2.75631         2.71643        -6.87859         2.73115        -6.85635         2.71936     407.735E-03     15.2222E-03    -7.47050E-03    -7.75173E-03    -7.45996E-03     14.9305E-03    -7.47050E-03     4.96981E-03     65.1683E+06     40.4383E+06     34.3953E+06     41.7635E+06     61.8750E+06     36.3634E+06     7.30172E+06         21.1133
            1925     2.97789E-03     102.092E-03         2.79128         2.73141        -6.90635         2.78703        -6.90210         2.73141    -397.162E-03     15.4381E-03    -7.39692E-03    -8.04119E-03    -7.40451E-03     14.8014E-03    -7.39692E-03     7.48732E-03     45.9957E+06     18.1503E+06     6.92295E+06     20.3537E+06     38.1957E+06     12.5195E+06     13.4461E+06         21.1492
            1926     3.97056E-03     102.094E-03         2.83426         2.75047        -6.95616         2.83124        -6.95315         2.75047    -334.991E-03     15.9557E-03    -7.35697E-03    -8.59874E-03    -7.46441E-03     14.8214E-03    -7.35697E-03     10.1931E-03     26.6551E+06    -6.23027E+06    -20.8296E+06    -3.27081E+06     12.6475E+06    -9.78146E+06     20.3268E+06         21.2077
            1927     4.96308E-03     102.097E-03         2.86891         2.76977        -6.99336         2.86661        -6.99106         2.76977     9.34420E-03     16.8342E-03    -7.37720E-03    -9.45699E-03    -7.67573E-03     15.0529E-03    -7.37720E-03     13.1219E-03     9.01925E+06    -25.3081E+06    -45.2126E+06    -25.3511E+06    -9.94460E+06    -26.2058E+06     25.3645E+06         21.2952
            1928     5.95523E-03     102.102E-03         2.83794         2.78320        -6.96844         2.83645        -6.96695         2.78320     226.237E-03     18.1236E-03    -7.47821E-03    -10.6454E-03    -8.10046E-03     15.5787E-03    -7.47821E-03     16.2704E-03    -6.63764E+06    -33.3410E+06    -62.8204E+06    -42.6320E+06    -26.8260E+06    -33.3410E+06     26.8102E+06         21.4186
            1929     6.94684E-03     102.109E-03         2.79594         2.75612        -6.88786         2.76642        -6.88758         2.78536     61.9814E-03     19.8525E-03    -7.66531E-03    -12.1872E-03    -8.79718E-03     16.4625E-03    -7.66531E-03     19.6577E-03    -19.1034E+06    -31.4978E+06    -70.2848E+06    -53.7465E+06    -35.6417E+06    -31.4978E+06     23.7949E+06         21.5857
            1930     7.93744E-03     102.119E-03         2.77485         2.64860        -6.74261         2.64736        -6.74137         2.77485    -160.456E-03     21.9969E-03    -7.93690E-03    -14.0600E-03    -9.79378E-03     17.7307E-03    -7.93690E-03     23.2533E-03    -21.7087E+06    -30.5297E+06    -68.7481E+06    -58.4823E+06    -38.8216E+06    -23.6827E+06     17.3700E+06         21.8059
            1931     8.92713E-03     102.132E-03         2.75142         2.50100        -6.55332         2.49976        -6.55208         2.75142    -159.973E-03     24.4739E-03    -8.29575E-03    -16.1781E-03    -11.1900E-03     19.4857E-03    -8.29575E-03     26.6475E-03    -13.5730E+06    -36.0191E+06    -63.6295E+06    -58.6885E+06    -40.9601E+06    -13.5730E+06     10.4580E+06         22.0918
            1932     9.91493E-03     102.147E-03         2.71682         2.34100        -6.34105         2.34092        -6.34097         2.71682    -31.8353E-03     27.3721E-03    -8.73731E-03    -18.6348E-03    -12.9915E-03     21.7288E-03    -8.73731E-03     30.1588E-03    -4.25103E+06    -37.9571E+06    -57.5065E+06    -56.0253E+06    -39.4384E+06    -4.25103E+06     3.49727E+06         22.4601
            1933     10.9011E-03     102.166E-03         2.67104         2.12743        -6.07116         2.12577        -6.06950         2.67104    -177.028E-03     30.6477E-03    -9.26644E-03    -21.3813E-03    -15.1912E-03     24.4576E-03    -9.26644E-03     33.6570E-03     1.33214E+06    -38.9959E+06    -53.9679E+06    -50.4685E+06    -42.4953E+06     1.33214E+06    -3.15833E+06         22.9361
            1934     11.8848E-03     102.189E-03         2.61276         1.87102        -5.74873         1.86719        -5.74490         2.61276    -333.329E-03     33.5435E-03    -9.87073E-03    -23.6728E-03    -17.6443E-03     27.5150E-03    -9.87073E-03     35.0613E-03     4.93334E+06    -26.9776E+06    -49.7721E+06    -43.7898E+06    -32.9599E+06     4.93334E+06    -8.96287E+06         23.5712
            1935     12.8662E-03     102.211E-03         2.54343         1.61836        -5.42374         1.61574        -5.42112         2.54343    -246.450E-03     36.7332E-03    -10.5831E-03    -26.1501E-03    -20.3101E-03     30.8932E-03    -10.5831E-03     36.4818E-03     4.79767E+06    -18.2619E+06    -59.6358E+06    -37.5922E+06    -40.3056E+06     4.79767E+06    -15.9364E+06         24.4540
            1936     13.8449E-03     102.238E-03         2.46663         1.39561        -5.12345         1.39388        -5.12172         2.46663     57.4705E-03     40.3345E-03    -11.3040E-03    -29.0304E-03    -23.2895E-03     34.5936E-03    -11.3040E-03     38.1667E-03    -3.21147E+06    -31.2656E+06    -83.2737E+06    -28.9226E+06    -70.9321E+06    -17.8960E+06    -25.1349E+06         25.6979
            1937     14.8206E-03     102.265E-03         2.38605         1.20492        -4.85685         1.20352        -4.85544         2.38605     105.150E-03     42.5080E-03    -12.1003E-03    -30.4077E-03    -25.6352E-03     37.7355E-03    -12.1003E-03     35.9276E-03     20.1071E+06    -15.5350E+06    -56.6837E+06    -17.0401E+06    -19.5366E+06    -15.5350E+06    -26.8295E+06         27.5008
            1938     15.7951E-03     102.291E-03         2.30478         1.04503        -4.62967         1.04479        -4.62944         2.30478    -56.1411E-03     43.9746E-03    -13.0143E-03    -30.9602E-03    -27.7093E-03     40.7237E-03    -13.0143E-03     30.2195E-03     62.7292E+06     6.45455E+06    -13.7174E+06    -8.30575E+06     57.3175E+06     6.45455E+06    -16.5409E+06         30.3065
            1939     16.7663E-03     102.313E-03         2.22709     952.193E-03        -4.48695     951.517E-03        -4.48627         2.22709    -107.745E-03     44.9694E-03    -14.1822E-03    -30.7872E-03    -29.4062E-03     43.5883E-03    -14.1822E-03     8.58703E-03     96.7862E+06     57.4691E+06    -4.80171E+06    -4.17837E+06     95.0964E+06     58.5355E+06    -6.52935E+06         34.3011
            1940     994.699E-06     103.104E-03         2.76656         2.44037        -6.44282         2.74721        -6.42639         2.44330     344.970E-03     10.7377E-03    -5.29003E-03    -5.44766E-03    -5.34448E-03     10.6345E-03    -5.29003E-03     2.39537E-03     64.2603E+06     21.8472E+06     9.84623E+06     17.1140E+06     56.9925E+06     21.8472E+06     18.1616E+06         20.8161
            1941     1.98950E-03     103.104E-03         2.61790         2.58797        -6.45036         2.59597        -6.43580         2.59535     405.747E-03     11.0144E-03    -5.31288E-03    -5.70156E-03    -5.38210E-03     10.6950E-03    -5.31288E-03     4.42918E-03     58.8893E+06     3.87350E+06    -13.9552E+06    -1.29617E+06     46.2303E+06     3.87350E+06     27.4147E+06         20.8457
            1942     2.98401E-03     103.105E-03         2.64458         2.59679        -6.47532         2.63642        -6.47161         2.60124    -326.692E-03     11.6134E-03    -5.35980E-03    -6.25360E-03    -5.55310E-03     10.9129E-03    -5.35980E-03     6.82329E-03     42.4621E+06    -13.1703E+06    -41.0804E+06    -21.4482E+06     22.8298E+06    -13.1703E+06     35.2178E+06         20.8975
            1943     3.97830E-03     103.107E-03         2.69442         2.61614        -6.53833         2.69064        -6.53454         2.61614    -353.625E-03     12.5495E-03    -5.45058E-03    -7.09889E-03    -5.84234E-03     11.2929E-03    -5.45058E-03     9.52438E-03     25.4165E+06    -27.0855E+06    -64.6240E+06    -38.5704E+06    -637.086E+03    -27.0855E+06     40.7885E+06         20.9760
            1944     4.97219E-03     103.110E-03         2.73255         2.63456        -6.59631         2.73080        -6.59456         2.63456     13.0823E-03     13.8812E-03    -5.59711E-03    -8.28407E-03    -6.30263E-03     11.8997E-03    -5.59711E-03     12.5806E-03     10.8269E+06    -34.7100E+06    -79.9476E+06    -50.9734E+06    -18.1473E+06    -34.7100E+06     42.2976E+06         21.0864
            1945     5.96550E-03     103.116E-03         2.72211         2.64932        -6.58835         2.72081        -6.58705         2.64932     212.818E-03     15.6486E-03    -5.81659E-03    -9.83202E-03    -6.98083E-03     12.7974E-03    -5.81659E-03     16.0131E-03    -2.00848E+06    -34.3770E+06    -84.7113E+06    -57.7872E+06    -28.9325E+06    -34.3770E+06     38.7482E+06         21.2345
            1946     6.95792E-03     103.124E-03         2.67421         2.61878        -6.49824         2.63948        -6.49785         2.65312     52.5125E-03     17.8178E-03    -6.10750E-03    -11.7103E-03    -7.88949E-03     13.9970E-03    -6.10750E-03     19.7823E-03    -11.6662E+06    -27.9087E+06    -79.8927E+06    -59.2689E+06    -32.2901E+06    -27.9087E+06     31.2951E+06         21.4276
            1947     7.94949E-03     103.136E-03         2.64256         2.51579        -6.33897         2.51475        -6.33793         2.64256    -158.435E-03     20.4284E-03    -6.47692E-03    -13.9515E-03    -9.11968E-03     15.5966E-03    -6.47692E-03     23.8679E-03    -14.2182E+06    -23.3933E+06    -71.0247E+06    -58.1623E+06    -32.4918E+06    -17.9821E+06     22.1293E+06         21.6749
            1948     8.93946E-03     103.150E-03         2.61828         2.36222        -6.13580         2.36120        -6.13477         2.61828    -124.699E-03     23.3899E-03    -6.93167E-03    -16.4582E-03    -10.7491E-03     17.6808E-03    -6.93167E-03     27.8946E-03    -7.75222E+06    -28.0161E+06    -61.3774E+06    -55.3009E+06    -34.0926E+06    -7.75222E+06     12.7528E+06         21.9885
            1949     9.92787E-03     103.168E-03         2.58130         2.17574        -5.89711         2.17549        -5.89686         2.58130     48.3569E-03     26.7528E-03    -7.46638E-03    -19.2864E-03    -12.7447E-03     20.2111E-03    -7.46638E-03     32.1185E-03     1.44458E+06    -29.4036E+06    -51.9523E+06    -50.2945E+06    -31.0614E+06     1.44458E+06     3.65947E+06         22.3850
            1950     10.9139E-03     103.190E-03         2.53132         1.94165        -5.60521         1.94097        -5.60452         2.53132    -33.8778E-03     30.5738E-03    -8.09815E-03    -22.4756E-03    -15.2124E-03     23.3105E-03    -8.09815E-03     36.4359E-03     7.60781E+06    -28.5968E+06    -49.7308E+06    -43.8070E+06    -34.5206E+06     7.60781E+06    -5.58241E+06         22.8896
            1951     11.8977E-03     103.216E-03         2.46796         1.66905        -5.26959         1.66764        -5.26818         2.46796    -183.729E-03     33.9953E-03    -8.81853E-03    -25.1768E-03    -18.0676E-03     26.8861E-03    -8.81853E-03     38.3890E-03     12.0167E+06    -17.7595E+06    -45.7622E+06    -36.7265E+06    -26.7951E+06     12.0167E+06    -11.8297E+06         23.5536
            1952     12.8784E-03     103.242E-03         2.39394         1.42489        -4.95320         1.42387        -4.95219         2.39394    -120.911E-03     37.6412E-03    -9.66643E-03    -27.9748E-03    -21.1457E-03     30.8121E-03    -9.66643E-03     40.0409E-03     16.0180E+06    -6.51415E+06    -51.7958E+06    -29.6005E+06    -28.7095E+06     16.0180E+06    -19.3546E+06         24.4668
            1953     13.8562E-03     103.272E-03         2.31435         1.23416        -4.68267         1.23139        -4.67990         2.31435     160.294E-03     42.0117E-03    -10.5373E-03    -31.4745E-03    -24.7138E-03     35.2511E-03    -10.5373E-03     42.4151E-03     11.1467E+06    -17.5310E+06    -76.8610E+06    -23.0252E+06    -55.6543E+06    -4.56588E+06    -33.5429E+06         25.7429
            1954     14.8305E-03     103.305E-03         2.23291         1.06071        -4.42943         1.05798        -4.42669         2.23291     186.159E-03     44.8255E-03    -11.5010E-03    -33.3244E-03    -27.8458E-03     39.3468E-03    -11.5010E-03     39.6460E-03     19.4292E+06    -10.2376E+06    -62.3248E+06    -17.6091E+06    -25.2865E+06    -10.2376E+06    -36.0102E+06         27.5792
            1955     15.8015E-03     103.333E-03         2.15177     908.324E-03        -4.20276     908.277E-03        -4.20271         2.15177     14.4893E-03     46.9099E-03    -12.5806E-03    -34.3293E-03    -30.4762E-03     43.0568E-03    -12.5806E-03     34.3652E-03     52.2719E+06     3.26690E+06    -23.5250E+06    -12.5482E+06     41.2950E+06     3.26690E+06    -21.3652E+06         30.4414
            1956     16.7706E-03     103.360E-03         2.07496     827.796E-03        -4.06230     826.821E-03        -4.06133         2.07496    -93.6870E-03     48.5776E-03    -13.9477E-03    -34.6299E-03    -32.8400E-03     46.7877E-03    -13.9477E-03     11.5695E-03     92.9041E+06     53.8266E+06    -6.91665E+06    -5.84158E+06     87.8023E+06     57.8533E+06    -7.75818E+06         34.5648
            1957     996.853E-06     104.112E-03         2.57757         2.43550        -6.07910         2.56068        -6.06796         2.44124     518.035E-03     6.65504E-03    -3.24732E-03    -3.40772E-03    -3.31082E-03     6.55814E-03    -3.24732E-03     1.83052E-03     27.5074E+06    -49.4879E+06    -66.1127E+06    -54.1483E+06     15.5430E+06    -49.4879E+06     30.5739E+06         20.5753
            1958     1.99329E-03     104.113E-03         2.51955         2.49042        -6.06669         2.49947        -6.05680         2.50061     385.765E-03     7.25338E-03    -3.39371E-03    -3.85967E-03    -3.54885E-03     6.94256E-03    -3.39371E-03     3.56215E-03     38.8131E+06    -43.2975E+06    -78.2108E+06    -57.0557E+06     17.6580E+06    -43.2975E+06     44.8485E+06         20.6136
            1959     2.98940E-03     104.114E-03         2.52121         2.48769        -6.08989         2.50458        -6.08639         2.50082    -267.447E-03     8.25449E-03    -3.58855E-03    -4.66594E-03    -3.95465E-03     7.54320E-03    -3.58855E-03     5.80966E-03     31.7396E+06    -39.8938E+06    -89.7932E+06    -60.7809E+06     2.72722E+06    -39.8938E+06     51.5852E+06         20.6790
            1960     3.98499E-03     104.117E-03         2.53307         2.48805        -6.10493         2.51456        -6.10103         2.50266    -329.604E-03     9.60883E-03    -3.80854E-03    -5.80029E-03    -4.48379E-03     8.29234E-03    -3.80854E-03     8.55021E-03     19.9644E+06    -39.2867E+06    -96.0855E+06    -62.1524E+06    -13.9686E+06    -39.2867E+06     52.7179E+06         20.7746
            1961     4.98006E-03     104.121E-03         2.54479         2.48611        -6.12049         2.52428        -6.11935         2.50547     24.2910E-03     11.3410E-03    -4.06398E-03    -7.27699E-03    -5.15583E-03     9.21981E-03    -4.06398E-03     11.7808E-03     10.4094E+06    -36.5232E+06    -94.6979E+06    -60.0037E+06    -24.2848E+06    -36.5232E+06     49.3574E+06         20.9042
            1962     5.97433E-03     104.128E-03         2.53909         2.47562        -6.10122         2.50717        -6.10011         2.50643     192.031E-03     13.4582E-03    -4.36780E-03    -9.09040E-03    -5.99508E-03     10.3629E-03    -4.36780E-03     15.4812E-03     2.53353E+06    -30.5748E+06    -86.7916E+06    -55.8017E+06    -28.4563E+06    -30.5748E+06     42.4659E+06         21.0725
            1963     6.96782E-03     104.137E-03         2.51243         2.44020        -6.01679         2.45066        -6.01616         2.50134     23.7073E-03     15.9566E-03    -4.72869E-03    -11.2279E-03    -7.04176E-03     11.7704E-03    -4.72869E-03     19.5949E-03    -3.88225E+06    -22.2088E+06    -75.3997E+06    -51.8475E+06    -27.4344E+06    -22.2088E+06     33.5485E+06         21.2865
            1964     7.96003E-03     104.150E-03         2.48821         2.37101        -5.89642         2.36990        -5.89531         2.48821    -178.154E-03     18.9557E-03    -5.16463E-03    -13.7911E-03    -8.40976E-03     13.5744E-03    -5.16463E-03     24.2428E-03    -6.61708E+06    -15.2119E+06    -63.5777E+06    -48.1559E+06    -25.5096E+06    -11.7412E+06     24.1286E+06         21.5556
            1965     8.95084E-03     104.167E-03         2.46533         2.23549        -5.71208         2.23439        -5.71098         2.46533    -67.3375E-03     22.2927E-03    -5.68423E-03    -16.6085E-03    -10.1440E-03     15.8282E-03    -5.68423E-03     28.9326E-03    -849.268E+03    -17.5538E+06    -51.1278E+06    -43.9374E+06    -24.7442E+06    -849.268E+03     13.4663E+06         21.8924
            1966     9.93965E-03     104.188E-03         2.42792         2.00079        -5.42410         1.99983        -5.42314         2.42792     151.838E-03     26.0686E-03    -6.28721E-03    -19.7814E-03    -12.2669E-03     18.5541E-03    -6.28721E-03     33.9162E-03     9.25320E+06    -20.0051E+06    -40.3843E+06    -38.7642E+06    -21.6252E+06     9.25320E+06     2.82171E+06         22.3139
            1967     10.9266E-03     104.213E-03         2.37347         1.73032        -5.09737         1.72952        -5.09657         2.37347     75.0711E-03     30.4930E-03    -6.99894E-03    -23.4940E-03    -15.0342E-03     22.0332E-03    -6.99894E-03     39.2106E-03     17.4734E+06    -17.4855E+06    -39.2114E+06    -33.1801E+06    -23.5168E+06     17.4734E+06    -7.15293E+06         22.8448
            1968     11.9101E-03     104.243E-03         2.30570         1.48311        -4.78843         1.48280        -4.78812         2.30570    -74.9905E-03     34.4538E-03    -7.81487E-03    -26.6389E-03    -18.2695E-03     26.0844E-03    -7.81487E-03     41.9120E-03     21.9258E+06    -8.79934E+06    -39.6249E+06    -27.3059E+06    -21.1184E+06     21.9258E+06    -14.5831E+06         23.5354
            1969     12.8905E-03     104.273E-03         2.22974         1.26124        -4.49367         1.26077        -4.49320         2.22974    -10.3072E-03     38.6356E-03    -8.76179E-03    -29.8739E-03    -21.7636E-03     30.5254E-03    -8.76179E-03     44.2170E-03     27.6015E+06     6.50003E+06    -41.9742E+06    -20.6503E+06    -14.8238E+06     27.6015E+06    -22.9881E+06         24.4773
            1970     13.8675E-03     104.308E-03         2.14928         1.07578        -4.22725         1.07101        -4.22247         2.14928     253.196E-03     43.9100E-03    -9.77580E-03    -34.1342E-03    -25.9829E-03     35.7587E-03    -9.77580E-03     47.6517E-03     22.8996E+06     2.21857E+06    -65.8954E+06    -15.8503E+06    -36.4562E+06     11.5293E+06    -36.8503E+06         25.7866
            1971     14.8398E-03     104.347E-03         2.06808     929.637E-03        -3.99652     924.789E-03        -3.99168         2.06808     259.750E-03     47.2578E-03    -10.9015E-03    -36.3564E-03    -29.8632E-03     40.7646E-03    -10.9015E-03     44.3434E-03     17.5489E+06    -1.57397E+06    -65.2424E+06    -13.4890E+06    -34.2045E+06    -1.57397E+06    -38.6418E+06         27.6579
            1972     15.8097E-03     104.378E-03         1.98946     821.875E-03        -3.80641     821.567E-03        -3.80610         1.98946     58.6943E-03     50.2719E-03    -12.1332E-03    -38.1387E-03    -33.3775E-03     45.5107E-03    -12.1332E-03     39.8355E-03     42.6965E+06     2.67357E+06    -29.9813E+06    -11.6427E+06     24.3580E+06     2.67357E+06     -24.513E+06         30.5751
            1973     16.7749E-03     104.412E-03         1.91656     746.610E-03        -3.65834     745.516E-03        -3.65724         1.91656    -84.4550E-03     52.5759E-03    -13.7048E-03    -38.8710E-03    -36.5053E-03     50.2101E-03    -13.7048E-03     15.9202E-03     89.6804E+06     48.0153E+06    -8.80323E+06    -6.89656E+06     78.3791E+06     57.4099E+06    -10.5060E+06         34.8425
            1974     997.925E-06     105.117E-03         2.51538         2.33581        -5.72309         2.48950        -5.71212         2.35072     588.633E-03     3.88956E-03    -1.87864E-03    -2.01092E-03    -1.92449E-03     3.81095E-03    -1.88646E-03     1.25542E-03    -25.0376E+06    -124.470E+06    -132.462E+06    -123.750E+06    -32.6463E+06    -125.573E+06     24.8125E+06         20.4020
            1975     1.99577E-03     105.118E-03         2.42332         2.39718        -5.71679         2.39796        -5.70985         2.41559     320.606E-03     4.48740E-03    -2.02253E-03    -2.46487E-03    -2.19475E-03     4.21727E-03    -2.02253E-03     2.61662E-03    -275.181E+03    -102.587E+06    -123.725E+06    -106.508E+06    -17.4926E+06    -102.587E+06     41.5257E+06         20.4416
            1976     2.99314E-03     105.120E-03         2.41534         2.38443        -5.71082         2.38741        -5.70607         2.40761    -287.129E-03     5.61001E-03    -2.25416E-03    -3.35585E-03    -2.69158E-03     4.94574E-03    -2.25416E-03     4.64047E-03     8.42131E+06    -78.7964E+06    -114.312E+06    -88.2681E+06    -17.6227E+06    -78.7964E+06     49.5476E+06         20.5108
            1977     3.98996E-03     105.124E-03         2.39526         2.33167        -5.66273         2.32655        -5.65760         2.39526    -352.461E-03     7.20789E-03    -2.53970E-03    -4.66819E-03    -3.36312E-03     5.90282E-03    -2.53970E-03     7.38420E-03     6.42715E+06    -59.4559E+06    -103.563E+06    -72.1913E+06    -24.9449E+06    -59.4559E+06     49.4790E+06         20.6133
            1978     4.98600E-03     105.129E-03         2.37513         2.26771        -5.58541         2.26682        -5.58453         2.37513     8.68850E-03     9.18528E-03    -2.85175E-03    -6.33353E-03    -4.15223E-03     7.00398E-03    -2.85175E-03     10.7529E-03     4.29685E+06    -45.0616E+06    -91.3813E+06    -58.9472E+06    -28.1372E+06    -45.0616E+06      45.229E+06         20.7519
            1979     5.98136E-03     105.137E-03         2.35257         2.22717        -5.51693         2.22629        -5.51605         2.35257     164.133E-03     11.5106E-03    -3.19810E-03    -8.31251E-03    -5.07156E-03     8.26966E-03    -3.19810E-03     14.6359E-03     2.23584E+06    -33.2060E+06    -78.3452E+06    -48.6161E+06    -27.4933E+06    -33.2060E+06     38.8752E+06         20.9309
            1980     6.97566E-03     105.148E-03         2.33288         2.23159        -5.48416         2.23078        -5.48335         2.33288    -4.06235E-03     14.2393E-03    -3.59671E-03    -10.6426E-03    -6.17964E-03     9.77635E-03    -3.59671E-03     19.0693E-03     921.930E+03    -20.7522E+06    -64.3723E+06    -40.2701E+06    -23.1803E+06    -20.7522E+06     31.4527E+06         21.1569
            1981     7.96888E-03     105.163E-03         2.31582         2.20245        -5.41190         2.20140        -5.41085         2.31582    -175.954E-03     17.5145E-03    -4.06518E-03    -13.4493E-03    -7.58152E-03     11.6467E-03    -4.06518E-03     24.2474E-03    -124.836E+03    -9.08148E+06    -50.4004E+06    -33.3390E+06    -18.9949E+06    -7.27284E+06     23.0368E+06         21.4399
            1982     8.96052E-03     105.182E-03         2.29187         2.05160        -5.21293         2.05043        -5.21176         2.29187    -8.64469E-03     21.1080E-03    -4.61289E-03    -16.4951E-03    -9.31993E-03     13.9328E-03    -4.61289E-03     29.5269E-03     6.39495E+06    -6.15011E+06    -36.6099E+06    -28.0001E+06    -14.7599E+06     6.39495E+06     13.3794E+06         21.7932
            1983     9.95042E-03     105.205E-03         2.25176         1.80393        -4.91397         1.80189        -4.91193         2.25176     222.604E-03     25.3440E-03    -5.25457E-03    -20.0894E-03    -11.6020E-03     16.8566E-03    -5.25457E-03     35.3893E-03     19.1125E+06    -9.17358E+06    -26.1834E+06    -24.0488E+06    -11.3083E+06     19.1125E+06     2.94091E+06         22.2347
            1984     10.9376E-03     105.234E-03         2.19445         1.54061        -4.59372         1.53910        -4.59221         2.19445     139.216E-03     30.3250E-03    -6.00961E-03    -24.3154E-03    -14.5812E-03     20.5908E-03    -6.00961E-03     41.7749E-03     28.9814E+06    -5.82305E+06    -25.4748E+06    -19.8795E+06    -11.4183E+06     28.9814E+06    -7.66970E+06         22.7875
            1985     11.9218E-03     105.269E-03         2.12563         1.32204        -4.31011         1.32199        -4.31006         2.12563    -6.84892E-03     34.6914E-03    -6.88061E-03    -27.8108E-03    -18.0287E-03     24.9093E-03    -6.88061E-03     45.3085E-03     33.2725E+06     1.09824E+06    -30.8763E+06    -15.3882E+06    -14.3898E+06     33.2725E+06    -15.7263E+06         23.5003
            1986     12.9025E-03     105.304E-03         2.05086         1.12817        -4.04747         1.12703        -4.04633         2.05086     87.9078E-03     39.5613E-03    -7.88049E-03    -31.6808E-03    -21.9931E-03     29.8736E-03    -7.88049E-03     48.7848E-03     37.0025E+06     15.8292E+06    -32.4463E+06    -13.7857E+06    -2.83140E+06     37.0025E+06    -22.3312E+06         24.4675
            1987     13.8789E-03     105.345E-03         1.97249     952.038E-03        -3.79057     943.065E-03        -3.78160         1.97249     360.918E-03     45.7857E-03    -9.01766E-03    -36.7681E-03    -26.8663E-03     35.8839E-03    -9.01766E-03     53.5422E-03     31.0518E+06     19.3339E+06    -53.8614E+06    -14.6600E+06    -15.9997E+06     27.1840E+06    -35.5413E+06         25.8100
            1988     14.8505E-03     105.389E-03         1.89387     822.009E-03        -3.57213     813.297E-03        -3.56342         1.89387     345.564E-03     49.8812E-03    -10.2944E-03    -39.5868E-03    -31.8126E-03     42.1070E-03    -10.2944E-03     49.8228E-03     19.6178E+06     7.29349E+06    -70.8535E+06    -11.9528E+06    -40.8791E+06     8.88971E+06    -41.4561E+06         27.7251
            1989     15.8175E-03     105.425E-03         1.81889     737.616E-03        -3.40258     736.692E-03        -3.40166         1.81889     104.218E-03     53.8928E-03    -11.6695E-03    -42.2232E-03    -36.3852E-03     48.0547E-03    -11.6695E-03     45.8782E-03     36.3869E+06     3.09494E+06    -37.1927E+06    -6.86206E+06     6.05624E+06     3.09494E+06    -26.8956E+06         30.7133
            1990     16.7798E-03     105.468E-03         1.75012     661.526E-03        -3.24567     660.700E-03        -3.24484         1.75012    -52.7293E-03     56.7267E-03    -13.4526E-03    -43.2741E-03    -40.2825E-03     53.7351E-03    -13.4526E-03     20.9029E-03     84.7250E+06     43.4487E+06    -6.94235E+06    -4.64990E+06     67.5880E+06     58.2934E+06    -10.9013E+06         35.1410
            1991     998.209E-06     106.120E-03         2.43120         2.23467        -5.36585         2.40496        -5.34876         2.24383     679.940E-03     2.93844E-03    -1.43331E-03    -1.50512E-03    -1.43027E-03     2.89376E-03    -1.46349E-03     763.735E-06    -61.9435E+06    -158.590E+06    -161.188E+06    -156.944E+06    -63.6387E+06    -161.139E+06     9.03330E+06         20.3158
            1992     1.99648E-03     106.122E-03         2.32187         2.27722        -5.33229         2.27946        -5.32793         2.31527     261.688E-03     3.15722E-03    -1.44670E-03    -1.71052E-03    -1.51833E-03     2.97327E-03    -1.45494E-03     1.76453E-03    -39.4096E+06    -141.947E+06    -148.892E+06    -138.387E+06    -45.0554E+06    -146.807E+06     18.9380E+06         20.3485
            1993     2.99472E-03     106.124E-03         2.29291         2.22217        -5.27073         2.21459        -5.26316         2.29291    -324.780E-03     3.93004E-03    -1.54812E-03    -2.38192E-03    -1.85243E-03     3.40055E-03    -1.54812E-03     3.44671E-03    -23.9201E+06    -116.159E+06    -134.036E+06    -113.214E+06    -34.7948E+06    -126.107E+06     26.7292E+06         20.4088
            1994     3.99243E-03     106.129E-03         2.26232         2.13557        -5.17023         2.12723        -5.16189         2.26232    -433.776E-03     5.34573E-03    -1.73452E-03    -3.61122E-03    -2.44491E-03     4.17943E-03    -1.73452E-03     5.99904E-03    -18.2362E+06    -89.0258E+06    -117.757E+06    -87.8870E+06    -33.1739E+06    -103.958E+06     29.0742E+06         20.5030
            1995     4.98960E-03     106.135E-03         2.22512         2.03372        -5.04297         2.03249        -5.04173         2.22512    -22.7118E-03     7.32539E-03    -2.01112E-03    -5.31426E-03    -3.23989E-03     5.25101E-03    -2.01112E-03     9.34570E-03    -14.3687E+06    -65.7443E+06    -96.5478E+06    -64.9357E+06    -31.9415E+06    -79.7837E+06     28.1688E+06         20.6353
            1996     5.98579E-03     106.144E-03         2.18775         1.98972        -4.95580         1.98886        -4.95494         2.18775     154.455E-03     9.72249E-03    -2.36659E-03    -7.35589E-03    -4.16827E-03     6.53487E-03    -2.36659E-03     13.2950E-03    -8.98275E+06    -46.8480E+06    -71.6589E+06    -45.6382E+06    -27.9843E+06    -53.8671E+06     26.1504E+06         20.8103
            1997     6.98116E-03     106.157E-03         2.15706         1.99087        -4.91502         1.98998        -4.91413         2.15706    -6.97000E-03     12.5862E-03    -2.77283E-03    -9.81341E-03    -5.27046E-03     8.04329E-03    -2.77283E-03     18.0001E-03    -2.73272E+06    -29.2755E+06    -51.0483E+06    -31.1130E+06    -21.1569E+06    -30.7866E+06     22.8473E+06         21.0352
            1998     7.97530E-03     106.173E-03         2.12996         1.93742        -4.81710         1.93659        -4.81627         2.12996    -149.194E-03     16.0032E-03    -3.24001E-03    -12.7632E-03    -6.62396E-03     9.86397E-03    -3.24001E-03     23.5572E-03     1.48052E+06    -10.4523E+06    -35.9807E+06    -20.9584E+06    -14.0539E+06    -9.94020E+06     18.1433E+06         21.3203
            1999     8.96805E-03     106.195E-03         2.09614         1.78176        -4.61368         1.78054        -4.61245         2.09614     36.0438E-03     19.8022E-03    -3.78416E-03    -16.0181E-03    -8.33187E-03     12.1160E-03    -3.78416E-03     29.3932E-03     11.7484E+06     574.288E+03    -21.2323E+06    -13.2433E+06    -5.99797E+06     10.3317E+06     10.8510E+06         21.6800
            2000     9.95896E-03     106.221E-03         2.05009         1.59040        -4.36652         1.58743        -4.36355         2.05009     257.869E-03     24.4862E-03    -4.42666E-03    -20.0595E-03    -10.7004E-03     15.1271E-03    -4.42666E-03     36.2703E-03     27.7261E+06     721.266E+03    -11.2863E+06    -7.64604E+06    -2.91904E+06     27.7261E+06     3.37603E+06         22.1324
            2001     10.9471E-03     106.254E-03         1.99322         1.39644        -4.11319         1.39431        -4.11106         1.99322     175.361E-03     29.8599E-03    -5.17627E-03    -24.6836E-03    -13.7007E-03     18.8769E-03    -5.17627E-03     43.7064E-03     39.2588E+06     5.38831E+06    -11.7041E+06    -6.48623E+06     170.466E+03     39.2588E+06    -4.74512E+06         22.6992
            2002     11.9322E-03     106.293E-03         1.92823         1.19394        -3.85052         1.19384        -3.85042         1.92823     40.0832E-03     34.7037E-03    -6.05848E-03    -28.6452E-03    -17.3534E-03     23.4119E-03    -6.05848E-03     48.3764E-03     44.2145E+06     10.2056E+06    -21.9649E+06    -6.27611E+06    -5.48314E+06     44.2145E+06    -14.2952E+06         23.4284
            2003     12.9135E-03     106.333E-03         1.85763         1.01362        -3.60150         1.01129        -3.59918         1.85763     159.357E-03     40.3608E-03    -7.08635E-03    -33.2745E-03    -21.8891E-03     28.9754E-03    -7.08635E-03     53.1890E-03     48.1666E+06     21.2390E+06    -21.3647E+06    -3.90701E+06     3.78132E+06     48.1666E+06    -18.9619E+06         24.4147
            2004     13.8902E-03     106.380E-03         1.78426     874.774E-03        -3.38639     861.840E-03        -3.37345         1.78426     434.890E-03     47.3484E-03    -8.31282E-03    -39.0356E-03    -27.2916E-03     35.6044E-03    -8.31282E-03     59.1154E-03     49.0432E+06     32.8500E+06    -30.5850E+06    -4.51544E+06     6.78041E+06     49.0432E+06    -29.5767E+06         25.7865
            2005     14.8608E-03     106.433E-03         1.71126     749.825E-03        -3.18082     737.796E-03        -3.16879         1.71126     395.371E-03     52.7078E-03    -9.69273E-03    -43.0151E-03    -33.5748E-03     43.2675E-03    -9.69273E-03     56.3949E-03     29.5939E+06     14.2804E+06    -70.1307E+06    -7.78818E+06    -39.9122E+06     21.4439E+06    -40.9540E+06         27.7553
            2006     15.8250E-03     106.475E-03         1.64061     635.097E-03        -2.97666     633.366E-03        -2.97493         1.64061     147.846E-03     58.0081E-03    -11.2073E-03    -46.8008E-03    -39.7221E-03     50.9294E-03    -11.2073E-03     52.5257E-03     27.7408E+06    -1.47972E+06    -53.1269E+06    -8.95693E+06    -16.4292E+06    -1.47972E+06    -29.4027E+06         30.8340
            2007     16.7848E-03     106.525E-03         1.57455     540.747E-03        -2.79497     539.670E-03        -2.79389         1.57455    -19.2630E-03     60.6553E-03    -13.2101E-03    -47.4452E-03    -43.9663E-03     57.1763E-03    -13.2101E-03     25.7806E-03     77.5613E+06     37.0716E+06    -8.39381E+06    -5.40996E+06     55.1583E+06     56.4907E+06    -11.2502E+06         35.4436
            2008     997.802E-06     107.123E-03         2.22712         2.15146        -4.93745         2.18299        -4.91866         2.17681     658.831E-03     3.48934E-03    -1.73112E-03    -1.75822E-03    -1.72397E-03     3.47781E-03    -1.75384E-03     371.327E-06    -69.4494E+06    -149.429E+06    -151.318E+06    -149.311E+06    -69.8086E+06    -151.078E+06    -2.37032E+06         20.3186
            2009     1.99585E-03     107.125E-03         2.17494         2.11887        -4.85864         2.12332        -4.85649         2.16834     178.790E-03     3.44283E-03    -1.67479E-03    -1.76804E-03    -1.65957E-03     3.37072E-03    -1.71116E-03     998.041E-06    -53.9429E+06    -139.490E+06    -145.023E+06    -139.351E+06    -54.7552E+06    -144.350E+06    -2.37117E+06         20.3419
            2010     2.99398E-03     107.127E-03         2.13513         2.01689        -4.75180         2.00672        -4.74163         2.13513    -359.368E-03     3.66376E-03    -1.65495E-03    -2.00881E-03    -1.70125E-03     3.38396E-03    -1.68271E-03     2.22245E-03    -41.7065E+06    -124.861E+06    -136.441E+06    -123.639E+06    -43.3618E+06    -136.008E+06    -22.8531E+03         20.3872
            2011     3.99221E-03     107.132E-03         2.09043         1.92264        -4.62450         1.91162        -4.61348         2.09043    -470.750E-03     4.47009E-03    -1.69385E-03    -2.77623E-03    -2.00857E-03     3.70242E-03    -1.69385E-03     4.31617E-03    -34.0757E+06    -106.730E+06    -127.987E+06    -104.085E+06    -36.7203E+06    -127.987E+06     1.30161E+06         20.4615
            2012     4.98991E-03     107.139E-03         2.04774         1.85954        -4.52207         1.85842        -4.52095         2.04774    -47.5686E-03     5.95307E-03    -1.79361E-03    -4.15946E-03    -2.56627E-03     4.35989E-03    -1.79361E-03     7.31276E-03    -29.6703E+06    -87.5002E+06    -116.166E+06    -82.9517E+06    -34.2189E+06    -116.166E+06     1.32434E+06         20.5717
            2013     5.98708E-03     107.150E-03         2.01034         1.81264        -4.43662         1.81197        -4.43595         2.01034     127.211E-03     8.05330E-03    -2.00059E-03    -6.05271E-03    -3.33005E-03     5.33064E-03    -2.00059E-03     11.1195E-03    -22.1390E+06    -67.5703E+06    -96.1159E+06    -60.3219E+06    -29.3874E+06    -96.1159E+06     1.73428E+06         20.7251
            2014     6.98335E-03     107.164E-03         1.97261         1.71382        -4.29669         1.71280        -4.29568         1.97261    -13.4069E-03     10.8522E-03    -2.32953E-03    -8.52268E-03    -4.34422E-03     6.67375E-03    -2.32953E-03     15.9307E-03    -12.9715E+06    -43.8452E+06    -68.1893E+06    -37.2764E+06    -21.9436E+06    -65.7859E+06     3.07507E+06         20.9306
            2015     7.97852E-03     107.182E-03         1.92855         1.58096        -4.11732         1.58001        -4.11637         1.92855    -145.004E-03     14.2697E-03    -2.77301E-03    -11.4967E-03    -5.59036E-03     8.36337E-03    -2.77301E-03     21.6574E-03    -4.52612E+06    -18.3205E+06    -36.2008E+06    -17.0357E+06    -13.3455E+06    -28.6662E+06     4.60761E+06         21.1996
            2016     8.97248E-03     107.206E-03         1.87906         1.47321        -3.95342         1.47174        -3.95196         1.87906     47.8516E-03     18.2273E-03    -3.28998E-03    -14.9373E-03    -7.21895E-03     10.5089E-03    -3.28998E-03     28.0232E-03     9.47997E+06     652.239E+03    -12.6133E+06    -4.55637E+06    -2.44769E+06     4.52295E+06     5.55173E+06         21.5483
            2017     9.96445E-03     107.235E-03         1.82724         1.37839        -3.80211         1.37465        -3.79838         1.82724     270.513E-03     23.1801E-03    -3.88479E-03    -19.2953E-03    -9.46556E-03     13.3504E-03    -3.88479E-03     35.8136E-03     28.1055E+06     7.13841E+06    -3.38882E+06     650.653E+03     3.09893E+06     28.1055E+06     2.86132E+06         21.9951
            2018     10.9541E-03     107.272E-03         1.77300         1.25593        -3.62192         1.25302        -3.61901         1.77300     209.175E-03     28.8305E-03    -4.58695E-03    -24.2436E-03    -12.3652E-03     16.9521E-03    -4.58695E-03     44.2142E-03     45.8364E+06     11.8391E+06     43.4324E+03      4.2783E+06     7.60421E+06     45.8364E+06    -1.63416E+06         22.5619
            2019     11.9407E-03     107.315E-03         1.71417         1.08430        -3.39154         1.08370        -3.39094         1.71417     94.2158E-03     34.3567E-03    -5.44175E-03    -28.9149E-03    -16.2761E-03     21.7178E-03    -5.44175E-03     50.4965E-03     58.3796E+06     18.3508E+06    -5.82241E+06     5.64133E+06     6.88707E+06     58.3796E+06    -9.62742E+06         23.2962
            2020     12.9227E-03     107.361E-03         1.65000     913.718E-03        -3.16047     910.921E-03        -3.15767         1.65000     185.879E-03     40.8885E-03    -6.46260E-03    -34.4259E-03    -21.3361E-03     27.7987E-03    -6.46260E-03     57.0132E-03     61.7403E+06     23.0534E+06    -11.2484E+06     5.26968E+06     6.53537E+06     61.7403E+06    -16.1703E+06         24.2900
            2021     13.8993E-03     107.416E-03         1.58312     803.378E-03        -2.98405     790.204E-03        -2.97088         1.58312     418.896E-03     48.6166E-03    -7.70885E-03    -40.9077E-03    -27.2100E-03     34.9189E-03    -7.70885E-03     64.3544E-03     67.5519E+06     39.9877E+06    -13.1024E+06     2.79294E+06     24.0923E+06     67.5519E+06    -20.1148E+06         25.6786
            2022     14.8707E-03     107.476E-03         1.51683     692.971E-03        -2.79639     680.602E-03        -2.78402         1.51683     384.869E-03     55.3634E-03    -9.15737E-03    -46.2060E-03    -34.6446E-03     43.8019E-03    -9.15737E-03     63.8616E-03     42.6067E+06     26.7276E+06    -62.5936E+06    -4.47095E+06    -27.4348E+06     38.6465E+06    -32.1076E+06         27.6997
            2023     15.8331E-03     107.530E-03         1.45120     539.540E-03        -2.55670     537.310E-03        -2.55448         1.45120     161.074E-03     62.5160E-03    -10.8063E-03    -51.7098E-03    -42.8067E-03     53.6129E-03    -10.8063E-03     61.0483E-03     21.7184E+06     1.06045E+06    -65.0427E+06    -7.51229E+06    -37.6679E+06     2.91641E+06    -30.5674E+06         30.8891
            2024     16.7869E-03     107.587E-03         1.38798     412.005E-03        -2.33700     410.449E-03        -2.33545         1.38798    -16.6693E-03     64.8521E-03    -12.9866E-03    -51.8656E-03    -47.6333E-03     60.6199E-03    -12.9866E-03     31.5383E-03     71.3184E+06     32.8980E+06    -12.4972E+06    -4.37484E+06     39.6174E+06     56.4766E+06    -12.6306E+06         35.7079
            2025     997.323E-06     108.127E-03         2.06693         1.90429        -4.35148         2.01419        -4.33273         1.93829     585.308E-03     4.97736E-03    -2.46973E-03    -2.50763E-03    -2.47534E-03     4.97600E-03    -2.50066E-03     104.874E-06    -59.3224E+06    -116.905E+06    -119.039E+06    -117.273E+06    -60.5165E+06    -117.477E+06    -7.60376E+06         20.3989
            2026     1.99441E-03     108.129E-03         1.96539         1.92483        -4.30376         1.92357        -4.30250         1.96539     147.566E-03     4.96710E-03    -2.46664E-03    -2.50046E-03    -2.45724E-03     4.95511E-03    -2.49787E-03     413.739E-06    -46.9485E+06    -110.517E+06    -115.707E+06    -113.239E+06    -49.4169E+06    -110.517E+06    -12.0039E+06         20.4171
            2027     2.99178E-03     108.131E-03         1.93655         1.83907        -4.21190         1.83018        -4.20301         1.93655    -282.006E-03     4.99526E-03    -2.46612E-03    -2.52914E-03    -2.42136E-03     4.91835E-03    -2.49699E-03     1.22537E-03    -36.5934E+06    -102.208E+06    -110.879E+06    -105.849E+06    -40.4244E+06    -103.407E+06    -15.2018E+06         20.4505
            2028     3.98916E-03     108.136E-03         1.89541         1.72552        -4.06946         1.71647        -4.06040         1.89541    -383.488E-03     5.25046E-03    -2.47920E-03    -2.77126E-03    -2.46645E-03     4.94565E-03    -2.47920E-03     2.71392E-03    -28.9139E+06    -93.6193E+06    -107.983E+06    -96.6127E+06    -33.9591E+06    -99.9445E+06    -17.2657E+06         20.5048
            2029     4.98668E-03     108.144E-03         1.85236         1.66175        -3.96220         1.66127        -3.96171         1.85236    -39.0249E-03     5.92231E-03    -2.46674E-03    -3.45557E-03    -2.63716E-03     5.10390E-03    -2.46674E-03     4.95939E-03    -23.3977E+06    -84.7928E+06    -107.921E+06    -86.2038E+06    -30.4886E+06    -99.4189E+06    -19.7930E+06         20.5871
            2030     5.98406E-03     108.155E-03         1.81167         1.58109        -3.84204         1.58068        -3.84162         1.81167     85.7170E-03     7.24003E-03    -2.49824E-03    -4.74179E-03    -3.03448E-03     5.53272E-03    -2.49824E-03     8.14981E-03    -18.0011E+06    -75.3354E+06    -104.840E+06    -73.8601E+06    -27.4543E+06    -96.8619E+06    -22.0522E+06         20.7069
            2031     6.98094E-03     108.170E-03         1.76399         1.41419        -3.63182         1.41282        -3.63045         1.76399    -39.0271E-03     9.36769E-03    -2.62938E-03    -6.73831E-03    -3.69336E-03     6.32273E-03    -2.62938E-03     12.5037E-03    -11.5649E+06    -63.4486E+06    -89.0253E+06    -57.8133E+06    -22.3473E+06    -83.8783E+06    -21.8981E+06         20.8751
            2032     7.97709E-03     108.190E-03         1.70580         1.25102        -3.41911         1.24933        -3.41742         1.70580    -171.070E-03     12.3154E-03    -2.88425E-03    -9.43116E-03    -4.63237E-03     7.51662E-03    -2.88425E-03     18.0033E-03    -5.26579E+06    -47.2209E+06    -59.8283E+06    -37.6642E+06    -16.2984E+06    -58.3525E+06    -18.1772E+06         21.1056
            2033     8.97204E-03     108.215E-03         1.64554         1.18373        -3.29650         1.18206        -3.29483         1.64554     22.4122E-03     16.1596E-03    -3.26360E-03    -12.8960E-03    -6.03699E-03     9.30059E-03    -3.26360E-03     24.6730E-03     4.43361E+06    -22.1088E+06    -29.2960E+06    -15.4847E+06    -7.95141E+06    -23.5351E+06    -9.93636E+06         21.4173
            2034     9.96552E-03     108.247E-03         1.59063         1.16376        -3.21990         1.15920        -3.21534         1.59063     268.922E-03     21.1404E-03    -3.77807E-03    -17.3624E-03    -8.04824E-03     11.8263E-03    -3.77807E-03     32.9761E-03     23.7975E+06     4.31554E+06    -4.26126E+06     2.61807E+06     4.90474E+06     16.3290E+06    -3.70892E+06         21.8313
            2035     10.9567E-03     108.287E-03         1.53903         1.08709        -3.09045         1.08287        -3.08623         1.53903     247.053E-03     26.9505E-03    -4.41578E-03    -22.5347E-03    -10.7766E-03     15.1924E-03    -4.41578E-03     42.1169E-03     48.0733E+06     14.1822E+06     5.90305E+06     11.2972E+06     8.78799E+06     48.0733E+06    -1.69221E+06         22.3724
            2036     11.9450E-03     108.335E-03         1.48537     952.734E-03        -2.90450     951.544E-03        -2.90331         1.48537     134.356E-03     32.9966E-03    -5.17124E-03    -27.8253E-03    -14.5378E-03     19.7091E-03    -5.17124E-03     50.2064E-03     66.6954E+06     22.0119E+06     3.44846E+06     10.2840E+06     15.1764E+06     66.6954E+06    -1.60825E+06         23.0881
            2037     12.9286E-03     108.388E-03         1.42768     814.540E-03        -2.71570     812.032E-03        -2.71319         1.42768     176.976E-03     40.4735E-03    -6.11959E-03    -34.3539E-03    -19.9118E-03     26.0314E-03    -6.11959E-03     58.9899E-03     72.8892E+06     21.1466E+06    -5.43120E+06     2.85430E+06     12.8611E+06     72.8892E+06    -6.79512E+06         24.0652
            2038     13.9070E-03     108.449E-03         1.36731     709.539E-03        -2.55258     698.947E-03        -2.54198         1.36731     347.998E-03     49.1578E-03    -7.30236E-03    -41.8554E-03    -26.4700E-03     33.7723E-03    -7.30236E-03     68.1378E-03     76.5693E+06     37.9096E+06    -8.92532E+06    -2.22556E+06     31.2099E+06     76.5693E+06    -11.6043E+06         25.4409
            2039     14.8779E-03     108.520E-03         1.30648     604.483E-03        -2.37609     594.528E-03        -2.36613         1.30648     318.797E-03     57.1421E-03    -8.77406E-03    -48.3681E-03    -34.4339E-03     43.2080E-03    -8.77406E-03     70.9445E-03     60.8674E+06     38.8029E+06    -46.5100E+06    -2.38140E+06    -5.32571E+06     60.8674E+06    -24.1092E+06         27.4884
            2040     15.8400E-03     108.585E-03         1.24571     468.677E-03        -2.15233     466.969E-03        -2.15062         1.24571     126.878E-03     66.4193E-03    -10.4551E-03    -55.9642E-03    -44.3469E-03     54.8020E-03    -10.4551E-03     71.4053E-03     29.0905E+06    -339.578E+03    -65.9126E+06    -788.335E+03    -49.6775E+06     13.3041E+06    -31.2079E+06         30.7997
            2041     16.7936E-03     108.655E-03         1.18781     340.585E-03        -1.92969     339.115E-03        -1.92822         1.18781    -29.2098E-03     69.3416E-03    -12.7003E-03    -56.6413E-03    -51.1422E-03     63.8425E-03    -12.7003E-03     37.7654E-03     62.4082E+06     22.4256E+06    -22.4934E+06    -195.971E+03     15.9146E+06     46.6218E+06    -12.6407E+06         35.8788
            2042     996.275E-06     109.133E-03         1.84496         1.68590        -3.72510         1.80124        -3.69002         1.69455     674.974E-03     7.09900E-03    -3.52671E-03    -3.57229E-03    -3.52840E-03     7.09810E-03    -3.56970E-03    -152.032E-06    -43.6007E+06    -78.3191E+06    -83.2018E+06    -80.5092E+06    -45.9242E+06    -78.6882E+06    -8.80490E+06         20.5432
            2043     1.99268E-03     109.135E-03         1.75124         1.72082        -3.71244         1.72683        -3.71059         1.74338     183.043E-03     7.22813E-03    -3.58133E-03    -3.64680E-03    -3.63788E-03     7.22620E-03    -3.58833E-03    -69.9404E-06    -32.4551E+06    -73.6644E+06    -83.1537E+06    -78.3481E+06    -37.2607E+06    -73.6644E+06    -14.3289E+06         20.5616
            2044     2.98876E-03     109.137E-03         1.72568         1.65542        -3.64642         1.64828        -3.63928         1.72568    -130.906E-03     7.43712E-03    -3.65876E-03    -3.77835E-03    -3.76137E-03     7.42324E-03    -3.66187E-03     413.421E-06    -23.0677E+06    -66.3136E+06    -82.7386E+06    -75.0908E+06    -30.7154E+06    -66.3136E+06    -19.5053E+06         20.5916
            2045     3.98478E-03     109.142E-03         1.68919         1.51522        -3.48756         1.50928        -3.48162         1.68919    -286.211E-03     7.59308E-03    -3.73679E-03    -3.85629E-03    -3.78540E-03     7.52219E-03    -3.73679E-03     1.37630E-03    -15.4187E+06    -58.1893E+06    -80.8806E+06    -70.4589E+06    -25.8404E+06    -58.1893E+06    -23.5088E+06         20.6352
            2046     4.98089E-03     109.150E-03         1.63784         1.36726        -3.29167         1.36702        -3.29142         1.63784    -51.7602E-03     7.81782E-03    -3.78427E-03    -4.03355E-03    -3.78389E-03     7.56815E-03    -3.78427E-03     2.91523E-03    -9.08114E+06    -52.5606E+06    -79.0687E+06    -65.9658E+06    -22.1840E+06    -52.5606E+06    -27.0525E+06         20.6974
            2047     5.97703E-03     109.161E-03         1.57980         1.24208        -3.10894         1.24186        -3.10873         1.57980     8.67889E-03     8.36409E-03    -3.81416E-03    -4.54993E-03    -3.86868E-03     7.68284E-03    -3.81416E-03     5.24620E-03    -4.76486E+06    -50.6982E+06    -79.1852E+06    -63.3867E+06    -20.5633E+06    -50.6982E+06    -30.3777E+06         20.7863
            2048     6.97318E-03     109.176E-03         1.51959         1.12989        -2.95078         1.12777        -2.94865         1.51959    -103.942E-03     9.44689E-03    -3.84641E-03    -5.60049E-03    -4.07615E-03     7.92256E-03    -3.84641E-03     8.58825E-03     314.136E+03    -50.7684E+06    -79.7173E+06    -61.7201E+06    -17.6831E+06    -50.7684E+06    -33.3796E+06         20.9128
            2049     7.96917E-03     109.197E-03         1.45891         1.02485        -2.79978         1.02191        -2.79683         1.45891    -206.906E-03     11.3017E-03    -3.92330E-03    -7.37839E-03    -4.50969E-03     8.43299E-03    -3.92330E-03     13.1032E-03     3.39396E+06    -46.4212E+06    -77.2704E+06    -56.7443E+06    -16.3462E+06    -47.2070E+06    -34.3607E+06         21.0916
            2050     8.96485E-03     109.223E-03         1.39967     948.453E-03        -2.67778     946.834E-03        -2.67616         1.39967    -17.6738E-03     14.2311E-03    -4.08632E-03    -10.1447E-03    -5.34734E-03     9.43365E-03    -4.08632E-03     19.1832E-03     5.53314E+06    -33.4522E+06    -64.8176E+06    -44.0631E+06    -14.4355E+06    -34.2380E+06    -30.8716E+06         21.3430
            2051     9.95923E-03     109.258E-03         1.34477     924.134E-03        -2.60542     919.735E-03        -2.60102         1.34477     229.062E-03     18.5502E-03    -4.37616E-03    -14.1741E-03    -6.78467E-03     11.1608E-03    -4.37616E-03     27.3027E-03     15.0337E+06    -11.6984E+06    -38.5925E+06    -25.2775E+06    -2.41377E+06    -7.56586E+06    -20.6826E+06         21.6915
            2052     10.9520E-03     109.301E-03         1.29421     885.271E-03        -2.51968     880.451E-03        -2.51486         1.29421     244.704E-03     24.1153E-03    -4.84606E-03    -19.2692E-03    -9.03469E-03     13.8808E-03    -4.84606E-03     36.8310E-03     35.2145E+06     4.51874E+06    -14.5472E+06    -7.31998E+06     3.47468E+06     29.0313E+06    -9.04047E+06         22.1679
            2053     11.9418E-03     109.353E-03         1.24417     793.372E-03        -2.38776     791.770E-03        -2.38615         1.24417     139.914E-03     30.3956E-03    -5.47245E-03    -24.9232E-03    -12.4151E-03     17.8875E-03    -5.47245E-03     46.2648E-03     64.0229E+06     18.7599E+06     1.53933E+06     7.19478E+06     13.1045E+06     64.0229E+06    -1.05108E+06         22.8229
            2054     12.9288E-03     109.411E-03         1.19167     685.731E-03        -2.23893     683.662E-03        -2.23686         1.19167     149.591E-03     38.5840E-03    -6.28692E-03    -32.2971E-03    -17.7317E-03     24.0186E-03    -6.28692E-03     57.2418E-03     85.3463E+06     27.5840E+06     3.66902E+06     14.6609E+06     16.5921E+06     85.3463E+06     3.69420E+06         23.7370
            2055     13.9079E-03     109.483E-03         1.13634     584.325E-03        -2.08460     576.507E-03        -2.07678         1.13634     270.744E-03     48.0674E-03    -7.33460E-03    -40.7328E-03    -24.5438E-03     31.8784E-03    -7.33460E-03     68.4956E-03     92.8623E+06     45.5445E+06    -1.28867E+06     8.63016E+06     35.6257E+06     92.8623E+06     2.41814E+06         25.0407
            2056     14.8814E-03     109.560E-03         1.07977     489.733E-03        -1.92043     482.510E-03        -1.91320         1.07977     243.408E-03     56.8096E-03    -8.70611E-03    -48.1035E-03    -32.2868E-03     40.9929E-03    -8.70611E-03     74.8241E-03     87.6040E+06     44.2089E+06    -23.9408E+06    -3.60693E+06     23.8749E+06     87.6040E+06    -13.7141E+06         27.0434
            2057     15.8467E-03     109.640E-03         1.02401     412.883E-03        -1.75384     411.809E-03        -1.75276         1.02401     88.9279E-03     67.9908E-03    -10.2453E-03    -57.7455E-03    -42.5500E-03     52.7953E-03    -10.2453E-03     81.5739E-03     40.4906E+06    -3.84651E+06    -72.9106E+06    -10.3894E+06    -50.9872E+06     25.1102E+06    -29.4468E+06         30.4754
            2058     16.7971E-03     109.725E-03     973.172E-03     316.157E-03        -1.56688     315.239E-03        -1.56596     973.172E-03    -26.9612E-03     73.7478E-03    -12.4244E-03    -61.3234E-03    -53.4442E-03     65.8687E-03    -12.4244E-03     48.8667E-03     51.6010E+06     14.0992E+06    -51.3527E+06    -8.00237E+06    -13.8707E+06     36.2206E+06    -14.3698E+06         35.9218
            2059     995.112E-06     110.142E-03         1.56608         1.52879        -3.11485         1.52228        -3.07592         1.53367     620.205E-03     9.87347E-03    -4.88445E-03    -4.98902E-03    -4.97421E-03     9.87109E-03    -4.89687E-03    -353.231E-06    -25.5846E+06    -40.9953E+06    -47.4873E+06    -42.2352E+06    -30.8367E+06    -40.9953E+06    -7.34353E+06         20.7373
            2060     1.99008E-03     110.143E-03         1.54434         1.50384        -3.08803         1.51910        -3.08478         1.52583     189.127E-03     10.1833E-03    -4.99282E-03    -5.19044E-03    -5.18200E-03     10.1787E-03    -4.99670E-03    -511.638E-06    -16.3890E+06    -38.9900E+06    -50.2985E+06    -42.8328E+06    -23.8548E+06    -38.9900E+06    -13.4792E+06         20.7599
            2061     2.98472E-03     110.146E-03         1.50430         1.39894        -2.99105         1.38997        -2.98208         1.50430    -54.6358E-03     10.5671E-03    -5.13934E-03    -5.42773E-03    -5.42315E-03     10.5625E-03    -5.13934E-03    -399.205E-06    -8.82250E+06    -32.4969E+06    -53.0690E+06    -42.5608E+06    -19.3306E+06    -32.4969E+06    -18.4680E+06         20.7941
            2062     3.97911E-03     110.151E-03         1.45327         1.21434        -2.77565         1.20830        -2.76961         1.45327    -258.859E-03     10.9167E-03    -5.29205E-03    -5.62465E-03    -5.61586E-03     10.9079E-03    -5.29205E-03     118.062E-06    -3.19814E+06    -25.0468E+06    -55.0336E+06    -42.0512E+06    -16.1805E+06    -25.0468E+06    -22.2837E+06         20.8391
            2063     4.97334E-03     110.159E-03         1.38384         1.01827        -2.52312         1.01768        -2.52253         1.38384    -83.2251E-03     11.2049E-03    -5.42715E-03    -5.77778E-03    -5.73409E-03     11.1612E-03    -5.42715E-03     1.12747E-03     700.016E+03    -19.3705E+06    -56.8007E+06    -42.2804E+06    -13.8203E+06    -19.3705E+06    -24.8861E+06         20.8965
            2064     5.96754E-03     110.170E-03         1.31025     905.939E-03        -2.34808     905.510E-03        -2.34765         1.31025    -61.5869E-03     11.5267E-03    -5.54577E-03    -5.98098E-03    -5.81423E-03     11.3600E-03    -5.54577E-03     2.72516E-03     3.85980E+06    -14.4051E+06    -58.8247E+06    -42.7144E+06    -12.2505E+06    -14.4051E+06    -27.2882E+06         20.9709
            2065     6.96166E-03     110.185E-03         1.24590     882.679E-03        -2.27648     879.775E-03        -2.27358         1.24590    -149.768E-03     12.0237E-03    -5.65656E-03    -6.36714E-03    -5.89406E-03     11.5506E-03    -5.65656E-03     5.02085E-03     7.47743E+06    -9.22830E+06    -61.2710E+06    -43.8416E+06    -10.1037E+06    -9.07655E+06    -29.8123E+06         21.0704
            2066     7.95576E-03     110.206E-03         1.19184     842.228E-03        -2.20759     838.226E-03        -2.20359         1.19184    -214.543E-03     12.8815E-03    -5.77090E-03    -7.11058E-03    -6.01673E-03     11.7876E-03    -5.77090E-03     8.23105E-03     10.1985E+06    -6.29388E+06    -66.2077E+06    -47.1855E+06    -10.9731E+06    -4.14456E+06    -32.3843E+06         21.2070
            2067     8.94958E-03     110.233E-03         1.14059     749.278E-03        -2.08352     747.896E-03        -2.08214         1.14059    -48.0807E-03     14.4344E-03    -5.87672E-03    -8.55764E-03    -6.28589E-03     12.1626E-03    -5.87672E-03     12.8816E-03     12.2510E+06    -7.89251E+06    -71.8475E+06    -51.6013E+06    -12.7960E+06    -3.09176E+06    -34.5356E+06         21.3975
            2068     9.94362E-03     110.268E-03         1.08906     682.375E-03        -1.98108     679.135E-03        -1.97784         1.08906     158.976E-03     17.1700E-03    -6.00352E-03    -11.1665E-03    -6.90309E-03     12.9066E-03    -6.00352E-03     19.5981E-03     14.9231E+06    -6.62499E+06    -68.4274E+06    -49.9675E+06    -9.95387E+06    -208.008E+03    -32.5215E+06         21.6639
            2069     10.9368E-03     110.313E-03         1.03969     660.448E-03        -1.92507     656.404E-03        -1.92102         1.03969     198.084E-03     21.2068E-03    -6.25507E-03    -14.9517E-03    -8.09488E-03     14.3500E-03    -6.25507E-03     27.9877E-03     26.0152E+06     2.19543E+06    -49.9669E+06    -36.1020E+06    -5.48626E+06     19.8320E+06    -24.5042E+06         22.0399
            2070     11.9289E-03     110.368E-03     992.436E-03     609.445E-03        -1.84355     607.953E-03        -1.84206     992.436E-03     118.760E-03     26.8307E-03    -6.66208E-03    -20.1686E-03    -10.5388E-03     17.2009E-03    -6.66208E-03     37.8219E-03     51.7231E+06     12.2120E+06    -24.7122E+06    -16.3491E+06     3.84892E+06     51.7231E+06    -13.6916E+06         22.5806
            2071     12.9162E-03     110.433E-03     943.583E-03     515.205E-03        -1.71552     513.765E-03        -1.71408     943.583E-03     110.390E-03     35.1282E-03    -7.26876E-03    -27.8594E-03    -15.1194E-03     22.3882E-03    -7.26876E-03     50.5845E-03     81.2969E+06     20.6404E+06    -9.11690E+06     2.88012E+06     8.64340E+06     81.2969E+06    -2.11786E+06         23.3610
            2072     13.9002E-03     110.511E-03     891.873E-03     436.237E-03        -1.58814     430.287E-03        -1.58219     891.873E-03     202.858E-03     44.5526E-03    -8.13128E-03    -36.4213E-03    -21.2735E-03     29.4047E-03    -8.13128E-03     63.1123E-03     109.575E+06     46.5768E+06     4.94013E+06     18.8860E+06     32.6310E+06     109.575E+06     9.77616E+06         24.5009
            2073     14.8762E-03     110.599E-03     840.449E-03     395.226E-03        -1.47552     389.629E-03        -1.46992     840.449E-03     185.346E-03     52.7292E-03    -9.21618E-03    -43.5130E-03    -27.4670E-03     36.6832E-03    -9.21618E-03     71.6455E-03     116.560E+06     59.3903E+06     2.76071E+06     16.4868E+06     45.6641E+06     116.560E+06     9.88258E+06         26.3341
            2074     15.8454E-03     110.688E-03     791.099E-03     352.014E-03        -1.35164     351.322E-03        -1.35094     791.099E-03     59.6071E-03     65.4116E-03    -10.4271E-03    -54.9846E-03    -36.6833E-03     47.1103E-03    -10.4271E-03     86.2707E-03     57.2045E+06     12.9110E+06    -56.7917E+06    -6.78913E+06    -32.7582E+06     52.8712E+06    -8.24246E+06         29.7679
            2075     16.8090E-03     110.791E-03     745.643E-03     256.445E-03        -1.17758     256.171E-03        -1.17730     745.643E-03    -4.34236E-03     76.1020E-03    -12.3190E-03    -63.7830E-03    -52.7229E-03     65.0419E-03    -12.3190E-03     63.7091E-03     39.1185E+06     11.8488E+06    -64.6719E+06    -18.5912E+06    -29.8986E+06     34.7852E+06    -18.4418E+06         35.7615
            2076     993.680E-06     111.153E-03         1.38651         1.23416        -2.45997         1.32231        -2.41286         1.25125     524.342E-03     13.3265E-03    -6.56368E-03    -6.76281E-03    -6.69391E-03     13.3232E-03    -6.62928E-03    -477.516E-06    -6.28978E+06    -11.0158E+06    -22.8134E+06    -10.9828E+06    -18.1204E+06    -11.0158E+06    -6.36320E+06         20.9556
            2077     1.98670E-03     111.155E-03         1.28512         1.22232        -2.36314         1.22826        -2.35843         1.27448     100.283E-03     13.7828E-03    -6.75153E-03    -7.03129E-03    -7.02357E-03     13.7751E-03    -6.75153E-03    -794.541E-06     122.564E+03    -7.23204E+06    -23.4931E+06    -11.3007E+06    -12.1137E+06    -7.18816E+06     -10.798E+06         20.9838
            2078     2.97962E-03     111.159E-03         1.23263         1.07017        -2.19263         1.05807        -2.18053         1.23263    -60.1567E-03     14.3249E-03    -6.93692E-03    -7.38796E-03    -7.37800E-03     14.3149E-03    -6.93692E-03    -928.255E-06     4.15701E+06    -3.13818E+06    -26.2362E+06    -12.8906E+06    -9.30344E+06    -3.02334E+06    -14.2385E+06         21.0268
            2079     3.97209E-03     111.164E-03         1.16113     845.451E-03        -1.92845     836.775E-03        -1.91978         1.16113    -253.795E-03     14.9759E-03    -7.15463E-03    -7.82127E-03    -7.81295E-03     14.9676E-03    -7.15463E-03    -817.103E-06     8.61269E+06    -533.447E+03    -29.1523E+06    -14.9781E+06    -8.22888E+06     2.13394E+06    -16.5895E+06         21.0825
            2080     4.96408E-03     111.172E-03         1.08061     710.496E-03        -1.73569     707.809E-03        -1.73300         1.08061    -128.536E-03     15.6371E-03    -7.39967E-03    -8.23739E-03    -8.23116E-03     15.6308E-03    -7.39967E-03    -362.978E-06     14.0282E+06     2.56718E+06    -31.7423E+06    -17.0037E+06    -7.09223E+06     8.94897E+06    -18.5008E+06         21.1497
            2081     5.95566E-03     111.184E-03         1.01226     685.660E-03        -1.66822     683.172E-03        -1.66573         1.01226    -105.891E-03     16.2407E-03    -7.64640E-03    -8.59426E-03    -8.57596E-03     16.2224E-03    -7.64640E-03     524.612E-06     18.4507E+06     5.91310E+06    -33.8968E+06    -19.2894E+06    -5.62699E+06     15.3834E+06    -20.1299E+06         21.2296
            2082     6.94693E-03     111.199E-03     958.929E-03     665.163E-03        -1.62292     661.618E-03        -1.61937     958.929E-03    -135.054E-03     16.8049E-03    -7.88429E-03    -8.92058E-03    -8.84786E-03     16.7321E-03    -7.88429E-03     1.89617E-03     22.0087E+06     7.77488E+06    -36.4321E+06    -22.5920E+06    -4.90649E+06     20.8500E+06    -20.7444E+06         21.3267
            2083     7.93789E-03     111.220E-03     912.398E-03     608.340E-03        -1.55275     603.442E-03        -1.54786     912.398E-03    -198.644E-03     17.4655E-03    -8.11766E-03    -9.34783E-03    -9.11522E-03     17.2329E-03    -8.11766E-03     3.90471E-03     26.2917E+06     8.04680E+06    -39.7316E+06    -26.7275E+06    -4.95728E+06     26.2917E+06    -21.1689E+06         21.4486
            2084     8.92889E-03     111.247E-03     866.892E-03     535.225E-03        -1.46662     533.807E-03        -1.46521     866.892E-03    -68.5881E-03     18.4656E-03    -8.35918E-03    -10.1065E-03    -9.49511E-03     17.8543E-03    -8.35918E-03     6.82100E-03     32.3193E+06     8.12959E+06    -45.0302E+06    -30.6724E+06    -6.22825E+06     32.3193E+06    -23.5555E+06         21.6048
            2085     9.91916E-03     111.282E-03     821.250E-03     475.049E-03        -1.38742     472.952E-03        -1.38533     821.250E-03     92.4377E-03     19.7580E-03    -8.60099E-03    -11.1570E-03    -9.76346E-03     18.3645E-03    -8.60099E-03     10.9310E-03     37.0175E+06     8.19355E+06    -51.6411E+06    -35.1772E+06    -8.27035E+06     37.0175E+06    -26.6644E+06         21.8083
            2086     10.9095E-03     111.327E-03     776.153E-03     434.191E-03        -1.32549     431.505E-03        -1.32281     776.153E-03     132.321E-03     21.3660E-03    -8.82501E-03    -12.5410E-03    -9.82810E-03     18.6531E-03    -8.82501E-03     16.4974E-03     40.5329E+06     6.89167E+06    -55.5413E+06    -39.4259E+06    -9.22366E+06     40.5329E+06    -27.2531E+06         22.0848
            2087     11.8998E-03     111.383E-03     731.365E-03     386.978E-03        -1.25506     385.906E-03        -1.25399     731.365E-03     82.3082E-03     24.6568E-03    -9.06964E-03    -15.5871E-03    -10.7882E-03     19.8578E-03    -9.06964E-03     24.5726E-03     47.9786E+06     6.85252E+06    -49.3866E+06    -37.4810E+06    -5.05312E+06     47.9786E+06    -22.3988E+06         22.4800
            2088     12.8902E-03     111.452E-03     684.889E-03     319.375E-03        -1.15755     318.479E-03        -1.15665     684.889E-03     70.8053E-03     31.0202E-03    -9.49055E-03    -21.5297E-03    -13.8335E-03     23.3240E-03    -9.49055E-03     36.1590E-03     69.7236E+06      8.9284E+06    -33.7803E+06    -25.2280E+06     376.091E+03     69.7236E+06    -16.4694E+06         23.0571
            2089     13.8739E-03     111.537E-03     637.505E-03     291.753E-03        -1.08470     288.443E-03        -1.08139     637.505E-03     121.455E-03     37.2669E-03    -10.0609E-03    -27.2060E-03    -16.5778E-03     26.6387E-03    -10.0609E-03     47.4588E-03     97.9671E+06     26.2531E+06    -12.0898E+06    -2.11311E+06     16.2764E+06     97.9671E+06    -6.08839E+06         23.9446
            2090     14.8552E-03     111.631E-03     593.056E-03     307.560E-03        -1.04206     304.470E-03        -1.03897     593.056E-03     111.082E-03     44.3427E-03    -10.6986E-03    -33.6441E-03    -20.3128E-03     31.0113E-03    -10.6986E-03     58.7081E-03     115.586E+06     54.2955E+06     2.21705E+06     21.5271E+06     34.9854E+06     115.586E+06     16.7578E+06         25.4905
            2091     15.8368E-03     111.724E-03     550.434E-03     266.660E-03    -931.293E-03     266.313E-03    -930.946E-03     550.434E-03     37.0222E-03     58.2040E-03    -11.5419E-03    -46.6620E-03    -29.5690E-03     41.1110E-03    -11.5419E-03     77.4367E-03     95.7977E+06     47.4544E+06    -20.2148E+06     28.2787E+06    -1.03908E+06     95.7977E+06     17.9372E+06         28.5452
            2092     16.8006E-03     111.850E-03     508.147E-03     151.845E-03    -754.623E-03     151.580E-03    -754.358E-03     508.147E-03     5.40923E-03     69.6974E-03    -12.8364E-03    -56.8610E-03    -44.2416E-03     57.0780E-03    -12.8364E-03     70.0772E-03     56.7502E+06     27.8668E+06    -33.9404E+06     19.1513E+06    -19.1080E+06     50.6333E+06    -6.31430E+06         34.6207
            2093     991.410E-06     112.168E-03         1.07001     752.589E-03        -1.50271     977.378E-03        -1.42230     764.809E-03     82.2539E-03     17.4336E-03    -8.61410E-03    -8.81954E-03    -8.72716E-03     17.4308E-03    -8.70367E-03    -510.120E-06     19.6810E+06     17.2408E+06    -9.01397E+06     16.6390E+06    -7.32272E+06     18.5916E+06    -4.92596E+06         21.1416
            2094     1.98293E-03     112.171E-03         1.01629     846.132E-03        -1.55024     933.900E-03        -1.50412     882.395E-03    -204.314E-03     17.8234E-03    -8.76665E-03    -9.05678E-03    -9.02674E-03     17.8174E-03    -8.79061E-03    -775.254E-06     19.3740E+06     17.4116E+06    -7.28090E+06     14.8219E+06    -4.17266E+06     18.8555E+06    -6.80209E+06         21.1743
            2095     2.97372E-03     112.175E-03     903.222E-03     737.282E-03        -1.31811     755.030E-03        -1.30618     873.545E-03    -22.2912E-03     18.6368E-03    -8.99455E-03    -9.64223E-03    -9.63315E-03     18.6277E-03    -8.99455E-03    -986.955E-06     20.8236E+06     16.2279E+06    -8.02207E+06     11.3049E+06    -3.09908E+06     20.8236E+06    -8.07882E+06         21.2264
            2096     3.96388E-03     112.181E-03     816.118E-03     542.200E-03        -1.06532     534.424E-03        -1.05755     816.118E-03    -167.091E-03     19.6789E-03    -9.30516E-03    -10.3737E-03    -10.3633E-03     19.6684E-03    -9.30516E-03    -1.10311E-03     26.5541E+06     14.1344E+06    -9.64571E+06     7.72595E+06    -3.23731E+06     26.5541E+06    -9.09568E+06         21.2954
            2097     4.95321E-03     112.190E-03     751.066E-03     487.333E-03    -997.353E-03     483.617E-03    -993.637E-03     751.066E-03    -106.974E-03     20.8731E-03    -9.67727E-03    -11.1958E-03    -11.1866E-03     20.8639E-03    -9.67727E-03    -1.06989E-03     33.5927E+06     12.6513E+06    -10.2986E+06     4.49033E+06    -2.13765E+06     33.5927E+06    -9.89122E+06         21.3782
            2098     5.94168E-03     112.203E-03     704.007E-03     510.600E-03        -1.01702     506.960E-03        -1.01338     704.007E-03    -91.8029E-03     22.0949E-03    -10.0886E-03    -12.0063E-03    -11.9995E-03     22.0881E-03    -10.0886E-03    -871.116E-06     40.4887E+06     11.1147E+06    -12.1197E+06     913.943E+03    -1.91898E+06     40.4887E+06    -10.2902E+06         21.4741
            2099     6.92936E-03     112.219E-03     667.081E-03     451.111E-03    -960.955E-03     448.612E-03    -958.456E-03     667.081E-03    -65.4538E-03     23.3218E-03    -10.5178E-03    -12.8040E-03    -12.7956E-03     23.3134E-03    -10.5178E-03    -462.885E-06     46.5485E+06     9.27626E+06    -13.6727E+06    -2.14080E+06    -2.25562E+06     46.5485E+06    -10.3513E+06         21.5858
            2100     7.91644E-03     112.240E-03     627.326E-03     343.828E-03    -859.381E-03     340.169E-03    -855.722E-03     627.326E-03    -130.016E-03     24.7326E-03    -10.9690E-03    -13.7636E-03    -13.7416E-03     24.7106E-03    -10.9690E-03     208.340E-06     52.5290E+06     8.32557E+06    -14.5103E+06    -4.46699E+06    -1.71777E+06     52.5290E+06    -10.4655E+06         21.7167
            2101     8.90213E-03     112.268E-03     584.143E-03     273.428E-03    -803.631E-03     272.087E-03    -802.291E-03     584.143E-03    -57.6024E-03     26.2289E-03    -11.4595E-03    -14.7695E-03    -14.7055E-03     26.1650E-03    -11.4595E-03     1.21836E-03     59.7986E+06     7.68613E+06    -16.2890E+06    -7.47910E+06    -1.12372E+06     59.7986E+06    -11.0630E+06         21.8688
            2102     9.88675E-03     112.304E-03     541.922E-03     245.329E-03    -777.294E-03     243.968E-03    -775.932E-03     541.922E-03     46.7195E-03     27.3708E-03    -11.9537E-03    -15.4170E-03    -15.2554E-03     27.2092E-03    -11.9537E-03     2.60354E-03     64.6403E+06     5.84677E+06    -21.7214E+06    -12.2405E+06    -3.63415E+06     64.6403E+06    -12.1040E+06         22.0475
            2103     10.8711E-03     112.348E-03     501.258E-03     210.113E-03    -721.154E-03     208.013E-03    -719.054E-03     501.258E-03     52.3756E-03     28.4292E-03    -12.4133E-03    -16.0159E-03    -15.5923E-03     28.0056E-03    -12.4133E-03     4.64543E-03     65.7663E+06     4.82214E+06    -28.1674E+06    -17.8275E+06    -5.51776E+06     65.7663E+06    -14.2407E+06         22.2678
            2104     11.8563E-03     112.403E-03     460.150E-03     164.238E-03    -649.382E-03     163.194E-03    -648.338E-03     460.150E-03     20.9730E-03     30.3119E-03    -12.8872E-03    -17.4246E-03    -16.4262E-03     29.3135E-03    -12.8872E-03     7.99865E-03     68.8728E+06     4.56476E+06    -32.3049E+06    -21.2636E+06    -6.47649E+06     68.8728E+06    -16.6433E+06         22.5433
            2105     12.8387E-03     112.474E-03     418.277E-03     136.958E-03    -596.975E-03     135.752E-03    -595.769E-03     418.277E-03     47.4638E-03     31.0537E-03    -12.6529E-03    -18.4008E-03    -15.6435E-03     28.9815E-03    -13.3380E-03     14.0342E-03     75.7377E+06     9.38345E+06    -32.9663E+06    -22.6747E+06    -908.124E+03     75.7377E+06    -17.0844E+06         22.9126
            2106     13.8216E-03     112.562E-03     377.969E-03     148.123E-03    -579.160E-03     146.285E-03    -577.322E-03     377.969E-03     64.7856E-03     30.2777E-03    -11.8206E-03    -18.4571E-03    -12.8810E-03     26.4809E-03    -13.6000E-03     21.3085E-03     76.8571E+06     9.53083E+06    -31.3070E+06    -25.2340E+06     3.45777E+06     76.8571E+06    -13.6810E+06         23.5495
            2107     14.8145E-03     112.647E-03     339.998E-03     165.633E-03    -559.855E-03     163.737E-03    -557.959E-03     339.998E-03     27.8018E-03     36.7478E-03    -12.7717E-03    -23.9762E-03    -16.5750E-03     30.4409E-03    -13.8659E-03     33.4690E-03     81.4967E+06     17.1816E+06    -26.7942E+06    -16.9569E+06     7.34427E+06     81.4967E+06    -185.991E+03         24.7976
            2108     15.7919E-03     112.766E-03     301.764E-03     140.414E-03    -485.131E-03     138.638E-03    -483.355E-03     301.764E-03    -14.1683E-03     47.5431E-03    -14.5006E-03    -33.0425E-03    -24.7148E-03     39.2154E-03    -14.5006E-03     45.0474E-03     93.2515E+06     35.0484E+06    -23.0501E+06     6.45403E+06     5.54433E+06     93.2515E+06     11.4305E+06         27.2471
            2109     16.7675E-03     112.889E-03     264.674E-03     73.9546E-03    -371.299E-03     72.9858E-03    -370.330E-03     264.674E-03    -11.2606E-03     44.3258E-03    -9.22208E-03    -35.1037E-03    -22.4822E-03     37.4176E-03    -14.9354E-03     39.7709E-03     62.0046E+06     18.0348E+06    -27.5659E+06     14.2697E+06    -1.61351E+06     39.8173E+06     6.84893E+06         31.8599


