********************************************************************************
Field Output Report, written Mon May  5 22:50:10 2025

Source 1
---------

   ODB: D:/AISI_1020/Vel_10/1020_2a_24_rd_2000_cal_75_v_10_fric_050.odb
   Step: Step-1
   Frame: Increment  20000003: Step Time =    2.000

Loc 1 : Nodal values from source 1

Output sorted by column "Node Label".

Field Output reported at nodes for region: DIE_2A_24_D0_36-1.Region_1
   Computation algorithm: EXTRAPOLATE_COMPUTE_AVERAGE
   Averaged at nodes
   Averaging regions: ODB_REGIONS

      Node Label     COORD.COOR1     COORD.COOR2
                          @Loc 1          @Loc 1
-------------------------------------------------
               1     17.3939E-03     275.625E-03


Field Output reported at nodes for region: DIE_2A_24_D0_36-1.Region_2
   Computation algorithm: EXTRAPOLATE_COMPUTE_AVERAGE
   Averaged at nodes
   Averaging regions: ODB_REGIONS

      Node Label     COORD.COOR1     COORD.COOR2
                          @Loc 1          @Loc 1
-------------------------------------------------
               1     17.3939E-03     275.625E-03


Field Output reported at nodes for part: WIRE_1-1
   Computation algorithm: EXTRAPOLATE_COMPUTE_AVERAGE
   Averaged at nodes
   Averaging regions: ODB_REGIONS

      Node Label     COORD.COOR1     COORD.COOR2    ER.Max. Prin    ER.Mid. Prin    ER.Min. Prin         ER.ER11         ER.ER22         ER.ER33         ER.ER12    PE.Max. Prin    PE.Mid. Prin    PE.Min. Prin         PE.PE11         PE.PE22         PE.PE33         PE.PE12     S.Max. Prin     S.Mid. Prin     S.Min. Prin           S.S11           S.S22           S.S33           S.S12            TEMP
                          @Loc 1          @Loc 1          @Loc 1          @Loc 1          @Loc 1          @Loc 1          @Loc 1          @Loc 1          @Loc 1          @Loc 1          @Loc 1          @Loc 1          @Loc 1          @Loc 1          @Loc 1          @Loc 1          @Loc 1          @Loc 1          @Loc 1          @Loc 1          @Loc 1          @Loc 1          @Loc 1          @Loc 1
-----------------------------------------------------------------------------------------------------------------------------------------------------------------------------------------------------------------------------------------------------------------------------------------------------------------------------------------------------------------------------------------------------------------
               1     14.2702E-03     88.6342E-03     26.5886E-03    -4.28922E-03    -10.4428E-03    -9.69562E-03     25.8414E-03    -4.28922E-03     9.82925E-03     468.873E-03    -233.385E-03    -237.963E-03    -233.508E-03     464.418E-03    -233.385E-03     111.873E-03     89.6506E+06     50.9187E+06    -2.07968E+06    -1.99621E+06     50.8353E+06     89.6506E+06    -435.073E+03         81.5997
               2    -1.07140E-06     87.0153E-03     170.669E-03     69.9066E-03    -233.262E-03    -163.764E-03     2.23779E-03     168.839E-03    -241.708E-03     464.363E-03    -231.769E-03    -232.471E-03    -231.914E-03     464.360E-03    -232.323E-03     1.75490E-03    -136.546E+06    -137.068E+06    -270.471E+06    -136.810E+06    -270.458E+06    -136.818E+06    -491.842E+03         57.1484
               3     2.24953E-06    -230.968E-09     113.629E-03    -16.7213E-03    -83.5217E-03     112.214E-03    -15.3057E-03    -83.5217E-03     27.0206E-03     617.539E-03    -308.066E-03    -309.467E-03    -309.429E-03     617.501E-03    -308.066E-03     11.9748E-03    -63.1572E+06    -65.1445E+06    -235.596E+06    -65.6051E+06    -233.148E+06    -65.1445E+06     20.3992E+06         67.8675
               4     13.9769E-03    -230.968E-09     32.6301E-03    -6.06740E-03    -7.90616E-03    -6.05206E-03     32.6147E-03    -7.90616E-03     1.54031E-03     705.461E-03    -240.586E-03    -465.303E-03    -454.058E-03     694.216E-03    -240.586E-03     228.375E-03     109.749E+06     105.431E+06    -46.5957E+06     59.6813E+06     3.47152E+06     105.431E+06     72.9452E+06         81.3557
               5     14.4069E-03     176.675E-03     12.2249E-03     4.39118E-03    -15.1161E-03    -13.4238E-03     10.5327E-03     4.39118E-03    -13.1763E-03     291.099E-03    -64.3025E-03    -227.656E-03    -64.3013E-03     291.098E-03    -227.656E-03     1.31832E-03     96.0160E+06     71.5713E+06    -17.7152E+06    -10.7863E+06     64.6424E+06     96.0160E+06    -23.8882E+06         88.0253
               6     1.63814E-06     171.877E-03     551.169E-03    -63.2295E-03    -517.788E-03    -517.613E-03    -63.4046E-03     551.169E-03     17.8425E-03     500.281E-03    -249.239E-03    -250.907E-03    -250.204E-03     499.578E-03    -249.239E-03    -45.9400E-03     7.08082E+06     5.88882E+06    -48.5015E+06     3.53178E+06    -46.1444E+06     7.08082E+06    -11.0745E+06         53.4789
               7     13.4774E-03     88.4626E-03     28.9794E-03    -4.18261E-03    -13.0877E-03    -11.3737E-03     27.2654E-03    -4.18261E-03     4.20383E-03     473.790E-03    -232.619E-03    -241.523E-03    -233.640E-03     465.907E-03    -232.619E-03     145.712E-03     87.1433E+06     49.2061E+06    -5.18280E+06    -5.05474E+06     49.0781E+06     87.1433E+06    -339.432E+03         79.9959
               8     12.6831E-03     88.1925E-03     27.7757E-03    -3.82735E-03    -12.3955E-03    -10.4441E-03     25.9832E-03    -3.98628E-03     3.29101E-03     473.490E-03    -232.758E-03    -240.981E-03    -232.729E-03     465.239E-03    -232.758E-03     150.058E-03     83.1965E+06     46.9482E+06    -11.2365E+06    -11.0456E+06     46.7573E+06     83.1965E+06     310.329E+03         76.1284
               9     11.8909E-03     88.0208E-03     24.2692E-03    -3.78896E-03    -9.00159E-03    -4.74624E-03     20.1728E-03    -3.94789E-03    -132.783E-06     470.067E-03    -232.685E-03    -237.203E-03    -231.946E-03     464.811E-03    -232.685E-03     121.486E-03     80.2172E+06     45.6964E+06    -17.4336E+06    -17.2828E+06     45.5456E+06     80.2172E+06     636.192E+03         71.5795
              10     11.0970E-03     87.8507E-03     21.0770E-03    -3.03664E-03    -6.98592E-03    -2.16407E-03     17.3500E-03    -4.13145E-03    -3.57500E-03     470.180E-03    -232.354E-03    -236.816E-03    -232.072E-03     465.436E-03    -232.354E-03     115.235E-03     77.2453E+06     38.1471E+06    -23.6701E+06    -23.5520E+06     38.0290E+06     77.2453E+06     304.586E+03         67.4772
              11     10.3047E-03     87.7095E-03     15.2525E-03     176.724E-06    -4.93603E-03     1.36819E-03     13.6794E-03    -4.55435E-03     2.28746E-03     468.750E-03    -232.638E-03    -235.274E-03    -231.423E-03     464.900E-03    -232.638E-03     103.761E-03     71.6244E+06     28.3916E+06    -30.7541E+06    -30.6050E+06     28.2425E+06     71.6244E+06      57.449E+03         64.4046
              12     9.51190E-03     87.5721E-03     13.9860E-03     1.78628E-03    -5.32899E-03     4.86752E-03     10.9047E-03    -5.32899E-03     7.58729E-03     467.282E-03    -232.634E-03    -234.384E-03    -230.563E-03     464.126E-03    -233.299E-03     93.6875E-03     62.7752E+06     26.8867E+06    -38.9289E+06    -38.8004E+06     26.7582E+06     62.7752E+06    -247.508E+03         62.3262
              13     8.71866E-03     87.4551E-03     22.7009E-03    -2.79934E-03    -8.62779E-03     3.13865E-03     14.4134E-03    -6.27833E-03     1.97364E-03     465.358E-03    -232.305E-03    -233.578E-03    -230.280E-03     462.725E-03    -232.970E-03     85.5616E-03     51.3674E+06     25.9253E+06    -47.6109E+06    -47.5201E+06     25.8345E+06     51.3674E+06    -290.949E+03         60.9539
              14     7.92526E-03     87.3535E-03     31.1615E-03    -5.73762E-03    -13.9106E-03    -564.884E-06     19.1684E-03    -7.09029E-03     15.2880E-03     466.064E-03    -231.813E-03    -233.131E-03    -230.218E-03     463.861E-03    -232.523E-03     78.1629E-03     38.1457E+06     18.3059E+06    -57.1911E+06    -57.1474E+06     18.2621E+06     38.1457E+06    -398.772E+03         60.0648
              15     7.13175E-03     87.2609E-03     36.1818E-03    -6.14429E-03    -18.5796E-03    -6.92875E-03     25.8836E-03    -7.49695E-03     8.94463E-03     466.283E-03    -231.420E-03    -233.130E-03    -229.721E-03     464.585E-03    -233.130E-03     68.6224E-03     24.5121E+06     7.00420E+06     -67.955E+06    -67.9252E+06     6.97438E+06     24.5121E+06    -735.385E+03         59.4926
              16     6.33954E-03     87.1820E-03     37.1097E-03    -7.42924E-03    -19.1887E-03    -10.2235E-03     28.1445E-03    -7.42924E-03    -11.2825E-03     465.328E-03    -231.695E-03    -233.296E-03    -231.028E-03     464.060E-03    -232.696E-03     59.2144E-03     7.15433E+06    -31.5048E+06    -78.9748E+06    -78.9246E+06    -31.5550E+06     7.15433E+06    -522.840E+03         59.0772
              17     5.54684E-03     87.1216E-03     33.1133E-03    -7.27815E-03    -15.8901E-03    -8.07354E-03     25.2968E-03    -7.27815E-03     14.9866E-03     464.571E-03    -232.025E-03    -233.708E-03    -231.785E-03     463.731E-03    -233.108E-03     47.9757E-03    -13.8761E+06    -79.4769E+06    -92.2693E+06    -89.5838E+06    -82.1624E+06    -13.8761E+06    -154.517E+03         58.7260
              18     4.75371E-03     87.0760E-03     33.8728E-03    -7.16422E-03    -16.1585E-03    -8.34102E-03     26.0554E-03    -7.16422E-03    -3.00230E-03     463.662E-03    -231.883E-03    -233.792E-03    -231.380E-03     463.159E-03    -233.792E-03     37.1280E-03    -35.8633E+06    -100.200E+06    -114.241E+06    -100.212E+06    -114.228E+06    -35.8633E+06     14.4030E+03         58.4241
              19     3.96196E-03     87.0431E-03     31.1447E-03    -6.54849E-03    -14.0294E-03    -9.70732E-03     27.0556E-03    -6.78139E-03    -16.8368E-03     464.558E-03    -231.780E-03    -234.054E-03    -231.502E-03     464.280E-03    -234.054E-03     27.3042E-03    -59.1786E+06    -110.050E+06    -141.887E+06    -110.078E+06    -141.859E+06    -59.1786E+06     563.971E+03         58.1850
              20     3.16960E-03     87.0254E-03     27.9315E-03    -4.44785E-03    -11.0249E-03    -8.93230E-03     27.5320E-03    -6.14095E-03     6.65758E-03     466.457E-03    -231.941E-03    -233.558E-03    -231.821E-03     466.337E-03    -233.558E-03     17.7448E-03    -83.7973E+06    -119.390E+06    -172.753E+06    -119.425E+06    -172.719E+06    -83.7973E+06     480.123E+03         57.9592
              21     2.37658E-03     87.0164E-03     31.6026E-03    -2.31853E-03    -16.5768E-03    -10.7124E-03     28.2258E-03    -4.80614E-03    -12.5923E-03     465.666E-03    -232.363E-03    -233.223E-03    -233.010E-03     465.624E-03    -232.533E-03     10.2887E-03    -106.566E+06    -127.317E+06    -202.101E+06    -127.344E+06    -202.074E+06    -106.566E+06    -477.602E+03         57.6993
              22     1.58369E-03     87.0159E-03     45.7693E-03    -983.608E-06    -33.6322E-03    -9.24288E-03     22.4073E-03    -2.01103E-03     32.7749E-03     464.016E-03    -231.894E-03    -232.866E-03    -232.854E-03     464.004E-03    -231.894E-03     5.54904E-03    -124.013E+06    -132.631E+06    -230.166E+06    -132.648E+06    -230.149E+06    -124.013E+06    -580.281E+03         57.4330
              23     791.933E-06     87.0167E-03     114.068E-03     34.8521E-03    -139.749E-03    -84.7398E-03     9.59242E-03     84.3185E-03    -71.0347E-03     464.054E-03    -231.715E-03    -232.349E-03    -232.068E-03     464.050E-03    -231.992E-03     2.88119E-03    -133.848E+06    -135.893E+06    -258.242E+06    -135.764E+06    -258.236E+06    -133.984E+06    -363.142E+03         57.2272
              24     366.516E-09     85.4262E-03     168.165E-03     51.9893E-03    -215.818E-03    -132.458E-03    -14.1288E-03     150.922E-03    -256.919E-03     464.424E-03    -231.692E-03    -232.665E-03    -232.111E-03     464.424E-03    -232.246E-03     78.7802E-06    -138.860E+06    -139.373E+06    -271.453E+06    -139.376E+06    -271.449E+06    -138.860E+06     656.702E+03         57.1447
              25     26.8256E-09     83.8301E-03     123.483E-03     19.8081E-03    -132.158E-03    -60.1930E-03     51.5175E-03     19.8081E-03    -228.129E-03     464.699E-03    -231.613E-03    -233.093E-03    -232.030E-03     464.698E-03    -232.675E-03     1.51758E-03    -138.012E+06    -138.659E+06    -271.467E+06    -138.283E+06    -271.458E+06    -138.397E+06    -429.197E+03         57.1606
              26    -1.84746E-06     82.2328E-03     169.200E-03    -50.6900E-03    -114.779E-03     52.2976E-03     36.0571E-03    -84.6237E-03    -232.164E-03     464.644E-03    -231.760E-03    -233.223E-03    -231.757E-03     464.642E-03    -233.223E-03     2.52194E-03    -136.345E+06    -136.993E+06    -272.381E+06    -136.617E+06    -272.371E+06    -136.731E+06    -375.618E+03         57.1827
              27     891.635E-09     80.6365E-03     277.282E-03    -61.5221E-03    -204.310E-03     189.099E-03     26.6603E-03    -204.310E-03    -296.465E-03     464.350E-03    -231.474E-03    -232.933E-03    -232.530E-03     464.348E-03    -231.875E-03     2.47407E-03    -136.909E+06    -137.487E+06    -274.619E+06    -137.532E+06    -274.574E+06    -136.909E+06    -1.38351E+06         57.1732
              28     1.75606E-06     79.0470E-03     327.534E-03    -37.1738E-03    -273.195E-03     268.404E-03     21.9568E-03    -273.195E-03    -253.805E-03     463.521E-03    -231.079E-03    -232.525E-03    -232.523E-03     463.519E-03    -231.079E-03     1.93007E-03    -136.743E+06    -138.656E+06    -275.011E+06    -137.126E+06    -274.944E+06    -138.340E+06    -440.410E+03         57.1409
              29    -1.13799E-06     77.4588E-03     332.491E-03    -15.3575E-03    -302.672E-03     297.594E-03     19.5398E-03    -302.672E-03    -205.692E-03     462.404E-03    -231.031E-03    -232.047E-03    -231.419E-03     462.404E-03    -231.659E-03     413.837E-06    -136.497E+06    -139.812E+06    -273.263E+06    -138.242E+06    -273.236E+06    -138.094E+06     1.71445E+06         57.1153
              30    -62.0216E-09     75.8628E-03     342.492E-03     10.2836E-03    -336.744E-03     318.128E-03     34.6474E-03    -336.744E-03    -130.320E-03     463.322E-03    -231.448E-03    -232.286E-03    -231.658E-03     463.321E-03    -232.075E-03     887.495E-06    -136.422E+06    -139.944E+06    -274.355E+06    -138.143E+06    -274.351E+06    -138.226E+06     643.145E+03         57.1037
              31     446.016E-09     74.2682E-03     318.285E-03     40.4323E-03    -339.065E-03     301.776E-03     56.9415E-03    -339.065E-03    -91.9806E-03     464.741E-03    -232.305E-03    -232.738E-03    -232.737E-03     464.740E-03    -232.305E-03     1.41114E-03    -135.510E+06    -139.476E+06    -271.660E+06    -137.673E+06    -271.660E+06    -137.314E+06     222.343E+03         57.1065
              32    -152.221E-09     72.6732E-03     327.992E-03     21.3616E-03    -332.327E-03     290.769E-03     58.5840E-03    -332.327E-03    -200.276E-03     463.659E-03    -231.688E-03    -232.391E-03    -231.910E-03     463.659E-03    -232.168E-03     503.877E-06    -137.571E+06    -141.309E+06    -270.905E+06    -139.733E+06    -270.904E+06    -139.148E+06     212.007E+03         57.1176
              33    -494.614E-09     71.0818E-03     361.042E-03    -67.1413E-03    -278.205E-03     309.498E-03    -15.5974E-03    -278.205E-03    -278.664E-03     462.827E-03    -231.134E-03    -232.057E-03    -231.133E-03     462.827E-03    -232.057E-03     1.05945E-03    -137.279E+06    -140.418E+06    -270.598E+06    -138.845E+06    -270.594E+06    -138.856E+06    -239.945E+03         57.1304
              34     194.862E-09     69.4875E-03     376.274E-03    -92.5300E-03    -272.124E-03     262.696E-03     21.0481E-03    -272.124E-03    -374.202E-03     463.956E-03    -231.456E-03    -232.594E-03    -232.152E-03     463.955E-03    -231.898E-03     803.394E-06    -134.193E+06    -138.443E+06    -269.747E+06    -135.764E+06    -269.738E+06    -136.881E+06     142.851E+03         57.1396
              35     760.244E-09     67.8926E-03     377.986E-03    -63.9915E-03    -308.510E-03     216.456E-03     97.5387E-03    -308.510E-03    -425.195E-03     463.841E-03    -231.322E-03    -232.603E-03    -232.603E-03     463.841E-03    -231.322E-03     777.075E-06    -134.800E+06    -140.015E+06    -268.830E+06    -137.334E+06    -268.824E+06    -137.487E+06     822.180E+03         57.1351
              36     147.060E-09     66.2972E-03     312.348E-03    -89.9236E-03    -210.799E-03     207.560E-03     14.8641E-03    -210.799E-03    -341.333E-03     463.184E-03    -231.326E-03    -232.167E-03    -232.166E-03     463.184E-03    -231.326E-03     1.28479E-03    -133.820E+06    -138.057E+06    -266.850E+06    -136.353E+06    -266.845E+06    -135.529E+06    -310.362E+03         57.1249
              37     169.554E-09     64.7054E-03     246.782E-03    -91.5261E-03    -142.677E-03     142.315E-03     12.9404E-03    -142.677E-03    -288.579E-03     463.037E-03    -231.352E-03    -231.938E-03    -231.607E-03     463.037E-03    -231.682E-03     1.19100E-03    -133.787E+06    -137.343E+06    -269.916E+06    -135.639E+06    -269.912E+06    -135.496E+06    -439.116E+03         57.1146
              38    -216.131E-09     63.1153E-03     206.411E-03    -38.2940E-03    -155.553E-03     94.3642E-03     73.7533E-03    -155.553E-03    -243.511E-03     462.923E-03    -231.341E-03    -231.728E-03    -231.341E-03     462.923E-03    -231.728E-03     905.234E-06    -135.049E+06    -138.907E+06    -271.570E+06    -136.896E+06    -271.570E+06    -137.061E+06    -28.6470E+03         57.1072
              39     320.084E-09     61.5202E-03     164.854E-03    -40.7644E-03    -115.328E-03     87.3941E-03     34.1983E-03    -112.831E-03    -200.521E-03     463.375E-03    -231.664E-03    -231.877E-03    -231.663E-03     463.375E-03    -231.877E-03     1.25970E-03    -136.287E+06    -139.133E+06    -271.358E+06    -137.132E+06    -271.348E+06    -138.299E+06     672.122E+03         57.1124
              40    -904.453E-09     59.9299E-03     217.646E-03    -99.8768E-03    -113.656E-03     95.9558E-03     8.03372E-03    -99.8768E-03    -319.115E-03     464.139E-03    -231.578E-03    -232.743E-03    -231.577E-03     464.138E-03    -232.743E-03     1.67137E-03    -137.226E+06    -138.331E+06    -270.466E+06    -138.071E+06    -270.455E+06    -137.497E+06     611.012E+03         57.1228
              41    -517.807E-09     58.3320E-03     259.611E-03    -83.7370E-03    -164.802E-03     83.8547E-03     80.7375E-03    -153.520E-03    -342.457E-03     463.329E-03    -230.696E-03    -232.777E-03    -231.769E-03     463.328E-03    -231.703E-03    -119.401E-06    -135.427E+06    -136.242E+06    -267.440E+06    -135.973E+06    -267.437E+06    -135.698E+06     177.589E+03         57.1225
              42     2.56240E-06     56.7399E-03     217.609E-03    -39.2236E-03    -167.893E-03     56.4803E-03     63.0186E-03    -109.007E-03    -304.756E-03     462.287E-03    -230.393E-03    -231.991E-03    -231.987E-03     462.283E-03    -230.393E-03     1.41447E-03    -138.050E+06    -139.099E+06    -265.262E+06    -138.601E+06    -265.254E+06    -138.555E+06    -199.100E+03         57.1200
              43    -1.88757E-06     55.1505E-03     133.023E-03     21.6110E-03    -148.459E-03     19.3149E-03    -34.7506E-03     21.6110E-03    -275.950E-03     463.484E-03    -231.365E-03    -232.212E-03    -231.885E-03     463.479E-03    -231.688E-03     860.952E-06    -135.453E+06    -136.020E+06    -263.604E+06    -135.463E+06    -263.594E+06    -136.020E+06    -8.58238E+03         57.1318
              44     1.22239E-06     53.5524E-03     102.283E-03     88.4908E-03    -185.895E-03    -113.508E-03     22.3168E-03     96.0699E-03    -175.067E-03     463.457E-03    -231.356E-03    -232.356E-03    -232.032E-03     463.456E-03    -231.678E-03    -698.065E-06    -134.186E+06    -134.968E+06    -267.461E+06    -134.959E+06    -267.408E+06    -134.248E+06    -1.21269E+06         57.1388
              45    -608.705E-09     51.9586E-03     202.937E-03     78.5253E-03    -274.715E-03    -246.109E-03     49.9186E-03     202.937E-03    -183.072E-03     462.874E-03    -231.090E-03    -232.206E-03    -231.767E-03     462.873E-03    -231.529E-03     1.44074E-03    -136.639E+06    -138.458E+06    -270.631E+06    -137.485E+06    -270.506E+06    -137.738E+06     512.274E+03         57.1330
              46    -56.9897E-09     50.3668E-03     246.931E-03     93.1436E-03    -326.618E-03    -267.726E-03     34.2521E-03     246.931E-03    -290.833E-03     463.646E-03    -231.275E-03    -232.635E-03    -232.196E-03     463.646E-03    -231.714E-03     881.611E-06    -132.999E+06    -134.957E+06    -265.047E+06    -133.948E+06    -264.957E+06    -134.098E+06     1.40330E+06         57.1342
              47     1.45967E-06     48.7725E-03     201.417E-03     119.119E-03    -298.070E-03    -214.745E-03     35.7933E-03     201.417E-03    -329.723E-03     463.792E-03    -231.104E-03    -232.734E-03    -232.733E-03     463.791E-03    -231.104E-03     1.30300E-03    -135.321E+06    -136.952E+06    -265.829E+06    -136.192E+06    -265.816E+06    -136.093E+06    -989.781E+03         57.1373
              48    -530.020E-09     47.1799E-03     157.594E-03     95.8518E-03    -237.495E-03    -111.798E-03    -13.4459E-03     141.195E-03    -325.307E-03     463.509E-03    -231.343E-03    -232.453E-03    -232.051E-03     463.508E-03    -231.745E-03     1.42612E-03    -136.723E+06    -138.346E+06    -268.852E+06    -137.575E+06    -268.852E+06    -137.495E+06    -5.76286E+03         57.1333
              49     37.2673E-09     45.5883E-03     165.639E-03     22.8553E-03    -180.261E-03    -45.0550E-03     30.4327E-03     22.8553E-03    -332.132E-03     463.492E-03    -231.735E-03    -232.391E-03    -231.735E-03     463.492E-03    -232.391E-03     692.207E-06    -136.874E+06    -137.887E+06    -269.092E+06    -137.887E+06    -269.092E+06    -136.874E+06    -7.17891E+03         57.1250
              50    -31.2881E-09     43.9911E-03     138.450E-03    -2.79492E-03    -122.534E-03    -33.7003E-03     49.6158E-03    -2.79492E-03    -246.082E-03     463.595E-03    -231.518E-03    -232.523E-03    -232.268E-03     463.594E-03    -231.771E-03     1.50465E-03    -135.786E+06    -137.457E+06    -270.347E+06    -135.952E+06    -270.343E+06    -137.294E+06     396.838E+03         57.1119
              51     1.11425E-06     42.3961E-03     80.0774E-03     55.1400E-03    -126.480E-03    -42.3519E-03    -14.1284E-03     65.2172E-03    -194.362E-03     463.245E-03    -230.780E-03    -232.635E-03    -232.634E-03     463.244E-03    -230.780E-03     1.70740E-03    -135.186E+06    -137.124E+06    -270.743E+06    -135.627E+06    -270.732E+06    -136.694E+06    -212.609E+03         57.0979
              52    -292.539E-09     40.8092E-03     106.893E-03     68.3618E-03    -164.999E-03    -109.491E-03     12.8544E-03     106.893E-03    -155.644E-03     462.570E-03    -230.602E-03    -232.299E-03    -231.706E-03     462.569E-03    -231.195E-03     1.42406E-03    -135.424E+06    -136.801E+06    -269.719E+06    -135.864E+06    -269.708E+06    -136.372E+06    -302.400E+03         57.0859
              53    -705.274E-09     39.2111E-03     150.146E-03     57.4557E-03    -198.102E-03    -184.175E-03     43.5286E-03     150.146E-03    -112.423E-03     462.764E-03    -231.267E-03    -231.921E-03    -231.328E-03     462.763E-03    -231.859E-03     1.03461E-03    -132.484E+06    -135.926E+06    -266.972E+06    -134.981E+06    -266.969E+06    -133.432E+06     556.445E+03         57.0738
              54     828.746E-09     37.6192E-03     157.288E-03     56.6660E-03    -206.394E-03    -190.365E-03     40.6368E-03     157.288E-03    -124.483E-03     463.431E-03    -231.361E-03    -232.466E-03    -232.465E-03     463.431E-03    -231.361E-03     1.19970E-03    -136.208E+06    -141.522E+06    -269.737E+06    -138.725E+06    -269.714E+06    -139.028E+06    -1.08399E+06         57.0645
              55     667.882E-09     36.0241E-03     98.8173E-03     61.0930E-03    -145.327E-03    -135.049E-03     52.1541E-03     97.4779E-03    -89.8211E-03     462.938E-03    -230.576E-03    -232.637E-03    -232.636E-03     462.938E-03    -230.576E-03     1.19197E-03    -138.145E+06    -142.485E+06    -269.899E+06    -139.729E+06    -269.836E+06    -140.964E+06     399.864E+03         57.0616
              56     311.201E-09     34.4350E-03     44.6989E-03     43.1892E-03    -70.7740E-03    -65.5169E-03     39.2716E-03     43.3595E-03    -35.2049E-03     462.258E-03    -230.724E-03    -232.100E-03    -231.741E-03     462.257E-03    -231.082E-03     1.57489E-03    -135.203E+06    -136.727E+06    -266.794E+06    -136.786E+06    -266.735E+06    -135.203E+06     531.837E+03         57.0677
              57    -292.916E-09     32.8418E-03     50.7440E-03     5.69640E-03    -32.8228E-03    -18.3643E-03     45.3451E-03    -3.36321E-03    -23.0858E-03     462.921E-03    -231.625E-03    -232.161E-03    -231.623E-03     462.919E-03    -232.161E-03     2.17689E-03    -136.608E+06    -136.839E+06    -267.159E+06    -136.645E+06    -267.126E+06    -136.836E+06    -109.192E+03         57.0821
              58     424.650E-09     31.2477E-03     79.4846E-03    -74.0904E-06    -52.7764E-03    -38.5043E-03     39.7609E-03     25.3774E-03    -25.5319E-03     463.702E-03    -231.912E-03    -232.413E-03    -232.234E-03     463.701E-03    -232.090E-03     1.67280E-03    -136.593E+06    -137.097E+06    -269.114E+06    -136.643E+06    -269.064E+06    -137.097E+06    -565.635E+03         57.1018
              59     129.015E-09     29.6547E-03     120.214E-03     38.0430E-03    -135.300E-03    -121.810E-03     24.5539E-03     120.214E-03    -76.4245E-03     463.706E-03    -231.709E-03    -232.151E-03    -232.149E-03     463.704E-03    -231.709E-03     2.07775E-03    -138.026E+06    -138.876E+06    -275.348E+06    -138.656E+06    -275.291E+06    -138.303E+06    -333.595E+03         57.1310
              60     6.68755E-09     28.0572E-03     177.728E-03     83.9303E-03    -242.932E-03    -209.985E-03     50.9838E-03     177.728E-03    -196.795E-03     463.469E-03    -231.343E-03    -232.207E-03    -231.460E-03     463.467E-03    -232.089E-03     2.45684E-03    -135.510E+06    -136.934E+06    -272.712E+06    -136.107E+06    -272.690E+06    -136.361E+06     1.47165E+06         57.1533
              61    -825.041E-09     26.4708E-03     244.100E-03     60.5006E-03    -289.669E-03    -268.506E-03     39.3376E-03     244.100E-03    -149.411E-03     463.335E-03    -231.230E-03    -232.229E-03    -231.229E-03     463.334E-03    -232.229E-03     1.72191E-03    -134.230E+06    -137.542E+06    -265.554E+06    -136.695E+06    -265.551E+06    -135.080E+06    -50.3278E+03         57.1537
              62     1.06774E-06     24.8720E-03     302.663E-03     42.7960E-03    -333.150E-03    -328.889E-03     38.5351E-03     302.663E-03     16.0794E-03     461.566E-03    -230.580E-03    -231.379E-03    -230.579E-03     461.566E-03    -231.379E-03     629.733E-06    -134.825E+06    -141.739E+06    -270.092E+06    -137.306E+06    -270.074E+06    -139.277E+06    -1.41704E+06         57.1005
              63    -1.38985E-06     23.2902E-03     322.649E-03     76.4638E-03    -388.275E-03    -380.250E-03     68.4394E-03     322.649E-03     119.486E-03     459.091E-03    -228.917E-03    -230.752E-03    -228.916E-03     459.090E-03    -230.752E-03     1.01561E-03    -133.042E+06    -142.010E+06    -273.723E+06    -137.589E+06    -273.693E+06    -137.493E+06    -200.262E+03         56.9042
              64    -491.957E-09     21.7030E-03     343.504E-03     55.3180E-03    -385.791E-03    -363.291E-03     32.8184E-03     343.504E-03     183.162E-03     456.722E-03    -227.591E-03    -229.270E-03    -227.978E-03     456.721E-03    -228.881E-03    -275.456E-06    -135.998E+06    -142.108E+06    -270.578E+06    -140.528E+06    -270.565E+06    -137.591E+06     871.671E+03         56.5028
              65     707.745E-09     20.1272E-03     320.405E-03     37.9480E-03    -343.748E-03    -322.134E-03     16.3340E-03     320.405E-03     168.371E-03     451.201E-03    -224.929E-03    -226.331E-03    -226.329E-03     451.200E-03    -224.929E-03    -1.36208E-03    -135.473E+06    -138.120E+06    -266.974E+06    -136.530E+06    -266.971E+06    -137.066E+06     426.445E+03         55.8821
              66     1.07010E-06     18.5631E-03     254.575E-03     51.1297E-03    -293.907E-03    -289.364E-03     46.5876E-03     254.575E-03     56.1187E-03     441.385E-03    -220.065E-03    -221.464E-03    -221.461E-03     441.382E-03    -220.065E-03    -1.96795E-03    -133.960E+06    -136.129E+06    -264.801E+06    -135.018E+06    -264.797E+06    -135.075E+06     314.464E+03         55.0007
              67    -473.391E-09     17.0155E-03     199.217E-03     51.5413E-03    -238.730E-03    -238.687E-03     51.4981E-03     199.217E-03    -5.39465E-03     426.942E-03    -213.219E-03    -213.885E-03    -213.879E-03     426.936E-03    -213.219E-03    -3.87347E-03    -136.857E+06    -138.109E+06    -262.567E+06    -136.994E+06    -262.567E+06    -137.971E+06    -84.7090E+03         53.8752
              68     895.302E-09     15.4993E-03     164.099E-03     44.8798E-03    -201.297E-03    -199.258E-03     42.8408E-03     164.099E-03    -35.1368E-03     409.010E-03    -204.165E-03    -204.838E-03    -204.432E-03     408.997E-03    -204.559E-03    -5.38559E-03    -135.312E+06    -138.679E+06    -262.845E+06    -135.450E+06    -262.844E+06    -138.541E+06    -128.968E+03         52.6723
              69    -1.54070E-06     14.0102E-03     127.860E-03     60.7066E-03    -178.018E-03    -175.106E-03     57.7950E-03     127.860E-03    -51.3947E-03     388.250E-03    -193.926E-03    -194.553E-03    -193.906E-03     388.230E-03    -194.553E-03    -6.86936E-03    -137.957E+06    -144.098E+06    -259.496E+06    -141.093E+06    -259.272E+06    -141.186E+06     3.19934E+06         51.5452
              70     1.39076E-06     12.5519E-03     110.143E-03     44.6540E-03    -147.186E-03    -143.328E-03     40.7960E-03     110.143E-03    -49.3149E-03     368.330E-03    -183.856E-03    -184.697E-03    -183.835E-03     368.309E-03    -184.697E-03    -6.81240E-03    -135.916E+06    -143.321E+06    -248.347E+06    -139.161E+06    -248.015E+06    -140.409E+06     885.663E+03         50.6713
              71    -2.43754E-06     11.1214E-03     110.703E-03     11.6407E-03    -116.763E-03    -111.161E-03     6.03809E-03     110.703E-03    -4.38673E-03     352.611E-03    -175.519E-03    -176.986E-03    -176.353E-03     352.585E-03    -176.127E-03    -7.29998E-03    -135.410E+06    -147.918E+06    -241.141E+06    -143.744E+06    -240.823E+06    -139.904E+06     374.551E+03         50.2815
              72     4.09542E-06     9.70785E-03     103.573E-03     35.8518E-03    -126.303E-03    -114.437E-03     23.9859E-03     103.573E-03     83.4937E-03     346.424E-03    -171.202E-03    -175.399E-03    -175.383E-03     346.407E-03    -171.202E-03    -5.13148E-03    -130.578E+06    -143.744E+06    -242.613E+06    -139.002E+06    -242.203E+06    -135.730E+06    -698.130E+03         50.5070
              73     1.49056E-06     8.29578E-03     108.873E-03     71.6287E-03    -165.142E-03    -141.068E-03     47.5553E-03     108.873E-03     142.761E-03     362.446E-03    -179.217E-03    -183.398E-03    -183.382E-03     362.430E-03    -179.217E-03     2.98587E-03    -140.133E+06    -153.203E+06    -252.407E+06    -148.341E+06    -252.117E+06    -145.285E+06    -1.68788E+06         51.5441
              74     313.300E-09     6.83212E-03     121.750E-03     55.1977E-03    -150.582E-03    -130.978E-03     35.5938E-03     121.750E-03     119.584E-03     405.247E-03    -201.010E-03    -204.264E-03    -201.809E-03     405.203E-03    -203.421E-03     10.2641E-03    -139.081E+06    -157.044E+06    -259.325E+06    -147.231E+06    -259.092E+06    -149.126E+06    -1.31418E+06         53.8224
              75    -4.27134E-06     5.30336E-03     115.778E-03     36.5855E-03    -122.045E-03    -94.7634E-03     9.30432E-03     115.778E-03     110.963E-03     468.909E-03    -232.067E-03    -237.541E-03    -231.988E-03     468.830E-03    -237.541E-03     14.8076E-03    -120.817E+06    -131.929E+06    -262.985E+06    -122.159E+06    -262.710E+06    -130.862E+06    -186.946E+03         57.4858
              76    -777.334E-09     3.63738E-03     98.8666E-03     15.0720E-03    -85.3904E-03    -45.2498E-03     49.0387E-03     24.7594E-03     93.1092E-03     537.222E-03    -266.797E-03    -271.189E-03    -266.736E-03     537.161E-03    -271.189E-03     13.0925E-03    -112.095E+06    -115.367E+06    -270.291E+06    -115.715E+06    -269.942E+06    -112.095E+06    -1.28398E+06         61.8709
              77    -999.628E-09     1.86458E-03     105.327E-03    -17.8640E-03    -67.3559E-03     48.1080E-03     39.3549E-03    -67.3559E-03     31.9514E-03     593.547E-03    -295.810E-03    -297.839E-03    -296.480E-03     593.517E-03    -297.139E-03     10.3962E-03    -80.4518E+06    -83.6502E+06    -254.743E+06    -84.0969E+06    -253.302E+06    -81.4454E+06     5.89479E+06         65.9886
              78     724.508E-06    -230.968E-09     63.0440E-03    -3.78359E-03    -45.4383E-03     55.0299E-03    -4.02403E-03    -37.1838E-03     4.79243E-03     613.197E-03    -305.053E-03    -308.057E-03    -305.690E-03     613.133E-03    -307.356E-03     14.9584E-03    -69.3269E+06    -72.4237E+06    -234.405E+06    -72.6540E+06    -233.181E+06    -70.3205E+06     10.2524E+06         67.6706
              79     1.46453E-03    -230.968E-09     21.7838E-03     4.69030E-03    -16.5047E-03    -13.8007E-03     19.0798E-03     4.69030E-03    -12.1384E-03     600.642E-03    -296.086E-03    -304.697E-03    -295.981E-03     600.537E-03    -304.697E-03     19.3270E-03    -70.3517E+06    -75.0244E+06    -222.292E+06    -75.0246E+06    -222.291E+06    -70.3517E+06     167.065E+03         67.1281
              80     2.20835E-03    -230.968E-09     39.1877E-03    -3.41369E-03    -28.9417E-03    -25.8498E-03     36.0958E-03    -3.41369E-03    -24.3828E-03     582.479E-03    -282.247E-03    -299.743E-03    -282.104E-03     582.336E-03    -299.743E-03     22.1384E-03    -63.5261E+06    -72.0327E+06    -201.013E+06    -72.2280E+06    -200.818E+06    -63.5261E+06     3.48651E+06         66.2709
              81     2.96791E-03    -230.968E-09     45.2365E-03    -8.12356E-03    -28.0497E-03    -17.4126E-03     34.5995E-03    -8.12356E-03    -49.1063E-03     560.139E-03    -266.057E-03    -293.512E-03    -265.875E-03     559.958E-03    -293.512E-03     24.4360E-03    -57.6483E+06    -71.8370E+06    -176.340E+06    -72.0789E+06    -176.098E+06    -57.6483E+06     1.90472E+06         65.1232
              82     3.73769E-03    -230.968E-09     43.2986E-03    -9.52177E-03    -22.7406E-03    -13.3371E-03     33.8951E-03    -9.52177E-03    -13.4529E-03     535.050E-03    -250.135E-03    -286.417E-03    -249.925E-03     534.840E-03    -286.417E-03     25.6612E-03    -49.4765E+06    -68.6645E+06    -146.319E+06    -68.8546E+06    -146.128E+06    -49.4765E+06     656.509E+03         63.8582
              83     4.52255E-03    -230.968E-09     49.9148E-03    -10.9136E-03    -24.9461E-03    -22.9991E-03     47.9678E-03    -10.9136E-03     20.3825E-03     512.225E-03    -234.511E-03    -278.507E-03    -234.270E-03     511.984E-03    -278.507E-03     26.7791E-03    -41.1698E+06    -64.5177E+06    -111.392E+06    -64.9974E+06    -110.913E+06    -41.1698E+06     -116.13E+03         62.7344
              84     5.31897E-03    -230.968E-09     51.5473E-03    -12.4359E-03    -22.8074E-03    -17.6032E-03     46.3431E-03    -12.4359E-03     28.9500E-03     491.690E-03    -219.442E-03    -270.705E-03    -219.154E-03     491.402E-03    -270.705E-03     28.5771E-03    -31.9853E+06    -50.1650E+06    -74.2048E+06    -59.2512E+06    -65.1186E+06    -31.9853E+06    -2.79977E+06         61.9594
              85     6.12688E-03    -230.968E-09     35.9658E-03    -6.36582E-03    -14.3401E-03     458.437E-06     26.9222E-03    -12.1208E-03     34.9833E-03     471.090E-03    -206.563E-03    -262.913E-03    -206.207E-03     470.734E-03    -262.913E-03     30.9694E-03    -9.09762E+06    -26.2395E+06    -52.3355E+06    -51.0649E+06    -16.1364E+06    -20.4714E+06    -6.38159E+06         61.6284
              86     6.94255E-03    -230.968E-09     26.1254E-03    -1.95877E-03    -10.3620E-03     6.71493E-03     17.4517E-03    -10.3620E-03     25.9422E-03     453.157E-03    -197.047E-03    -256.161E-03    -196.650E-03     452.759E-03    -256.161E-03     32.1320E-03     14.7442E+06    -7.52611E+06    -41.3716E+06    -39.7331E+06     13.1057E+06    -7.52611E+06    -9.12524E+06         61.7333
              87     7.76856E-03    -230.968E-09     24.9505E-03    -1.33011E-03    -8.69158E-03     4.28749E-03     19.3329E-03    -8.69158E-03     8.04158E-03     439.118E-03    -189.952E-03    -250.059E-03    -189.561E-03     438.727E-03    -250.059E-03     31.3639E-03     25.7562E+06     5.71784E+06    -28.9128E+06    -28.4134E+06     25.2568E+06     5.71784E+06    -4.91489E+06         62.2138
              88     8.59705E-03    -230.968E-09     23.4203E-03     1.08224E-03    -7.53067E-03     2.05765E-03     22.4449E-03    -7.53067E-03    -6.08960E-03     422.655E-03    -178.637E-03    -243.415E-03    -178.352E-03     422.369E-03    -243.415E-03     25.8638E-03     34.8609E+06     22.5036E+06    -24.4144E+06    -23.7690E+06     34.2156E+06     22.5036E+06     2.54855E+06         63.1000
              89     9.44260E-03    -230.968E-09     28.7724E-03    -2.99979E-03    -8.01009E-03    -3.42059E-03     28.0825E-03    -6.89942E-03    -7.45382E-03     414.571E-03    -175.260E-03    -237.790E-03    -174.720E-03     414.030E-03    -237.790E-03     33.5270E-03     40.5397E+06     34.4295E+06    -24.8792E+06    -24.2956E+06     37.0614E+06     37.3242E+06     5.17756E+06         64.5375
              90     10.2806E-03    -230.968E-09     33.8193E-03    -6.80874E-03    -10.1736E-03    -8.15165E-03     31.7974E-03    -6.80874E-03    -18.2099E-03     426.385E-03    -192.067E-03    -234.563E-03    -191.392E-03     425.710E-03    -234.563E-03     40.1796E-03     54.9768E+06     38.8039E+06    -17.7207E+06    -16.9758E+06     38.0591E+06     54.9768E+06    -3.22578E+06         66.6495
              91     11.0953E-03    -230.968E-09     34.7676E-03    -6.98502E-03    -12.3872E-03    -9.98196E-03     32.3624E-03    -6.98502E-03    -20.6882E-03     437.149E-03    -206.535E-03    -232.749E-03    -206.209E-03     436.823E-03    -232.749E-03     28.3407E-03     81.3677E+06     46.5676E+06    -6.42731E+06    -5.68031E+06     45.8206E+06     81.3677E+06    -5.22939E+06         69.5334
              92     11.9100E-03    -230.968E-09     37.7814E-03    -7.30019E-03    -14.3360E-03    -13.2626E-03     36.7080E-03    -7.30019E-03    -9.80485E-03     445.521E-03    -216.149E-03    -231.552E-03    -216.052E-03     445.424E-03    -231.552E-03     10.9539E-03     97.3469E+06     51.9564E+06    -5.48640E+06    -3.01994E+06     49.4900E+06     97.3469E+06    -9.24363E+06         73.1511
              93     12.7429E-03    -230.968E-09     38.6448E-03    -7.65879E-03    -13.4029E-03    -12.5228E-03     37.7647E-03    -7.65879E-03    -8.88161E-03     494.078E-03    -228.052E-03    -268.130E-03    -264.259E-03     494.077E-03    -231.923E-03     954.777E-06     104.190E+06     38.7125E+06     2.66362E+06     5.20743E+06     36.1686E+06     104.190E+06    -9.04381E+06         77.0241
              94     13.4769E-03    -230.968E-09     34.9418E-03    -6.94037E-03    -9.71595E-03    -7.90924E-03     34.0545E-03    -7.85975E-03    -8.32508E-03     620.378E-03    -236.564E-03    -385.130E-03    -379.507E-03     614.755E-03    -236.564E-03     115.408E-03     109.268E+06     65.4999E+06    -16.0758E+06     37.1762E+06     14.4069E+06     107.109E+06     35.6862E+06         80.1417
              95     14.2073E-03     2.21007E-03     38.1551E-03    -7.27394E-03    -14.6690E-03    -12.8566E-03     37.2621E-03    -8.19332E-03     11.3604E-03     609.793E-03    -238.409E-03    -371.126E-03    -355.771E-03     594.438E-03    -238.409E-03     236.742E-03     69.5592E+06     60.0288E+06    -79.6494E+06    -25.0384E+06     7.57673E+06     67.4002E+06     46.0423E+06         81.2058
              96     14.2385E-03     3.78073E-03     37.8418E-03    -6.89887E-03    -14.8735E-03    -10.5998E-03     35.0671E-03    -8.39787E-03     21.8485E-03     508.715E-03    -234.498E-03    -273.683E-03    -258.088E-03     493.120E-03    -234.498E-03     217.078E-03     61.1094E+06     39.7451E+06    -49.2215E+06    -23.0335E+06     13.5572E+06     61.1094E+06     5.76362E+06         81.2131
              97     14.2643E-03     5.38098E-03     31.5301E-03    -7.22629E-03    -11.1708E-03    -7.77306E-03     29.6314E-03    -8.72529E-03     10.3418E-03     502.698E-03    -232.764E-03    -269.844E-03    -261.098E-03     493.952E-03    -232.764E-03     160.971E-03     86.2739E+06     56.1554E+06    -12.6166E+06     12.0989E+06     31.4399E+06     86.2739E+06    -3.81810E+06         81.4925
              98     14.2712E-03     7.01179E-03     33.8278E-03    -9.20895E-03    -12.1287E-03    -11.4496E-03     33.1487E-03    -9.20895E-03     6.88983E-03     501.130E-03    -231.923E-03    -268.208E-03    -263.423E-03     496.345E-03    -231.923E-03     120.329E-03     83.0899E+06     40.1975E+06    -7.46929E+06    -6.18961E+06     38.9178E+06     83.0899E+06     1.91992E+06         81.6092
              99     14.2727E-03     8.64369E-03     34.0009E-03    -8.80333E-03    -9.81304E-03    -8.55801E-03     33.2813E-03    -9.33878E-03     5.81978E-03     500.122E-03    -231.189E-03    -267.113E-03    -263.259E-03     496.267E-03    -231.189E-03     108.490E-03     82.3666E+06     41.6180E+06    -3.21921E+06    -1.93666E+06     40.3354E+06     82.3666E+06     2.27447E+06         81.4868
             100     14.2721E-03     10.2884E-03     34.1966E-03    -8.98816E-03    -12.6903E-03    -12.1048E-03     34.1465E-03    -9.52361E-03    -1.80165E-03     499.133E-03    -231.103E-03    -266.811E-03    -263.009E-03     495.332E-03    -231.103E-03     107.645E-03     84.6162E+06     46.6011E+06    -3.46083E+06    -3.15073E+06     46.2910E+06     84.6162E+06     2.01580E+06         81.1929
             101     14.2685E-03     11.9301E-03     38.2567E-03    -9.08457E-03    -13.7327E-03    -13.6897E-03     38.2137E-03    -9.08457E-03    -1.90066E-03     495.486E-03    -231.114E-03    -263.536E-03    -259.416E-03     491.366E-03    -231.114E-03     111.368E-03     85.7067E+06     46.3569E+06    -2.40267E+06    -2.05904E+06     46.0133E+06     85.7067E+06     476.978E+03         80.8165
             102     14.2707E-03     13.5603E-03     37.0453E-03    -8.16658E-03    -10.6182E-03    -7.93622E-03     35.3335E-03    -9.13675E-03    -13.5022E-03     492.000E-03    -231.299E-03    -259.163E-03    -254.516E-03     487.353E-03    -231.299E-03     117.791E-03     86.4958E+06     50.1623E+06    -5.59913E+06    -5.27895E+06     49.8422E+06     86.4958E+06     943.697E+03         80.4199
             103     14.2706E-03     15.1908E-03     38.8141E-03    -9.99305E-03    -14.0525E-03    -11.3557E-03     37.0874E-03    -10.9632E-03    -8.75898E-03     490.950E-03    -231.312E-03    -257.237E-03    -252.327E-03     486.039E-03    -231.312E-03     120.811E-03     87.1592E+06     52.4437E+06    -1.24189E+06    -913.945E+03     52.1157E+06     87.1592E+06     857.668E+03         80.0428
             104     14.2718E-03     16.8158E-03     44.1963E-03    -12.3409E-03    -18.9005E-03    -16.5268E-03     41.8225E-03    -12.3409E-03    -14.0348E-03     490.032E-03    -231.455E-03    -256.198E-03    -251.224E-03     485.058E-03    -231.455E-03     121.437E-03     87.2303E+06     53.6264E+06    -3.40587E+06    -3.28222E+06     53.5028E+06     87.2303E+06    -31.3764E+03         79.6955
             105     14.2697E-03     18.4395E-03     40.9171E-03    -8.59943E-03    -15.4914E-03    -9.74614E-03     38.5935E-03    -12.0211E-03    -15.9086E-03     488.519E-03    -231.800E-03    -255.113E-03    -250.129E-03     483.534E-03    -231.800E-03     121.348E-03     87.3811E+06     52.6218E+06    -1.97735E+06    -1.83311E+06     52.4776E+06     87.3811E+06    -249.525E+03         79.3769
             106     14.2705E-03     20.0561E-03     36.3050E-03    -5.43509E-03    -11.9503E-03    -5.40772E-03     36.2776E-03    -11.9503E-03    -513.104E-06     486.495E-03    -232.145E-03    -253.462E-03    -248.470E-03     481.503E-03    -232.145E-03     121.146E-03     85.1720E+06     50.8489E+06    -6.38875E+06    -6.29031E+06     50.7505E+06     85.1720E+06    -632.511E+03         79.1095
             107     14.2669E-03     21.6722E-03     42.2655E-03    -9.95571E-03    -17.4517E-03    -14.3246E-03     42.2320E-03    -13.0493E-03     91.7473E-06     482.361E-03    -232.464E-03    -249.450E-03    -244.341E-03     477.253E-03    -232.464E-03     121.814E-03     87.2466E+06     52.0338E+06    -2.00442E+06    -1.97068E+06     52.0001E+06     87.2466E+06     912.432E+03         78.9310
             108     14.2713E-03     23.2716E-03     38.8392E-03    -6.91560E-03    -18.2563E-03    -10.4208E-03     37.9420E-03    -13.8539E-03    -5.59371E-03     476.651E-03    -232.723E-03    -243.780E-03    -238.508E-03     471.379E-03    -232.723E-03     122.804E-03      88.858E+06     54.7222E+06    -1.11952E+06    -1.10453E+06     54.7072E+06      88.858E+06     645.502E+03         78.8677
             109     14.2710E-03     24.8669E-03     34.9860E-03    -7.00830E-03    -14.3078E-03    -5.87421E-03     33.4907E-03    -13.9466E-03     1.15505E-03     473.416E-03    -232.837E-03    -240.809E-03    -235.786E-03     468.393E-03    -232.837E-03     119.354E-03     88.8880E+06     53.4451E+06    -1.61087E+06    -1.58314E+06     53.4173E+06     88.8880E+06    -27.1649E+03         78.9096
             110     14.2709E-03     26.4661E-03     38.6638E-03    -11.4260E-03    -14.0887E-03    -11.1238E-03     38.0004E-03    -13.7276E-03     5.97055E-03     472.199E-03    -232.888E-03    -239.483E-03    -234.718E-03     467.434E-03    -232.888E-03     116.077E-03     88.5634E+06     53.1118E+06    -1.29084E+06    -1.24587E+06     53.0669E+06     88.5634E+06     241.735E+03         79.0195
             111     14.2704E-03     28.0598E-03     36.0320E-03    -9.32347E-03    -13.1165E-03    -8.88361E-03     35.5921E-03    -13.1165E-03     3.70328E-03     470.860E-03    -232.941E-03    -238.070E-03    -233.372E-03     466.162E-03    -232.941E-03     115.049E-03     87.9790E+06     52.4081E+06    -2.68449E+06    -2.63229E+06     52.3559E+06     87.9790E+06     75.3977E+03         79.1636
             112     14.2712E-03     29.6537E-03     37.9216E-03    -10.8293E-03    -12.7699E-03    -10.5912E-03     37.2344E-03    -12.3209E-03     259.868E-06     470.124E-03    -233.178E-03    -237.830E-03    -233.182E-03     465.476E-03    -233.178E-03     114.349E-03     88.1752E+06     51.6760E+06    -3.43648E+06    -3.38309E+06     51.6226E+06     88.1752E+06     91.7102E+03         79.3197
             113     14.2714E-03     31.2458E-03     35.5216E-03    -9.13253E-03    -12.7373E-03    -9.25548E-03     35.1955E-03    -12.2882E-03    -7.02577E-03     469.724E-03    -233.350E-03    -237.643E-03    -233.080E-03     465.162E-03    -233.350E-03     113.254E-03     88.8916E+06     52.6606E+06    -1.38539E+06    -1.34557E+06     52.6208E+06     88.8916E+06     442.543E+03         79.4778
             114     14.2716E-03     32.8413E-03     33.7523E-03    -8.90758E-03    -13.4484E-03    -10.1635E-03     33.6231E-03    -12.0633E-03     1.80806E-03     469.010E-03    -233.320E-03    -237.134E-03    -232.671E-03     464.547E-03    -233.320E-03     111.922E-03     88.3883E+06     53.2058E+06    -2.72762E+06    -2.70599E+06     53.1842E+06     88.3883E+06     177.520E+03         79.6370
             115     14.2718E-03     34.4323E-03     37.6691E-03    -10.7842E-03    -12.9641E-03    -11.2192E-03     35.9242E-03    -10.7842E-03    -9.18478E-03     468.792E-03    -233.288E-03    -237.370E-03    -232.926E-03     464.348E-03    -233.288E-03     111.685E-03     88.8442E+06     53.3503E+06    -1.73444E+06    -1.71846E+06     53.3343E+06     88.8442E+06     465.933E+03         79.7995
             116     14.2709E-03     36.0296E-03     37.8358E-03    -9.67910E-03    -11.2635E-03    -9.60669E-03     36.1790E-03    -9.67910E-03    -13.5661E-03     468.965E-03    -233.289E-03    -237.933E-03    -233.439E-03     464.471E-03    -233.289E-03     112.365E-03     88.4384E+06     53.6102E+06    -2.87459E+06    -2.87339E+06     53.6090E+06     88.4384E+06    -52.3494E+03         79.9667
             117     14.2707E-03     37.6250E-03     36.6945E-03    -8.62242E-03    -11.5007E-03    -11.3453E-03     36.5391E-03    -8.62242E-03    -4.84470E-03     468.869E-03    -233.318E-03    -238.121E-03    -233.693E-03     464.441E-03    -233.318E-03     111.548E-03     88.5398E+06     53.7184E+06    -2.09964E+06    -2.09674E+06     53.7155E+06     88.5398E+06    -166.516E+03         80.1392
             118     14.2705E-03     39.2196E-03     34.1045E-03    -7.59951E-03    -11.9357E-03    -11.0301E-03     33.1988E-03    -7.59951E-03    -11.7194E-03     468.628E-03    -233.350E-03    -237.499E-03    -233.072E-03     464.202E-03    -233.350E-03     111.460E-03     87.8756E+06     52.3845E+06    -2.90003E+06    -2.89677E+06     52.3812E+06     87.8756E+06    -410.702E+03         80.3155
             119     14.2711E-03     40.8133E-03     28.3591E-03    -4.68509E-03    -9.25004E-03    -6.11026E-03     27.5367E-03    -7.00245E-03    -6.26905E-03     468.317E-03    -233.366E-03    -236.871E-03    -232.361E-03     463.807E-03    -233.366E-03     112.432E-03     88.0294E+06     50.9070E+06    -2.20434E+06    -2.20329E+06     50.9059E+06     88.0294E+06    -231.079E+03         80.4883
             120     14.2705E-03     42.4075E-03     26.6923E-03    -4.76091E-03    -7.11254E-03    -4.67253E-03     26.6039E-03    -7.11254E-03     289.456E-06     468.549E-03    -233.348E-03    -237.198E-03    -232.664E-03     464.014E-03    -233.348E-03     112.776E-03     88.1089E+06     50.2543E+06    -2.56366E+06    -2.56149E+06     50.2522E+06     88.1089E+06     131.108E+03         80.6478
             121     14.2712E-03     44.0034E-03     37.1510E-03    -6.93946E-03    -17.2491E-03    -16.2439E-03     36.1801E-03    -6.97373E-03     10.0661E-03     469.021E-03    -233.327E-03    -237.514E-03    -233.020E-03     464.526E-03    -233.327E-03     112.341E-03     88.4127E+06     50.4230E+06    -2.08953E+06    -2.08607E+06     50.4195E+06     88.4127E+06     16.3415E+03         80.7861
             122     14.2707E-03     45.5971E-03     36.1211E-03    -3.74925E-03    -15.8025E-03    -11.9115E-03     34.0080E-03    -5.52717E-03     3.84103E-03     469.121E-03    -233.339E-03    -237.443E-03    -233.060E-03     464.738E-03    -233.339E-03     110.948E-03     88.6317E+06     51.0564E+06    -2.53773E+06    -2.53613E+06     51.0548E+06     88.6317E+06    -180.167E+03         80.8966
             123     14.2702E-03     47.1924E-03     25.9014E-03    -3.43225E-03    -6.91480E-03    -3.94973E-03     24.7142E-03    -5.21018E-03    -8.70872E-03     468.832E-03    -233.349E-03    -237.375E-03    -232.946E-03     464.403E-03    -233.349E-03     111.499E-03     87.7926E+06     51.0915E+06    -2.50722E+06    -2.50427E+06     51.0885E+06     87.7926E+06     302.837E+03         80.9787
             124     14.2706E-03     48.7863E-03     33.0177E-03    -6.29315E-03    -14.3234E-03    -14.1884E-03     32.8826E-03    -6.29315E-03    -4.80818E-03     468.693E-03    -233.336E-03    -237.551E-03    -233.036E-03     464.178E-03    -233.336E-03     112.584E-03     86.8159E+06     50.8842E+06    -3.03037E+06    -3.01815E+06     50.8720E+06     86.8159E+06    -226.565E+03         81.0361
             125     14.2700E-03     50.3812E-03     37.4431E-03    -6.82837E-03    -15.1704E-03    -13.1657E-03     35.4384E-03    -6.82837E-03    -16.2636E-03     468.796E-03    -233.327E-03    -237.591E-03    -233.154E-03     464.359E-03    -233.327E-03     111.617E-03     87.2479E+06     50.2334E+06    -1.68768E+06    -1.67001E+06     50.2158E+06     87.2479E+06    -52.5009E+03         81.0770
             126     14.2702E-03     51.9747E-03     30.0715E-03    -6.19024E-03    -9.57156E-03    -6.30800E-03     28.1729E-03    -7.55520E-03    -13.4110E-03     468.853E-03    -233.331E-03    -237.641E-03    -233.193E-03     464.404E-03    -233.331E-03     111.763E-03     86.4737E+06     49.5895E+06    -3.37884E+06    -3.35845E+06     49.5691E+06     86.4737E+06    -132.929E+03         81.1075
             127     14.2707E-03     53.5680E-03     28.5733E-03    -7.02847E-03    -8.98099E-03    -7.32128E-03     28.2785E-03    -8.39343E-03     3.80652E-03     468.868E-03    -233.340E-03    -237.664E-03    -233.185E-03     464.390E-03    -233.340E-03     112.142E-03     87.3999E+06     49.9437E+06    -1.64787E+06    -1.62223E+06     49.9181E+06     87.3999E+06    -24.8191E+03         81.1293
             128     14.2704E-03     55.1622E-03     32.7863E-03    -8.89876E-03    -9.99626E-03    -9.34841E-03     32.1385E-03    -8.89876E-03    -933.436E-06     468.828E-03    -233.358E-03    -237.640E-03    -233.177E-03     464.364E-03    -233.358E-03     111.956E-03     87.5052E+06     49.3795E+06    -3.60215E+06    -3.57220E+06     49.3496E+06     87.5052E+06    -138.041E+03         81.1488
             129     14.2702E-03     56.7568E-03     37.8472E-03    -9.62054E-03    -12.5143E-03    -9.83210E-03     35.1649E-03    -9.62054E-03     9.73215E-03     468.922E-03    -233.373E-03    -237.919E-03    -233.428E-03     464.431E-03    -233.373E-03     112.322E-03     87.8373E+06     48.7141E+06    -2.02814E+06    -1.98897E+06     48.6750E+06     87.8373E+06    -8.69163E+03         81.1707
             130     14.2705E-03     58.3515E-03     34.6426E-03    -10.1219E-03    -12.6576E-03    -9.44404E-03     31.4291E-03    -10.1219E-03     23.5538E-03     468.744E-03    -233.381E-03    -237.795E-03    -233.348E-03     464.297E-03    -233.381E-03     111.748E-03     87.4684E+06     48.0580E+06    -2.81205E+06    -2.75176E+06     47.9977E+06     87.4684E+06    -369.555E+03         81.1941
             131     14.2706E-03     59.9446E-03     24.8545E-03    -6.10101E-03    -10.6097E-03    -5.14203E-03     23.7436E-03    -10.4579E-03     11.2713E-03     468.482E-03    -233.390E-03    -237.686E-03    -233.250E-03     464.046E-03    -233.390E-03     111.580E-03     88.3453E+06     49.6193E+06    -3.39228E+06    -3.25054E+06     49.4776E+06     88.3453E+06     486.065E+03         81.2171
             132     14.2709E-03     61.5398E-03     29.8944E-03    -6.15408E-03    -13.0269E-03    -7.50790E-03     28.7323E-03    -10.5109E-03     13.0407E-03     468.744E-03    -233.390E-03    -237.941E-03    -233.473E-03     464.277E-03    -233.390E-03     112.020E-03      89.193E+06     50.4883E+06    -1.23481E+06    -1.06758E+06     50.3211E+06      89.193E+06     202.551E+03         81.2399
             133     14.2699E-03     63.1337E-03     39.5877E-03    -10.0902E-03    -13.4411E-03    -12.4658E-03     38.6124E-03    -10.0902E-03     11.5374E-03     468.796E-03    -233.386E-03    -237.600E-03    -233.156E-03     464.352E-03    -233.386E-03     111.709E-03     87.2704E+06     50.0536E+06    -3.40073E+06    -3.24071E+06     49.8936E+06     87.2704E+06     203.746E+03         81.2627
             134     14.2702E-03     64.7309E-03     39.5818E-03    -10.3473E-03    -12.3791E-03    -10.8336E-03     38.0362E-03    -10.3473E-03    -10.4937E-03     468.691E-03    -233.394E-03    -237.323E-03    -232.866E-03     464.234E-03    -233.394E-03     111.833E-03     87.9290E+06     50.3224E+06    -2.09007E+06    -1.94303E+06     50.1754E+06     87.9290E+06     371.956E+03         81.2863
             135     14.2702E-03     66.3268E-03     34.8683E-03    -9.90491E-03    -12.5244E-03    -9.58172E-03     33.3481E-03    -11.3274E-03    -12.1736E-03     468.983E-03    -233.408E-03    -237.527E-03    -233.038E-03     464.494E-03    -233.408E-03     112.274E-03     89.1263E+06     51.0745E+06    -2.71203E+06    -2.59787E+06     50.9604E+06     89.1263E+06     118.447E+03         81.3088
             136     14.2706E-03     67.9203E-03     28.8576E-03    -6.38042E-03    -11.8497E-03    -6.32984E-03     28.8070E-03    -11.8497E-03    -1.78441E-03     468.798E-03    -233.415E-03    -237.327E-03    -232.862E-03     464.333E-03    -233.415E-03     111.943E-03     88.6680E+06     52.2362E+06    -2.92889E+06    -2.83122E+06     52.1386E+06     88.6680E+06     307.784E+03         81.3232
             137     14.2695E-03     69.5124E-03     34.9035E-03    -7.80244E-03    -15.5467E-03    -10.6113E-03     34.0149E-03    -11.8493E-03    -11.8639E-03     468.466E-03    -233.413E-03    -236.827E-03    -232.345E-03     463.983E-03    -233.413E-03     112.092E-03     88.4161E+06     53.2979E+06    -1.81371E+06    -1.74107E+06     53.2252E+06     88.4161E+06     24.1614E+03         81.3348
             138     14.2727E-03     71.1043E-03     40.5179E-03    -9.58396E-03    -15.1130E-03    -11.3768E-03     38.6133E-03    -11.4155E-03    -594.581E-06     467.650E-03    -233.374E-03    -235.558E-03    -230.880E-03     462.972E-03    -233.374E-03     114.308E-03     89.5246E+06     55.7269E+06    -1.43596E+06    -1.39578E+06     55.6867E+06     89.5246E+06     1.18625E+06         81.3589
             139     14.2772E-03     72.6955E-03     33.7955E-03    -7.66864E-03    -10.7844E-03    -6.55738E-03     32.6842E-03    -10.7844E-03     7.68682E-03     470.280E-03    -233.194E-03    -238.286E-03    -234.007E-03     466.000E-03    -233.194E-03     109.531E-03     86.5382E+06     51.6283E+06    -5.81842E+06    -5.81718E+06     51.6270E+06     86.5382E+06     98.2135E+03         81.3855
             140     14.2583E-03     74.2997E-03     32.1033E-03    -9.58429E-03    -12.0445E-03    -10.5979E-03     31.9408E-03    -10.8685E-03    -5.18293E-03     472.970E-03    -233.162E-03    -241.364E-03    -237.197E-03     468.802E-03    -233.162E-03     108.648E-03     88.6942E+06     50.2009E+06    -2.55893E+06    -2.55018E+06     50.1921E+06     88.6942E+06    -552.519E+03         81.3990
             141     14.2710E-03     75.8928E-03     30.5262E-03    -7.39891E-03    -12.0316E-03    -8.22403E-03     30.1753E-03    -10.8556E-03     415.796E-06     468.161E-03    -232.629E-03    -237.019E-03    -231.467E-03     463.311E-03    -233.331E-03     116.447E-03     89.6621E+06     53.7875E+06    -3.24370E+06    -3.22081E+06     53.7646E+06     89.6621E+06     189.301E+03         81.4099
             142     14.2725E-03     77.4782E-03     28.6257E-03    -5.50778E-03    -10.1601E-03    -4.82920E-03     27.9471E-03    -10.1601E-03     9.47125E-03     467.203E-03    -232.648E-03    -235.474E-03    -230.052E-03     462.483E-03    -233.350E-03     114.627E-03     87.8775E+06     52.6606E+06    -1.49172E+06    -1.40863E+06     52.5775E+06     87.8775E+06    -606.394E+03         81.4197
             143     14.2695E-03     79.0735E-03     28.9690E-03    -7.90114E-03    -9.80532E-03    -4.40289E-03     25.4708E-03    -9.80532E-03     19.2611E-03     469.713E-03    -233.391E-03    -238.019E-03    -233.602E-03     465.296E-03    -233.391E-03     111.463E-03     88.8667E+06     52.6214E+06    -1.55930E+06    -1.47764E+06     52.5398E+06     88.8667E+06    -639.679E+03         81.4296
             144     14.2707E-03     80.6653E-03     33.5469E-03    -8.72724E-03    -15.7970E-03    -6.43503E-03     24.8935E-03    -9.43580E-03     37.1907E-03     469.156E-03    -233.437E-03    -238.118E-03    -233.644E-03     464.682E-03    -233.437E-03     112.145E-03     89.2666E+06     53.1233E+06    -2.95119E+06    -2.92692E+06     53.0990E+06     89.2666E+06     93.7292E+03         81.4539
             145     14.2701E-03     82.2599E-03     31.5048E-03    -7.69519E-03    -15.0418E-03    -8.13633E-03     25.5847E-03    -8.68059E-03     27.9789E-03     469.128E-03    -233.403E-03    -237.766E-03    -233.306E-03     464.668E-03    -233.403E-03     111.938E-03     89.8143E+06     53.0843E+06    -2.38792E+06    -2.36964E+06     53.0660E+06     89.8143E+06    -78.8873E+03         81.4887
             146     14.2708E-03     83.8538E-03     28.5428E-03    -6.77536E-03    -11.6311E-03    -6.03196E-03     23.9290E-03    -7.76076E-03     22.8178E-03     469.223E-03    -233.395E-03    -237.785E-03    -233.346E-03     464.785E-03    -233.395E-03     111.682E-03     88.5803E+06     52.3684E+06    -2.69413E+06    -2.65865E+06     52.3329E+06     88.5803E+06    -386.633E+03         81.5209
             147     14.2696E-03     85.4490E-03     30.3230E-03    -6.62907E-03    -12.4659E-03    -5.87112E-03     23.7282E-03    -6.62907E-03     30.7331E-03     469.269E-03    -233.394E-03    -237.754E-03    -233.277E-03     464.792E-03    -233.394E-03     112.165E-03     87.9095E+06     52.2367E+06    -2.20591E+06    -2.12930E+06     52.1601E+06     87.9095E+06     344.655E+03         81.5485
             148     14.2711E-03     87.0419E-03     27.9729E-03    -5.53343E-03    -12.1384E-03    -9.19025E-03     25.0247E-03    -5.53343E-03     19.5987E-03     469.018E-03    -233.395E-03    -237.719E-03    -233.220E-03     464.519E-03    -233.395E-03     112.419E-03     88.5993E+06     51.9552E+06    -3.30017E+06    -3.19244E+06     51.8475E+06     88.5993E+06    -50.8077E+03         81.5737
             149     14.2704E-03     90.2280E-03     23.1756E-03    -3.68904E-03    -6.73379E-03    -6.04815E-03     22.4899E-03    -3.68904E-03    -3.21203E-03     469.131E-03    -233.380E-03    -238.106E-03    -233.636E-03     464.661E-03    -233.380E-03     112.100E-03      88.776E+06     49.0315E+06    -2.55233E+06    -2.48516E+06     48.9643E+06      88.776E+06    -223.058E+03         81.6310
             150     14.2699E-03     91.8247E-03     26.3279E-03    -3.68618E-03    -11.0266E-03    -10.3371E-03     25.6383E-03    -3.68618E-03    -2.61397E-03     469.306E-03    -233.390E-03    -238.026E-03    -233.531E-03     464.810E-03    -233.390E-03     112.424E-03     88.3294E+06     49.1351E+06    -2.90096E+06    -2.80665E+06     49.0408E+06     88.3294E+06     157.983E+03         81.6636
             151     14.2702E-03     93.4059E-03     25.0042E-03    -3.18348E-03    -9.05750E-03    -8.60258E-03     24.5493E-03    -3.18348E-03     6.96221E-03     469.052E-03    -233.381E-03    -237.822E-03    -233.339E-03     464.569E-03    -233.381E-03     112.238E-03     88.7681E+06     50.9120E+06    -2.44721E+06    -2.35164E+06     50.8164E+06     88.7681E+06     115.123E+03         81.6880
             152     14.2702E-03     94.9904E-03     19.6026E-03    -3.21731E-03    -8.26927E-03    -4.64717E-03     15.9805E-03    -3.21731E-03    -9.40427E-03     468.784E-03    -233.383E-03    -237.707E-03    -233.240E-03     464.317E-03    -233.383E-03     112.002E-03     88.0668E+06     51.0023E+06    -2.63721E+06    -2.53033E+06     50.8954E+06     88.0668E+06     246.405E+03         81.7064
             153     14.2710E-03     96.5824E-03     22.3296E-03    -3.63373E-03    -9.42132E-03    -5.04567E-03     17.9539E-03    -3.63373E-03    -5.46091E-03     468.537E-03    -233.398E-03    -237.562E-03    -233.084E-03     464.059E-03    -233.398E-03     112.101E-03     88.3716E+06     50.7094E+06    -2.66020E+06    -2.52789E+06     50.5771E+06     88.3716E+06    -16.8343E+03         81.7318
             154     14.2706E-03     98.1742E-03     25.8601E-03    -3.56646E-03    -6.86446E-03    -5.73305E-03     24.7287E-03    -3.56646E-03     6.46359E-03     468.579E-03    -233.385E-03    -237.352E-03    -232.880E-03     464.106E-03    -233.385E-03     112.024E-03     88.7723E+06     50.0537E+06    -2.57194E+06    -2.45809E+06     49.9399E+06     88.7723E+06    -243.600E+03         81.7649
             155     14.2710E-03     99.7652E-03     25.6971E-03    -4.17356E-03    -12.1543E-03    -10.7141E-03     24.2569E-03    -4.17356E-03    -11.6480E-03     468.798E-03    -233.380E-03    -237.223E-03    -232.847E-03     464.422E-03    -233.380E-03     110.819E-03     89.0098E+06     49.8721E+06    -2.59848E+06    -2.49794E+06     49.7716E+06     89.0098E+06    -106.826E+03         81.7963
             156     14.2707E-03     101.359E-03     17.4319E-03    -565.582E-06    -10.5099E-03    -2.30191E-03     13.6865E-03    -5.02823E-03    -7.16056E-03     469.092E-03    -233.368E-03    -237.324E-03    -232.938E-03     464.706E-03    -233.368E-03     110.977E-03     89.0184E+06     50.1313E+06    -2.68434E+06    -2.55533E+06     50.0023E+06     89.0184E+06     211.305E+03         81.8262
             157     14.2706E-03     102.951E-03     19.4216E-03    -1.13571E-03    -8.77220E-03    -1.90515E-03     17.0172E-03    -5.59837E-03     688.280E-06     469.455E-03    -233.347E-03    -237.812E-03    -233.394E-03     465.037E-03    -233.347E-03     111.446E-03     88.7027E+06     50.0738E+06    -2.73831E+06    -2.59348E+06     49.9289E+06     88.7027E+06     55.0985E+03         81.8591
             158     14.2687E-03     104.548E-03     32.1374E-03    -6.64112E-03    -14.5157E-03    -14.4382E-03     32.0598E-03    -6.64112E-03    -1.73252E-03     469.129E-03    -233.339E-03    -237.808E-03    -233.384E-03     464.704E-03    -233.339E-03     111.506E-03     88.5195E+06     49.9330E+06    -2.42995E+06    -2.31745E+06     49.8205E+06     88.5195E+06    -314.118E+03         81.8948
             159     14.2719E-03     106.138E-03     25.0646E-03    -2.34096E-03    -12.2488E-03    -6.98441E-03     25.0072E-03    -7.54802E-03    -401.570E-06     468.502E-03    -233.347E-03    -237.361E-03    -232.898E-03     464.040E-03    -233.347E-03     111.891E-03     88.8313E+06     49.1825E+06    -2.46898E+06    -2.37993E+06     49.0934E+06     88.8313E+06    -58.8131E+03         81.9297
             160     14.2710E-03     107.735E-03     15.8218E-03    -1.91960E-03    -8.03481E-03    -1.25744E-03     15.1597E-03    -8.03481E-03     4.15275E-03     468.480E-03    -233.358E-03    -237.257E-03    -232.790E-03     464.013E-03    -233.358E-03     111.936E-03     89.5452E+06     48.9344E+06    -2.64189E+06    -2.54720E+06     48.8397E+06     89.5452E+06     10.5297E+03         81.9611
             161     14.2720E-03     109.329E-03     24.9568E-03    -7.48988E-03    -10.1274E-03    -8.60926E-03     24.3469E-03    -8.39803E-03     5.46537E-03     468.330E-03    -233.361E-03    -237.116E-03    -232.669E-03     463.883E-03    -233.361E-03     111.665E-03     89.6002E+06     49.3261E+06    -2.79010E+06    -2.69220E+06     49.2282E+06     89.6002E+06    -36.9375E+03         81.9875
             162     14.2707E-03     110.928E-03     31.4132E-03    -8.53141E-03    -11.5269E-03    -11.3391E-03     31.2254E-03    -8.53141E-03    -3.70853E-03     468.403E-03    -233.352E-03    -237.068E-03    -232.630E-03     463.965E-03    -233.352E-03     111.553E-03     89.7895E+06     49.7625E+06    -2.64547E+06    -2.53160E+06     49.6486E+06     89.7895E+06     149.191E+03         82.0108
             163     14.2726E-03     112.523E-03     25.3549E-03    -5.45878E-03    -9.49257E-03    -5.48454E-03     24.1145E-03    -8.22646E-03     2.67648E-03     468.719E-03    -233.324E-03    -237.447E-03    -232.996E-03     464.269E-03    -233.324E-03     111.770E-03     89.4458E+06     50.8115E+06    -2.52667E+06    -2.42326E+06     50.7081E+06     89.4458E+06     251.114E+03         82.0334
             164     14.2714E-03     114.120E-03     18.0975E-03    -2.40433E-03    -8.36577E-03    -520.362E-06     16.2136E-03    -8.36577E-03     1.34778E-03     468.800E-03    -233.318E-03    -237.924E-03    -233.488E-03     464.365E-03    -233.318E-03     111.621E-03     89.4103E+06     51.1276E+06    -2.87507E+06    -2.80471E+06     51.0572E+06     89.4103E+06     -150.99E+03         82.0556
             165     14.2717E-03     115.717E-03     21.6819E-03    -5.67220E-03    -10.7077E-03    -4.28675E-03     18.4546E-03    -8.86595E-03     7.76959E-03     468.335E-03    -233.323E-03    -237.648E-03    -233.173E-03     463.860E-03    -233.323E-03     112.054E-03     90.0604E+06     51.5064E+06    -2.75587E+06    -2.72171E+06     51.4722E+06     90.0604E+06     507.428E+03         82.0793
             166     14.2716E-03     117.314E-03     25.4185E-03    -5.48906E-03    -10.2269E-03    -3.58447E-03     21.6722E-03    -8.38508E-03     20.8376E-03     467.840E-03    -233.330E-03    -237.004E-03    -232.482E-03     463.318E-03    -233.330E-03     112.550E-03     90.1349E+06     51.6306E+06    -2.60326E+06    -2.59512E+06     51.6224E+06     90.1349E+06    -120.137E+03         82.1088
             167     14.2729E-03     118.909E-03     27.4200E-03    -4.83135E-03    -13.3066E-03    -6.49135E-03     23.5007E-03    -7.72736E-03     23.0556E-03     468.476E-03    -233.333E-03    -237.024E-03    -232.479E-03     463.931E-03    -233.333E-03     112.885E-03     91.0178E+06     51.6737E+06    -1.75703E+06    -1.75035E+06     51.6670E+06     91.0178E+06    -61.5717E+03         82.1503
             168     14.2721E-03     120.510E-03     22.8018E-03    -6.22989E-03    -12.9139E-03    -8.97849E-03     19.9711E-03    -7.33468E-03     12.1355E-03     468.833E-03    -233.331E-03    -236.954E-03    -232.426E-03     464.305E-03    -233.331E-03     112.692E-03     91.3894E+06     51.9997E+06    -3.23651E+06    -3.22871E+06     51.9919E+06     91.3894E+06     1.71419E+03         82.2214
             169     14.2727E-03     122.098E-03     13.3768E-03    -3.31605E-03    -6.63896E-03    -759.802E-06     10.8205E-03    -6.63896E-03     3.63682E-03     468.371E-03    -233.252E-03    -236.857E-03    -232.231E-03     463.745E-03    -233.252E-03     113.851E-03     92.4384E+06     52.6896E+06    -2.09293E+06    -2.08837E+06     52.6851E+06     92.4384E+06     174.951E+03         82.2924
             170     14.2758E-03     123.632E-03     21.8239E-03    -3.41015E-03    -10.2637E-03    -5.48853E-03     19.2668E-03    -5.62827E-03     1.89290E-03     467.971E-03    -233.185E-03    -236.510E-03    -231.667E-03     463.128E-03    -233.185E-03     116.415E-03     92.8957E+06     54.2956E+06    -1.49858E+06    -1.47821E+06     54.2752E+06     92.8957E+06     619.236E+03         82.2491
             171     14.2768E-03     125.238E-03     26.8687E-03    -4.17732E-03    -12.2371E-03    -11.9080E-03     26.5396E-03    -4.17732E-03    -6.93854E-03     468.490E-03    -233.194E-03    -236.353E-03    -231.525E-03     463.662E-03    -233.194E-03     116.258E-03     92.4422E+06     55.6598E+06    -2.90344E+06    -2.87679E+06     55.6331E+06     92.4422E+06     324.120E+03         82.0719
             172     14.2754E-03     126.813E-03     17.2330E-03    -895.638E-06    -6.26923E-03    -978.854E-06     13.8918E-03    -2.84487E-03    -6.95274E-03     469.633E-03    -233.144E-03    -237.158E-03    -232.594E-03     465.068E-03    -233.144E-03     113.217E-03     92.9696E+06     56.1550E+06    -2.76832E+06    -2.74087E+06     56.1276E+06     92.9696E+06     344.438E+03         81.9234
             173     14.2762E-03     128.391E-03     16.4997E-03    -465.199E-06    -7.91279E-03    -2.59493E-03     13.1311E-03    -2.41443E-03    -2.30491E-03     469.089E-03    -233.109E-03    -237.028E-03    -232.489E-03     464.550E-03    -233.109E-03     112.849E-03     94.6123E+06     58.3083E+06    -3.34957E+06    -3.32478E+06     58.2836E+06     94.6123E+06     419.253E+03         81.9615
             174     14.2761E-03     129.985E-03     19.3703E-03    -2.34930E-03    -8.64217E-03    -8.03369E-03     18.7618E-03    -2.34930E-03     7.11418E-03     468.078E-03    -233.112E-03    -235.946E-03    -231.230E-03     463.362E-03    -233.112E-03     114.858E-03     95.9323E+06     60.0065E+06    -2.78557E+06    -2.75308E+06     59.9740E+06     95.9323E+06     574.807E+03         82.1698
             175     14.2791E-03     131.581E-03     16.9799E-03    -2.00182E-03    -7.52651E-03    -1.92242E-03     11.3758E-03    -2.00182E-03     17.9385E-03     467.561E-03    -233.104E-03    -235.344E-03    -230.516E-03     462.733E-03    -233.104E-03     116.108E-03     96.6636E+06     61.6599E+06    -2.76768E+06    -2.73766E+06     61.6299E+06     96.6636E+06     689.376E+03         82.3779
             176     14.2807E-03     133.177E-03     19.1513E-03    -1.29800E-03    -12.2945E-03    -7.19964E-03     14.0564E-03    -1.29800E-03     13.9710E-03     466.933E-03    -233.039E-03    -235.395E-03    -230.529E-03     462.067E-03    -233.039E-03     116.509E-03     99.0605E+06     64.7385E+06    -2.98652E+06    -2.96796E+06     64.7199E+06     99.0605E+06     506.004E+03         82.4548
             177     14.2834E-03     134.779E-03     14.7638E-03    -754.221E-06    -9.05058E-03    -6.96632E-03     12.6795E-03    -754.221E-06    -5.29594E-03     467.019E-03    -232.972E-03    -235.483E-03    -230.648E-03     462.185E-03    -232.972E-03     116.153E-03     102.296E+06     68.8168E+06    -2.16543E+06    -2.13910E+06     68.7905E+06     102.296E+06     1.35588E+06         82.4140
             178     14.2845E-03     136.388E-03     9.55085E-03    -655.380E-06    -6.96828E-03     192.493E-06     2.39008E-03    -655.380E-06    -16.1585E-03     467.171E-03    -232.845E-03    -235.563E-03    -230.699E-03     462.308E-03    -232.845E-03     116.516E-03     103.902E+06     74.1300E+06    -3.09184E+06    -3.06847E+06     74.1066E+06     103.902E+06     1.34205E+06         82.3316
             179     14.2874E-03     137.993E-03     18.7714E-03    -655.081E-06    -13.3391E-03    -2.61250E-03     8.04482E-03    -655.081E-06    -29.3928E-03     467.030E-03    -232.707E-03    -236.006E-03    -231.119E-03     462.143E-03    -232.707E-03     116.821E-03     106.300E+06     76.4167E+06    -3.55754E+06    -3.53881E+06     76.3980E+06     106.300E+06     304.920E+03         82.2621
             180     14.2900E-03     139.599E-03     21.3616E-03    -1.04117E-03    -14.2366E-03    -2.60210E-03     9.72705E-03    -1.04117E-03    -32.7655E-03     466.632E-03    -232.656E-03    -236.010E-03    -231.124E-03     461.746E-03    -232.656E-03     116.776E-03     110.285E+06     80.2972E+06    -1.93122E+06    -1.81196E+06     80.1779E+06     110.285E+06     1.79137E+06         82.2134
             181     14.2934E-03     141.201E-03     17.4481E-03    -1.00106E-03    -12.1583E-03    -5.95385E-03     11.2437E-03    -1.00106E-03    -17.3095E-03     466.075E-03    -232.422E-03    -235.686E-03    -230.777E-03     461.166E-03    -232.422E-03     116.976E-03     111.071E+06     86.7634E+06    -5.10741E+06    -4.98637E+06     86.6423E+06     111.071E+06     1.65930E+06         82.1599
             182     14.2971E-03     142.799E-03     22.9784E-03    -938.923E-06    -18.4204E-03    -5.21766E-03     9.77564E-03    -938.923E-06    -29.2139E-03     464.412E-03    -232.100E-03    -234.394E-03    -229.386E-03     459.405E-03    -232.100E-03     117.881E-03     114.188E+06     90.1875E+06    -1.89528E+06    -1.86037E+06     90.1526E+06     114.188E+06     532.869E+03         82.0715
             183     14.3043E-03     144.396E-03     21.6305E-03    -1.72972E-03    -17.6321E-03     5.13580E-03    -1.13741E-03    -1.72972E-03    -13.1438E-03     461.412E-03    -231.683E-03    -232.400E-03    -227.176E-03     456.188E-03    -231.683E-03     119.933E-03     117.261E+06     92.5955E+06    -3.61386E+06    -3.58426E+06     92.5659E+06     117.261E+06     817.042E+03         81.9470
             184     14.3130E-03     145.989E-03     20.9996E-03    -1.63452E-03    -12.7668E-03    -2.49193E-03     10.7248E-03    -1.63452E-03     6.18155E-03     457.644E-03    -229.294E-03    -230.759E-03    -223.778E-03     452.041E-03    -230.672E-03     123.540E-03     121.397E+06     96.3741E+06    -1.70463E+06    -1.62634E+06     96.2958E+06     121.397E+06     1.58372E+06         81.8226
             185     14.3324E-03     147.565E-03     14.2607E-03    -1.19289E-03    -8.78826E-03    -5.66684E-03     11.1393E-03    -1.19289E-03    -4.25452E-03     453.839E-03    -225.623E-03    -228.989E-03    -219.733E-03     447.948E-03    -228.989E-03     125.980E-03     125.347E+06     103.024E+06    -4.20009E+06    -4.09501E+06     102.919E+06     125.347E+06     3.19619E+06         81.7439
             186     14.3492E-03     149.130E-03     9.13513E-03    -1.05625E-03    -2.54444E-03     3.01907E-03     3.81289E-03    -1.29753E-03     9.83914E-03     450.586E-03    -223.095E-03    -227.605E-03    -217.175E-03     444.666E-03    -227.605E-03     125.746E-03     128.148E+06     106.786E+06    -5.04838E+06    -4.93769E+06     106.676E+06     128.148E+06     3.35878E+06         81.7676
             187     14.3707E-03     150.704E-03     14.4599E-03    -1.20532E-03    -9.82553E-03    -6.85895E-03     11.7346E-03    -1.44660E-03     9.23445E-03     449.972E-03    -223.501E-03    -226.274E-03    -217.379E-03     443.850E-03    -226.274E-03     127.819E-03     135.353E+06     112.540E+06    -1.19783E+06    -1.10400E+06     112.446E+06     135.353E+06     1.18553E+06         81.9514
             188     14.3884E-03     152.288E-03     11.8868E-03    -2.05618E-03    -10.4353E-03    -4.68951E-03     6.14117E-03    -2.05632E-03    -3.43217E-03     456.448E-03    -224.139E-03    -231.579E-03    -225.380E-03     450.499E-03    -224.389E-03     127.273E-03     139.516E+06     115.195E+06    -3.94808E+06    -3.78869E+06     115.036E+06     139.516E+06     2.02102E+06         82.2793
             189     14.3979E-03     153.889E-03     11.1752E-03    -2.68741E-03    -7.54537E-03     3.52901E-03     100.936E-06    -2.68755E-03     7.13629E-03     469.661E-03    -223.325E-03    -246.013E-03    -240.465E-03     464.113E-03    -223.325E-03     125.521E-03     144.594E+06     109.119E+06    -4.65055E+06    -4.42041E+06     108.889E+06     144.594E+06     698.278E+03         82.8329
             190     14.4038E-03     155.508E-03     17.5603E-03    -3.08530E-03    -11.1678E-03    -4.88078E-03     11.2733E-03    -3.08530E-03     19.5913E-03     483.233E-03    -223.226E-03    -259.833E-03    -254.462E-03     477.862E-03    -223.226E-03     125.858E-03     150.317E+06     108.563E+06    -4.25309E+06    -4.02968E+06     108.340E+06     150.317E+06     608.189E+03         83.6268
             191     14.4041E-03     157.143E-03     16.8514E-03    -3.37651E-03    -7.09435E-03    -5.67208E-03     15.9223E-03    -3.86969E-03     7.54436E-03     495.455E-03    -223.321E-03    -272.124E-03    -266.632E-03     489.963E-03    -223.321E-03     129.366E-03     147.663E+06     108.401E+06    -7.47803E+06    -6.97669E+06     107.900E+06     147.663E+06    -1.87788E+06         84.3771
             192     14.4052E-03     158.781E-03     8.43416E-03    -2.97306E-03    -4.41271E-03    -2.19925E-03     7.66035E-03    -4.41271E-03    -3.59426E-03     506.771E-03    -223.271E-03    -285.084E-03    -279.510E-03     501.197E-03    -223.271E-03     132.365E-03     149.797E+06     106.596E+06    -2.08526E+06    -1.70816E+06     106.218E+06     149.797E+06    -3.76512E+06         84.9712
             193     14.4043E-03     160.459E-03     3.86049E-03    -969.809E-06    -4.36157E-03    -58.7031E-06     2.94939E-03    -4.36157E-03    -3.40732E-03     513.840E-03    -222.952E-03    -293.209E-03    -287.820E-03     508.452E-03    -222.952E-03     131.446E-03     141.904E+06     97.6911E+06    -2.20104E+06    -2.18267E+06     97.6728E+06     141.904E+06     616.709E+03         85.4886
             194     14.4054E-03     162.126E-03     3.94356E-03    -1.15760E-03    -4.75025E-03     1.61880E-03     1.16716E-03    -4.75025E-03    -4.87333E-03     517.897E-03    -222.685E-03    -297.227E-03    -291.890E-03     512.561E-03    -222.685E-03     131.473E-03     132.897E+06     79.3006E+06    -6.08965E+06    -5.68570E+06     78.8967E+06     132.897E+06    -3.92859E+06         85.9172
             195     14.4038E-03     163.813E-03     8.24443E-03    -4.46396E-03    -8.20690E-03    -1.75624E-03     2.94111E-03    -5.61131E-03    -13.9944E-03     520.756E-03    -222.554E-03    -300.032E-03    -294.774E-03     515.498E-03    -222.554E-03     130.970E-03     131.910E+06     63.9125E+06    -5.85161E+06    -4.75958E+06     62.8204E+06     131.910E+06    -8.60329E+06         86.1838
             196     14.4055E-03     165.495E-03     9.97586E-03    -4.26756E-03    -7.61462E-03    -3.43018E-03     6.54289E-03    -5.01903E-03    -4.85753E-03     519.793E-03    -222.568E-03    -298.907E-03    -293.930E-03     514.817E-03    -222.568E-03     127.237E-03     134.011E+06     48.5705E+06    -2.25624E+06    -1.53317E+06     47.8474E+06     134.011E+06    -4.26040E+06         86.1614
             197     14.4040E-03     167.178E-03     16.0001E-03    -2.67142E-03    -8.36156E-03     1.14014E-03     7.24989E-03    -3.42289E-03    -12.8887E-03     518.623E-03    -222.632E-03    -297.432E-03    -292.594E-03     513.785E-03    -222.632E-03     125.292E-03     137.092E+06     34.8808E+06    -2.22713E+06    -1.79295E+06     34.4466E+06     137.092E+06     3.67826E+06         85.8189
             198     14.4075E-03     168.857E-03     17.4833E-03    -2.53034E-03    -10.8734E-03     1.51284E-03     5.09707E-03    -2.53034E-03    -6.11115E-03     519.579E-03    -222.563E-03    -297.941E-03    -293.340E-03     514.978E-03    -222.563E-03     122.218E-03     133.495E+06     21.4534E+06    -19.0032E+06    -10.2284E+06     12.6787E+06     133.495E+06    -5.93155E+06         85.1049
             199     14.4047E-03     170.573E-03     9.83584E-03    -1.24515E-03    -9.09410E-03     2.71768E-03    -1.97594E-03    -1.24515E-03     8.05674E-03     513.839E-03    -222.721E-03    -291.767E-03    -287.887E-03     509.960E-03    -222.721E-03     111.461E-03     147.988E+06     22.3155E+06    -15.6746E+06     3.42740E+06     3.21353E+06     147.988E+06     1.12820E+06         84.2856
             200     14.4134E-03     172.218E-03     6.69349E-03    -223.405E-06    -7.90381E-03     1.71642E-03    -2.92674E-03    -223.405E-06    -9.35707E-03     491.541E-03    -223.245E-03    -269.021E-03    -266.038E-03     488.559E-03    -223.245E-03     94.8351E-03     155.931E+06     37.6222E+06    -16.0148E+06    -3.82520E+06     25.4327E+06     155.931E+06     3.19785E+06         83.9195
             201     14.4086E-03     173.854E-03     13.1097E-03     707.769E-06    -13.5520E-03     3.23087E-03    -3.67324E-03     707.769E-06     10.9457E-03     459.043E-03    -221.131E-03    -238.272E-03    -232.865E-03     456.205E-03    -223.700E-03     88.2328E-03     159.605E+06     37.6898E+06    -10.4455E+06    -5.70717E+06     32.9515E+06     159.605E+06     -745.84E+03         84.7839
             202     14.4207E-03     175.371E-03     15.6417E-03     2.99031E-03    -17.7873E-03    -2.37096E-03     225.369E-06     2.99031E-03     10.8008E-03     366.951E-03    -141.513E-03    -225.759E-03    -139.896E-03     365.334E-03    -225.759E-03     46.7926E-03     132.480E+06     51.8215E+06    -7.44789E+06     -706.74E+03     45.0803E+06     132.480E+06    -5.84583E+06         86.8473
             203     13.3728E-03     176.463E-03     9.31599E-03     4.45735E-03    -14.2446E-03    -7.60289E-03     2.67423E-03     4.45735E-03     3.15461E-03     289.912E-03    -58.3948E-03    -232.106E-03    -56.6051E-03     288.122E-03    -232.106E-03    -34.0984E-03     97.5270E+06     11.0040E+06    -55.8262E+06    -30.2736E+06    -14.5485E+06     97.5270E+06    -13.4217E+06         85.7572
             204     12.4151E-03     176.116E-03     6.31830E-03     4.00347E-03    -5.81806E-03     842.079E-06    -341.837E-06     4.00347E-03     11.9286E-03     287.847E-03    -47.2787E-03    -241.100E-03    -39.9212E-03     280.490E-03    -241.100E-03    -94.2590E-03     124.721E+06    -1.76167E+06    -48.0764E+06    -24.5044E+06    -25.3337E+06     124.721E+06    -7.27423E+06         80.3623
             205     11.4981E-03     175.729E-03     13.6326E-03     3.06592E-03    -6.14540E-03    -639.723E-06     8.12693E-03     3.06592E-03     17.6555E-03     292.881E-03    -43.0902E-03    -249.653E-03    -27.6737E-03     277.464E-03    -249.653E-03    -139.288E-03     137.476E+06     22.5908E+06    -16.2893E+06    -64.9931E+03     6.36652E+06     137.476E+06    -6.21661E+06         74.1159
             206     10.5926E-03     175.355E-03     16.7243E-03     2.30365E-03    -13.9172E-03     3.04355E-03    -236.405E-06     2.30365E-03     21.7097E-03     308.500E-03    -49.5971E-03    -258.023E-03    -25.4614E-03     284.364E-03    -258.023E-03    -179.036E-03     135.082E+06     13.0290E+06    -17.2198E+06    -1.13984E+06    -3.05096E+06     135.082E+06    -4.77473E+06         68.5465
             207     9.71777E-03     174.923E-03     13.4302E-03     1.84624E-03    -10.3729E-03     2.61510E-03     442.161E-06     1.84624E-03     1.06272E-03     330.933E-03    -65.2057E-03    -265.800E-03    -29.7459E-03     295.473E-03    -265.800E-03    -225.537E-03     137.625E+06     17.5986E+06    -9.56873E+06    -3.16212E+06     11.1920E+06     137.625E+06    -10.1393E+06         64.3152
             208     8.88081E-03     174.472E-03     8.58194E-03     1.52865E-03    -8.68984E-03    -1.98695E-03     1.87905E-03     1.52865E-03    -1.55364E-03     362.143E-03    -91.8104E-03    -270.818E-03    -43.5898E-03     313.922E-03    -270.818E-03    -279.659E-03     123.976E+06     581.671E+03    -25.8999E+06    -7.71830E+06    -17.5999E+06     123.976E+06    -10.5010E+06         61.1759
             209     8.07897E-03     174.043E-03     8.97628E-03     610.359E-06    -14.8240E-03    -433.464E-06    -5.41421E-03     610.359E-06     20.8379E-03     396.461E-03    -121.865E-03    -274.763E-03    -64.5767E-03     339.173E-03    -274.763E-03    -325.034E-03     122.762E+06     9.81568E+06    -28.4120E+06    -7.64984E+06    -10.9464E+06     122.762E+06    -15.6981E+06         58.7510
             210     7.29944E-03     173.670E-03     13.6613E-03    -15.9661E-06    -22.1264E-03    -10.9996E-03     2.53454E-03    -15.9661E-06     30.4452E-03     426.557E-03    -149.932E-03    -278.126E-03    -86.9805E-03     363.605E-03    -278.126E-03    -359.594E-03     118.124E+06     15.5196E+06    -25.7278E+06    -4.80355E+06    -5.40465E+06     118.124E+06    -18.7572E+06         56.9808
             211     6.54551E-03     173.296E-03     8.22690E-03     838.060E-06    -21.6887E-03    -18.4132E-03     4.95135E-03     838.060E-06     8.55137E-03     455.158E-03    -178.468E-03    -277.080E-03    -113.011E-03     389.701E-03    -277.080E-03    -385.580E-03     102.053E+06     3.14450E+06    -29.8701E+06    -11.0732E+06    -15.6524E+06     102.053E+06    -15.0795E+06         55.9978
             212     5.80981E-03     172.971E-03     10.6012E-03     2.28578E-03    -21.1150E-03    -20.5714E-03     10.0576E-03     2.28578E-03    -2.90379E-03     481.152E-03    -204.906E-03    -275.037E-03    -142.648E-03     418.893E-03    -275.037E-03    -393.690E-03     94.6939E+06     15.6738E+06    -24.6099E+06    -495.844E+03    -8.44030E+06     94.6939E+06    -18.3024E+06         55.6392
             213     5.08887E-03     172.675E-03     10.4516E-03     2.88352E-03    -12.6546E-03    -11.1203E-03     8.91731E-03     2.88352E-03     4.50395E-03     499.952E-03    -227.428E-03    -272.508E-03    -172.970E-03     445.493E-03    -272.508E-03    -382.216E-03     80.7338E+06     16.8175E+06    -35.0804E+06     1.06648E+06    -19.3294E+06     80.7338E+06    -23.7375E+06         55.4158
             214     4.37495E-03     172.430E-03     16.8645E-03     1.68215E-03    -11.1247E-03     8.99436E-03    -3.25451E-03     1.68215E-03     24.9452E-03     511.579E-03    -244.422E-03    -267.374E-03    -201.242E-03     468.399E-03    -267.374E-03    -349.440E-03     67.1389E+06     10.4277E+06    -39.4465E+06    -3.77671E+06    -25.2420E+06     67.1389E+06    -22.2176E+06         55.0651
             215     3.66353E-03     172.225E-03     26.9348E-03    -292.576E-06    -19.1743E-03     8.83556E-03    -1.07508E-03    -292.576E-06     42.9719E-03     518.637E-03    -254.977E-03    -263.417E-03    -224.598E-03     488.259E-03    -263.417E-03    -298.730E-03     66.4782E+06     29.5305E+06    -20.6336E+06     15.8693E+06    -6.97243E+06     66.4782E+06    -22.1276E+06         54.6366
             216     2.94757E-03     172.070E-03     32.0590E-03    -5.98939E-06    -22.4932E-03    -11.8784E-03     21.4441E-03    -5.98939E-06     33.3856E-03     519.948E-03    -257.465E-03    -261.563E-03    -240.867E-03     500.943E-03    -259.155E-03    -237.999E-03     59.0613E+06     33.1744E+06    -23.4539E+06     21.5570E+06    -11.8365E+06     59.0613E+06    -21.4593E+06         54.2148
             217     2.22407E-03     171.978E-03     27.0510E-03     3.80600E-03    -19.0374E-03    -16.1797E-03     24.1933E-03     3.80600E-03     21.0070E-03     514.034E-03    -253.859E-03    -258.866E-03    -248.686E-03     503.854E-03    -253.859E-03    -173.519E-03     52.7845E+06     38.0894E+06    -17.2325E+06     32.0336E+06    -11.1767E+06     52.7845E+06    -17.2425E+06         53.8634
             218     1.48381E-03     171.908E-03     13.3012E-03     5.84549E-03    -5.96958E-03    -3.65963E-03     7.39428E-03     9.44244E-03     5.71696E-03     506.256E-03    -250.781E-03    -254.840E-03    -250.046E-03     501.462E-03    -250.781E-03    -118.143E-03     46.5955E+06     43.6995E+06    -11.1329E+06     38.6777E+06    -3.68868E+06     44.1731E+06    -19.2458E+06         53.6270
             219     737.480E-06     171.909E-03     281.789E-03    -29.0068E-03    -259.564E-03    -258.796E-03    -29.7751E-03     281.789E-03     6.26188E-03     501.703E-03    -249.675E-03    -251.969E-03    -250.142E-03     499.875E-03    -249.675E-03    -70.1273E-03     23.5016E+06     20.4831E+06    -35.7626E+06     17.4232E+06    -30.2802E+06     21.0791E+06    -16.3508E+06         53.5108
             220    -17.6521E-09     170.240E-03     438.704E-03    -17.0974E-03    -431.601E-03    -431.004E-03    -17.6940E-03     438.704E-03    -10.5771E-03     431.203E-03    -215.116E-03    -216.024E-03    -215.573E-03     430.826E-03    -215.190E-03    -28.2329E-03    -22.6988E+06    -26.8281E+06    -55.6181E+06    -25.0816E+06    -52.2365E+06    -27.8269E+06    -6.87116E+06         51.6739
             221    -635.048E-09     168.798E-03     239.289E-03    -2.29342E-03    -226.009E-03    -223.304E-03    -4.99890E-03     239.289E-03    -2.13999E-03     327.378E-03    -163.197E-03    -164.215E-03    -163.167E-03     327.348E-03    -164.215E-03    -7.28638E-03    -85.1443E+06    -126.965E+06    -136.670E+06    -131.189E+06    -89.0310E+06    -128.560E+06    -7.94388E+06         47.7345
             222    -1.19258E-06     167.452E-03     114.449E-03     11.9764E-03    -99.0545E-03    -86.5124E-03    -565.736E-06     114.449E-03     68.8994E-03     269.824E-03    -134.090E-03    -135.756E-03    -134.776E-03     269.788E-03    -135.034E-03     2.78480E-03    -162.154E+06    -273.104E+06    -281.220E+06    -277.520E+06    -165.854E+06    -273.104E+06    -20.4488E+06         44.2313
             223     2.24807E-06     166.171E-03     103.953E-03    -4.91602E-03    -79.5318E-03    -68.4316E-03     83.4372E-03     4.49977E-03     67.8951E-03     239.602E-03    -118.117E-03    -121.474E-03    -121.360E-03     239.488E-03    -118.117E-03     12.4262E-03    -234.988E+06    -372.213E+06    -376.683E+06    -369.453E+06    -237.753E+06    -376.678E+06    -12.5312E+06         42.1653
             224     2.12145E-06     164.916E-03     71.2290E-03    -28.3391E-03    -50.3270E-03    -35.4801E-03     56.2676E-03    -28.2245E-03     37.3475E-03     236.131E-03    -115.481E-03    -120.632E-03    -120.452E-03     235.952E-03    -115.481E-03     16.0077E-03    -262.841E+06    -332.884E+06    -343.676E+06    -338.860E+06    -263.193E+06    -337.349E+06    -623.278E+03         41.2953
             225     2.27682E-06     163.647E-03     44.7264E-03     21.8537E-03    -64.6010E-03     11.1385E-03    -31.2048E-03     22.0453E-03     100.411E-03     252.985E-03    -123.815E-03    -129.038E-03    -128.839E-03     252.786E-03    -123.815E-03     17.4378E-03    -205.523E+06    -219.683E+06    -265.751E+06    -219.373E+06    -251.901E+06    -219.683E+06     8.50953E+06         41.4290
             226     2.36013E-06     162.351E-03     57.4666E-03     24.8875E-03    -69.3347E-03     18.9642E-03    -30.8324E-03     24.8875E-03     42.2984E-03     284.085E-03    -138.494E-03    -145.817E-03    -145.620E-03     283.888E-03    -138.494E-03     18.3849E-03    -135.324E+06    -146.960E+06    -223.519E+06    -141.125E+06    -220.675E+06    -144.003E+06     6.27712E+06         42.5655
             227     4.91955E-06     160.998E-03     51.3121E-03    -328.570E-06    -48.1911E-03     21.4044E-03    -99.2306E-06    -18.5127E-03     3.89249E-03     320.595E-03    -156.640E-03    -164.148E-03    -163.955E-03     320.402E-03    -156.640E-03     19.3384E-03    -121.251E+06    -127.391E+06    -208.940E+06    -124.686E+06    -208.462E+06    -124.434E+06    -4.40072E+06         44.6980
             228     171.563E-09     159.589E-03     69.5954E-03    -18.6988E-03    -52.6249E-03     6.26359E-03     44.6330E-03    -52.6249E-03     47.1434E-03     354.905E-03    -174.750E-03    -180.022E-03    -177.464E-03     354.730E-03    -177.133E-03     19.2498E-03    -116.480E+06    -120.260E+06    -222.701E+06    -117.208E+06    -222.569E+06    -119.663E+06    -2.97889E+06         47.2996
             229    -4.13974E-06     158.145E-03     53.8111E-03    -8.34439E-03    -50.5840E-03    -19.1025E-03     38.0716E-03    -24.0864E-03     46.7631E-03     381.999E-03    -187.685E-03    -194.351E-03    -187.570E-03     381.885E-03    -194.351E-03     15.8564E-03    -121.928E+06    -125.283E+06    -235.103E+06    -122.709E+06    -234.918E+06    -124.687E+06    -1.01604E+06         49.6260
             230    -3.13929E-06     156.662E-03     46.5962E-03     7.54658E-03    -47.3478E-03    -17.2503E-03    -6.94685E-03     30.9922E-03     69.0191E-03     402.805E-03    -198.778E-03    -204.093E-03    -198.713E-03     402.740E-03    -204.093E-03     12.4565E-03    -122.806E+06    -130.913E+06    -239.710E+06    -128.270E+06    -239.595E+06    -125.565E+06    -138.535E+03         51.5346
             231     1.29721E-06     155.149E-03     79.5520E-03    -12.4304E-03    -58.4464E-03    -32.6181E-03    -38.2587E-03     79.5520E-03     45.3070E-03     420.154E-03    -209.349E-03    -210.578E-03    -209.300E-03     420.105E-03    -210.578E-03     11.0946E-03    -127.604E+06    -138.789E+06    -246.076E+06    -133.121E+06    -245.908E+06    -133.440E+06    -4.32157E+06         53.0717
             232    -1.70543E-06     153.622E-03     88.6399E-03    -18.9783E-03    -62.6360E-03    -45.6729E-03     3.13996E-03     49.5585E-03    -19.8746E-03     429.532E-03    -213.795E-03    -215.390E-03    -213.759E-03     429.496E-03    -215.390E-03     9.61218E-03    -144.009E+06    -154.522E+06    -256.809E+06    -148.961E+06    -256.532E+06    -149.845E+06     492.435E+03         54.1664
             233    -641.196E-09     152.085E-03     69.7633E-03     8.12868E-03    -75.5191E-03    -53.2359E-03     47.4801E-03     8.12868E-03     28.1539E-03     433.515E-03    -215.939E-03    -217.455E-03    -216.033E-03     433.491E-03    -217.337E-03     7.83149E-03    -148.396E+06    -155.571E+06    -263.660E+06    -153.462E+06    -263.270E+06    -150.895E+06    -648.837E+03         54.8560
             234     686.578E-09     150.530E-03     47.1603E-03     17.1203E-03    -75.6146E-03    -27.8867E-03    -8.05434E-03     24.6071E-03     87.2285E-03     438.518E-03    -219.086E-03    -219.442E-03    -219.425E-03     438.501E-03    -219.086E-03     6.78009E-03    -156.966E+06    -160.391E+06    -275.018E+06    -158.115E+06    -274.795E+06    -159.465E+06    -3.92567E+06         55.1990
             235    -185.885E-09     148.985E-03     46.8579E-03     10.4242E-03    -62.5384E-03    -5.87401E-03    -17.2933E-03     17.9109E-03     87.1842E-03     442.083E-03    -220.636E-03    -221.633E-03    -220.861E-03     442.069E-03    -221.395E-03     5.99226E-03    -161.466E+06    -163.914E+06    -285.855E+06    -162.410E+06    -285.838E+06    -162.988E+06    -1.33857E+06         55.4072
             236    -1.22371E-06     147.427E-03     51.8075E-03    -6.90832E-03    -46.0970E-03    -18.4247E-03     25.4870E-03    -8.26003E-03     55.2967E-03     444.950E-03    -221.843E-03    -223.123E-03    -221.836E-03     444.943E-03    -223.123E-03     4.28916E-03    -157.733E+06    -160.976E+06    -287.074E+06    -159.472E+06    -287.058E+06    -159.254E+06    -754.244E+03         55.6687
             237     540.823E-09     145.864E-03     40.7443E-03    -6.13273E-03    -19.6753E-03     11.5729E-03     23.0387E-03    -19.6753E-03    -13.2749E-03     448.069E-03    -223.715E-03    -224.268E-03    -223.713E-03     448.067E-03    -224.268E-03     2.56546E-03    -164.121E+06    -168.115E+06    -292.677E+06    -165.857E+06    -292.662E+06    -166.393E+06    -685.594E+03         55.9408
             238    -297.182E-09     144.297E-03     34.3457E-03    -4.96799E-03    -21.9652E-03     31.0806E-03    -1.70296E-03    -21.9652E-03    -18.9890E-03     450.969E-03    -224.976E-03    -226.082E-03    -224.970E-03     450.963E-03    -226.082E-03     3.57927E-03    -163.314E+06    -166.254E+06    -298.932E+06    -164.022E+06    -298.891E+06    -165.587E+06     436.994E+03         56.1686
             239    -1.30018E-06     142.724E-03     46.7076E-03     2.58132E-03    -45.8031E-03     31.0463E-03     18.2426E-03    -45.8031E-03    -36.9966E-03     455.455E-03    -226.577E-03    -228.804E-03    -226.568E-03     455.446E-03    -228.804E-03     4.93781E-03    -159.654E+06    -161.848E+06    -300.948E+06    -161.990E+06    -300.805E+06    -159.654E+06    -1.43146E+06         56.3555
             240    -164.221E-09     141.141E-03     97.4909E-03    -12.8884E-03    -70.8874E-03     34.0664E-03     36.1152E-03    -56.4665E-03     81.1966E-03     459.249E-03    -228.732E-03    -230.276E-03    -229.118E-03     459.242E-03    -229.883E-03     4.58179E-03    -157.188E+06    -161.884E+06    -305.632E+06    -158.888E+06    -305.459E+06    -160.358E+06    -687.739E+03         56.5307
             241     653.089E-09     139.557E-03     95.6820E-03     3.26721E-03    -98.0362E-03    -3.09581E-03    -3.21469E-03     7.22346E-03     189.748E-03     459.745E-03    -229.204E-03    -230.655E-03    -230.650E-03     459.740E-03    -229.204E-03     3.90925E-03    -151.727E+06    -157.922E+06    -306.178E+06    -154.862E+06    -306.068E+06    -154.897E+06     159.882E+03         56.6939
             242     1.15028E-06     137.975E-03     71.3528E-03     13.3289E-03    -88.3057E-03    -31.1528E-03    -43.8240E-03     71.3528E-03     92.1602E-03     459.364E-03    -229.318E-03    -230.428E-03    -230.425E-03     459.362E-03    -229.318E-03     2.81849E-03    -150.888E+06    -156.783E+06    -308.640E+06    -153.968E+06    -308.585E+06    -153.758E+06    -2.39579E+06         56.8176
             243    -1.04407E-06     136.393E-03     69.8695E-03    -3.40399E-03    -64.1573E-03    -41.6306E-03    -6.72478E-03     50.6636E-03    -38.1011E-03     460.609E-03    -230.021E-03    -231.052E-03    -230.071E-03     460.608E-03    -231.001E-03     928.672E-06    -143.242E+06    -148.909E+06    -306.759E+06    -146.119E+06    -306.678E+06    -146.113E+06     2.05643E+06         56.9204
             244    -88.6308E-09     134.802E-03     89.3915E-03    -8.71609E-03    -78.3231E-03    -39.3191E-03     50.3875E-03    -8.71609E-03    -137.325E-03     461.700E-03    -230.427E-03    -231.984E-03    -230.426E-03     461.700E-03    -231.984E-03     332.664E-06    -139.787E+06    -145.221E+06    -304.658E+06    -142.710E+06    -304.531E+06    -142.424E+06     492.138E+03         57.0209
             245    -762.214E-09     133.204E-03     105.330E-03    -28.2938E-03    -64.9833E-03     24.6419E-03     15.7049E-03    -28.2938E-03    -139.777E-03     461.788E-03    -230.446E-03    -231.919E-03    -230.444E-03     461.786E-03    -231.919E-03     2.37842E-03    -139.997E+06    -144.426E+06    -302.744E+06    -141.874E+06    -302.660E+06    -142.634E+06    -314.640E+03         57.1218
             246    -237.699E-09     131.615E-03     121.649E-03    -40.6412E-03    -55.9875E-03     111.790E-03    -43.8657E-03    -42.9039E-03    -65.8467E-03     461.352E-03    -230.377E-03    -231.342E-03    -230.444E-03     461.348E-03    -231.272E-03     2.90727E-03    -138.247E+06    -141.218E+06    -295.165E+06    -140.080E+06    -295.125E+06    -139.425E+06     2.19146E+06         57.2299
             247     562.630E-09     130.029E-03     157.711E-03    -6.92314E-03    -130.035E-03     153.231E-03    -2.44332E-03    -130.035E-03     7.52656E-03     461.331E-03    -230.442E-03    -231.282E-03    -231.279E-03     461.328E-03    -230.442E-03     2.94144E-03    -138.106E+06    -139.573E+06    -291.435E+06    -138.400E+06    -291.430E+06    -139.284E+06     887.349E+03         57.3068
             248     625.581E-09     128.440E-03     181.661E-03     50.6261E-03    -219.358E-03     175.293E-03     56.9941E-03    -219.358E-03    -827.324E-06     462.611E-03    -230.716E-03    -232.477E-03    -232.475E-03     462.609E-03    -230.716E-03     2.22002E-03    -138.892E+06    -139.954E+06    -287.640E+06    -139.189E+06    -287.633E+06    -139.665E+06     1.03609E+06         57.2939
             249     669.139E-09     126.848E-03     240.782E-03    -7.99052E-03    -227.760E-03     205.136E-03     27.6547E-03    -227.760E-03    -164.887E-03     463.744E-03    -231.685E-03    -232.918E-03    -232.918E-03     463.744E-03    -231.685E-03     929.793E-06    -137.210E+06    -138.205E+06    -282.384E+06    -137.236E+06    -282.358E+06    -138.205E+06     1.86524E+06         57.1886
             250    -530.903E-09     125.253E-03     264.251E-03    -97.0217E-03    -173.275E-03     173.861E-03    -6.63173E-03    -173.275E-03    -308.813E-03     463.647E-03    -232.030E-03    -232.570E-03    -232.270E-03     463.646E-03    -232.328E-03     1.96214E-03    -134.209E+06    -134.806E+06    -279.378E+06    -134.670E+06    -279.292E+06    -134.432E+06    -980.542E+03         57.0791
             251    -273.468E-09     123.658E-03     192.292E-03    -97.9894E-03    -107.879E-03     81.6482E-03     8.38186E-03    -103.607E-03    -280.355E-03     462.733E-03    -231.512E-03    -232.018E-03    -231.716E-03     462.729E-03    -231.809E-03     3.40693E-03    -138.696E+06    -139.905E+06    -284.339E+06    -139.991E+06    -284.253E+06    -138.696E+06    -983.494E+03         57.0414
             252     762.270E-09     122.066E-03     123.464E-03    -2.90663E-03    -129.860E-03    -35.2618E-03     28.8659E-03    -2.90663E-03    -237.410E-03     462.287E-03    -230.829E-03    -231.749E-03    -231.745E-03     462.283E-03    -230.829E-03     3.37018E-03    -137.517E+06    -139.538E+06    -278.461E+06    -138.376E+06    -278.438E+06    -138.703E+06     1.69132E+06         57.0434
             253     140.096E-09     120.479E-03     151.179E-03     70.0790E-03    -220.017E-03    -151.868E-03     24.4887E-03     128.620E-03    -255.296E-03     462.472E-03    -231.042E-03    -231.809E-03    -231.807E-03     462.471E-03    -231.042E-03     1.79296E-03    -136.975E+06    -139.214E+06    -272.640E+06    -138.043E+06    -272.626E+06    -138.160E+06    -361.609E+03         57.0452
             254    -764.982E-09     118.890E-03     204.044E-03     92.2006E-03    -292.039E-03    -231.865E-03     32.0263E-03     204.044E-03    -278.987E-03     463.296E-03    -231.818E-03    -232.219E-03    -231.872E-03     463.295E-03    -232.164E-03     1.59713E-03    -138.830E+06    -140.148E+06    -275.471E+06    -139.907E+06    -275.447E+06    -139.094E+06    -1.79088E+06         57.0512
             255     107.616E-09     117.287E-03     230.001E-03     139.030E-03    -359.885E-03    -254.208E-03     33.3530E-03     230.001E-03    -401.288E-03     463.553E-03    -231.641E-03    -232.401E-03    -232.053E-03     463.551E-03    -231.987E-03     2.41957E-03    -138.738E+06    -139.409E+06    -274.190E+06    -138.768E+06    -274.160E+06    -139.409E+06     106.156E+03         57.0638
             256     690.893E-09     115.699E-03     215.070E-03     166.925E-03    -366.991E-03    -225.507E-03     25.4417E-03     215.070E-03    -471.256E-03     463.486E-03    -231.311E-03    -232.261E-03    -232.260E-03     463.485E-03    -231.311E-03     1.92512E-03    -137.610E+06    -138.686E+06    -275.009E+06    -138.297E+06    -274.991E+06    -138.016E+06     1.36025E+06         57.0749
             257     29.7498E-12     114.110E-03     173.973E-03     159.355E-03    -320.422E-03    -188.280E-03     31.3554E-03     169.830E-03    -431.164E-03     463.900E-03    -231.572E-03    -232.282E-03    -232.282E-03     463.900E-03    -231.572E-03     991.113E-06    -138.030E+06    -139.406E+06    -274.162E+06    -138.725E+06    -274.137E+06    -138.737E+06    -927.587E+03         57.0850
             258     260.303E-09     112.513E-03     158.159E-03     150.209E-03    -294.654E-03    -171.165E-03     30.8627E-03     154.016E-03    -400.967E-03     464.162E-03    -231.824E-03    -232.312E-03    -231.997E-03     464.160E-03    -232.138E-03     1.67069E-03    -140.572E+06    -141.466E+06    -275.210E+06    -140.606E+06    -275.176E+06    -141.466E+06    -387.170E+03         57.1008
             259    -981.458E-09     110.916E-03     147.438E-03     121.710E-03    -257.666E-03    -163.876E-03     27.9196E-03     147.438E-03    -326.426E-03     463.862E-03    -231.550E-03    -232.394E-03    -231.549E-03     463.860E-03    -232.394E-03     2.20609E-03    -137.159E+06    -138.119E+06    -268.856E+06    -137.969E+06    -268.817E+06    -137.347E+06     2.16522E+06         57.1124
             260    -70.8175E-09     109.321E-03     144.408E-03     103.040E-03    -239.357E-03    -141.903E-03     25.0331E-03     124.961E-03    -318.550E-03     462.947E-03    -230.746E-03    -232.457E-03    -231.926E-03     462.946E-03    -231.277E-03     1.68406E-03    -138.826E+06    -139.644E+06    -267.674E+06    -139.690E+06    -267.627E+06    -138.826E+06     201.140E+03         57.1088
             261     1.90382E-06     107.731E-03     151.430E-03     109.095E-03    -246.966E-03    -125.635E-03     30.0996E-03     109.095E-03    -366.620E-03     462.868E-03    -230.759E-03    -232.320E-03    -232.319E-03     462.866E-03    -230.759E-03     2.18392E-03    -139.379E+06    -139.600E+06    -271.695E+06    -139.483E+06    -271.638E+06    -139.554E+06    -2.71139E+06         57.0996
             262    -827.816E-09     106.136E-03     163.152E-03     109.187E-03    -265.420E-03    -146.112E-03     12.7667E-03     140.265E-03    -364.343E-03     462.630E-03    -230.820E-03    -232.291E-03    -231.199E-03     462.628E-03    -231.910E-03     2.28877E-03    -140.768E+06    -141.214E+06    -274.735E+06    -140.840E+06    -274.663E+06    -141.214E+06    -92.3017E+03         57.1009
             263    -634.976E-09     104.548E-03     164.621E-03     115.534E-03    -271.165E-03    -152.515E-03     14.8938E-03     146.612E-03    -368.333E-03     463.352E-03    -231.116E-03    -232.660E-03    -231.115E-03     463.351E-03    -232.660E-03     1.79891E-03    -140.266E+06    -141.122E+06    -273.200E+06    -140.302E+06    -273.163E+06    -141.122E+06     1.92304E+06         57.1150
             264    -55.8506E-09     102.951E-03     122.243E-03     84.1674E-03    -191.845E-03    -115.935E-03     26.2674E-03     104.233E-03    -256.075E-03     463.675E-03    -231.521E-03    -232.138E-03    -231.682E-03     463.675E-03    -231.976E-03     1.49391E-03    -133.104E+06    -134.825E+06    -266.076E+06    -134.341E+06    -265.975E+06    -133.689E+06    -2.14829E+06         57.1335
             265     165.236E-09     101.356E-03     72.0039E-03     28.8307E-03    -87.1560E-03    -50.2068E-03     14.9890E-03     48.8964E-03    -120.091E-03     462.019E-03    -230.665E-03    -231.528E-03    -231.528E-03     462.018E-03    -230.665E-03     882.939E-06    -137.751E+06    -141.667E+06    -271.337E+06    -139.084E+06    -271.140E+06    -140.530E+06    -27.5008E+03         57.1454
             266     575.069E-09     99.7731E-03     124.726E-03    -38.3862E-03    -68.0178E-03     32.8869E-03     23.8211E-03    -38.3862E-03    -189.447E-03     462.329E-03    -230.778E-03    -231.950E-03    -231.478E-03     462.329E-03    -231.249E-03    -337.965E-06    -137.074E+06    -143.192E+06    -272.333E+06    -140.531E+06    -272.215E+06    -139.853E+06     3.69570E+06         57.1550
             267    -940.558E-09     98.1792E-03     210.338E-03    -74.1759E-03    -124.464E-03     104.886E-03     29.8387E-03    -123.027E-03    -274.094E-03     463.797E-03    -231.740E-03    -232.293E-03    -231.739E-03     463.797E-03    -232.293E-03    -1.01991E-03    -132.959E+06    -139.028E+06    -269.859E+06    -136.359E+06    -269.796E+06    -135.689E+06    -515.433E+03         57.1679
             268     916.219E-09     96.5794E-03     244.687E-03    -57.3116E-03    -178.524E-03     158.370E-03     29.0059E-03    -178.524E-03    -272.216E-03     464.201E-03    -231.972E-03    -232.624E-03    -232.538E-03     464.198E-03    -232.054E-03     1.64761E-03    -136.010E+06    -141.297E+06    -270.230E+06    -138.668E+06    -270.127E+06    -138.740E+06     301.098E+03         57.1711
             269    -196.090E-09     94.9850E-03     251.355E-03    -86.3298E-03    -161.665E-03     173.757E-03    -8.73237E-03    -161.665E-03    -283.322E-03     464.363E-03    -231.890E-03    -232.893E-03    -232.456E-03     464.360E-03    -232.323E-03     2.35074E-03    -137.879E+06    -142.666E+06    -268.855E+06    -140.523E+06    -268.767E+06    -140.110E+06     649.428E+03         57.1601
             270    -443.178E-09     93.3921E-03     226.527E-03    -93.5314E-03    -126.663E-03     143.284E-03    -10.2881E-03    -126.663E-03    -277.107E-03     463.908E-03    -231.657E-03    -232.409E-03    -231.656E-03     463.908E-03    -232.409E-03     1.24005E-03    -139.045E+06    -142.880E+06    -268.792E+06    -140.694E+06    -268.746E+06    -141.277E+06    -247.776E+03         57.1441
             271     216.965E-09     91.7973E-03     154.940E-03    -54.7226E-03    -86.2283E-03     74.0783E-03     24.7908E-03    -84.8798E-03    -202.776E-03     463.288E-03    -230.990E-03    -232.404E-03    -232.085E-03     463.287E-03    -231.308E-03     1.52025E-03    -136.653E+06    -139.547E+06    -268.618E+06    -138.300E+06    -268.574E+06    -137.944E+06    -223.988E+03         57.1320
             272     1.21533E-06     90.2043E-03     99.3093E-03     18.1379E-03    -105.711E-03    -30.7619E-03     24.3598E-03     18.1379E-03    -192.150E-03     463.130E-03    -230.168E-03    -233.038E-03    -233.037E-03     463.129E-03    -230.168E-03     1.66934E-03    -138.794E+06    -140.218E+06    -272.699E+06    -138.956E+06    -272.671E+06    -140.085E+06    -890.592E+03         57.1331
             273     1.35870E-06     88.6100E-03     107.734E-03     94.5319E-03    -185.141E-03    -128.003E-03     50.5957E-03     94.5319E-03    -223.728E-03     463.639E-03    -230.835E-03    -232.756E-03    -232.753E-03     463.636E-03    -230.835E-03     3.03973E-03    -138.290E+06    -138.695E+06    -272.237E+06    -138.437E+06    -272.223E+06    -138.562E+06    -443.559E+03         57.1452
             274     13.4765E-03     86.8689E-03     30.4021E-03    -5.55885E-03    -14.3189E-03    -7.68203E-03     23.7652E-03    -5.55885E-03     3.20402E-03     474.015E-03    -232.634E-03    -241.395E-03    -233.513E-03     466.133E-03    -232.634E-03     145.815E-03     85.8531E+06     49.1169E+06    -5.77271E+06    -5.61601E+06     48.9602E+06     85.8531E+06    -241.351E+03         79.9743
             275     12.6837E-03     86.5987E-03     29.6639E-03    -4.98961E-03    -13.7337E-03    -5.95462E-03     22.5905E-03    -5.69520E-03     573.844E-06     473.745E-03    -232.804E-03    -241.106E-03    -232.907E-03     465.546E-03    -232.804E-03     149.573E-03     82.2673E+06     45.8872E+06    -11.0404E+06    -10.8881E+06     45.7349E+06     82.2673E+06    -336.970E+03         76.1145
             276     11.8899E-03     86.4265E-03     28.2335E-03    -5.16095E-03    -11.5348E-03    -7.89689E-03     25.3012E-03    -5.86654E-03     4.72940E-03     470.159E-03    -232.691E-03    -237.346E-03    -232.158E-03     464.971E-03    -232.691E-03     120.717E-03     80.6157E+06     45.8856E+06    -16.6080E+06    -16.5014E+06     45.7790E+06     80.6157E+06    -63.5163E+03         71.5706
             277     11.0979E-03     86.2560E-03     25.3658E-03    -4.92173E-03    -9.27099E-03    -6.96213E-03     24.1517E-03    -6.01654E-03    -3.41839E-03     470.347E-03    -232.309E-03    -236.931E-03    -232.215E-03     465.631E-03    -232.309E-03     114.948E-03     77.4129E+06     38.2881E+06    -23.2369E+06    -23.0973E+06     38.1484E+06     77.4129E+06     245.956E+03         67.4719
             278     10.3045E-03     86.1152E-03     23.1117E-03    -2.94598E-03    -9.30833E-03    -5.75255E-03     22.8156E-03    -6.20561E-03     559.644E-06     468.589E-03    -232.629E-03    -235.243E-03    -231.374E-03     464.719E-03    -232.629E-03     103.995E-03     70.8531E+06     29.0437E+06    -31.1257E+06    -30.9581E+06     28.8761E+06     70.8531E+06     36.8183E+03         64.3998
             279     9.51126E-03     85.9795E-03     27.3588E-03    -2.56681E-03    -13.5882E-03    -8.99937E-03     26.4091E-03    -6.20595E-03     3.21000E-03     466.712E-03    -232.532E-03    -234.240E-03    -230.296E-03     463.534E-03    -233.298E-03     93.9812E-03     61.5199E+06     27.1299E+06    -39.2415E+06    -39.1063E+06     26.9948E+06     61.5199E+06    -387.948E+03         62.3185
             280     8.71803E-03     85.8625E-03     31.5315E-03    -4.44317E-03    -15.5352E-03    -8.85136E-03     26.3219E-03    -5.91750E-03    -12.6454E-03     465.141E-03    -232.206E-03    -233.568E-03    -230.159E-03     462.497E-03    -232.972E-03     85.7073E-03     50.3951E+06     25.0602E+06    -47.8128E+06    -47.7349E+06     24.9823E+06     50.3951E+06    -122.897E+03         60.9469
             281     7.92429E-03     85.7611E-03     26.8227E-03    -4.04256E-03    -10.9023E-03    -3.64269E-03     21.2518E-03    -5.73122E-03    -7.68093E-03     466.389E-03    -232.099E-03    -233.183E-03    -230.502E-03     464.195E-03    -232.586E-03     78.0334E-03     38.2028E+06     18.4672E+06    -57.0444E+06    -57.0004E+06     18.4232E+06     38.2028E+06     302.887E+03         60.0611
             282     7.13184E-03     85.6670E-03     22.1331E-03    -2.94851E-03    -8.09817E-03     1.82609E-03     15.3238E-03    -6.06340E-03    -8.55917E-03     466.724E-03    -231.667E-03    -233.135E-03    -229.974E-03     465.031E-03    -233.135E-03     68.5406E-03     25.0933E+06     7.63273E+06    -67.2044E+06    -67.1852E+06     7.61356E+06     25.0933E+06     451.967E+03         59.4893
             283     6.33876E-03     85.5885E-03     26.3971E-03    -4.01037E-03    -11.8608E-03    -1.14565E-03     18.3229E-03    -6.65134E-03    -28.1689E-03     465.386E-03    -231.726E-03    -233.200E-03    -230.948E-03     464.116E-03    -232.707E-03     59.2773E-03     7.39183E+06    -31.4631E+06    -78.0965E+06    -78.0743E+06    -31.4852E+06     7.39183E+06     52.0296E+03         59.0721
             284     5.54599E-03     85.5265E-03     26.8203E-03    -4.08133E-03    -12.3621E-03    -5.23461E-03     22.6032E-03    -6.99173E-03    -3.11419E-03     464.688E-03    -232.189E-03    -233.667E-03    -231.833E-03     463.840E-03    -233.174E-03     48.2195E-03    -13.5651E+06    -79.3261E+06    -91.8336E+06    -88.6557E+06    -82.5041E+06    -13.5651E+06    -329.090E+03         58.7206
             285     4.75477E-03     85.4821E-03     25.7090E-03    -3.05168E-03    -12.2695E-03    -4.14108E-03     21.8634E-03    -7.33453E-03    -1.19935E-03     463.888E-03    -231.919E-03    -233.803E-03    -231.405E-03     463.374E-03    -233.803E-03     37.5561E-03    -35.8039E+06    -99.5427E+06    -114.474E+06    -99.5610E+06    -114.456E+06    -35.8039E+06    -315.574E+03         58.4211
             286     3.96171E-03     85.4495E-03     27.7579E-03    -4.98456E-03    -10.9697E-03    -5.84064E-03     25.4490E-03    -7.80467E-03    -7.17078E-03     464.627E-03    -231.744E-03    -234.066E-03    -231.454E-03     464.337E-03    -234.066E-03     27.9111E-03    -59.6088E+06    -110.032E+06    -142.367E+06    -110.036E+06    -142.362E+06    -59.6088E+06    -311.072E+03         58.1845
             287     3.16926E-03     85.4328E-03     38.4883E-03    -7.07072E-03    -17.6786E-03    -13.0611E-03     34.1037E-03    -7.30363E-03     24.2084E-03     466.651E-03    -232.051E-03    -233.608E-03    -231.981E-03     466.522E-03    -233.549E-03     18.5076E-03    -83.1750E+06    -118.878E+06    -172.039E+06    -118.886E+06    -172.031E+06    -83.1750E+06    -7.27030E+03         57.9590
             288     2.37691E-03     85.4232E-03     48.0774E-03    -4.17520E-03    -31.9067E-03    -18.7126E-03     34.8833E-03    -4.17520E-03    -13.5526E-03     465.942E-03    -232.477E-03    -233.413E-03    -233.291E-03     465.895E-03    -232.552E-03     10.8726E-03    -106.138E+06    -126.639E+06    -201.244E+06    -126.671E+06    -201.212E+06    -106.138E+06    -49.9838E+03         57.6988
             289     1.58459E-03     85.4227E-03     55.9545E-03     1.51763E-03    -48.9779E-03    -11.5960E-03     18.5727E-03     1.51763E-03     26.0341E-03     464.081E-03    -231.908E-03    -232.895E-03    -232.882E-03     464.067E-03    -231.908E-03     5.81902E-03    -123.919E+06    -133.043E+06    -231.223E+06    -133.069E+06    -231.197E+06    -123.919E+06    -68.0486E+03         57.4315
             290     792.507E-06     85.4218E-03     115.761E-03     28.3906E-03    -138.227E-03    -68.1820E-03    -3.74951E-03     77.8570E-03    -68.5524E-03     464.036E-03    -231.654E-03    -232.326E-03    -232.046E-03     464.033E-03    -231.931E-03     2.16670E-03    -134.732E+06    -137.605E+06    -259.805E+06    -137.608E+06    -259.802E+06    -134.732E+06     417.133E+03         57.2242
             291     13.4766E-03     85.2751E-03     31.6959E-03    -6.74231E-03    -14.0172E-03    -5.53674E-03     23.2154E-03    -6.74231E-03    -1.29875E-03     474.314E-03    -232.629E-03    -241.398E-03    -233.547E-03     466.463E-03    -232.629E-03     145.552E-03     85.4502E+06     49.4971E+06    -5.12660E+06    -4.99707E+06     49.3676E+06     85.4502E+06    -179.571E+03         79.9529
             292     12.6834E-03     85.0044E-03     30.2763E-03    -6.29209E-03    -12.5826E-03    -4.42804E-03     22.8274E-03    -6.99769E-03    -6.61517E-03     473.789E-03    -232.749E-03    -241.060E-03    -232.878E-03     465.607E-03    -232.749E-03     149.455E-03     82.7782E+06     46.2389E+06    -10.7339E+06    -10.5742E+06     46.0792E+06     82.7782E+06    -648.846E+03         76.0979
             293     11.8909E-03     84.8333E-03     29.1503E-03    -6.59001E-03    -10.9577E-03    -3.37385E-03     22.2721E-03    -7.29561E-03    -5.19568E-03     470.151E-03    -232.684E-03    -237.279E-03    -232.042E-03     464.915E-03    -232.684E-03     121.266E-03     80.7546E+06     45.0111E+06    -17.0191E+06    -16.8798E+06     44.8718E+06     80.7546E+06    -100.108E+03         71.5553
             294     11.0973E-03     84.6618E-03     30.9570E-03    -7.49027E-03    -11.7662E-03    -7.01167E-03     26.2024E-03    -7.49027E-03    -16.1897E-03     470.329E-03    -232.350E-03    -236.694E-03    -231.938E-03     465.573E-03    -232.350E-03     115.379E-03     76.5537E+06     37.5922E+06    -24.2933E+06    -24.1251E+06     37.4240E+06     76.5537E+06     224.317E+03         67.4568
             295     10.3040E-03     84.5221E-03     33.6275E-03    -7.27362E-03    -14.6286E-03    -14.2493E-03     33.2482E-03    -7.27362E-03    -1.75642E-03     468.443E-03    -232.670E-03    -234.765E-03    -230.908E-03     464.587E-03    -232.670E-03     103.781E-03     69.9160E+06     29.7680E+06    -31.7095E+06    -31.5091E+06     29.5675E+06     69.9160E+06     58.8727E+03         64.3830
             296     9.51080E-03     84.3854E-03     34.4819E-03    -6.55529E-03    -16.6240E-03    -15.6630E-03     33.6304E-03    -6.66475E-03     1.52333E-03     466.752E-03    -232.728E-03    -233.964E-03    -230.201E-03     463.602E-03    -233.341E-03     93.5340E-03     59.9631E+06     27.7765E+06    -40.0343E+06    -39.8989E+06     27.6411E+06     59.9631E+06     22.2097E+03         62.3029
             297     8.71813E-03     84.2702E-03     30.7053E-03    -5.15306E-03    -14.0125E-03    -12.1786E-03     29.8227E-03    -6.10437E-03     1.53643E-03     465.195E-03    -232.355E-03    -233.671E-03    -230.437E-03     462.574E-03    -232.968E-03     85.3687E-03     48.9897E+06     24.6378E+06    -48.9502E+06    -48.9045E+06     24.5921E+06     48.9897E+06    -241.774E+03         60.9389
             298     7.92488E-03     84.1669E-03     29.4080E-03    -4.69971E-03    -13.1919E-03    -8.48855E-03     25.8825E-03    -5.87756E-03     14.1629E-03     466.309E-03    -231.960E-03    -233.335E-03    -230.469E-03     464.114E-03    -232.632E-03     78.0323E-03     38.0203E+06     17.6092E+06    -57.9002E+06    -57.8691E+06     17.5782E+06     38.0203E+06    -88.3882E+03         60.0591
             299     7.13171E-03     84.0743E-03     27.8769E-03    -4.22171E-03    -12.5274E-03    -5.63901E-03     22.7508E-03    -5.98393E-03     20.4025E-03     466.642E-03    -231.561E-03    -233.218E-03    -229.868E-03     464.949E-03    -233.218E-03     68.5315E-03     25.8326E+06     7.60140E+06    -67.4461E+06    -67.4266E+06     7.58183E+06     25.8326E+06     360.042E+03         59.4874
             300     6.33909E-03     83.9953E-03     24.7885E-03    -3.67268E-03    -10.3678E-03    -4.20417E-03     21.2658E-03    -6.31365E-03     8.31249E-03     465.104E-03    -231.797E-03    -233.236E-03    -230.978E-03     463.831E-03    -232.782E-03     59.3299E-03     8.39999E+06    -30.5227E+06    -77.4697E+06    -77.4664E+06    -30.5260E+06     8.39999E+06     308.052E+03         59.0696
             301     5.54601E-03     83.9330E-03     24.8870E-03    -3.82110E-03    -10.3337E-03    -4.21402E-03     21.6778E-03    -6.73149E-03     12.1397E-03     464.268E-03    -232.033E-03    -233.702E-03    -231.628E-03     463.410E-03    -233.249E-03     48.5060E-03    -13.8811E+06    -79.0340E+06     -91.671E+06    -88.6285E+06    -82.0765E+06    -13.8811E+06    -116.138E+03         58.7201
             302     4.75286E-03     83.8866E-03     26.8803E-03    -2.70315E-03    -12.9815E-03    -6.48414E-03     24.6658E-03    -6.98601E-03     2.55480E-03     463.777E-03    -231.740E-03    -233.856E-03    -231.216E-03     463.253E-03    -233.856E-03     37.8798E-03    -36.5062E+06    -99.7675E+06    -114.756E+06    -99.7894E+06    -114.734E+06    -36.5062E+06    -188.881E+03         58.4257
             303     3.96084E-03     83.8561E-03     29.6036E-03    -4.30746E-03    -13.1533E-03    -7.96536E-03     27.0029E-03    -6.89467E-03    -12.8922E-03     464.755E-03    -231.789E-03    -234.227E-03    -231.496E-03     464.463E-03    -234.227E-03     28.0376E-03    -59.9020E+06    -109.684E+06    -142.540E+06    -109.698E+06    -142.526E+06    -59.9020E+06    -357.726E+03         58.1982
             304     3.16837E-03     83.8377E-03     35.8861E-03    -6.93875E-03    -16.2947E-03    -4.90311E-03     24.5654E-03    -7.00970E-03     18.3778E-03     466.940E-03    -232.217E-03    -233.862E-03    -232.146E-03     466.810E-03    -233.803E-03     18.6482E-03    -83.4473E+06    -119.195E+06    -172.496E+06    -119.207E+06    -172.484E+06    -83.4473E+06    -391.538E+03         57.9800
             305     2.37613E-03     83.8306E-03     50.3883E-03    -8.15412E-03    -30.8388E-03    -2.41439E-03     22.0348E-03    -8.22506E-03    -23.4676E-03     466.414E-03    -232.653E-03    -233.724E-03    -233.626E-03     466.364E-03    -232.701E-03     11.3760E-03    -105.800E+06    -127.756E+06    -201.684E+06    -127.769E+06    -201.671E+06    -105.800E+06     513.406E+03         57.7176
             306     1.58419E-03     83.8280E-03     66.0424E-03    -11.4603E-03    -45.5136E-03    -2.08859E-03     22.7268E-03    -11.5698E-03     5.08574E-03     464.248E-03    -231.855E-03    -233.006E-03    -232.861E-03     464.233E-03    -231.984E-03     6.35205E-03    -124.067E+06    -133.874E+06    -230.461E+06    -133.888E+06    -230.447E+06    -124.067E+06     1.05076E+06         57.4450
             307     791.831E-06     83.8282E-03     97.6886E-03     3.04064E-03    -91.1656E-03    -30.7320E-03     37.3645E-03     2.93115E-03    -60.9538E-03     464.049E-03    -231.525E-03    -232.453E-03    -231.788E-03     464.044E-03    -232.186E-03     3.03329E-03    -134.717E+06    -137.395E+06    -258.834E+06    -137.212E+06    -258.824E+06    -134.910E+06     308.409E+03         57.2380
             308     13.4773E-03     83.6815E-03     29.6829E-03    -7.36084E-03    -11.9019E-03    -7.26930E-03     25.5430E-03    -7.85354E-03     5.07152E-06     473.991E-03    -232.609E-03    -241.305E-03    -233.460E-03     466.146E-03    -232.609E-03     145.365E-03     86.4376E+06     50.0915E+06    -5.26954E+06    -5.20347E+06     50.0254E+06     86.4376E+06    -210.642E+03         79.9279
             309     12.6839E-03     83.4102E-03     30.8052E-03    -7.99769E-03    -11.6726E-03    -8.95884E-03     28.0915E-03    -7.99769E-03    -3.03130E-03     473.335E-03    -232.684E-03    -240.758E-03    -232.549E-03     465.127E-03    -232.684E-03     149.635E-03     83.0796E+06     46.2201E+06    -11.3087E+06    -11.1323E+06     46.0438E+06     83.0796E+06     252.890E+03         76.0779
             310     11.8896E-03     83.2387E-03     33.4581E-03    -8.05399E-03    -14.5299E-03    -9.62190E-03     28.5502E-03    -8.05399E-03    -4.32771E-03     469.997E-03    -232.679E-03    -236.923E-03    -231.671E-03     464.745E-03    -232.679E-03     121.402E-03     80.0225E+06     44.6004E+06    -18.2441E+06    -18.0264E+06     44.3827E+06     80.0225E+06     254.112E+03         71.5398
             311     11.0971E-03     83.0686E-03     35.3346E-03    -7.97426E-03    -16.6511E-03    -11.1082E-03     29.7917E-03    -7.97426E-03    -3.49632E-03     470.264E-03    -232.424E-03    -236.329E-03    -231.615E-03     465.550E-03    -232.424E-03     114.800E-03     76.4012E+06     38.1568E+06    -24.7632E+06    -24.6257E+06     38.0193E+06     76.4012E+06    -743.383E+03         67.4450
             312     10.3039E-03     82.9282E-03     31.7007E-03    -6.43096E-03    -14.1655E-03    -10.3625E-03     29.2925E-03    -7.82578E-03     2.29688E-03     468.464E-03    -232.744E-03    -234.435E-03    -230.623E-03     464.652E-03    -232.744E-03     103.176E-03     70.3529E+06     28.8313E+06    -31.7738E+06    -31.6478E+06     28.7053E+06     70.3529E+06    -406.744E+03         64.3761
             313     9.51124E-03     82.7927E-03     25.5132E-03    -4.20007E-03    -10.5467E-03    -4.80794E-03     23.5440E-03    -7.96963E-03     187.283E-06     466.993E-03    -232.785E-03    -233.855E-03    -230.078E-03     463.830E-03    -233.398E-03     93.7609E-03     60.7424E+06     27.2350E+06    -39.6826E+06    -39.5441E+06     27.0965E+06     60.7424E+06     661.563E+03         62.3021
             314     8.71854E-03     82.6764E-03     23.6998E-03    -3.63501E-03    -8.55293E-03    -2.37808E-03     22.4428E-03    -8.55293E-03     7.70343E-03     465.384E-03    -232.407E-03    -233.667E-03    -230.397E-03     462.728E-03    -233.020E-03     85.9485E-03     49.5942E+06     25.6340E+06    -48.2720E+06    -48.2041E+06     25.5661E+06     49.5942E+06     253.749E+03         60.9395
             315     7.92500E-03     82.5741E-03     30.7579E-03    -5.91281E-03    -13.0033E-03    -6.49229E-03     27.4845E-03    -9.15043E-03     11.1116E-03     466.189E-03    -231.904E-03    -233.314E-03    -230.324E-03     463.962E-03    -232.668E-03     78.5838E-03     37.7715E+06     17.5338E+06    -57.9627E+06    -57.9465E+06     17.5175E+06     37.7715E+06    -181.531E+03         60.0581
             316     7.13120E-03     82.4807E-03     35.8943E-03    -8.66218E-03    -16.1563E-03    -11.0288E-03     31.4612E-03    -9.35661E-03     15.6574E-03     466.349E-03    -231.409E-03    -233.316E-03    -229.702E-03     464.641E-03    -233.316E-03     68.7973E-03     25.4095E+06     7.05779E+06    -68.0789E+06    -68.0608E+06     7.03963E+06     25.4095E+06    -292.788E+03         59.4878
             317     6.33823E-03     82.4009E-03     36.3936E-03    -9.16003E-03    -15.8303E-03    -13.0000E-03     33.5634E-03    -9.16003E-03     5.49933E-03     465.175E-03    -231.729E-03    -233.356E-03    -230.933E-03     463.894E-03    -232.871E-03     59.5348E-03     8.30809E+06    -30.5673E+06    -78.3222E+06    -78.3112E+06    -30.5784E+06     8.30809E+06    -96.1688E+03         59.0743
             318     5.54521E-03     82.3392E-03     38.2620E-03    -8.60255E-03    -17.7379E-03    -14.3573E-03     34.8815E-03    -8.60255E-03     14.6937E-03     464.514E-03    -232.146E-03    -233.737E-03    -231.776E-03     463.658E-03    -233.252E-03     48.4049E-03    -13.9512E+06    -78.7209E+06    -91.9283E+06    -89.0283E+06    -81.6210E+06    -13.9512E+06     182.657E+03         58.7279
             319     4.75295E-03     82.2930E-03     37.1901E-03    -7.61980E-03    -17.5089E-03    -15.1585E-03     34.8397E-03    -7.61980E-03     11.5909E-03     463.704E-03    -231.796E-03    -233.878E-03    -231.287E-03     463.195E-03    -233.878E-03     37.3359E-03    -36.4834E+06    -99.4838E+06    -114.333E+06    -99.5107E+06    -114.306E+06    -36.4834E+06    -24.7847E+03         58.4339
             320     3.96044E-03     82.2616E-03     31.4998E-03    -6.62486E-03    -13.4169E-03    -10.7406E-03     28.8235E-03    -6.62486E-03    -7.37941E-03     464.808E-03    -231.774E-03    -234.359E-03    -231.494E-03     464.528E-03    -234.359E-03     27.3634E-03    -59.8653E+06    -109.981E+06    -142.816E+06    -110.011E+06    -142.786E+06    -59.8653E+06     -70.441E+03         58.2079
             321     3.16787E-03     82.2444E-03     30.1867E-03    -6.92528E-03    -12.6080E-03    -1.03833E-03     18.6880E-03    -6.99622E-03     16.0618E-03     467.237E-03    -232.374E-03    -234.072E-03    -232.254E-03     467.117E-03    -234.072E-03     17.8065E-03    -84.4620E+06    -120.110E+06    -173.451E+06    -120.130E+06    -173.431E+06    -84.4620E+06     417.627E+03         57.9917
             322     2.37593E-03     82.2354E-03     43.3287E-03    -9.96988E-03    -22.1481E-03     3.65328E-03     17.5982E-03    -10.0408E-03    -19.5783E-03     466.546E-03    -232.777E-03    -233.751E-03    -233.618E-03     466.504E-03    -232.868E-03     10.3660E-03    -106.647E+06    -127.644E+06    -202.162E+06    -127.650E+06    -202.157E+06    -106.647E+06     566.778E+03         57.7288
             323     1.58399E-03     82.2339E-03     68.3886E-03    -14.1090E-03    -40.2131E-03    -6.64143E-03     34.9264E-03    -14.2185E-03     15.4514E-03     464.555E-03    -232.012E-03    -233.103E-03    -232.962E-03     464.544E-03    -232.141E-03     5.38469E-03    -123.909E+06    -132.952E+06    -228.705E+06    -132.960E+06    -228.698E+06    -123.909E+06     252.346E+03         57.4572
             324     791.789E-06     82.2345E-03     125.915E-03    -33.2913E-03    -82.6294E-03     18.0324E-03     42.3293E-03    -50.3676E-03    -60.3693E-03     464.333E-03    -231.738E-03    -232.677E-03    -231.812E-03     464.330E-03    -232.599E-03     3.12048E-03    -133.787E+06    -136.148E+06    -257.522E+06    -135.967E+06    -257.510E+06    -133.980E+06    -119.247E+03         57.2562
             325     13.4771E-03     82.0868E-03     31.0900E-03    -8.26701E-03    -13.8027E-03    -7.74409E-03     25.5240E-03    -8.75971E-03    -33.6375E-06     473.814E-03    -232.625E-03    -241.411E-03    -233.533E-03     465.935E-03    -232.625E-03     145.673E-03     87.0319E+06     49.9378E+06    -5.57121E+06    -5.49346E+06     49.8601E+06     87.0319E+06     168.838E+03         79.8988
             326     12.6848E-03     81.8182E-03     29.9601E-03    -8.93652E-03    -11.4483E-03    -7.35047E-03     25.8623E-03    -8.93652E-03    -3.73855E-03     473.242E-03    -232.726E-03    -240.931E-03    -232.704E-03     465.016E-03    -232.726E-03     149.763E-03     82.7795E+06     45.8141E+06    -11.6738E+06    -11.4610E+06     45.6013E+06     82.7795E+06     352.638E+03         76.0557
             327     11.8913E-03     81.6464E-03     32.9210E-03    -9.00677E-03    -14.4301E-03    -11.1888E-03     29.6797E-03    -9.00677E-03    -334.167E-06     469.764E-03    -232.696E-03    -236.852E-03    -231.656E-03     464.568E-03    -232.696E-03     120.741E-03     80.5548E+06     45.5417E+06    -16.8384E+06    -16.6339E+06     45.3372E+06     80.5548E+06    -249.084E+03         71.5255
             328     11.0974E-03     81.4752E-03     32.9759E-03    -7.39153E-03    -15.8426E-03    -10.8921E-03     29.6150E-03    -8.98109E-03    -666.266E-06     469.833E-03    -232.454E-03    -235.808E-03    -231.140E-03     465.165E-03    -232.454E-03     114.198E-03     76.9376E+06     38.8133E+06    -23.3789E+06    -23.3176E+06     38.7520E+06     76.9376E+06    -226.656E+03         67.4396
             329     10.3045E-03     81.3359E-03     27.5737E-03    -6.06870E-03    -11.2882E-03    -5.71731E-03     25.1349E-03    -9.20075E-03     4.02043E-03     468.142E-03    -232.793E-03    -233.879E-03    -230.033E-03     464.296E-03    -232.793E-03     103.584E-03     69.7861E+06     27.7715E+06    -31.9022E+06    -31.8709E+06     27.7402E+06     69.7861E+06    -132.304E+03         64.3817
             330     9.51111E-03     81.2001E-03     29.3544E-03    -5.73083E-03    -13.0204E-03    -7.84906E-03     27.9908E-03    -9.53860E-03    -4.32141E-03     466.952E-03    -232.811E-03    -233.766E-03    -229.868E-03     463.720E-03    -233.477E-03     94.7666E-03     60.9491E+06     25.9579E+06    -40.2991E+06    -40.1842E+06      25.843E+06     60.9491E+06    -277.247E+03         62.3153
             331     8.71697E-03     81.0827E-03     33.6713E-03    -5.57020E-03    -17.1079E-03    -11.7200E-03     32.2500E-03    -9.53681E-03    -6.97360E-03     465.726E-03    -232.472E-03    -233.877E-03    -230.521E-03     463.036E-03    -233.138E-03     86.4987E-03     50.8298E+06     25.6123E+06    -48.2779E+06    -48.1815E+06     25.5159E+06     50.8298E+06     73.6123E+03         60.9519
             332     7.92363E-03     80.9821E-03     32.7078E-03    -6.82146E-03    -15.2684E-03    -11.5306E-03     31.3658E-03    -9.21721E-03    -14.6088E-03     466.572E-03    -232.329E-03    -233.428E-03    -230.849E-03     464.353E-03    -232.689E-03     78.5058E-03     38.7130E+06     18.4246E+06    -56.9205E+06    -56.9033E+06     18.4074E+06     38.7130E+06     75.4813E+03         60.0670
             333     7.13026E-03     80.8869E-03     30.8288E-03    -8.13830E-03    -11.8480E-03    -10.2863E-03     29.9615E-03    -8.83273E-03    -11.7478E-03     466.795E-03    -231.863E-03    -233.274E-03    -230.174E-03     465.106E-03    -233.274E-03     68.4513E-03     25.7413E+06     8.01954E+06    -66.9510E+06    -66.9351E+06     8.00362E+06     25.7413E+06    -125.002E+03         59.4962
             334     6.33751E-03     80.8073E-03     32.8804E-03    -8.47620E-03    -12.4142E-03    -9.74638E-03     30.2125E-03    -8.47620E-03    -18.4286E-03     465.928E-03    -231.817E-03    -233.392E-03    -231.104E-03     464.691E-03    -232.867E-03     58.5166E-03     8.06187E+06    -31.3227E+06    -77.9274E+06    -77.9129E+06    -31.3372E+06     8.06187E+06    -152.696E+03         59.0826
             335     5.54523E-03     80.7450E-03     31.4279E-03    -4.85589E-03    -14.3692E-03    -7.57533E-03     28.0894E-03    -8.31125E-03    -4.63520E-03     464.952E-03    -232.263E-03    -233.765E-03    -231.970E-03     464.133E-03    -233.240E-03     47.3655E-03    -13.5887E+06    -79.4673E+06    -91.4545E+06    -88.7066E+06    -82.2152E+06    -13.5887E+06     322.131E+03         58.7341
             336     4.75311E-03     80.6986E-03     28.5023E-03    -4.53129E-03    -12.6411E-03    -3.54908E-03     23.6265E-03    -8.74753E-03     1.78969E-03     463.604E-03    -231.796E-03    -233.839E-03    -231.307E-03     463.115E-03    -233.839E-03     36.5678E-03    -35.9470E+06    -99.2554E+06    -113.994E+06    -99.3552E+06    -113.894E+06    -35.9470E+06     598.816E+03         58.4350
             337     3.96024E-03     80.6677E-03     30.6549E-03    -8.99238E-03    -10.9629E-03    -4.22199E-03     24.6749E-03    -9.75326E-03    -11.8426E-03     465.092E-03    -231.741E-03    -234.262E-03    -231.479E-03     464.830E-03    -234.262E-03     26.4174E-03    -59.6433E+06    -109.590E+06    -143.023E+06    -109.656E+06    -142.957E+06    -59.6433E+06     448.010E+03         58.1961
             338     3.16856E-03     80.6481E-03     40.0323E-03    -9.98513E-03    -19.9914E-03    -12.8566E-03     32.8976E-03    -9.98513E-03     17.4033E-03     467.365E-03    -232.372E-03    -233.881E-03    -232.265E-03     467.259E-03    -233.881E-03     16.7438E-03    -83.4741E+06    -119.150E+06    -173.134E+06    -119.165E+06    -173.119E+06    -83.4741E+06     215.254E+03         57.9656
             339     2.37702E-03     80.6413E-03     53.0752E-03    -8.13243E-03    -34.6343E-03    -17.2049E-03     35.6457E-03    -8.13243E-03    -19.9238E-03     466.150E-03    -232.669E-03    -233.492E-03    -233.400E-03     466.113E-03    -232.723E-03     9.81191E-03    -106.026E+06    -127.576E+06    -202.025E+06    -127.582E+06    -202.019E+06    -106.026E+06     208.274E+03         57.7048
             340     1.58435E-03     80.6402E-03     72.2166E-03    -6.06536E-03    -53.5514E-03    -8.28525E-03     26.9505E-03    -6.06536E-03     29.8703E-03     464.330E-03    -231.991E-03    -232.989E-03    -232.978E-03     464.319E-03    -231.991E-03     5.14393E-03    -124.154E+06    -133.254E+06    -228.002E+06    -133.260E+06    -227.996E+06    -124.154E+06     149.876E+03         57.4438
             341     792.143E-06     80.6409E-03     181.780E-03    -33.5153E-03    -135.410E-03     94.0806E-03     23.6834E-03    -104.909E-03    -75.4731E-03     464.132E-03    -231.613E-03    -232.571E-03    -232.367E-03     464.129E-03    -231.814E-03     2.86863E-03    -134.366E+06    -136.423E+06    -257.790E+06    -136.451E+06    -257.762E+06    -134.366E+06     -710.21E+03         57.2465
             342     13.4771E-03     80.4954E-03     33.7604E-03    -9.15822E-03    -15.6716E-03    -8.75169E-03     27.1947E-03    -9.51250E-03     4.44705E-03     473.981E-03    -232.661E-03    -241.547E-03    -233.772E-03     466.207E-03    -232.661E-03     144.911E-03     86.2801E+06     49.7802E+06    -5.75807E+06    -5.62280E+06     49.6450E+06     86.2801E+06    -158.540E+03         79.8656
             343     12.6828E-03     80.2242E-03     32.9493E-03    -9.58461E-03    -14.6994E-03    -11.1990E-03     29.4489E-03    -9.58461E-03    -4.49936E-03     473.054E-03    -232.726E-03    -240.603E-03    -232.533E-03     464.984E-03    -232.726E-03     148.312E-03     82.8508E+06     46.3054E+06    -10.5009E+06    -10.2684E+06     46.0729E+06     82.8508E+06    -353.257E+03         76.0255
             344     11.8911E-03     80.0524E-03     29.5221E-03    -8.20998E-03    -12.5195E-03    -7.41698E-03     25.8916E-03    -9.68202E-03    -2.32145E-03     469.045E-03    -232.734E-03    -236.283E-03    -231.066E-03     463.829E-03    -232.734E-03     120.846E-03     80.7512E+06     45.6471E+06    -16.1220E+06    -15.9792E+06     45.5043E+06     80.7512E+06    -234.794E+03         71.5011
             345     11.0974E-03     79.8853E-03     26.8153E-03    -6.90799E-03    -11.0197E-03    -5.45831E-03     24.3155E-03    -9.96960E-03    -9.46772E-03     469.525E-03    -232.521E-03    -235.361E-03    -230.526E-03     464.690E-03    -232.521E-03     116.174E-03     76.8440E+06     37.9596E+06    -23.5111E+06    -23.4493E+06     37.8978E+06     76.8440E+06     613.727E+03         67.4295
             346     10.3020E-03     79.7443E-03     30.5974E-03    -8.42709E-03    -12.1992E-03    -9.94928E-03     30.0847E-03    -10.1643E-03    -3.40454E-03     468.364E-03    -232.931E-03    -234.192E-03    -230.216E-03     464.387E-03    -232.931E-03     105.316E-03     70.1888E+06     27.9792E+06    -31.1454E+06    -31.1076E+06     27.9414E+06     70.1888E+06     776.029E+03         64.3865
             347     9.50872E-03     79.6074E-03     36.4997E-03    -9.78848E-03    -16.1877E-03    -15.2755E-03     35.7352E-03    -9.93615E-03    -3.48791E-03     467.347E-03    -233.162E-03    -234.250E-03    -230.571E-03     464.116E-03    -233.610E-03     94.7657E-03     61.1107E+06     26.5658E+06    -39.2380E+06    -39.1847E+06     26.5125E+06     61.1107E+06    -538.670E+03         62.3237
             348     8.71479E-03     79.4895E-03     38.5459E-03    -9.32381E-03    -19.1866E-03    -17.7960E-03     37.1552E-03    -9.32381E-03    -1.96697E-03     466.151E-03    -232.675E-03    -234.329E-03    -231.254E-03     463.524E-03    -233.123E-03     85.5435E-03     50.5688E+06     25.4431E+06    -47.8941E+06    -47.8360E+06     25.3850E+06     50.5688E+06    -633.174E+03         60.9621
             349     7.92241E-03     79.3864E-03     38.9012E-03    -8.53940E-03    -20.2814E-03    -17.5718E-03     36.1916E-03    -8.53940E-03     1.32683E-03     467.127E-03    -232.515E-03    -233.851E-03    -231.569E-03     464.976E-03    -232.645E-03     77.3495E-03     38.6148E+06     18.2657E+06    -56.8395E+06    -56.8203E+06     18.2465E+06     38.6148E+06    -19.6854E+03         60.0808
             350     7.13091E-03     79.2931E-03     35.0497E-03    -7.78772E-03    -17.1871E-03    -14.8291E-03     32.6917E-03    -7.78772E-03     7.16607E-03     467.646E-03    -232.326E-03    -233.152E-03    -230.693E-03     466.013E-03    -233.152E-03     67.3818E-03     25.4240E+06     8.04187E+06    -66.7072E+06    -66.6994E+06      8.0341E+06     25.4240E+06     186.745E+03         59.5069
             351     6.33908E-03     79.2116E-03     29.4756E-03    -7.40676E-03    -10.9459E-03    -7.80527E-03     26.3947E-03    -7.46645E-03    -452.234E-06     466.112E-03    -232.057E-03    -233.233E-03    -231.342E-03     464.917E-03    -232.753E-03     57.4868E-03     7.65462E+06    -31.9303E+06    -77.5828E+06    -77.5692E+06    -31.9440E+06     7.65462E+06     285.750E+03         59.0855
             352     5.54631E-03     79.1505E-03     26.8544E-03    -4.29857E-03    -10.6768E-03    -3.63066E-03     23.3234E-03    -7.81363E-03     5.71621E-03     464.384E-03    -232.005E-03    -233.678E-03    -231.694E-03     463.594E-03    -233.199E-03     46.5482E-03    -13.1438E+06    -79.9738E+06    -91.1014E+06    -88.3602E+06    -82.7150E+06    -13.1438E+06     395.730E+03         58.7277
             353     4.75370E-03     79.1046E-03     29.0228E-03    -4.21653E-03    -14.1006E-03    -4.85822E-03     23.9967E-03    -8.43277E-03    -4.01212E-03     463.608E-03    -231.542E-03    -233.787E-03    -231.060E-03     463.126E-03    -233.787E-03     36.3067E-03     -34.649E+06    -98.8016E+06    -113.509E+06    -98.8891E+06    -113.422E+06     -34.649E+06     701.681E+03         58.4196
             354     3.96203E-03     79.0728E-03     31.0294E-03    -8.21175E-03    -12.8477E-03    -6.17813E-03     25.1207E-03    -8.97263E-03    -22.7879E-03     465.043E-03    -231.608E-03    -234.004E-03    -231.343E-03     464.777E-03    -234.004E-03     26.6868E-03    -58.3477E+06    -109.366E+06    -142.347E+06    -109.421E+06    -142.292E+06    -58.3477E+06     522.341E+03         58.1701
             355     3.16957E-03     79.0548E-03     39.8151E-03    -8.90501E-03    -22.0147E-03    -11.2185E-03     29.0188E-03    -8.90501E-03     16.9796E-03     466.691E-03    -232.148E-03    -233.513E-03    -232.044E-03     466.579E-03    -233.503E-03     17.1463E-03    -82.0206E+06    -119.018E+06    -172.757E+06    -119.032E+06    -172.743E+06    -82.0206E+06     210.485E+03         57.9301
             356     2.37652E-03     79.0484E-03     57.6925E-03    -6.99208E-03    -42.0645E-03    -16.5581E-03     32.1862E-03    -6.99208E-03    -23.9723E-03     465.708E-03    -232.523E-03    -233.362E-03    -233.311E-03     465.669E-03    -232.535E-03     10.0189E-03    -105.040E+06    -127.435E+06    -201.705E+06    -127.443E+06    -201.697E+06    -105.040E+06     42.9267E+03         57.6721
             357     1.58438E-03     79.0454E-03     72.0517E-03    -3.99890E-03    -57.1023E-03    -9.58956E-03     24.5389E-03    -3.99890E-03     15.5287E-03     463.989E-03    -231.734E-03    -232.964E-03    -232.953E-03     463.977E-03    -231.734E-03     5.31934E-03    -124.361E+06    -133.511E+06    -227.878E+06    -133.515E+06    -227.874E+06    -124.361E+06     43.3172E+03         57.4174
             358     792.771E-06     79.0466E-03     203.019E-03    -19.8890E-03    -168.495E-03     133.118E-03     19.4172E-03    -137.900E-03    -59.2675E-03     463.470E-03    -231.200E-03    -232.336E-03    -232.333E-03     463.467E-03    -231.200E-03     2.64593E-03    -134.375E+06    -137.048E+06    -258.017E+06    -136.286E+06    -257.980E+06    -135.174E+06    -127.257E+03         57.2176
             359     13.4783E-03     78.8991E-03     27.9454E-03    -5.78504E-03    -11.1958E-03    -4.26702E-03     25.2186E-03    -9.98706E-03     4.04387E-03     473.904E-03    -232.627E-03    -240.769E-03    -233.006E-03     466.140E-03    -232.627E-03     144.570E-03     86.4989E+06     50.6835E+06    -4.32735E+06    -4.14536E+06     50.5015E+06     86.4989E+06    -355.411E+03         79.8401
             360     12.6864E-03     78.6325E-03     27.8088E-03    -4.56707E-03    -13.3897E-03    -5.98463E-03     26.1974E-03    -10.3607E-03     954.880E-06     472.144E-03    -232.767E-03    -239.239E-03    -231.007E-03     463.912E-03    -232.767E-03     149.814E-03     82.4530E+06     46.8057E+06    -10.7766E+06    -10.5093E+06     46.5384E+06     82.4530E+06    -310.580E+03         75.9980
             361     11.8892E-03     78.4643E-03     31.0832E-03    -6.64700E-03    -15.1462E-03    -9.73067E-03     29.6834E-03    -10.6627E-03     1.63783E-03     468.950E-03    -232.966E-03    -236.028E-03    -230.601E-03     463.522E-03    -232.966E-03     123.182E-03     79.3223E+06     44.1210E+06    -17.7152E+06    -17.5076E+06     43.9134E+06     79.3223E+06     159.547E+03         71.4785
             362     11.0928E-03     78.2921E-03     36.0026E-03    -9.21240E-03    -17.2685E-03    -14.5694E-03     34.7756E-03    -10.6844E-03     1.47044E-03     470.607E-03    -232.693E-03    -236.461E-03    -231.575E-03     465.720E-03    -232.693E-03     116.911E-03     76.1386E+06     36.8500E+06    -24.2734E+06    -24.1400E+06     36.7165E+06     76.1386E+06     486.545E+03         67.4189
             363     10.3005E-03     78.1503E-03     36.7928E-03    -10.4145E-03    -16.4693E-03    -15.7084E-03     36.0319E-03    -10.4145E-03     3.08446E-03     469.587E-03    -233.019E-03    -235.292E-03    -231.410E-03     465.705E-03    -233.019E-03     104.174E-03     70.5661E+06     29.0876E+06    -30.7990E+06    -30.7435E+06     29.0321E+06     70.5661E+06    -225.162E+03         64.3834
             364     9.50920E-03     78.0123E-03     32.2025E-03    -8.29897E-03    -13.4666E-03    -10.7520E-03     31.4377E-03    -10.2488E-03     2.49511E-03     467.967E-03    -233.463E-03    -234.573E-03    -231.321E-03     464.902E-03    -233.649E-03     92.3650E-03     61.9027E+06     27.7165E+06    -37.9788E+06    -37.9686E+06     27.7063E+06     61.9027E+06    -262.040E+03         62.3208
             365     8.71705E-03     77.8947E-03     29.5664E-03    -7.11118E-03    -12.6951E-03    -8.68850E-03     28.8520E-03    -10.4033E-03     7.22732E-03     466.101E-03    -232.846E-03    -234.282E-03    -231.600E-03     463.604E-03    -233.031E-03     83.4320E-03     50.7647E+06     25.4353E+06    -47.0120E+06    -46.9730E+06     25.3963E+06     50.7647E+06     319.125E+03         60.9576
             366     7.92506E-03     77.7903E-03     32.2641E-03    -6.59049E-03    -16.3157E-03    -10.6482E-03     30.6310E-03    -10.6249E-03     10.3252E-03     466.830E-03    -232.502E-03    -233.829E-03    -231.693E-03     464.735E-03    -232.542E-03     76.3599E-03     37.7205E+06     17.8759E+06    -57.1218E+06    -57.0868E+06     17.8409E+06     37.7205E+06     569.468E+03         60.0753
             367     7.13282E-03     77.6962E-03     34.0866E-03    -6.99427E-03    -17.4006E-03    -11.7888E-03     32.2407E-03    -10.7602E-03     11.9175E-03     467.040E-03    -232.355E-03    -233.207E-03    -230.761E-03     465.411E-03    -233.172E-03     67.2908E-03     24.6479E+06     7.23429E+06    -67.3409E+06    -67.3348E+06     7.22817E+06     24.6479E+06     474.238E+03         59.5003
             368     6.34048E-03     77.6187E-03     35.3624E-03    -9.63886E-03    -15.4340E-03    -13.0903E-03     34.1522E-03    -10.7724E-03     6.53071E-03     465.191E-03    -231.965E-03    -233.299E-03    -231.298E-03     463.967E-03    -232.742E-03     58.1943E-03     8.15756E+06    -31.5536E+06    -77.9642E+06    -77.9494E+06    -31.5685E+06     8.15756E+06     519.449E+03         59.0770
             369     5.54783E-03     77.5581E-03     39.3485E-03    -10.4949E-03    -16.4088E-03    -14.0121E-03     37.0114E-03    -10.5546E-03     16.3823E-03     464.041E-03    -231.924E-03    -233.604E-03    -231.661E-03     463.220E-03    -233.047E-03     47.4072E-03    -12.5190E+06    -79.4613E+06    -91.1686E+06    -88.6295E+06    -82.0005E+06    -12.5190E+06     250.102E+03         58.7141
             370     4.75503E-03     77.5119E-03     40.5007E-03    -9.96216E-03    -17.3597E-03    -15.5154E-03     38.6565E-03    -9.96216E-03     11.0587E-03     463.634E-03    -231.477E-03    -233.705E-03    -230.979E-03     463.136E-03    -233.705E-03     36.9385E-03    -34.1674E+06    -99.0102E+06    -113.517E+06    -99.0486E+06    -113.479E+06    -34.1674E+06    -203.811E+03         58.3952
             371     3.96182E-03     77.4792E-03     37.7015E-03    -8.67565E-03    -18.1561E-03    -17.7371E-03     37.2825E-03    -8.67565E-03    -3.76552E-03     464.218E-03    -231.333E-03    -233.984E-03    -231.053E-03     463.938E-03    -233.984E-03     27.4030E-03    -57.8851E+06    -109.533E+06    -142.325E+06    -109.545E+06    -142.312E+06    -57.8851E+06    -107.179E+03         58.1438
             372     3.16871E-03     77.4618E-03     37.0131E-03    -7.10574E-03    -21.6366E-03    -12.7844E-03     28.1608E-03    -7.10574E-03     23.2222E-03     466.245E-03    -232.041E-03    -233.629E-03    -231.960E-03     466.123E-03    -233.587E-03     17.9462E-03    -82.0086E+06    -119.048E+06    -172.764E+06    -119.068E+06    -172.745E+06    -82.0086E+06     2.64703E+03         57.9193
             373     2.37725E-03     77.4537E-03     49.3049E-03    -6.56705E-03    -34.6984E-03    -5.61605E-03     20.2225E-03    -6.56705E-03    -25.9452E-03     466.161E-03    -232.569E-03    -233.734E-03    -233.692E-03     466.119E-03    -232.569E-03     10.3159E-03    -104.266E+06    -126.725E+06    -201.424E+06    -126.754E+06    -201.396E+06    -104.266E+06     444.985E+03         57.6666
             374     1.58506E-03     77.4526E-03     62.6266E-03    -6.24544E-03    -46.5017E-03    -8.19936E-03     24.3242E-03    -6.24544E-03     1.49709E-03     464.024E-03    -231.477E-03    -233.092E-03    -233.082E-03     464.014E-03    -231.477E-03     5.16087E-03    -123.837E+06    -133.381E+06    -227.514E+06    -133.401E+06    -227.494E+06    -123.837E+06     382.921E+03         57.4025
             375     792.492E-06     77.4523E-03     198.682E-03    -10.5609E-03    -175.441E-03     142.601E-03     24.2974E-03    -154.218E-03    -50.2436E-03     462.701E-03    -230.958E-03    -231.958E-03    -231.642E-03     462.699E-03    -231.272E-03     1.85262E-03    -134.585E+06    -138.183E+06    -257.210E+06    -137.399E+06    -257.195E+06    -135.384E+06     761.743E+03         57.1953
             376     13.4786E-03     77.3085E-03     26.4716E-03    -3.99774E-03    -10.4075E-03    -3.55841E-03     26.0323E-03    -10.4075E-03     4.25330E-03     472.308E-03    -232.307E-03    -239.296E-03    -230.712E-03     464.075E-03    -232.657E-03     148.551E-03     85.8326E+06      50.839E+06    -4.44249E+06    -4.31330E+06     50.7098E+06     85.8326E+06     63.8267E+03         79.8332
             377     12.6781E-03     77.0478E-03     26.3580E-03    -4.23993E-03    -11.7303E-03    -4.54827E-03     25.8033E-03    -10.8672E-03     442.786E-06     472.739E-03    -232.973E-03    -240.200E-03    -231.630E-03     464.169E-03    -232.973E-03     152.626E-03     81.9000E+06     46.4821E+06    -11.3208E+06    -11.0824E+06     46.2437E+06     81.9000E+06     294.747E+03         76.0017
             378     11.8840E-03     76.8714E-03     31.1160E-03    -6.49246E-03    -14.6549E-03    -8.79047E-03     29.8878E-03    -11.1287E-03    -3.91663E-03     470.439E-03    -233.122E-03    -238.188E-03    -232.934E-03     465.185E-03    -233.122E-03     121.475E-03     78.8689E+06     43.2778E+06    -18.4380E+06    -18.1702E+06       43.01E+06     78.8689E+06    -14.1218E+03         71.4918
             379     11.0939E-03     76.6984E-03     34.4634E-03    -6.25602E-03    -17.4111E-03    -11.1495E-03     33.1218E-03    -11.1760E-03     2.43395E-03     471.243E-03    -232.691E-03    -237.869E-03    -233.320E-03     466.695E-03    -232.691E-03     112.961E-03     76.3553E+06     37.3656E+06    -24.4646E+06    -24.3235E+06     37.2245E+06     76.3553E+06    -572.004E+03         67.4256
             380     10.3026E-03     76.5540E-03     34.2783E-03    -7.62470E-03    -15.2746E-03    -10.4638E-03     33.0974E-03    -11.2546E-03     2.88274E-03     469.342E-03    -232.737E-03    -235.413E-03    -231.727E-03     465.655E-03    -232.737E-03     101.595E-03     70.8329E+06     30.4004E+06    -31.4777E+06    -31.4489E+06     30.3716E+06     70.8329E+06    -954.749E+03         64.3787
             381     9.51202E-03     76.4193E-03     33.3491E-03    -8.72617E-03    -13.0867E-03    -9.48376E-03     32.4984E-03    -11.4784E-03     72.6828E-06     467.366E-03    -233.074E-03    -234.265E-03    -230.970E-03     464.348E-03    -233.352E-03     91.6386E-03     60.6958E+06     27.2916E+06    -40.3439E+06     -40.335E+06     27.2826E+06     60.6958E+06    -420.616E+03         62.3150
             382     8.71865E-03     76.3004E-03     32.6034E-03    -8.45860E-03    -13.2620E-03    -9.64614E-03     32.2797E-03    -11.7508E-03     2.10613E-03     465.693E-03    -232.743E-03    -233.940E-03    -231.138E-03     463.168E-03    -233.021E-03     83.8557E-03     49.2739E+06     24.0837E+06    -49.0286E+06    -48.9852E+06     24.0402E+06     49.2739E+06     63.4683E+03         60.9491
             383     7.92625E-03     76.1974E-03     30.2476E-03    -8.03413E-03    -12.5330E-03    -8.38951E-03     30.1385E-03    -12.0685E-03    -3.17590E-03     466.183E-03    -232.224E-03    -233.317E-03    -231.027E-03     464.031E-03    -232.362E-03     77.3150E-03     37.5203E+06     17.3850E+06    -57.6190E+06    -57.5731E+06     17.3391E+06     37.5203E+06     559.625E+03         60.0591
             384     7.13328E-03     76.1040E-03     30.6920E-03    -8.42478E-03    -12.5815E-03    -8.35831E-03     30.5121E-03    -12.4680E-03    -4.40317E-03     465.719E-03    -231.884E-03    -233.009E-03    -230.239E-03     464.039E-03    -232.974E-03     68.2544E-03     25.0694E+06     7.31004E+06    -67.2792E+06    -67.2621E+06     7.29287E+06     25.0694E+06     1.01850E+06         59.4826
             385     6.33960E-03     76.0249E-03     36.8168E-03    -10.7287E-03    -15.1353E-03    -13.0385E-03     36.6225E-03    -12.6312E-03    -4.65283E-03     464.488E-03    -231.631E-03    -233.328E-03    -231.117E-03     463.228E-03    -232.582E-03     59.0009E-03     8.81475E+06    -29.9989E+06    -77.4812E+06    -77.4596E+06    -30.0205E+06     8.81475E+06     524.848E+03         59.0594
             386     5.54719E-03     75.9640E-03     40.8140E-03    -11.8383E-03    -16.1772E-03    -15.0083E-03     40.1965E-03    -12.3896E-03     2.09675E-03     464.285E-03    -231.845E-03    -233.645E-03    -231.743E-03     463.437E-03    -232.899E-03     48.2127E-03    -11.9267E+06    -77.7687E+06    -90.7614E+06    -88.0782E+06    -80.4520E+06    -11.9267E+06    -512.947E+03         58.6965
             387     4.75470E-03     75.9183E-03     39.5587E-03    -11.6382E-03    -14.2449E-03    -11.7313E-03     37.6506E-03    -12.2436E-03    -2.46150E-03     463.590E-03    -231.664E-03    -233.709E-03    -231.149E-03     463.074E-03    -233.709E-03     37.5629E-03    -34.6285E+06    -98.7750E+06    -114.200E+06    -98.8450E+06    -114.130E+06    -34.6285E+06    -598.942E+03         58.3799
             388     3.96219E-03     75.8883E-03     38.9827E-03    -9.50672E-03    -17.9905E-03    -13.8745E-03     37.4946E-03    -12.1347E-03    -7.78375E-03     464.196E-03    -231.562E-03    -234.067E-03    -231.279E-03     463.913E-03    -234.067E-03     27.5167E-03    -58.9858E+06    -108.969E+06    -142.922E+06    -108.986E+06    -142.905E+06    -58.9858E+06    -72.1454E+03         58.1346
             389     3.16924E-03     75.8681E-03     39.5619E-03    -9.31959E-03    -20.8008E-03    -16.6271E-03     37.4108E-03    -11.3421E-03     12.6033E-03     466.447E-03    -232.085E-03    -233.657E-03    -231.997E-03     466.326E-03    -233.624E-03     17.8164E-03    -83.3889E+06    -118.871E+06    -173.259E+06    -118.896E+06    -173.234E+06    -83.3889E+06     119.295E+03         57.9193
             390     2.37641E-03     75.8594E-03     48.8794E-03    -9.78131E-03    -29.3966E-03    -15.4321E-03     34.9150E-03    -9.78131E-03    -11.8446E-03     466.090E-03    -232.522E-03    -233.377E-03    -233.308E-03     466.047E-03    -232.547E-03     10.4737E-03    -105.472E+06    -127.438E+06    -202.103E+06    -127.471E+06    -202.071E+06    -105.472E+06     353.404E+03         57.6611
             391     1.58497E-03     75.8589E-03     49.5819E-03    -8.35541E-03    -31.2510E-03    -10.3511E-03     28.6819E-03    -8.35541E-03     1.88513E-03     464.190E-03    -231.825E-03    -232.858E-03    -232.846E-03     464.178E-03    -231.825E-03     5.51834E-03    -123.131E+06    -133.315E+06    -226.101E+06    -133.337E+06    -226.079E+06    -123.131E+06     484.099E+03         57.3833
             392     792.453E-06     75.8631E-03     191.659E-03     1.21441E-03    -179.900E-03     156.462E-03     28.8097E-03    -172.299E-03    -36.6676E-03     463.435E-03    -231.493E-03    -232.148E-03    -231.831E-03     463.432E-03    -231.806E-03     2.26240E-03    -133.627E+06    -137.813E+06    -256.260E+06    -136.913E+06    -256.258E+06    -134.529E+06     464.191E+03         57.1776
             393     13.4678E-03     75.7253E-03     32.5811E-03    -8.29853E-03    -13.8433E-03    -11.0524E-03     32.3523E-03    -10.8606E-03    -931.559E-06     473.720E-03    -232.313E-03    -241.456E-03    -233.262E-03     465.877E-03    -232.664E-03     146.049E-03     86.6634E+06     51.1668E+06    -5.75590E+06    -5.50547E+06     50.9163E+06     86.6634E+06     1.31582E+06         79.8357
             394     12.6770E-03     75.4494E-03     34.7027E-03    -9.91086E-03    -14.9678E-03    -13.9727E-03     34.5412E-03    -10.7445E-03    -2.00560E-03     474.102E-03    -233.137E-03    -242.160E-03    -234.377E-03     466.319E-03    -233.137E-03     145.454E-03     82.4403E+06     46.6019E+06    -12.0274E+06    -11.6307E+06     46.2051E+06     82.4403E+06     1.07987E+06         76.0249
             395     11.8906E-03     75.2758E-03     32.0890E-03    -8.53750E-03    -12.6338E-03    -9.65879E-03     31.2065E-03    -10.6300E-03    -5.68254E-03     470.419E-03    -232.923E-03    -238.451E-03    -233.604E-03     465.572E-03    -232.923E-03     116.775E-03     79.9693E+06     44.8474E+06    -18.0984E+06    -17.8843E+06     44.6333E+06     79.9693E+06    -939.764E+03         71.5158
             396     11.0991E-03     75.1036E-03     26.9085E-03    -3.76238E-03    -11.0625E-03    -3.02919E-03     26.0001E-03    -10.8873E-03    -2.56024E-03     469.717E-03    -232.201E-03    -237.134E-03    -232.616E-03     465.200E-03    -232.201E-03     112.490E-03     76.2413E+06     38.5065E+06    -24.5210E+06    -24.4308E+06     38.4163E+06     76.2413E+06    -1.55232E+06         67.4332
             397     10.3058E-03     74.9614E-03     28.0231E-03    -3.73886E-03    -11.4283E-03    -2.94070E-03     27.2249E-03    -11.4283E-03    -4.22220E-03     467.694E-03    -232.378E-03    -234.914E-03    -231.111E-03     463.890E-03    -232.378E-03     103.022E-03     69.3331E+06     28.6414E+06    -32.8090E+06    -32.7636E+06      28.596E+06     69.3331E+06    -707.147E+03         64.3757
             398     9.51177E-03     74.8241E-03     34.2905E-03    -8.07218E-03    -13.0007E-03    -8.16644E-03     33.2245E-03    -11.8404E-03    -7.22828E-03     466.822E-03    -232.602E-03    -234.207E-03    -230.489E-03     463.653E-03    -233.151E-03     93.8563E-03     59.7210E+06     26.1758E+06    -40.8970E+06    -40.8836E+06     26.1623E+06     59.7210E+06     60.6500E+03         62.3122
             399     8.71991E-03     74.7091E-03     37.1772E-03    -10.8329E-03    -14.2395E-03    -11.9436E-03     35.9925E-03    -11.9441E-03    -7.67460E-03     465.580E-03    -232.523E-03    -233.711E-03    -230.505E-03     462.923E-03    -233.072E-03     85.9775E-03     48.8066E+06     24.0287E+06    -49.6371E+06    -49.6203E+06     24.0120E+06     48.8066E+06    -597.141E+03         60.9465
             400     7.92512E-03     74.6048E-03     38.6873E-03    -11.7182E-03    -16.1837E-03    -15.3899E-03     37.8935E-03    -11.7182E-03    -7.85769E-03     466.152E-03    -231.963E-03    -233.104E-03    -230.388E-03     463.938E-03    -232.464E-03     78.3713E-03     37.3271E+06     16.2627E+06    -58.9061E+06    -58.8742E+06     16.2309E+06     37.3271E+06    -710.134E+03         60.0548
             401     7.13263E-03     74.5118E-03     39.2217E-03    -10.8848E-03    -17.5913E-03    -16.5515E-03     38.4593E-03    -11.1622E-03    -9.50291E-03     465.918E-03    -231.518E-03    -232.939E-03    -229.820E-03     464.219E-03    -232.939E-03     68.6131E-03     24.4098E+06     6.39980E+06    -68.2115E+06    -68.1874E+06     6.37570E+06     24.4098E+06     266.264E+03         59.4728
             402     6.33962E-03     74.4324E-03     34.3865E-03    -8.64307E-03    -13.8508E-03    -10.7561E-03     33.4007E-03    -10.7519E-03    -10.6319E-03     464.740E-03    -231.636E-03    -233.118E-03    -230.934E-03     463.476E-03    -232.555E-03     59.0955E-03     6.17287E+06    -27.8358E+06    -78.3558E+06    -78.3398E+06    -27.8517E+06     6.17287E+06     232.565E+03         59.0426
             403     5.54710E-03     74.3707E-03     30.6614E-03    -6.99734E-03    -11.2052E-03    -6.88093E-03     30.2734E-03    -10.9336E-03    -5.48975E-03     464.348E-03    -231.925E-03    -233.577E-03    -231.644E-03     463.504E-03    -233.014E-03     48.0920E-03    -15.2535E+06    -75.4198E+06    -93.1188E+06    -88.8466E+06    -79.6919E+06    -15.2535E+06    -777.603E+03         58.6840
             404     4.75392E-03     74.3246E-03     32.6885E-03    -8.09977E-03    -11.8152E-03    -6.85368E-03     31.1708E-03    -11.5436E-03    -12.5493E-03     463.644E-03    -231.693E-03    -233.764E-03    -231.179E-03     463.130E-03    -233.764E-03     37.5205E-03    -36.6460E+06    -99.1682E+06    -115.908E+06    -99.2799E+06    -115.797E+06    -36.6460E+06    -551.792E+03         58.3853
             405     3.96182E-03     74.2934E-03     32.5506E-03    -8.50341E-03    -12.6341E-03    -5.25855E-03     29.3058E-03    -12.6341E-03    -19.2222E-03     464.689E-03    -231.799E-03    -234.054E-03    -231.513E-03     464.403E-03    -234.054E-03     27.7144E-03    -59.5463E+06    -109.613E+06    -143.921E+06    -109.647E+06    -143.887E+06    -59.5463E+06     746.703E+03         58.1532
             406     3.16983E-03     74.2760E-03     33.6562E-03    -7.37902E-03    -16.0253E-03    -5.62363E-03     30.3337E-03    -14.4582E-03     1.12936E-03     466.643E-03    -232.128E-03    -233.522E-03    -232.102E-03     466.521E-03    -233.426E-03     17.9041E-03    -83.8347E+06    -119.590E+06    -173.269E+06    -119.617E+06    -173.241E+06    -83.8347E+06     1.15819E+06         57.9288
             407     2.37715E-03     74.2677E-03     48.0995E-03    -12.7291E-03    -23.4048E-03    -8.29711E-03     37.2794E-03    -17.0167E-03    -10.2496E-03     465.394E-03    -232.386E-03    -232.718E-03    -232.651E-03     465.353E-03    -232.412E-03     10.1971E-03    -106.978E+06    -128.268E+06    -200.659E+06    -128.280E+06    -200.646E+06    -106.978E+06     170.587E+03         57.6559
             408     1.58325E-03     74.2653E-03     65.6465E-03    -19.2791E-03    -33.3946E-03    -16.0336E-03     48.2855E-03    -19.2791E-03     16.3119E-03     464.057E-03    -232.163E-03    -232.392E-03    -232.381E-03     464.046E-03    -232.163E-03     5.09994E-03    -125.162E+06    -134.119E+06    -225.910E+06    -134.123E+06    -225.905E+06    -125.162E+06    -345.057E+03         57.3759
             409     791.225E-06     74.2675E-03     194.969E-03     10.1745E-03    -188.869E-03     139.534E-03     56.3144E-03    -179.574E-03    -8.19883E-03     464.568E-03    -232.224E-03    -232.461E-03    -232.459E-03     464.565E-03    -232.224E-03     2.28041E-03    -134.069E+06    -137.793E+06    -255.036E+06    -136.892E+06    -255.035E+06    -134.971E+06     100.072E+03         57.1761
             410     13.4781E-03     74.1259E-03     32.7548E-03    -8.49706E-03    -13.8283E-03    -11.1741E-03     32.4492E-03    -10.8456E-03     220.105E-06     476.793E-03    -232.512E-03    -244.266E-03    -236.929E-03     469.456E-03    -232.512E-03     141.049E-03     86.9545E+06     49.5745E+06    -6.62718E+06    -6.13032E+06     49.0777E+06     86.9545E+06    -422.367E+03         79.8331
             411     12.6916E-03     73.8546E-03     33.5140E-03    -8.31923E-03    -14.1927E-03    -11.3850E-03     33.2196E-03    -10.8325E-03     5.25858E-03     474.306E-03    -232.938E-03    -241.971E-03    -234.188E-03     466.524E-03    -232.938E-03     146.111E-03     85.5712E+06     49.2261E+06    -10.6036E+06    -9.75605E+06     48.3786E+06     85.5712E+06     675.644E+03         76.0250
             412     11.8937E-03     73.6838E-03     34.6434E-03    -10.0494E-03    -12.9781E-03    -11.9193E-03     34.3915E-03    -10.8564E-03    -1.02270E-03     469.468E-03    -232.644E-03    -236.751E-03    -231.554E-03     464.270E-03    -232.644E-03     120.602E-03     82.9138E+06     47.8533E+06    -14.8298E+06    -14.4731E+06     47.4967E+06     82.9138E+06     1.04250E+06         71.5058
             413     11.0980E-03     73.5145E-03     35.1919E-03    -8.67480E-03    -14.0145E-03    -11.5104E-03     34.8927E-03    -10.8797E-03    -314.060E-06     468.637E-03    -231.900E-03    -235.835E-03    -231.055E-03     463.857E-03    -231.900E-03     115.466E-03     76.5176E+06     38.4526E+06    -23.3154E+06    -23.1768E+06     38.3140E+06     76.5176E+06     713.885E+03         67.4253
             414     10.3047E-03     73.3710E-03     33.9017E-03    -6.87379E-03    -13.9463E-03    -9.63777E-03     33.6527E-03    -10.9333E-03     3.70788E-03     467.066E-03    -232.314E-03    -234.546E-03    -230.630E-03     463.150E-03    -232.314E-03     104.458E-03     68.8424E+06     28.2747E+06    -31.6480E+06    -31.5041E+06     28.1307E+06     68.8424E+06     792.297E+03         64.3759
             415     9.51184E-03     73.2339E-03     32.7227E-03    -7.74387E-03    -12.0930E-03    -8.36543E-03     32.3098E-03    -11.0585E-03    -2.59402E-03     466.896E-03    -232.638E-03    -234.266E-03    -230.431E-03     463.664E-03    -233.241E-03     94.7905E-03     60.2148E+06     26.3666E+06    -39.9936E+06    -39.9850E+06     26.3581E+06     60.2148E+06     293.167E+03         62.3119
             416     8.71814E-03     73.1154E-03     33.3406E-03    -9.72260E-03    -11.9789E-03    -9.46889E-03     32.2907E-03    -11.1827E-03    -9.04898E-03     465.669E-03    -232.445E-03    -233.692E-03    -230.411E-03     462.991E-03    -233.049E-03     86.2976E-03     50.2952E+06     24.5467E+06    -48.6560E+06    -48.6499E+06     24.5406E+06     50.2952E+06     183.515E+03         60.9454
             417     7.92538E-03     73.0126E-03     37.8712E-03    -11.1171E-03    -15.9249E-03    -13.0031E-03     34.9495E-03    -11.1171E-03     2.81530E-03     466.362E-03    -231.998E-03    -233.284E-03    -230.443E-03     464.163E-03    -232.641E-03     78.0868E-03     37.2959E+06     16.3610E+06    -58.7452E+06    -58.7278E+06     16.3435E+06     37.2959E+06    -43.5475E+03         60.0556
             418     7.13174E-03     72.9180E-03     39.9121E-03    -9.86936E-03    -17.9668E-03    -14.1406E-03     37.0729E-03    -10.8564E-03     995.219E-06     466.519E-03    -231.558E-03    -233.163E-03    -229.882E-03     464.843E-03    -233.163E-03     68.1931E-03     22.5663E+06     4.69500E+06    -69.7127E+06    -69.6995E+06     4.68174E+06     22.5663E+06    -155.709E+03         59.4719
             419     6.33924E-03     72.8385E-03     38.4930E-03    -8.34438E-03    -17.8588E-03    -12.9828E-03     35.8842E-03    -10.6116E-03     1.02770E-03     464.948E-03    -231.768E-03    -233.083E-03    -230.869E-03     463.696E-03    -232.730E-03     58.8245E-03     3.55849E+06    -26.5846E+06    -80.6276E+06    -80.6265E+06    -26.5857E+06     3.55849E+06     156.444E+03         59.0409
             420     5.54633E-03     72.7775E-03     34.4646E-03    -7.23185E-03    -15.1297E-03    -9.75796E-03     32.4778E-03    -10.6168E-03     6.92773E-03     464.187E-03    -232.185E-03    -233.533E-03    -231.699E-03     463.348E-03    -233.180E-03     47.9465E-03    -18.7879E+06    -74.3934E+06    -95.5623E+06    -91.5278E+06    -78.4278E+06    -18.7879E+06    -216.858E+03         58.6886
             421     4.75406E-03     72.7317E-03     29.6994E-03    -5.94969E-03    -11.5088E-03    -6.16344E-03     29.5487E-03    -11.1443E-03    -3.47236E-03     463.706E-03    -231.899E-03    -233.789E-03    -231.388E-03     463.195E-03    -233.789E-03     37.4308E-03    -39.9105E+06    -102.238E+06    -117.879E+06    -102.328E+06    -117.789E+06    -39.9105E+06    -326.066E+03         58.3969
             422     3.96175E-03     72.7000E-03     33.4786E-03    -8.07860E-03    -14.2689E-03    -8.35002E-03     31.4187E-03    -11.9375E-03    -13.4120E-03     464.688E-03    -231.820E-03    -234.086E-03    -231.532E-03     464.400E-03    -234.086E-03     27.8599E-03    -61.4207E+06    -112.500E+06    -145.219E+06    -112.539E+06    -145.181E+06    -61.4207E+06     90.5236E+03         58.1688
             423     3.16923E-03     72.6804E-03     36.0260E-03    -7.79029E-03    -17.6589E-03    -8.43594E-03     31.8597E-03    -12.8469E-03     1.21516E-03     466.788E-03    -232.101E-03    -233.650E-03    -232.154E-03     466.663E-03    -233.472E-03     18.1258E-03    -83.7891E+06    -121.163E+06    -172.491E+06    -121.183E+06    -172.471E+06    -83.7891E+06     523.177E+03         57.9442
             424     2.37707E-03     72.6741E-03     45.0099E-03    -10.7248E-03    -22.9709E-03    -5.24028E-03     31.5669E-03    -15.0124E-03    -21.1230E-03     465.697E-03    -232.369E-03    -233.235E-03    -233.193E-03     465.655E-03    -232.369E-03     10.3973E-03    -106.618E+06    -128.588E+06    -198.900E+06    -128.597E+06    -198.890E+06    -106.618E+06     628.168E+03         57.6752
             425     1.58514E-03     72.6721E-03     72.1635E-03    -18.2774E-03    -39.9431E-03    -11.6871E-03     43.9074E-03    -18.2774E-03     20.8322E-03     463.642E-03    -231.760E-03    -232.581E-03    -232.570E-03     463.630E-03    -231.760E-03     5.13213E-03    -126.185E+06    -134.714E+06    -226.158E+06    -134.718E+06    -226.154E+06    -126.185E+06     63.7208E+03         57.4017
             426     792.428E-06     72.6716E-03     208.224E-03     719.402E-06    -192.313E-03     136.241E-03     56.5139E-03    -176.125E-03    -45.2053E-03     463.511E-03    -231.579E-03    -232.065E-03    -231.823E-03     463.509E-03    -231.820E-03     1.74040E-03    -135.911E+06    -139.310E+06    -255.390E+06    -138.522E+06    -255.389E+06    -136.700E+06    -55.9016E+03         57.1951
             427     13.4803E-03     72.5258E-03     32.6281E-03    -7.31833E-03    -10.9452E-03    -6.53406E-03     31.8438E-03    -10.9452E-03     5.92601E-03     473.929E-03    -232.529E-03    -241.584E-03    -233.763E-03     466.108E-03    -232.529E-03     144.649E-03     84.1468E+06     48.9157E+06    -7.31928E+06    -7.03669E+06     48.6331E+06     84.1468E+06    -1.86911E+06         79.8126
             428     12.6823E-03     72.2600E-03     32.9330E-03    -8.35049E-03    -11.6052E-03    -8.12159E-03     32.3253E-03    -11.2263E-03     7.45837E-03     472.862E-03    -232.784E-03    -240.696E-03    -232.333E-03     464.499E-03    -232.784E-03     151.103E-03     81.3258E+06     46.2654E+06    -11.7817E+06    -10.8855E+06     45.3693E+06     81.3258E+06    -2.24046E+06         75.9969
             429     11.8903E-03     72.0930E-03     36.0192E-03    -10.5629E-03    -12.8417E-03    -10.8535E-03     34.8379E-03    -11.3698E-03    -3.06821E-03     470.093E-03    -232.593E-03    -236.850E-03    -231.444E-03     464.687E-03    -232.593E-03     123.148E-03     80.7108E+06     46.1557E+06    -16.4961E+06    -15.8278E+06     45.4873E+06     80.7108E+06     688.992E+03         71.4850
             430     11.0975E-03     71.9200E-03     38.7383E-03    -11.3308E-03    -14.8358E-03    -13.4466E-03     37.3492E-03    -11.3308E-03    -1.08527E-03     469.828E-03    -232.152E-03    -236.152E-03    -231.321E-03     464.997E-03    -232.152E-03     116.171E-03     78.4619E+06     38.4492E+06    -21.9900E+06    -21.8323E+06     38.2914E+06     78.4619E+06     2.26780E+06         67.4201
             431     10.3043E-03     71.7759E-03     39.2327E-03    -11.1531E-03    -15.8511E-03    -14.8360E-03     38.2177E-03    -11.1531E-03     4.94235E-03     467.783E-03    -232.589E-03    -234.768E-03    -230.867E-03     463.882E-03    -232.589E-03     104.328E-03      72.423E+06     30.1278E+06    -29.3579E+06    -29.1895E+06     29.9593E+06      72.423E+06     2.22754E+06         64.3799
             432     9.51098E-03     71.6391E-03     35.3802E-03    -10.5289E-03    -13.2966E-03    -12.3392E-03     34.9044E-03    -11.0104E-03    -760.841E-06     466.942E-03    -232.877E-03    -234.381E-03    -230.721E-03     463.751E-03    -233.347E-03     94.1738E-03     62.2916E+06     28.1776E+06    -37.8732E+06    -37.7718E+06     28.0762E+06     62.2916E+06     1.87499E+06         62.3136
             433     8.71824E-03     71.5222E-03     32.5076E-03    -10.5358E-03    -11.3243E-03    -10.7937E-03     32.4586E-03    -11.0173E-03     1.99690E-03     465.650E-03    -232.533E-03    -233.757E-03    -230.672E-03     463.034E-03    -233.002E-03     85.3088E-03     49.6986E+06     24.5752E+06    -47.8857E+06    -47.8171E+06     24.5066E+06     49.6986E+06     1.90584E+06         60.9430
             434     7.92472E-03     71.4175E-03     32.3775E-03    -9.75031E-03    -12.3127E-03    -8.38061E-03     29.9060E-03    -11.2110E-03     6.73470E-03     466.327E-03    -232.047E-03    -233.258E-03    -230.633E-03     464.158E-03    -232.503E-03     77.6005E-03     37.6377E+06     16.8002E+06    -58.0998E+06    -58.0315E+06     16.7319E+06     37.6377E+06     2.00782E+06         60.0544
             435     7.13260E-03     71.3243E-03     30.6695E-03    -7.13259E-03    -12.6040E-03    -4.21942E-03     26.9616E-03    -11.8092E-03    -459.807E-06     466.321E-03    -231.635E-03    -233.056E-03    -229.950E-03     464.636E-03    -233.056E-03     68.3763E-03     24.5942E+06     5.92536E+06    -68.6050E+06    -68.5672E+06     5.88755E+06     24.5942E+06     1.23620E+06         59.4773
             436     6.33949E-03     71.2454E-03     34.6838E-03    -6.37960E-03    -16.7364E-03    -7.59555E-03     31.7514E-03    -12.5880E-03     4.14480E-03     464.723E-03    -231.776E-03    -233.191E-03    -230.966E-03     463.463E-03    -232.741E-03     58.9902E-03     6.18100E+06    -26.7441E+06    -79.4536E+06    -79.4376E+06    -26.7601E+06     6.18100E+06     529.747E+03         59.0536
             437     5.54643E-03     71.1834E-03     39.1508E-03    -9.35568E-03    -17.5826E-03    -11.7401E-03     37.0224E-03    -13.0696E-03     5.70511E-03     464.074E-03    -232.131E-03    -233.643E-03    -231.749E-03     463.241E-03    -233.192E-03     47.7481E-03    -16.0597E+06    -74.6452E+06    -93.5529E+06    -90.2737E+06    -77.9244E+06    -16.0597E+06     871.804E+03         58.6995
             438     4.75349E-03     71.1371E-03     38.2415E-03    -10.3478E-03    -15.5019E-03    -11.3770E-03     37.1943E-03    -13.4255E-03     1.46752E-03     463.653E-03    -231.871E-03    -233.806E-03    -231.369E-03     463.151E-03    -233.806E-03     37.0943E-03    -38.8209E+06    -101.307E+06    -116.602E+06    -101.464E+06    -116.446E+06    -38.8209E+06     494.520E+03         58.4010
             439     3.96112E-03     71.1052E-03     39.4959E-03    -11.2309E-03    -17.6448E-03    -14.3602E-03     38.5675E-03    -13.5871E-03     918.774E-06     464.519E-03    -231.726E-03    -234.148E-03    -231.445E-03     464.238E-03    -234.148E-03     27.4917E-03    -62.1523E+06    -112.366E+06    -144.914E+06    -112.403E+06    -144.877E+06    -62.1523E+06    -666.751E+03         58.1698
             440     3.16867E-03     71.0880E-03     46.5889E-03    -12.6365E-03    -22.8017E-03    -19.8946E-03     43.6818E-03    -12.6365E-03     12.6250E-03     466.720E-03    -232.107E-03    -233.769E-03    -232.067E-03     466.597E-03    -233.688E-03     17.9758E-03    -85.1145E+06    -121.711E+06    -173.564E+06    -121.758E+06    -173.517E+06    -85.1145E+06    -1.02797E+06         57.9501
             441     2.37648E-03     71.0799E-03     53.3579E-03    -8.75508E-03    -32.3436E-03    -26.6651E-03     47.6794E-03    -8.75508E-03    -3.89455E-03     466.041E-03    -232.504E-03    -233.701E-03    -233.624E-03     465.997E-03    -232.537E-03     10.6608E-03    -106.556E+06    -128.981E+06    -199.880E+06    -129.015E+06    -199.846E+06    -106.556E+06    -275.811E+03         57.6904
             442     1.58487E-03     71.0799E-03     52.8587E-03    -67.8474E-06    -40.7272E-03    -22.8849E-03     35.0163E-03    -67.8474E-06     18.9960E-03     463.937E-03    -231.770E-03    -233.018E-03    -233.004E-03     463.923E-03    -231.770E-03     6.07534E-03    -124.646E+06    -134.344E+06    -225.456E+06    -134.354E+06    -225.446E+06    -124.646E+06     423.742E+03         57.4215
             443     792.896E-06     71.0804E-03     206.159E-03    -30.7528E-03    -161.175E-03     147.432E-03     3.08318E-03    -136.284E-03    -97.9750E-03     463.134E-03    -231.308E-03    -231.936E-03    -231.471E-03     463.130E-03    -231.770E-03     2.76876E-03    -134.859E+06    -138.517E+06    -255.017E+06    -137.735E+06    -255.011E+06    -135.647E+06     140.604E+03         57.2116
             444     13.4775E-03     70.9381E-03     38.1822E-03    -9.87620E-03    -13.3272E-03    -10.6690E-03     37.1262E-03    -11.4785E-03     1.32543E-03     472.421E-03    -232.644E-03    -239.916E-03    -231.863E-03     464.368E-03    -232.644E-03     147.235E-03     85.4119E+06     51.4689E+06    -4.64173E+06    -4.62097E+06     51.4482E+06     85.4119E+06     722.781E+03         79.7844
             445     12.6848E-03     70.6678E-03     35.5754E-03    -9.99465E-03    -12.0198E-03    -9.57702E-03     34.7789E-03    -11.6409E-03     9.45623E-03     472.727E-03    -232.820E-03    -240.404E-03    -232.117E-03     464.440E-03    -232.820E-03     150.081E-03     78.8745E+06     44.3511E+06    -12.6418E+06    -12.1982E+06     43.9076E+06     78.8745E+06    -1.03014E+06         75.9743
             446     11.8899E-03     70.4988E-03     35.3033E-03    -10.5401E-03    -12.3550E-03    -9.56143E-03     33.8338E-03    -11.8641E-03     5.06755E-03     470.543E-03    -232.559E-03    -237.130E-03    -231.886E-03     465.299E-03    -232.559E-03     121.384E-03     75.7089E+06     41.5998E+06    -20.6784E+06    -20.0952E+06     41.0166E+06     75.7089E+06    -1.42729E+06         71.4762
             447     11.0959E-03     70.3261E-03     37.3135E-03    -11.7512E-03    -13.3434E-03    -10.2898E-03     34.6242E-03    -12.1155E-03     10.6349E-03     470.470E-03    -232.263E-03    -236.689E-03    -231.907E-03     465.689E-03    -232.263E-03     115.713E-03     74.6738E+06     37.1388E+06    -26.6875E+06    -26.5443E+06     36.9955E+06     74.6738E+06    -425.341E+03         67.4163
             448     10.3031E-03     70.1802E-03     39.2120E-03    -12.3107E-03    -15.1258E-03    -12.4801E-03     36.5662E-03    -12.3107E-03     13.5564E-03     468.295E-03    -232.733E-03    -234.957E-03    -231.077E-03     464.416E-03    -232.733E-03     104.080E-03     70.6058E+06     29.7041E+06    -32.9114E+06    -32.7976E+06     29.5904E+06     70.6058E+06    -29.9310E+03         64.3765
             449     9.51159E-03     70.0472E-03     40.4700E-03    -12.2000E-03    -16.2667E-03    -15.2667E-03     39.6027E-03    -12.3327E-03     4.09997E-03     467.273E-03    -232.928E-03    -234.316E-03    -230.728E-03     464.107E-03    -233.350E-03     93.8521E-03     61.6442E+06     26.8999E+06    -39.9767E+06    -39.8006E+06     26.7238E+06     61.6442E+06     1.63996E+06         62.3133
             450     8.71814E-03     69.9283E-03     39.3395E-03    -12.0900E-03    -15.2869E-03    -14.9893E-03     39.1746E-03    -12.2227E-03     2.84718E-03     465.710E-03    -232.611E-03    -233.795E-03    -230.759E-03     463.097E-03    -233.033E-03     85.2691E-03     50.2624E+06     24.6735E+06    -48.0047E+06    -47.8974E+06     24.5662E+06     50.2624E+06     2.75044E+06         60.9441
             451     7.92547E-03     69.8250E-03     36.8285E-03    -10.7507E-03    -14.5460E-03    -12.0424E-03     35.7856E-03    -12.2113E-03     2.28823E-03     466.219E-03    -231.984E-03    -233.278E-03    -230.572E-03     464.045E-03    -232.517E-03     77.6980E-03     39.2227E+06     18.3392E+06    -56.5942E+06    -56.5162E+06     18.2612E+06     39.2227E+06     2.22467E+06         60.0565
             452     7.13131E-03     69.7308E-03     36.3904E-03    -8.75419E-03    -15.4817E-03    -9.58302E-03     34.1813E-03    -12.4438E-03    -1.90279E-03     466.141E-03    -231.590E-03    -233.066E-03    -229.900E-03     464.451E-03    -233.066E-03     68.4322E-03     27.3611E+06     8.92424E+06    -65.6261E+06    -65.5854E+06     8.88353E+06     27.3611E+06     1.39835E+06         59.4830
             453     6.33885E-03     69.6517E-03     34.8413E-03    -7.76292E-03    -14.9480E-03    -7.03144E-03     32.1461E-03    -12.9843E-03     3.03601E-03     464.769E-03    -231.807E-03    -233.290E-03    -231.091E-03     463.514E-03    -232.751E-03     58.8894E-03     9.78919E+06    -27.5184E+06    -76.1034E+06    -76.0342E+06    -27.5875E+06     9.78919E+06     1.22489E+06         59.0625
             454     5.54646E-03     69.5890E-03     35.8474E-03    -9.10489E-03    -14.3657E-03    -5.39560E-03     31.7071E-03    -13.9347E-03    -5.20622E-03     464.296E-03    -232.150E-03    -233.725E-03    -231.857E-03     463.463E-03    -233.185E-03     47.7613E-03    -12.0490E+06    -75.3272E+06    -90.5959E+06    -87.1316E+06    -78.7916E+06    -12.0490E+06     1.82884E+06         58.7070
             455     4.75422E-03     69.5442E-03     42.6018E-03    -12.9354E-03    -17.6008E-03    -11.6652E-03     38.5035E-03    -14.7727E-03     128.079E-06     463.667E-03    -231.791E-03    -233.797E-03    -231.291E-03     463.168E-03    -233.797E-03     36.9785E-03    -35.0443E+06    -97.3265E+06    -113.774E+06    -97.6479E+06    -113.453E+06    -35.0443E+06     1.45906E+06         58.4052
             456     3.96146E-03     69.5118E-03     49.6245E-03    -14.5547E-03    -23.2275E-03    -19.1642E-03     45.5613E-03    -14.5547E-03    -3.47272E-03     464.562E-03    -231.628E-03    -234.157E-03    -231.353E-03     464.287E-03    -234.157E-03     27.1763E-03    -59.1262E+06    -107.679E+06    -142.743E+06    -107.714E+06    -142.708E+06    -59.1262E+06     335.117E+03         58.1704
             457     3.16874E-03     69.4942E-03     55.1202E-03    -13.2400E-03    -29.5705E-03    -19.9722E-03     45.5218E-03    -13.2400E-03     10.8404E-03     466.811E-03    -232.167E-03    -233.777E-03    -232.049E-03     466.693E-03    -233.777E-03     17.6538E-03    -83.4849E+06    -118.018E+06    -173.529E+06    -118.064E+06    -173.483E+06    -83.4849E+06    -651.592E+03         57.9488
             458     2.37624E-03     69.4851E-03     58.6869E-03    -11.7219E-03    -35.0767E-03    -15.7487E-03     39.3589E-03    -11.7219E-03    -3.54781E-03     466.043E-03    -232.615E-03    -233.423E-03    -233.331E-03     466.003E-03    -232.667E-03     10.0880E-03    -105.653E+06    -127.297E+06    -201.554E+06    -127.332E+06    -201.519E+06    -105.653E+06    -1.07773E+06         57.6890
             459     1.58373E-03     69.4845E-03     73.1623E-03    -9.91799E-03    -52.4749E-03    -14.4376E-03     35.1250E-03    -9.91799E-03     38.7471E-03     464.447E-03    -232.122E-03    -233.018E-03    -232.912E-03     464.435E-03    -232.217E-03     5.43083E-03    -123.723E+06    -133.518E+06    -226.324E+06    -133.534E+06    -226.309E+06    -123.723E+06    -443.598E+03         57.4218
             460     791.379E-06     69.4870E-03     231.723E-03    -50.6572E-03    -170.142E-03     122.968E-03     28.4091E-03    -140.454E-03    -116.834E-03     464.175E-03    -231.768E-03    -232.478E-03    -232.159E-03     464.172E-03    -232.083E-03     2.42597E-03    -132.904E+06    -137.078E+06    -254.467E+06    -135.745E+06    -254.457E+06    -134.248E+06     161.897E+03         57.2172
             461     13.4774E-03     69.3452E-03     34.6396E-03    -9.16903E-03    -13.7605E-03    -10.4748E-03     34.0967E-03    -11.9118E-03    -3.89821E-03     473.778E-03    -232.662E-03    -241.056E-03    -233.138E-03     465.861E-03    -232.662E-03     146.012E-03     86.3532E+06     50.5360E+06    -4.77552E+06    -4.70366E+06     50.4642E+06     86.3532E+06     791.448E+03         79.7699
             462     12.6826E-03     69.0749E-03     33.1262E-03    -9.25763E-03    -12.1095E-03    -8.70963E-03     32.5782E-03    -12.1095E-03     3.96001E-03     474.003E-03    -232.779E-03    -240.881E-03    -232.629E-03     465.751E-03    -232.779E-03     150.028E-03     83.5787E+06     46.7109E+06    -10.4588E+06    -10.3282E+06     46.5803E+06     83.5787E+06     2.05440E+06         75.9738
             463     11.8904E-03     68.9040E-03     31.9327E-03    -8.35599E-03    -12.4259E-03    -7.38585E-03     30.9625E-03    -12.4259E-03     935.526E-06     470.459E-03    -232.501E-03    -237.074E-03    -231.864E-03     465.249E-03    -232.501E-03     120.972E-03     79.8592E+06     43.6032E+06    -17.3133E+06    -17.0296E+06     43.3195E+06     79.8592E+06     1.30345E+06         71.4775
             464     11.0975E-03     68.7313E-03     33.6558E-03    -9.08319E-03    -13.4740E-03    -7.76606E-03     31.6561E-03    -12.7915E-03     6.17328E-03     469.953E-03    -232.192E-03    -236.611E-03    -231.868E-03     465.210E-03    -232.192E-03     115.228E-03     74.3343E+06     37.4999E+06    -25.5536E+06    -25.3528E+06     37.2991E+06     74.3343E+06     191.700E+03         67.4133
             465     10.3042E-03     68.5855E-03     36.5624E-03    -10.5322E-03    -14.2354E-03    -9.61928E-03     34.5193E-03    -13.1053E-03     8.76645E-03     468.090E-03    -232.631E-03    -234.756E-03    -230.884E-03     464.218E-03    -232.631E-03     103.936E-03     66.7086E+06     28.4386E+06    -34.2450E+06    -34.1667E+06     28.3602E+06     66.7086E+06    -157.120E+03         64.3729
             466     9.51071E-03     68.4524E-03     39.5628E-03    -10.9046E-03    -15.9519E-03    -12.3633E-03     38.3392E-03    -13.2695E-03    -533.011E-06     467.160E-03    -232.751E-03    -234.180E-03    -230.448E-03     463.993E-03    -233.316E-03     93.8658E-03     57.8161E+06     24.2388E+06    -42.6826E+06    -42.5069E+06     24.0631E+06     57.8161E+06    -791.883E+03         62.3146
             467     8.71756E-03     68.3346E-03     41.3030E-03    -11.2061E-03    -16.1206E-03    -12.6856E-03     40.0133E-03    -13.3514E-03    -8.95933E-03     465.804E-03    -232.493E-03    -233.890E-03    -230.691E-03     463.171E-03    -233.058E-03     85.6079E-03     49.9738E+06     24.2573E+06    -49.3637E+06    -49.2140E+06     24.1076E+06     49.9738E+06    -661.857E+03         60.9497
             468     7.92405E-03     68.2305E-03     43.0179E-03    -12.8393E-03    -15.4842E-03    -13.5647E-03     41.6808E-03    -13.4217E-03     882.003E-06     466.562E-03    -232.219E-03    -233.462E-03    -230.871E-03     464.383E-03    -232.631E-03     77.8129E-03     39.4893E+06     18.6680E+06    -56.4628E+06    -56.4164E+06     18.6216E+06     39.4893E+06    -281.199E+03         60.0616
             469     7.13266E-03     68.1379E-03     45.8840E-03    -13.3366E-03    -18.0117E-03    -15.8445E-03     43.7167E-03    -13.3366E-03    -1.64813E-03     466.477E-03    -231.800E-03    -233.155E-03    -230.128E-03     464.805E-03    -233.155E-03     68.0857E-03     27.0092E+06     8.87848E+06    -65.6303E+06    -65.6088E+06     8.85701E+06     27.0092E+06     634.862E+03         59.4862
             470     6.33944E-03     68.0587E-03     45.8265E-03    -13.0863E-03    -18.7757E-03    -15.6794E-03     42.7301E-03    -13.0863E-03     2.34341E-03     464.898E-03    -231.784E-03    -233.272E-03    -231.096E-03     463.665E-03    -232.727E-03     58.3650E-03     10.1767E+06    -28.0177E+06    -76.0166E+06    -75.9267E+06    -28.1075E+06     10.1767E+06     1.60655E+06         59.0651
             471     5.54657E-03     67.9961E-03     45.3056E-03    -11.6404E-03    -20.7111E-03    -15.2051E-03     40.9155E-03    -12.7563E-03    -4.01639E-03     464.292E-03    -232.173E-03    -233.704E-03    -231.894E-03     463.468E-03    -233.159E-03     47.5451E-03    -11.6154E+06    -75.7811E+06    -89.2949E+06    -86.7741E+06    -78.3019E+06    -11.6154E+06     1.70568E+06         58.7103
             472     4.75372E-03     67.9495E-03     44.3905E-03    -11.2568E-03    -20.3955E-03    -14.1704E-03     39.2812E-03    -12.3726E-03     188.080E-06     463.713E-03    -231.880E-03    -233.759E-03    -231.383E-03     463.216E-03    -233.759E-03     36.8862E-03    -34.4367E+06    -97.0170E+06    -112.318E+06    -97.3128E+06    -112.023E+06    -34.4367E+06     1.28636E+06         58.4077
             473     3.96139E-03     67.9187E-03     46.0660E-03    -11.9966E-03    -21.2681E-03    -13.4311E-03     38.2290E-03    -11.9966E-03    -9.53443E-03     464.705E-03    -231.726E-03    -234.060E-03    -231.456E-03     464.435E-03    -234.060E-03     26.9308E-03    -57.7388E+06    -107.094E+06    -141.157E+06    -107.128E+06    -141.122E+06    -57.7388E+06     1.06232E+06         58.1687
             474     3.16911E-03     67.8992E-03     43.5668E-03    -7.11826E-03    -24.2868E-03    -7.11345E-03     31.7541E-03    -12.4788E-03    -4.72144E-03     466.684E-03    -232.028E-03    -233.591E-03    -231.913E-03     466.570E-03    -233.591E-03     17.3272E-03    -81.1047E+06    -116.514E+06    -171.641E+06    -116.537E+06    -171.618E+06    -81.1047E+06     1.00406E+06         57.9425
             475     2.37698E-03     67.8922E-03     48.6972E-03    -11.1255E-03    -26.3358E-03     3.56306E-03     24.1589E-03    -16.4860E-03    -21.4791E-03     465.792E-03    -232.451E-03    -233.258E-03    -233.098E-03     465.753E-03    -232.573E-03     10.0140E-03    -104.146E+06    -125.122E+06    -200.756E+06    -125.138E+06    -200.740E+06    -104.146E+06     198.748E+03         57.6822
             476     1.58431E-03     67.8915E-03     84.3595E-03    -26.4758E-03    -47.4574E-03     103.712E-06     36.7983E-03    -26.4758E-03     38.9563E-03     464.433E-03    -232.027E-03    -232.989E-03    -232.883E-03     464.422E-03    -232.122E-03     5.30015E-03    -122.083E+06    -131.699E+06    -227.882E+06    -131.711E+06    -227.870E+06    -122.083E+06    -518.891E+03         57.4157
             477     792.224E-06     67.8915E-03     243.560E-03    -48.5564E-03    -187.094E-03     104.742E-03     73.9828E-03    -170.815E-03    -131.447E-03     464.164E-03    -231.591E-03    -232.508E-03    -232.411E-03     464.162E-03    -231.686E-03     2.14345E-03    -131.825E+06    -137.205E+06    -255.802E+06    -135.867E+06    -255.797E+06    -133.169E+06     96.7492E+03         57.2120
             478     13.4760E-03     67.7493E-03     31.2483E-03    -8.17641E-03    -11.9477E-03    -8.13212E-03     31.2040E-03    -11.9477E-03    -1.87059E-03     473.829E-03    -232.657E-03    -241.314E-03    -233.467E-03     465.982E-03    -232.657E-03     145.446E-03     86.7193E+06     49.2822E+06    -5.44597E+06    -5.34295E+06     49.1792E+06     86.7193E+06     342.234E+03         79.7630
             479     12.6840E-03     67.4816E-03     35.0734E-03    -9.82972E-03    -13.5394E-03    -11.1748E-03     34.9182E-03    -12.0391E-03    -4.48480E-03     473.871E-03    -232.811E-03    -240.897E-03    -232.712E-03     465.686E-03    -232.811E-03     149.474E-03     83.5450E+06     45.7761E+06    -10.7249E+06    -10.6402E+06     45.6914E+06     83.5450E+06     960.328E+03         75.9731
             480     11.8903E-03     67.3096E-03     36.7977E-03    -9.22862E-03    -15.3591E-03    -11.8908E-03     36.0752E-03    -11.9745E-03    -10.7736E-03     470.310E-03    -232.620E-03    -236.947E-03    -231.749E-03     465.112E-03    -232.620E-03     120.812E-03     81.2439E+06     44.3264E+06    -16.0956E+06    -15.9499E+06     44.1806E+06     81.2439E+06     1.53447E+06         71.4798
             481     11.0975E-03     67.1378E-03     36.6145E-03    -8.48692E-03    -15.4993E-03    -11.4999E-03     35.9591E-03    -11.8310E-03    -7.59905E-03     470.063E-03    -232.266E-03    -236.581E-03    -231.851E-03     465.332E-03    -232.266E-03     115.073E-03     78.1730E+06     38.3690E+06    -21.8941E+06    -21.7375E+06     38.2124E+06     78.1730E+06     1.81415E+06         67.4210
             482     10.3032E-03     66.9920E-03     34.1084E-03    -7.98935E-03    -13.5457E-03    -8.43234E-03     32.7675E-03    -11.7617E-03    -8.96975E-03     468.385E-03    -232.645E-03    -234.997E-03    -231.121E-03     464.509E-03    -232.645E-03     104.039E-03     71.0441E+06     29.7975E+06    -29.0994E+06    -29.0083E+06     29.7063E+06     71.0441E+06     2.26183E+06         64.3837
             483     9.51071E-03     66.8597E-03     30.6252E-03    -5.43909E-03    -12.0415E-03    -3.43651E-03     28.6226E-03    -12.0415E-03    -11.3273E-03     467.171E-03    -232.675E-03    -234.310E-03    -230.499E-03     464.016E-03    -233.330E-03     93.6593E-03     60.1451E+06     27.0877E+06    -38.0989E+06    -37.9397E+06     26.9285E+06     60.1451E+06     729.391E+03         62.3213
             484     8.71751E-03     66.7451E-03     34.0538E-03    -7.13301E-03    -12.5613E-03    -5.29851E-03     32.2193E-03    -12.5613E-03    -12.9705E-03     465.761E-03    -232.384E-03    -233.913E-03    -230.644E-03     463.147E-03    -233.040E-03     85.2905E-03     48.4834E+06     24.6402E+06    -48.2511E+06    -48.1077E+06     24.4969E+06     48.4834E+06    -1.57065E+06         60.9514
             485     7.92473E-03     66.6362E-03     38.6359E-03    -10.7759E-03    -12.9398E-03    -9.66671E-03     37.5039E-03    -12.9170E-03    -8.66869E-03     466.673E-03    -232.389E-03    -233.491E-03    -231.090E-03     464.501E-03    -232.619E-03     77.6860E-03     36.8021E+06     16.4945E+06    -58.4089E+06    -58.3655E+06     16.4510E+06     36.8021E+06    -1.68277E+06         60.0620
             486     7.13205E-03     66.5436E-03     41.1095E-03    -11.0627E-03    -14.7188E-03    -11.0845E-03     39.4940E-03    -13.0816E-03    -10.4857E-03     466.876E-03    -232.107E-03    -233.147E-03    -230.436E-03     465.205E-03    -233.147E-03     68.1334E-03     25.0360E+06     6.58974E+06    -68.2266E+06    -68.1889E+06     6.55201E+06     25.0360E+06    -682.277E+03         59.4877
             487     6.33983E-03     66.4654E-03     46.1374E-03    -12.2470E-03    -18.7599E-03    -15.6544E-03     43.7370E-03    -12.9521E-03    -2.30083E-03     465.120E-03    -231.901E-03    -233.263E-03    -231.211E-03     463.879E-03    -232.712E-03     58.5617E-03     8.98444E+06    -29.0871E+06    -77.6570E+06    -77.6036E+06    -29.1405E+06     8.98444E+06     246.991E+03         59.0670
             488     5.54701E-03     66.4012E-03     49.5775E-03    -12.0499E-03    -23.3825E-03    -21.8496E-03     48.0446E-03    -12.0499E-03    -435.328E-06     464.112E-03    -232.039E-03    -233.677E-03    -231.771E-03     463.293E-03    -233.125E-03     47.3982E-03    -12.0448E+06    -76.0352E+06    -89.3542E+06    -87.4858E+06    -77.9036E+06    -12.0448E+06     978.591E+03         58.7105
             489     4.75433E-03     66.3535E-03     44.5920E-03    -10.6212E-03    -19.4722E-03    -16.9958E-03     42.3331E-03    -10.8387E-03    -2.56978E-03     463.603E-03    -231.733E-03    -233.712E-03    -231.241E-03     463.112E-03    -233.712E-03     36.6585E-03    -34.0984E+06    -97.8704E+06    -111.368E+06    -98.1139E+06    -111.125E+06    -34.0984E+06     1.11231E+06         58.4045
             490     3.96209E-03     66.3224E-03     35.6465E-03    -8.02950E-03    -13.1745E-03    -5.83703E-03     31.1288E-03    -10.8493E-03    -1.29414E-03     464.566E-03    -231.672E-03    -233.995E-03    -231.403E-03     464.296E-03    -233.995E-03     26.9171E-03    -57.5481E+06    -108.657E+06    -140.487E+06    -108.688E+06    -140.456E+06    -57.5481E+06     837.583E+03         58.1616
             491     3.16981E-03     66.3060E-03     34.1298E-03    -4.31200E-03    -16.0500E-03    -5.02041E-03     31.0632E-03    -12.2749E-03    -8.04147E-03     466.432E-03    -231.929E-03    -233.525E-03    -231.811E-03     466.315E-03    -233.525E-03     17.5744E-03    -81.3964E+06    -117.798E+06    -170.949E+06    -117.815E+06    -170.932E+06    -81.3964E+06     591.043E+03         57.9337
             492     2.37636E-03     66.2982E-03     48.1309E-03    -7.59549E-03    -26.8435E-03    -14.3107E-03     40.9587E-03    -12.9560E-03    -22.4755E-03     465.714E-03    -232.343E-03    -233.346E-03    -233.138E-03     465.672E-03    -232.509E-03     10.3439E-03    -103.730E+06    -125.259E+06    -199.286E+06    -125.269E+06    -199.277E+06    -103.730E+06     628.256E+03         57.6744
             493     1.58433E-03     66.2960E-03     65.6838E-03    -10.2406E-03    -43.6669E-03    -20.1792E-03     42.1961E-03    -10.2406E-03     30.7001E-03     464.213E-03    -231.718E-03    -232.931E-03    -232.919E-03     464.201E-03    -231.718E-03     5.30324E-03    -121.545E+06    -130.969E+06    -227.674E+06    -130.974E+06    -227.669E+06    -121.545E+06     477.562E+03         57.4088
             494     792.093E-06     66.2983E-03     191.422E-03    -48.8394E-03    -131.760E-03     93.8231E-03     26.2766E-03    -109.277E-03    -116.576E-03     463.585E-03    -231.325E-03    -232.122E-03    -232.120E-03     463.582E-03    -231.325E-03     2.22444E-03    -131.170E+06    -135.592E+06    -255.418E+06    -134.742E+06    -255.414E+06    -132.024E+06    -82.3298E+03         57.2032
             495     13.4779E-03     66.1559E-03     34.8354E-03    -8.79933E-03    -11.9428E-03    -8.37405E-03     33.8116E-03    -11.3443E-03    -3.82071E-03     473.872E-03    -232.644E-03    -241.421E-03    -233.485E-03     465.936E-03    -232.644E-03     146.204E-03     86.7010E+06     48.6571E+06    -5.12752E+06    -4.98980E+06     48.5194E+06     86.7010E+06     463.565E+03         79.7491
             496     12.6833E-03     65.8854E-03     36.9426E-03    -8.54364E-03    -12.8501E-03    -9.72220E-03     36.6208E-03    -11.3498E-03    -117.993E-06     473.591E-03    -232.795E-03    -240.987E-03    -232.723E-03     465.327E-03    -232.795E-03     150.083E-03     82.4555E+06     45.5410E+06    -10.6874E+06    -10.5636E+06     45.4172E+06     82.4555E+06     580.488E+03         75.9613
             497     11.8903E-03     65.7158E-03     41.1579E-03    -10.2440E-03    -15.6721E-03    -14.2585E-03     40.7168E-03    -11.2164E-03    -2.99152E-03     470.166E-03    -232.674E-03    -236.976E-03    -231.758E-03     464.948E-03    -232.674E-03     121.034E-03     79.3004E+06     43.8407E+06    -17.0831E+06    -17.0091E+06     43.7667E+06     79.3004E+06     231.684E+03         71.4745
             498     11.0970E-03     65.5445E-03     41.0870E-03    -10.9415E-03    -15.9985E-03    -15.4729E-03     40.5615E-03    -10.9415E-03     2.84563E-03     470.286E-03    -232.368E-03    -236.711E-03    -231.982E-03     465.557E-03    -232.368E-03     115.060E-03     76.6764E+06     36.6744E+06    -23.4981E+06    -23.4268E+06     36.6031E+06     76.6764E+06     383.547E+03         67.4232
             499     10.3045E-03     65.3982E-03     35.7215E-03    -9.09308E-03    -12.9562E-03    -9.96239E-03     34.4892E-03    -10.8546E-03    -2.89856E-03     468.686E-03    -232.681E-03    -235.200E-03    -231.340E-03     464.826E-03    -232.681E-03     103.885E-03     71.9791E+06     30.0527E+06    -30.0889E+06    -30.0141E+06     29.9779E+06     71.9791E+06     715.211E+03         64.3868
             500     9.51077E-03     65.2639E-03     33.7060E-03    -6.38116E-03    -13.4727E-03    -5.60833E-03     30.6413E-03    -11.1808E-03     5.85095E-03     467.414E-03    -232.743E-03    -234.315E-03    -230.588E-03     464.256E-03    -233.312E-03     93.7219E-03     63.3452E+06     29.4567E+06    -37.0990E+06    -37.0289E+06     29.3866E+06     63.3452E+06     1.44016E+06         62.3201
             501     8.71874E-03     65.1441E-03     34.4978E-03    -6.46328E-03    -14.0134E-03    -5.86932E-03     31.6119E-03    -11.7215E-03     11.2253E-03     465.784E-03    -232.440E-03    -233.915E-03    -230.740E-03     463.178E-03    -233.009E-03     85.1611E-03      51.123E+06     26.5135E+06    -45.9537E+06    -45.8374E+06     26.3971E+06      51.123E+06     1.84693E+06         60.9469
             502     7.92531E-03     65.0383E-03     37.8146E-03    -8.73050E-03    -14.2020E-03    -7.42990E-03     34.5764E-03    -12.2644E-03     11.3425E-03     466.409E-03    -232.232E-03    -233.482E-03    -230.978E-03     464.250E-03    -232.577E-03     77.4320E-03     37.4916E+06     17.9680E+06    -56.6626E+06    -56.5697E+06     17.8751E+06     37.4916E+06     845.970E+03         60.0574
             503     7.13244E-03     64.9458E-03     41.5678E-03    -10.6380E-03    -15.2939E-03    -10.7183E-03     39.0111E-03    -12.6568E-03     7.37858E-03     466.581E-03    -231.927E-03    -233.113E-03    -230.268E-03     464.922E-03    -233.113E-03     67.8669E-03     24.1947E+06     6.74757E+06    -67.6485E+06    -67.6156E+06     6.71468E+06     24.1947E+06    -770.428E+03         59.4846
             504     6.33991E-03     64.8669E-03     45.3117E-03    -12.0334E-03    -17.5274E-03    -13.7507E-03     42.2401E-03    -12.7385E-03     13.3526E-03     464.959E-03    -231.828E-03    -233.295E-03    -231.214E-03     463.719E-03    -232.670E-03     58.5623E-03     7.73847E+06    -31.0807E+06    -78.5939E+06    -78.5160E+06    -31.1586E+06     7.73847E+06    -1.35461E+06         59.0647
             505     5.54724E-03     64.8058E-03     46.6740E-03    -12.6404E-03    -18.9085E-03    -13.6380E-03     41.4036E-03    -12.6404E-03     4.24138E-03     464.037E-03    -231.988E-03    -233.712E-03    -231.784E-03     463.207E-03    -233.086E-03     47.6941E-03    -12.0008E+06    -78.3653E+06    -89.9230E+06    -88.7738E+06    -79.5145E+06    -12.0008E+06    -229.779E+03         58.7073
             506     4.75516E-03     64.7601E-03     42.7014E-03    -12.3755E-03    -15.8917E-03    -12.9205E-03     39.9476E-03    -12.5930E-03    -10.8154E-03     463.461E-03    -231.505E-03    -233.705E-03    -231.001E-03     462.956E-03    -233.705E-03     37.1588E-03    -33.2161E+06    -98.2302E+06    -110.404E+06    -98.4426E+06    -110.191E+06    -33.2161E+06     270.482E+03         58.3993
             507     3.96179E-03     64.7305E-03     44.3461E-03    -9.38874E-03    -20.7366E-03    -16.1962E-03     42.6256E-03    -12.2086E-03    -7.10688E-03     464.402E-03    -231.438E-03    -234.010E-03    -231.159E-03     464.122E-03    -234.010E-03     27.3698E-03    -57.2565E+06    -108.398E+06    -139.950E+06    -108.428E+06    -139.920E+06    -57.2565E+06    -180.684E+03         58.1551
             508     3.16890E-03     64.7144E-03     45.2145E-03    -8.42045E-03    -21.5116E-03    -17.3537E-03     43.6589E-03    -11.0228E-03    -7.86554E-03     466.664E-03    -232.052E-03    -233.733E-03    -232.079E-03     466.545E-03    -233.587E-03     17.7615E-03    -81.9543E+06    -117.971E+06    -170.653E+06    -117.975E+06    -170.650E+06    -81.9543E+06    -165.621E+03         57.9284
             509     2.37740E-03     64.7065E-03     42.3084E-03    -6.95420E-03    -19.8502E-03    -17.1538E-03     41.4880E-03    -8.83019E-03    -3.04230E-03     466.045E-03    -232.412E-03    -233.551E-03    -233.446E-03     466.004E-03    -232.475E-03     10.1664E-03    -104.560E+06    -125.842E+06    -199.557E+06    -125.846E+06    -199.553E+06    -104.560E+06     352.975E+03         57.6694
             510     1.58509E-03     64.7046E-03     52.5422E-03    -2.51588E-03    -34.8197E-03    -13.7351E-03     34.2705E-03    -5.32878E-03     44.8922E-03     464.032E-03    -231.687E-03    -232.855E-03    -232.801E-03     464.022E-03    -231.730E-03     4.91298E-03    -122.768E+06    -131.480E+06    -226.524E+06    -131.484E+06    -226.520E+06    -122.768E+06     487.404E+03         57.4026
             511     792.815E-06     64.7061E-03     155.036E-03    -46.4365E-03    -94.5009E-03     66.5440E-03     20.5036E-03    -72.9490E-03    -93.8769E-03     463.255E-03    -231.387E-03    -231.919E-03    -231.708E-03     463.253E-03    -231.596E-03     2.04404E-03    -132.043E+06    -135.462E+06    -255.105E+06    -134.610E+06    -255.102E+06    -132.897E+06    -101.987E+03         57.1948
             512     13.4770E-03     64.5617E-03     38.3737E-03    -9.10042E-03    -12.1104E-03    -9.56649E-03     37.0223E-03    -10.2929E-03    -6.16451E-03     473.680E-03    -232.648E-03    -241.235E-03    -233.307E-03     465.752E-03    -232.648E-03     146.032E-03     85.1055E+06     47.8463E+06    -5.48931E+06    -5.29802E+06     47.6550E+06     85.1055E+06     222.962E+03         79.7295
             513     12.6833E-03     64.2880E-03     33.4568E-03    -4.84226E-03    -11.1358E-03    -4.60051E-03     32.4135E-03    -10.3342E-03    -4.53973E-03     473.478E-03    -232.760E-03    -240.877E-03    -232.618E-03     465.218E-03    -232.760E-03     149.968E-03     81.9115E+06     45.4106E+06    -11.0695E+06    -10.9294E+06     45.2705E+06     81.9115E+06     -81.979E+03         75.9474
             514     11.8903E-03     64.1149E-03     29.3138E-03    -1.05717E-03    -11.7792E-03    -1.27876E-03     28.4644E-03    -10.7082E-03     376.533E-06     470.181E-03    -232.636E-03    -237.128E-03    -231.918E-03     464.971E-03    -232.636E-03     120.963E-03     80.0913E+06     44.0175E+06    -16.3002E+06    -16.2601E+06     43.9774E+06     80.0913E+06     461.950E+03         71.4642
             515     11.0976E-03     63.9438E-03     30.0277E-03    -2.89333E-03    -12.6629E-03    -3.72619E-03     29.4719E-03    -11.2743E-03     5.32063E-03     470.236E-03    -232.374E-03    -236.884E-03    -232.151E-03     465.503E-03    -232.374E-03     115.117E-03     76.0295E+06     36.8162E+06    -23.5884E+06    -23.5536E+06     36.7813E+06     76.0295E+06     590.477E+03         67.4117
             516     10.3042E-03     63.7976E-03     34.9655E-03    -8.09250E-03    -13.4881E-03    -9.56041E-03     34.6294E-03    -11.6841E-03    -2.33649E-03     468.493E-03    -232.612E-03    -235.096E-03    -231.252E-03     464.649E-03    -232.612E-03     103.634E-03     69.9055E+06     29.8383E+06    -31.7981E+06    -31.7758E+06     29.8159E+06     69.9055E+06    -374.320E+03         64.3733
             517     9.51164E-03     63.6666E-03     40.9056E-03    -11.1717E-03    -16.5421E-03    -13.9262E-03     38.8519E-03    -11.7339E-03     4.54984E-03     467.383E-03    -232.708E-03    -234.207E-03    -230.519E-03     464.223E-03    -233.236E-03     93.7677E-03     61.7574E+06     28.3997E+06    -40.0738E+06    -40.0552E+06     28.3812E+06     61.7574E+06    -399.574E+03         62.3103
             518     8.71880E-03     63.5488E-03     41.1354E-03    -9.63736E-03    -17.9934E-03    -12.2704E-03     37.3875E-03    -11.6126E-03     2.37136E-03     465.910E-03    -232.480E-03    -234.021E-03    -230.865E-03     463.282E-03    -233.009E-03     85.5240E-03     51.9623E+06     26.0678E+06    -47.7876E+06    -47.6941E+06     25.9743E+06     51.9623E+06     784.820E+03         60.9431
             519     7.92641E-03     63.4449E-03     40.0416E-03    -9.31437E-03    -16.5851E-03    -9.87302E-03     35.6035E-03    -11.5884E-03     2.75638E-03     466.487E-03    -232.192E-03    -233.573E-03    -231.029E-03     464.312E-03    -232.560E-03     77.7424E-03     40.0689E+06     19.5068E+06    -55.2735E+06    -55.1693E+06     19.4027E+06     40.0689E+06     1.72551E+06         60.0547
             520     7.13295E-03     63.3506E-03     41.0224E-03    -11.3567E-03    -14.9136E-03    -9.54359E-03     35.9512E-03    -11.6555E-03    -3.78797E-03     466.186E-03    -231.713E-03    -233.059E-03    -230.043E-03     464.517E-03    -233.059E-03     68.0353E-03     26.3482E+06     9.28284E+06    -64.7780E+06    -64.7166E+06     9.22141E+06     26.3482E+06     1.43810E+06         59.4798
             521     6.33999E-03     63.2727E-03     39.6277E-03    -9.87865E-03    -15.1833E-03    -8.43585E-03     34.8570E-03    -11.8554E-03     1.01636E-03     464.545E-03    -231.639E-03    -233.257E-03    -231.034E-03     463.300E-03    -232.618E-03     58.6400E-03     8.91915E+06    -30.1202E+06    -76.3800E+06    -76.2804E+06    -30.2198E+06     8.91915E+06     167.360E+03         59.0585
             522     5.54733E-03     63.2104E-03     41.6175E-03    -10.3118E-03    -17.7996E-03    -7.92609E-03     33.7209E-03    -12.2886E-03    -11.0445E-03     463.967E-03    -231.930E-03    -233.707E-03    -231.733E-03     463.131E-03    -233.068E-03     47.8719E-03    -11.8912E+06    -77.8454E+06    -89.8779E+06    -87.7012E+06    -80.0221E+06    -11.8912E+06    -1.36832E+06         58.7017
             523     4.75454E-03     63.1646E-03     43.0628E-03    -12.6330E-03    -17.5173E-03    -11.4731E-03     37.0185E-03    -12.6330E-03    -17.6122E-03     463.419E-03    -231.400E-03    -233.716E-03    -230.893E-03     462.912E-03    -233.716E-03     37.2288E-03    -33.9346E+06    -97.5728E+06    -111.498E+06    -98.1086E+06    -110.962E+06    -33.9346E+06    -1.39472E+06         58.3948
             524     3.96173E-03     63.1361E-03     42.9285E-03    -9.30246E-03    -21.0925E-03    -16.1789E-03     41.0164E-03    -12.3038E-03    -6.58564E-03     464.466E-03    -231.493E-03    -234.005E-03    -231.214E-03     464.187E-03    -234.005E-03     27.3216E-03    -58.0481E+06    -108.371E+06    -140.653E+06    -108.391E+06    -140.632E+06    -58.0481E+06    -453.888E+03         58.1521
             525     3.16958E-03     63.1180E-03     38.9789E-03    -5.78136E-03    -19.5473E-03    -11.3133E-03     36.9663E-03    -12.0027E-03    -7.36343E-03     466.813E-03    -232.180E-03    -233.716E-03    -232.261E-03     466.692E-03    -233.514E-03     17.8945E-03    -82.3670E+06    -118.138E+06    -171.189E+06    -118.147E+06    -171.180E+06    -82.3670E+06     249.554E+03         57.9267
             526     2.37734E-03     63.1112E-03     34.5334E-03    -5.59041E-03    -14.0433E-03    -3.11165E-03     31.9178E-03    -13.9064E-03     10.5291E-03     465.997E-03    -232.395E-03    -233.575E-03    -233.533E-03     465.955E-03    -232.395E-03     10.3602E-03    -105.012E+06    -126.340E+06    -199.665E+06    -126.347E+06    -199.658E+06    -105.012E+06     618.871E+03         57.6665
             527     1.58504E-03     63.1130E-03     49.2479E-03    -13.3563E-03    -22.3328E-03    -4.67516E-03     37.6232E-03    -19.3893E-03     38.3695E-03     463.932E-03    -231.796E-03    -232.832E-03    -232.764E-03     463.921E-03    -231.854E-03     5.13165E-03    -123.870E+06    -132.672E+06    -225.469E+06    -132.677E+06    -225.465E+06    -123.870E+06     505.033E+03         57.3973
             528     792.277E-06     63.1124E-03     134.455E-03    -29.7427E-03    -92.2524E-03     43.1783E-03     58.5907E-03    -89.3089E-03    -87.8631E-03     463.219E-03    -231.510E-03    -231.760E-03    -231.507E-03     463.217E-03    -231.760E-03     2.11673E-03    -133.507E+06    -137.159E+06    -255.022E+06    -136.156E+06    -255.019E+06    -134.513E+06     203.141E+03         57.1880
             529     13.4776E-03     62.9623E-03     38.8437E-03    -10.0643E-03    -13.4230E-03    -12.4754E-03     37.8960E-03    -10.0643E-03     4.22599E-03     473.780E-03    -232.651E-03    -241.383E-03    -233.490E-03     465.887E-03    -232.651E-03     145.760E-03     85.5964E+06     48.3846E+06    -5.16696E+06    -4.95527E+06     48.1729E+06     85.5964E+06     224.588E+03         79.7094
             530     12.6831E-03     62.6915E-03     34.8087E-03    -6.80458E-03    -13.1787E-03    -8.90525E-03     33.8623E-03    -10.1316E-03    -3.05131E-03     473.421E-03    -232.761E-03    -240.746E-03    -232.507E-03     465.182E-03    -232.761E-03     149.825E-03     82.2933E+06     44.6774E+06    -10.6664E+06    -10.5262E+06     44.5372E+06     82.2933E+06     433.793E+03         75.9333
             531     11.8896E-03     62.5206E-03     28.5905E-03    -1.50619E-03    -11.8865E-03    -2.06303E-03     27.7835E-03    -10.5227E-03     1.54935E-03     470.131E-03    -232.561E-03    -237.003E-03    -231.778E-03     464.907E-03    -232.561E-03     121.111E-03     79.2622E+06     43.2946E+06    -17.7791E+06    -17.7703E+06     43.2859E+06     79.2622E+06     364.054E+03         71.4524
             532     11.0972E-03     62.3496E-03     28.6620E-03    -2.37670E-03    -11.8373E-03    -2.38846E-03     27.9320E-03    -11.0956E-03     6.15072E-03     470.097E-03    -232.286E-03    -236.802E-03    -232.050E-03     465.345E-03    -232.286E-03     115.336E-03     75.9836E+06     37.6117E+06    -24.2158E+06    -24.1957E+06     37.5916E+06     75.9836E+06     11.5754E+03         67.3994
             533     10.3047E-03     62.2022E-03     34.6529E-03    -7.98185E-03    -13.6227E-03    -9.09942E-03     33.5423E-03    -11.3946E-03    -4.65175E-03     468.241E-03    -232.543E-03    -235.024E-03    -231.158E-03     464.375E-03    -232.543E-03     103.905E-03     70.8066E+06     30.4616E+06    -30.9085E+06    -30.8843E+06     30.4374E+06     70.8066E+06     100.419E+03         64.3632
             534     9.51118E-03     62.0715E-03     39.9582E-03    -10.8714E-03    -16.0996E-03    -13.8572E-03     38.0991E-03    -11.2547E-03    -1.83798E-03     467.322E-03    -232.700E-03    -234.233E-03    -230.571E-03     464.145E-03    -233.185E-03     94.0334E-03     61.9826E+06     28.9607E+06    -39.0048E+06    -38.9938E+06     28.9496E+06     61.9826E+06    -211.228E+03         62.3053
             535     8.71865E-03     61.9539E-03     44.1173E-03    -10.7360E-03    -20.3398E-03    -17.6795E-03     41.4571E-03    -10.7360E-03    -1.84114E-03     465.880E-03    -232.528E-03    -233.897E-03    -230.757E-03     463.224E-03    -233.013E-03     85.9915E-03     50.8026E+06     25.1605E+06    -48.2425E+06    -48.2280E+06     25.1460E+06     50.8026E+06    -732.965E+03         60.9419
             536     7.92526E-03     61.8482E-03     41.5410E-03    -9.81367E-03    -18.5842E-03    -14.9023E-03     38.1579E-03    -10.1125E-03    -1.69218E-03     466.548E-03    -232.138E-03    -233.434E-03    -230.816E-03     464.343E-03    -232.550E-03     78.2613E-03     39.0045E+06     17.5262E+06    -57.2628E+06    -57.2097E+06     17.4731E+06     39.0045E+06    -537.791E+03         60.0544
             537     7.13273E-03     61.7566E-03     34.5237E-03    -8.26424E-03    -12.8931E-03    -6.17268E-03     29.5846E-03    -10.0456E-03     431.742E-06     466.353E-03    -231.784E-03    -233.033E-03    -230.098E-03     464.667E-03    -233.033E-03     68.3741E-03     26.0342E+06     8.11582E+06    -66.1821E+06    -66.0965E+06     8.03020E+06     26.0342E+06     975.033E+03         59.4775
             538     6.33987E-03     61.6783E-03     33.2798E-03    -7.25884E-03    -13.8586E-03    -3.22897E-03     26.1096E-03    -10.7182E-03     10.0739E-03     464.573E-03    -231.764E-03    -233.155E-03    -231.069E-03     463.324E-03    -232.602E-03     58.7459E-03     8.31502E+06    -26.4223E+06    -75.7922E+06    -75.7458E+06    -26.4687E+06     8.31502E+06     1.19785E+06         59.0542
             539     5.54700E-03     61.6145E-03     35.7805E-03    -8.45325E-03    -17.1328E-03    -6.48116E-03     28.2374E-03    -11.5618E-03     3.43615E-03     463.940E-03    -231.834E-03    -233.613E-03    -231.554E-03     463.107E-03    -233.060E-03     47.7615E-03    -13.1534E+06    -73.4123E+06    -90.1249E+06    -86.1883E+06    -77.3489E+06    -13.1534E+06    -849.437E+03         58.6982
             540     4.75445E-03     61.5716E-03     37.9880E-03    -11.1629E-03    -16.3265E-03    -8.19719E-03     30.9905E-03    -12.2947E-03     2.81815E-03     463.547E-03    -231.483E-03    -233.708E-03    -230.979E-03     463.042E-03    -233.708E-03     37.1691E-03    -35.5683E+06    -97.2932E+06    -114.379E+06    -97.7524E+06    -113.920E+06    -35.5683E+06    -873.057E+03         58.3928
             541     3.96184E-03     61.5409E-03     37.0649E-03    -10.2710E-03    -15.2324E-03    -7.30879E-03     32.1426E-03    -13.2724E-03     4.81977E-03     464.504E-03    -231.740E-03    -233.986E-03    -231.462E-03     464.226E-03    -233.986E-03     27.2911E-03    -58.5642E+06    -108.399E+06    -142.154E+06    -108.414E+06    -142.138E+06    -58.5642E+06     475.566E+03         58.1506
             542     3.16930E-03     61.5234E-03     39.8979E-03    -8.06958E-03    -19.6789E-03    -11.1478E-03     37.5881E-03    -14.2909E-03    -14.1050E-03     466.473E-03    -232.158E-03    -233.527E-03    -232.095E-03     466.353E-03    -233.471E-03     17.7406E-03    -81.7419E+06    -118.282E+06    -171.306E+06    -118.301E+06    -171.287E+06    -81.7419E+06     899.573E+03         57.9261
             543     2.37687E-03     61.5169E-03     49.2968E-03    -8.22433E-03    -28.1822E-03    -14.8182E-03     42.3728E-03    -14.6644E-03    -15.2160E-03     465.688E-03    -232.356E-03    -233.232E-03    -233.123E-03     465.645E-03    -232.422E-03     10.5122E-03    -104.501E+06    -127.289E+06    -199.586E+06    -127.299E+06    -199.575E+06    -104.501E+06     809.244E+03         57.6670
             544     1.58460E-03     61.5180E-03     53.0916E-03    -11.1045E-03    -32.1123E-03    -15.5973E-03     39.7967E-03    -14.3246E-03     18.8827E-03     464.041E-03    -231.899E-03    -232.753E-03    -232.727E-03     464.029E-03    -231.913E-03     5.39564E-03    -123.326E+06    -133.336E+06    -223.802E+06    -133.342E+06    -223.796E+06    -123.326E+06     698.315E+03         57.3984
             545     792.626E-06     61.5196E-03     108.578E-03    -27.3883E-03    -73.3482E-03     35.3378E-03     35.9251E-03    -63.4216E-03    -70.0067E-03     463.593E-03    -231.719E-03    -231.925E-03    -231.802E-03     463.590E-03    -231.839E-03     2.28427E-03    -133.849E+06    -137.415E+06    -253.664E+06    -136.417E+06    -253.657E+06    -134.855E+06     690.464E+03         57.1913
             546     13.4765E-03     61.3682E-03     30.2304E-03    -7.05899E-03    -12.7777E-03    -7.60770E-03     28.6395E-03    -10.6380E-03     4.32873E-03     473.939E-03    -232.650E-03    -241.596E-03    -233.672E-03     466.016E-03    -232.650E-03     146.088E-03     86.3606E+06     47.5790E+06    -5.20042E+06    -5.01446E+06      47.393E+06     86.3606E+06     490.103E+03         79.6895
             547     12.6839E-03     61.0969E-03     32.5308E-03    -8.01740E-03    -13.1194E-03    -8.91902E-03     31.1868E-03    -10.8739E-03    -4.00517E-03     473.728E-03    -232.755E-03    -240.850E-03    -232.586E-03     465.464E-03    -232.755E-03     150.090E-03     82.3516E+06     44.5308E+06    -11.4013E+06    -11.2955E+06     44.4250E+06     82.3516E+06     578.110E+03         75.9184
             548     11.8902E-03     60.9262E-03     37.2149E-03    -9.15387E-03    -15.2075E-03    -12.9356E-03     36.7369E-03    -10.9477E-03     2.01214E-03     470.229E-03    -232.482E-03    -236.959E-03    -231.737E-03     465.007E-03    -232.482E-03     121.086E-03     79.7560E+06     44.2786E+06    -16.6129E+06    -16.6087E+06     44.2744E+06     79.7560E+06     75.2300E+03         71.4408
             549     11.0967E-03     60.7518E-03     39.6764E-03    -10.4336E-03    -16.4475E-03    -14.9708E-03     38.5376E-03    -10.7715E-03     14.1133E-03     470.055E-03    -232.217E-03    -236.547E-03    -231.811E-03     465.319E-03    -232.217E-03     115.120E-03     76.2257E+06     37.8936E+06    -23.2838E+06    -23.2676E+06     37.8774E+06     76.2257E+06    -264.256E+03         67.3909
             550     10.3032E-03     60.6092E-03     36.0717E-03    -10.1457E-03    -13.3805E-03    -11.2663E-03     34.4122E-03    -10.6004E-03     3.35252E-03     468.057E-03    -232.541E-03    -234.899E-03    -231.030E-03     464.189E-03    -232.541E-03     103.928E-03     70.4686E+06     30.1269E+06    -30.9688E+06    -30.9314E+06     30.0895E+06     70.4686E+06    -428.485E+03         64.3587
             551     9.51125E-03     60.4764E-03     36.6946E-03    -10.2159E-03    -14.1360E-03    -8.44835E-03     31.4617E-03    -10.6706E-03     12.8515E-03     467.213E-03    -232.754E-03    -234.255E-03    -230.646E-03     464.023E-03    -233.174E-03     94.2067E-03     61.7219E+06     28.6867E+06    -38.9019E+06    -38.8795E+06     28.6643E+06     61.7219E+06    -178.309E+03         62.3036
             552     8.71876E-03     60.3579E-03     37.6732E-03    -7.95059E-03    -17.5742E-03    -8.63807E-03     31.7091E-03    -10.9227E-03     16.6288E-03     465.860E-03    -232.580E-03    -233.803E-03    -230.726E-03     463.203E-03    -233.000E-03     86.0169E-03     50.9311E+06     25.6999E+06    -47.3408E+06    -47.3401E+06     25.6992E+06     50.9311E+06     137.632E+03         60.9407
             553     7.92596E-03     60.2534E-03     33.9621E-03    -5.54327E-03    -16.7682E-03    -7.75855E-03     30.7647E-03    -11.3555E-03     8.32585E-03     466.400E-03    -232.092E-03    -233.374E-03    -230.696E-03     464.200E-03    -232.570E-03     78.1294E-03     38.3243E+06     16.9645E+06    -57.6589E+06    -57.6073E+06     16.9130E+06     38.3243E+06    -22.1487E+03         60.0533
             554     7.13212E-03     60.1615E-03     33.0018E-03    -7.21714E-03    -14.2621E-03    -6.96784E-03     30.5260E-03    -12.0356E-03     16.3682E-03     466.428E-03    -231.800E-03    -233.069E-03    -230.118E-03     464.746E-03    -233.069E-03     68.3132E-03     23.8925E+06     5.64499E+06    -68.7015E+06    -68.6404E+06     5.58385E+06     23.8925E+06     55.4677E+03         59.4764
             555     6.33984E-03     60.0830E-03     38.8003E-03    -10.7894E-03    -16.9107E-03    -8.87960E-03     32.7475E-03    -12.7677E-03     28.0783E-03     464.662E-03    -231.805E-03    -233.124E-03    -231.073E-03     463.403E-03    -232.596E-03     58.9895E-03     4.96160E+06    -23.8850E+06    -79.0911E+06    -79.0725E+06    -23.9036E+06     4.96160E+06     313.547E+03         59.0525
             556     5.54721E-03     60.0221E-03     41.0369E-03    -12.2506E-03    -18.8225E-03    -10.1519E-03     33.4981E-03    -13.3824E-03     13.6204E-03     464.057E-03    -231.980E-03    -233.576E-03    -231.667E-03     463.216E-03    -233.049E-03     47.9646E-03    -17.3081E+06    -71.4714E+06    -93.5735E+06    -89.7282E+06    -75.3167E+06    -17.3081E+06     15.9315E+03         58.6972
             557     4.75413E-03     59.9777E-03     40.8567E-03    -12.8761E-03    -17.3816E-03    -10.1593E-03     34.7662E-03    -14.0079E-03     8.66228E-03     463.795E-03    -231.845E-03    -233.684E-03    -231.339E-03     463.289E-03    -233.684E-03     37.2365E-03    -38.3251E+06    -100.081E+06    -116.489E+06    -100.117E+06    -116.453E+06    -38.3251E+06     71.3251E+03         58.3947
             558     3.96211E-03     59.9462E-03     45.7405E-03    -14.2627E-03    -20.6647E-03    -15.1561E-03     40.2319E-03    -14.2627E-03     4.67656E-03     464.411E-03    -231.779E-03    -233.966E-03    -231.498E-03     464.130E-03    -233.966E-03     27.4344E-03    -59.8084E+06    -110.259E+06    -142.896E+06    -110.282E+06    -142.872E+06    -59.8084E+06     856.779E+03         58.1552
             559     3.16986E-03     59.9295E-03     50.6044E-03    -13.4066E-03    -25.3425E-03    -19.4717E-03     44.7336E-03    -13.4066E-03    -6.08285E-03     466.294E-03    -231.927E-03    -233.574E-03    -231.973E-03     466.177E-03    -233.411E-03     17.5139E-03    -82.8629E+06    -119.990E+06    -170.615E+06    -120.021E+06    -170.584E+06    -82.8629E+06     1.18677E+06         57.9312
             560     2.37660E-03     59.9247E-03     50.7372E-03    -9.78071E-03    -28.3452E-03    -17.6894E-03     41.9255E-03    -11.6248E-03    -12.7092E-03     465.455E-03    -232.273E-03    -233.064E-03    -232.960E-03     465.417E-03    -232.339E-03     9.80285E-03    -105.304E+06    -128.095E+06    -198.616E+06    -128.113E+06    -198.598E+06    -105.304E+06     575.213E+03         57.6715
             561     1.58391E-03     59.9244E-03     59.9744E-03    -6.85657E-03    -42.0223E-03    -16.3352E-03     36.1313E-03    -8.70070E-03     38.5433E-03     463.820E-03    -231.760E-03    -232.732E-03    -232.397E-03     463.809E-03    -232.085E-03     4.93824E-03    -123.960E+06    -133.905E+06    -223.003E+06    -133.911E+06    -222.997E+06    -123.960E+06    -40.9363E+03         57.4040
             562     791.810E-06     59.9270E-03     145.163E-03    -53.3338E-03    -84.4354E-03     39.6944E-03     21.0333E-03    -53.3338E-03    -100.829E-03     463.972E-03    -231.556E-03    -232.549E-03    -231.639E-03     463.969E-03    -232.463E-03     2.43510E-03    -134.567E+06    -137.211E+06    -252.385E+06    -137.082E+06    -252.378E+06    -134.702E+06     273.009E+03         57.1999
             563     13.4774E-03     59.7757E-03     26.8156E-03    -6.96571E-03    -11.1251E-03    -5.83415E-03     25.1037E-03    -10.5447E-03    -2.61140E-03     473.939E-03    -232.648E-03    -241.530E-03    -233.619E-03     466.028E-03    -232.648E-03     145.918E-03     85.8954E+06     47.0620E+06    -5.59015E+06    -5.47805E+06     46.9499E+06     85.8954E+06     57.3439E+03         79.6696
             564     12.6834E-03     59.5033E-03     28.8420E-03    -7.41982E-03    -11.1990E-03    -6.39953E-03     27.3172E-03    -10.6945E-03    -9.85995E-03     473.943E-03    -232.771E-03    -240.974E-03    -232.710E-03     465.680E-03    -232.771E-03     150.111E-03     82.6289E+06     45.0889E+06    -10.3084E+06    -10.2592E+06     45.0397E+06     82.6289E+06    -225.446E+03         75.9030
             565     11.8914E-03     59.3332E-03     31.5110E-03    -6.47440E-03    -13.6771E-03    -8.58997E-03     30.7306E-03    -10.7812E-03     3.04091E-03     470.226E-03    -232.494E-03    -236.952E-03    -231.738E-03     465.011E-03    -232.494E-03     120.996E-03     80.1249E+06     44.2006E+06    -16.4157E+06    -16.4047E+06     44.1896E+06     80.1249E+06     48.5271E+03         71.4289
             566     11.0979E-03     59.1604E-03     34.3331E-03    -6.81424E-03    -15.7342E-03    -10.7042E-03     33.2888E-03    -10.7999E-03     10.8932E-03     470.022E-03    -232.225E-03    -236.511E-03    -231.782E-03     465.294E-03    -232.225E-03     115.019E-03     76.7298E+06     38.2282E+06    -23.1548E+06    -23.1448E+06     38.2182E+06     76.7298E+06     130.960E+03         67.3839
             567     10.3046E-03     59.0147E-03     34.2737E-03    -9.18429E-03    -13.4988E-03    -11.0237E-03     33.4231E-03    -10.8088E-03     1.79779E-03     468.203E-03    -232.556E-03    -234.933E-03    -231.079E-03     464.348E-03    -232.556E-03     103.743E-03     70.2999E+06     30.5233E+06    -30.8650E+06    -30.8222E+06     30.4805E+06     70.2999E+06     48.8690E+03         64.3552
             568     9.51081E-03     58.8821E-03     34.7462E-03    -10.8388E-03    -12.7071E-03    -8.90422E-03     31.0230E-03    -10.9185E-03     8.36274E-03     467.234E-03    -232.660E-03    -234.246E-03    -230.584E-03     464.078E-03    -233.166E-03     93.6865E-03     60.5615E+06     27.8002E+06    -39.5998E+06    -39.5621E+06     27.7625E+06     60.5615E+06    -48.7545E+03         62.3004
             569     8.71813E-03     58.7660E-03     31.7091E-03    -8.28973E-03    -12.4870E-03    -3.53591E-03     25.8185E-03    -11.3502E-03     1.43627E-03     465.837E-03    -232.495E-03    -233.861E-03    -230.731E-03     463.214E-03    -233.001E-03     85.4599E-03     49.8939E+06     24.8833E+06    -48.4176E+06    -48.4104E+06     24.8761E+06     49.8939E+06     300.233E+03         60.9374
             570     7.92511E-03     58.6603E-03     29.0026E-03    -6.14126E-03    -12.8479E-03    -3.90284E-03     25.9499E-03    -12.0336E-03    -13.9911E-03     466.454E-03    -232.049E-03    -233.498E-03    -230.728E-03     464.273E-03    -232.638E-03     77.8102E-03     38.4870E+06     16.8364E+06    -57.6325E+06    -57.6041E+06     16.8080E+06     38.4870E+06     1.08933E+06         60.0500
             571     7.13278E-03     58.5686E-03     34.3049E-03    -9.15129E-03    -14.3527E-03    -8.95948E-03     32.2476E-03    -12.4872E-03    -10.0654E-03     466.209E-03    -231.523E-03    -233.143E-03    -229.851E-03     464.537E-03    -233.143E-03     68.0876E-03     24.9313E+06     6.65619E+06    -67.3964E+06    -67.3582E+06     6.61799E+06     24.9313E+06     971.401E+03         59.4738
             572     6.33900E-03     58.4921E-03     39.1579E-03    -11.7080E-03    -15.2565E-03    -11.2300E-03     36.0050E-03    -12.5815E-03    -2.10049E-03     464.602E-03    -231.618E-03    -233.240E-03    -230.955E-03     463.348E-03    -232.649E-03     58.8849E-03     6.05962E+06    -23.9418E+06    -78.1614E+06    -78.1176E+06    -23.9856E+06     6.05962E+06     895.549E+03         59.0522
             573     5.54638E-03     58.4288E-03     41.7759E-03    -12.1048E-03    -17.7811E-03    -12.5607E-03     36.9333E-03    -12.4826E-03    -13.1512E-03     464.403E-03    -232.204E-03    -233.681E-03    -231.959E-03     463.566E-03    -233.090E-03     47.8689E-03    -16.3865E+06    -71.4734E+06    -92.9311E+06    -89.4672E+06    -74.9373E+06    -16.3865E+06     1.37823E+06         58.6994
             574     4.75465E-03     58.3814E-03     41.2941E-03    -11.6976E-03    -17.3288E-03    -12.7402E-03     37.3047E-03    -12.2968E-03    -8.92749E-03     463.924E-03    -231.987E-03    -233.675E-03    -231.485E-03     463.421E-03    -233.675E-03     37.1399E-03    -38.4134E+06    -100.097E+06    -116.267E+06    -100.758E+06    -115.606E+06    -38.4134E+06     873.447E+03         58.4000
             575     3.96234E-03     58.3532E-03     38.9934E-03    -9.87982E-03    -17.3157E-03    -8.19685E-03     32.6078E-03    -12.6130E-03    -3.18093E-03     464.403E-03    -231.685E-03    -233.976E-03    -231.404E-03     464.122E-03    -233.976E-03     27.4569E-03    -61.2208E+06    -111.170E+06    -143.252E+06    -111.183E+06    -143.240E+06    -61.2208E+06     272.791E+03         58.1636
             576     3.16895E-03     58.3358E-03     39.1099E-03    -7.64425E-03    -20.8719E-03    -3.98405E-03     28.9017E-03    -14.3239E-03     7.19157E-03     466.415E-03    -231.920E-03    -233.611E-03    -231.964E-03     466.296E-03    -233.447E-03     17.6754E-03    -84.1134E+06    -119.783E+06    -170.265E+06    -119.841E+06    -170.208E+06    -84.1134E+06    -262.462E+03         57.9398
             577     2.37762E-03     58.3310E-03     43.8762E-03    -11.4092E-03    -21.0655E-03    -4.76513E-03     33.9657E-03    -17.7991E-03     567.093E-06     465.690E-03    -232.289E-03    -233.313E-03    -233.236E-03     465.652E-03    -232.327E-03     9.84349E-03    -105.313E+06    -126.530E+06    -196.833E+06    -126.583E+06    -196.780E+06    -105.313E+06    -427.126E+03         57.6786
             578     1.58515E-03     58.3315E-03     77.5829E-03    -21.7752E-03    -43.5297E-03    -9.01866E-03     44.9160E-03    -23.6193E-03     61.2757E-03     463.921E-03    -231.643E-03    -232.967E-03    -232.632E-03     463.912E-03    -231.967E-03     4.77146E-03    -124.190E+06    -132.722E+06    -223.671E+06    -132.728E+06    -223.666E+06    -124.190E+06    -288.625E+03         57.4097
             579     791.546E-06     58.3326E-03     183.042E-03    -55.4989E-03    -115.878E-03     35.9385E-03     66.1168E-03    -90.3905E-03    -90.5816E-03     463.511E-03    -231.021E-03    -232.563E-03    -231.733E-03     463.509E-03    -231.850E-03     1.45478E-03    -134.016E+06    -136.054E+06    -252.776E+06    -135.921E+06    -252.774E+06    -134.152E+06    -154.449E+03         57.2021
             580     13.4775E-03     58.1799E-03     34.6053E-03    -10.1128E-03    -12.2211E-03    -10.0745E-03     32.4587E-03    -10.1128E-03     4.78569E-03     473.965E-03    -232.642E-03    -241.609E-03    -233.667E-03     466.023E-03    -232.642E-03     146.185E-03     85.7572E+06     47.4261E+06    -5.03673E+06    -4.98411E+06     47.3735E+06     85.7572E+06    -109.228E+03         79.6497
             581     12.6846E-03     57.9082E-03     33.3949E-03    -9.66434E-03    -11.4621E-03    -10.4037E-03     32.7547E-03    -10.0826E-03    -4.17203E-03     473.762E-03    -232.754E-03    -240.857E-03    -232.567E-03     465.472E-03    -232.754E-03     150.299E-03     82.4257E+06     45.6618E+06    -10.9428E+06    -10.9140E+06     45.6330E+06     82.4257E+06    -24.8463E+03         75.8886
             582     11.8899E-03     57.7376E-03     30.4885E-03    -7.27117E-03    -11.0901E-03    -7.65812E-03     29.9074E-03    -10.1220E-03     8.00012E-03     470.190E-03    -232.507E-03    -236.868E-03    -231.642E-03     464.963E-03    -232.507E-03     121.124E-03     79.7417E+06     43.9736E+06    -17.2648E+06    -17.2474E+06     43.9562E+06     79.7417E+06    -272.507E+03         71.4191
             583     11.0969E-03     57.5669E-03     28.1678E-03    -5.30795E-03    -10.7530E-03    -5.20792E-03     27.6388E-03    -10.3241E-03     6.60793E-03     470.183E-03    -232.254E-03    -236.767E-03    -232.018E-03     465.434E-03    -232.254E-03     115.304E-03     76.4756E+06     38.1300E+06    -23.7198E+06    -23.7023E+06     38.1125E+06     76.4756E+06    -145.798E+03         67.3792
             584     10.3045E-03     57.4216E-03     29.5725E-03    -6.54949E-03    -11.2177E-03    -6.81117E-03     29.1824E-03    -10.5659E-03    -3.50156E-03     468.468E-03    -232.571E-03    -235.080E-03    -231.205E-03     464.592E-03    -232.571E-03     104.059E-03     70.3927E+06     30.3987E+06    -30.9079E+06    -30.8790E+06     30.3699E+06     70.3927E+06     289.659E+03         64.3540
             585     9.51156E-03     57.2885E-03     33.3690E-03    -9.19949E-03    -12.5567E-03    -10.4660E-03     32.7196E-03    -10.6408E-03    -102.359E-06     467.430E-03    -232.633E-03    -234.201E-03    -230.477E-03     464.260E-03    -233.187E-03     93.8963E-03     60.8899E+06     27.6226E+06    -38.8290E+06    -38.7665E+06     27.5601E+06     60.8899E+06     944.241E+03         62.2983
             586     8.71870E-03     57.1702E-03     37.7583E-03    -10.3279E-03    -15.5083E-03    -13.8820E-03     36.2205E-03    -10.4164E-03    -5.22849E-03     465.887E-03    -232.460E-03    -233.791E-03    -230.607E-03     463.256E-03    -233.014E-03     85.5690E-03     49.1535E+06     24.4101E+06    -47.9507E+06    -47.9043E+06     24.3637E+06     49.1535E+06     1.13609E+06         60.9343
             587     7.92621E-03     57.0661E-03     39.7473E-03    -9.71195E-03    -18.7682E-03    -16.8466E-03     37.9058E-03    -9.79205E-03    -11.9798E-03     466.533E-03    -232.005E-03    -233.396E-03    -230.603E-03     464.353E-03    -232.619E-03     77.7694E-03     37.5872E+06     16.9063E+06    -57.0803E+06    -57.0727E+06     16.8986E+06     37.5872E+06     669.724E+03         60.0480
             588     7.13221E-03     56.9763E-03     38.5097E-03    -8.85969E-03    -18.3069E-03    -16.2248E-03     36.4277E-03    -8.85969E-03    -7.73385E-03     466.443E-03    -231.597E-03    -233.124E-03    -229.940E-03     464.786E-03    -233.124E-03     67.7899E-03     25.2589E+06     7.19057E+06    -66.6032E+06    -66.5894E+06     7.17676E+06     25.2589E+06     594.000E+03         59.4734
             589     6.33920E-03     56.8971E-03     35.1012E-03    -7.60448E-03    -14.5538E-03    -12.1935E-03     33.1187E-03    -7.98234E-03    -7.36092E-03     464.733E-03    -231.752E-03    -233.191E-03    -231.049E-03     463.504E-03    -232.666E-03     58.2544E-03     8.57379E+06    -26.1118E+06    -76.9729E+06    -76.8774E+06    -26.2073E+06     8.57379E+06     1.42842E+06         59.0538
             590     5.54683E-03     56.8322E-03     33.7082E-03    -7.12202E-03    -13.1670E-03    -7.77821E-03     28.6974E-03    -7.49988E-03    -18.1724E-03     464.183E-03    -231.928E-03    -233.628E-03    -231.632E-03     463.361E-03    -233.103E-03     47.4589E-03    -12.1969E+06    -72.6319E+06    -89.7192E+06    -87.4743E+06    -74.8769E+06    -12.1969E+06     2.44264E+06         58.7022
             591     4.75413E-03     56.7870E-03     30.2323E-03    -5.29620E-03    -11.1196E-03    -3.05244E-03     24.5941E-03    -7.72515E-03    -9.36764E-03     463.759E-03    -231.702E-03    -233.695E-03    -231.199E-03     463.256E-03    -233.695E-03     37.1288E-03    -35.0064E+06    -96.9855E+06    -112.854E+06    -97.9018E+06    -111.938E+06    -35.0064E+06     1.75287E+06         58.4029
             592     3.96165E-03     56.7591E-03     32.8818E-03    -4.46993E-03    -15.3548E-03     952.406E-06     21.1375E-03    -9.03283E-03    -19.0277E-03     464.603E-03    -231.789E-03    -234.009E-03    -231.508E-03     464.322E-03    -234.009E-03     27.4479E-03    -58.8708E+06    -108.044E+06    -141.738E+06    -108.068E+06    -141.714E+06    -58.8708E+06    -12.7251E+03         58.1677
             593     3.16982E-03     56.7424E-03     38.3797E-03    -4.70966E-03    -22.3968E-03    -102.648E-06     22.7652E-03    -11.3893E-03    -6.63903E-03     466.479E-03    -232.046E-03    -233.537E-03    -231.926E-03     466.359E-03    -233.537E-03     17.7460E-03    -82.9141E+06    -117.742E+06    -169.958E+06    -117.791E+06    -169.910E+06    -82.9141E+06    -910.099E+03         57.9453
             594     2.37595E-03     56.7378E-03     48.2612E-03    -9.47115E-03    -28.2177E-03    -6.48690E-03     31.0761E-03    -14.0169E-03    -21.5548E-03     465.830E-03    -232.370E-03    -233.417E-03    -233.286E-03     465.789E-03    -232.460E-03     10.2568E-03    -105.168E+06    -126.106E+06    -197.544E+06    -126.164E+06    -197.485E+06    -105.168E+06    -900.628E+03         57.6852
             595     1.58438E-03     56.7375E-03     75.4396E-03    -17.5420E-03    -46.4754E-03    -8.45215E-03     37.4163E-03    -17.5420E-03     29.8475E-03     464.428E-03    -231.844E-03    -233.163E-03    -233.151E-03     464.416E-03    -231.844E-03     5.47737E-03    -121.940E+06     -131.81E+06    -224.798E+06    -131.839E+06    -224.768E+06    -121.940E+06     92.5592E+03         57.4153
             596     793.889E-06     56.7411E-03     154.172E-03    -29.5247E-03    -113.278E-03     24.7566E-03     51.0295E-03    -64.4162E-03    -81.3345E-03     463.254E-03    -231.013E-03    -232.173E-03    -232.169E-03     463.250E-03    -231.013E-03     2.56640E-03    -133.267E+06    -136.467E+06    -252.427E+06    -136.231E+06    -252.411E+06    -133.519E+06     355.435E+03         57.2030
             597     13.4768E-03     56.5858E-03     35.5687E-03    -9.02134E-03    -11.3678E-03    -8.64992E-03     33.4145E-03    -9.58490E-03    -3.05932E-03     473.929E-03    -232.632E-03    -241.645E-03    -233.695E-03     465.979E-03    -232.632E-03     146.348E-03     85.5990E+06     47.5441E+06    -5.40409E+06    -5.37243E+06     47.5124E+06     85.5990E+06    -125.938E+03         79.6298
             598     12.6834E-03     56.3137E-03     33.8692E-03    -8.91965E-03    -11.0436E-03    -9.32540E-03     32.7145E-03    -9.48321E-03    -10.3329E-03     473.570E-03    -232.707E-03    -240.804E-03    -232.529E-03     465.295E-03    -232.707E-03     150.146E-03     82.5817E+06     45.6296E+06    -10.7980E+06    -10.7689E+06     45.6005E+06     82.5817E+06    -426.855E+03         75.8758
             599     11.8906E-03     56.1443E-03     33.3365E-03    -9.33054E-03    -11.4151E-03    -10.0406E-03     31.9620E-03    -9.33054E-03    -6.09582E-03     470.085E-03    -232.479E-03    -236.784E-03    -231.574E-03     464.875E-03    -232.479E-03     120.920E-03     79.9214E+06     43.9108E+06    -16.4354E+06    -16.4026E+06     43.8780E+06     79.9214E+06    -336.386E+03         71.4131
             600     11.0978E-03     55.9716E-03     31.0031E-03    -8.18804E-03    -10.5336E-03    -8.06281E-03     29.5627E-03    -9.21846E-03     1.37364E-03     469.887E-03    -232.265E-03    -236.643E-03    -231.906E-03     465.151E-03    -232.265E-03     115.131E-03     76.0778E+06     37.7356E+06    -23.4942E+06    -23.4688E+06     37.7101E+06     76.0778E+06    -96.0933E+03         67.3799
             601     10.3049E-03     55.8271E-03     30.5691E-03    -6.75122E-03    -11.1052E-03    -6.75719E-03     28.6845E-03    -9.21458E-03    -5.09978E-03     468.070E-03    -232.608E-03    -234.997E-03    -231.113E-03     464.186E-03    -232.608E-03     104.137E-03     69.6132E+06     29.1995E+06    -31.2090E+06    -31.1719E+06     29.1624E+06     69.6132E+06     259.967E+03         64.3588
             602     9.51098E-03     55.6954E-03     33.4842E-03    -7.79783E-03    -12.1363E-03    -7.48392E-03     30.2647E-03    -9.23077E-03     988.074E-06     467.338E-03    -232.753E-03    -234.187E-03    -230.517E-03     464.143E-03    -233.228E-03     94.2797E-03     60.0904E+06     26.7705E+06    -39.3090E+06    -39.2372E+06     26.6988E+06     60.0904E+06     846.200E+03         62.3016
             603     8.71821E-03     55.5789E-03     37.7532E-03    -9.04920E-03    -14.3554E-03    -11.7191E-03     35.1169E-03    -9.04920E-03     2.34888E-03     465.867E-03    -232.536E-03    -233.784E-03    -230.673E-03     463.231E-03    -233.011E-03     85.6329E-03     49.5244E+06     25.1138E+06     -47.246E+06    -47.1961E+06     25.0639E+06     49.5244E+06     950.205E+03         60.9343
             604     7.92478E-03     55.4736E-03     38.4827E-03    -8.06464E-03    -16.7235E-03    -14.8564E-03     37.1041E-03    -8.55313E-03    -2.29840E-03     466.589E-03    -232.123E-03    -233.385E-03    -230.742E-03     464.436E-03    -232.613E-03     77.2904E-03     38.4922E+06     17.5855E+06    -56.3591E+06    -56.3454E+06     17.5718E+06     38.4922E+06     930.312E+03         60.0478
             605     7.13241E-03     55.3821E-03     35.9575E-03    -6.97107E-03    -15.5483E-03    -13.6326E-03     35.0373E-03    -7.96659E-03     12.3345E-03     466.810E-03    -231.844E-03    -233.104E-03    -230.197E-03     465.164E-03    -233.104E-03     67.6152E-03     26.2788E+06     7.01407E+06    -66.8302E+06    -66.8114E+06     6.99528E+06     26.2788E+06     841.140E+03         59.4743
             606     6.34055E-03     55.3036E-03     38.0645E-03    -6.95612E-03    -17.2179E-03    -12.5484E-03     33.9020E-03    -7.46315E-03     23.2567E-03     464.795E-03    -231.848E-03    -233.113E-03    -231.106E-03     463.560E-03    -232.619E-03     58.4370E-03     9.50952E+06    -27.4808E+06    -77.6245E+06    -77.5460E+06    -27.5593E+06     9.50952E+06     834.951E+03         59.0546
             607     5.54734E-03     55.2408E-03     39.0395E-03    -6.95964E-03    -19.1412E-03    -11.7002E-03     31.5985E-03    -6.95964E-03     4.53432E-03     463.777E-03    -231.676E-03    -233.563E-03    -231.341E-03     462.948E-03    -233.070E-03     47.6520E-03    -11.3961E+06    -73.9748E+06    -88.6596E+06    -87.5902E+06    -75.0443E+06    -11.3961E+06     1.12288E+06         58.7019
             608     4.75395E-03     55.1955E-03     35.3651E-03    -4.70426E-03    -17.6951E-03    -8.76745E-03     28.2671E-03    -6.53399E-03     3.72657E-03     463.493E-03    -231.397E-03    -233.699E-03    -230.891E-03     462.987E-03    -233.699E-03     37.1959E-03    -33.6491E+06    -96.9807E+06    -109.871E+06    -97.3913E+06    -109.461E+06    -33.6491E+06     936.671E+03         58.4018
             609     3.96197E-03     55.1648E-03     41.4871E-03    -3.84132E-03    -23.7107E-03    -12.6140E-03     32.2200E-03    -5.67106E-03    -7.43167E-03     464.480E-03    -231.694E-03    -234.065E-03    -231.413E-03     464.199E-03    -234.065E-03     27.4620E-03    -57.2286E+06    -107.635E+06    -139.884E+06    -107.675E+06    -139.845E+06    -57.2286E+06     507.653E+03         58.1679
             610     3.16871E-03     55.1511E-03     42.3193E-03    -3.33968E-03    -26.5136E-03    -16.2102E-03     32.0158E-03    -3.33968E-03    -5.09671E-03     466.568E-03    -232.099E-03    -233.672E-03    -232.036E-03     466.446E-03    -233.613E-03     17.9103E-03    -81.4383E+06    -117.349E+06    -169.138E+06    -117.377E+06    -169.110E+06    -81.4383E+06     296.659E+03         57.9490
             611     2.37714E-03     55.1441E-03     36.2873E-03     503.102E-06    -24.9475E-03    -12.7284E-03     24.0682E-03     503.102E-06    -7.80776E-03     465.874E-03    -232.437E-03    -233.437E-03    -233.343E-03     465.832E-03    -232.488E-03     10.2721E-03    -104.160E+06    -126.018E+06    -198.221E+06    -126.043E+06    -198.196E+06    -104.160E+06    -115.070E+03         57.6911
             612     1.58427E-03     55.1432E-03     50.0301E-03     6.84479E-03    -44.4383E-03    -9.68576E-03     15.2775E-03     6.84479E-03     34.1720E-03     464.240E-03    -231.852E-03    -233.023E-03    -232.914E-03     464.228E-03    -231.949E-03     5.27989E-03    -122.501E+06    -133.231E+06    -225.959E+06    -133.275E+06    -225.914E+06    -122.501E+06    -211.421E+03         57.4227
             613     790.989E-06     55.1456E-03     98.0542E-03     16.2910E-03    -105.197E-03     5.64310E-03    -12.7863E-03     16.2910E-03    -77.0432E-03     463.792E-03    -231.507E-03    -232.213E-03    -231.949E-03     463.787E-03    -231.766E-03     2.22216E-03    -132.797E+06    -136.128E+06    -251.479E+06    -135.873E+06    -251.450E+06    -133.080E+06      -2.664E+03         57.2132
             614     13.4771E-03     54.9913E-03     32.9432E-03    -8.28337E-03    -10.7541E-03    -9.28577E-03     32.0384E-03    -8.84693E-03    -3.61875E-03     473.829E-03    -232.619E-03    -241.475E-03    -233.558E-03     465.912E-03    -232.619E-03     146.001E-03     85.5429E+06     48.1372E+06    -5.27625E+06    -5.24398E+06     48.1050E+06     85.5429E+06    -277.108E+03         79.6111
             615     12.6845E-03     54.7221E-03     32.3950E-03    -8.16033E-03    -11.4369E-03    -9.88447E-03     31.4061E-03    -8.72389E-03    -4.77863E-03     473.480E-03    -232.707E-03    -240.757E-03    -232.486E-03     465.208E-03    -232.707E-03     150.164E-03     82.2141E+06     45.5438E+06    -10.4900E+06    -10.4493E+06     45.5031E+06     82.2141E+06    -326.139E+03         75.8634
             616     11.8909E-03     54.5496E-03     32.9419E-03    -8.55675E-03    -12.5494E-03    -10.8221E-03     31.2146E-03    -8.55675E-03    -2.96451E-03     469.862E-03    -232.485E-03    -236.757E-03    -231.521E-03     464.626E-03    -232.485E-03     121.199E-03     79.4249E+06     43.4106E+06    -17.0198E+06    -16.9738E+06     43.3646E+06     79.4249E+06    -268.475E+03         71.4080
             617     11.0969E-03     54.3784E-03     35.0561E-03    -8.30675E-03    -14.2471E-03    -11.9864E-03     32.7954E-03    -8.30675E-03     8.24310E-03     469.421E-03    -232.248E-03    -236.490E-03    -231.745E-03     464.676E-03    -232.248E-03     115.176E-03     75.9715E+06     36.9501E+06    -23.7071E+06    -23.6666E+06     36.9095E+06     75.9715E+06    -26.7169E+03         67.3852
             618     10.3035E-03     54.2333E-03     36.7101E-03    -7.93819E-03    -14.8780E-03    -12.5771E-03     34.4092E-03    -7.93819E-03    -482.291E-06     467.878E-03    -232.624E-03    -235.006E-03    -231.152E-03     464.023E-03    -232.624E-03     103.711E-03     69.3935E+06     28.3004E+06    -31.0915E+06    -31.0474E+06     28.2563E+06     69.3935E+06     492.038E+03         64.3724
             619     9.51124E-03     54.1016E-03     35.9728E-03    -7.59024E-03    -13.2949E-03    -9.59802E-03     32.2759E-03    -7.59024E-03     3.60866E-03     467.345E-03    -232.856E-03    -234.329E-03    -230.782E-03     464.197E-03    -233.254E-03     93.6071E-03     60.5569E+06     26.7696E+06    -38.7989E+06    -38.7584E+06     26.7292E+06     60.5569E+06     451.371E+03         62.3125
             620     8.71839E-03     53.9810E-03     30.9546E-03    -6.01422E-03    -9.64611E-03    -3.93991E-03     26.8047E-03    -7.57055E-03     3.86834E-03     465.721E-03    -232.600E-03    -233.771E-03    -230.771E-03     463.119E-03    -232.998E-03     85.0872E-03     50.6913E+06     25.1383E+06    -47.4989E+06    -47.4797E+06     25.1191E+06     50.6913E+06     282.399E+03         60.9362
             621     7.92548E-03     53.8775E-03     26.9863E-03    -4.32398E-03    -7.94360E-03    -2.15447E-03     24.8082E-03    -7.93508E-03    -6.46984E-03     466.448E-03    -232.079E-03    -233.381E-03    -230.705E-03     464.300E-03    -232.608E-03     77.2269E-03     39.7746E+06     17.2449E+06    -56.7815E+06    -56.7682E+06     17.2316E+06     39.7746E+06     713.322E+03         60.0437
             622     7.13297E-03     53.7841E-03     29.0323E-03    -5.92031E-03    -9.11853E-03    -2.69773E-03     25.1732E-03    -8.48210E-03    -2.77255E-03     466.461E-03    -231.605E-03    -233.113E-03    -229.932E-03     464.787E-03    -233.113E-03     68.1679E-03     27.6445E+06     7.73307E+06    -66.0253E+06    -66.0021E+06     7.70982E+06     27.6445E+06     657.104E+03         59.4692
             623     6.33928E-03     53.7081E-03     33.0290E-03    -5.29430E-03    -14.0199E-03    -3.03608E-03     25.8998E-03    -9.14898E-03     9.63236E-03     464.766E-03    -231.653E-03    -233.257E-03    -231.013E-03     463.501E-03    -232.632E-03     59.1308E-03     10.4031E+06    -26.9547E+06    -75.6506E+06    -75.6245E+06    -26.9807E+06     10.4031E+06     138.059E+03         59.0513
             624     5.54731E-03     53.6476E-03     39.7567E-03    -6.08321E-03    -20.8814E-03    -10.8130E-03     33.0359E-03    -9.43085E-03    -510.350E-06     464.202E-03    -231.901E-03    -233.690E-03    -231.681E-03     463.357E-03    -233.065E-03     48.1207E-03    -11.0357E+06    -74.3345E+06    -87.2911E+06    -86.2903E+06    -75.3353E+06    -11.0357E+06     221.819E+03         58.7006
             625     4.75446E-03     53.6027E-03     46.1461E-03    -8.58037E-03    -24.5218E-03    -18.0338E-03     39.6581E-03    -8.58037E-03     4.00404E-03     463.560E-03    -231.417E-03    -233.689E-03    -230.908E-03     463.051E-03    -233.689E-03     37.3161E-03    -33.3932E+06    -97.1988E+06    -109.534E+06    -97.3432E+06    -109.390E+06    -33.3932E+06     545.061E+03         58.4021
             626     3.96082E-03     53.5718E-03     41.8218E-03    -5.57091E-03    -21.8257E-03    -16.6708E-03     37.9653E-03    -6.86931E-03     13.6308E-03     464.313E-03    -231.438E-03    -234.095E-03    -231.162E-03     464.037E-03    -234.095E-03     27.1507E-03    -56.9837E+06    -107.730E+06    -139.054E+06    -107.778E+06    -139.006E+06    -56.9837E+06     403.232E+03         58.1696
             627     3.16902E-03     53.5550E-03     36.6314E-03    -3.22449E-03    -20.1570E-03    -15.9147E-03     33.6875E-03    -4.52289E-03     9.05908E-03     466.590E-03    -232.078E-03    -233.722E-03    -232.020E-03     466.473E-03    -233.663E-03     17.6351E-03    -80.4466E+06    -117.039E+06    -168.722E+06    -117.073E+06    -168.687E+06    -80.4466E+06     200.142E+03         57.9522
             628     2.37638E-03     53.5496E-03     28.8808E-03    -1.22857E-03    -16.0352E-03    -12.6606E-03     25.5061E-03    -1.22857E-03     12.7348E-03     466.213E-03    -232.478E-03    -233.629E-03    -233.552E-03     466.172E-03    -232.514E-03     10.2030E-03    -102.549E+06    -124.770E+06    -197.559E+06    -124.781E+06    -197.548E+06    -102.549E+06     395.511E+03         57.6951
             629     1.58439E-03     53.5507E-03     34.2202E-03     1.78622E-03    -23.9582E-03     3.18388E-03     9.01453E-03    -150.115E-06     36.4531E-03     464.254E-03    -231.795E-03    -233.117E-03    -233.010E-03     464.244E-03    -231.892E-03     4.73378E-03    -121.909E+06    -130.658E+06    -224.951E+06    -130.641E+06    -224.934E+06    -121.943E+06    -354.218E+03         57.4270
             630     792.448E-06     53.5506E-03     74.9302E-03     45.6973E-03    -111.836E-03    -49.3852E-03     10.6259E-03     47.5505E-03    -48.1341E-03     463.528E-03    -231.438E-03    -232.205E-03    -231.944E-03     463.526E-03    -231.697E-03     977.812E-06    -132.298E+06    -134.021E+06    -253.351E+06    -133.994E+06    -253.313E+06    -132.364E+06    -1.24101E+06         57.2190
             631     13.4779E-03     53.3974E-03     29.2094E-03    -6.32266E-03    -10.0552E-03    -7.37255E-03     28.6071E-03    -8.40302E-03    -113.792E-06     473.870E-03    -232.615E-03    -241.400E-03    -233.447E-03     465.917E-03    -232.615E-03     146.310E-03     84.8765E+06     48.4848E+06    -5.10519E+06    -5.06953E+06     48.4491E+06     84.8765E+06    -83.5599E+03         79.5942
             632     12.6830E-03     53.1263E-03     30.8986E-03    -6.98578E-03    -10.8081E-03    -8.85547E-03     30.3439E-03    -8.38366E-03    -236.707E-06     473.475E-03    -232.773E-03    -240.637E-03    -232.339E-03     465.177E-03    -232.773E-03     150.345E-03     81.2779E+06     45.5257E+06    -11.1052E+06    -11.0498E+06     45.4703E+06     81.2779E+06    -305.929E+03         75.8497
             633     11.8907E-03     52.9559E-03     35.0655E-03    -8.17416E-03    -13.8069E-03    -12.9733E-03     34.2319E-03    -8.17416E-03     2.05806E-03     469.980E-03    -232.504E-03    -236.953E-03    -231.718E-03     464.745E-03    -232.504E-03     121.214E-03     78.9908E+06     43.3448E+06    -16.7447E+06    -16.6935E+06     43.2936E+06     78.9908E+06    -500.623E+03         71.3969
             634     11.0973E-03     52.7842E-03     37.5233E-03    -7.70587E-03    -16.0948E-03    -14.7553E-03     36.1838E-03    -7.70587E-03     7.09746E-03     469.925E-03    -232.202E-03    -236.921E-03    -232.179E-03     465.183E-03    -232.202E-03     115.212E-03     75.9180E+06     35.9066E+06    -23.4745E+06    -23.4316E+06     35.8637E+06     75.9180E+06    -247.048E+03         67.3838
             635     10.3054E-03     52.6391E-03     36.2276E-03    -7.15648E-03    -14.3593E-03    -13.1364E-03     35.0047E-03    -7.15648E-03    -310.031E-06     468.361E-03    -232.590E-03    -235.283E-03    -231.434E-03     464.512E-03    -232.590E-03     103.705E-03     69.6490E+06     28.0610E+06    -30.7970E+06    -30.7388E+06     28.0027E+06     69.6490E+06     498.151E+03         64.3818
             636     9.51206E-03     52.5059E-03     33.4378E-03    -6.29757E-03    -11.9828E-03    -10.0296E-03     31.9280E-03    -6.74096E-03    -1.34699E-03     467.334E-03    -232.697E-03    -234.384E-03    -230.731E-03     464.185E-03    -233.201E-03     93.6076E-03     60.8491E+06     27.3289E+06    -38.9551E+06    -38.9078E+06     27.2815E+06     60.8491E+06     590.334E+03         62.3200
             637     8.71893E-03     52.3885E-03     28.3562E-03    -4.55955E-03    -8.56073E-03    -4.01771E-03     25.9531E-03    -6.69950E-03    -2.49410E-03     465.533E-03    -232.466E-03    -233.695E-03    -230.561E-03     462.904E-03    -232.971E-03     85.5264E-03     50.9433E+06     24.9104E+06    -47.4866E+06    -47.4722E+06     24.8959E+06     50.9433E+06     128.422E+03         60.9350
             638     7.92525E-03     52.2822E-03     27.3322E-03    -3.80170E-03    -8.87900E-03    -1.70272E-03     23.4188E-03    -7.06453E-03     1.35288E-03     466.236E-03    -232.043E-03    -233.324E-03    -230.581E-03     464.049E-03    -232.600E-03     77.8911E-03     39.4158E+06     17.7242E+06    -55.9396E+06    -55.9169E+06     17.7015E+06     39.4158E+06    -432.860E+03         60.0374
             639     7.13197E-03     52.1904E-03     31.1990E-03    -5.90227E-03    -11.4942E-03    -4.25613E-03     25.5273E-03    -7.46855E-03    -2.50292E-03     466.280E-03    -231.559E-03    -233.131E-03    -229.883E-03     464.604E-03    -233.131E-03     68.1751E-03     26.7936E+06     7.91851E+06    -65.5460E+06    -65.5195E+06     7.89205E+06     26.7936E+06     -712.02E+03         59.4624
             640     6.33906E-03     52.1133E-03     34.0473E-03    -4.37008E-03    -16.2492E-03    -5.39616E-03     26.5419E-03    -7.71773E-03     5.24677E-03     464.776E-03    -231.655E-03    -233.230E-03    -230.962E-03     463.523E-03    -232.670E-03     58.8435E-03     9.72617E+06    -27.5619E+06    -76.0793E+06    -76.0532E+06    -27.5879E+06     9.72617E+06    -385.466E+03         59.0475
             641     5.54634E-03     52.0512E-03     36.6083E-03    -4.73468E-03    -18.1970E-03    -3.53463E-03     25.2936E-03    -8.08232E-03    -5.54626E-03     464.351E-03    -232.014E-03    -233.660E-03    -231.733E-03     463.510E-03    -233.101E-03     48.0047E-03    -11.2026E+06    -74.5524E+06    -88.0050E+06    -86.4451E+06    -76.1123E+06    -11.2026E+06     91.1308E+03         58.7006
             642     4.75385E-03     52.0058E-03     39.2242E-03    -8.78309E-03    -16.7503E-03    -3.21223E-03     25.6862E-03    -8.78309E-03    -4.08343E-03     463.784E-03    -231.664E-03    -233.706E-03    -231.153E-03     463.273E-03    -233.706E-03     37.4136E-03    -33.1392E+06    -96.7112E+06    -109.076E+06    -96.7752E+06    -109.012E+06    -33.1392E+06     399.436E+03         58.4051
             643     3.96207E-03     51.9791E-03     39.6623E-03    -8.57416E-03    -17.2621E-03    -3.37825E-03     27.0768E-03    -9.87256E-03    -18.7393E-06     464.609E-03    -231.623E-03    -234.076E-03    -231.342E-03     464.329E-03    -234.076E-03     27.3874E-03    -56.6675E+06    -107.106E+06    -138.046E+06    -107.153E+06    -137.999E+06    -56.6675E+06     184.914E+03         58.1739
             644     3.16892E-03     51.9594E-03     36.8908E-03    -5.79663E-03    -18.4964E-03    -1.66504E-03     26.0750E-03    -11.8122E-03    -2.26045E-03     466.707E-03    -232.019E-03    -233.651E-03    -232.000E-03     466.591E-03    -233.554E-03     17.4267E-03    -80.9698E+06    -117.078E+06    -168.716E+06    -117.105E+06    -168.689E+06    -80.9698E+06     230.525E+03         57.9542
             645     2.37662E-03     51.9547E-03     37.6135E-03    -8.61951E-03    -18.4865E-03    -3.63672E-03     29.1377E-03    -14.9935E-03     3.18939E-03     465.996E-03    -232.396E-03    -233.636E-03    -233.561E-03     465.958E-03    -232.433E-03     9.90688E-03    -103.882E+06    -125.208E+06    -197.630E+06    -125.212E+06    -197.625E+06    -103.882E+06     60.1687E+03         57.6933
             646     1.58466E-03     51.9556E-03     59.5124E-03    -14.9869E-03    -32.7131E-03    -11.8135E-03     42.2060E-03    -18.5801E-03     23.0955E-03     464.171E-03    -231.866E-03    -233.172E-03    -233.162E-03     464.161E-03    -231.866E-03     4.80969E-03    -121.196E+06    -130.222E+06    -224.325E+06    -130.188E+06    -224.324E+06    -121.231E+06    -264.795E+03         57.4230
             647     792.871E-06     51.9600E-03     140.680E-03     31.0642E-03    -161.600E-03    -131.839E-03     50.6498E-03     91.3339E-03    -55.0293E-03     463.299E-03    -231.368E-03    -232.126E-03    -231.905E-03     463.297E-03    -231.587E-03     2.11077E-03    -132.239E+06    -135.198E+06    -254.451E+06    -134.677E+06    -254.388E+06    -132.823E+06     161.340E+03         57.2139
             648     13.4768E-03     51.8044E-03     28.3285E-03    -5.42307E-03    -9.17786E-03    -5.69812E-03     26.9292E-03    -7.50343E-03    -11.0724E-03     473.976E-03    -232.613E-03    -241.438E-03    -233.510E-03     466.048E-03    -232.613E-03     146.064E-03     84.6545E+06     48.8666E+06    -5.39670E+06    -5.36373E+06     48.8336E+06     84.6545E+06    -136.289E+03         79.5748
             649     12.6843E-03     51.5328E-03     29.6681E-03    -5.87128E-03    -10.6178E-03    -8.76726E-03     29.2154E-03    -7.26916E-03    -4.36188E-03     473.664E-03    -232.877E-03    -240.801E-03    -232.526E-03     465.389E-03    -232.877E-03     150.157E-03     81.2615E+06     46.1749E+06    -10.4406E+06    -10.3841E+06     46.1185E+06     81.2615E+06    -281.087E+03         75.8333
             650     11.8903E-03     51.3619E-03     32.5197E-03    -6.79499E-03    -11.9022E-03    -10.0437E-03     30.7262E-03    -6.85989E-03    -10.2999E-03     470.072E-03    -232.596E-03    -236.973E-03    -231.745E-03     464.844E-03    -232.596E-03     121.139E-03     78.5364E+06     43.2965E+06    -17.0159E+06    -16.9756E+06     43.2561E+06     78.5364E+06    -229.214E+03         71.3801
             651     11.0977E-03     51.1893E-03     32.1365E-03    -6.46627E-03    -11.3624E-03    -7.03091E-03     27.8699E-03    -6.53117E-03    -273.050E-06     470.077E-03    -232.197E-03    -236.831E-03    -232.078E-03     465.324E-03    -232.197E-03     115.347E-03     75.0939E+06     35.0744E+06    -24.2031E+06    -24.1709E+06     35.0423E+06     75.0939E+06     18.0040E+03         67.3714
             652     10.3045E-03     51.0432E-03     31.3056E-03    -6.38555E-03    -10.9402E-03    -6.54672E-03     26.9122E-03    -6.38555E-03    -1.36438E-03     468.589E-03    -232.620E-03    -235.254E-03    -231.367E-03     464.702E-03    -232.620E-03     104.236E-03     68.4777E+06     27.4237E+06    -31.7525E+06    -31.6799E+06     27.3511E+06     68.4777E+06     241.381E+03         64.3772
             653     9.51144E-03     50.9128E-03     28.1011E-03    -5.55945E-03    -8.47622E-03    -4.87583E-03     25.3342E-03    -6.39294E-03    -7.35709E-03     467.358E-03    -232.619E-03    -234.338E-03    -230.549E-03     464.164E-03    -233.215E-03     94.2568E-03     60.2292E+06     28.0838E+06    -39.1354E+06    -39.0836E+06     28.0320E+06     60.2292E+06    -100.604E+03         62.3150
             654     8.71790E-03     50.7949E-03     27.7118E-03    -5.50615E-03    -8.47777E-03    -5.58523E-03     25.7930E-03    -6.47986E-03    -4.96267E-03     465.468E-03    -232.382E-03    -233.688E-03    -230.452E-03     462.827E-03    -232.977E-03     85.6897E-03     50.5364E+06     25.8680E+06    -46.8320E+06    -46.8027E+06     25.8386E+06     50.5364E+06    -854.133E+03         60.9277
             655     7.92501E-03     50.6899E-03     30.3352E-03    -6.31626E-03    -10.8631E-03    -7.25004E-03     26.8624E-03    -6.45648E-03     562.702E-06     466.310E-03    -232.181E-03    -233.372E-03    -230.711E-03     464.129E-03    -232.661E-03     77.7968E-03     38.8663E+06     17.7385E+06    -55.8180E+06    -55.7709E+06     17.6914E+06     38.8663E+06    -951.313E+03         60.0327
             656     7.13245E-03     50.5981E-03     31.3834E-03    -6.50708E-03    -10.7607E-03    -4.10197E-03     24.7248E-03    -6.50708E-03    -1.97913E-03     466.568E-03    -231.783E-03    -233.176E-03    -230.110E-03     464.895E-03    -233.176E-03     68.1292E-03     26.5568E+06     7.51025E+06    -65.8079E+06    -65.7801E+06     7.48251E+06     26.5568E+06    -676.306E+03         59.4606
             657     6.33974E-03     50.5199E-03     40.2856E-03    -6.78890E-03    -18.4964E-03    -4.14838E-03     25.9376E-03    -6.78890E-03     21.2428E-03     464.820E-03    -231.758E-03    -233.194E-03    -231.031E-03     463.569E-03    -232.671E-03     58.7820E-03     9.18359E+06    -28.4403E+06    -76.6724E+06    -76.6384E+06    -28.4743E+06     9.18359E+06    -303.017E+03         59.0467
             658     5.54648E-03     50.4578E-03     45.4192E-03    -6.99552E-03    -23.7442E-03    -6.84539E-03     28.5204E-03    -6.99552E-03     8.56469E-03     464.078E-03    -231.861E-03    -233.630E-03    -231.551E-03     463.246E-03    -233.107E-03     47.7144E-03    -12.4490E+06    -75.4933E+06    -88.7324E+06    -87.4459E+06    -76.7798E+06    -12.4490E+06    -217.805E+03         58.7002
             659     4.75359E-03     50.4124E-03     39.4480E-03    -7.35484E-03    -17.7818E-03    -3.42341E-03     25.0896E-03    -7.35484E-03    -2.94309E-03     463.770E-03    -231.675E-03    -233.715E-03    -231.174E-03     463.270E-03    -233.715E-03     37.0305E-03    -34.3853E+06    -97.6045E+06    -109.388E+06    -97.9872E+06    -109.006E+06    -34.3853E+06    -93.8376E+03         58.4053
             660     3.96093E-03     50.3814E-03     41.6131E-03    -8.43557E-03    -20.2950E-03    -609.631E-06     21.9277E-03    -8.43557E-03    -12.8751E-03     464.770E-03    -231.852E-03    -234.063E-03    -231.575E-03     464.493E-03    -234.063E-03     27.2984E-03    -57.7718E+06    -108.177E+06    -137.702E+06    -108.207E+06    -137.672E+06    -57.7718E+06     280.549E+03         58.1746
             661     3.16931E-03     50.3672E-03     37.3641E-03    -5.69247E-03    -19.9605E-03    -470.053E-06     22.5907E-03    -10.4096E-03    -28.9718E-03     466.827E-03    -232.083E-03    -233.671E-03    -232.136E-03     466.709E-03    -233.499E-03     17.5723E-03    -81.5153E+06    -117.267E+06    -168.102E+06    -117.285E+06    -168.085E+06    -81.5153E+06    -65.5297E+03         57.9535
             662     2.37715E-03     50.3617E-03     36.2608E-03    -6.97478E-03    -16.6241E-03    -2.95863E-03     28.9694E-03    -13.3488E-03    -16.0841E-03     465.693E-03    -232.356E-03    -233.470E-03    -233.431E-03     465.654E-03    -232.356E-03     9.97866E-03    -104.123E+06    -125.408E+06    -197.440E+06    -125.412E+06    -197.436E+06    -104.123E+06    -390.795E+03         57.6897
             663     1.58424E-03     50.3609E-03     70.6971E-03    -13.3415E-03    -41.7714E-03    -15.3198E-03     45.9024E-03    -14.9984E-03     35.7212E-03     463.749E-03    -231.826E-03    -232.811E-03    -232.802E-03     463.740E-03    -231.826E-03     4.59367E-03    -121.921E+06    -131.986E+06    -225.975E+06    -131.987E+06    -225.974E+06    -121.921E+06    -64.8184E+03         57.4188
             664     791.564E-06     50.3654E-03     171.995E-03     39.1084E-03    -195.502E-03    -145.913E-03     45.5119E-03     116.002E-03    -88.4295E-03     463.611E-03    -231.457E-03    -232.179E-03    -231.959E-03     463.610E-03    -231.676E-03     1.60884E-03    -130.868E+06    -134.797E+06    -253.269E+06    -134.293E+06    -253.223E+06    -131.418E+06     775.592E+03         57.2127
             665     13.4775E-03     50.2099E-03     36.5081E-03    -6.55703E-03    -15.8228E-03    -14.7149E-03     35.4002E-03    -6.55703E-03    -6.94240E-03     474.021E-03    -232.605E-03    -241.518E-03    -233.596E-03     466.099E-03    -232.605E-03     146.009E-03     84.7324E+06     48.5683E+06    -4.79462E+06    -4.76909E+06     48.5427E+06     84.7324E+06    -245.197E+03         79.5485
             666     12.6843E-03     49.9376E-03     33.4432E-03    -6.04301E-03    -14.0126E-03    -12.7378E-03     32.1684E-03    -6.04301E-03     7.70265E-03     473.790E-03    -232.792E-03    -240.880E-03    -232.578E-03     465.487E-03    -232.792E-03     150.502E-03     81.1038E+06     46.1673E+06    -10.7613E+06    -10.7334E+06     46.1394E+06     81.1038E+06    -17.7904E+03         75.8145
             667     11.8915E-03     49.7685E-03     29.5653E-03    -5.70575E-03    -9.46230E-03    -6.74189E-03     26.9098E-03    -5.77065E-03    -596.754E-06     470.039E-03    -232.583E-03    -236.901E-03    -231.631E-03     464.769E-03    -232.583E-03     121.613E-03     79.0792E+06     42.9672E+06    -16.8445E+06    -16.8032E+06     42.9259E+06     79.0792E+06     593.160E+03         71.3657
             668     11.0976E-03     49.5957E-03     30.4520E-03    -5.78035E-03    -9.48867E-03    -3.28641E-03     24.3147E-03    -5.84525E-03     11.0009E-03     469.884E-03    -232.276E-03    -236.666E-03    -231.910E-03     465.129E-03    -232.276E-03     115.330E-03     75.8398E+06     35.1830E+06    -23.8526E+06    -23.8095E+06     35.1398E+06     75.8398E+06     850.933E+03         67.3591
             669     10.3046E-03     49.4516E-03     31.1063E-03    -6.02811E-03    -9.80425E-03    -3.09393E-03     24.4408E-03    -6.07293E-03     6.83274E-03     468.548E-03    -232.712E-03    -235.109E-03    -231.253E-03     464.692E-03    -232.712E-03     103.802E-03     69.1166E+06     29.0189E+06    -31.4397E+06    -31.4073E+06     28.9865E+06     69.1166E+06    -251.633E+03         64.3655
             670     9.51073E-03     49.3181E-03     29.9557E-03    -5.74706E-03    -9.75108E-03    -6.43472E-03     27.0743E-03    -6.18197E-03    -5.38464E-03     467.407E-03    -232.660E-03    -234.327E-03    -230.526E-03     464.255E-03    -233.309E-03     93.6306E-03     60.4086E+06     28.7102E+06    -39.0705E+06    -39.0003E+06     28.6399E+06     60.4086E+06    -1.67579E+06         62.3034
             671     8.71826E-03     49.1988E-03     31.4746E-03    -5.59954E-03    -11.9605E-03    -9.29899E-03     29.2032E-03    -5.98964E-03    -4.92323E-03     465.509E-03    -232.366E-03    -233.702E-03    -230.440E-03     462.896E-03    -233.015E-03     85.2598E-03     50.1601E+06     25.5935E+06    -47.2775E+06    -47.2009E+06     25.5169E+06     50.1601E+06    -1.44160E+06         60.9195
             672     7.92504E-03     49.0959E-03     30.1584E-03    -5.64544E-03    -10.5996E-03    -8.37730E-03     27.9360E-03    -5.64544E-03    -5.67130E-03     466.388E-03    -232.098E-03    -233.371E-03    -230.601E-03     464.203E-03    -232.683E-03     77.8768E-03     38.3710E+06     17.0110E+06    -56.4803E+06    -56.4343E+06     16.9650E+06     38.3710E+06    -845.731E+03         60.0302
             673     7.13188E-03     49.0028E-03     30.1864E-03    -5.50463E-03    -10.1483E-03    -4.51842E-03     24.5565E-03    -5.50463E-03    -9.69559E-03     466.538E-03    -231.673E-03    -233.193E-03    -229.985E-03     464.849E-03    -233.193E-03     68.4486E-03     26.0434E+06     6.77507E+06    -66.3611E+06    -66.3352E+06     6.74916E+06     26.0434E+06    -583.803E+03         59.4613
             674     6.33895E-03     48.9247E-03     37.2723E-03    -5.78366E-03    -15.9487E-03    -903.027E-06     22.2266E-03    -5.78366E-03     14.5161E-03     465.010E-03    -231.744E-03    -233.315E-03    -231.123E-03     463.754E-03    -232.678E-03     58.9228E-03     8.93033E+06    -28.7464E+06    -76.7413E+06    -76.7113E+06    -28.7764E+06     8.93033E+06    -197.082E+03         59.0472
             675     5.54701E-03     48.8660E-03     44.3848E-03    -6.16970E-03    -22.2530E-03    -3.58894E-03     25.7207E-03    -6.16970E-03     1.38541E-03     464.407E-03    -232.018E-03    -233.716E-03    -231.825E-03     463.578E-03    -233.080E-03     47.6757E-03    -12.7423E+06    -75.5076E+06    -88.6972E+06    -87.5395E+06    -76.6653E+06    -12.7423E+06     7.05462E+03         58.6983
             676     4.75432E-03     48.8200E-03     39.7998E-03    -6.09913E-03    -18.9053E-03    -8.25373E-03     29.1482E-03    -6.09913E-03    -14.8195E-03     463.748E-03    -231.743E-03    -233.675E-03    -231.247E-03     463.252E-03    -233.675E-03     36.8491E-03    -35.2141E+06    -97.8940E+06    -110.215E+06    -98.4296E+06    -109.680E+06    -35.2141E+06    -75.1535E+03         58.4000
             677     3.96212E-03     48.7893E-03     35.6545E-03    -5.66980E-03    -16.7108E-03    -7.85276E-03     26.7965E-03    -5.66980E-03    -8.46269E-03     464.532E-03    -231.737E-03    -234.021E-03    -231.462E-03     464.257E-03    -234.021E-03     27.1734E-03    -58.1300E+06    -108.122E+06    -137.717E+06    -108.156E+06    -137.684E+06    -58.1300E+06    -220.058E+03         58.1676
             678     3.16902E-03     48.7737E-03     37.4527E-03    -4.54080E-03    -20.2415E-03    -11.6928E-03     28.9039E-03    -4.54080E-03    -10.8872E-03     466.646E-03    -232.131E-03    -233.657E-03    -232.124E-03     466.526E-03    -233.545E-03     17.7144E-03    -81.5737E+06    -117.544E+06    -167.804E+06    -117.550E+06    -167.798E+06    -81.5737E+06    -434.934E+03         57.9483
             679     2.37679E-03     48.7668E-03     31.9217E-03    -1.90339E-03    -16.0188E-03    -12.2682E-03     28.1711E-03    -1.90339E-03    -546.124E-06     465.791E-03    -232.391E-03    -233.409E-03    -233.369E-03     465.752E-03    -232.391E-03     10.0008E-03    -104.189E+06    -126.252E+06    -198.000E+06    -126.256E+06    -197.996E+06    -104.189E+06    -177.269E+03         57.6873
             680     1.58499E-03     48.7684E-03     50.1490E-03    -607.064E-06    -31.8265E-03     1.13733E-03     17.1852E-03    -607.064E-06     51.5007E-03     463.800E-03    -231.769E-03    -232.709E-03    -232.699E-03     463.791E-03    -231.769E-03     4.70913E-03    -122.808E+06    -132.019E+06    -225.829E+06    -132.027E+06    -225.821E+06    -122.808E+06    -233.349E+03         57.4180
             681     792.472E-06     48.7716E-03     137.311E-03     59.0365E-03    -175.214E-03    -102.426E-03     23.3744E-03     100.186E-03    -102.087E-03     463.582E-03    -231.344E-03    -232.192E-03    -232.190E-03     463.579E-03    -231.344E-03     2.01267E-03    -133.049E+06    -135.533E+06    -253.381E+06    -135.161E+06    -253.367E+06    -133.435E+06    -830.693E+03         57.2141
             682     13.4769E-03     48.6151E-03     35.0931E-03    -6.05785E-03    -15.4211E-03    -12.8081E-03     32.4802E-03    -6.05785E-03    -8.87520E-03     474.008E-03    -232.624E-03    -241.539E-03    -233.580E-03     466.049E-03    -232.624E-03     146.486E-03     84.7523E+06     48.7117E+06    -5.47132E+06    -5.46111E+06     48.7015E+06     84.7523E+06    -3.94623E+03         79.5113
             683     12.6839E-03     48.3450E-03     33.4576E-03    -5.70405E-03    -12.6434E-03    -8.89764E-03     29.7118E-03    -5.70405E-03    -1.32176E-03     473.875E-03    -232.814E-03    -241.018E-03    -232.733E-03     465.590E-03    -232.814E-03     150.327E-03     81.9744E+06     45.5031E+06    -10.9834E+06    -10.9755E+06     45.4952E+06     81.9744E+06     102.238E+03         75.7865
             684     11.8900E-03     48.1752E-03     32.5339E-03    -5.51100E-03    -11.1282E-03    -6.84025E-03     28.2459E-03    -5.51100E-03    -7.79641E-03     470.126E-03    -232.583E-03    -236.985E-03    -231.760E-03     464.900E-03    -232.583E-03     121.124E-03     79.6824E+06     42.0079E+06    -16.9925E+06    -16.9500E+06     41.9654E+06     79.6824E+06     197.728E+03         71.3490
             685     11.0970E-03     48.0019E-03     32.7338E-03    -5.35239E-03    -11.3366E-03    -6.03990E-03     27.4371E-03    -5.35239E-03    -4.39458E-03     469.959E-03    -232.271E-03    -236.694E-03    -231.971E-03     465.235E-03    -232.271E-03     114.965E-03     76.5669E+06     36.0430E+06    -23.3044E+06    -23.2606E+06     35.9991E+06     76.5669E+06     509.207E+03         67.3473
             686     10.3041E-03     47.8572E-03     31.1686E-03    -5.09964E-03    -10.5719E-03    -6.08462E-03     26.7261E-03    -5.14447E-03    -4.57823E-03     468.469E-03    -232.701E-03    -235.108E-03    -231.259E-03     464.620E-03    -232.701E-03     103.706E-03     70.8581E+06     31.9127E+06    -30.3345E+06    -30.3142E+06     31.8923E+06     70.8581E+06    -352.013E+03         64.3512
             687     9.51183E-03     47.7252E-03     31.0540E-03    -4.74442E-03    -11.2974E-03    -7.84288E-03     27.6444E-03    -4.78925E-03    -16.9591E-03     467.189E-03    -232.561E-03    -234.283E-03    -230.407E-03     464.046E-03    -233.294E-03     93.4754E-03     60.5655E+06     29.4158E+06    -38.8963E+06    -38.8213E+06     29.3408E+06     60.5655E+06    -1.19919E+06         62.2903
             688     8.71831E-03     47.6068E-03     29.6590E-03    -4.42615E-03    -10.1529E-03    -5.50950E-03     25.0156E-03    -4.42615E-03    -17.4669E-03     465.374E-03    -232.265E-03    -233.627E-03    -230.284E-03     462.764E-03    -232.998E-03     85.1919E-03     48.6120E+06     24.1638E+06    -48.2458E+06    -48.1436E+06     24.0617E+06     48.6120E+06    -1.21454E+06         60.9127
             689     7.92502E-03     47.5029E-03     28.0035E-03    -4.25949E-03    -8.25284E-03    -3.81584E-03     23.5665E-03    -4.25949E-03    -10.1496E-03     466.382E-03    -232.049E-03    -233.291E-03    -230.496E-03     464.200E-03    -232.662E-03     77.8080E-03     37.2922E+06     16.0319E+06    -57.2816E+06    -57.2210E+06     15.9714E+06     37.2922E+06    -1.20062E+06         60.0286
             690     7.13225E-03     47.4100E-03     31.3737E-03    -3.88065E-03    -12.1985E-03    -9.08131E-03     28.2565E-03    -3.88065E-03    -10.8581E-03     466.581E-03    -231.658E-03    -233.173E-03    -229.983E-03     464.906E-03    -233.173E-03     68.1757E-03     25.5197E+06     6.18599E+06    -66.9163E+06    -66.8890E+06     6.15872E+06     25.5197E+06    -832.280E+03         59.4615
             691     6.33928E-03     47.3317E-03     34.5536E-03    -3.08982E-03    -16.2114E-03    -9.26070E-03     27.6029E-03    -3.08982E-03     2.97579E-03     465.123E-03    -231.754E-03    -233.303E-03    -231.156E-03     463.879E-03    -232.656E-03     58.6500E-03     8.64945E+06    -29.3687E+06    -77.2417E+06    -77.2212E+06    -29.3892E+06     8.64945E+06    -536.663E+03         59.0464
             692     5.54670E-03     47.2685E-03     33.3657E-03    -2.95119E-03    -15.4610E-03     2.17163E-03     15.7331E-03    -2.95119E-03    -6.70104E-03     464.539E-03    -232.164E-03    -233.703E-03    -231.980E-03     463.709E-03    -233.057E-03     47.7275E-03    -12.6982E+06    -76.2071E+06    -89.0073E+06    -87.8525E+06    -77.3619E+06    -12.6982E+06    -112.548E+03         58.6951
             693     4.75449E-03     47.2242E-03     32.8703E-03    -4.03791E-03    -14.2632E-03     5.69875E-03     12.9083E-03    -4.03791E-03    -7.66429E-03     463.791E-03    -231.881E-03    -233.652E-03    -231.374E-03     463.284E-03    -233.652E-03     37.2907E-03    -35.1007E+06    -97.9474E+06    -109.352E+06    -98.2814E+06    -109.018E+06    -35.1007E+06    -39.5111E+03         58.3938
             694     3.96157E-03     47.1955E-03     33.8645E-03    -4.71211E-03    -14.2570E-03    -5.68533E-03     25.2929E-03    -4.71211E-03     4.50669E-03     464.474E-03    -231.719E-03    -233.999E-03    -231.438E-03     464.193E-03    -233.999E-03     27.4342E-03    -58.7305E+06    -108.583E+06    -137.559E+06    -108.612E+06    -137.530E+06    -58.7305E+06    -369.524E+03         58.1590
             695     3.16951E-03     47.1807E-03     34.0122E-03    -2.98362E-03    -16.5034E-03    -12.6293E-03     30.6183E-03    -3.46386E-03     230.708E-06     466.459E-03    -232.091E-03    -233.582E-03    -232.010E-03     466.341E-03    -233.545E-03     17.6032E-03    -82.7231E+06    -118.382E+06    -168.735E+06    -118.388E+06    -168.729E+06    -82.7231E+06    -106.642E+03         57.9402
             696     2.37680E-03     47.1744E-03     29.6834E-03    -522.554E-06    -15.0968E-03    -8.90367E-03     23.9704E-03    -1.00280E-03    -3.24381E-03     465.711E-03    -232.381E-03    -233.277E-03    -233.186E-03     465.672E-03    -232.433E-03     10.0011E-03    -104.820E+06    -125.546E+06    -197.755E+06    -125.562E+06    -197.739E+06    -104.820E+06    -293.427E+03         57.6818
             697     1.58406E-03     47.1781E-03     51.3962E-03     3.21418E-03    -41.6546E-03    -8.36660E-03     18.1082E-03     3.21418E-03     55.5441E-03     464.156E-03    -231.960E-03    -232.844E-03    -232.777E-03     464.145E-03    -232.016E-03     5.22096E-03    -121.891E+06    -131.133E+06    -225.522E+06    -131.156E+06    -225.500E+06    -121.891E+06    -644.671E+03         57.4141
             698     792.073E-06     47.1801E-03     116.645E-03     50.9830E-03    -153.785E-03    -61.4063E-03     1.59520E-03     73.6547E-03    -91.7833E-03     463.753E-03    -231.625E-03    -232.257E-03    -231.997E-03     463.750E-03    -231.882E-03     2.49848E-03    -132.796E+06    -136.215E+06    -254.976E+06    -135.837E+06    -254.968E+06    -133.182E+06    -251.471E+03         57.2102
             699     13.4764E-03     47.0213E-03     26.7122E-03    -4.30486E-03    -6.97129E-03    -2.98778E-03     23.6232E-03    -5.19938E-03    -13.9225E-03     474.035E-03    -232.632E-03    -241.363E-03    -233.491E-03     466.163E-03    -232.632E-03     145.585E-03     86.1862E+06     48.5946E+06    -4.98340E+06    -4.98096E+06     48.5921E+06     86.1862E+06    -1.27183E+03         79.4560
             700     12.6831E-03     46.7488E-03     29.6438E-03    -5.11807E-03    -9.04264E-03    -5.14977E-03     25.7565E-03    -5.12363E-03    -3.17676E-03     473.770E-03    -232.881E-03    -241.008E-03    -232.802E-03     465.564E-03    -232.881E-03     149.564E-03     83.5460E+06     45.1964E+06    -10.1199E+06    -10.1171E+06     45.1936E+06     83.5460E+06    -20.6369E+03         75.7382
             701     11.8909E-03     46.5797E-03     33.8287E-03    -4.88359E-03    -13.5132E-03    -9.04483E-03     29.3603E-03    -4.88359E-03    -6.39936E-03     469.859E-03    -232.646E-03    -236.977E-03    -231.797E-03     464.679E-03    -232.646E-03     120.577E-03     80.1377E+06     42.2697E+06    -16.5379E+06    -16.5026E+06     42.2344E+06     80.1377E+06     281.305E+03         71.3130
             702     11.0971E-03     46.4083E-03     36.1797E-03    -4.42645E-03    -16.6084E-03    -11.4788E-03     31.0502E-03    -4.42645E-03    -1.63673E-03     469.738E-03    -232.260E-03    -236.487E-03    -231.756E-03     465.006E-03    -232.260E-03     115.047E-03     76.5074E+06     37.3322E+06    -23.7040E+06    -23.6222E+06     37.2504E+06     76.5074E+06    -373.687E+03         67.3258
             703     10.3042E-03     46.2630E-03     34.1566E-03    -3.82400E-03    -15.1845E-03    -11.4849E-03     30.4570E-03    -3.82400E-03     2.20113E-03     468.391E-03    -232.690E-03    -234.969E-03    -231.081E-03     464.502E-03    -232.690E-03     104.218E-03     70.7242E+06     32.0055E+06    -30.9265E+06    -30.8613E+06     31.9403E+06     70.7242E+06    -702.067E+03         64.3406
             704     9.51088E-03     46.1302E-03     27.8219E-03    -3.39916E-03    -9.10690E-03    -5.75478E-03     24.4698E-03    -3.39916E-03    -10.0542E-03     467.332E-03    -232.673E-03    -234.277E-03    -230.467E-03     464.153E-03    -233.303E-03     94.0244E-03     60.8439E+06     29.2115E+06    -38.8462E+06    -38.8084E+06     29.1736E+06     60.8439E+06    -239.444E+03         62.2837
             705     8.71815E-03     46.0133E-03     27.0345E-03    -3.27810E-03    -8.43917E-03    -3.66929E-03     22.2646E-03    -3.27810E-03    -5.39131E-03     465.657E-03    -232.360E-03    -233.831E-03    -230.571E-03     463.027E-03    -232.990E-03     85.5479E-03     49.1063E+06     24.7715E+06    -47.6467E+06    -47.5661E+06     24.6909E+06     49.1063E+06    -316.082E+03         60.9071
             706     7.92507E-03     45.9070E-03     28.2594E-03    -3.09082E-03    -10.1217E-03    -6.20772E-03     24.3454E-03    -3.09082E-03    -1.02267E-03     466.544E-03    -232.146E-03    -233.480E-03    -230.801E-03     464.358E-03    -232.639E-03     77.8982E-03     36.7433E+06     15.6967E+06    -57.3978E+06    -57.3208E+06     15.6198E+06     36.7433E+06    -769.026E+03         60.0248
             707     7.13190E-03     45.8149E-03     27.5192E-03    -2.69550E-03    -9.92295E-03    -3.77388E-03     21.5423E-03    -2.86764E-03     202.833E-06     466.799E-03    -231.897E-03    -233.162E-03    -230.227E-03     465.129E-03    -233.162E-03     68.0960E-03     24.7758E+06     5.61625E+06    -67.3595E+06    -67.3329E+06     5.58966E+06     24.7758E+06    -1.02086E+06         59.4588
             708     6.33949E-03     45.7353E-03     31.1287E-03    -2.81823E-03    -13.6954E-03    -997.660E-06     18.6031E-03    -2.99037E-03     16.2130E-03     465.128E-03    -231.873E-03    -233.201E-03    -231.192E-03     463.890E-03    -232.645E-03     58.4868E-03     8.14284E+06    -30.2003E+06    -77.6276E+06    -77.5831E+06    -30.2449E+06     8.14284E+06    -920.039E+03         59.0431
             709     5.54695E-03     45.6752E-03     35.5572E-03    -3.21626E-03    -17.8740E-03    -3.45666E-03     21.1398E-03    -3.21626E-03     9.03738E-03     464.264E-03    -232.017E-03    -233.607E-03    -231.750E-03     463.441E-03    -233.051E-03     47.4872E-03    -12.8824E+06    -76.8509E+06    -89.0651E+06    -87.9969E+06    -77.9191E+06    -12.8824E+06    -781.892E+03         58.6910
             710     4.75375E-03     45.6289E-03     38.5192E-03    -3.10544E-03    -20.3588E-03    -5.26353E-03     23.4239E-03    -3.10544E-03     11.6358E-03     463.679E-03    -231.799E-03    -233.648E-03    -231.300E-03     463.180E-03    -233.648E-03     36.9628E-03    -34.7377E+06    -98.1195E+06    -108.832E+06    -98.2954E+06    -108.656E+06    -34.7377E+06    -425.006E+03         58.3894
             711     3.96207E-03     45.6009E-03     33.7959E-03    -2.20915E-03    -15.6192E-03    -2.85636E-03     21.7559E-03    -2.93193E-03     11.4544E-03     464.489E-03    -231.729E-03    -234.014E-03    -231.453E-03     464.213E-03    -234.014E-03     27.2081E-03    -59.0057E+06    -108.950E+06    -138.029E+06    -108.971E+06    -138.008E+06    -59.0057E+06    -113.447E+03         58.1529
             712     3.16933E-03     45.5834E-03     24.0876E-03    -629.948E-06    -7.07281E-03     515.013E-06     19.2695E-03    -3.39970E-03    -12.3357E-03     466.412E-03    -231.996E-03    -233.572E-03    -231.877E-03     466.294E-03    -233.572E-03     17.6816E-03    -82.8918E+06    -117.876E+06    -168.717E+06    -117.896E+06    -168.697E+06    -82.8918E+06    -339.363E+03         57.9312
             713     2.37669E-03     45.5785E-03     23.1171E-03     942.702E-06    -8.19259E-03     1.42196E-03     19.3840E-03    -4.93876E-03    -11.8350E-03     465.751E-03    -232.396E-03    -233.331E-03    -233.184E-03     465.711E-03    -232.502E-03     10.1242E-03    -104.956E+06    -125.258E+06    -197.358E+06    -125.289E+06    -197.327E+06    -104.956E+06    -541.876E+03         57.6720
             714     1.58421E-03     45.5814E-03     51.4988E-03    -3.59678E-03    -36.4093E-03    -1.66229E-03     20.5863E-03    -7.43125E-03     56.5843E-03     464.442E-03    -232.038E-03    -232.996E-03    -232.930E-03     464.432E-03    -232.095E-03     5.00754E-03    -122.287E+06    -131.339E+06    -226.465E+06    -131.358E+06    -226.446E+06    -122.287E+06    -241.425E+03         57.4054
             715     791.969E-06     45.5839E-03     121.188E-03     6.99539E-03    -120.287E-03    -24.6502E-03     25.5509E-03     6.99539E-03    -99.5605E-03     463.962E-03    -231.842E-03    -232.299E-03    -231.913E-03     463.960E-03    -232.226E-03     1.92413E-03    -132.760E+06    -135.694E+06    -255.603E+06    -135.696E+06    -255.601E+06    -132.760E+06     15.3922E+03         57.2020
             716     13.4784E-03     45.4280E-03     34.6553E-03    -4.54517E-03    -14.1150E-03    -12.0488E-03     33.4837E-03    -5.43969E-03     3.42887E-03     474.207E-03    -232.605E-03    -241.332E-03    -233.449E-03     466.324E-03    -232.605E-03     145.571E-03     86.3057E+06     49.0268E+06    -5.18228E+06    -5.18126E+06     49.0258E+06     86.3057E+06    -120.448E+03         79.3754
             717     12.6847E-03     45.1566E-03     32.5400E-03    -5.29193E-03    -11.9316E-03    -9.87041E-03     30.4844E-03    -5.29748E-03     13.6800E-03     473.482E-03    -232.829E-03    -240.567E-03    -232.336E-03     465.251E-03    -232.829E-03     149.657E-03     82.2122E+06     44.5868E+06    -11.1669E+06    -11.1662E+06     44.5861E+06     82.2122E+06    -131.857E+03         75.6622
             718     11.8903E-03     44.9868E-03     30.9411E-03    -5.13613E-03    -10.7131E-03    -8.69338E-03     28.9808E-03    -5.19560E-03     11.2116E-03     469.579E-03    -232.672E-03    -236.497E-03    -231.292E-03     464.373E-03    -232.672E-03     120.795E-03     79.3050E+06     42.5242E+06    -17.1151E+06    -17.0608E+06     42.4699E+06     79.3050E+06    -245.028E+03         71.2502
             719     11.0974E-03     44.8120E-03     33.2315E-03    -4.94228E-03    -13.4374E-03    -9.29105E-03     29.2355E-03    -5.09268E-03     17.4671E-03     469.782E-03    -232.313E-03    -236.359E-03    -231.581E-03     465.004E-03    -232.313E-03     115.589E-03     76.9599E+06     38.1463E+06    -23.0167E+06    -22.9177E+06     38.0473E+06     76.9599E+06    -783.213E+03         67.2912
             720     10.3035E-03     44.6648E-03     31.5714E-03    -4.15883E-03    -12.3492E-03    -7.28102E-03     27.4302E-03    -5.08582E-03     20.3595E-03     468.515E-03    -232.724E-03    -235.009E-03    -231.111E-03     464.617E-03    -232.724E-03     104.352E-03     70.7491E+06     31.3562E+06    -30.4037E+06    -30.3435E+06     31.2960E+06     70.7491E+06    -783.885E+03         64.3336
             721     9.51078E-03     44.5318E-03     31.8553E-03    -4.20664E-03    -12.4486E-03    -10.5283E-03     30.7710E-03    -5.04271E-03     11.1575E-03     467.539E-03    -232.729E-03    -234.349E-03    -230.548E-03     464.357E-03    -233.348E-03     94.0847E-03     61.1250E+06     28.6625E+06    -38.4502E+06    -38.4118E+06     28.6241E+06     61.1250E+06    -165.423E+03         62.2814
             722     8.71773E-03     44.4109E-03     34.7926E-03    -4.70547E-03    -14.6369E-03    -12.3217E-03     32.4774E-03    -4.70547E-03     6.92262E-03     465.892E-03    -232.389E-03    -234.074E-03    -230.842E-03     463.280E-03    -233.008E-03     85.2714E-03     50.2989E+06     24.9416E+06    -46.8596E+06    -46.8069E+06     24.8889E+06     50.2989E+06     142.978E+03         60.8990
             723     7.92512E-03     44.3074E-03     30.1525E-03    -3.93206E-03    -10.8645E-03    -5.99527E-03     25.8339E-03    -4.48260E-03     9.74895E-03     466.765E-03    -232.292E-03    -233.714E-03    -231.195E-03     464.602E-03    -232.649E-03     77.5411E-03     37.9923E+06     16.8075E+06    -56.1391E+06    -56.0768E+06     16.7453E+06     37.9923E+06     145.606E+03         60.0171
             724     7.13251E-03     44.2165E-03     28.9813E-03    -4.01333E-03    -10.9459E-03    -2.38328E-03     21.1414E-03    -4.73602E-03     9.19946E-03     466.787E-03    -232.049E-03    -233.140E-03    -230.383E-03     465.121E-03    -233.140E-03     68.0100E-03     24.9648E+06     6.17532E+06    -66.5608E+06    -66.5214E+06     6.13595E+06     24.9648E+06    -457.498E+03         59.4526
             725     6.34008E-03     44.1358E-03     34.7475E-03    -4.89237E-03    -16.5948E-03    -4.17092E-03     22.4958E-03    -5.06451E-03     17.1314E-03     465.004E-03    -231.899E-03    -233.168E-03    -231.204E-03     463.773E-03    -232.633E-03     58.3320E-03     7.82071E+06    -30.6672E+06    -77.3329E+06    -77.2905E+06    -30.7095E+06     7.82071E+06    -929.666E+03         59.0366
             726     5.54729E-03     44.0754E-03     41.1028E-03    -4.47732E-03    -23.1083E-03    -13.7660E-03     31.7606E-03    -4.47732E-03     9.04419E-03     464.192E-03    -231.970E-03    -233.591E-03    -231.687E-03     463.374E-03    -233.055E-03     47.3684E-03    -12.9469E+06    -77.2934E+06    -88.7680E+06    -87.7781E+06    -78.2833E+06    -12.9469E+06    -884.539E+03         58.6846
             727     4.75492E-03     44.0313E-03     39.0697E-03    -2.45998E-03    -22.1632E-03    -18.1540E-03     35.0606E-03    -2.45998E-03    -6.50936E-03     463.532E-03    -231.614E-03    -233.627E-03    -231.118E-03     463.036E-03    -233.627E-03     36.8543E-03    -35.1675E+06    -98.3482E+06    -110.032E+06    -98.5870E+06    -109.793E+06    -35.1675E+06    -713.639E+03         58.3840
             728     3.96137E-03     44.0045E-03     28.7799E-03     103.484E-06    -13.4831E-03    -5.58700E-03     21.6065E-03    -619.290E-06    -7.42617E-03     464.381E-03    -231.504E-03    -233.992E-03    -231.231E-03     464.107E-03    -233.992E-03     27.0690E-03     -58.576E+06    -108.408E+06    -138.383E+06    -108.433E+06    -138.359E+06     -58.576E+06    -486.113E+03         58.1478
             729     3.16902E-03     43.9887E-03     19.7602E-03     1.40913E-03    -5.90852E-03     5.35111E-03     10.7901E-03    -880.376E-06    -20.1772E-03     466.531E-03    -231.872E-03    -233.626E-03    -231.895E-03     466.415E-03    -233.487E-03     17.4468E-03    -82.1202E+06    -117.493E+06    -168.120E+06    -117.524E+06    -168.089E+06    -82.1202E+06    -314.827E+03         57.9244
             730     2.37655E-03     43.9829E-03     20.1758E-03     1.97746E-03    -6.70584E-03     7.23613E-03     11.6350E-03    -3.42375E-03    -17.0113E-03     465.790E-03    -232.324E-03    -233.554E-03    -233.461E-03     465.752E-03    -232.379E-03     9.77532E-03    -105.084E+06    -126.420E+06    -198.260E+06    -126.444E+06    -198.235E+06    -105.084E+06    -141.864E+03         57.6636
             731     1.58441E-03     43.9862E-03     40.3348E-03    -4.59641E-03    -23.6755E-03     4.44222E-03     16.0516E-03    -8.43088E-03     37.0053E-03     464.053E-03    -231.817E-03    -232.974E-03    -232.966E-03     464.044E-03    -231.817E-03     4.62501E-03    -123.778E+06    -132.993E+06    -226.522E+06    -133.005E+06    -226.510E+06    -123.778E+06     184.918E+03         57.3960
             732     792.095E-06     43.9911E-03     97.9768E-03    -7.22931E-03    -80.1352E-03    -16.1775E-03     34.0190E-03    -7.22931E-03    -77.3454E-03     463.703E-03    -231.555E-03    -232.179E-03    -232.051E-03     463.701E-03    -231.682E-03     2.14435E-03    -133.549E+06    -136.401E+06    -255.689E+06    -135.654E+06    -255.682E+06    -134.304E+06     376.630E+03         57.1904
             733     13.4771E-03     43.8321E-03     39.3246E-03    -6.74620E-03    -18.5467E-03    -16.3607E-03     37.1557E-03    -6.76333E-03    -1.84372E-03     474.132E-03    -232.599E-03    -241.321E-03    -233.379E-03     466.189E-03    -232.599E-03     146.286E-03     85.7933E+06     48.9098E+06    -5.03966E+06    -5.03533E+06     48.9055E+06     85.7933E+06     213.148E+03         79.2649
             734     12.6843E-03     43.5570E-03     37.2286E-03    -6.39557E-03    -15.9167E-03    -13.6371E-03     34.9490E-03    -6.39557E-03    -1.34417E-03     473.495E-03    -232.821E-03    -240.391E-03    -232.120E-03     465.224E-03    -232.821E-03     150.092E-03     81.6802E+06     45.9993E+06    -10.8170E+06    -10.8130E+06     45.9953E+06     81.6802E+06     11.4636E+03         75.5559
             735     11.8909E-03     43.3893E-03     29.6505E-03    -5.67243E-03    -9.10152E-03    -7.81730E-03     28.9200E-03    -6.22613E-03     3.57331E-03     469.872E-03    -232.689E-03    -236.352E-03    -231.078E-03     464.598E-03    -232.689E-03     121.597E-03     79.1837E+06     43.5283E+06    -16.7727E+06    -16.7309E+06     43.4865E+06     79.1837E+06    -1.25581E+06         71.1615
             736     11.0975E-03     43.2137E-03     25.9376E-03    -5.36202E-03    -6.35717E-03    -3.20081E-03     23.7764E-03    -6.35717E-03     3.05514E-03     469.995E-03    -232.333E-03    -236.391E-03    -231.608E-03     465.212E-03    -232.333E-03     115.632E-03     75.9737E+06     36.5867E+06    -23.3648E+06    -23.2978E+06     36.5196E+06     75.9737E+06    -1.48349E+06         67.2403
             737     10.3037E-03     43.0700E-03     26.5708E-03    -5.32016E-03    -7.71313E-03    -4.02867E-03     24.1639E-03    -6.59768E-03     4.21126E-03     468.632E-03    -232.713E-03    -235.108E-03    -231.277E-03     464.800E-03    -232.713E-03     103.462E-03     69.5939E+06     30.4371E+06    -30.6697E+06    -30.6318E+06     30.3993E+06     69.5939E+06    -744.654E+03         64.3189
             738     9.51071E-03     42.9351E-03     30.1934E-03    -2.88529E-03    -13.2785E-03    -8.10965E-03     28.7604E-03    -6.62114E-03     1.96266E-03     467.425E-03    -232.564E-03    -234.372E-03    -230.505E-03     464.307E-03    -233.314E-03     93.1343E-03     60.6230E+06     29.0181E+06    -38.6762E+06    -38.6450E+06     28.9868E+06     60.6230E+06    -279.077E+03         62.2744
             739     8.71847E-03     42.8180E-03     33.3777E-03    -3.67289E-03    -15.2484E-03    -6.62293E-03     27.6520E-03    -6.57268E-03    -15.2160E-03     465.600E-03    -232.237E-03    -234.030E-03    -230.710E-03     463.030E-03    -232.987E-03     84.5577E-03     49.8839E+06     24.5640E+06    -47.3506E+06    -47.3185E+06     24.5319E+06     49.8839E+06    -207.617E+03         60.8862
             740     7.92604E-03     42.7139E-03     33.7249E-03    -6.16772E-03    -13.2435E-03    -5.09288E-03     26.1248E-03    -6.71827E-03    -4.74961E-03     466.664E-03    -232.264E-03    -233.684E-03    -231.161E-03     464.518E-03    -232.641E-03     77.2526E-03     38.3768E+06     16.7966E+06    -56.2198E+06    -56.1825E+06     16.7594E+06     38.3768E+06    -130.371E+03         60.0040
             741     7.13292E-03     42.6235E-03     37.7935E-03    -5.90631E-03    -18.3145E-03    -13.2748E-03     33.3043E-03    -6.45685E-03     275.478E-06     466.542E-03    -231.906E-03    -233.112E-03    -230.234E-03     464.870E-03    -233.112E-03     68.1142E-03     26.0117E+06     7.04613E+06    -65.5406E+06    -65.4914E+06     6.99695E+06     26.0117E+06     372.060E+03         59.4412
             742     6.33995E-03     42.5454E-03     42.4957E-03    -5.11216E-03    -24.7793E-03    -20.0543E-03     37.7706E-03    -5.11216E-03     5.59797E-03     464.851E-03    -231.788E-03    -233.232E-03    -231.165E-03     463.612E-03    -232.617E-03     58.5075E-03     8.50781E+06    -29.7773E+06    -76.0580E+06    -76.0289E+06    -29.8065E+06     8.50781E+06     41.2986E+03         59.0264
             743     5.54739E-03     42.4839E-03     36.6289E-03    -3.33800E-03    -20.6621E-03    -14.4604E-03     30.4272E-03    -3.33800E-03     12.7916E-03     464.220E-03    -232.029E-03    -233.659E-03    -231.820E-03     463.396E-03    -233.044E-03     47.5313E-03    -13.1249E+06    -76.8504E+06    -88.9301E+06    -87.2281E+06    -78.5524E+06    -13.1249E+06    -663.535E+03         58.6754
             744     4.75442E-03     42.4383E-03     25.5505E-03    -1.75645E-03    -10.7310E-03    -6.55733E-03     21.7934E-03    -2.17309E-03    -9.78741E-03     463.616E-03    -231.680E-03    -233.612E-03    -231.181E-03     463.116E-03    -233.612E-03     36.9777E-03    -35.3325E+06    -97.7061E+06    -110.931E+06    -97.9516E+06    -110.685E+06    -35.3325E+06    -871.179E+03         58.3758
             745     3.96208E-03     42.4086E-03     22.7157E-03    -1.02872E-03    -8.63683E-03    -5.41611E-03     19.9117E-03    -1.44535E-03    -12.9350E-03     464.445E-03    -231.582E-03    -233.939E-03    -231.310E-03     464.173E-03    -233.939E-03     26.9562E-03    -58.2826E+06    -108.375E+06    -139.049E+06    -108.412E+06    -139.012E+06    -58.2826E+06    -468.424E+03         58.1414
             746     3.16939E-03     42.3929E-03     23.7099E-03    -456.877E-06    -10.5486E-03    -5.46101E-03     18.6223E-03    -456.877E-06    -13.4899E-03     466.520E-03    -231.964E-03    -233.554E-03    -232.002E-03     466.408E-03    -233.404E-03     17.1339E-03    -81.7434E+06    -118.350E+06    -168.937E+06    -118.373E+06    -168.914E+06    -81.7434E+06     154.382E+03         57.9198
             747     2.37743E-03     42.3875E-03     22.7556E-03     1.09717E-03    -12.4785E-03    -4.55351E-03     14.8306E-03     1.09717E-03    -10.9394E-03     465.654E-03    -232.254E-03    -233.358E-03    -233.322E-03     465.617E-03    -232.254E-03     9.53739E-03    -104.334E+06    -126.418E+06    -198.270E+06    -126.439E+06    -198.248E+06    -104.334E+06     446.715E+03         57.6586
             748     1.58496E-03     42.3909E-03     34.7196E-03     4.16463E-03    -28.8059E-03    -4.39880E-03     10.3125E-03     4.16463E-03     36.3664E-03     463.482E-03    -231.569E-03    -232.666E-03    -232.658E-03     463.474E-03    -231.569E-03     4.63179E-03    -122.716E+06    -131.918E+06    -225.774E+06    -131.938E+06    -225.753E+06    -122.716E+06     408.753E+03         57.3881
             749     792.279E-06     42.3947E-03     63.3569E-03     30.7163E-03    -84.8237E-03    -23.2754E-03    -3.22996E-03     35.7550E-03    -54.4543E-03     463.085E-03    -231.028E-03    -232.099E-03    -232.097E-03     463.083E-03    -231.028E-03     2.34331E-03    -132.742E+06    -135.543E+06    -255.572E+06    -134.799E+06    -255.561E+06    -133.496E+06     61.7660E+03         57.1785
             750     13.4775E-03     42.2319E-03     29.7719E-03    -4.74280E-03    -10.2415E-03    -5.89944E-03     27.8205E-03    -7.13338E-03    -6.21823E-03     473.578E-03    -232.633E-03    -240.924E-03    -233.005E-03     465.659E-03    -232.633E-03     146.098E-03     85.9901E+06     48.9328E+06    -4.88272E+06    -4.87144E+06     48.9215E+06     85.9901E+06    -76.4809E+03         79.1272
             751     12.6834E-03     41.9652E-03     33.3330E-03    -5.89113E-03    -12.6158E-03    -9.47792E-03     31.4098E-03    -7.10589E-03    -5.66902E-03     473.468E-03    -232.780E-03    -240.425E-03    -232.192E-03     465.236E-03    -232.780E-03     149.785E-03     82.4360E+06     47.1964E+06    -9.91477E+06    -9.89922E+06     47.1809E+06     82.4360E+06    -520.297E+03         75.4247
             752     11.8896E-03     41.7944E-03     32.7333E-03    -6.46441E-03    -12.2499E-03    -11.0702E-03     32.0477E-03    -6.95865E-03    -6.71346E-03     470.306E-03    -232.583E-03    -236.851E-03    -231.589E-03     465.045E-03    -232.583E-03     121.538E-03     80.2366E+06     44.6249E+06    -16.0613E+06    -16.0478E+06     44.6114E+06     80.2366E+06    -804.258E+03         71.0539
             753     11.0976E-03     41.6202E-03     34.1923E-03    -5.82609E-03    -14.4706E-03    -12.1315E-03     32.6980E-03    -6.67084E-03    -1.93336E-03     470.264E-03    -232.290E-03    -236.845E-03    -232.098E-03     465.517E-03    -232.290E-03     115.249E-03     76.2394E+06     36.3635E+06    -23.8370E+06    -23.7859E+06     36.3125E+06     76.2394E+06    -490.072E+03         67.1767
             754     10.3047E-03     41.4755E-03     33.6276E-03    -5.91765E-03    -12.9000E-03    -11.1678E-03     32.2459E-03    -6.26817E-03    -1.05501E-03     468.747E-03    -232.653E-03    -235.456E-03    -231.646E-03     464.937E-03    -232.653E-03     103.219E-03     68.3094E+06     29.6683E+06    -32.2226E+06    -32.1677E+06     29.6133E+06     68.3094E+06    -408.124E+03         64.2965
             755     9.51195E-03     41.3410E-03     24.8015E-03    -2.25770E-03    -7.89839E-03    -2.62764E-03     23.4499E-03    -6.17682E-03    -7.46698E-03     467.292E-03    -232.452E-03    -234.466E-03    -230.584E-03     464.188E-03    -233.230E-03     92.9175E-03     59.0421E+06     28.5201E+06    -40.3031E+06    -40.2798E+06     28.4968E+06     59.0421E+06    -951.748E+03         62.2666
             756     8.71913E-03     41.2235E-03     27.8316E-03    -2.61237E-03    -11.0146E-03    -714.115E-06     21.4503E-03    -6.53148E-03    -22.0055E-03     465.263E-03    -232.162E-03    -233.695E-03    -230.359E-03     462.705E-03    -232.940E-03     84.3226E-03     48.8929E+06     24.3347E+06    -48.3671E+06    -48.3332E+06     24.3008E+06     48.8929E+06    -1.04169E+06         60.8763
             757     7.92615E-03     41.1171E-03     36.7125E-03    -6.62580E-03    -16.1179E-03    -8.54539E-03     29.1399E-03    -6.62580E-03    -7.51876E-03     466.181E-03    -231.990E-03    -233.325E-03    -230.606E-03     464.043E-03    -232.570E-03     77.0511E-03     37.6188E+06     15.8488E+06    -56.9862E+06    -56.9524E+06     15.8150E+06     37.6188E+06    -680.281E+03         59.9904
             758     7.13255E-03     41.0302E-03     34.6149E-03    -4.89093E-03    -15.9078E-03    -12.3803E-03     32.3222E-03    -6.12565E-03     9.20681E-03     466.171E-03    -231.663E-03    -233.071E-03    -230.002E-03     464.510E-03    -233.071E-03     67.8571E-03     25.6129E+06     5.86562E+06    -66.7451E+06    -66.6985E+06     5.81904E+06     25.6129E+06    -231.676E+03         59.4276
             759     6.33985E-03     40.9522E-03     31.3972E-03    -210.505E-06    -17.6723E-03    -8.94168E-03     28.0554E-03    -5.59929E-03     10.4066E-03     464.698E-03    -231.764E-03    -233.242E-03    -231.184E-03     463.468E-03    -232.592E-03     58.3025E-03     8.39930E+06    -28.8963E+06    -77.1358E+06    -77.0822E+06    -28.9499E+06     8.39930E+06     161.242E+03         59.0152
             760     5.54726E-03     40.8890E-03     27.0265E-03     135.107E-06    -13.4106E-03    -3.50024E-03     22.9298E-03    -5.67860E-03     20.4529E-03     464.182E-03    -231.984E-03    -233.650E-03    -231.818E-03     463.366E-03    -233.000E-03     47.2872E-03    -13.0849E+06    -75.4511E+06    -89.3419E+06    -87.3864E+06    -77.4066E+06    -13.0849E+06    -132.446E+03         58.6650
             761     4.75485E-03     40.8450E-03     23.3710E-03    -3.39456E-03    -6.76044E-03    -2.46287E-03     22.0072E-03    -6.32830E-03     3.42374E-03     463.674E-03    -231.739E-03    -233.599E-03    -231.246E-03     463.181E-03    -233.599E-03     36.7457E-03    -35.4197E+06    -98.3060E+06    -111.244E+06    -98.3708E+06    -111.180E+06    -35.4197E+06    -384.565E+03         58.3647
             762     3.96223E-03     40.8120E-03     24.8468E-03    -4.78712E-03    -7.85620E-03    -4.44729E-03     23.7045E-03    -7.05381E-03     2.41381E-03     464.418E-03    -231.736E-03    -233.894E-03    -231.463E-03     464.145E-03    -233.894E-03     27.0196E-03    -58.8292E+06    -109.036E+06    -140.052E+06    -109.083E+06    -140.005E+06    -58.8292E+06    -237.463E+03         58.1298
             763     3.17011E-03     40.7966E-03     29.2885E-03    -5.95141E-03    -12.6869E-03    -10.6160E-03     28.2101E-03    -6.94401E-03     2.07339E-03     466.340E-03    -232.067E-03    -233.452E-03    -232.022E-03     466.225E-03    -233.383E-03     17.3786E-03    -82.1861E+06    -118.370E+06    -169.238E+06    -118.393E+06    -169.215E+06    -82.1861E+06    -138.544E+03         57.9093
             764     2.37723E-03     40.7940E-03     30.1363E-03    -4.67536E-03    -16.6560E-03    -15.7046E-03     29.1849E-03    -4.67536E-03     5.16162E-03     465.571E-03    -232.225E-03    -233.182E-03    -233.145E-03     465.534E-03    -232.225E-03     9.63020E-03    -104.302E+06    -126.135E+06    -198.051E+06    -126.168E+06    -198.018E+06    -104.302E+06    -147.812E+03         57.6488
             765     1.58464E-03     40.7992E-03     35.6646E-03    -1.52428E-03    -24.2238E-03    -6.66213E-03     18.1029E-03    -1.52428E-03     43.2067E-03     463.493E-03    -231.550E-03    -232.534E-03    -232.524E-03     463.484E-03    -231.551E-03     4.70003E-03    -121.778E+06    -131.224E+06    -225.870E+06    -131.265E+06    -225.830E+06    -121.778E+06     139.443E+03         57.3775
             766     792.892E-06     40.8005E-03     74.9640E-03     34.0745E-03    -98.2652E-03    -53.6630E-03     11.0965E-03     53.3399E-03    -42.3980E-03     462.734E-03    -230.969E-03    -231.913E-03    -231.614E-03     462.732E-03    -231.267E-03     2.25723E-03    -132.131E+06    -134.945E+06    -254.946E+06    -134.485E+06    -254.933E+06    -132.605E+06     129.480E+03         57.1670
             767     13.4762E-03     40.6385E-03     26.1342E-03    -3.65634E-03    -8.23680E-03    -3.85928E-03     25.2133E-03    -7.11301E-03    -2.45788E-03     473.447E-03    -232.655E-03    -240.720E-03    -232.823E-03     465.550E-03    -232.655E-03     145.842E-03     85.6460E+06     50.1406E+06    -5.26180E+06    -5.25216E+06     50.1309E+06     85.6460E+06    -591.631E+03         78.9688
             768     12.6828E-03     40.3674E-03     25.4543E-03    -4.07933E-03    -7.94534E-03    -4.18582E-03     24.9350E-03    -7.31958E-03     983.123E-06     473.617E-03    -232.806E-03    -240.735E-03    -232.558E-03     465.439E-03    -232.806E-03     149.226E-03     81.9295E+06     46.8685E+06    -11.1396E+06    -11.1248E+06     46.8537E+06     81.9295E+06     -870.43E+03         75.2770
             769     11.8912E-03     40.1983E-03     31.3725E-03    -6.38379E-03    -11.6796E-03    -10.0563E-03     30.6915E-03    -7.32605E-03    -7.55868E-03     470.480E-03    -232.467E-03    -237.148E-03    -231.950E-03     465.282E-03    -232.467E-03     120.837E-03     79.8639E+06       43.09E+06    -17.6657E+06    -17.6540E+06     43.0783E+06     79.8639E+06    -176.470E+03         70.9378
             770     11.0982E-03     40.0229E-03     35.2792E-03    -5.77760E-03    -15.7444E-03    -11.7757E-03     32.6392E-03    -7.10637E-03     4.22628E-03     470.308E-03    -232.148E-03    -236.898E-03    -232.179E-03     465.589E-03    -232.148E-03     114.928E-03     76.7803E+06     37.1562E+06    -24.5777E+06    -24.5391E+06     37.1177E+06     76.7803E+06     278.448E+03         67.1100
             771     10.3049E-03     39.8793E-03     32.1832E-03    -5.46640E-03    -12.5147E-03    -8.67167E-03     29.8720E-03    -6.99829E-03     8.24748E-03     468.895E-03    -232.542E-03    -235.590E-03    -231.765E-03     465.070E-03    -232.542E-03     103.463E-03     69.4717E+06     31.1132E+06    -31.7083E+06    -31.6599E+06     31.0649E+06     69.4717E+06    -107.449E+03         64.2727
             772     9.51197E-03     39.7463E-03     33.7266E-03    -5.68256E-03    -13.7946E-03    -11.7014E-03     32.8558E-03    -6.90501E-03     3.71880E-03     467.504E-03    -232.378E-03    -234.487E-03    -230.594E-03     464.360E-03    -233.125E-03     93.5340E-03     59.1070E+06     28.6762E+06    -39.6470E+06    -39.6167E+06     28.6459E+06     59.1070E+06    -838.683E+03         62.2598
             773     8.71953E-03     39.6288E-03     38.1550E-03    -5.46471E-03    -19.2016E-03    -13.9376E-03     33.9103E-03    -6.48403E-03    -11.6432E-03     465.410E-03    -232.160E-03    -233.707E-03    -230.380E-03     462.831E-03    -232.908E-03     84.6719E-03     48.2080E+06     23.8566E+06     -48.394E+06    -48.3582E+06     23.8208E+06     48.2080E+06    -1.21107E+06         60.8714
             774     7.92630E-03     39.5259E-03     36.5476E-03    -6.10482E-03    -17.1973E-03    -7.76831E-03     27.1186E-03    -6.10482E-03     877.826E-06     466.241E-03    -231.977E-03    -233.307E-03    -230.655E-03     464.119E-03    -232.507E-03     76.7224E-03     36.9975E+06     15.0772E+06    -57.8786E+06    -57.8381E+06     15.0367E+06     36.9975E+06    -936.977E+03         59.9850
             775     7.13308E-03     39.4352E-03     30.0327E-03    -5.00994E-03    -11.9217E-03    -2.70930E-03     22.0551E-03    -6.24466E-03     11.7476E-03     465.999E-03    -231.588E-03    -232.988E-03    -229.962E-03     464.373E-03    -232.988E-03     67.1412E-03     24.8990E+06     4.84799E+06    -67.6592E+06    -67.6227E+06     4.81148E+06     24.8990E+06    -955.663E+03         59.4202
             776     6.34039E-03     39.3570E-03     22.2862E-03    -996.489E-06    -7.95541E-03     575.414E-06     19.6957E-03    -6.93680E-03    -6.06089E-03     464.365E-03    -231.619E-03    -233.136E-03    -231.051E-03     463.150E-03    -232.489E-03     57.9216E-03     8.07741E+06    -29.5589E+06    -77.8725E+06    -77.7759E+06    -29.6555E+06     8.07741E+06    -857.697E+03         59.0059
             777     5.54780E-03     39.2924E-03     21.4125E-03     591.078E-06    -8.05460E-03     1.03543E-03     20.9682E-03    -8.05460E-03     1.79909E-03     464.036E-03    -231.943E-03    -233.571E-03    -231.775E-03     463.222E-03    -232.924E-03     47.2425E-03    -13.3001E+06    -76.4450E+06    -89.9654E+06    -88.6659E+06    -77.7445E+06    -13.3001E+06    -91.1004E+03         58.6540
             778     4.75495E-03     39.2504E-03     29.6278E-03    -4.42885E-03    -11.5423E-03    -2.68451E-03     25.5676E-03    -9.22640E-03    -16.1036E-03     463.641E-03    -231.778E-03    -233.563E-03    -231.288E-03     463.150E-03    -233.563E-03     36.6356E-03    -35.1658E+06    -98.8771E+06    -111.132E+06    -99.0360E+06    -110.973E+06    -35.1658E+06     259.083E+03         58.3513
             779     3.96255E-03     39.2207E-03     34.2103E-03    -8.31979E-03    -13.4892E-03    -5.95862E-03     28.5297E-03    -10.1698E-03    -16.7187E-03     464.207E-03    -231.640E-03    -233.844E-03    -231.373E-03     463.940E-03    -233.844E-03     26.7280E-03    -58.7007E+06    -108.820E+06    -139.296E+06    -108.849E+06    -139.267E+06    -58.7007E+06    -223.628E+03         58.1135
             780     3.16976E-03     39.2019E-03     34.4943E-03    -10.1366E-03    -13.0132E-03    -6.67278E-03     29.1465E-03    -11.1292E-03    -15.1880E-03     466.101E-03    -231.902E-03    -233.384E-03    -231.847E-03     465.989E-03    -233.326E-03     17.1992E-03    -83.0987E+06    -118.092E+06    -169.070E+06    -118.140E+06    -169.022E+06    -83.0987E+06    -893.475E+03         57.8913
             781     2.37760E-03     39.2000E-03     36.2701E-03    -11.1824E-03    -14.4007E-03    -7.49732E-03     30.6966E-03    -12.5124E-03    -16.5931E-03     465.477E-03    -232.197E-03    -233.251E-03    -233.189E-03     465.438E-03    -232.220E-03     9.98509E-03    -105.549E+06    -126.059E+06    -198.836E+06    -126.113E+06    -198.782E+06    -105.549E+06    -988.100E+03         57.6310
             782     1.58553E-03     39.2021E-03     42.4364E-03    -13.0130E-03    -18.1319E-03    -10.3628E-03     35.9974E-03    -14.3431E-03     13.1800E-03     463.696E-03    -231.684E-03    -232.662E-03    -232.645E-03     463.685E-03    -231.689E-03     5.17707E-03    -123.667E+06    -132.685E+06    -227.525E+06    -132.723E+06    -227.487E+06    -123.667E+06    -356.905E+03         57.3615
             783     792.356E-06     39.2095E-03     99.3347E-03     21.0583E-03    -109.502E-03    -98.0640E-03     41.5516E-03     67.4035E-03    -40.5349E-03     463.062E-03    -231.416E-03    -231.748E-03    -231.444E-03     463.060E-03    -231.717E-03     2.16626E-03    -131.806E+06    -135.669E+06    -254.644E+06    -135.210E+06    -254.628E+06    -132.280E+06     291.161E+03         57.1535
             784     13.4770E-03     39.0460E-03     32.7699E-03    -6.47110E-03    -12.2714E-03    -10.5383E-03     32.1200E-03    -7.55432E-03    -8.25367E-03     473.833E-03    -232.630E-03    -241.201E-03    -233.328E-03     465.960E-03    -232.630E-03     145.537E-03     85.7486E+06     51.0498E+06    -5.22706E+06    -5.22390E+06     51.0467E+06     85.7486E+06    -375.388E+03         78.7974
             785     12.6841E-03     38.7727E-03     29.5471E-03    -5.37145E-03    -10.1159E-03    -6.92378E-03     28.5505E-03    -7.56691E-03     3.46725E-03     473.826E-03    -232.792E-03    -240.844E-03    -232.671E-03     465.653E-03    -232.792E-03     149.145E-03     82.0233E+06     45.9758E+06    -10.9595E+06    -10.9540E+06     45.9704E+06     82.0233E+06    -117.950E+03         75.1190
             786     11.8903E-03     38.6025E-03     27.0103E-03    -4.19017E-03    -8.65904E-03    -3.46134E-03     25.4431E-03    -7.82068E-03     6.67728E-03     470.143E-03    -232.396E-03    -236.998E-03    -231.820E-03     464.965E-03    -232.396E-03     120.564E-03     80.2086E+06     41.8916E+06    -17.2603E+06    -17.2499E+06     41.8813E+06     80.2086E+06     235.759E+03         70.8171
             787     11.0977E-03     38.4297E-03     27.8267E-03    -4.38642E-03    -10.1450E-03    -4.16663E-03     25.6954E-03    -8.23346E-03     8.22352E-03     469.761E-03    -232.027E-03    -236.498E-03    -231.778E-03     465.042E-03    -232.027E-03     114.850E-03     77.2500E+06     37.6523E+06    -24.1342E+06    -24.1069E+06     37.6250E+06     77.2500E+06     40.2312E+03         67.0432
             788     10.3056E-03     38.2845E-03     31.2790E-03    -6.97439E-03    -11.1161E-03    -8.21448E-03     29.9093E-03    -8.50627E-03     6.67890E-03     468.637E-03    -232.407E-03    -235.179E-03    -231.383E-03     464.841E-03    -232.407E-03     103.006E-03     69.8044E+06     31.8525E+06    -31.5843E+06    -31.5266E+06     31.7948E+06     69.8044E+06    -599.028E+03         64.2499
             789     9.51249E-03     38.1535E-03     35.0288E-03    -5.51965E-03    -16.2339E-03    -12.8111E-03     34.5001E-03    -8.41375E-03     6.58481E-03     467.662E-03    -232.366E-03    -234.389E-03    -230.613E-03     464.561E-03    -233.041E-03     92.9061E-03     59.9932E+06     29.0574E+06    -39.3735E+06    -39.3188E+06     29.0028E+06     59.9932E+06    -593.000E+03         62.2532
             790     8.71881E-03     38.0354E-03     38.8894E-03    -5.38884E-03    -20.5333E-03    -13.8566E-03     34.9036E-03    -8.07983E-03    -12.0778E-03     465.736E-03    -232.226E-03    -233.926E-03    -230.690E-03     463.176E-03    -232.901E-03     84.4107E-03     48.8947E+06     24.3265E+06    -48.1147E+06    -48.0902E+06     24.3020E+06     48.8947E+06    -403.513E+03         60.8676
             791     7.92636E-03     37.9293E-03     41.0734E-03    -7.82119E-03    -20.3003E-03    -11.2145E-03     31.9875E-03    -7.82119E-03     2.24579E-03     466.495E-03    -232.093E-03    -233.510E-03    -230.986E-03     464.363E-03    -232.485E-03     76.9637E-03     37.0837E+06     15.3483E+06    -57.5379E+06    -57.5136E+06     15.3239E+06     37.0837E+06    -836.953E+03         59.9843
             792     7.13455E-03     37.8379E-03     35.0812E-03    -6.37281E-03    -15.2678E-03    -5.81126E-03     27.1918E-03    -7.93999E-03     12.7742E-03     466.080E-03    -231.698E-03    -232.943E-03    -230.052E-03     464.434E-03    -232.943E-03     67.5576E-03     24.9938E+06     5.17806E+06    -67.3146E+06    -67.2799E+06     5.14345E+06     24.9938E+06    -1.12356E+06         59.4184
             793     6.34081E-03     37.7611E-03     32.7604E-03    -6.15666E-03    -13.9868E-03    -6.83120E-03     27.7234E-03    -8.27536E-03     5.80098E-03     464.238E-03    -231.557E-03    -233.104E-03    -231.032E-03     463.019E-03    -232.410E-03     58.0234E-03     7.64085E+06    -30.8756E+06    -78.1154E+06    -78.0164E+06    -30.9746E+06     7.64085E+06    -849.083E+03         59.0003
             794     5.54755E-03     37.6968E-03     34.7190E-03    -5.42658E-03    -16.5529E-03    -10.8463E-03     31.8444E-03    -8.25854E-03     14.2659E-03     463.866E-03    -231.839E-03    -233.541E-03    -231.721E-03     463.054E-03    -232.846E-03     47.1903E-03    -13.9756E+06    -77.3891E+06    -90.5652E+06    -88.9487E+06    -79.0056E+06    -13.9756E+06    -591.486E+03         58.6455
             795     4.75565E-03     37.6527E-03     35.5466E-03    -5.61294E-03    -16.3145E-03    -10.2186E-03     31.7312E-03    -7.89339E-03    -14.0338E-03     463.458E-03    -231.590E-03    -233.502E-03    -231.096E-03     462.965E-03    -233.502E-03     36.7294E-03    -35.6400E+06    -98.6270E+06    -111.158E+06     -99.153E+06    -110.632E+06    -35.6400E+06    -537.303E+03         58.3405
             796     3.96306E-03     37.6253E-03     33.9353E-03    -6.36186E-03    -13.5633E-03    -6.97650E-03     28.7268E-03    -7.74025E-03    -23.6680E-03     464.041E-03    -231.433E-03    -233.830E-03    -231.164E-03     463.771E-03    -233.830E-03     26.8612E-03    -58.8729E+06    -108.944E+06    -138.777E+06    -108.962E+06    -138.760E+06    -58.8729E+06    -438.299E+03         58.0999
             797     3.17023E-03     37.6062E-03     29.5347E-03    -5.48483E-03    -9.85262E-03    -1.70343E-03     24.5486E-03    -8.64789E-03    -22.3180E-03     465.981E-03    -231.773E-03    -233.333E-03    -231.706E-03     465.867E-03    -233.287E-03     17.2400E-03    -83.3171E+06    -118.396E+06    -169.475E+06    -118.451E+06    -169.419E+06    -83.3171E+06    -424.693E+03         57.8757
             798     2.37705E-03     37.6040E-03     32.0352E-03    -7.89219E-03    -11.4827E-03    -1.99808E-03     25.6652E-03    -11.0069E-03    -12.4651E-03     465.389E-03    -232.184E-03    -233.145E-03    -233.084E-03     465.350E-03    -232.207E-03     9.90225E-03    -106.391E+06    -127.049E+06    -200.248E+06    -127.096E+06    -200.201E+06    -106.391E+06     12.5648E+03         57.6152
             799     1.58409E-03     37.6100E-03     46.9710E-03    -12.4994E-03    -21.9359E-03    -8.57983E-03     34.9449E-03    -13.8294E-03     26.1874E-03     463.779E-03    -231.793E-03    -232.728E-03    -232.674E-03     463.769E-03    -231.836E-03     5.00158E-03    -124.342E+06    -132.902E+06    -227.351E+06    -132.917E+06    -227.336E+06    -124.342E+06     139.889E+03         57.3473
             800     792.203E-06     37.6142E-03     108.266E-03     20.7587E-03    -118.603E-03    -101.444E-03     40.7952E-03     71.0695E-03    -35.8748E-03     463.507E-03    -231.531E-03    -232.127E-03    -232.082E-03     463.504E-03    -231.575E-03     2.15944E-03    -133.885E+06    -138.252E+06    -255.332E+06    -136.865E+06    -255.309E+06    -135.294E+06    -643.262E+03         57.1424
             801     13.4784E-03     37.4507E-03     37.1989E-03    -7.93298E-03    -12.6265E-03    -11.8358E-03     37.1137E-03    -8.63843E-03    -3.15456E-03     474.117E-03    -232.589E-03    -241.559E-03    -233.662E-03     466.220E-03    -232.589E-03     145.796E-03     86.0912E+06     50.7238E+06    -5.28383E+06    -5.27751E+06     50.7175E+06     86.0912E+06    -366.958E+03         78.6241
             802     12.6850E-03     37.1764E-03     36.6162E-03    -7.83453E-03    -12.6355E-03    -10.8305E-03     35.6866E-03    -8.70995E-03     2.00413E-03     473.867E-03    -232.694E-03    -240.644E-03    -232.413E-03     465.635E-03    -232.694E-03     149.735E-03     82.5040E+06     45.5116E+06    -10.8572E+06    -10.8496E+06     45.5041E+06     82.5040E+06    -134.469E+03         74.9622
             803     11.8924E-03     37.0100E-03     32.7108E-03    -6.23908E-03    -10.9072E-03    -6.11657E-03     30.6085E-03    -8.92733E-03     765.481E-06     469.979E-03    -232.391E-03    -236.782E-03    -231.573E-03     464.769E-03    -232.391E-03     120.903E-03     80.4814E+06     41.7937E+06    -16.8544E+06    -16.8479E+06     41.7872E+06     80.4814E+06     247.795E+03         70.6989
             804     11.0982E-03     36.8357E-03     34.0200E-03    -6.64723E-03    -13.0813E-03    -7.70334E-03     31.1603E-03    -9.16550E-03     9.49468E-03     469.570E-03    -232.065E-03    -236.306E-03    -231.582E-03     464.846E-03    -232.065E-03     114.881E-03     77.7930E+06     38.2600E+06    -23.7065E+06    -23.6749E+06     38.2284E+06     77.7930E+06    -157.578E+03         66.9783
             805     10.3049E-03     36.6884E-03     36.5156E-03    -8.79650E-03    -14.0099E-03    -11.6222E-03     34.4921E-03    -9.16074E-03     7.40479E-03     468.336E-03    -232.377E-03    -235.013E-03    -231.221E-03     464.544E-03    -232.377E-03     102.910E-03     70.3908E+06     32.5604E+06    -31.2956E+06    -31.2087E+06     32.4734E+06     70.3908E+06    -315.733E+03         64.2287
             806     9.51270E-03     36.5571E-03     29.6692E-03    -4.86915E-03    -10.7836E-03    -5.90810E-03     29.1715E-03    -9.24696E-03    -1.38571E-03     467.570E-03    -232.497E-03    -234.443E-03    -230.812E-03     464.480E-03    -233.039E-03     92.7475E-03     60.1461E+06     28.7278E+06    -39.6865E+06    -39.6047E+06     28.6461E+06     60.1461E+06    -284.435E+03         62.2479
             807     8.72014E-03     36.4411E-03     30.4987E-03    -4.23791E-03    -11.8002E-03    -3.47807E-03     27.6715E-03    -9.73280E-03    -12.3821E-03     465.691E-03    -232.352E-03    -233.785E-03    -230.678E-03     463.126E-03    -232.894E-03     84.4838E-03     49.1408E+06     24.4444E+06    -48.1834E+06    -48.1535E+06     24.4145E+06     49.1408E+06    -434.716E+03         60.8644
             808     7.92764E-03     36.3371E-03     36.7902E-03    -5.83652E-03    -15.5871E-03    -7.29270E-03     32.9105E-03    -10.2513E-03    -5.91443E-03     466.279E-03    -232.093E-03    -233.371E-03    -230.834E-03     464.130E-03    -232.480E-03     77.2725E-03     37.1982E+06     15.6451E+06    -57.0792E+06    -57.0661E+06     15.6320E+06     37.1982E+06    -537.505E+03         59.9848
             809     7.13330E-03     36.2444E-03     36.6872E-03    -6.05382E-03    -15.6383E-03    -9.89389E-03     35.4434E-03    -10.5544E-03     7.33449E-03     466.173E-03    -231.859E-03    -232.939E-03    -230.195E-03     464.509E-03    -232.939E-03     67.9322E-03     24.8716E+06     5.13826E+06    -67.2397E+06    -67.2069E+06     5.10549E+06     24.8716E+06    -455.734E+03         59.4221
             810     6.34152E-03     36.1668E-03     41.8023E-03    -8.84421E-03    -19.5560E-03    -15.0743E-03     38.8877E-03    -10.4114E-03     14.8630E-03     464.543E-03    -231.687E-03    -233.164E-03    -231.239E-03     463.311E-03    -232.379E-03     58.3413E-03     7.38900E+06    -30.8999E+06    -78.2945E+06    -78.1850E+06    -31.0094E+06     7.38900E+06    -434.006E+03         59.0038
             811     5.54905E-03     36.1046E-03     43.1158E-03    -9.09660E-03    -20.6312E-03    -16.5916E-03     39.6801E-03    -9.70053E-03     12.9697E-03     463.713E-03    -231.576E-03    -233.580E-03    -231.534E-03     462.888E-03    -232.796E-03     47.5657E-03    -14.3685E+06    -77.2365E+06    -91.0561E+06    -88.8712E+06    -79.4214E+06    -14.3685E+06    -600.231E+03         58.6471
             812     4.75542E-03     36.0611E-03     36.0084E-03    -5.98268E-03    -15.1831E-03    -11.4336E-03     35.3541E-03    -9.07789E-03    -6.29585E-03     463.066E-03    -231.173E-03    -233.477E-03    -230.671E-03     462.564E-03    -233.477E-03     37.0620E-03    -37.2385E+06    -99.0561E+06    -111.168E+06    -99.5487E+06    -110.675E+06    -37.2385E+06    -774.339E+03         58.3411
             813     3.96263E-03     36.0329E-03     31.2530E-03    -2.65552E-03    -11.9882E-03    -4.29316E-03     30.3870E-03    -9.48445E-03    -8.80033E-03     464.138E-03    -231.392E-03    -233.830E-03    -231.117E-03     463.863E-03    -233.830E-03     27.1018E-03    -60.6273E+06    -109.945E+06    -139.282E+06    -109.992E+06    -139.235E+06    -60.6273E+06    -709.433E+03         58.0991
             814     3.16983E-03     36.0163E-03     35.2781E-03    -4.92984E-03    -12.5851E-03    -3.24456E-03     32.0599E-03    -11.0522E-03     5.20150E-03     466.271E-03    -231.874E-03    -233.401E-03    -231.934E-03     466.159E-03    -233.229E-03     17.0475E-03    -83.7406E+06    -119.640E+06    -170.951E+06    -119.671E+06    -170.920E+06    -83.7406E+06    -82.5670E+03         57.8727
             815     2.37759E-03     36.0109E-03     43.5607E-03    -10.4927E-03    -16.7163E-03    -10.9492E-03     39.5782E-03    -12.2774E-03     16.0347E-03     465.389E-03    -232.060E-03    -233.102E-03    -233.068E-03     465.355E-03    -232.060E-03     9.20523E-03    -105.193E+06    -127.345E+06    -200.539E+06    -127.366E+06    -200.517E+06    -105.193E+06     292.710E+03         57.6116
             816     1.58509E-03     36.0147E-03     50.9641E-03    -12.9434E-03    -22.5585E-03    -10.0777E-03     38.8390E-03    -13.2991E-03     38.4239E-03     463.697E-03    -231.572E-03    -232.633E-03    -232.586E-03     463.689E-03    -231.611E-03     4.31102E-03    -122.239E+06    -132.974E+06    -226.534E+06    -132.979E+06    -226.528E+06    -122.239E+06     480.831E+03         57.3442
             817     792.234E-06     36.0207E-03     77.3636E-03     23.8529E-03    -86.0664E-03    -69.9814E-03     43.4419E-03     41.6896E-03    -11.1139E-03     463.231E-03    -231.006E-03    -232.228E-03    -232.187E-03     463.229E-03    -231.045E-03     1.87090E-03    -133.777E+06    -138.942E+06    -254.543E+06    -137.568E+06    -254.506E+06    -135.187E+06     534.907E+03         57.1395
             818     13.4778E-03     35.8540E-03     36.0704E-03    -9.04787E-03    -10.6506E-03    -8.81829E-03     34.9435E-03    -9.75332E-03    -10.8592E-03     474.154E-03    -232.556E-03    -241.547E-03    -233.597E-03     466.204E-03    -232.556E-03     146.372E-03     86.1418E+06     50.7376E+06    -5.31034E+06    -5.30016E+06     50.7274E+06     86.1418E+06    -35.0288E+03         78.4552
             819     12.6846E-03     35.5851E-03     35.8471E-03    -9.06624E-03    -11.3413E-03    -10.0910E-03     35.3901E-03    -9.85967E-03    -7.83433E-03     473.999E-03    -232.645E-03    -240.941E-03    -232.659E-03     465.717E-03    -232.645E-03     150.281E-03     82.2924E+06     45.6151E+06    -11.4048E+06    -11.3923E+06     45.6026E+06     82.2924E+06    -255.281E+03         74.8095
             820     11.8898E-03     35.4131E-03     39.0796E-03    -9.69982E-03    -14.5031E-03    -13.6635E-03     38.3279E-03    -9.78779E-03    -10.6195E-03     470.151E-03    -232.360E-03    -236.994E-03    -231.745E-03     464.903E-03    -232.360E-03     121.385E-03     80.6729E+06     42.1948E+06    -17.4006E+06    -17.3824E+06     42.1766E+06     80.6729E+06    -460.783E+03         70.5803
             821     11.0981E-03     35.2384E-03     38.0340E-03    -8.65484E-03    -15.2311E-03    -11.2571E-03     35.0581E-03    -9.65297E-03     7.37774E-03     469.659E-03    -232.049E-03    -236.419E-03    -231.698E-03     464.938E-03    -232.049E-03     114.846E-03     78.2359E+06     38.4726E+06    -23.7236E+06    -23.6739E+06     38.4229E+06     78.2359E+06    -331.916E+03         66.9089
             822     10.3055E-03     35.0932E-03     31.8317E-03    -6.15758E-03    -12.0678E-03    -5.56219E-03     28.9969E-03    -9.82838E-03     8.92804E-03     468.159E-03    -232.385E-03    -235.159E-03    -231.359E-03     464.359E-03    -232.385E-03     103.029E-03     70.6972E+06     32.7171E+06    -31.4460E+06    -31.3569E+06     32.6279E+06     70.6972E+06    -129.328E+03         64.2025
             823     9.51373E-03     34.9597E-03     32.7850E-03    -6.20374E-03    -12.1391E-03    -7.37299E-03     32.0141E-03    -10.1990E-03     119.911E-06     467.185E-03    -232.491E-03    -234.458E-03    -230.776E-03     464.060E-03    -233.047E-03     93.2511E-03     60.1723E+06     28.8954E+06    -39.4729E+06    -39.3865E+06     28.8090E+06     60.1723E+06    -42.3486E+03         62.2378
             824     8.72034E-03     34.8425E-03     38.6290E-03    -7.64844E-03    -15.5461E-03    -8.89037E-03     34.7772E-03    -10.4523E-03    -12.7119E-03     465.644E-03    -232.316E-03    -233.820E-03    -230.672E-03     463.053E-03    -232.872E-03     84.9145E-03     48.7105E+06     24.3847E+06    -48.0718E+06    -48.0309E+06     24.3437E+06     48.7105E+06    -290.327E+03         60.8590
             825     7.92696E-03     34.7380E-03     38.0587E-03    -6.25066E-03    -15.9959E-03    -7.68618E-03     34.1638E-03    -10.6654E-03    -13.0342E-03     466.421E-03    -232.217E-03    -233.412E-03    -231.018E-03     464.275E-03    -232.463E-03     77.2102E-03     36.5984E+06     15.2137E+06    -57.4938E+06    -57.4731E+06     15.1930E+06     36.5984E+06    -262.303E+03         59.9888
             826     7.13474E-03     34.6449E-03     40.8364E-03    -7.70567E-03    -16.9146E-03    -12.2936E-03     39.1488E-03    -10.6391E-03    -5.12205E-03     466.117E-03    -231.897E-03    -232.934E-03    -230.251E-03     464.471E-03    -232.934E-03     67.5759E-03     24.4460E+06     4.95254E+06    -67.4088E+06    -67.3734E+06     4.91709E+06     24.4460E+06    -81.0779E+03         59.4337
             827     6.34064E-03     34.5692E-03     39.5841E-03    -7.26543E-03    -17.0374E-03    -12.4953E-03     38.0791E-03    -10.3025E-03    -6.39102E-03     464.421E-03    -231.617E-03    -233.077E-03    -231.054E-03     463.188E-03    -232.407E-03     58.3714E-03     7.25174E+06    -30.6944E+06    -77.6286E+06    -77.5034E+06    -30.8195E+06     7.25174E+06    -263.059E+03         59.0191
             828     5.54767E-03     34.5075E-03     30.9119E-03    -2.39345E-03    -13.3089E-03    -2.83900E-03     28.7211E-03    -10.6725E-03    -4.63940E-03     463.813E-03    -231.697E-03    -233.485E-03    -231.536E-03     462.982E-03    -232.815E-03     47.7016E-03    -14.4261E+06    -77.3340E+06    -90.5225E+06    -88.3260E+06    -79.5305E+06    -14.4261E+06    -288.152E+03         58.6629
             829     4.75563E-03     34.4632E-03     30.5072E-03    -2.37568E-03    -12.2813E-03     26.2646E-06     28.1052E-03    -12.2813E-03    -6.27330E-03     463.341E-03    -231.487E-03    -233.472E-03    -230.990E-03     462.844E-03    -233.472E-03     36.8259E-03    -36.6226E+06    -98.8784E+06    -110.963E+06    -99.1890E+06    -110.653E+06    -36.6226E+06    -109.681E+03         58.3549
             830     3.96270E-03     34.4342E-03     40.4671E-03    -6.38715E-03    -17.0275E-03    -7.44976E-03     38.5122E-03    -14.0100E-03    -11.1152E-03     464.183E-03    -231.563E-03    -233.785E-03    -231.298E-03     463.918E-03    -233.785E-03     26.5912E-03    -60.2077E+06    -109.661E+06    -139.639E+06    -109.730E+06    -139.570E+06    -60.2077E+06    -174.307E+03         58.1089
             831     3.17022E-03     34.4179E-03     52.8570E-03    -11.6542E-03    -22.3720E-03    -15.2452E-03     48.6895E-03    -14.6135E-03     4.25182E-03     466.139E-03    -231.834E-03    -233.376E-03    -231.850E-03     466.029E-03    -233.249E-03     16.9753E-03    -83.2091E+06    -119.173E+06    -171.391E+06    -119.187E+06    -171.377E+06    -83.2091E+06    -411.100E+03         57.8785
             832     2.37820E-03     34.4184E-03     56.5585E-03    -13.6553E-03    -22.6858E-03    -18.9972E-03     52.8700E-03    -13.6553E-03     6.71013E-03     465.482E-03    -232.013E-03    -233.261E-03    -233.161E-03     465.444E-03    -232.074E-03     9.89436E-03    -105.189E+06    -127.725E+06    -200.871E+06    -127.734E+06    -200.863E+06    -105.189E+06    -82.2165E+03         57.6181
             833     1.58534E-03     34.4217E-03     54.4485E-03    -11.6019E-03    -21.0093E-03    -15.2385E-03     49.0335E-03    -11.9576E-03     12.7208E-03     463.565E-03    -231.348E-03    -232.675E-03    -232.664E-03     463.554E-03    -231.348E-03     5.14013E-03    -124.463E+06    -134.166E+06    -227.196E+06    -134.168E+06    -227.193E+06    -124.463E+06     37.3709E+03         57.3537
             834     793.176E-06     34.4253E-03     49.0043E-03     16.3777E-03    -45.7219E-03    -38.4079E-03     41.9610E-03     16.1071E-03     5.98099E-03     462.638E-03    -230.907E-03    -231.862E-03    -231.680E-03     462.635E-03    -231.086E-03     2.40716E-03    -133.972E+06    -136.540E+06    -253.438E+06    -136.570E+06    -253.408E+06    -133.972E+06     142.647E+03         57.1477
             835     13.4781E-03     34.2615E-03     38.4376E-03    -10.8445E-03    -13.6923E-03    -12.3643E-03     37.1096E-03    -10.8445E-03    -4.92994E-03     474.083E-03    -232.547E-03    -241.436E-03    -233.483E-03     466.130E-03    -232.547E-03     146.273E-03     86.2877E+06     51.0630E+06    -5.03241E+06    -5.01874E+06     51.0494E+06     86.2877E+06     368.488E+03         78.2909
             836     12.6836E-03     33.9868E-03     39.5768E-03    -10.8527E-03    -14.3742E-03    -13.3691E-03     38.6596E-03    -10.9406E-03     3.66940E-03     474.077E-03    -232.614E-03    -241.266E-03    -232.996E-03     465.807E-03    -232.614E-03     150.077E-03     82.5713E+06     46.4081E+06    -10.7106E+06    -10.7013E+06     46.3988E+06     82.5713E+06     40.1975E+03         74.6559
             837     11.8917E-03     33.8177E-03     39.8598E-03    -9.62756E-03    -15.4090E-03    -13.5132E-03     39.3342E-03    -10.9978E-03     3.27184E-03     470.190E-03    -232.322E-03    -237.061E-03    -231.830E-03     464.960E-03    -232.322E-03     121.183E-03     80.4831E+06     42.5394E+06    -17.3612E+06    -17.3407E+06     42.5190E+06     80.4831E+06    -253.434E+03         70.4512
             838     11.0980E-03     33.6419E-03     39.8451E-03    -8.76458E-03    -16.7802E-03    -13.4742E-03     38.8195E-03    -11.0450E-03     7.63773E-03     469.748E-03    -232.065E-03    -236.442E-03    -231.699E-03     465.005E-03    -232.065E-03     115.116E-03     77.4475E+06     38.3792E+06    -25.0408E+06    -24.9653E+06     38.3038E+06     77.4475E+06    -549.387E+03         66.8222
             839     10.3063E-03     33.4966E-03     38.7277E-03    -7.79868E-03    -16.4432E-03    -12.0463E-03     37.6373E-03    -11.1053E-03     7.74020E-03     468.353E-03    -232.471E-03    -235.214E-03    -231.416E-03     464.555E-03    -232.471E-03     103.020E-03     69.8876E+06     32.3040E+06    -32.2238E+06    -32.1345E+06     32.2146E+06     69.8876E+06    -867.456E+03         64.1581
             840     9.51214E-03     33.3634E-03     38.7083E-03    -8.47108E-03    -15.4066E-03    -12.0746E-03     38.0334E-03    -11.1282E-03     6.93806E-03     467.152E-03    -232.491E-03    -234.365E-03    -230.685E-03     464.047E-03    -233.066E-03     92.9156E-03     59.7520E+06     28.4030E+06    -39.9490E+06    -39.8767E+06     28.3307E+06     59.7520E+06    -648.268E+03         62.2137
             841     8.71907E-03     33.2448E-03     45.3833E-03    -10.5470E-03    -20.1627E-03    -16.1019E-03     41.6712E-03    -10.8957E-03    -11.8063E-03     465.530E-03    -232.242E-03    -233.704E-03    -230.584E-03     462.985E-03    -232.817E-03     84.1298E-03     48.9639E+06     24.1058E+06    -48.2128E+06    -48.1501E+06     24.0431E+06     48.9639E+06    -77.9252E+03         60.8469
             842     7.92711E-03     33.1395E-03     48.3915E-03    -10.2613E-03    -22.8833E-03    -18.6136E-03     44.1218E-03    -10.2613E-03    -7.61766E-03     466.247E-03    -232.171E-03    -233.324E-03    -230.935E-03     464.124E-03    -232.438E-03     76.8061E-03     36.6563E+06     15.3917E+06    -57.2464E+06    -57.2088E+06     15.3541E+06     36.6563E+06    -30.2074E+03         59.9914
             843     7.13414E-03     33.0511E-03     39.1464E-03    -5.43264E-03    -17.4219E-03    -10.2075E-03     36.3430E-03    -9.84363E-03     1.00079E-03     465.891E-03    -231.839E-03    -232.917E-03    -230.182E-03     464.234E-03    -232.917E-03     67.7736E-03     23.9774E+06     5.01331E+06    -67.2463E+06    -67.2088E+06     4.97586E+06     23.9774E+06    -278.158E+03         59.4461
             844     6.34131E-03     32.9755E-03     32.2769E-03    -2.72239E-03    -12.8041E-03    -442.340E-06     27.7137E-03    -10.5210E-03     909.442E-06     464.340E-03    -231.600E-03    -233.020E-03    -230.982E-03     463.114E-03    -232.412E-03     58.1694E-03     7.27871E+06    -31.2459E+06    -77.5279E+06    -77.4600E+06    -31.3139E+06     7.27871E+06     22.3722E+03         59.0362
             845     5.54815E-03     32.9146E-03     34.9012E-03    -3.94897E-03    -14.5478E-03    -1.79011E-03     30.1692E-03    -11.9747E-03     2.36732E-03     464.025E-03    -231.860E-03    -233.391E-03    -231.653E-03     463.210E-03    -232.784E-03     47.2626E-03    -13.6808E+06    -77.4021E+06    -89.7818E+06    -88.0945E+06    -79.0894E+06    -13.6808E+06     261.586E+03         58.6809
             846     4.75575E-03     32.8705E-03     42.1431E-03    -6.17291E-03    -19.8153E-03    -10.0890E-03     39.2271E-03    -12.9833E-03     2.08285E-03     463.647E-03    -231.678E-03    -233.420E-03    -231.182E-03     463.152E-03    -233.420E-03     36.8091E-03    -35.7756E+06    -98.5646E+06    -111.257E+06    -99.1068E+06    -110.715E+06    -35.7756E+06     95.9695E+03         58.3701
             847     3.96378E-03     32.8408E-03     51.6999E-03    -10.4393E-03    -25.5133E-03    -18.3705E-03     46.7294E-03    -12.6116E-03    -12.9690E-03     464.010E-03    -231.472E-03    -233.772E-03    -231.200E-03     463.738E-03    -233.772E-03     26.9883E-03    -59.4557E+06    -109.226E+06    -139.946E+06    -109.293E+06    -139.880E+06    -59.4557E+06        -588.859         58.1183
             848     3.16993E-03     32.8255E-03     53.8028E-03    -11.0384E-03    -26.5216E-03    -18.6111E-03     45.8923E-03    -11.0384E-03    -5.77208E-03     465.836E-03    -231.740E-03    -233.344E-03    -231.623E-03     465.719E-03    -233.344E-03     17.5312E-03    -83.6050E+06    -118.609E+06    -171.487E+06    -118.623E+06    -171.473E+06    -83.6050E+06     208.089E+03         57.8831
             849     2.37670E-03     32.8252E-03     47.8281E-03    -9.61966E-03    -18.9178E-03    -12.3626E-03     41.2729E-03    -9.61966E-03     2.38055E-03     465.575E-03    -232.124E-03    -233.268E-03    -233.105E-03     465.535E-03    -232.247E-03     10.0859E-03    -106.541E+06    -127.005E+06    -200.946E+06    -127.008E+06    -200.944E+06    -106.541E+06     86.3993E+03         57.6244
             850     1.58494E-03     32.8301E-03     48.1197E-03    -9.10505E-03    -16.7030E-03    -8.22642E-03     40.0210E-03    -9.48293E-03     9.12697E-03     463.816E-03    -231.564E-03    -232.837E-03    -232.689E-03     463.806E-03    -231.702E-03     5.18351E-03    -124.369E+06    -133.091E+06    -227.052E+06    -133.094E+06    -227.049E+06    -124.369E+06    -466.016E+03         57.3647
             851     792.081E-06     32.8354E-03     51.0866E-03    -1.67404E-03    -26.0738E-03    -12.9356E-03     42.8561E-03    -6.58172E-03     13.7839E-03     463.063E-03    -231.501E-03    -232.021E-03    -231.613E-03     463.060E-03    -231.907E-03     2.82332E-03    -133.849E+06    -136.065E+06    -253.967E+06     -135.97E+06    -253.948E+06    -133.962E+06    -387.791E+03         57.1613
             852     13.4774E-03     32.6652E-03     36.9163E-03    -9.75176E-03    -14.5090E-03    -11.4667E-03     36.2858E-03    -12.1636E-03    -62.3851E-06     474.274E-03    -232.591E-03    -241.465E-03    -233.455E-03     466.264E-03    -232.591E-03     146.785E-03     86.3753E+06     51.2557E+06    -4.75181E+06    -4.72564E+06     51.2296E+06     86.3753E+06     404.358E+03         78.1313
             853     12.6856E-03     32.3926E-03     40.0034E-03    -9.75299E-03    -15.6943E-03    -11.8399E-03     38.7620E-03    -12.3658E-03     1.00303E-03     474.001E-03    -232.551E-03    -241.244E-03    -232.912E-03     465.669E-03    -232.551E-03     150.613E-03     82.4718E+06     46.4842E+06    -10.6825E+06    -10.6624E+06     46.4640E+06     82.4718E+06     671.989E+03         74.5077
             854     11.8918E-03     32.2213E-03     39.5271E-03    -9.53584E-03    -14.7942E-03    -10.7384E-03     38.5325E-03    -12.5970E-03    -1.15587E-03     470.101E-03    -232.308E-03    -236.927E-03    -231.662E-03     464.835E-03    -232.308E-03     121.563E-03     80.2314E+06     42.5814E+06    -17.3294E+06    -17.3192E+06     42.5711E+06     80.2314E+06     503.784E+03         70.3251
             855     11.0992E-03     32.0486E-03     44.5359E-03    -11.4028E-03    -17.7385E-03    -15.3240E-03     43.4037E-03    -12.6851E-03     6.75126E-03     470.029E-03    -232.118E-03    -236.523E-03    -231.762E-03     465.268E-03    -232.118E-03     115.331E-03     77.1364E+06     39.1764E+06    -24.2545E+06    -24.1722E+06     39.0942E+06     77.1364E+06     18.1589E+03         66.7261
             856     10.3050E-03     31.9043E-03     50.3104E-03    -12.3834E-03    -22.6452E-03    -20.2926E-03     47.9578E-03    -12.3834E-03     510.772E-06     468.649E-03    -232.412E-03    -235.192E-03    -231.440E-03     464.897E-03    -232.412E-03     102.389E-03     69.1427E+06     33.1371E+06    -32.4696E+06    -32.3509E+06     33.0185E+06     69.1427E+06    -739.674E+03         64.0905
             857     9.51390E-03     31.7713E-03     45.3993E-03    -11.6278E-03    -19.2436E-03    -16.4529E-03     42.9573E-03    -11.9765E-03     316.088E-06     467.041E-03    -232.418E-03    -234.249E-03    -230.630E-03     463.985E-03    -232.981E-03     92.2009E-03     58.9727E+06     28.2623E+06    -40.7761E+06    -40.7041E+06     28.1903E+06     58.9727E+06    -1.05959E+06         62.1668
             858     8.72033E-03     31.6534E-03     40.7349E-03    -9.18814E-03    -17.5188E-03    -13.3121E-03     39.1487E-03    -11.8086E-03     1.11642E-03     465.121E-03    -232.145E-03    -233.456E-03    -230.366E-03     462.593E-03    -232.708E-03     83.8044E-03     48.0623E+06     23.2982E+06    -49.3492E+06    -49.2604E+06     23.2095E+06     48.0623E+06    -874.259E+03         60.8186
             859     7.92705E-03     31.5500E-03     38.5733E-03    -5.18435E-03    -19.2289E-03    -10.7857E-03     36.8831E-03    -11.9374E-03     741.563E-06     465.635E-03    -231.904E-03    -233.152E-03    -230.541E-03     463.524E-03    -232.403E-03     76.5437E-03     36.1244E+06     14.6195E+06    -58.1255E+06    -58.0465E+06     14.5405E+06     36.1244E+06    -452.293E+03         59.9796
             860     7.13367E-03     31.4601E-03     34.3516E-03    -3.24427E-03    -15.7754E-03    -4.70915E-03     32.6982E-03    -12.6572E-03     3.51095E-03     465.609E-03    -231.574E-03    -232.942E-03    -229.921E-03     463.955E-03    -232.942E-03     67.6827E-03     23.9358E+06     4.69503E+06    -67.5578E+06    -67.5282E+06     4.66549E+06     23.9358E+06     121.857E+03         59.4434
             861     6.34064E-03     31.3828E-03     43.8135E-03    -8.32819E-03    -19.1228E-03    -8.84109E-03     38.8139E-03    -13.6104E-03     17.4309E-03     464.551E-03    -231.534E-03    -233.135E-03    -231.035E-03     463.319E-03    -232.402E-03     58.3328E-03     7.15952E+06    -31.6398E+06    -78.1769E+06    -78.1313E+06    -31.6854E+06     7.15952E+06     263.521E+03         59.0379
             862     5.54851E-03     31.3224E-03     56.1062E-03    -13.1346E-03    -26.2811E-03    -20.8470E-03     51.0227E-03    -13.4852E-03     12.2297E-03     464.071E-03    -231.857E-03    -233.471E-03    -231.755E-03     463.237E-03    -232.738E-03     47.8705E-03    -14.1805E+06    -77.6778E+06    -89.9562E+06    -88.9215E+06    -78.7124E+06    -14.1805E+06     241.420E+03         58.6856
             863     4.75540E-03     31.2773E-03     56.1391E-03    -11.7501E-03    -28.8664E-03    -26.2988E-03     53.5715E-03    -11.7501E-03     6.18602E-03     463.452E-03    -231.423E-03    -233.394E-03    -230.915E-03     462.944E-03    -233.394E-03     37.2167E-03    -36.7388E+06    -98.4211E+06    -111.124E+06    -99.2798E+06    -110.265E+06    -36.7388E+06     14.6319E+03         58.3782
             864     3.96187E-03     31.2521E-03     53.8502E-03    -9.34366E-03    -31.6327E-03    -21.0324E-03     43.2499E-03    -9.34366E-03    -16.3801E-03     463.937E-03    -231.261E-03    -233.870E-03    -230.987E-03     463.663E-03    -233.870E-03     27.0981E-03    -60.2789E+06    -109.431E+06    -140.466E+06    -109.475E+06    -140.422E+06    -60.2789E+06     110.299E+03         58.1290
             865     3.16973E-03     31.2338E-03     48.8217E-03    -7.53774E-03    -28.6626E-03    -12.5071E-03     32.6662E-03    -7.53774E-03    -5.26278E-03     465.961E-03    -231.805E-03    -233.469E-03    -231.684E-03     465.839E-03    -233.469E-03     17.9161E-03    -83.9822E+06    -119.292E+06    -171.404E+06    -119.301E+06    -171.395E+06    -83.9822E+06     507.204E+03         57.8938
             866     2.37758E-03     31.2278E-03     43.6899E-03    -6.33000E-03    -22.0412E-03    -9.83328E-03     31.4819E-03    -6.33000E-03     5.80042E-03     465.587E-03    -232.224E-03    -233.214E-03    -233.026E-03     465.543E-03    -232.368E-03     10.4878E-03    -106.091E+06    -127.004E+06    -200.322E+06    -127.008E+06    -200.318E+06    -106.091E+06     325.429E+03         57.6335
             867     1.58431E-03     31.2383E-03     42.3211E-03    -5.12133E-03    -17.8932E-03    -6.54877E-03     31.3545E-03    -5.49921E-03     983.662E-06     464.222E-03    -231.879E-03    -232.994E-03    -232.845E-03     464.211E-03    -232.017E-03     5.20455E-03    -123.566E+06    -132.849E+06    -226.326E+06    -132.853E+06    -226.322E+06    -123.566E+06    -42.5531E+03         57.3744
             868     792.184E-06     31.2459E-03     60.7392E-03    -2.28455E-03    -34.3649E-03    -20.7006E-03     34.7269E-03     10.0633E-03     10.7179E-03     463.898E-03    -231.876E-03    -232.395E-03    -232.166E-03     463.896E-03    -232.102E-03     2.47598E-03    -133.722E+06    -136.460E+06    -254.588E+06    -136.236E+06    -254.561E+06    -133.974E+06    -366.207E+03         57.1767
             869     13.4781E-03     31.0716E-03     34.8021E-03    -8.56376E-03    -12.6050E-03    -7.54672E-03     33.5605E-03    -12.3804E-03    -12.6585E-03     474.663E-03    -232.626E-03    -241.834E-03    -233.724E-03     466.553E-03    -232.626E-03     147.861E-03     86.2415E+06     50.6288E+06    -5.09703E+06    -5.05712E+06     50.5889E+06     86.2415E+06     359.807E+03         77.9762
             870     12.6840E-03     30.7983E-03     34.2575E-03    -7.42550E-03    -12.6264E-03    -6.07653E-03     32.9085E-03    -12.6264E-03    -11.2132E-03     474.111E-03    -232.490E-03    -241.362E-03    -232.970E-03     465.719E-03    -232.490E-03     151.142E-03      82.621E+06     46.5425E+06    -10.8331E+06    -10.8073E+06     46.5166E+06      82.621E+06     226.248E+03         74.3683
             871     11.8920E-03     30.6274E-03     38.1205E-03    -9.84267E-03    -13.3676E-03    -9.66967E-03     37.4259E-03    -12.8460E-03    -8.73678E-03     470.223E-03    -232.241E-03    -237.148E-03    -231.903E-03     464.979E-03    -232.241E-03     121.351E-03     80.6429E+06     42.5061E+06    -16.3400E+06    -16.3251E+06     42.4911E+06     80.6429E+06     324.054E+03         70.2117
             872     11.0987E-03     30.4549E-03     41.1623E-03    -10.6361E-03    -15.0004E-03    -11.1922E-03     39.6647E-03    -12.9468E-03     3.66891E-03     470.017E-03    -232.050E-03    -236.875E-03    -232.170E-03     465.311E-03    -232.050E-03     114.694E-03     77.7322E+06     39.3677E+06    -23.1149E+06    -23.0741E+06     39.3269E+06     77.7322E+06     869.687E+03         66.6345
             873     10.3070E-03     30.3099E-03     41.5526E-03    -7.66828E-03    -18.0446E-03    -9.95929E-03     38.9198E-03    -13.1207E-03    -1.23637E-03     468.509E-03    -232.381E-03    -235.353E-03    -231.644E-03     464.801E-03    -232.381E-03     101.810E-03     70.6434E+06     34.8673E+06    -31.1274E+06    -30.9750E+06     34.7148E+06     70.6434E+06     1.00962E+06         64.0105
             874     9.51355E-03     30.1790E-03     43.0172E-03    -9.67038E-03    -18.3055E-03    -12.1886E-03     40.6067E-03    -13.3768E-03    -1.89862E-03     466.527E-03    -232.352E-03    -234.261E-03    -230.554E-03     463.486E-03    -233.018E-03     91.9664E-03     59.3565E+06     29.7037E+06    -40.2947E+06    -40.1516E+06     29.5606E+06     59.3565E+06     31.8911E+03         62.0973
             875     8.72040E-03     30.0601E-03     39.0626E-03    -10.0977E-03    -15.3423E-03    -8.92410E-03     36.3520E-03    -13.8054E-03    -967.930E-06     464.704E-03    -231.958E-03    -233.401E-03    -230.185E-03     462.154E-03    -232.624E-03     84.1495E-03     46.9405E+06     23.1256E+06    -49.6452E+06    -49.5546E+06     23.0349E+06     46.9405E+06    -610.124E+03         60.7659
             876     7.92703E-03     29.9569E-03     35.5095E-03    -6.97657E-03    -15.4804E-03    -5.51461E-03     33.2092E-03    -14.6421E-03    -4.92786E-03     465.513E-03    -231.758E-03    -233.114E-03    -230.406E-03     463.384E-03    -232.337E-03     76.8364E-03     35.0352E+06     13.6672E+06    -59.1442E+06    -59.0316E+06     13.5545E+06     35.0352E+06    -642.565E+03         59.9433
             877     7.13413E-03     29.8657E-03     44.7472E-03    -10.2252E-03    -20.3363E-03    -14.3589E-03     43.7718E-03    -15.2272E-03    -3.22182E-03     465.301E-03    -231.325E-03    -233.034E-03    -229.677E-03     463.653E-03    -233.034E-03     67.5245E-03     22.9130E+06     3.58524E+06    -68.8102E+06    -68.7600E+06     3.53501E+06     22.9130E+06    -321.629E+03         59.4157
             878     6.33989E-03     29.7881E-03     56.6259E-03    -14.1845E-03    -27.3012E-03    -23.5395E-03     53.3848E-03    -14.7051E-03     12.5683E-03     464.258E-03    -231.339E-03    -233.164E-03    -230.810E-03     463.034E-03    -232.468E-03     58.1155E-03     5.42672E+06    -31.6820E+06    -79.0596E+06    -79.0027E+06    -31.7389E+06     5.42672E+06     21.3875E+03         59.0166
             879     5.54718E-03     29.7292E-03     55.2581E-03    -12.8288E-03    -26.5253E-03    -22.1501E-03     51.5440E-03    -13.4897E-03     10.3716E-03     463.897E-03    -231.863E-03    -233.464E-03    -231.721E-03     463.059E-03    -232.769E-03     47.9917E-03    -15.8996E+06    -77.2859E+06    -90.5333E+06    -89.1056E+06    -78.7136E+06    -15.8996E+06    -219.705E+03         58.6735
             880     4.75497E-03     29.6864E-03     46.5663E-03    -8.63738E-03    -22.8882E-03    -15.9229E-03     43.5675E-03    -12.6039E-03     3.51139E-03     463.307E-03    -231.555E-03    -233.430E-03    -231.045E-03     462.797E-03    -233.430E-03     37.2764E-03    -37.1267E+06    -98.6390E+06    -111.308E+06    -99.1888E+06    -110.758E+06    -37.1267E+06     188.751E+03         58.3770
             881     3.96282E-03     29.6588E-03     47.1072E-03    -8.97679E-03    -25.4933E-03    -13.4283E-03     38.3478E-03    -12.2824E-03    -11.3529E-03     464.012E-03    -231.379E-03    -234.006E-03    -231.107E-03     463.739E-03    -234.006E-03     27.0605E-03    -59.9829E+06    -109.600E+06    -140.239E+06    -109.618E+06    -140.221E+06    -59.9829E+06     531.749E+03         58.1392
             882     3.16920E-03     29.6419E-03     55.0893E-03    -11.8964E-03    -30.9629E-03    -14.6716E-03     38.7979E-03    -11.8964E-03     11.5598E-03     466.247E-03    -231.799E-03    -233.683E-03    -231.679E-03     466.126E-03    -233.683E-03     17.7861E-03    -82.9686E+06    -119.020E+06    -170.654E+06    -119.025E+06    -170.649E+06    -82.9686E+06     216.861E+03         57.9112
             883     2.37596E-03     29.6387E-03     51.1731E-03    -8.03624E-03    -29.0303E-03    -12.7176E-03     38.1820E-03    -11.3579E-03     26.3678E-03     465.963E-03    -232.223E-03    -233.495E-03    -233.227E-03     465.922E-03    -232.449E-03     10.2154E-03    -104.533E+06    -127.195E+06    -200.170E+06    -127.199E+06    -200.166E+06    -104.533E+06     373.439E+03         57.6520
             884     1.58399E-03     29.6407E-03     55.6907E-03    -6.17572E-03    -33.2193E-03    -15.9851E-03     41.7782E-03    -9.49742E-03     31.9635E-03     464.352E-03    -231.897E-03    -233.128E-03    -233.064E-03     464.342E-03    -231.951E-03     4.74064E-03    -124.072E+06    -133.110E+06    -224.817E+06    -133.117E+06    -224.810E+06    -124.072E+06     120.076E+03         57.3933
             885     792.353E-06     29.6463E-03     93.9629E-03     15.0921E-03    -89.0582E-03    -71.8692E-03     35.6884E-03     56.1776E-03     4.94205E-03     463.776E-03    -231.773E-03    -232.179E-03    -232.123E-03     463.773E-03    -231.827E-03     2.25838E-03    -135.528E+06    -136.910E+06    -255.629E+06    -136.805E+06    -255.596E+06    -135.667E+06    -360.402E+03         57.2012
             886     13.4773E-03     29.4758E-03     38.8893E-03    -10.2521E-03    -14.6241E-03    -11.4328E-03     37.8487E-03    -12.4027E-03    -3.67178E-03     475.217E-03    -232.559E-03    -242.147E-03    -234.012E-03     467.083E-03    -232.559E-03     148.335E-03     86.3948E+06     50.6610E+06    -5.28561E+06    -5.25223E+06     50.6276E+06     86.3948E+06    -130.455E+03         77.8219
             887     12.6849E-03     29.2032E-03     39.4939E-03    -9.94238E-03    -15.7888E-03    -12.3899E-03     38.6831E-03    -12.5304E-03    -409.682E-06     474.616E-03    -232.470E-03    -241.787E-03    -233.460E-03     466.288E-03    -232.470E-03     150.570E-03     83.0863E+06     46.5483E+06    -10.3435E+06    -10.3326E+06     46.5374E+06     83.0863E+06    -146.822E+03         74.2290
             888     11.8923E-03     29.0336E-03     37.9015E-03    -9.29641E-03    -13.9499E-03    -10.0111E-03     37.3548E-03    -12.6885E-03     4.00548E-03     470.565E-03    -232.084E-03    -237.528E-03    -232.380E-03     465.417E-03    -232.084E-03     120.307E-03     80.4366E+06     42.1411E+06    -16.5141E+06    -16.4987E+06     42.1257E+06     80.4366E+06     179.190E+03         70.0995
             889     11.1006E-03     28.8604E-03     34.6664E-03    -5.60516E-03    -13.1556E-03    -4.45273E-03     33.5140E-03    -13.1556E-03     7.59468E-03     469.871E-03    -231.819E-03    -236.843E-03    -232.206E-03     465.235E-03    -231.819E-03     113.865E-03     77.4628E+06     38.5121E+06    -23.6316E+06    -23.5814E+06     38.4619E+06     77.4628E+06     856.630E+03         66.5443
             890     10.3067E-03     28.7147E-03     33.1712E-03    -2.83510E-03    -14.0421E-03    -1.77279E-03     32.1089E-03    -14.0421E-03     9.22828E-03     468.074E-03    -232.403E-03    -235.039E-03    -231.353E-03     464.387E-03    -232.403E-03     101.453E-03     71.2161E+06     34.9201E+06    -31.0396E+06    -30.9140E+06     34.7945E+06     71.2161E+06     1.59027E+06         63.9287
             891     9.51431E-03     28.5838E-03     36.3211E-03    -5.35047E-03    -15.0637E-03    -4.77054E-03     35.7412E-03    -15.0637E-03     5.35638E-03     466.577E-03    -232.651E-03    -234.242E-03    -230.602E-03     463.526E-03    -233.240E-03     92.1165E-03     60.8239E+06     30.6565E+06    -38.9053E+06    -38.6874E+06     30.4386E+06     60.8239E+06     1.70760E+06         62.0232
             892     8.72096E-03     28.4677E-03     45.2089E-03    -10.9581E-03    -20.1089E-03    -13.0777E-03     42.9381E-03    -15.7185E-03    -10.8514E-03     464.753E-03    -232.109E-03    -233.469E-03    -230.312E-03     462.186E-03    -232.698E-03     84.4342E-03     49.0114E+06     24.1517E+06    -48.0959E+06    -47.9391E+06     23.9949E+06     49.0114E+06     1.23325E+06         60.7043
             893     7.92723E-03     28.3684E-03     53.7008E-03    -14.5869E-03    -26.1922E-03    -22.9735E-03     51.3946E-03    -15.4994E-03    -7.47691E-03     465.180E-03    -231.720E-03    -232.949E-03    -230.375E-03     463.064E-03    -232.179E-03     76.5464E-03     35.9259E+06     14.8764E+06    -57.9618E+06    -57.8605E+06     14.7751E+06     35.9259E+06     476.813E+03         59.8923
             894     7.13374E-03     28.2766E-03     54.0163E-03    -14.4577E-03    -26.1425E-03    -25.4500E-03     53.3237E-03    -14.4577E-03    -1.44201E-03     465.273E-03    -231.426E-03    -232.915E-03    -229.820E-03     463.667E-03    -232.915E-03     66.6253E-03     21.7080E+06     3.71293E+06    -68.4452E+06    -68.3477E+06     3.61541E+06     21.7080E+06    -244.501E+03         59.3673
             895     6.34118E-03     28.1998E-03     47.7146E-03    -12.1961E-03    -21.6616E-03    -18.3676E-03     45.6908E-03    -13.4664E-03     5.44533E-03     464.426E-03    -231.443E-03    -233.005E-03    -230.796E-03     463.248E-03    -232.474E-03     57.0357E-03     4.80603E+06    -31.4755E+06    -78.7378E+06    -78.6798E+06    -31.5336E+06     4.80603E+06     -477.78E+03         58.9690
             896     5.54772E-03     28.1374E-03     39.7231E-03    -8.77073E-03    -16.2998E-03    -8.64174E-03     36.7813E-03    -13.4870E-03     3.00276E-03     463.561E-03    -231.691E-03    -233.199E-03    -231.424E-03     462.763E-03    -232.668E-03     46.7671E-03    -15.7552E+06    -78.0782E+06    -90.9844E+06    -89.3592E+06    -79.7035E+06    -15.7552E+06    -42.5741E+03         58.6315
             897     4.75390E-03     28.0904E-03     36.0480E-03    -6.53426E-03    -14.7759E-03    -3.75314E-03     33.2669E-03    -14.7759E-03    -10.3760E-03     462.790E-03    -231.454E-03    -233.306E-03    -230.976E-03     462.312E-03    -233.306E-03     36.0365E-03    -37.2250E+06    -99.9712E+06    -111.650E+06    -100.012E+06    -111.609E+06    -37.2250E+06     48.4094E+03         58.3458
             898     3.96117E-03     28.0650E-03     42.0406E-03    -10.9907E-03    -17.2992E-03    -8.74541E-03     38.9892E-03    -16.4931E-03    -13.8914E-03     464.056E-03    -231.371E-03    -233.982E-03    -231.114E-03     463.799E-03    -233.982E-03     26.3182E-03    -60.0669E+06    -109.770E+06    -139.538E+06    -109.786E+06    -139.522E+06    -60.0669E+06    -65.6122E+03         58.1243
             899     3.16934E-03     28.0496E-03     57.0020E-03    -16.5711E-03    -25.7762E-03    -17.2617E-03     49.1943E-03    -17.2778E-03     4.13446E-03     466.621E-03    -231.875E-03    -233.784E-03    -231.762E-03     466.507E-03    -233.784E-03     17.1299E-03    -83.3087E+06    -118.893E+06    -170.567E+06    -118.903E+06    -170.557E+06    -83.3087E+06     144.115E+03         57.9092
             900     2.37751E-03     28.0460E-03     61.2176E-03    -14.0824E-03    -32.3423E-03    -16.7161E-03     48.9131E-03    -17.4041E-03    -2.51495E-03     466.303E-03    -232.254E-03    -233.587E-03    -233.380E-03     466.267E-03    -232.426E-03     9.54249E-03    -105.152E+06    -126.340E+06    -199.861E+06    -126.347E+06    -199.854E+06    -105.152E+06     52.6058E+03         57.6556
             901     1.58543E-03     28.0469E-03     68.7662E-03    -14.3500E-03    -41.5288E-03    -17.1465E-03     47.7056E-03    -17.6717E-03     33.8363E-03     464.228E-03    -231.669E-03    -232.938E-03    -232.821E-03     464.219E-03    -231.776E-03     4.43134E-03    -122.785E+06    -131.668E+06    -224.643E+06    -131.676E+06    -224.635E+06    -122.785E+06    -289.081E+03         57.4024
             902     792.053E-06     28.0555E-03     129.369E-03     33.0575E-03    -146.985E-03    -115.556E-03     51.0419E-03     79.9563E-03    -44.0278E-03     463.304E-03    -231.467E-03    -232.007E-03    -231.524E-03     463.302E-03    -231.947E-03     2.35190E-03    -132.675E+06    -135.442E+06     -254.75E+06    -135.032E+06    -254.734E+06    -133.100E+06     529.403E+03         57.2188
             903     13.4781E-03     27.8832E-03     38.6035E-03    -9.96834E-03    -15.2209E-03    -11.7036E-03     38.3419E-03    -13.2240E-03     3.99128E-03     475.867E-03    -232.410E-03    -242.483E-03    -234.429E-03     467.813E-03    -232.410E-03     147.924E-03     85.8994E+06     50.9718E+06    -5.07169E+06    -5.04146E+06     50.9416E+06     85.8994E+06    -61.3779E+03         77.6684
             904     12.6855E-03     27.6103E-03     39.8109E-03    -9.27960E-03    -16.7106E-03    -12.3070E-03     39.5800E-03    -13.4523E-03     2.55546E-03     474.942E-03    -232.453E-03    -241.993E-03    -233.784E-03     466.733E-03    -232.453E-03     149.663E-03     82.4104E+06     45.8438E+06    -10.8317E+06    -10.8221E+06     45.8341E+06     82.4104E+06    -112.960E+03         74.0858
             905     11.8933E-03     27.4399E-03     37.4103E-03    -7.67811E-03    -15.1391E-03    -7.86248E-03     36.3332E-03    -13.8777E-03     9.03900E-03     470.708E-03    -231.984E-03    -237.387E-03    -232.296E-03     465.617E-03    -231.984E-03     119.638E-03     79.7138E+06     41.7712E+06    -17.7424E+06    -17.7261E+06     41.7550E+06     79.7138E+06     138.626E+03         69.9775
             906     11.1008E-03     27.2675E-03     39.0695E-03    -8.04483E-03    -15.8244E-03    -8.05768E-03     37.7611E-03    -14.5031E-03     14.5846E-03     469.712E-03    -231.489E-03    -236.450E-03    -231.905E-03     465.168E-03    -231.489E-03     112.676E-03     77.0171E+06     38.1855E+06    -24.3372E+06    -24.2433E+06     38.0917E+06     77.0171E+06     137.610E+03         66.4472
             907     10.3079E-03     27.1234E-03     42.1753E-03    -9.25769E-03    -17.5903E-03    -10.8520E-03     41.1915E-03    -15.0122E-03     5.07732E-03     467.462E-03    -232.109E-03    -234.776E-03    -231.194E-03     463.880E-03    -232.109E-03     99.9397E-03     70.4582E+06     32.9411E+06    -31.4207E+06    -31.2732E+06     32.7936E+06     70.4582E+06     671.131E+03         63.8504
             908     9.51376E-03     26.9915E-03     42.5390E-03    -9.33148E-03    -17.8997E-03    -11.1532E-03     41.7994E-03    -15.3383E-03    -4.70932E-03     466.550E-03    -232.744E-03    -234.280E-03    -230.842E-03     463.571E-03    -233.203E-03     91.0588E-03     60.4269E+06     29.7118E+06    -39.2156E+06    -39.0236E+06     29.5197E+06     60.4269E+06     1.56695E+06         61.9566
             909     8.72102E-03     26.8754E-03     47.0340E-03    -11.0441E-03    -21.0666E-03    -16.2224E-03     46.5174E-03    -15.3717E-03    -10.7756E-03     464.837E-03    -232.286E-03    -233.600E-03    -230.666E-03     462.362E-03    -232.745E-03     82.8649E-03     50.1280E+06     25.1014E+06    -47.2299E+06    -47.0030E+06     24.8744E+06     50.1280E+06     1.97423E+06         60.6412
             910     7.92757E-03     26.7743E-03     51.0660E-03    -12.3049E-03    -24.7557E-03    -21.6816E-03     50.5882E-03    -14.9013E-03    -2.48635E-03     464.653E-03    -231.812E-03    -232.865E-03    -230.706E-03     462.672E-03    -231.989E-03     74.0409E-03     38.6667E+06     16.8106E+06    -56.3187E+06    -56.1784E+06     16.6703E+06     38.6667E+06     1.92813E+06         59.8233
             911     7.13527E-03     26.6845E-03     46.1588E-03    -11.4589E-03    -20.9617E-03    -17.7710E-03     45.8951E-03    -14.3860E-03     1.38036E-03     465.374E-03    -231.548E-03    -232.613E-03    -230.074E-03     463.881E-03    -232.593E-03     64.2560E-03     24.5232E+06     5.70595E+06    -66.8184E+06    -66.6974E+06     5.58498E+06     24.5232E+06     1.31819E+06         59.2865
             912     6.34188E-03     26.6078E-03     40.3376E-03    -11.5847E-03    -15.5980E-03    -11.5704E-03     39.2117E-03    -14.4863E-03     6.76549E-03     464.835E-03    -231.402E-03    -232.671E-03    -230.708E-03     463.740E-03    -232.270E-03     55.0066E-03     6.36785E+06    -31.0336E+06    -78.1692E+06    -78.0771E+06    -31.1257E+06     6.36785E+06     829.246E+03         58.8800
             913     5.54907E-03     26.5450E-03     39.7283E-03    -10.8522E-03    -15.4195E-03    -9.35137E-03     38.0131E-03    -15.2051E-03     7.01989E-03     463.293E-03    -231.608E-03    -232.712E-03    -231.269E-03     462.553E-03    -232.311E-03     44.9773E-03    -14.5345E+06    -78.0401E+06    -90.4345E+06    -89.2101E+06    -79.2644E+06    -14.5345E+06     192.031E+03         58.5398
             914     4.75558E-03     26.4996E-03     45.4564E-03    -11.5474E-03    -20.0682E-03    -14.2350E-03     43.8983E-03    -15.8225E-03    -2.93522E-03     462.126E-03    -231.283E-03    -232.851E-03    -230.861E-03     461.704E-03    -232.851E-03     33.7034E-03    -37.3985E+06    -99.7657E+06    -111.093E+06    -99.7957E+06    -111.063E+06    -37.3985E+06    -459.991E+03         58.2561
             915     3.96277E-03     26.4723E-03     51.5087E-03    -13.3484E-03    -23.7959E-03    -19.6453E-03     49.5549E-03    -15.5452E-03    -10.0665E-03     463.283E-03    -230.898E-03    -233.540E-03    -230.686E-03     463.071E-03    -233.540E-03     23.8774E-03    -60.9296E+06    -109.860E+06    -139.601E+06    -109.874E+06    -139.587E+06    -60.9296E+06    -604.010E+03         58.0390
             916     3.16992E-03     26.4535E-03     49.6899E-03    -13.9959E-03    -20.8560E-03    -17.8790E-03     47.4197E-03    -14.7027E-03    -9.12229E-03     465.769E-03    -231.357E-03    -233.562E-03    -231.261E-03     465.672E-03    -233.562E-03     15.9344E-03    -84.0443E+06    -118.860E+06    -170.794E+06    -118.882E+06    -170.772E+06    -84.0443E+06    -580.822E+03         57.8290
             917     2.37754E-03     26.4480E-03     52.9475E-03    -13.6836E-03    -24.4701E-03    -17.2697E-03     45.7471E-03    -13.6836E-03    -19.7123E-03     465.848E-03    -232.010E-03    -233.301E-03    -232.838E-03     465.814E-03    -232.439E-03     9.16984E-03    -106.028E+06    -126.509E+06    -199.370E+06    -126.531E+06    -199.347E+06    -106.028E+06    -716.771E+03         57.5915
             918     1.58447E-03     26.4578E-03     56.2590E-03    -12.4518E-03    -31.5693E-03    -15.0190E-03     39.7087E-03    -12.4518E-03     15.4935E-03     464.368E-03    -231.680E-03    -232.637E-03    -232.533E-03     464.359E-03    -231.775E-03     4.62229E-03    -122.685E+06    -131.966E+06    -226.630E+06    -131.971E+06    -226.624E+06    -122.685E+06    -397.774E+03         57.3659
             919     792.639E-06     26.4607E-03     148.728E-03     24.3393E-03    -161.011E-03    -139.920E-03     35.8379E-03     116.139E-03    -38.6615E-03     463.380E-03    -231.451E-03    -232.046E-03    -231.449E-03     463.377E-03    -232.046E-03     2.44344E-03    -131.595E+06    -135.723E+06    -253.820E+06    -135.300E+06    -253.818E+06    -132.020E+06     10.8714E+03         57.2082
             920     13.4797E-03     26.2824E-03     36.3128E-03    -8.64559E-03    -14.1064E-03    -8.45024E-03     35.9369E-03    -13.9258E-03     3.04120E-03     476.528E-03    -232.290E-03    -243.334E-03    -235.392E-03     468.586E-03    -232.290E-03     147.319E-03     86.1319E+06     50.5172E+06    -4.33075E+06    -4.30053E+06     50.4870E+06     86.1319E+06     139.650E+03         77.5270
             921     12.6877E-03     26.0164E-03     33.7518E-03    -5.70942E-03    -14.4532E-03    -5.40405E-03     33.4465E-03    -14.4532E-03    -4.42883E-03     474.835E-03    -232.312E-03    -242.090E-03    -234.056E-03     466.802E-03    -232.312E-03     148.166E-03     81.9879E+06     45.4550E+06    -10.9967E+06    -10.9487E+06     45.4070E+06     81.9879E+06     590.000E+03         73.9529
             922     11.8939E-03     25.8443E-03     39.0202E-03    -9.14176E-03    -16.3832E-03    -9.64451E-03     38.1142E-03    -14.9745E-03     3.01052E-03     470.721E-03    -232.042E-03    -237.288E-03    -232.354E-03     465.787E-03    -232.042E-03     117.782E-03     79.6741E+06     42.3646E+06    -17.3494E+06    -17.2910E+06     42.3063E+06     79.6741E+06     554.025E+03         69.8623
             923     11.1020E-03     25.6755E-03     45.8260E-03    -13.8714E-03    -18.6610E-03    -16.4926E-03     44.8761E-03    -15.0898E-03     6.39851E-03     469.876E-03    -231.320E-03    -236.644E-03    -232.382E-03     465.614E-03    -231.320E-03     109.067E-03     76.8450E+06     38.0201E+06    -24.3210E+06    -24.2051E+06     37.9042E+06     76.8450E+06     114.277E+03         66.3586
             924     10.3090E-03     25.5276E-03     48.1949E-03    -14.7995E-03    -19.8381E-03    -19.2370E-03     47.5938E-03    -14.7995E-03    -3.72450E-03     467.618E-03    -231.710E-03    -235.251E-03    -231.971E-03     464.338E-03    -231.710E-03     95.6339E-03     69.8882E+06     31.9714E+06    -32.1054E+06    -31.8462E+06     31.7122E+06     69.8882E+06    -166.764E+03         63.7830
             925     9.51715E-03     25.3989E-03     48.2113E-03    -14.3625E-03    -19.3365E-03    -18.8656E-03     47.7404E-03    -14.3625E-03    -6.45621E-03     466.383E-03    -232.484E-03    -234.372E-03    -231.429E-03     463.670E-03    -232.714E-03     86.8831E-03     60.2177E+06     28.6653E+06    -39.6560E+06    -39.4134E+06     28.4227E+06     60.2177E+06     251.551E+03         61.8891
             926     8.72418E-03     25.2801E-03     42.4076E-03    -11.1016E-03    -16.2822E-03    -12.8110E-03     42.0191E-03    -14.1844E-03    -3.20608E-03     464.006E-03    -232.128E-03    -233.343E-03    -230.888E-03     461.781E-03    -232.357E-03     78.4875E-03     49.7932E+06     24.6346E+06    -48.0082E+06    -47.8046E+06     24.4310E+06     49.7932E+06     1.18169E+06         60.5552
             927     7.93178E-03     25.1793E-03     36.7379E-03    -6.58790E-03    -14.6524E-03    -6.32443E-03     36.4744E-03    -14.6524E-03     2.16611E-03     463.830E-03    -231.772E-03    -232.581E-03    -230.782E-03     462.062E-03    -231.802E-03     69.9296E-03     40.0495E+06     16.8600E+06    -56.7332E+06    -56.5285E+06     16.6554E+06     40.0495E+06     1.82621E+06         59.7101
             928     7.13845E-03     25.0909E-03     38.6161E-03    -8.10364E-03    -15.5866E-03    -6.72254E-03     37.2350E-03    -15.5866E-03    -6.99683E-03     465.135E-03    -231.412E-03    -232.223E-03    -230.089E-03     463.792E-03    -232.203E-03     60.8831E-03     27.8141E+06     6.74543E+06    -66.2719E+06    -66.1273E+06     6.60085E+06     27.8141E+06     2.31614E+06         59.1519
             929     6.34551E-03     25.0113E-03     43.4008E-03    -13.3191E-03    -16.4337E-03    -11.3686E-03     41.4503E-03    -16.4337E-03    -1.51161E-03     464.717E-03    -231.057E-03    -232.351E-03    -230.630E-03     463.755E-03    -231.817E-03     51.4518E-03     8.63498E+06    -28.4268E+06    -76.6725E+06    -76.5818E+06    -28.5175E+06     8.63498E+06     1.63412E+06         58.7371
             930     5.55197E-03     24.9488E-03     49.9813E-03    -15.9495E-03    -20.7702E-03    -19.4818E-03     49.3062E-03    -16.5628E-03     8.82765E-03     462.638E-03    -231.131E-03    -232.200E-03    -231.027E-03     462.001E-03    -231.666E-03     41.6644E-03    -13.3811E+06    -75.3327E+06    -89.4240E+06    -87.2017E+06    -77.5549E+06    -13.3811E+06     602.046E+03         58.3869
             931     4.75910E-03     24.9048E-03     54.7410E-03    -15.7046E-03    -25.2757E-03    -23.3858E-03     52.8511E-03    -15.7046E-03    -2.98034E-03     460.957E-03    -230.658E-03    -232.037E-03    -230.296E-03     460.594E-03    -232.037E-03     31.1829E-03    -35.5673E+06    -98.0083E+06    -110.109E+06    -98.0640E+06    -110.053E+06    -35.5673E+06     202.095E+03         58.0878
             932     3.96594E-03     24.8744E-03     49.5119E-03    -10.1534E-03    -24.3310E-03    -17.8166E-03     47.5920E-03    -14.7479E-03    -5.97236E-03     461.419E-03    -230.042E-03    -232.794E-03    -229.860E-03     461.236E-03    -232.794E-03     22.1093E-03    -59.6973E+06    -108.761E+06    -139.148E+06    -108.777E+06    -139.132E+06    -59.6973E+06    -62.9465E+03         57.8531
             933     3.17238E-03     24.8589E-03     43.1160E-03    -7.25529E-03    -19.7879E-03    -11.1685E-03     42.1750E-03    -14.9337E-03     6.33790E-03     463.735E-03    -230.275E-03    -233.079E-03    -230.193E-03     463.654E-03    -233.079E-03     14.5762E-03    -83.7301E+06    -118.694E+06    -171.105E+06    -118.711E+06    -171.089E+06    -83.7301E+06    -672.165E+03         57.6359
             934     2.37851E-03     24.8528E-03     46.2305E-03    -12.4014E-03    -18.2691E-03    -12.3971E-03     43.9847E-03    -16.0276E-03     20.0981E-03     464.887E-03    -231.230E-03    -232.991E-03    -232.070E-03     464.862E-03    -232.126E-03     7.57435E-03    -104.884E+06    -126.537E+06    -200.033E+06    -126.554E+06    -200.016E+06    -104.884E+06    -767.822E+03         57.4243
             935     1.58562E-03     24.8576E-03     50.7689E-03    -15.0596E-03    -23.4725E-03    -18.1193E-03     46.4404E-03    -16.0844E-03     18.5554E-03     463.792E-03    -231.210E-03    -232.304E-03    -232.258E-03     463.788E-03    -231.251E-03     3.15008E-03    -123.091E+06    -133.031E+06    -226.952E+06    -133.035E+06    -226.948E+06    -123.091E+06    -154.455E+03         57.2488
             936     791.978E-06     24.8650E-03     176.942E-03     14.1117E-03    -180.125E-03    -174.574E-03     41.9401E-03     143.563E-03     14.0282E-03     462.057E-03    -230.837E-03    -231.467E-03    -231.024E-03     462.056E-03    -231.278E-03     1.30591E-03    -133.123E+06    -139.076E+06    -255.567E+06    -136.861E+06    -255.556E+06    -135.349E+06    -592.038E+03         57.1368
             937     13.4803E-03     24.6837E-03     34.7849E-03    -6.86912E-03    -14.3708E-03    -5.90422E-03     33.6394E-03    -14.1903E-03    -4.45112E-03     477.840E-03    -232.162E-03    -244.805E-03    -236.860E-03     469.894E-03    -232.162E-03     148.143E-03     86.2015E+06     50.8418E+06    -4.85863E+06    -4.82466E+06     50.8079E+06     86.2015E+06    -277.236E+03         77.4222
             938     12.6887E-03     24.4213E-03     39.3995E-03    -8.85916E-03    -17.3132E-03    -11.0699E-03     38.8089E-03    -14.5119E-03    -5.94010E-03     476.333E-03    -232.030E-03    -243.779E-03    -235.991E-03     468.544E-03    -232.030E-03     146.045E-03     82.0536E+06     45.6870E+06    -10.5679E+06    -10.4982E+06     45.6173E+06     82.0536E+06     896.374E+03         73.8649
             939     11.8976E-03     24.2504E-03     44.2763E-03    -12.6237E-03    -19.3498E-03    -17.2734E-03     44.0008E-03    -14.4245E-03     176.943E-06     471.183E-03    -231.932E-03    -238.838E-03    -234.239E-03     466.583E-03    -231.932E-03     113.874E-03     79.5043E+06     41.6019E+06    -17.0542E+06    -16.9698E+06     41.5176E+06     79.5043E+06     1.41902E+06         69.7981
             940     11.1058E-03     24.0794E-03     41.9843E-03    -13.0038E-03    -17.1081E-03    -15.5314E-03     41.5467E-03    -14.1430E-03    -104.798E-06     470.134E-03    -231.042E-03    -237.803E-03    -233.966E-03     466.296E-03    -231.042E-03     103.555E-03     76.6759E+06     37.3879E+06    -24.0942E+06    -23.9434E+06     37.2372E+06     76.6759E+06     257.624E+03         66.3116
             941     10.3160E-03     23.9354E-03     39.3481E-03    -10.5010E-03    -16.5279E-03    -12.4018E-03     38.7884E-03    -14.0675E-03     2.83708E-03     468.414E-03    -231.035E-03    -235.699E-03    -232.826E-03     465.541E-03    -231.035E-03     89.5872E-03     69.9567E+06     32.6171E+06    -31.6116E+06    -31.2298E+06     32.2353E+06     69.9567E+06     382.600E+03         63.7371
             942     9.52343E-03     23.8091E-03     40.0605E-03    -9.87503E-03    -16.6326E-03    -12.0606E-03     39.8334E-03    -14.2200E-03     4.53595E-03     465.857E-03    -231.829E-03    -234.305E-03    -231.974E-03     463.526E-03    -231.829E-03     80.5006E-03     59.7719E+06     28.8213E+06    -40.5478E+06    -40.1252E+06     28.3987E+06     59.7719E+06     172.877E+03         61.8224
             943     8.73185E-03     23.6922E-03     41.9448E-03    -10.5108E-03    -16.3488E-03    -11.4811E-03     41.0746E-03    -14.5082E-03    -3.88909E-03     462.103E-03    -231.770E-03    -233.032E-03    -231.148E-03     460.220E-03    -231.770E-03     72.0576E-03     49.0469E+06     23.8021E+06    -48.8578E+06    -48.6332E+06     23.5775E+06     49.0469E+06    -38.9125E+03         60.4483
             944     7.93845E-03     23.5890E-03     40.5096E-03    -8.72249E-03    -16.0616E-03    -8.75632E-03     39.4962E-03    -15.0143E-03    -1.36665E-03     462.006E-03    -231.271E-03    -231.834E-03    -230.285E-03     460.518E-03    -231.333E-03     63.9732E-03     38.4237E+06     15.8067E+06    -57.6116E+06    -57.4126E+06     15.6078E+06     38.4237E+06     440.434E+03         59.5612
             945     7.14501E-03     23.5000E-03     43.7229E-03    -10.1999E-03    -18.0104E-03    -11.0278E-03     42.1199E-03    -15.5795E-03    -2.28491E-03     463.463E-03    -230.773E-03    -231.175E-03    -229.643E-03     462.332E-03    -231.175E-03     55.7277E-03     27.1360E+06     6.45155E+06    -66.4688E+06     -66.328E+06     6.31079E+06     27.1360E+06     744.873E+03         58.9776
             946     6.35216E-03     23.4236E-03     50.1257E-03    -14.0798E-03    -21.7299E-03    -18.7636E-03     48.6427E-03    -15.5631E-03    -5.62962E-03     462.664E-03    -230.385E-03    -231.423E-03    -230.290E-03     461.872E-03    -230.726E-03     46.5450E-03     10.1190E+06    -27.0021E+06    -75.7519E+06    -75.7118E+06    -27.0422E+06     10.1190E+06     1.04049E+06         58.5457
             947     5.55930E-03     23.3629E-03     49.3783E-03    -13.2773E-03    -22.5746E-03    -20.5687E-03     48.9408E-03    -14.8457E-03     3.56182E-03     460.283E-03    -229.813E-03    -231.153E-03    -229.998E-03     459.771E-03    -230.456E-03     37.2655E-03    -11.5439E+06    -73.3066E+06    -88.7121E+06    -86.4227E+06     -75.596E+06    -11.5439E+06     1.38848E+06         58.1653
             948     4.76443E-03     23.3201E-03     47.1349E-03    -13.1347E-03    -20.1491E-03    -14.0003E-03     42.2388E-03    -14.3875E-03    -17.9103E-03     458.715E-03    -229.112E-03    -230.701E-03    -228.821E-03     458.424E-03    -230.701E-03     27.7640E-03    -33.9789E+06    -96.4758E+06    -109.820E+06    -96.9970E+06    -109.298E+06    -33.9789E+06     1.08618E+06         57.8251
             949     3.96998E-03     23.2882E-03     44.6620E-03    -10.3823E-03    -18.9681E-03    -9.10751E-03     39.3960E-03    -14.9767E-03    -13.3640E-03     459.109E-03    -229.016E-03    -231.691E-03    -228.878E-03     458.972E-03    -231.691E-03     18.8449E-03    -57.7139E+06    -107.546E+06    -138.019E+06    -107.568E+06    -137.997E+06    -57.7139E+06     529.598E+03         57.5547
             950     3.17523E-03     23.2720E-03     51.1089E-03    -8.43738E-03    -25.5797E-03    -11.5826E-03     44.7902E-03    -16.1158E-03    -12.3582E-03     461.276E-03    -229.363E-03    -232.051E-03    -229.308E-03     461.221E-03    -232.051E-03     11.3963E-03    -81.8674E+06    -117.315E+06    -170.130E+06    -117.329E+06    -170.116E+06    -81.8674E+06     485.025E+03         57.3303
             951     2.38124E-03     23.2654E-03     52.5962E-03    -12.2658E-03    -24.7790E-03    -12.3276E-03     45.4167E-03    -17.5378E-03    -7.34095E-03     462.789E-03    -229.970E-03    -231.985E-03    -231.012E-03     462.775E-03    -230.929E-03     5.31477E-03    -104.549E+06    -125.530E+06    -200.446E+06    -125.534E+06    -200.443E+06    -104.549E+06     94.9538E+03         57.1454
             952     1.58745E-03     23.2701E-03     51.6259E-03    -18.1424E-03    -21.2502E-03    -11.2276E-03     44.2738E-03    -20.8130E-03    -9.18419E-03     461.325E-03    -229.876E-03    -231.149E-03    -231.119E-03     461.323E-03    -229.904E-03     1.77598E-03    -122.257E+06    -131.411E+06    -226.990E+06    -131.415E+06    -226.986E+06    -122.257E+06    -180.562E+03         57.0114
             953     795.014E-06     23.2778E-03     190.053E-03     27.1027E-03    -206.186E-03    -195.962E-03     57.2191E-03     149.713E-03     37.1169E-03     459.379E-03    -229.314E-03    -230.448E-03    -229.502E-03     459.378E-03    -230.260E-03     923.955E-06    -131.175E+06    -137.716E+06    -257.151E+06    -135.509E+06    -257.133E+06    -133.401E+06    -158.652E+03         56.9307
             954     13.4785E-03     23.0852E-03     41.6414E-03    -9.25210E-03    -18.9064E-03    -13.5319E-03     40.8177E-03    -13.8029E-03    -7.06547E-03     480.725E-03    -231.895E-03    -247.511E-03    -239.845E-03     473.059E-03    -231.895E-03     146.812E-03     84.9368E+06     50.2697E+06    -4.76872E+06    -4.66428E+06     50.1653E+06     84.9368E+06     758.834E+03         77.3936
             955     12.6917E-03     22.8188E-03     44.5704E-03    -11.9981E-03    -19.2472E-03    -17.2821E-03     44.1509E-03    -13.5437E-03    -3.19925E-03     478.575E-03    -231.619E-03    -246.312E-03    -239.150E-03     471.413E-03    -231.619E-03     140.385E-03     80.5300E+06     44.8218E+06    -11.7496E+06    -11.6088E+06     44.6810E+06     80.5300E+06     81.8250E+03         73.8616
             956     11.9046E-03     22.6506E-03     41.2083E-03    -11.1487E-03    -16.7729E-03    -14.0358E-03     40.5789E-03    -13.2564E-03    -4.55790E-03     472.539E-03    -231.497E-03    -241.242E-03    -237.100E-03     468.397E-03    -231.497E-03     108.364E-03     79.7870E+06     41.2965E+06    -17.1361E+06    -17.0676E+06     41.2280E+06     79.7870E+06     219.269E+03         69.8096
             957     11.1166E-03     22.4847E-03     36.3629E-03    -9.66761E-03    -14.0097E-03    -9.43045E-03     35.4104E-03    -13.2944E-03     19.6493E-06     470.765E-03    -230.500E-03    -239.325E-03    -235.918E-03     467.359E-03    -230.500E-03     97.6885E-03     77.8555E+06     37.7180E+06    -23.4680E+06    -23.2987E+06     37.5487E+06     77.8555E+06     841.556E+03         66.3201
             958     10.3253E-03     22.3414E-03     35.4336E-03    -9.02232E-03    -13.5995E-03    -8.22861E-03     34.6399E-03    -13.5995E-03     4.35483E-03     468.410E-03    -230.129E-03    -236.211E-03    -233.719E-03     465.917E-03    -230.129E-03     83.4614E-03     70.7658E+06     33.7153E+06    -31.8678E+06    -31.4533E+06     33.3008E+06     70.7658E+06     624.508E+03         63.7269
             959     9.53509E-03     22.2158E-03     35.2860E-03    -7.52333E-03    -14.0443E-03    -7.00186E-03     34.7645E-03    -14.0443E-03    -2.07638E-03     464.897E-03    -230.665E-03    -234.617E-03    -232.654E-03     462.934E-03    -230.665E-03     73.8201E-03     60.5114E+06     29.5164E+06     -39.656E+06    -39.1330E+06     28.9935E+06     60.5114E+06     742.471E+03         61.7790
             960     8.74319E-03     22.1035E-03     38.0407E-03    -8.03991E-03    -15.6019E-03    -8.19448E-03     37.1480E-03    -14.5546E-03    -9.49353E-03     460.205E-03    -230.860E-03    -233.235E-03    -231.705E-03     458.675E-03    -230.860E-03     64.8398E-03     48.9831E+06     24.4235E+06    -48.0474E+06    -47.7026E+06     24.0787E+06     48.9831E+06     289.414E+03         60.3589
             961     7.95125E-03     22.0013E-03     43.5778E-03    -11.4849E-03    -17.0610E-03    -12.6860E-03     42.6141E-03    -14.8963E-03    -5.90161E-03     459.821E-03    -230.138E-03    -231.462E-03    -230.265E-03     458.653E-03    -230.169E-03     56.4929E-03     37.0816E+06     15.8998E+06    -57.0773E+06    -56.9225E+06     15.7450E+06     37.0816E+06    -546.316E+03         59.4209
             962     7.15700E-03     21.9125E-03     47.7035E-03    -14.0047E-03    -18.6328E-03    -17.3242E-03     47.2186E-03    -14.8284E-03     9.26448E-03     460.028E-03    -229.110E-03    -230.039E-03    -229.119E-03     459.172E-03    -229.174E-03     48.1865E-03     25.9467E+06     5.89803E+06    -66.7079E+06    -66.6157E+06     5.80585E+06     25.9467E+06    -649.053E+03         58.7881
             963     6.36289E-03     21.8365E-03     48.3135E-03    -13.2432E-03    -20.7888E-03    -19.2592E-03     47.9066E-03    -14.3660E-03     6.74460E-03     458.046E-03    -228.598E-03    -229.716E-03    -229.111E-03     457.475E-03    -228.631E-03     39.0981E-03     9.88968E+06    -28.2799E+06    -77.1727E+06    -77.1369E+06    -28.3157E+06     9.88968E+06     89.0985E+03         58.3048
             964     5.56741E-03     21.7753E-03     43.8204E-03    -11.6437E-03    -18.2516E-03    -14.9368E-03     42.8812E-03    -14.0193E-03     9.62086E-03     456.028E-03    -228.161E-03    -229.232E-03    -228.502E-03     455.677E-03    -228.539E-03     30.4336E-03    -10.9120E+06    -73.9316E+06    -87.9622E+06    -86.9986E+06    -74.8952E+06    -10.9120E+06     904.691E+03         57.8669
             965     4.77268E-03     21.7340E-03     46.5594E-03    -12.8328E-03    -19.0601E-03    -13.0016E-03     41.7537E-03    -14.0855E-03    -11.9459E-03     455.418E-03    -227.379E-03    -228.561E-03    -227.191E-03     455.230E-03    -228.561E-03     21.8900E-03    -33.8533E+06    -96.8442E+06    -108.166E+06    -97.3787E+06    -107.632E+06    -33.8533E+06     1.09367E+06         57.4516
             966     3.97763E-03     21.7061E-03     52.8298E-03    -13.7249E-03    -23.8607E-03    -18.3417E-03     47.3107E-03    -13.7249E-03    -6.01554E-03     455.835E-03    -227.433E-03    -229.429E-03    -227.359E-03     455.760E-03    -229.429E-03     13.4975E-03    -57.9383E+06    -107.536E+06    -137.494E+06    -107.599E+06    -137.431E+06    -57.9383E+06     943.295E+03         57.1102
             967     3.18286E-03     21.6908E-03     53.5599E-03    -12.3942E-03    -25.4638E-03    -18.0034E-03     46.2702E-03    -12.5648E-03    -10.1069E-03     456.944E-03    -227.774E-03    -229.880E-03    -227.752E-03     456.923E-03    -229.880E-03     7.05969E-03    -81.3955E+06    -116.969E+06    -169.125E+06    -116.995E+06    -169.099E+06    -81.3955E+06     1.07149E+06         56.8623
             968     2.38679E-03     21.6853E-03     49.6276E-03    -9.54246E-03    -24.7613E-03    -14.4264E-03     41.1092E-03    -11.3589E-03    -7.63909E-03     458.278E-03    -228.206E-03    -229.649E-03    -228.732E-03     458.274E-03    -229.119E-03     2.72244E-03    -104.329E+06    -125.370E+06    -199.011E+06    -125.394E+06    -198.987E+06    -104.329E+06     1.03549E+06         56.6993
             969     1.59093E-03     21.6868E-03     47.6227E-03    -8.77932E-03    -24.7788E-03    -12.2051E-03     36.6948E-03    -10.4251E-03    -12.7603E-03     457.477E-03    -228.375E-03    -228.944E-03    -228.904E-03     457.475E-03    -228.414E-03    -53.8610E-06    -122.826E+06    -131.548E+06    -226.990E+06    -131.564E+06    -226.974E+06    -122.826E+06     468.594E+03         56.5979
             970     793.959E-06     21.6967E-03     196.719E-03     22.6566E-03    -206.090E-03    -186.706E-03     33.2415E-03     166.750E-03     61.0895E-03     456.582E-03    -227.915E-03    -228.793E-03    -228.107E-03     456.580E-03    -228.598E-03    -671.567E-06    -133.017E+06    -138.143E+06    -256.260E+06    -137.359E+06    -256.248E+06    -133.814E+06     474.516E+03         56.5303
             971     13.4849E-03     21.4750E-03     42.8306E-03    -9.49490E-03    -18.0445E-03    -14.4686E-03     42.7009E-03    -12.9411E-03    -2.20203E-03     485.170E-03    -231.461E-03    -251.617E-03    -244.408E-03     477.961E-03    -231.461E-03     143.488E-03     84.8434E+06     49.6412E+06    -5.71942E+06    -5.61480E+06     49.5366E+06     84.8434E+06     1.06359E+06         77.4777
             972     12.7008E-03     21.2163E-03     40.0764E-03    -8.71339E-03    -15.7889E-03    -10.9120E-03     39.3727E-03    -12.8867E-03     1.99229E-03     480.975E-03    -230.923E-03    -248.969E-03    -242.334E-03     474.340E-03    -230.923E-03     135.748E-03     81.1589E+06     45.2717E+06    -11.4779E+06    -11.3582E+06     45.1520E+06     81.1589E+06    -46.6248E+03         73.9742
             973     11.9144E-03     21.0468E-03     38.6229E-03    -9.19059E-03    -14.4655E-03    -9.08130E-03     37.1563E-03    -13.1082E-03     4.10813E-03     474.249E-03    -230.603E-03    -243.762E-03    -239.960E-03     470.447E-03    -230.603E-03     104.190E-03     79.5581E+06     41.1556E+06    -17.2415E+06    -17.2040E+06     41.1181E+06     79.5581E+06    -413.100E+03         69.9173
             974     11.1277E-03     20.8842E-03     42.1779E-03    -10.8446E-03    -16.2008E-03    -12.4015E-03     40.8662E-03    -13.3323E-03     6.91127E-03     471.796E-03    -229.570E-03    -241.427E-03    -238.370E-03     468.739E-03    -229.570E-03     92.7506E-03     77.9868E+06     38.3323E+06    -23.8023E+06    -23.6580E+06     38.1880E+06     77.9868E+06     556.442E+03         66.3964
             975     10.3404E-03     20.7505E-03     43.4504E-03    -12.3553E-03    -15.7923E-03    -13.9604E-03     42.6293E-03    -13.3660E-03     6.12632E-03     468.313E-03    -229.044E-03    -238.042E-03    -235.869E-03     466.139E-03    -229.044E-03     78.0276E-03     71.6327E+06     34.5435E+06    -30.7542E+06    -30.3666E+06     34.1559E+06     71.6327E+06     551.967E+03         63.7641
             976     9.54956E-03     20.6247E-03     40.4441E-03    -11.2216E-03    -14.4913E-03    -11.8153E-03     39.9441E-03    -13.3976E-03    -4.10236E-03     464.833E-03    -229.014E-03    -235.922E-03    -234.293E-03     463.204E-03    -229.014E-03     67.1952E-03     61.6281E+06     30.1545E+06    -39.2560E+06    -38.7172E+06     29.6158E+06     61.6281E+06     366.132E+03         61.7752
             977     8.75981E-03     20.5152E-03     38.5550E-03    -8.98814E-03    -14.9135E-03    -9.98560E-03     38.2241E-03    -13.5852E-03    -2.30155E-03     460.192E-03    -228.826E-03    -234.068E-03    -232.869E-03     458.993E-03    -228.826E-03     57.3527E-03     50.6512E+06     25.4687E+06    -47.2400E+06    -46.8374E+06     25.0660E+06     50.6512E+06     221.835E+03         60.3104
             978     7.96757E-03     20.4118E-03     42.1800E-03    -11.0576E-03    -16.9231E-03    -14.1184E-03     41.9629E-03    -13.6453E-03     632.425E-06     458.393E-03    -228.101E-03    -231.868E-03    -231.013E-03     457.538E-03    -228.101E-03     48.1197E-03     38.0448E+06     16.6717E+06    -56.1745E+06    -56.0373E+06     16.5345E+06     38.0448E+06     158.902E+03         59.3058
             979     7.17460E-03     20.3293E-03     41.5866E-03    -11.2728E-03    -15.9316E-03    -13.1552E-03     41.0848E-03    -13.5474E-03     166.643E-06     456.864E-03    -226.539E-03    -229.876E-03    -229.314E-03     456.303E-03    -226.539E-03     38.6681E-03     25.5083E+06     6.05505E+06    -66.3661E+06    -66.3179E+06     6.00684E+06     25.5083E+06    -274.757E+03         58.5776
             980     6.37959E-03     20.2574E-03     35.9626E-03    -7.11615E-03    -14.2782E-03    -5.70065E-03     34.2910E-03    -14.0222E-03    -3.22774E-03     453.976E-03    -225.712E-03    -228.524E-03    -228.194E-03     453.646E-03    -225.712E-03     29.1993E-03     9.09093E+06    -28.3311E+06    -76.2952E+06    -76.2672E+06    -28.3591E+06     9.09093E+06    -321.563E+03         58.0037
             981     5.58389E-03     20.1971E-03     39.4492E-03    -9.62878E-03    -15.5489E-03    -7.67931E-03     37.0033E-03    -15.0525E-03     8.26028E-03     450.798E-03    -225.835E-03    -227.208E-03    -226.984E-03     450.629E-03    -225.889E-03     20.3989E-03    -12.1833E+06    -75.1545E+06    -87.6950E+06    -87.2377E+06    -75.6118E+06    -12.1833E+06     223.095E+03         57.4879
             982     4.78704E-03     20.1559E-03     50.5579E-03    -14.5621E-03    -21.5302E-03    -18.2696E-03     48.0897E-03    -15.3544E-03     6.28874E-03     449.676E-03    -224.866E-03    -225.820E-03    -225.118E-03     449.600E-03    -225.492E-03     12.8987E-03    -34.1187E+06    -97.9554E+06    -107.237E+06    -98.1789E+06    -107.014E+06    -34.1187E+06     986.470E+03         56.9737
             983     3.99014E-03     20.1274E-03     50.8814E-03    -12.9215E-03    -23.7363E-03    -19.8400E-03     48.6855E-03    -14.6220E-03    -710.454E-06     449.731E-03    -224.523E-03    -225.682E-03    -224.497E-03     449.705E-03    -225.682E-03     6.31058E-03    -57.8929E+06    -108.529E+06    -136.305E+06    -108.615E+06    -136.218E+06    -57.8929E+06     1.21418E+06         56.5250
             984     3.19172E-03     20.1135E-03     45.3529E-03    -11.9867E-03    -19.1781E-03    -16.0834E-03     44.1293E-03    -13.8578E-03     736.303E-06     449.651E-03    -224.773E-03    -226.118E-03    -224.764E-03     449.642E-03    -226.118E-03     1.13391E-03    -81.9580E+06    -118.115E+06    -168.398E+06    -118.140E+06    -168.373E+06    -81.9580E+06     1.03185E+06         56.2145
             985     2.39384E-03     20.1097E-03     50.2270E-03    -12.1372E-03    -22.9906E-03    -20.0764E-03     47.4835E-03    -12.3079E-03     6.37306E-03     450.900E-03    -225.095E-03    -226.057E-03    -225.098E-03     450.893E-03    -226.048E-03    -1.86004E-03    -103.856E+06    -126.172E+06    -197.480E+06    -126.199E+06    -197.452E+06    -103.856E+06     1.33182E+06         56.0374
             986     1.59560E-03     20.1106E-03     50.9069E-03    -8.25341E-03    -27.0059E-03    -19.2761E-03     43.1771E-03    -8.25341E-03    -14.7331E-03     451.440E-03    -225.540E-03    -225.877E-03    -225.544E-03     451.435E-03    -225.867E-03    -3.04878E-03    -122.164E+06    -132.438E+06    -225.797E+06    -132.460E+06    -225.776E+06    -122.164E+06     1.36011E+06         55.9473
             987     799.094E-06     20.1179E-03     183.391E-03     16.2300E-03    -184.573E-03    -168.559E-03     26.1484E-03     157.458E-03     58.9086E-03     451.304E-03    -225.269E-03    -226.101E-03    -225.968E-03     451.301E-03    -225.400E-03    -2.35284E-03    -132.706E+06    -136.462E+06    -254.127E+06    -135.675E+06    -254.118E+06    -133.502E+06     842.529E+03         55.9000
             988     13.4890E-03     19.8623E-03     32.4002E-03    -2.07985E-03    -12.2136E-03    -1.94304E-03     32.2634E-03    -12.2136E-03    -2.75027E-03     488.835E-03    -231.004E-03    -255.275E-03    -248.196E-03     481.757E-03    -231.004E-03     142.870E-03     84.3326E+06     48.5946E+06    -7.21552E+06    -7.15688E+06     48.5359E+06     84.3326E+06    -468.488E+03         77.6816
             989     12.7072E-03     19.6065E-03     32.4537E-03    -2.43036E-03    -12.8058E-03    -1.72269E-03     31.7460E-03    -12.8058E-03     2.08510E-03     484.019E-03    -230.287E-03    -252.671E-03    -246.150E-03     477.498E-03    -230.287E-03     135.185E-03     82.7361E+06     45.3822E+06    -10.6925E+06    -10.6490E+06     45.3387E+06     82.7361E+06     709.950E+03         74.2090
             990     11.9247E-03     19.4443E-03     40.4049E-03    -8.73522E-03    -14.6094E-03    -9.15420E-03     39.4666E-03    -13.2520E-03     7.55583E-03     476.503E-03    -229.805E-03    -247.516E-03    -243.874E-03     472.861E-03    -229.805E-03     102.382E-03     80.7123E+06     41.9016E+06    -16.4250E+06    -16.3746E+06     41.8511E+06     80.7123E+06     807.536E+03         70.1316
             991     11.1411E-03     19.2850E-03     45.0221E-03    -12.1186E-03    -16.1787E-03    -14.3412E-03     44.3761E-03    -13.3101E-03     4.78088E-03     473.684E-03    -228.332E-03    -244.851E-03    -242.046E-03     470.880E-03    -228.332E-03     89.0778E-03     77.2462E+06     37.9895E+06    -23.7721E+06    -23.6040E+06     37.8213E+06     77.2462E+06     359.865E+03         66.5553
             992     10.3547E-03     19.1532E-03     44.0688E-03    -11.7628E-03    -15.6643E-03    -13.3142E-03     43.1941E-03    -13.2381E-03     6.45872E-06     470.073E-03    -227.439E-03    -241.446E-03    -239.556E-03     468.183E-03    -227.439E-03     72.9266E-03     70.5602E+06     34.7933E+06    -31.7118E+06    -31.3261E+06     34.4076E+06     70.5602E+06     708.096E+03         63.8644
             993     9.56891E-03     19.0311E-03     44.8436E-03    -11.8545E-03    -16.6636E-03    -14.7365E-03     44.2179E-03    -13.1559E-03    -2.71610E-03     466.391E-03    -226.729E-03    -238.618E-03    -237.308E-03     465.081E-03    -226.729E-03     60.3122E-03     60.6807E+06     31.2547E+06    -39.3163E+06    -38.8611E+06     30.7995E+06     60.6807E+06     28.2781E+03         61.8214
             994     8.78034E-03     18.9257E-03     46.7452E-03    -12.8485E-03    -18.1780E-03    -17.7799E-03     46.3470E-03    -12.8485E-03    -2.05304E-03     461.414E-03    -225.752E-03    -236.102E-03    -235.230E-03     460.542E-03    -225.752E-03     48.8115E-03     49.7340E+06     25.4144E+06    -47.8123E+06    -47.4495E+06     25.0515E+06     49.7340E+06    -430.115E+03         60.3011
             995     7.99039E-03     18.8290E-03     41.0321E-03    -9.43085E-03    -16.3705E-03    -12.1364E-03     39.9902E-03    -12.6230E-03     3.08141E-03     457.406E-03    -225.106E-03    -232.987E-03    -232.439E-03     456.858E-03    -225.106E-03     38.0753E-03     38.0336E+06     16.6970E+06    -55.9747E+06    -55.8133E+06     16.5356E+06     38.0336E+06    -191.560E+03         59.2105
             996     7.19830E-03     18.7529E-03     36.9785E-03    -7.49937E-03    -14.1301E-03    -7.18081E-03     35.4960E-03    -12.9662E-03     6.49451E-03     454.293E-03    -223.493E-03    -230.155E-03    -229.854E-03     453.992E-03    -223.493E-03     27.6700E-03     25.0467E+06     6.71751E+06    -65.0372E+06    -65.0128E+06     6.69311E+06     25.0467E+06     146.571E+03         58.3541
             997     6.40409E-03     18.6808E-03     40.4829E-03    -7.73357E-03    -17.6902E-03    -9.97403E-03     38.5499E-03    -13.5168E-03    -1.50616E-03     451.056E-03    -221.922E-03    -227.669E-03    -227.527E-03     450.915E-03    -221.922E-03     18.1365E-03     8.51538E+06    -27.6523E+06    -76.0725E+06    -76.0265E+06    -27.6983E+06     8.51538E+06     580.516E+03         57.6545
             998     5.60741E-03     18.6258E-03     40.6052E-03    -8.43209E-03    -17.9729E-03    -10.4377E-03     38.5906E-03    -13.9527E-03     4.35688E-03     446.111E-03    -221.808E-03    -225.055E-03    -225.004E-03     446.061E-03    -221.808E-03     9.56640E-03    -11.6497E+06    -73.8885E+06    -87.7187E+06    -87.1774E+06    -74.4297E+06    -11.6497E+06     980.597E+03         57.0458
             999     4.80893E-03     18.5875E-03     39.5846E-03    -9.77549E-03    -16.2275E-03    -9.16664E-03     37.3383E-03    -14.5900E-03     6.10384E-03     442.311E-03    -220.922E-03    -222.879E-03    -222.607E-03     442.294E-03    -221.176E-03     2.35163E-03    -33.3498E+06    -97.2300E+06    -106.958E+06    -98.1432E+06    -106.045E+06    -33.3498E+06     474.072E+03         56.4442
            1000     4.00790E-03     18.5637E-03     45.0755E-03    -10.7865E-03    -20.2683E-03    -12.3946E-03     41.7047E-03    -15.2894E-03    -16.9426E-03     441.102E-03    -220.200E-03    -221.319E-03    -220.909E-03     441.085E-03    -220.593E-03    -3.49938E-03    -55.4725E+06    -107.694E+06    -135.942E+06    -107.786E+06    -135.850E+06    -55.4725E+06     432.813E+03         55.8909
            1001     3.20775E-03     18.5476E-03     50.0047E-03    -13.5793E-03    -21.9842E-03    -17.5265E-03     47.2475E-03    -15.2798E-03    -8.97102E-03     440.400E-03    -220.172E-03    -220.842E-03    -220.337E-03     440.372E-03    -220.650E-03    -7.30838E-03    -79.0541E+06    -116.866E+06      -167.1E+06    -116.884E+06    -167.081E+06    -79.0541E+06     869.806E+03         55.4697
            1002     2.40611E-03     18.5458E-03     48.6604E-03    -13.3486E-03    -20.8083E-03    -15.8840E-03     45.1966E-03    -14.8091E-03    -7.00977E-03     440.639E-03    -220.118E-03    -220.752E-03    -220.088E-03     440.609E-03    -220.752E-03    -8.39004E-03    -102.676E+06    -124.980E+06    -196.650E+06    -124.987E+06    -196.642E+06    -102.676E+06     639.341E+03         55.2052
            1003     1.60427E-03     18.5466E-03     48.7832E-03    -12.7865E-03    -20.1537E-03    -12.5149E-03     43.6756E-03    -15.3177E-03    -23.3746E-03     441.061E-03    -220.291E-03    -220.791E-03    -220.269E-03     441.038E-03    -220.791E-03    -7.12205E-03    -120.961E+06    -131.043E+06    -224.445E+06    -131.051E+06    -224.437E+06    -120.961E+06     681.304E+03         55.0689
            1004     800.671E-06     18.5504E-03     152.708E-03     18.6309E-03    -157.158E-03    -151.417E-03     46.3153E-03     119.283E-03     17.6282E-03     441.299E-03    -220.246E-03    -221.151E-03    -220.936E-03     441.289E-03    -220.451E-03    -4.03947E-03    -131.135E+06    -134.968E+06    -251.414E+06    -134.416E+06    -251.408E+06    -131.692E+06     536.857E+03         55.0138
            1005     13.4902E-03     18.2442E-03     40.0506E-03    -5.40200E-03    -18.1783E-03    -10.2252E-03     38.7850E-03    -12.0896E-03    -5.53034E-03     490.802E-03    -230.590E-03    -257.697E-03    -250.691E-03     483.796E-03    -230.590E-03     142.650E-03     85.0440E+06     48.7491E+06    -5.11017E+06    -5.03316E+06     48.6721E+06     85.0440E+06    -115.304E+03         77.9703
            1006     12.7127E-03     17.9914E-03     39.8629E-03    -5.44806E-03    -18.3319E-03    -11.5445E-03     39.7417E-03    -12.1142E-03     1.15313E-03     486.640E-03    -229.898E-03    -256.532E-03    -250.112E-03     480.220E-03    -229.898E-03     134.694E-03     81.4972E+06     43.1400E+06    -10.8365E+06    -10.6337E+06     42.9373E+06     81.4972E+06    -445.250E+03         74.5134
            1007     11.9337E-03     17.8369E-03     38.7378E-03    -8.42295E-03    -13.9032E-03    -10.0047E-03     38.4555E-03    -12.0392E-03     142.126E-06     480.214E-03    -229.378E-03    -251.942E-03    -248.443E-03     476.715E-03    -229.378E-03     100.868E-03     80.5355E+06     41.1085E+06    -16.3399E+06    -15.9989E+06     40.7675E+06     80.5355E+06     736.799E+03         70.3985
            1008     11.1534E-03     17.6815E-03     36.8283E-03    -7.84157E-03    -12.0835E-03    -7.42666E-03     36.4134E-03    -12.0835E-03    -2.21097E-03     477.580E-03    -227.246E-03    -249.416E-03    -246.838E-03     475.002E-03    -227.246E-03     85.8155E-03     78.7542E+06     39.7975E+06    -22.7412E+06    -22.4706E+06     39.5269E+06     78.7542E+06     1.81922E+06         66.7635
            1009     10.3741E-03     17.5542E-03     37.7395E-03    -8.64001E-03    -12.3029E-03    -7.94797E-03     37.0011E-03    -12.2565E-03    -10.7321E-03     473.268E-03    -225.615E-03    -246.424E-03    -244.779E-03     471.623E-03    -225.615E-03     68.3742E-03     71.7605E+06     35.3569E+06    -30.2279E+06    -29.8915E+06     35.0205E+06     71.7605E+06     733.095E+03         64.0183
            1010     9.59100E-03     17.4393E-03     40.6741E-03    -8.95885E-03    -14.8787E-03    -9.70340E-03     38.9583E-03    -12.4183E-03    -515.695E-06     469.215E-03    -224.112E-03    -243.243E-03    -242.197E-03     468.169E-03    -224.112E-03     53.9951E-03     61.6259E+06     31.5469E+06    -38.0955E+06    -37.7443E+06     31.1958E+06     61.6259E+06     424.861E+03         61.9246
            1011     8.80673E-03     17.3408E-03     41.6391E-03    -8.04253E-03    -16.5729E-03    -10.4367E-03     40.0321E-03    -12.5718E-03    -316.857E-06     463.129E-03    -222.256E-03    -239.823E-03    -239.230E-03     462.535E-03    -222.256E-03     40.1294E-03     49.8840E+06     26.4449E+06    -46.4445E+06    -46.1496E+06     26.1499E+06     49.8840E+06     228.303E+03         60.3456
            1012     8.01854E-03     17.2514E-03     39.2478E-03    -7.34297E-03    -15.2721E-03    -8.37001E-03     37.9089E-03    -12.9062E-03    -5.93843E-03     456.661E-03    -221.412E-03    -235.712E-03    -235.419E-03     456.367E-03    -221.412E-03     27.3403E-03     37.0662E+06     16.6632E+06    -55.9248E+06    -55.7530E+06     16.4914E+06     37.0662E+06    -104.330E+03         59.1666
            1013     7.22889E-03     17.1771E-03     40.7099E-03    -9.16751E-03    -14.3915E-03    -8.07614E-03     38.6866E-03    -13.4596E-03     12.0287E-03     451.192E-03    -219.875E-03    -230.948E-03    -230.834E-03     451.079E-03    -219.875E-03     15.7593E-03     24.1558E+06     6.19690E+06    -65.7300E+06    -65.7020E+06     6.16883E+06     24.1558E+06     277.907E+03         58.1792
            1014     6.43480E-03     17.1195E-03     45.8653E-03    -11.7689E-03    -17.8903E-03    -14.6969E-03     44.6199E-03    -13.7169E-03     11.0275E-03     446.145E-03    -217.356E-03    -226.672E-03    -226.637E-03     446.110E-03    -217.356E-03     6.02260E-03     9.01090E+06    -26.2928E+06    -75.8324E+06     -75.779E+06    -26.3462E+06     9.01090E+06     982.703E+03         57.3229
            1015     5.63760E-03     17.0705E-03     47.8780E-03    -11.1415E-03    -22.8051E-03    -19.8364E-03     46.9771E-03    -13.2092E-03     9.99548E-03     440.729E-03    -216.353E-03    -222.947E-03    -222.925E-03     440.707E-03    -216.353E-03    -2.21339E-03    -9.07714E+06    -70.9120E+06    -86.7801E+06    -85.9702E+06    -71.7219E+06    -9.07714E+06     491.614E+03         56.5863
            1016     4.83717E-03     17.0373E-03     44.9749E-03    -8.34614E-03    -23.0630E-03    -16.8905E-03     42.8246E-03    -12.3683E-03     7.83889E-03     434.383E-03    -215.430E-03    -220.066E-03    -220.019E-03     434.336E-03    -215.430E-03    -8.90540E-03    -30.1150E+06    -94.5122E+06    -105.350E+06    -95.8806E+06    -103.982E+06    -30.1150E+06     31.8414E+03         55.8891
            1017     4.03493E-03     17.0177E-03     42.0043E-03    -7.48889E-03    -20.3980E-03    -12.1178E-03     38.1728E-03    -11.9375E-03    -18.3041E-03     430.622E-03    -214.253E-03    -217.067E-03    -216.984E-03     430.539E-03    -214.253E-03    -13.6814E-03    -54.6809E+06    -106.799E+06    -135.630E+06    -106.953E+06    -135.476E+06    -54.6809E+06     256.366E+03         55.2356
            1018     3.22886E-03     17.0014E-03     39.8449E-03    -8.45314E-03    -16.9739E-03    -9.89955E-03     36.4722E-03    -12.1548E-03    -11.0957E-03     428.790E-03    -213.749E-03    -214.898E-03    -214.759E-03     428.684E-03    -213.782E-03    -15.8560E-03    -79.6164E+06    -117.152E+06    -166.772E+06    -117.165E+06    -166.759E+06    -79.6164E+06     218.920E+03         54.6874
            1019     2.42254E-03     16.9982E-03     41.5728E-03    -9.91502E-03    -17.0445E-03    -7.37157E-03     35.4159E-03    -13.4311E-03    -17.8792E-03     427.292E-03    -213.447E-03    -214.174E-03    -213.948E-03     427.197E-03    -213.578E-03    -15.0467E-03    -103.134E+06    -125.845E+06    -195.904E+06    -125.869E+06    -195.880E+06    -103.134E+06     876.389E+03         54.2823
            1020     1.61522E-03     17.0046E-03     45.5556E-03    -13.4090E-03    -18.2293E-03    -9.50959E-03     39.5205E-03    -16.0936E-03    -16.1057E-03     426.982E-03    -213.275E-03    -213.774E-03    -213.533E-03     426.924E-03    -213.458E-03    -11.6984E-03    -122.412E+06    -132.530E+06    -222.618E+06    -132.191E+06    -222.588E+06    -122.782E+06     1.17529E+06         54.0340
            1021     808.716E-06     17.0063E-03     122.589E-03     18.1227E-03    -128.237E-03    -126.241E-03     47.9793E-03     90.7364E-03     4.09766E-03     426.877E-03    -213.221E-03    -213.791E-03    -213.685E-03     426.856E-03    -213.306E-03    -6.69393E-03    -133.415E+06    -136.383E+06    -248.277E+06    -135.465E+06    -248.269E+06    -134.342E+06     450.971E+03         53.9117
            1022     13.4935E-03     16.6241E-03     48.6489E-03    -12.0405E-03    -22.9266E-03    -21.5838E-03     47.3062E-03    -12.0405E-03    -2.04263E-03     492.852E-03    -230.282E-03    -259.863E-03    -252.856E-03     485.845E-03    -230.282E-03     143.067E-03     84.4879E+06     48.9440E+06    -5.18335E+06    -5.11935E+06     48.8800E+06     84.4879E+06    -249.640E+03         78.2971
            1023     12.7153E-03     16.3730E-03     49.6719E-03    -11.3667E-03    -23.5150E-03    -22.8767E-03     49.0337E-03    -11.3667E-03    -1.62054E-03     489.871E-03    -229.499E-03    -259.958E-03    -253.566E-03     483.479E-03    -229.499E-03     134.872E-03     80.6956E+06     42.8801E+06    -11.0804E+06    -10.7857E+06     42.5855E+06     80.6956E+06     89.6237E+03         74.8385
            1024     11.9408E-03     16.2208E-03     41.5517E-03    -9.96481E-03    -15.7981E-03    -14.0927E-03     40.7556E-03    -10.8742E-03    -1.43977E-03     484.713E-03    -228.740E-03    -256.438E-03    -253.010E-03     481.285E-03    -228.740E-03     100.462E-03     78.4893E+06     40.7000E+06    -18.5651E+06    -17.7470E+06     39.8819E+06     78.4893E+06    -312.992E+03         70.6835
            1025     11.1668E-03     16.0711E-03     36.5016E-03    -7.75488E-03    -12.2841E-03    -8.65288E-03     35.9209E-03    -10.8054E-03     6.80923E-03     482.608E-03    -226.209E-03    -255.387E-03    -252.906E-03     480.128E-03    -226.209E-03     84.7485E-03     77.2844E+06     38.8284E+06    -23.8887E+06    -23.2329E+06     38.1727E+06     77.2844E+06     -16.772E+03         66.9764
            1026     10.3913E-03     15.9494E-03     37.2126E-03    -8.13495E-03    -12.0406E-03    -8.83727E-03     36.7716E-03    -10.8974E-03    -2.29459E-03     477.580E-03    -223.996E-03    -252.788E-03    -251.313E-03     476.106E-03    -223.996E-03     64.9961E-03     72.4771E+06     35.4523E+06    -29.9299E+06    -29.6374E+06     35.1597E+06     72.4771E+06     1.08560E+06         64.1713
            1027     9.61472E-03     15.8432E-03     37.2190E-03    -8.28151E-03    -11.8493E-03    -7.06226E-03     35.2113E-03    -11.0609E-03    -3.83704E-03     472.529E-03    -221.563E-03    -249.392E-03    -248.566E-03     471.703E-03    -221.563E-03     48.0111E-03     61.8505E+06     31.8589E+06    -37.8683E+06    -37.5847E+06     31.5753E+06     61.8505E+06     619.795E+03         62.0700
            1028     8.83440E-03     15.7503E-03     35.9963E-03    -6.93130E-03    -12.2066E-03    -4.08923E-03     32.4082E-03    -11.4605E-03    -10.8085E-03     465.258E-03    -219.000E-03    -245.190E-03    -244.803E-03     464.871E-03    -219.000E-03     32.0794E-03     49.5640E+06     26.4214E+06    -46.2796E+06    -46.0789E+06     26.2206E+06     49.5640E+06     962.043E+03         60.4761
            1029     8.05156E-03     15.6754E-03     40.6812E-03    -9.42986E-03    -13.7962E-03    -9.33145E-03     38.5876E-03    -11.8010E-03    -17.3373E-03     456.967E-03    -217.564E-03    -240.276E-03    -240.141E-03     456.832E-03    -217.564E-03     17.4988E-03     37.4763E+06     17.2460E+06    -55.5835E+06    -55.4114E+06     17.0739E+06     37.4763E+06     1.57724E+06         59.2149
            1030     7.26418E-03     15.6138E-03     44.6860E-03    -10.5880E-03    -16.5335E-03    -13.7879E-03     43.0403E-03    -11.6880E-03    -7.19493E-03     448.335E-03    -215.675E-03    -233.575E-03    -233.546E-03     448.307E-03    -215.675E-03     4.90627E-03     24.5921E+06     6.68018E+06    -65.7456E+06    -65.6392E+06     6.57385E+06     24.5921E+06     1.46398E+06         58.0968
            1031     6.47146E-03     15.5639E-03     40.6200E-03    -9.62051E-03    -14.6367E-03    -9.68562E-03     37.6169E-03    -11.5685E-03    -10.2227E-03     439.725E-03    -212.517E-03    -226.869E-03    -226.838E-03     439.694E-03    -212.517E-03    -5.46832E-03     7.45908E+06    -23.3040E+06    -76.4233E+06    -76.4051E+06    -23.3223E+06     7.45908E+06     888.008E+03         57.0715
            1032     5.67336E-03     15.5228E-03     41.0417E-03    -8.66674E-03    -17.3928E-03    -11.3759E-03     37.9613E-03    -11.6033E-03    -5.10635E-03     433.014E-03    -209.984E-03    -221.685E-03    -221.591E-03     432.921E-03    -209.984E-03    -14.0649E-03    -12.2701E+06    -67.1327E+06    -87.8381E+06    -87.1988E+06    -67.7721E+06    -12.2701E+06     13.4578E+03         56.1551
            1033     4.87169E-03     15.4997E-03     44.2746E-03    -9.01051E-03    -22.1824E-03    -16.9002E-03     41.0809E-03    -11.0990E-03    -165.338E-06     425.326E-03    -208.324E-03    -217.179E-03    -217.006E-03     425.152E-03    -208.324E-03    -20.1819E-03    -33.0611E+06    -94.8178E+06    -107.182E+06    -98.1818E+06    -103.817E+06    -33.0611E+06    -264.228E+03         55.3098
            1034     4.06506E-03     15.4868E-03     38.3954E-03    -8.86237E-03    -16.0431E-03    -11.6788E-03     35.6772E-03    -10.5084E-03    -12.1269E-03     418.876E-03    -206.702E-03    -212.618E-03    -212.389E-03     418.647E-03    -206.702E-03    -23.4483E-03    -56.1403E+06    -107.268E+06    -135.299E+06    -107.606E+06    -134.961E+06    -56.1403E+06     568.500E+03         54.5320
            1035     3.25627E-03     15.4772E-03     34.3095E-03    -7.42159E-03    -12.1850E-03    -5.31253E-03     31.1387E-03    -11.1232E-03     1.01320E-03     414.873E-03    -205.531E-03    -209.093E-03    -208.857E-03     414.636E-03    -205.531E-03    -23.9717E-03    -81.8500E+06    -117.983E+06    -165.624E+06    -118.083E+06    -165.525E+06    -81.8500E+06     1.25165E+06         53.8665
            1036     2.44358E-03     15.4808E-03     38.4239E-03    -7.82087E-03    -16.2406E-03    -5.65964E-03     33.0922E-03    -13.0701E-03    -7.84132E-03     411.375E-03    -204.930E-03    -206.789E-03    -206.594E-03     411.180E-03    -204.930E-03    -21.6126E-03    -104.684E+06    -127.652E+06    -195.557E+06    -127.700E+06    -195.508E+06    -104.684E+06     1.49039E+06         53.3346
            1037     1.62971E-03     15.4841E-03     47.0988E-03    -12.1869E-03    -21.8031E-03    -10.5244E-03     39.1673E-03    -15.5340E-03     8.63965E-03     409.791E-03    -204.663E-03    -205.152E-03    -205.038E-03     409.676E-03    -204.663E-03    -16.1777E-03    -123.249E+06    -134.730E+06    -219.304E+06    -134.406E+06    -219.259E+06    -123.618E+06     1.81009E+06         52.9554
            1038     814.518E-06     15.4878E-03     108.568E-03     14.2066E-03    -113.169E-03    -107.133E-03     43.0764E-03     73.6629E-03     7.54835E-03     409.206E-03    -204.369E-03    -204.879E-03    -204.642E-03     409.166E-03    -204.565E-03    -9.02925E-03    -133.951E+06    -138.693E+06    -245.681E+06    -136.729E+06    -245.662E+06    -135.935E+06     853.896E+03         52.7403
            1039     13.4938E-03     14.9997E-03     37.4027E-03    -6.54138E-03    -15.6374E-03    -10.4020E-03     36.4661E-03    -10.8401E-03    -2.64206E-03     494.639E-03    -230.215E-03    -261.884E-03    -254.747E-03     487.501E-03    -230.215E-03     144.511E-03     84.8327E+06     49.6446E+06    -5.26034E+06    -5.06813E+06     49.4524E+06     84.8327E+06     1.09390E+06         78.6522
            1040     12.7188E-03     14.7478E-03     38.4861E-03    -5.70158E-03    -16.5798E-03    -10.1997E-03     37.0535E-03    -10.6491E-03    -9.58440E-03     493.519E-03    -229.260E-03    -263.405E-03    -256.848E-03     486.961E-03    -229.260E-03     136.976E-03     81.0297E+06     44.4677E+06    -11.4548E+06    -10.9651E+06     43.9780E+06     81.0297E+06     530.758E+03         75.2003
            1041     11.9468E-03     14.5931E-03     41.4089E-03    -9.35041E-03    -15.4024E-03    -12.8085E-03     39.9488E-03    -10.4843E-03    -8.45831E-03     489.470E-03    -228.079E-03    -261.282E-03    -257.893E-03     486.081E-03    -228.079E-03     100.487E-03     78.3235E+06     41.3493E+06    -17.4966E+06    -16.2383E+06     40.0910E+06     78.3235E+06     373.652E+03         71.0165
            1042     11.1762E-03     14.4465E-03     41.6813E-03    -10.2249E-03    -14.6736E-03    -14.3606E-03     41.3683E-03    -10.2249E-03     5.15794E-03     487.629E-03    -225.258E-03    -261.714E-03    -259.364E-03     485.279E-03    -225.258E-03     82.8722E-03     75.1665E+06     38.9864E+06    -25.9609E+06    -24.7798E+06     37.8053E+06     75.1665E+06    -347.324E+03         67.2213
            1043     10.4077E-03     14.3294E-03     39.2430E-03    -9.34793E-03    -13.3566E-03    -11.7820E-03     38.2897E-03    -9.96920E-03    -4.82459E-03     482.292E-03    -222.493E-03    -259.059E-03    -257.773E-03     481.005E-03    -222.493E-03     60.9619E-03     70.1114E+06     34.3401E+06    -32.7557E+06    -32.2933E+06     33.8777E+06     70.1114E+06    -1.03423E+06         64.3478
            1044     9.63762E-03     14.2362E-03     38.7126E-03    -9.19467E-03    -13.4902E-03    -10.5387E-03     36.3823E-03    -9.81594E-03    -6.10156E-03     476.321E-03    -219.188E-03    -255.369E-03    -254.703E-03     475.655E-03    -219.188E-03     43.4194E-03     61.3156E+06     30.9468E+06    -39.1796E+06    -39.0135E+06     30.7807E+06     61.3156E+06     381.682E+03         62.2819
            1045     8.86346E-03     14.1584E-03     40.5495E-03    -9.61887E-03    -14.9460E-03    -11.8464E-03     37.4499E-03    -9.61887E-03    -6.67397E-03     467.676E-03    -216.074E-03    -251.032E-03    -250.757E-03     467.400E-03    -216.074E-03     26.8249E-03     49.5862E+06     25.7970E+06    -47.5181E+06    -47.3850E+06     25.6639E+06     49.5862E+06     1.06180E+06         60.7192
            1046     8.08500E-03     14.0956E-03     41.5790E-03    -9.32168E-03    -15.8104E-03    -11.7498E-03     37.5184E-03    -9.32168E-03    -30.4283E-06     457.495E-03    -213.704E-03    -245.160E-03    -245.098E-03     457.433E-03    -213.704E-03     10.8167E-03     37.4382E+06     16.6861E+06    -56.0328E+06    -55.9041E+06     16.5574E+06     37.4382E+06     1.63328E+06         59.3814
            1047     7.30076E-03     14.0497E-03     42.5499E-03    -8.88800E-03    -16.5526E-03    -13.3136E-03     39.3108E-03    -8.88800E-03     2.68978E-03     446.122E-03    -210.846E-03    -237.610E-03    -237.591E-03     446.104E-03    -210.846E-03    -2.59519E-03     23.9120E+06     6.68726E+06    -65.6837E+06    -65.4461E+06     6.44963E+06     23.9120E+06     3.02649E+06         58.1251
            1048     6.50948E-03     14.0137E-03     38.7574E-03    -8.43205E-03    -13.2932E-03    -10.9385E-03     36.4027E-03    -8.43205E-03    -11.8245E-03     434.458E-03    -207.219E-03    -229.310E-03    -229.227E-03     434.374E-03    -207.219E-03    -13.6367E-03     4.98206E+06    -19.2322E+06    -77.5248E+06    -77.0392E+06    -19.7177E+06     4.98206E+06     3.92806E+06         56.9345
            1049     5.71330E-03     13.9916E-03     33.9179E-03    -6.62521E-03    -11.5966E-03    -1.60827E-03     26.0181E-03    -8.71374E-03     2.44356E-03     425.658E-03    -203.235E-03    -222.024E-03    -221.813E-03     425.447E-03    -203.235E-03    -22.7163E-03    -17.5964E+06    -61.1340E+06    -89.8891E+06    -89.4916E+06    -61.5314E+06    -17.5964E+06     2.21652E+06         55.8253
            1050     4.90901E-03     13.9769E-03     31.1456E-03    -4.07394E-03    -12.6248E-03     2.61792E-03     22.0358E-03    -10.2069E-03     5.57514E-03     416.294E-03    -200.494E-03    -215.313E-03    -214.970E-03     415.951E-03    -200.494E-03    -29.0905E-03    -39.0016E+06    -94.0338E+06    -108.153E+06    -100.686E+06    -101.501E+06    -39.0016E+06     91.8696E+03         54.8034
            1051     4.09978E-03     13.9786E-03     32.8777E-03    -5.16433E-03    -12.6396E-03    -2.20430E-03     29.5021E-03    -12.2240E-03    -10.1997E-03     406.214E-03    -198.803E-03    -208.630E-03    -208.213E-03     405.797E-03    -198.803E-03    -31.7729E-03    -59.9613E+06    -110.875E+06    -136.541E+06    -111.281E+06    -136.135E+06    -59.9613E+06     176.642E+03         53.8797
            1052     3.28467E-03     13.9771E-03     38.7986E-03    -7.61039E-03    -15.2972E-03    -5.97638E-03     36.1028E-03    -14.2355E-03     5.74553E-03     399.528E-03    -197.263E-03    -202.908E-03    -202.507E-03     399.127E-03    -197.263E-03    -30.8135E-03    -82.0368E+06    -120.004E+06    -165.555E+06    -120.210E+06    -165.349E+06    -82.0368E+06     1.73498E+06         53.0784
            1053     2.46731E-03     13.9850E-03     41.3037E-03    -7.59472E-03    -18.1096E-03    -6.06675E-03     38.7409E-03    -17.0748E-03     8.72829E-03     395.199E-03    -195.814E-03    -198.922E-03    -198.617E-03     394.893E-03    -195.814E-03    -26.6611E-03    -105.013E+06    -128.591E+06    -192.665E+06    -128.693E+06    -192.562E+06    -105.013E+06     2.24897E+06         52.4278
            1054     1.64613E-03     13.9934E-03     55.5969E-03    -14.8607E-03    -26.8558E-03    -13.3079E-03     47.9193E-03    -20.7310E-03     32.7154E-03     391.169E-03    -194.654E-03    -196.183E-03    -196.007E-03     390.993E-03    -194.654E-03    -19.8482E-03    -123.728E+06    -136.046E+06    -216.535E+06    -134.997E+06    -216.498E+06    -124.814E+06     897.033E+03         51.9427
            1055     823.977E-06     14.0038E-03     98.8414E-03     19.0677E-03    -106.419E-03    -97.6528E-03     56.4979E-03     52.6445E-03     10.5134E-03     388.743E-03    -194.100E-03    -194.814E-03    -194.436E-03     388.678E-03    -194.414E-03    -11.3734E-03    -134.428E+06    -141.275E+06    -242.956E+06    -138.701E+06    -242.828E+06    -137.129E+06     1.71510E+06         51.6443
            1056     13.4950E-03     13.3790E-03     32.1654E-03    -4.41069E-03    -9.93781E-03    -4.10469E-03     31.1187E-03    -9.19710E-03    -4.53088E-03     496.773E-03    -230.123E-03    -264.611E-03    -257.557E-03     489.719E-03    -230.123E-03     143.804E-03     84.9526E+06     48.0454E+06    -5.51741E+06    -5.32668E+06     47.8547E+06     84.9526E+06     1.33936E+06         79.0454
            1057     12.7196E-03     13.1114E-03     30.0769E-03    -3.34844E-03    -9.38689E-03    -2.23614E-03     28.9646E-03    -9.38689E-03    -2.45916E-03     496.896E-03    -229.063E-03    -266.927E-03    -260.449E-03     490.418E-03    -229.063E-03     136.150E-03     81.9952E+06     45.5171E+06    -10.2369E+06    -9.36383E+06      44.644E+06     81.9952E+06     2.42386E+06         75.6148
            1058     11.9528E-03     12.9547E-03     34.9767E-03    -6.47292E-03    -11.3753E-03    -7.38866E-03     34.0343E-03    -9.51707E-03    -4.76006E-03     493.787E-03    -227.603E-03    -265.527E-03    -262.311E-03     490.571E-03    -227.603E-03     98.4662E-03     78.6507E+06     44.1677E+06    -18.6873E+06    -16.8770E+06     42.3574E+06     78.6507E+06     1.46178E+06         71.4118
            1059     11.1895E-03     12.8120E-03     36.0674E-03    -7.06829E-03    -12.4281E-03    -9.96770E-03     35.9969E-03    -9.45823E-03     6.41798E-06     491.939E-03    -224.462E-03    -266.631E-03    -264.370E-03     489.678E-03    -224.462E-03     81.7766E-03     75.7682E+06     40.8394E+06    -24.7617E+06     -23.094E+06     39.1716E+06     75.7682E+06     310.491E+03         67.5553
            1060     10.4242E-03     12.7066E-03     36.7646E-03    -8.23458E-03    -12.9306E-03    -11.0990E-03     36.0159E-03    -9.31752E-03    -5.34167E-03     485.707E-03    -221.175E-03    -263.841E-03    -262.600E-03     484.466E-03    -221.175E-03     60.3573E-03     70.1653E+06     34.3609E+06    -31.8372E+06    -31.0801E+06     33.6038E+06     70.1653E+06     461.249E+03         64.6447
            1061     9.65833E-03     12.6205E-03     40.1155E-03    -9.01394E-03    -15.9419E-03    -14.3642E-03     38.5377E-03    -9.01394E-03     1.46092E-03     479.318E-03    -217.244E-03    -260.095E-03    -259.428E-03     478.651E-03    -217.244E-03     43.7206E-03     60.7382E+06     29.6435E+06    -40.5161E+06    -40.4266E+06     29.5541E+06     60.7382E+06     36.5749E+03         62.6043
            1062     8.88852E-03     12.5577E-03     42.4357E-03    -8.47602E-03    -19.0025E-03    -15.5948E-03     39.0280E-03    -8.47602E-03    -4.44117E-03     469.377E-03    -213.665E-03    -255.699E-03    -255.420E-03     469.097E-03    -213.665E-03     27.1604E-03     49.8925E+06     25.0265E+06    -48.6896E+06    -48.6176E+06     24.9545E+06     49.8925E+06     785.354E+03         61.0571
            1063     8.11376E-03     12.5139E-03     39.2842E-03    -6.46026E-03    -16.6144E-03    -9.98762E-03     34.2669E-03    -8.06980E-03    -2.34559E-03     457.869E-03    -210.183E-03    -249.482E-03    -249.419E-03     457.806E-03    -210.183E-03     10.7430E-03     35.1331E+06     14.8798E+06    -58.1981E+06    -57.9880E+06     14.6696E+06     35.1331E+06     2.43088E+06         59.6628
            1064     7.33304E-03     12.4865E-03     32.2241E-03    -2.96315E-03    -11.9008E-03    -2.35007E-03     28.0132E-03    -8.30292E-03     13.7155E-03     445.535E-03    -206.368E-03    -241.571E-03    -241.550E-03     445.514E-03    -206.368E-03    -3.61000E-03     18.8648E+06     3.18890E+06    -69.1814E+06    -68.7471E+06     2.75467E+06     18.8648E+06     4.69168E+06         58.2997
            1065     6.54478E-03     12.4729E-03     30.6695E-03    -2.71043E-03    -10.8480E-03    -2.15136E-03     28.3176E-03    -9.05509E-03     1.62340E-03     432.719E-03    -202.445E-03    -232.249E-03    -232.146E-03     432.616E-03    -202.445E-03    -15.5703E-03     2.07510E+06    -16.3313E+06    -79.6318E+06    -78.9494E+06    -17.0137E+06     2.07510E+06     6.20553E+06         56.9777
            1066     5.74853E-03     12.4656E-03     38.7558E-03    -7.12101E-03    -15.2212E-03    -6.34187E-03     32.4909E-03    -9.73545E-03     11.7214E-03     421.293E-03    -197.743E-03    -222.980E-03    -222.720E-03     421.033E-03    -197.743E-03    -25.4359E-03    -17.8975E+06    -51.9091E+06    -90.0532E+06    -88.8828E+06    -53.0795E+06    -17.8975E+06     5.14170E+06         55.7184
            1067     4.94489E-03     12.4759E-03     39.3232E-03    -6.39046E-03    -16.9599E-03    -5.20905E-03     31.6168E-03    -10.4349E-03     12.3299E-03     408.912E-03    -193.764E-03    -214.124E-03    -213.698E-03     408.486E-03    -193.764E-03    -32.4184E-03    -39.7433E+06    -89.8710E+06    -106.700E+06    -100.301E+06    -96.2698E+06    -39.7433E+06     2.72409E+06         54.5446
            1068     4.13260E-03     12.4855E-03     33.7124E-03    -2.91399E-03    -13.5321E-03    -2.25417E-03     31.3735E-03    -11.8531E-03    -4.82624E-03     395.831E-03    -191.098E-03    -205.647E-03    -205.122E-03     395.306E-03    -191.098E-03    -35.5048E-03    -61.8640E+06    -111.738E+06    -135.134E+06    -112.020E+06    -134.852E+06    -61.8640E+06     1.22432E+06         53.4738
            1069     3.31446E-03     12.5007E-03     38.5872E-03    -5.15248E-03    -16.8066E-03    -7.26952E-03     37.5546E-03    -13.6570E-03    -7.66184E-03     385.630E-03    -189.034E-03    -197.810E-03    -197.292E-03     385.112E-03    -189.034E-03    -34.7152E-03    -83.7011E+06    -122.286E+06    -165.599E+06    -122.602E+06    -165.283E+06    -83.7011E+06     497.524E+03         52.5258
            1070     2.48950E-03     12.5200E-03     44.9442E-03    -8.47273E-03    -21.1303E-03    -13.5617E-03     43.6621E-03    -14.7591E-03    -10.9832E-03     379.234E-03    -187.026E-03    -191.905E-03    -191.498E-03     378.827E-03    -187.026E-03    -30.2913E-03    -105.490E+06    -129.404E+06    -190.265E+06    -129.570E+06    -190.099E+06    -105.490E+06     793.194E+03         51.7474
            1071     1.66239E-03     12.5301E-03     47.9309E-03    -12.6425E-03    -20.9980E-03    -14.5584E-03     44.1678E-03    -15.3191E-03     12.7317E-03     373.596E-03    -185.272E-03    -187.957E-03    -187.717E-03     373.356E-03    -185.272E-03    -22.7039E-03    -123.839E+06    -136.789E+06    -215.290E+06    -135.853E+06    -215.140E+06    -124.926E+06     1.95412E+06         51.1681
            1072     831.279E-06     12.5471E-03     79.6699E-03     14.5220E-03    -83.8552E-03    -78.6809E-03     41.7511E-03     47.2665E-03    -6.27654E-03     369.508E-03    -184.246E-03    -185.423E-03    -184.918E-03     369.423E-03    -184.666E-03    -12.4747E-03    -133.558E+06    -142.716E+06    -238.543E+06    -139.677E+06    -238.248E+06    -136.892E+06     1.59911E+06         50.8007
            1073     13.4966E-03     11.7478E-03     38.8724E-03    -8.51482E-03    -14.5845E-03    -13.8810E-03     38.6565E-03    -9.00249E-03     2.67910E-03     500.350E-03    -229.770E-03    -268.928E-03    -261.966E-03     493.388E-03    -229.770E-03     142.535E-03     83.7124E+06     45.7448E+06    -6.75475E+06    -6.53041E+06     45.5205E+06     83.7124E+06     1.41235E+06         79.4566
            1074     12.7319E-03     11.4712E-03     37.6196E-03    -7.76491E-03    -13.5878E-03    -11.9456E-03     37.0683E-03    -8.85580E-03     8.86805E-03     499.890E-03    -228.641E-03    -270.572E-03    -263.940E-03     493.258E-03    -228.641E-03     138.023E-03     81.2336E+06     46.7966E+06    -13.1940E+06    -11.5254E+06     45.1281E+06     81.2336E+06     1.16306E+06         76.0465
            1075     11.9645E-03     11.3173E-03     33.2611E-03    -6.60901E-03    -10.3182E-03    -7.35549E-03     32.5335E-03    -8.84410E-03     8.11134E-03     495.434E-03    -227.179E-03    -268.369E-03    -265.080E-03     492.145E-03    -227.179E-03     99.9407E-03     79.5910E+06     46.5159E+06    -17.9088E+06    -14.6469E+06     43.2541E+06     79.5910E+06     1.50063E+06         71.8341
            1076     11.1988E-03     11.1692E-03     31.6140E-03    -6.29481E-03    -9.30308E-03    -5.82288E-03     30.8486E-03    -9.00962E-03     8.04466E-03     492.795E-03    -223.525E-03    -268.464E-03    -266.050E-03     490.381E-03    -223.525E-03     84.6824E-03     76.9795E+06     42.1272E+06    -24.3321E+06    -22.1844E+06     39.9795E+06     76.9795E+06     2.82772E+06         67.9481
            1077     10.4359E-03     11.0757E-03     36.1367E-03    -7.96619E-03    -12.6342E-03    -11.0151E-03     35.6006E-03    -9.04913E-03     8.20083E-03     486.264E-03    -220.056E-03    -264.942E-03    -263.552E-03     484.874E-03    -220.056E-03     64.1160E-03     70.0750E+06     34.7250E+06    -30.9932E+06    -30.2630E+06     33.9948E+06     70.0750E+06     2.32591E+06         65.0137
            1078     9.67136E-03     11.0018E-03     40.0840E-03    -8.68290E-03    -16.3179E-03    -15.9477E-03     39.7138E-03    -8.68290E-03     6.47881E-03     479.789E-03    -216.243E-03    -261.551E-03    -260.695E-03     478.934E-03    -216.243E-03     49.7233E-03     58.9756E+06     29.7962E+06    -38.7690E+06    -38.4573E+06     29.4845E+06     58.9756E+06     2.68920E+06         62.9598
            1079     8.90301E-03     10.9545E-03     38.2640E-03    -7.39614E-03    -15.8222E-03    -12.2381E-03     35.4903E-03    -8.20652E-03    -8.84686E-03     470.209E-03    -212.279E-03    -257.588E-03    -257.133E-03     469.754E-03    -212.279E-03     35.0654E-03     45.2257E+06     23.7412E+06    -49.8224E+06    -49.4274E+06     23.3462E+06     45.2257E+06     3.93802E+06         61.4053
            1080     8.13095E-03     10.9249E-03     34.8541E-03    -5.68358E-03    -13.0190E-03    -6.22504E-03     30.4801E-03    -8.10350E-03    -5.30706E-03     458.786E-03    -207.990E-03    -251.970E-03    -251.796E-03     458.611E-03    -207.990E-03     19.8748E-03     29.9732E+06     12.3706E+06    -61.0392E+06    -60.4208E+06     11.7522E+06     29.9732E+06     5.57949E+06         59.9910
            1081     7.35329E-03     10.9183E-03     32.5366E-03    -3.16523E-03    -12.3432E-03    -2.50500E-03     28.0381E-03    -8.50499E-03     2.71610E-03     446.517E-03    -203.685E-03    -244.094E-03    -244.042E-03     446.466E-03    -203.685E-03     5.83561E-03     16.0817E+06     1.66008E+06    -71.5070E+06    -70.7734E+06     926.476E+03     16.0817E+06     7.10641E+06         58.5888
            1082     6.56735E-03     10.9257E-03     32.4601E-03    -2.88152E-03    -12.6552E-03    -2.95200E-03     29.1016E-03    -9.22618E-03    -6.33220E-03     432.669E-03    -199.752E-03    -234.114E-03    -234.060E-03     432.616E-03    -199.752E-03    -6.92282E-03     662.320E+03    -12.8311E+06    -82.5348E+06    -81.7615E+06    -13.6044E+06     662.320E+03     7.09109E+06         57.2093
            1083     5.77312E-03     10.9459E-03     38.8352E-03    -6.89211E-03    -15.3691E-03    -11.7918E-03     37.8724E-03    -9.50655E-03    -4.13013E-03     418.257E-03    -194.909E-03    -223.726E-03    -223.572E-03     418.103E-03    -194.909E-03    -17.7070E-03    -18.6541E+06    -45.0680E+06    -93.1912E+06    -92.1030E+06    -46.1561E+06    -18.6541E+06     5.48024E+06         55.8703
            1084     4.96949E-03     10.9730E-03     43.1979E-03    -8.85741E-03    -17.5167E-03    -15.9159E-03     41.5971E-03    -8.85741E-03    -14.1112E-03     404.330E-03    -189.777E-03    -213.828E-03    -213.537E-03     404.039E-03    -189.777E-03    -25.7151E-03    -40.0742E+06    -86.4057E+06    -106.447E+06    -101.513E+06    -91.3400E+06    -40.0742E+06     3.74138E+06         54.6042
            1085     4.15761E-03     11.0072E-03     39.8472E-03    -6.00549E-03    -16.2213E-03    -12.9920E-03     38.4974E-03    -7.88491E-03    -12.2825E-03     391.448E-03    -185.311E-03    -204.660E-03    -204.259E-03     391.047E-03    -185.311E-03    -30.3602E-03    -62.3341E+06    -110.386E+06    -131.531E+06    -111.500E+06    -130.416E+06    -62.3341E+06     1.83995E+06         53.4352
            1086     3.33640E-03     11.0380E-03     39.8523E-03    -4.61926E-03    -17.5250E-03    -14.8545E-03     39.0613E-03    -6.49868E-03    -5.35940E-03     377.985E-03    -182.017E-03    -195.876E-03    -195.442E-03     377.551E-03    -182.017E-03    -31.3084E-03    -84.4978E+06    -119.734E+06    -163.346E+06    -120.131E+06    -162.949E+06    -84.4978E+06     311.535E+03         52.3830
            1087     2.51027E-03     11.0671E-03     38.8441E-03    -3.54650E-03    -18.8934E-03    -16.2131E-03     36.1638E-03    -3.54650E-03    -18.3204E-03     366.343E-03    -179.558E-03    -187.463E-03    -187.092E-03     365.973E-03    -179.558E-03    -28.4272E-03    -104.970E+06    -128.718E+06    -191.251E+06    -128.874E+06    -191.095E+06    -104.970E+06    -64.3953E+03         51.5056
            1088     1.67604E-03     11.0896E-03     30.1018E-03    -251.683E-06    -15.0787E-03    -5.70797E-03     20.7311E-03    -251.683E-06    -5.46374E-03     358.782E-03    -177.769E-03    -181.048E-03    -180.816E-03     358.549E-03    -177.769E-03    -21.9705E-03    -121.127E+06    -136.496E+06    -214.647E+06    -135.339E+06    -214.507E+06    -122.423E+06     1.13207E+06         50.8483
            1089     839.921E-06     11.1106E-03     67.6663E-03     6.33748E-03    -64.0653E-03    -53.8051E-03     7.87498E-03     55.8685E-03     5.54685E-03     354.254E-03    -176.281E-03    -177.915E-03    -177.524E-03     354.166E-03    -176.585E-03    -12.5767E-03    -131.454E+06    -143.372E+06    -233.122E+06    -140.115E+06    -232.837E+06    -134.997E+06     1.42218E+06         50.4296
            1090     13.5046E-03     10.1110E-03     35.9368E-03    -7.87110E-03    -14.2768E-03    -12.6633E-03     35.8877E-03    -9.43548E-03     659.168E-06     503.742E-03    -229.606E-03    -272.050E-03    -264.755E-03     496.447E-03    -229.606E-03     145.224E-03     81.5647E+06     44.2368E+06    -6.52253E+06    -5.89766E+06     43.6119E+06     81.5647E+06     825.680E+03         79.8444
            1091     12.7327E-03     9.83085E-03     37.7565E-03    -7.95725E-03    -14.8717E-03    -13.1908E-03     37.3723E-03    -9.25391E-03     4.50923E-03     502.400E-03    -228.024E-03    -272.870E-03    -265.679E-03     495.210E-03    -228.024E-03     143.701E-03     79.0404E+06     44.9029E+06    -13.0752E+06    -10.2640E+06     42.0917E+06     79.0404E+06     1.57259E+06         76.4436
            1092     11.9686E-03     9.67660E-03     37.2701E-03    -8.76681E-03    -13.2063E-03    -11.8276E-03     36.2163E-03    -9.09167E-03     2.09672E-03     495.746E-03    -226.531E-03    -269.159E-03    -265.695E-03     492.283E-03    -226.531E-03     102.682E-03     77.7732E+06     46.7308E+06    -20.4391E+06    -16.2931E+06     42.5849E+06     77.7732E+06     2.65476E+06         72.2024
            1093     11.2060E-03     9.53421E-03     37.3771E-03    -8.61625E-03    -13.0631E-03    -11.2377E-03     35.8766E-03    -8.94111E-03     8.12887E-03     490.043E-03    -222.862E-03    -266.182E-03    -263.623E-03     487.485E-03    -222.862E-03     86.8521E-03     75.3054E+06     41.4040E+06    -24.2479E+06    -21.8565E+06     39.0126E+06     75.3054E+06     2.16177E+06         68.2516
            1094     10.4394E-03     9.44503E-03     35.8466E-03    -7.38287E-03    -13.1132E-03    -10.7334E-03     34.8608E-03    -8.77695E-03     10.6184E-03     481.346E-03    -219.537E-03    -260.125E-03    -258.479E-03     479.699E-03    -219.537E-03     69.5198E-03     67.5986E+06     33.0476E+06    -29.2912E+06    -28.3052E+06     32.0616E+06     67.5986E+06     4.78150E+06         65.2422
            1095     9.67136E-03     9.38372E-03     30.8093E-03    -3.10721E-03    -12.4546E-03    -5.91640E-03     29.9792E-03    -8.81530E-03     3.38815E-03     475.519E-03    -216.683E-03    -257.359E-03    -255.975E-03     474.135E-03    -216.683E-03     62.8218E-03     55.0304E+06     28.7133E+06     -39.835E+06    -38.7534E+06     27.6317E+06     55.0304E+06     7.85641E+06         63.1354
            1096     8.90170E-03     9.34491E-03     30.9810E-03    -3.98824E-03    -11.7594E-03    -5.43711E-03     29.7831E-03    -9.11262E-03    -4.13780E-03     469.346E-03    -212.629E-03    -255.289E-03    -254.272E-03     468.329E-03    -212.629E-03     52.5866E-03     42.5293E+06     23.8507E+06    -50.4279E+06    -49.0799E+06     22.5027E+06     42.5293E+06     9.27686E+06         61.5749
            1097     8.12892E-03     9.33950E-03     39.1080E-03    -8.35067E-03    -15.2548E-03    -12.0537E-03     36.7173E-03    -9.16105E-03     5.89928E-03     459.259E-03    -208.395E-03    -250.926E-03    -250.303E-03     458.636E-03    -208.395E-03     39.7035E-03     29.9739E+06     13.8779E+06    -60.8229E+06    -59.5623E+06     12.6174E+06     29.9739E+06     9.38064E+06         60.2002
            1098     7.35087E-03     9.34914E-03     44.1567E-03    -8.61161E-03    -19.3726E-03    -16.4983E-03     41.2825E-03    -8.61161E-03     2.58146E-03     446.889E-03    -204.193E-03    -244.034E-03    -243.684E-03     446.540E-03    -204.193E-03     27.2373E-03     18.7886E+06     3.49675E+06    -70.9292E+06    -69.8049E+06     2.37242E+06     18.7886E+06     8.80416E+06         58.8535
            1099     6.56656E-03     9.38274E-03     41.8770E-03    -7.76049E-03    -17.3935E-03    -14.7705E-03     39.2540E-03    -7.76049E-03     1.77185E-03     432.748E-03    -199.908E-03    -234.655E-03    -234.480E-03     432.573E-03    -199.908E-03     15.1750E-03     4.84570E+06    -7.80476E+06    -80.5712E+06    -79.7174E+06    -8.65864E+06     4.84570E+06     7.60213E+06         57.5165
            1100     5.77360E-03     9.42337E-03     36.6168E-03    -6.61678E-03    -12.9554E-03    -9.56450E-03     33.7634E-03    -7.15432E-03     13.1322E-03     418.356E-03    -195.537E-03    -224.548E-03    -224.441E-03     418.250E-03    -195.537E-03     4.72056E-03    -15.1902E+06    -39.9583E+06    -91.2848E+06    -90.4144E+06    -40.8288E+06    -15.1902E+06     5.21748E+06         56.1978
            1101     4.97233E-03     9.47556E-03     36.5614E-03    -6.06101E-03    -13.8186E-03    -11.1321E-03     34.4125E-03    -6.59855E-03     1.67316E-03     405.248E-03    -190.669E-03    -215.076E-03    -214.973E-03     405.145E-03    -190.669E-03    -4.31780E-03    -38.2625E+06    -84.0413E+06    -104.530E+06    -100.751E+06    -87.8197E+06    -38.2625E+06     2.81759E+06         54.9267
            1102     4.16206E-03     9.52829E-03     38.6348E-03    -5.24271E-03    -16.0002E-03    -14.9770E-03     37.6116E-03    -5.24271E-03     972.806E-06     392.512E-03    -185.765E-03    -205.835E-03    -205.699E-03     392.376E-03    -185.765E-03    -11.2095E-03    -60.9434E+06    -108.177E+06    -128.343E+06    -110.052E+06    -126.468E+06    -60.9434E+06     1.01380E+06         53.7489
            1103     3.34415E-03     9.57968E-03     36.6166E-03    -3.37236E-03    -13.9510E-03    -10.1084E-03     32.7740E-03    -3.37236E-03     14.1277E-03     379.175E-03    -181.300E-03    -196.646E-03    -196.480E-03     379.009E-03    -181.300E-03    -15.2495E-03    -83.3128E+06     -119.35E+06    -162.156E+06    -119.752E+06    -161.753E+06    -83.3128E+06     123.045E+03         52.6854
            1104     2.51567E-03     9.62523E-03     32.0613E-03    -1.29184E-03    -12.1941E-03    -6.34295E-03     26.4784E-03    -1.56017E-03     1.24052E-03     365.517E-03    -177.589E-03    -187.699E-03    -187.543E-03     365.361E-03    -177.589E-03    -15.9487E-03    -104.104E+06    -127.287E+06    -192.320E+06    -127.467E+06    -192.140E+06    -104.104E+06     37.0084E+03         51.7763
            1105     1.68255E-03     9.66427E-03     27.1658E-03     1.88178E-03    -11.9259E-03     408.925E-06     17.4991E-03    -786.358E-06    -8.62747E-03     354.661E-03    -175.055E-03    -179.856E-03    -179.752E-03     354.557E-03    -175.055E-03    -13.1868E-03    -121.385E+06    -136.225E+06    -213.438E+06    -134.969E+06    -213.398E+06    -122.681E+06    -701.450E+03         51.0890
            1106     841.799E-06     9.68717E-03     64.6524E-03     19.8603E-03    -69.3518E-03    -53.2274E-03     17.0673E-03     51.3211E-03     44.5533E-03     348.378E-03    -172.662E-03    -175.936E-03    -175.893E-03     348.334E-03    -172.662E-03    -8.05607E-03    -129.763E+06    -143.035E+06    -232.154E+06    -139.389E+06    -231.928E+06    -133.635E+06    -1.13968E+06         50.6578
            1107     13.5014E-03     8.47834E-03     32.8948E-03    -7.78283E-03    -10.5564E-03    -8.60183E-03     32.5046E-03    -9.34722E-03     2.49141E-03     505.578E-03    -229.841E-03    -273.394E-03    -265.806E-03     497.990E-03    -229.841E-03     148.183E-03     81.3660E+06     44.3632E+06    -6.31982E+06    -4.85036E+06     42.8938E+06     81.3660E+06     3.03918E+06         80.1526
            1108     12.7385E-03     8.19150E-03     34.5327E-03    -8.00041E-03    -12.4775E-03    -10.5424E-03     33.8943E-03    -9.29706E-03     3.76056E-03     503.484E-03    -227.713E-03    -273.965E-03    -266.399E-03     495.918E-03    -227.713E-03     147.707E-03     77.9116E+06     49.0873E+06    -15.9920E+06    -11.3418E+06     44.4371E+06     77.9116E+06     1.18913E+06         76.7425
            1109     11.9741E-03     8.03793E-03     38.9162E-03    -9.06939E-03    -14.7564E-03    -13.7364E-03     37.8962E-03    -9.06939E-03    -2.24299E-03     494.339E-03    -226.118E-03    -267.651E-03    -263.920E-03     490.608E-03    -226.118E-03     106.290E-03     73.6864E+06     46.3145E+06    -21.2627E+06    -14.8304E+06     39.8821E+06     73.6864E+06     673.797E+03         72.4052
            1110     11.2075E-03     7.90105E-03     37.7817E-03    -8.17149E-03    -14.3194E-03    -12.3741E-03     36.4319E-03    -8.76697E-03     2.68057E-03     483.955E-03    -223.247E-03    -259.972E-03    -257.257E-03     481.239E-03    -223.247E-03     88.4498E-03     68.9827E+06     35.5531E+06    -24.7283E+06    -21.4293E+06     32.2541E+06     68.9827E+06     5.65148E+06         68.3023
            1111     10.4343E-03     7.83583E-03     32.2901E-03    -6.05366E-03    -10.7688E-03    -7.14329E-03     31.3059E-03    -8.69501E-03     8.50907E-03     470.777E-03    -220.362E-03    -249.458E-03    -247.343E-03     468.661E-03    -220.362E-03     77.2864E-03     60.4630E+06     30.3230E+06    -34.1882E+06    -32.4843E+06     28.6191E+06     60.4630E+06     9.78170E+06         65.1404
            1112     9.65443E-03     7.77651E-03     30.1949E-03    -2.54675E-03    -12.2491E-03    -5.12516E-03     29.4308E-03    -8.90663E-03    -6.74605E-03     466.156E-03    -218.376E-03    -247.324E-03    -244.884E-03     463.715E-03    -218.376E-03     82.4076E-03     50.9506E+06     29.3950E+06    -43.3416E+06    -41.3980E+06     27.4514E+06     50.9506E+06     11.2257E+06         62.9093
            1113     8.87567E-03     7.74587E-03     33.1285E-03    -4.78090E-03    -13.7694E-03    -8.08572E-03     31.7588E-03    -9.09490E-03    -9.01242E-03     464.748E-03    -215.070E-03    -247.970E-03    -245.957E-03     462.736E-03    -215.070E-03     74.3690E-03     43.7484E+06     24.7135E+06    -51.0532E+06    -49.4195E+06     23.0798E+06     43.7484E+06     10.8360E+06         61.3098
            1114     8.09742E-03     7.74971E-03     36.0654E-03    -7.62648E-03    -13.8225E-03    -11.6142E-03     35.2471E-03    -9.01644E-03    -935.411E-06     458.029E-03    -211.746E-03    -244.706E-03    -243.305E-03     456.628E-03    -211.746E-03     61.7300E-03     36.2436E+06     17.7445E+06    -57.9824E+06    -56.5747E+06     16.3368E+06     36.2436E+06     10.1319E+06         60.0272
            1115     7.31714E-03     7.78293E-03     36.6787E-03    -6.22663E-03    -15.6001E-03    -12.9289E-03     36.4582E-03    -8.67742E-03    -372.672E-06     446.566E-03    -208.757E-03    -238.590E-03    -237.490E-03     445.466E-03    -208.757E-03     53.2024E-03     26.6870E+06     8.80655E+06    -65.9755E+06    -64.9802E+06     7.81134E+06     26.6870E+06     8.20690E+06         58.8500
            1116     6.53044E-03     7.83477E-03     38.2940E-03    -7.08312E-03    -15.6580E-03    -12.9793E-03     36.6762E-03    -8.14395E-03     5.02395E-03     434.859E-03    -205.044E-03    -231.262E-03    -230.334E-03     433.931E-03    -205.044E-03     46.5656E-03     12.9411E+06    -4.40845E+06    -75.1742E+06    -74.6605E+06    -4.92209E+06     12.9411E+06     5.85733E+06         57.7062
            1117     5.73842E-03     7.90262E-03     36.5180E-03    -7.12985E-03    -12.7352E-03    -9.61254E-03     33.9328E-03    -7.66738E-03     12.3830E-03     423.721E-03    -201.493E-03    -223.890E-03    -223.116E-03     422.947E-03    -201.493E-03     39.9027E-03    -7.23568E+06    -37.8158E+06    -85.5618E+06    -84.7777E+06    -38.5998E+06    -7.23568E+06     4.98362E+06         56.5920
            1118     4.93948E-03     7.97539E-03     35.1045E-03    -6.15506E-03    -11.5551E-03    -7.06376E-03     31.9541E-03    -7.49610E-03     17.6570E-03     413.298E-03    -198.115E-03    -216.604E-03    -216.017E-03     412.712E-03    -198.115E-03     31.8633E-03    -31.1384E+06    -81.0735E+06    -100.871E+06    -97.0759E+06    -84.8689E+06    -31.1384E+06     3.80205E+06         55.4927
            1119     4.13389E-03     8.04707E-03     36.6818E-03    -6.50582E-03    -12.2366E-03    -8.34266E-03     33.5914E-03    -7.30932E-03     8.68896E-03     402.554E-03    -194.316E-03    -208.946E-03    -208.549E-03     402.157E-03    -194.316E-03     23.2681E-03    -54.7826E+06    -106.297E+06    -127.684E+06    -108.973E+06    -125.008E+06    -54.7826E+06     1.89544E+06         54.4497
            1120     3.31927E-03     8.12001E-03     34.4588E-03    -5.02746E-03    -10.9846E-03    -3.93310E-03     29.8355E-03    -7.45568E-03     6.08493E-03     392.074E-03    -189.826E-03    -201.345E-03    -201.098E-03     391.827E-03    -189.826E-03     15.3950E-03    -78.4517E+06    -119.745E+06    -162.132E+06    -120.098E+06    -161.780E+06    -78.4517E+06     532.180E+03         53.5096
            1121     2.49935E-03     8.18437E-03     31.9403E-03    -2.53939E-03    -10.8789E-03     230.527E-06     27.5122E-03    -9.22067E-03     3.10913E-03     381.212E-03    -185.829E-03    -194.384E-03    -194.246E-03     381.074E-03    -185.829E-03     8.74225E-03    -102.392E+06    -130.753E+06    -191.894E+06    -131.132E+06    -191.515E+06    -102.392E+06    -870.246E+03         52.6974
            1122     1.66968E-03     8.23785E-03     38.6336E-03    -5.63717E-03    -12.9984E-03    -5.18045E-03     37.4685E-03    -12.2900E-03    -11.0300E-03     370.630E-03    -183.293E-03    -187.564E-03    -187.501E-03     370.567E-03    -183.293E-03     4.19993E-03    -121.736E+06    -139.964E+06    -213.858E+06    -137.996E+06    -213.615E+06    -123.947E+06    -2.38757E+06         52.0737
            1123     837.458E-06     8.27122E-03     77.4543E-03     31.2532E-03    -90.2401E-03    -75.4048E-03     46.3966E-03     47.4755E-03     67.2323E-03     364.273E-03    -180.777E-03    -183.713E-03    -183.688E-03     364.248E-03    -180.777E-03     2.81222E-03    -134.721E+06    -148.859E+06    -237.953E+06    -144.265E+06    -237.761E+06    -139.508E+06    -2.25095E+06         51.6817
            1124     13.5040E-03     6.82991E-03     34.6508E-03    -9.09810E-03    -12.4552E-03    -12.0740E-03     34.2696E-03    -9.09810E-03     1.44178E-03     506.399E-03    -230.456E-03    -274.731E-03    -266.342E-03     498.010E-03    -230.456E-03     156.911E-03     81.2148E+06     47.1854E+06    -9.86975E+06    -3.23307E+06     40.5487E+06     81.2148E+06    -233.122E+03         80.2683
            1125     12.7372E-03     6.54888E-03     35.2207E-03    -8.86615E-03    -12.4991E-03    -11.8170E-03     34.5387E-03    -8.86615E-03     5.04426E-03     502.062E-03    -228.074E-03    -273.047E-03    -264.862E-03     493.877E-03    -228.074E-03     154.115E-03     74.7993E+06     52.6825E+06    -18.6404E+06    -3.98859E+06     38.0307E+06     74.7993E+06     3.17680E+06         76.7930
            1126     11.9688E-03     6.39979E-03     33.8831E-03    -7.54345E-03    -12.1667E-03    -9.53621E-03     32.4163E-03    -8.70715E-03     390.673E-06     488.433E-03    -226.576E-03    -261.336E-03    -256.946E-03     484.043E-03    -226.576E-03     114.256E-03     65.6291E+06     45.0480E+06    -27.4192E+06    -16.7910E+06     34.4198E+06     65.6291E+06       10.48E+06         72.3023
            1127     11.1970E-03     6.27895E-03     32.3443E-03    -6.89469E-03    -10.4461E-03    -7.30066E-03     31.0264E-03    -8.72224E-03    -2.47851E-03     475.171E-03    -224.703E-03    -249.990E-03    -246.892E-03     472.072E-03    -224.703E-03     92.4603E-03     60.7164E+06     34.2012E+06    -32.8696E+06    -29.9248E+06     31.2564E+06     60.7164E+06     11.3496E+06         68.0388
            1128     10.4103E-03     6.24914E-03     32.8579E-03    -7.49029E-03    -9.79967E-03    -7.98167E-03     32.3555E-03    -8.80593E-03     5.10883E-03     462.586E-03    -222.618E-03    -239.378E-03    -236.853E-03     460.061E-03    -222.618E-03     83.0494E-03     57.6434E+06     29.7160E+06    -38.7344E+06    -36.7985E+06     27.7801E+06     57.6434E+06     10.5321E+06         64.7535
            1129     9.61680E-03     6.18685E-03     36.2468E-03    -7.92451E-03    -13.0359E-03    -11.9545E-03     35.9406E-03    -8.69966E-03    -3.40860E-03     458.713E-03    -221.162E-03    -236.963E-03    -234.002E-03     455.753E-03    -221.162E-03     90.2767E-03     53.7692E+06     30.5905E+06    -42.9079E+06    -41.4192E+06     29.1018E+06     53.7692E+06     9.70488E+06         62.4058
            1130     8.82879E-03     6.15039E-03     35.2836E-03    -8.27209E-03    -12.6528E-03    -12.0554E-03     34.8096E-03    -8.39545E-03    -544.822E-06     455.188E-03    -219.278E-03    -234.875E-03    -232.332E-03     452.967E-03    -219.601E-03     77.5717E-03     50.5298E+06     28.3541E+06    -46.6742E+06    -45.7173E+06     27.3972E+06     50.5298E+06     8.13662E+06         60.7261
            1131     8.04338E-03     6.16837E-03     29.2767E-03    -6.87760E-03    -9.21962E-03    -7.33742E-03     28.7844E-03    -8.26756E-03     5.96120E-03     449.308E-03    -215.954E-03    -231.170E-03    -227.045E-03     447.439E-03    -218.209E-03     70.8370E-03     44.4532E+06     21.7897E+06    -52.7440E+06    -52.0658E+06     21.1115E+06     44.4532E+06     6.09288E+06         59.4785
            1132     7.25203E-03     6.21913E-03     27.5235E-03    -5.75034E-03    -8.51045E-03    -5.45908E-03     27.1950E-03    -8.47321E-03     1.86883E-03     442.682E-03    -213.631E-03    -228.134E-03    -222.414E-03     440.519E-03    -217.189E-03     74.9121E-03     35.8090E+06     13.2318E+06    -60.6405E+06    -60.2518E+06     12.8431E+06     35.8090E+06     4.64956E+06         58.5016
            1133     6.45743E-03     6.28712E-03     33.7598E-03    -7.28668E-03    -11.8470E-03    -9.07718E-03     32.3229E-03    -8.61959E-03     6.36137E-03     437.035E-03    -213.134E-03    -225.522E-03    -220.104E-03     434.599E-03    -216.117E-03     78.4529E-03     22.6791E+06    -4.74255E+06    -71.0349E+06    -70.6862E+06    -5.09126E+06     22.6791E+06     4.69013E+06         57.7097
            1134     5.66043E-03     6.36084E-03     39.9784E-03    -8.23111E-03    -15.8153E-03    -13.6285E-03     37.7916E-03    -8.23111E-03    -906.406E-06     433.722E-03    -212.005E-03    -223.116E-03    -217.963E-03     431.312E-03    -214.748E-03     77.3765E-03     2.86436E+06    -40.2535E+06    -84.2022E+06    -83.3147E+06    -41.1410E+06     2.86436E+06     4.95859E+06         57.0287
            1135     4.86236E-03     6.45208E-03     36.9859E-03    -6.90791E-03    -12.1926E-03    -8.58810E-03     34.3093E-03    -7.83583E-03     2.92514E-03     430.492E-03    -211.152E-03    -220.060E-03    -216.045E-03     428.385E-03    -213.060E-03     71.6814E-03    -20.5303E+06    -79.1321E+06    -99.1972E+06    -95.0171E+06    -83.3122E+06    -20.5303E+06     4.00303E+06         56.3756
            1136     4.06128E-03     6.53995E-03     36.4851E-03    -7.28921E-03    -11.3016E-03    -4.71092E-03     30.8223E-03    -8.21713E-03    -7.55875E-03     425.881E-03    -210.262E-03    -216.501E-03    -213.966E-03     424.225E-03    -211.141E-03     62.6768E-03    -46.0034E+06    -105.393E+06    -127.073E+06    -107.892E+06    -124.574E+06    -46.0034E+06     2.04675E+06         55.7388
            1137     3.25757E-03     6.62769E-03     37.2627E-03    -6.32456E-03    -14.7872E-03    -8.33812E-03     33.2419E-03    -8.75278E-03    -15.1244E-03     420.894E-03    -207.923E-03    -212.774E-03    -211.033E-03     419.741E-03    -208.512E-03     51.4158E-03    -72.1348E+06    -118.504E+06    -162.400E+06    -119.062E+06    -161.842E+06    -72.1348E+06    -31.0434E+03         55.1378
            1138     2.44740E-03     6.70759E-03     39.9419E-03    -2.12481E-03    -20.4538E-03    -11.6354E-03     37.5363E-03    -8.53775E-03    -12.6483E-03     415.580E-03    -205.744E-03    -209.336E-03    -208.414E-03     414.890E-03    -205.976E-03     38.9508E-03    -98.2693E+06    -128.779E+06    -191.228E+06    -129.327E+06    -190.679E+06    -98.2693E+06    -1.64509E+06         54.6057
            1139     1.63640E-03     6.77217E-03     46.8697E-03    -3.24997E-03    -22.8314E-03    -12.4211E-03     40.4441E-03    -7.23469E-03    -28.9815E-03     410.322E-03    -204.365E-03    -206.023E-03    -205.695E-03     409.994E-03    -204.365E-03     25.9452E-03    -119.471E+06    -139.562E+06    -218.573E+06    -137.587E+06    -218.336E+06    -121.683E+06    -2.43663E+06         54.1886
            1140     817.639E-06     6.81330E-03     85.1513E-03     24.4617E-03    -85.0585E-03    -70.9667E-03     37.7833E-03     57.7378E-03     46.3840E-03     406.714E-03    -202.365E-03    -204.377E-03    -203.064E-03     406.606E-03    -203.570E-03     14.7756E-03    -133.133E+06    -150.210E+06    -245.923E+06    -143.136E+06    -245.763E+06    -140.366E+06    -2.07283E+06         53.9184
            1141     13.4920E-03     5.17707E-03     32.6587E-03    -7.92105E-03    -11.1957E-03    -9.33311E-03     31.5456E-03    -8.67056E-03     6.56123E-03     508.024E-03    -231.751E-03    -276.003E-03    -264.799E-03     496.820E-03    -231.751E-03     183.769E-03     77.5863E+06     54.6345E+06    -22.6432E+06     1.03749E+06     30.9538E+06     77.5863E+06     6.50021E+06         80.1097
            1142     12.7262E-03     4.90617E-03     33.1889E-03    -8.54681E-03    -10.7694E-03    -10.4274E-03     32.8469E-03    -8.54681E-03     5.25828E-03     502.640E-03    -229.717E-03    -272.090E-03    -262.653E-03     493.202E-03    -229.717E-03     165.660E-03     65.8248E+06     50.6991E+06    -37.3900E+06    -19.8571E+06     33.1663E+06     65.8248E+06     16.7225E+06         76.5309
            1143     11.9519E-03     4.77790E-03     31.8942E-03    -7.31892E-03    -10.4777E-03    -8.11407E-03     30.6942E-03    -8.48262E-03    -4.32355E-03     483.629E-03    -228.002E-03    -254.475E-03    -249.759E-03     478.913E-03    -228.002E-03     117.244E-03     61.7070E+06     45.0096E+06    -36.1637E+06    -29.1636E+06     38.0094E+06     61.7070E+06     12.8783E+06         71.9381
            1144     11.1634E-03     4.67515E-03     31.5559E-03    -7.30821E-03    -9.74203E-03    -6.80113E-03     29.8471E-03    -8.54029E-03    -3.11465E-03     466.881E-03    -226.075E-03    -239.950E-03    -235.904E-03     463.852E-03    -227.092E-03     90.4357E-03     63.3403E+06     38.4032E+06    -30.5405E+06    -28.9080E+06     36.7707E+06     63.3403E+06     9.05603E+06         67.6478
            1145     10.3757E-03     4.66845E-03     33.3841E-03    -8.52233E-03    -9.73988E-03    -8.58165E-03     32.2943E-03    -8.59071E-03     9.42689E-03     458.511E-03    -225.307E-03    -232.669E-03    -228.364E-03     455.223E-03    -226.324E-03     92.0186E-03     64.7763E+06     33.5402E+06    -33.2169E+06    -32.2305E+06     32.5538E+06     64.7763E+06     6.08624E+06         64.4071
            1146     9.58757E-03     4.60126E-03     33.9666E-03    -8.46818E-03    -10.2289E-03    -8.55246E-03     32.4135E-03    -8.59154E-03    -2.39341E-03     454.360E-03    -222.242E-03    -231.158E-03    -223.847E-03     450.506E-03    -225.698E-03     100.616E-03     63.2489E+06     33.2127E+06    -36.7238E+06    -36.2409E+06     32.7297E+06     63.2489E+06     1.94123E+06         62.0993
            1147     8.79044E-03     4.58159E-03     33.9213E-03    -8.42611E-03    -11.1161E-03    -9.62375E-03     32.5523E-03    -8.54946E-03    -2.30213E-03     442.528E-03    -213.658E-03    -228.289E-03    -213.119E-03     439.828E-03    -226.127E-03     82.7647E-03     59.7854E+06     31.7648E+06    -40.7392E+06    -40.3086E+06     31.3342E+06     59.7854E+06     1.18924E+06         60.4023
            1148     7.97722E-03     4.61679E-03     37.2949E-03    -8.17483E-03    -15.9795E-03    -14.7058E-03     36.0212E-03    -8.17483E-03    -38.7724E-06     435.485E-03    -207.096E-03    -227.512E-03    -204.328E-03     432.718E-03    -227.512E-03     82.6932E-03     52.7732E+06     23.8458E+06    -48.4166E+06    -48.2157E+06     23.6449E+06     52.7732E+06     2.42695E+06         59.1366
            1149     7.16186E-03     4.66912E-03     35.3490E-03    -7.25632E-03    -15.3464E-03    -13.4831E-03     33.7578E-03    -7.52841E-03    -9.11233E-03     437.276E-03    -207.551E-03    -229.101E-03    -204.192E-03     433.917E-03    -229.101E-03     92.2209E-03     44.3990E+06     13.5183E+06    -59.0288E+06    -58.8518E+06     13.3413E+06     44.3990E+06     2.78097E+06         58.2876
            1150     6.35198E-03     4.73373E-03     32.2156E-03    -6.71462E-03    -11.1010E-03    -7.83287E-03     29.4513E-03    -7.21852E-03     8.66618E-03     442.168E-03    -212.072E-03    -231.029E-03    -208.359E-03     438.456E-03    -231.029E-03     98.1503E-03     30.4332E+06    -7.71864E+06    -69.5621E+06     -69.438E+06    -7.84270E+06     30.4332E+06     2.27657E+06         57.8414
            1151     5.54910E-03     4.81083E-03     37.6432E-03    -6.73302E-03    -15.1855E-03    -11.2243E-03     33.9139E-03    -6.96483E-03     113.915E-06     449.631E-03    -216.612E-03    -233.010E-03    -212.913E-03     445.932E-03    -233.010E-03     98.9394E-03     9.00821E+06    -42.3206E+06    -80.6070E+06    -78.9506E+06    -43.9770E+06     9.00821E+06     1.35667E+06         57.6900
            1152     4.75001E-03     4.89808E-03     35.7337E-03    -6.23828E-03    -12.8436E-03    -10.9228E-03     33.9373E-03    -6.36270E-03    -12.4922E-03     455.898E-03    -221.422E-03    -234.119E-03    -218.073E-03     452.549E-03    -234.119E-03     94.9123E-03    -16.4519E+06    -76.7130E+06    -97.7226E+06    -88.8557E+06    -85.5799E+06    -16.4519E+06     369.347E+03         57.6792
            1153     3.95650E-03     4.98988E-03     31.0073E-03    -6.04750E-03    -8.68863E-03    -5.27768E-03     27.7207E-03    -6.17192E-03    -12.5807E-03     460.623E-03    -226.067E-03    -234.871E-03    -223.304E-03     457.860E-03    -234.871E-03     86.7180E-03    -43.3605E+06    -96.2125E+06    -127.519E+06    -97.2005E+06    -126.531E+06    -43.3605E+06    -286.350E+03         57.7029
            1154     3.16290E-03     5.08007E-03     35.9192E-03    -6.01027E-03    -14.6608E-03    -9.04727E-03     30.3057E-03    -6.01027E-03     1.17029E-03     464.695E-03    -229.485E-03    -235.066E-03    -227.481E-03     462.691E-03    -235.066E-03     74.0618E-03    -71.4671E+06    -108.013E+06    -163.700E+06    -108.639E+06    -163.074E+06    -71.4671E+06    -1.47654E+06         57.6871
            1155     2.37313E-03     5.15912E-03     39.7169E-03    -3.85725E-03    -19.5733E-03    -15.0981E-03     35.2417E-03    -3.85725E-03     1.71572E-03     467.444E-03    -232.057E-03    -234.764E-03    -230.861E-03     466.204E-03    -234.720E-03     58.1894E-03    -96.4168E+06    -116.159E+06    -194.909E+06    -116.537E+06    -194.530E+06    -96.4168E+06    -1.98627E+06         57.6237
            1156     1.58055E-03     5.22751E-03     35.8863E-03     1.26156E-03    -18.0851E-03    -11.7578E-03     29.5589E-03     1.26156E-03    -22.7105E-03     468.330E-03    -233.492E-03    -234.807E-03    -233.118E-03     467.718E-03    -234.569E-03     40.3431E-03    -113.311E+06    -126.142E+06    -224.296E+06    -123.958E+06    -224.199E+06    -115.591E+06    -1.58744E+06         57.5544
            1157     793.497E-06     5.27531E-03     73.8403E-03     20.5625E-03    -68.6946E-03    -50.5799E-03     16.1295E-03     60.1585E-03     45.4984E-03     468.596E-03    -233.012E-03    -236.241E-03    -232.995E-03     468.385E-03    -236.047E-03     22.8977E-03    -120.366E+06    -134.087E+06    -251.326E+06    -126.937E+06    -251.173E+06    -127.669E+06    -792.874E+03         57.5043
            1158     13.4574E-03     3.50043E-03     35.0347E-03    -7.48982E-03    -11.9936E-03    -9.12246E-03     33.0523E-03    -8.37853E-03     9.11356E-03     515.972E-03    -233.553E-03    -281.475E-03    -268.009E-03     502.506E-03    -233.553E-03     202.603E-03     63.3074E+06     46.0045E+06    -51.1076E+06    -26.2133E+06     21.1102E+06     63.3074E+06     6.86657E+06         79.8039
            1159     12.6873E-03     3.27084E-03     30.8460E-03    -6.46569E-03    -9.29429E-03    -6.50255E-03     29.9987E-03    -8.41008E-03     2.30601E-03     508.698E-03    -231.451E-03    -276.461E-03    -269.068E-03     501.306E-03    -231.451E-03     141.400E-03     70.1476E+06     48.3777E+06    -35.4993E+06    -22.0306E+06     34.9090E+06     70.1476E+06     5.56112E+06         76.2271
            1160     11.9176E-03     3.14603E-03     31.9431E-03    -6.67347E-03    -10.4520E-03    -8.05603E-03     31.3523E-03    -8.47866E-03    -1.14927E-03     479.457E-03    -229.233E-03    -249.909E-03    -246.817E-03     476.775E-03    -229.643E-03     79.5479E-03     74.7295E+06     44.6195E+06    -17.9386E+06    -15.5621E+06     42.2429E+06     74.7295E+06     4.56385E+06         71.7526
            1161     11.1346E-03     3.10204E-03     34.7248E-03    -8.42989E-03    -11.5524E-03    -10.3729E-03     33.5453E-03    -8.42989E-03     2.70805E-03     455.586E-03    -222.373E-03    -233.170E-03    -224.322E-03     453.950E-03    -229.585E-03     61.7286E-03     75.8532E+06     43.0306E+06    -19.4615E+06    -18.6909E+06     42.2599E+06     75.8532E+06     3.86381E+06         67.6387
            1162     10.3284E-03     3.08461E-03     32.5151E-03    -7.19109E-03    -10.0788E-03    -7.59107E-03     31.2303E-03    -8.39397E-03     10.7356E-03     446.459E-03    -215.963E-03    -231.067E-03    -213.327E-03     443.404E-03    -230.648E-03     85.0537E-03     77.2875E+06     41.8710E+06    -21.3761E+06    -21.2374E+06     41.7323E+06     77.2875E+06    -286.490E+03         64.5755
            1163     9.52237E-03     3.01847E-03     33.5293E-03    -7.25625E-03    -10.4072E-03    -7.58316E-03     31.9082E-03    -8.45913E-03    -2.84076E-03     440.959E-03    -208.561E-03    -232.455E-03    -205.271E-03     437.250E-03    -232.036E-03     95.8858E-03     70.3138E+06     39.2431E+06    -27.9808E+06    -27.7770E+06     39.0393E+06     70.3138E+06    -2.62021E+06         62.4313
            1164     8.70773E-03     3.04341E-03     37.9262E-03    -8.31028E-03    -14.1046E-03    -12.2540E-03     36.0756E-03    -8.31028E-03     2.57405E-03     432.044E-03    -196.614E-03    -234.874E-03    -193.770E-03     429.200E-03    -234.874E-03     83.4603E-03     56.0076E+06     29.3539E+06    -40.0472E+06    -39.8867E+06     29.1934E+06     56.0076E+06    -2.50236E+06         60.8268
            1165     7.88177E-03     3.08677E-03     40.5754E-03    -7.63838E-03    -18.7649E-03    -17.2237E-03     39.0342E-03    -7.63838E-03     2.44496E-03     432.661E-03    -193.471E-03    -238.779E-03    -190.260E-03     429.449E-03    -238.779E-03     89.2290E-03     45.0656E+06     20.5481E+06    -49.2841E+06    -48.8669E+06     20.1309E+06     45.0656E+06    -1.77162E+06         59.6125
            1166     7.05807E-03     3.12708E-03     41.9346E-03    -6.33128E-03    -22.1236E-03    -20.7218E-03     40.5327E-03    -6.33128E-03    -10.4229E-03     442.124E-03    -199.085E-03    -242.380E-03    -195.725E-03     438.764E-03    -242.380E-03     92.1213E-03     35.3333E+06     13.1392E+06    -54.5866E+06    -54.1041E+06     13.6763E+06     34.3137E+06    -1.91205E+06         58.8627
            1167     6.24169E-03     3.17127E-03     33.3230E-03    -4.88211E-03    -13.7232E-03    -11.7525E-03     31.5841E-03    -5.11392E-03    -2.64818E-03     454.770E-03    -206.939E-03    -246.357E-03    -203.683E-03     451.514E-03    -246.357E-03     91.7484E-03     18.1881E+06    -7.72864E+06    -60.9665E+06    -59.5150E+06    -8.16050E+06     17.1685E+06    -4.08754E+06         58.6118
            1168     5.43300E-03     3.23223E-03     29.2986E-03    -5.12022E-03    -8.76737E-03     2.68571E-03     18.0774E-03    -5.35203E-03    -6.10909E-03     469.282E-03    -216.487E-03    -251.202E-03    -213.427E-03     466.222E-03    -251.202E-03     90.2081E-03    -3.55524E+06    -42.1889E+06    -73.2481E+06    -66.0918E+06    -49.3452E+06    -3.55524E+06    -5.56986E+06         58.8339
            1169     4.63501E-03     3.30734E-03     32.6492E-03    -6.74733E-03    -10.4292E-03     4.07968E-03     18.2978E-03    -6.90484E-03     372.289E-06     483.462E-03    -227.419E-03    -255.837E-03    -224.663E-03     480.706E-03    -255.837E-03     87.0091E-03    -25.2020E+06    -68.6632E+06    -98.9822E+06    -73.1524E+06    -94.4930E+06    -25.2020E+06    -3.69230E+06         59.3914
            1170     3.84571E-03     3.38214E-03     31.5315E-03    -7.81654E-03    -10.1257E-03    -5.49926E-03     27.0625E-03    -7.97405E-03     8.86712E-03     497.650E-03    -238.420E-03    -259.855E-03    -236.094E-03     495.324E-03    -259.855E-03     81.3411E-03    -48.2256E+06    -81.1751E+06    -133.983E+06    -81.8460E+06    -133.312E+06    -48.2256E+06    -918.927E+03         60.0807
            1171     3.06697E-03     3.45279E-03     32.6210E-03    -7.61586E-03    -13.5789E-03    -6.39578E-03     26.0653E-03    -8.24334E-03     20.4487E-03     511.303E-03    -248.641E-03    -262.983E-03    -246.895E-03     509.557E-03    -262.983E-03     71.6337E-03    -68.9831E+06    -87.7978E+06    -167.471E+06    -88.1552E+06    -167.114E+06    -68.9831E+06     811.965E+03         60.7354
            1172     2.29394E-03     3.52298E-03     29.9210E-03    -2.46406E-03    -13.6557E-03     197.639E-06     23.4593E-03    -9.85567E-03     18.9827E-03     522.745E-03    -257.175E-03    -265.397E-03    -256.055E-03     521.624E-03    -265.397E-03     57.9822E-03    -86.6215E+06    -97.0754E+06    -201.127E+06    -97.3174E+06    -200.885E+06    -86.6215E+06     1.59749E+06         61.2530
            1173     1.52859E-03     3.57870E-03     36.4686E-03    -3.52526E-03    -16.6859E-03    -7.36631E-03     35.8512E-03    -12.2275E-03     7.41935E-03     530.533E-03    -263.375E-03    -267.211E-03    -262.813E-03     529.971E-03    -267.211E-03     40.7235E-03    -94.9144E+06    -103.044E+06    -225.868E+06    -101.025E+06    -225.606E+06    -97.1949E+06     1.90770E+06         61.6010
            1174     759.435E-06     3.61880E-03     72.9869E-03     2.92257E-03    -53.2667E-03    -30.6807E-03     47.4954E-03     5.82810E-03     55.0975E-03     535.209E-03    -266.349E-03    -269.531E-03    -266.163E-03     535.022E-03    -269.531E-03     22.1257E-03    -103.287E+06    -108.393E+06    -251.857E+06    -106.329E+06    -251.641E+06    -105.567E+06     374.520E+03         61.8022
            1175     13.4252E-03     1.81112E-03     36.7428E-03    -7.50758E-03    -12.2724E-03    -10.3348E-03     35.4042E-03    -8.10647E-03    -3.08187E-03     571.539E-03    -235.540E-03    -335.741E-03    -326.066E-03     561.865E-03    -235.540E-03     159.417E-03     79.4437E+06     47.9115E+06    -43.3666E+06    -9.93815E+06     15.5626E+06     78.3642E+06     13.8882E+06         79.8945
            1176     12.6899E-03     1.59872E-03     33.8099E-03    -6.05488E-03    -10.8713E-03    -7.89588E-03     32.7789E-03    -7.99928E-03    -6.78507E-03     503.458E-03    -229.962E-03    -274.121E-03    -269.920E-03     501.192E-03    -231.897E-03     55.1829E-03     92.1516E+06     41.2242E+06    -4.36536E+06     4.49849E+06     32.3603E+06     92.1516E+06    -9.90569E+06         76.5729
            1177     11.9253E-03     1.54606E-03     33.6552E-03    -6.11842E-03    -11.8329E-03    -9.28378E-03     32.9113E-03    -7.92361E-03    -4.77827E-03     460.770E-03    -222.811E-03    -239.304E-03    -230.801E-03     460.378E-03    -230.922E-03     26.9079E-03     91.5235E+06     48.8633E+06    -4.42646E+06    -1.66331E+06     46.1002E+06     91.5235E+06    -1.52190E+06         72.4675
            1178     11.1176E-03     1.55462E-03     35.3419E-03    -7.75126E-03    -12.3731E-03    -10.9478E-03     33.9166E-03    -7.75126E-03    -9.28072E-03     442.705E-03    -212.383E-03    -231.685E-03    -211.930E-03     442.252E-03    -231.685E-03     33.1276E-03     81.6395E+06     45.9611E+06    -10.7187E+06    -10.3398E+06     45.5822E+06     81.6395E+06    -3.00310E+06         68.6724
            1179     10.3012E-03     1.53989E-03     33.2651E-03    -6.38846E-03    -10.8031E-03    -8.39084E-03     32.0557E-03    -7.59135E-03    -7.47658E-03     431.511E-03    -198.722E-03    -233.638E-03    -197.298E-03     430.087E-03    -233.638E-03     55.3735E-03     69.2875E+06     42.6331E+06    -16.9864E+06    -16.5367E+06     42.1834E+06     69.2875E+06    -2.87459E+06         65.7513
            1180     9.46884E-03     1.48977E-03     31.4892E-03    -4.46479E-03    -9.47732E-03    -5.90816E-03     31.0727E-03    -7.61749E-03    -3.69911E-03     422.252E-03    -185.403E-03    -236.687E-03    -183.870E-03     420.719E-03    -236.687E-03     55.7324E-03     56.1830E+06     38.4348E+06    -24.2270E+06    -23.8586E+06     39.6742E+06     54.5752E+06     1.55047E+06         63.6703
            1181     8.62889E-03     1.53057E-03     31.4228E-03    -3.45965E-03    -11.5531E-03    -6.22026E-03     30.3964E-03    -7.76611E-03     3.42503E-03     425.240E-03    -183.192E-03    -241.695E-03    -181.983E-03     424.031E-03    -241.695E-03     48.7784E-03     42.0976E+06     24.5324E+06    -32.6374E+06    -32.2918E+06     30.3655E+06     35.9189E+06     738.279E+03         62.1818
            1182     7.79695E-03     1.55244E-03     31.2977E-03    -4.32435E-03    -11.9235E-03    -4.84277E-03     27.8977E-03    -8.00509E-03     11.2606E-03     437.563E-03    -190.282E-03    -247.483E-03    -188.687E-03     435.968E-03    -247.483E-03     57.4597E-03     29.9334E+06     11.9502E+06    -39.7595E+06    -39.2106E+06     21.4205E+06     19.9142E+06    -5.22644E+06         61.1573
            1183     6.97598E-03     1.57538E-03     34.3684E-03    -3.97807E-03    -16.1913E-03    -7.57218E-03     29.9509E-03    -8.17968E-03     15.2240E-03     450.918E-03    -197.695E-03    -252.555E-03    -196.126E-03     449.348E-03    -252.555E-03     58.0674E-03     17.9913E+06     2.59420E+06    -45.9885E+06    -44.7944E+06     13.5549E+06     5.83650E+06    -7.94644E+06         60.5720
            1184     6.15771E-03     1.59941E-03     35.8201E-03    -5.27997E-03    -15.9114E-03    -8.16360E-03     30.9498E-03    -8.15748E-03     14.8120E-03     467.005E-03    -206.660E-03    -258.279E-03    -205.263E-03     465.608E-03    -258.279E-03     55.7849E-03    -3.11351E+06    -16.1621E+06    -52.8612E+06    -50.7808E+06    -11.5360E+06    -9.82003E+06    -7.61094E+06         60.4228
            1185     5.34952E-03     1.62973E-03     38.9612E-03    -8.56124E-03    -14.2134E-03    -1.99130E-03     26.7391E-03    -8.56124E-03     9.57747E-03     485.620E-03    -218.507E-03    -265.199E-03    -217.286E-03     484.399E-03    -265.199E-03     52.9459E-03    -23.8108E+06    -45.7241E+06    -71.5648E+06    -57.8735E+06    -59.4155E+06    -23.8108E+06    -5.30008E+06         60.7560
            1186     4.55121E-03     1.66760E-03     40.6147E-03    -9.42140E-03    -16.9929E-03    -2.35312E-03     26.1324E-03    -9.57892E-03     18.6688E-03     504.699E-03    -232.656E-03    -272.284E-03    -231.583E-03     503.626E-03    -272.284E-03     50.5453E-03    -36.7466E+06    -64.3962E+06    -106.654E+06    -64.9831E+06    -106.067E+06    -36.7466E+06    -2.58683E+06         61.5345
            1187     3.76697E-03     1.71018E-03     40.0610E-03    -10.0216E-03    -18.6809E-03    -9.53097E-03     31.0686E-03    -10.1791E-03     5.49163E-03     525.037E-03    -247.418E-03    -279.070E-03    -246.488E-03     524.107E-03    -279.070E-03     48.1422E-03    -49.7484E+06    -70.4839E+06    -142.477E+06    -70.9648E+06    -141.996E+06    -49.7484E+06     193.799E+03         62.5887
            1188     2.99335E-03     1.74977E-03     39.9511E-03    -9.29000E-03    -21.7729E-03    -11.7256E-03     30.5313E-03    -9.91748E-03    -13.3317E-03     546.628E-03    -261.826E-03    -284.902E-03    -261.084E-03     545.885E-03    -284.902E-03     44.1701E-03    -61.1237E+06    -75.1063E+06    -173.242E+06    -75.3732E+06    -172.975E+06    -61.1237E+06     2.66155E+06         63.7105
            1189     2.23431E-03     1.78968E-03     33.1863E-03    -2.28395E-03    -22.4395E-03    -9.41813E-03     27.5565E-03    -9.67555E-03    -3.59007E-03     565.566E-03    -275.510E-03    -290.048E-03    -274.996E-03     565.052E-03    -290.048E-03     37.7346E-03    -69.8247E+06    -78.1539E+06    -202.558E+06    -78.3980E+06    -202.314E+06    -69.8247E+06     3.98506E+06         64.6940
            1190     1.48185E-03     1.82682E-03     34.3533E-03    -1.09582E-03    -20.3956E-03    -9.91732E-03     32.5773E-03    -9.79811E-03    -1.07155E-03     580.575E-03    -286.866E-03    -293.930E-03    -286.588E-03     580.296E-03    -293.930E-03     28.4540E-03    -76.8592E+06    -82.1043E+06    -223.485E+06    -82.2918E+06    -223.298E+06    -76.8592E+06     3.47562E+06         65.4032
            1191     743.759E-06     1.85222E-03     72.7560E-03    -11.9324E-03    -42.7438E-03     18.6137E-03     38.0826E-03    -38.6166E-03     17.4378E-03     590.354E-03    -293.751E-03    -296.605E-03    -294.006E-03     590.259E-03    -296.254E-03     16.6584E-03    -80.3414E+06    -84.1820E+06    -242.504E+06    -84.4464E+06    -241.743E+06    -80.8383E+06     4.16083E+06         65.8353
            1192     792.164E-06     88.6106E-03     91.1086E-03     41.1294E-03    -117.568E-03    -65.7795E-03     39.3197E-03     41.1294E-03    -52.6653E-03     463.677E-03    -231.215E-03    -232.377E-03    -232.372E-03     463.672E-03    -231.215E-03     3.62443E-03    -135.732E+06    -137.980E+06    -257.790E+06    -137.851E+06    -257.783E+06    -135.868E+06    -297.715E+03         57.2261
            1193     1.58480E-03     88.6101E-03     49.7184E-03    -8.32938E-03    -28.9873E-03     2.27757E-03     19.4810E-03    -9.35680E-03     48.0157E-03     464.160E-03    -231.820E-03    -232.982E-03    -232.969E-03     464.147E-03    -231.820E-03     5.84183E-03    -124.675E+06    -134.690E+06    -229.758E+06    -134.691E+06    -229.757E+06    -124.675E+06     43.1284E+03         57.4369
            1194     2.37662E-03     88.6102E-03     24.1812E-03    -2.01092E-03    -9.68717E-03     7.08788E-03     9.89377E-03    -4.49853E-03     756.978E-06     466.058E-03    -232.392E-03    -233.609E-03    -233.471E-03     466.016E-03    -232.488E-03     10.4300E-03    -105.529E+06    -128.469E+06    -202.744E+06    -128.488E+06    -202.725E+06    -105.529E+06     267.263E+03         57.7092
            1195     3.16880E-03     88.6174E-03     30.5491E-03    -1.02904E-03    -18.4389E-03    -2.21513E-03     15.7856E-03    -2.48924E-03     32.6949E-03     466.669E-03    -231.953E-03    -233.848E-03    -231.992E-03     466.549E-03    -233.688E-03     17.7756E-03    -83.9225E+06    -120.482E+06    -173.490E+06    -120.538E+06    -173.435E+06    -83.9225E+06     281.539E+03         57.9713
            1196     3.96125E-03     88.6381E-03     34.6821E-03    -3.16460E-03    -21.6516E-03    -11.1014E-03     24.1319E-03    -3.16460E-03     4.68720E-03     464.274E-03    -231.436E-03    -234.165E-03    -231.154E-03     463.992E-03    -234.165E-03     27.4822E-03    -60.3895E+06    -110.634E+06    -142.700E+06    -110.695E+06    -142.638E+06    -60.3895E+06     621.134E+03         58.1930
            1197     4.75407E-03     88.6684E-03     29.6178E-03    -4.16685E-03    -15.9180E-03    -8.02659E-03     21.7263E-03    -4.16685E-03     1.33094E-03     463.346E-03    -231.524E-03    -233.760E-03    -231.016E-03     462.839E-03    -233.760E-03     37.2727E-03    -36.0261E+06    -99.8799E+06    -113.191E+06    -99.9594E+06    -113.111E+06    -36.0261E+06     578.445E+03         58.4277
            1198     5.54692E-03     88.7148E-03     26.1539E-03    -4.38291E-03    -11.7348E-03    -4.68992E-03     19.1090E-03    -4.38291E-03     26.4836E-03     464.279E-03    -231.977E-03    -233.701E-03    -231.714E-03     463.439E-03    -233.125E-03     47.9636E-03    -13.3592E+06    -79.0946E+06    -91.3225E+06    -89.3461E+06    -81.0710E+06    -13.3592E+06    -16.3749E+03         58.7284
            1199     6.33925E-03     88.7765E-03     28.2493E-03    -4.46047E-03    -13.2881E-03    -7.73667E-03     22.6979E-03    -4.46047E-03     4.48283E-03     464.910E-03    -231.631E-03    -233.312E-03    -230.953E-03     463.656E-03    -232.735E-03     58.8973E-03     8.71110E+06    -30.5647E+06    -78.2926E+06    -78.2426E+06    -30.6147E+06     8.71110E+06    -564.594E+03         59.0799
            1200     7.13225E-03     88.8543E-03     30.8395E-03    -4.63486E-03    -15.6944E-03    -7.81710E-03     22.9622E-03    -4.63486E-03     12.0925E-03     466.074E-03    -231.269E-03    -233.144E-03    -229.594E-03     464.400E-03    -233.144E-03     68.1109E-03     25.8940E+06     7.35579E+06    -67.7641E+06    -67.7136E+06     7.30531E+06     25.8940E+06    -1.18159E+06         59.4959
            1201     7.92577E-03     88.9471E-03     25.3244E-03    -4.50288E-03    -10.5371E-03    -3.52281E-03     18.3101E-03    -4.50288E-03     24.2250E-03     466.061E-03    -231.744E-03    -233.213E-03    -230.266E-03     463.886E-03    -232.515E-03     77.6663E-03     38.6765E+06     17.6656E+06    -58.0936E+06    -58.0405E+06     17.6126E+06     38.6765E+06    -1.07325E+06         60.0676
            1202     8.71909E-03     89.0487E-03     19.0456E-03    -2.10499E-03    -7.27603E-03    -1.98435E-03     15.7586E-03    -4.10966E-03     9.24091E-03     465.644E-03    -232.629E-03    -233.667E-03    -230.718E-03     463.037E-03    -232.970E-03     85.1892E-03     51.0371E+06     25.1475E+06    -48.8284E+06    -48.7630E+06     25.0820E+06     51.0371E+06    -387.200E+03         60.9531
            1203     9.51150E-03     89.1662E-03     17.3701E-03    -268.265E-06    -7.27870E-03    -1.52600E-03     15.0935E-03    -3.74439E-03     4.29837E-03     467.524E-03    -232.994E-03    -234.227E-03    -230.737E-03     464.375E-03    -233.335E-03     93.6003E-03     61.3133E+06     26.5616E+06    -40.2989E+06    -40.1891E+06     26.4518E+06     61.3133E+06    -120.525E+03         62.3182
            1204     10.3038E-03     89.3025E-03     18.3251E-03    -1.99891E-03    -5.69939E-03    -1.23204E-03     15.3292E-03    -3.47037E-03     6.95393E-03     468.519E-03    -232.670E-03    -235.027E-03    -231.164E-03     464.656E-03    -232.670E-03     103.889E-03     69.6743E+06     27.8371E+06    -32.5624E+06    -32.3648E+06     27.6395E+06     69.6743E+06    -421.077E+03         64.3938
            1205     11.0982E-03     89.4431E-03     23.0922E-03    -3.31536E-03    -7.94346E-03    -2.68004E-03     17.8287E-03    -3.31536E-03    -7.17587E-03     470.054E-03    -232.358E-03    -236.787E-03    -232.024E-03     465.291E-03    -232.358E-03     115.456E-03     76.0647E+06     36.7903E+06    -24.7435E+06    -24.5584E+06     36.6052E+06     76.0647E+06    -9.10353E+03         67.4736
            1206     11.8904E-03     89.6147E-03     24.4184E-03    -3.14825E-03    -8.54563E-03    -3.84557E-03     19.8772E-03    -3.30718E-03    -5.18381E-03     469.944E-03    -232.722E-03    -237.178E-03    -231.942E-03     464.708E-03    -232.722E-03     121.233E-03     80.7443E+06     45.6377E+06    -17.3559E+06    -17.1745E+06     45.4563E+06     80.7443E+06     580.158E+03         71.5840
            1207     12.6836E-03     89.7866E-03     23.9563E-03    -3.25838E-03    -7.83142E-03    -4.96389E-03     21.2477E-03    -3.41731E-03    -4.48611E-03     473.353E-03    -232.787E-03    -240.911E-03    -232.704E-03     465.146E-03    -232.787E-03     149.577E-03     83.8205E+06     48.9552E+06    -10.8538E+06    -10.6242E+06     48.7256E+06     83.8205E+06     359.253E+03         76.1404
            1208     13.4768E-03     90.0577E-03     24.5779E-03    -3.59321E-03    -8.30321E-03    -6.05742E-03     22.3321E-03    -3.59321E-03    -12.4502E-03     473.994E-03    -232.608E-03    -241.602E-03    -233.724E-03     466.116E-03    -232.608E-03     145.734E-03     86.8654E+06     49.7224E+06    -5.04922E+06    -4.90821E+06     49.5814E+06     86.8654E+06    -3.01737E+03         80.0201
            1209     792.450E-06     90.2028E-03     72.8334E-03     6.90668E-03    -66.3752E-03    -18.3746E-03     25.7456E-03     5.99385E-03    -69.9474E-03     463.510E-03    -230.882E-03    -232.428E-03    -232.426E-03     463.507E-03    -230.882E-03     2.57018E-03    -135.218E+06    -138.438E+06    -258.246E+06    -137.808E+06    -258.231E+06    -135.863E+06    -355.692E+03         57.2165
            1210     1.58445E-03     90.2081E-03     37.9978E-03    -3.88158E-03    -20.6174E-03     633.835E-06     17.6595E-03    -4.79442E-03     6.54435E-03     464.353E-03    -231.823E-03    -233.019E-03    -233.006E-03     464.340E-03    -231.823E-03     5.50056E-03    -124.118E+06    -134.217E+06    -230.479E+06    -134.219E+06    -230.477E+06    -124.118E+06     233.145E+03         57.4309
            1211     2.37676E-03     90.2121E-03     26.4673E-03    -1.98468E-03    -12.6681E-03     6.76547E-03     7.03373E-03    -1.98468E-03    -14.6807E-03     466.323E-03    -232.499E-03    -233.758E-03    -233.698E-03     466.278E-03    -232.514E-03     10.7809E-03    -105.641E+06    -127.856E+06    -203.323E+06    -127.874E+06    -203.305E+06    -105.641E+06     351.733E+03         57.7039
            1212     3.16817E-03     90.2196E-03     28.5746E-03     182.415E-06    -17.5229E-03     5.93162E-03     5.12010E-03     182.415E-06     26.8250E-03     467.062E-03    -232.087E-03    -233.929E-03    -232.121E-03     466.935E-03    -233.769E-03     18.2925E-03    -82.8341E+06    -119.332E+06    -173.776E+06    -119.392E+06    -173.716E+06    -82.8341E+06     428.356E+03         57.9643
            1213     3.96099E-03     90.2380E-03     30.9125E-03     844.106E-06    -22.2740E-03     205.726E-06     8.43280E-03     844.106E-06     2.41465E-03     464.541E-03    -231.494E-03    -234.217E-03    -231.210E-03     464.258E-03    -234.217E-03     27.6281E-03    -59.2990E+06    -109.866E+06    -142.987E+06    -109.946E+06    -142.907E+06    -59.2990E+06     262.904E+03         58.1849
            1214     4.75427E-03     90.2638E-03     28.9479E-03     68.9593E-06    -19.9963E-03    -9.02061E-03     17.9722E-03     68.9593E-06    -3.19824E-03     463.320E-03    -231.457E-03    -233.756E-03    -230.949E-03     462.813E-03    -233.756E-03     37.2574E-03    -35.4639E+06    -99.0477E+06    -112.661E+06    -99.1487E+06    -112.560E+06    -35.4639E+06     76.4960E+03         58.4193
            1215     5.54662E-03     90.3080E-03     25.3950E-03    -1.26900E-03    -13.8411E-03    -10.3535E-03     21.9074E-03    -1.26900E-03     19.4963E-03     464.057E-03    -231.900E-03    -233.589E-03    -231.493E-03     463.205E-03    -233.143E-03     48.2623E-03    -12.4533E+06    -77.9914E+06    -90.1916E+06    -88.0647E+06    -80.1183E+06    -12.4533E+06    -46.7975E+03         58.7212
            1216     6.34017E-03     90.3670E-03     20.6299E-03    -1.95275E-03    -7.72639E-03    -3.51155E-03     16.4151E-03    -1.95275E-03    -8.08223E-03     464.759E-03    -231.660E-03    -233.176E-03    -230.843E-03     463.496E-03    -232.730E-03     59.1172E-03     9.57309E+06    -30.0379E+06    -77.5714E+06    -77.5383E+06    -30.0710E+06     9.57309E+06    -142.919E+03         59.0762
            1217     7.13203E-03     90.4531E-03     19.5985E-03    -2.00474E-03    -7.05868E-03    -2.01969E-03     14.5595E-03    -2.00474E-03    -4.45404E-03     466.341E-03    -231.520E-03    -233.157E-03    -229.850E-03     464.670E-03    -233.157E-03     68.0664E-03     26.9632E+06     7.85944E+06    -67.4793E+06    -67.4202E+06     7.80034E+06     26.9632E+06    -32.0099E+03         59.4957
            1218     7.92569E-03     90.5395E-03     20.2932E-03    -2.03940E-03    -8.37852E-03    -3.31684E-03     15.2315E-03    -2.03940E-03    -3.64213E-03     466.413E-03    -231.976E-03    -233.407E-03    -230.675E-03     464.247E-03    -232.543E-03     77.5446E-03     38.8835E+06     17.5782E+06    -58.1630E+06    -58.0982E+06     17.5133E+06     38.8835E+06    -13.9819E+03         60.0677
            1219     8.71977E-03     90.6335E-03     21.2548E-03    -2.09644E-03    -9.93097E-03    -2.83737E-03     14.1612E-03    -2.09644E-03    -3.73840E-03     465.550E-03    -232.468E-03    -233.801E-03    -230.717E-03     462.935E-03    -232.936E-03     85.2933E-03     49.6593E+06     24.5266E+06    -49.2800E+06    -49.2301E+06     24.4767E+06     49.6593E+06    -74.4406E+03         60.9495
            1220     9.51005E-03     90.7727E-03     20.3056E-03    -2.20355E-03    -9.06372E-03    -5.94594E-03     17.1878E-03    -2.20355E-03     6.49674E-03     467.213E-03    -232.837E-03    -234.220E-03    -230.583E-03     464.045E-03    -233.305E-03     93.8704E-03     60.0265E+06     26.5356E+06    -40.5080E+06    -40.3875E+06     26.4150E+06     60.0265E+06    -207.980E+03         62.3132
            1221     10.3047E-03     90.8895E-03     21.7183E-03    -2.41482E-03    -9.25771E-03    -6.76627E-03     19.2269E-03    -2.41482E-03     11.0174E-03     468.704E-03    -232.686E-03    -235.313E-03    -231.462E-03     464.853E-03    -232.686E-03     103.779E-03     69.4758E+06     28.4162E+06    -32.2395E+06    -32.0374E+06     28.2142E+06     69.4758E+06    -571.549E+03         64.3920
            1222     11.0958E-03     91.0502E-03     25.3021E-03    -2.68473E-03    -11.2414E-03    -8.37219E-03     22.4329E-03    -2.68473E-03     6.50768E-03     470.185E-03    -232.308E-03    -237.082E-03    -232.338E-03     465.440E-03    -232.308E-03     115.250E-03     75.7148E+06     36.1966E+06    -24.7161E+06    -24.4419E+06     35.9223E+06     75.7148E+06    -836.431E+03         67.4778
            1223     11.8927E-03     91.1862E-03     26.9753E-03    -3.04830E-03    -11.2184E-03    -10.3644E-03     26.1213E-03    -3.04830E-03     555.188E-06     469.785E-03    -232.717E-03    -237.017E-03    -231.793E-03     464.560E-03    -232.717E-03     121.081E-03     80.0197E+06     44.8323E+06    -17.2997E+06    -17.0548E+06     44.5874E+06     80.0197E+06    -458.226E+03         71.5932
            1224     12.6799E-03     91.4136E-03     26.3000E-03    -3.35253E-03    -9.64192E-03    -7.97917E-03     24.6372E-03    -3.35253E-03     2.41321E-03     473.499E-03    -232.863E-03    -240.647E-03    -232.451E-03     465.303E-03    -232.863E-03     149.455E-03     83.0359E+06     49.3086E+06    -10.7896E+06    -10.5956E+06     49.1146E+06     83.0359E+06     113.447E+03         76.1530
            1225     13.4779E-03     91.6414E-03     26.0146E-03    -3.57012E-03    -9.93339E-03    -8.38570E-03     24.4669E-03    -3.57012E-03    -4.18082E-03     474.210E-03    -232.623E-03    -241.487E-03    -233.599E-03     466.323E-03    -232.623E-03     145.873E-03     86.0789E+06     49.9595E+06    -5.41802E+06    -5.26756E+06     49.8090E+06     86.0789E+06     207.907E+03         80.0441
            1226     791.862E-06     91.7967E-03     95.6166E-03    -28.6907E-03    -55.7514E-03     35.7128E-03     20.1438E-03    -44.6821E-03    -78.9050E-03     463.668E-03    -231.234E-03    -232.204E-03    -232.042E-03     463.666E-03    -231.393E-03     2.46620E-03    -134.305E+06    -137.998E+06    -257.568E+06    -137.376E+06    -257.544E+06    -134.950E+06    -98.8279E+03         57.2145
            1227     1.58447E-03     91.7975E-03     40.4660E-03    -3.68163E-03    -25.9840E-03    -5.01216E-03     20.4070E-03    -4.59447E-03    -9.03987E-03     464.347E-03    -231.818E-03    -233.073E-03    -233.061E-03     464.334E-03    -231.818E-03     5.50276E-03    -124.035E+06    -133.707E+06    -231.297E+06    -133.710E+06    -231.294E+06    -124.035E+06     48.8935E+03         57.4253
            1228     2.37670E-03     91.8034E-03     34.5179E-03    -4.88071E-03    -18.2165E-03    -5.87505E-03     22.1764E-03    -4.88071E-03    -30.4238E-03     465.977E-03    -232.446E-03    -233.549E-03    -233.396E-03     465.934E-03    -232.556E-03     10.5141E-03    -106.077E+06    -127.714E+06    -202.918E+06    -127.720E+06    -202.912E+06    -106.077E+06    -103.755E+03         57.6916
            1229     3.16960E-03     91.8090E-03     23.3303E-03    -3.62003E-03    -9.29906E-03     1.40797E-03     13.3728E-03    -4.36962E-03     3.31881E-03     466.902E-03    -232.087E-03    -233.685E-03    -231.964E-03     466.779E-03    -233.685E-03     17.9648E-03    -83.4670E+06    -119.479E+06    -174.276E+06    -119.527E+06    -174.228E+06    -83.4670E+06     59.7765E+03         57.9483
            1230     3.96102E-03     91.8297E-03     22.9563E-03    -868.384E-06    -12.0119E-03     5.85448E-03     7.09368E-03    -2.87213E-03    -15.7941E-03     464.749E-03    -231.751E-03    -234.150E-03    -231.464E-03     464.462E-03    -234.150E-03     27.7713E-03    -58.6227E+06    -109.217E+06    -142.788E+06    -109.283E+06    -142.723E+06    -58.6227E+06     67.5784E+03         58.1719
            1231     4.75349E-03     91.8570E-03     22.8433E-03     744.788E-06    -14.3149E-03     392.878E-06     10.8219E-03    -1.94152E-03    -11.3899E-03     463.256E-03    -231.470E-03    -233.761E-03    -230.953E-03     462.738E-03    -233.761E-03     37.6216E-03    -35.0617E+06    -98.9787E+06    -112.518E+06    -99.0895E+06    -112.407E+06    -35.0617E+06    -66.9662E+03         58.4107
            1232     5.54743E-03     91.9035E-03     24.6371E-03    -484.462E-06    -13.9114E-03    -2.46995E-03     14.6278E-03    -1.91662E-03    -3.23067E-03     463.842E-03    -231.746E-03    -233.549E-03    -231.322E-03     462.995E-03    -233.126E-03     48.1814E-03    -12.8351E+06    -78.5808E+06    -90.7215E+06    -88.6807E+06    -80.6216E+06    -12.8351E+06     136.379E+03         58.7156
            1233     6.34006E-03     91.9676E-03     26.0512E-03    -2.07439E-03    -12.6965E-03    -2.52955E-03     15.8842E-03    -2.07439E-03    -23.8533E-03     464.900E-03    -231.751E-03    -233.116E-03    -230.920E-03     463.647E-03    -232.693E-03     58.8771E-03     9.19718E+06    -30.3160E+06    -77.9736E+06    -77.9381E+06    -30.3514E+06     9.19718E+06     403.684E+03         59.0736
            1234     7.13258E-03     92.0457E-03     21.5890E-03    -1.26306E-03    -8.75466E-03    -1.38160E-03     15.0721E-03    -2.11924E-03    -12.6404E-03     466.668E-03    -231.822E-03    -233.148E-03    -230.149E-03     464.995E-03    -233.148E-03     68.1352E-03     26.6210E+06     7.75552E+06    -67.5051E+06    -67.4494E+06     7.69984E+06     26.6210E+06     724.693E+03         59.4959
            1235     7.92524E-03     92.1396E-03     19.2624E-03    -824.052E-06    -7.38825E-03     739.746E-06     12.2830E-03    -1.97265E-03    -9.81670E-03     466.584E-03    -232.177E-03    -233.415E-03    -230.870E-03     464.424E-03    -232.561E-03     77.4849E-03     38.2634E+06     18.0089E+06    -57.5154E+06    -57.4607E+06     17.9543E+06     38.2634E+06     570.165E+03         60.0701
            1236     8.71810E-03     92.2393E-03     21.6134E-03    -1.57665E-03    -9.62319E-03    -2.18728E-03     14.4699E-03    -1.86906E-03    -4.20123E-03     465.393E-03    -232.329E-03    -233.786E-03    -230.592E-03     462.802E-03    -232.932E-03     84.8869E-03     49.8805E+06     25.4115E+06    -47.8505E+06    -47.7929E+06     25.3539E+06     49.8805E+06     184.294E+03         60.9545
            1237     9.51103E-03     92.3635E-03     22.6748E-03    -2.03647E-03    -10.7971E-03    -4.45058E-03     16.3283E-03    -2.03647E-03    -3.48984E-03     467.203E-03    -232.734E-03    -234.311E-03    -230.568E-03     464.063E-03    -233.337E-03     93.4513E-03     61.1272E+06     27.2188E+06    -39.2856E+06    -39.1776E+06     27.1108E+06     61.1272E+06    -307.898E+03         62.3240
            1238     10.3051E-03     92.4838E-03     23.0417E-03    -2.38924E-03    -10.7363E-03    -6.37280E-03     18.6782E-03    -2.38924E-03    -2.26630E-03     469.028E-03    -232.746E-03    -235.369E-03    -231.527E-03     465.186E-03    -232.746E-03     103.670E-03     70.6393E+06     28.8286E+06    -31.3244E+06    -31.1664E+06     28.6706E+06     70.6393E+06    -453.114E+03         64.4084
            1239     11.0965E-03     92.6312E-03     24.6995E-03    -2.76962E-03    -11.6451E-03    -6.16450E-03     19.2189E-03    -2.76962E-03    -3.31694E-03     470.185E-03    -232.270E-03    -237.065E-03    -232.284E-03     465.403E-03    -232.270E-03     115.663E-03     76.5529E+06     36.7391E+06    -23.7474E+06    -23.5347E+06     36.5264E+06     76.5529E+06    -931.729E+03         67.4986
            1240     11.8931E-03     92.7735E-03     22.8883E-03    -1.97743E-03    -10.0663E-03    -2.18233E-03     15.9591E-03    -2.93223E-03    -7.63169E-03     469.712E-03    -232.633E-03    -236.953E-03    -231.682E-03     464.441E-03    -232.633E-03     121.595E-03     79.5122E+06     44.1038E+06    -17.5403E+06    -17.3232E+06     43.8867E+06     79.5122E+06    -795.968E+03         71.6148
            1241     12.6812E-03     92.9824E-03     20.9351E-03    -1.99078E-03    -7.91264E-03    -4.12708E-03     18.1044E-03    -2.94558E-03     4.42853E-03     473.764E-03    -232.837E-03    -240.702E-03    -232.529E-03     465.592E-03    -232.837E-03     149.344E-03     82.2497E+06     47.0998E+06    -11.4253E+06    -11.2392E+06     46.9137E+06     82.2497E+06     23.6061E+03         76.1706
            1242     13.4779E-03     93.2196E-03     23.3747E-03    -3.07459E-03    -8.60881E-03    -8.10367E-03     22.8695E-03    -3.07459E-03     4.02727E-03     474.275E-03    -232.622E-03    -241.534E-03    -233.686E-03     466.427E-03    -232.622E-03     145.569E-03     86.0714E+06     49.6789E+06    -5.35494E+06    -5.21223E+06     49.5362E+06     86.0714E+06     83.8196E+03         80.0640
            1243     792.598E-06     93.3900E-03     147.969E-03    -45.0782E-03    -96.5240E-03     68.3592E-03    -348.069E-06    -61.6440E-03    -71.3850E-03     464.164E-03    -231.714E-03    -232.314E-03    -231.936E-03     464.162E-03    -232.090E-03     2.24035E-03    -135.330E+06    -140.367E+06    -257.809E+06    -139.278E+06    -257.783E+06    -136.445E+06     23.7755E+03         57.2240
            1244     1.58391E-03     93.3938E-03     55.6050E-03     1.04608E-03    -48.2888E-03    -8.26781E-03     15.5840E-03     1.04608E-03     35.0977E-03     464.303E-03    -231.989E-03    -232.957E-03    -232.946E-03     464.292E-03    -231.989E-03     5.20062E-03    -124.428E+06    -135.374E+06    -231.990E+06    -135.379E+06    -231.985E+06    -124.428E+06     208.581E+03         57.4304
            1245     2.37625E-03     93.3923E-03     35.5298E-03    -2.41984E-03    -23.5072E-03    -9.27922E-03     21.3019E-03    -2.41984E-03    -14.9530E-03     465.640E-03    -232.432E-03    -233.301E-03    -233.133E-03     465.597E-03    -232.557E-03     10.4089E-03    -106.016E+06    -128.663E+06    -202.308E+06    -128.665E+06    -202.305E+06    -106.016E+06     162.556E+03         57.6951
            1246     3.16877E-03     93.3988E-03     29.7390E-03    -3.44739E-03    -16.0463E-03    -9.50754E-03     23.9498E-03    -4.19699E-03     27.1553E-03     466.446E-03    -231.835E-03    -233.591E-03    -231.711E-03     466.323E-03    -233.591E-03     18.0328E-03    -83.4753E+06    -120.229E+06    -173.709E+06    -120.245E+06    -173.693E+06    -83.4753E+06    -394.556E+03         57.9553
            1247     3.96214E-03     93.4155E-03     27.4021E-03    -3.14836E-03    -13.9731E-03    -8.51131E-03     23.9441E-03    -5.15211E-03     6.55430E-03     464.254E-03    -231.388E-03    -234.043E-03    -231.100E-03     463.966E-03    -234.043E-03     27.7706E-03    -60.0241E+06    -110.668E+06    -143.559E+06    -110.691E+06    -143.536E+06    -60.0241E+06    -451.800E+03         58.1846
            1248     4.75521E-03     93.4409E-03     21.7251E-03    -2.32378E-03    -10.3859E-03     438.637E-06     13.5869E-03    -5.01009E-03     4.71678E-03     463.320E-03    -231.607E-03    -233.705E-03    -231.092E-03     462.806E-03    -233.705E-03     37.5477E-03    -35.7942E+06    -99.9152E+06    -112.540E+06    -100.024E+06    -112.431E+06    -35.7942E+06     420.640E+03         58.4272
            1249     5.54738E-03     93.4884E-03     24.7710E-03    -2.41503E-03    -13.3135E-03     6.14870E-03     6.74103E-03    -3.84720E-03     7.52169E-03     464.172E-03    -232.026E-03    -233.597E-03    -231.695E-03     463.343E-03    -233.099E-03     47.6986E-03    -13.0974E+06    -78.7930E+06    -91.2352E+06    -89.6245E+06    -80.4037E+06    -13.0974E+06     459.125E+03         58.7346
            1250     6.34013E-03     93.5505E-03     26.4767E-03    -1.91429E-03    -14.0673E-03     2.93960E-03     10.3350E-03    -2.77950E-03    -6.91152E-03     465.015E-03    -231.735E-03    -233.158E-03    -230.998E-03     463.780E-03    -232.659E-03     58.4206E-03     8.18492E+06    -30.8101E+06    -78.8150E+06    -78.7685E+06    -30.8567E+06     8.18492E+06     147.982E+03         59.0931
            1251     7.13273E-03     93.6305E-03     19.6584E-03    -527.319E-06    -7.74413E-03     475.522E-06     13.1601E-03    -2.24872E-03    -10.5022E-03     466.617E-03    -231.684E-03    -233.084E-03    -230.015E-03     464.949E-03    -233.084E-03     68.0322E-03     25.2825E+06     7.20276E+06    -67.6821E+06    -67.6350E+06     7.15571E+06     25.2825E+06     115.624E+03         59.5141
            1252     7.92583E-03     93.7172E-03     18.9434E-03    -974.630E-06    -6.26341E-03    -2.88242E-03     16.7110E-03    -2.12323E-03    -2.92174E-03     466.548E-03    -232.047E-03    -233.390E-03    -230.742E-03     464.375E-03    -232.522E-03     77.6791E-03     38.2004E+06     18.2317E+06    -57.1925E+06    -57.1523E+06     18.1915E+06     38.2004E+06     102.255E+03         60.0882
            1253     8.71854E-03     93.8236E-03     23.4793E-03    -2.19751E-03    -9.31681E-03    -8.80683E-03     23.2617E-03    -2.48992E-03     1.38703E-03     465.769E-03    -232.649E-03    -233.822E-03    -230.914E-03     463.167E-03    -232.955E-03     85.1145E-03     51.3338E+06     26.0191E+06    -47.7493E+06    -47.6844E+06     25.9542E+06     51.3338E+06     94.3155E+03         60.9745
            1254     9.51031E-03     93.9433E-03     26.8646E-03    -3.09940E-03    -12.2513E-03    -8.96134E-03     23.5747E-03    -3.09940E-03    -10.8322E-03     467.260E-03    -233.069E-03    -234.165E-03    -230.709E-03     464.110E-03    -233.375E-03     93.5874E-03     62.4227E+06     27.5664E+06    -39.2454E+06    -39.1644E+06     27.4854E+06     62.4227E+06     25.8219E+03         62.3426
            1255     10.3049E-03     94.0672E-03     25.2964E-03    -3.41040E-03    -10.9982E-03    -3.35650E-03     17.6547E-03    -3.41040E-03     1.29554E-03     468.487E-03    -232.759E-03    -234.946E-03    -231.068E-03     464.609E-03    -232.759E-03     104.077E-03     70.9319E+06     28.8385E+06    -31.4172E+06    -31.3055E+06     28.7268E+06     70.9319E+06    -368.226E+03         64.4250
            1256     11.0969E-03     94.2189E-03     22.8067E-03    -3.30667E-03    -9.59070E-03    -647.724E-06     13.8982E-03    -3.34112E-03    -583.621E-06     470.015E-03    -232.273E-03    -236.874E-03    -232.091E-03     465.233E-03    -232.273E-03     115.685E-03     76.8276E+06     36.9508E+06    -24.3502E+06    -24.2561E+06     36.8567E+06     76.8276E+06    -267.361E+03         67.5197
            1257     11.8938E-03     94.3577E-03     21.0450E-03    -2.17119E-03    -8.98333E-03    -442.755E-06     13.4936E-03    -3.16043E-03    -6.08748E-03     469.835E-03    -232.539E-03    -237.305E-03    -232.064E-03     464.594E-03    -232.539E-03     121.297E-03     80.2922E+06     43.9450E+06    -17.6482E+06    -17.5569E+06     43.8537E+06     80.2922E+06    -221.883E+03         71.6381
            1258     12.6812E-03     94.5639E-03     18.5533E-03    -2.11529E-03    -6.58578E-03    -1.86348E-03     14.7858E-03    -3.07008E-03     8.72836E-03     473.823E-03    -232.736E-03    -240.982E-03    -232.830E-03     465.671E-03    -232.736E-03     149.191E-03     83.0598E+06     46.4423E+06    -11.1416E+06    -10.9135E+06     46.2142E+06     83.0598E+06    -682.698E+03         76.1899
            1259     13.4774E-03     94.8036E-03     18.6271E-03    -3.14185E-03    -6.58533E-03    -4.02074E-03     16.0625E-03    -3.14185E-03    -2.63731E-03     474.139E-03    -232.621E-03    -241.467E-03    -233.642E-03     466.314E-03    -232.621E-03     145.326E-03     86.1362E+06     49.4095E+06    -5.29016E+06    -5.07485E+06     49.1942E+06     86.1362E+06    -253.507E+03         80.0817
            1260     791.015E-06     94.9865E-03     164.121E-03    -41.1707E-03    -119.056E-03     86.8319E-03    -4.09949E-03    -78.8385E-03    -65.1070E-03     464.239E-03    -231.882E-03    -232.441E-03    -232.221E-03     464.235E-03    -232.099E-03     2.65660E-03    -134.984E+06    -140.123E+06    -258.299E+06    -139.061E+06    -258.245E+06    -136.100E+06     138.587E+03         57.2397
            1261     1.58377E-03     94.9863E-03     62.5929E-03     3.41521E-03    -58.9156E-03     1.12085E-03     2.55647E-03     3.41521E-03     32.5804E-03     464.237E-03    -232.006E-03    -232.668E-03    -232.656E-03     464.225E-03    -232.006E-03     5.23010E-03    -124.481E+06    -134.648E+06    -231.946E+06    -134.660E+06    -231.934E+06    -124.481E+06    -112.006E+03         57.4468
            1262     2.37674E-03     94.9847E-03     39.9355E-03     2.00787E-03    -32.0321E-03    -2.98357E-03     10.8869E-03     2.00787E-03    -20.0576E-03     465.767E-03    -232.481E-03    -233.178E-03    -233.040E-03     465.722E-03    -232.574E-03     10.7370E-03    -105.873E+06    -127.803E+06    -202.106E+06    -127.805E+06    -202.104E+06    -105.873E+06    -30.3567E+03         57.7142
            1263     3.16939E-03     94.9891E-03     30.2048E-03     85.0128E-06    -18.8342E-03    -8.66418E-03     20.0348E-03     85.0128E-06     27.4340E-03     466.373E-03    -231.841E-03    -233.657E-03    -231.720E-03     466.252E-03    -233.657E-03     17.9291E-03    -82.5371E+06     -119.35E+06    -173.805E+06    -119.370E+06    -173.785E+06    -82.5371E+06     237.271E+03         57.9795
            1264     3.96198E-03     95.0045E-03     28.2651E-03    -1.58626E-03    -15.7428E-03    -7.65757E-03     20.1799E-03    -1.58626E-03    -4.78748E-03     464.106E-03    -231.296E-03    -234.034E-03    -231.020E-03     463.829E-03    -234.034E-03     27.2076E-03    -58.7636E+06    -110.494E+06    -143.377E+06    -110.521E+06    -143.350E+06    -58.7636E+06     369.229E+03         58.2141
            1265     4.75506E-03     95.0309E-03     26.0061E-03    -2.36864E-03    -14.7449E-03    -5.37939E-03     16.6406E-03    -2.36864E-03    -466.485E-06     463.328E-03    -231.652E-03    -233.654E-03    -231.152E-03     462.827E-03    -233.654E-03     37.0316E-03    -36.1909E+06    -100.232E+06    -113.285E+06    -100.393E+06    -113.124E+06    -36.1909E+06    -230.423E+03         58.4601
            1266     5.54736E-03     95.0756E-03     24.3236E-03    -2.45868E-03    -13.9167E-03    -1.62061E-03     12.0275E-03    -2.45868E-03     12.5069E-03     464.373E-03    -232.085E-03    -233.693E-03    -231.879E-03     463.546E-03    -233.073E-03     47.6073E-03    -14.1634E+06    -78.2946E+06    -91.3503E+06    -88.9553E+06    -80.6897E+06    -14.1634E+06    -120.767E+03         58.7701
            1267     6.33956E-03     95.1373E-03     19.4045E-03    -1.22703E-03    -9.53597E-03     1.58760E-03     9.14614E-03    -2.09224E-03     5.08051E-03     464.996E-03    -231.630E-03    -233.300E-03    -231.008E-03     463.754E-03    -232.680E-03     58.5900E-03     7.48729E+06    -30.3386E+06    -78.2417E+06    -78.2043E+06    -30.3761E+06     7.48729E+06     87.0995E+03         59.1297
            1268     7.13272E-03     95.2152E-03     19.2704E-03    -1.10750E-03    -7.49854E-03    -4.37695E-03     17.0140E-03    -1.97272E-03    -1.10074E-03     466.222E-03    -231.416E-03    -233.071E-03    -229.734E-03     464.540E-03    -233.071E-03     68.2807E-03     25.2436E+06     7.13802E+06    -67.9000E+06    -67.8471E+06     7.08512E+06     25.2436E+06    -251.246E+03         59.5504
            1269     7.92658E-03     95.2999E-03     23.6713E-03    -2.41301E-03    -9.01179E-03    -8.80160E-03     23.4938E-03    -2.44566E-03     264.997E-06     466.428E-03    -231.860E-03    -233.441E-03    -230.637E-03     464.230E-03    -232.465E-03     78.1347E-03     38.7699E+06     17.8742E+06    -57.8323E+06    -57.7859E+06     17.8277E+06     38.7699E+06    -275.719E+03         60.1238
            1270     8.71903E-03     95.4092E-03     24.4224E-03    -2.83549E-03    -8.43452E-03    -4.98966E-03     21.0102E-03    -2.86813E-03     10.0923E-03     465.968E-03    -232.731E-03    -233.920E-03    -231.073E-03     463.333E-03    -232.944E-03     85.6735E-03     51.2454E+06     25.5118E+06    -48.4194E+06    -48.3657E+06     25.4581E+06     51.2454E+06     50.4103E+03         61.0055
            1271     9.51140E-03     95.5256E-03     24.7534E-03    -2.97285E-03    -9.40991E-03    -4.64166E-03     19.9852E-03    -2.97285E-03     1.47788E-03     467.217E-03    -233.162E-03    -234.152E-03    -230.758E-03     464.036E-03    -233.374E-03     94.0638E-03     62.1210E+06     27.5559E+06    -39.6134E+06    -39.5396E+06     27.4821E+06     62.1210E+06     81.5781E+03         62.3634
            1272     10.3058E-03     95.6456E-03     24.8540E-03    -2.97823E-03    -10.1817E-03    -4.38521E-03     19.0575E-03    -2.97823E-03     5.03505E-03     468.383E-03    -232.736E-03    -235.087E-03    -231.192E-03     464.488E-03    -232.736E-03     104.315E-03     70.9407E+06     29.2891E+06    -31.6317E+06    -31.5703E+06     29.2277E+06     70.9407E+06     196.961E+03         64.4377
            1273     11.0972E-03     95.8030E-03     23.4162E-03    -2.94149E-03    -9.19622E-03    -4.30160E-03     18.5560E-03    -2.97594E-03     6.34620E-03     469.986E-03    -232.249E-03    -237.025E-03    -232.270E-03     465.230E-03    -232.249E-03     115.397E-03     77.2312E+06     37.5748E+06    -23.9870E+06    -23.9431E+06     37.5309E+06     77.2312E+06     284.254E+03         67.5349
            1274     11.8933E-03     95.9407E-03     23.5797E-03    -3.10639E-03    -9.00459E-03    -7.77327E-03     22.3828E-03    -3.14084E-03    -2.85665E-03     469.888E-03    -232.516E-03    -237.353E-03    -232.119E-03     464.653E-03    -232.516E-03     121.239E-03     81.4256E+06     45.2823E+06    -16.5870E+06    -16.4780E+06     45.1733E+06     81.4256E+06    -424.663E+03         71.6593
            1275     12.6805E-03     96.1522E-03     23.3330E-03    -3.42175E-03    -8.16028E-03    -6.90347E-03     22.0761E-03    -3.42175E-03     5.63193E-03     473.805E-03    -232.727E-03    -240.920E-03    -232.722E-03     465.607E-03    -232.727E-03     149.625E-03     83.3205E+06     46.2541E+06    -10.7940E+06    -10.5260E+06     45.9862E+06     83.3205E+06    -706.589E+03         76.2132
            1276     13.4775E-03     96.3932E-03     21.4525E-03    -3.59086E-03    -7.48482E-03    -4.67278E-03     18.6404E-03    -3.59086E-03     233.385E-06     473.875E-03    -232.627E-03    -241.268E-03    -233.416E-03     466.024E-03    -232.627E-03     145.511E-03     85.8966E+06     48.2038E+06    -5.59180E+06    -5.34398E+06     47.9559E+06     85.8966E+06    -246.392E+03         80.1061
            1277     792.664E-06     96.5810E-03     167.199E-03    -32.3631E-03    -126.678E-03     78.1860E-03     22.9404E-03    -92.9693E-03    -55.2624E-03     463.966E-03    -231.889E-03    -232.303E-03    -232.202E-03     463.963E-03    -231.988E-03     2.10208E-03    -133.232E+06    -138.044E+06    -257.732E+06    -136.739E+06    -257.672E+06    -134.598E+06    -517.855E+03         57.2523
            1278     1.58456E-03     96.5775E-03     74.7255E-03    -5.86310E-03    -58.8896E-03     327.985E-06     15.5079E-03    -5.86310E-03     31.7281E-03     464.250E-03    -231.926E-03    -232.937E-03    -232.868E-03     464.238E-03    -231.984E-03     5.08732E-03    -123.925E+06    -132.742E+06    -230.754E+06    -132.754E+06    -230.742E+06    -123.925E+06    -991.269E+03         57.4620
            1279     2.37642E-03     96.5807E-03     48.8482E-03    -3.30714E-03    -32.3839E-03     2.75138E-03     13.7129E-03    -3.30714E-03    -20.7603E-03     466.002E-03    -232.400E-03    -233.464E-03    -233.280E-03     465.960E-03    -232.541E-03     10.5295E-03    -106.590E+06    -127.275E+06    -202.931E+06    -127.280E+06    -202.926E+06    -106.590E+06    -257.712E+03         57.7306
            1280     3.16893E-03     96.5830E-03     26.7182E-03    -82.8684E-06    -13.3264E-03     2.37614E-03     12.7246E-03    -1.79182E-03     21.7028E-03     466.673E-03    -232.037E-03    -233.703E-03    -231.918E-03     466.554E-03    -233.703E-03     17.7418E-03    -83.7066E+06    -119.526E+06    -174.550E+06    -119.553E+06    -174.524E+06    -83.7066E+06     258.252E+03         57.9962
            1281     3.96121E-03     96.6035E-03     21.1606E-03     544.169E-06    -9.50536E-03     169.566E-06     13.1946E-03    -1.16478E-03    -22.9600E-03     464.481E-03    -231.533E-03    -234.070E-03    -231.254E-03     464.202E-03    -234.070E-03     27.3540E-03    -59.1499E+06    -109.606E+06    -142.976E+06    -109.638E+06    -142.944E+06    -59.1499E+06     479.623E+03         58.2322
            1282     4.75447E-03     96.6300E-03     22.9737E-03    -1.17494E-03    -11.3684E-03    -4.78328E-03     16.5765E-03    -1.36283E-03    -18.3677E-03     463.285E-03    -231.393E-03    -233.654E-03    -230.888E-03     462.779E-03    -233.654E-03     37.1961E-03    -35.4386E+06    -98.7158E+06    -113.248E+06    -99.0878E+06    -112.876E+06    -35.4386E+06     474.660E+03         58.4801
            1283     5.54715E-03     96.6755E-03     21.6204E-03    -1.83333E-03    -10.7000E-03    -6.30873E-03     17.4171E-03    -2.02122E-03    -16.6615E-03     464.151E-03    -231.816E-03    -233.614E-03    -231.524E-03     463.310E-03    -233.065E-03     47.9840E-03    -14.0392E+06    -78.1902E+06    -92.0829E+06    -89.1243E+06    -81.1488E+06    -14.0392E+06     121.598E+03         58.7923
            1284     6.33967E-03     96.7366E-03     25.0244E-03    -2.60930E-03    -13.4844E-03    -5.70349E-03     17.2435E-03    -2.60930E-03    -5.67469E-03     465.078E-03    -231.628E-03    -233.234E-03    -230.923E-03     463.823E-03    -232.685E-03     58.9153E-03     7.77934E+06    -30.2708E+06    -78.4871E+06    -78.4533E+06    -30.3046E+06     7.77934E+06    -203.871E+03         59.1548
            1285     7.13272E-03     96.8109E-03     23.3481E-03    -1.52409E-03    -11.0743E-03    -5.00904E-03     18.7704E-03    -3.01171E-03     5.67994E-03     466.462E-03    -231.447E-03    -233.060E-03    -229.756E-03     464.771E-03    -233.060E-03     68.4636E-03     26.2450E+06     7.74129E+06    -67.8328E+06    -67.7647E+06     7.67317E+06     26.2450E+06    -136.136E+03         59.5782
            1286     7.92608E-03     96.8968E-03     18.7882E-03     112.415E-06    -5.52274E-03    -1.28461E-03     17.7593E-03    -3.09680E-03    -2.64791E-03     466.430E-03    -231.897E-03    -233.302E-03    -230.531E-03     464.216E-03    -232.454E-03     78.3998E-03     38.8867E+06     17.7589E+06    -58.0608E+06    -58.0059E+06     17.7039E+06     38.8867E+06    -40.3321E+03         60.1533
            1287     8.71897E-03     97.0065E-03     20.2723E-03    -1.16292E-03    -5.92487E-03     370.647E-06     15.6984E-03    -2.88451E-03     2.37032E-03     465.689E-03    -232.619E-03    -233.773E-03    -230.829E-03     463.051E-03    -232.924E-03     85.7011E-03     50.0188E+06     25.0279E+06    -48.9339E+06    -48.9005E+06     24.9946E+06     50.0188E+06    -388.745E+03         61.0331
            1288     9.51167E-03     97.1209E-03     22.1128E-03    -2.61780E-03    -7.19495E-03     960.110E-06     13.9601E-03    -2.62022E-03    -9.65453E-03     467.252E-03    -233.084E-03    -234.304E-03    -230.827E-03     464.080E-03    -233.390E-03     93.9206E-03     61.3984E+06     27.3059E+06    -39.8927E+06    -39.8438E+06     27.2570E+06     61.3984E+06    -305.989E+03         62.3862
            1289     10.3059E-03     97.2410E-03     22.1926E-03    -2.50623E-03    -7.14527E-03    -2.21415E-03     17.2639E-03    -2.50864E-03    -4.11018E-03     468.731E-03    -232.761E-03    -235.272E-03    -231.385E-03     464.844E-03    -232.761E-03     104.249E-03     71.5936E+06     29.6091E+06    -31.0792E+06    -31.0159E+06     29.5458E+06     71.5936E+06     389.062E+03         64.4569
            1290     11.0960E-03     97.3940E-03     24.6535E-03    -2.74154E-03    -10.0553E-03    -8.43110E-03     23.0292E-03    -2.74154E-03     3.61113E-03     470.098E-03    -232.197E-03    -237.001E-03    -232.206E-03     465.303E-03    -232.197E-03     115.844E-03     77.6812E+06     38.7591E+06    -23.3424E+06    -23.2655E+06     38.6822E+06     77.6812E+06     42.3547E+03         67.5548
            1291     11.8931E-03     97.5357E-03     25.3595E-03    -3.14769E-03    -10.1261E-03    -8.71772E-03     23.9512E-03    -3.14769E-03    -210.509E-06     469.886E-03    -232.479E-03    -237.128E-03    -231.843E-03     464.601E-03    -232.479E-03     121.790E-03     80.5844E+06     45.5828E+06    -17.0289E+06    -16.8642E+06     45.4180E+06     80.5844E+06    -426.928E+03         71.6839
            1292     12.6808E-03     97.7442E-03     24.0151E-03    -3.40471E-03    -7.38159E-03    -6.32172E-03     22.9552E-03    -3.40471E-03     3.50379E-03     473.597E-03    -232.717E-03    -240.646E-03    -232.430E-03     465.381E-03    -232.717E-03     149.744E-03     82.5287E+06     45.6790E+06    -11.3683E+06    -11.0921E+06     45.4028E+06     82.5287E+06    -232.799E+03         76.2421
            1293     13.4782E-03     97.9864E-03     24.2848E-03    -3.52059E-03    -6.37962E-03    -5.76951E-03     23.6747E-03    -3.52059E-03     3.23962E-03     473.683E-03    -232.614E-03    -241.085E-03    -233.226E-03     465.824E-03    -232.614E-03     145.512E-03     86.1553E+06     47.7805E+06    -5.50837E+06    -5.29209E+06     47.5643E+06     86.1553E+06    -233.152E+03         80.1378
            1294     791.907E-06     98.1707E-03     149.259E-03    -40.8890E-03    -95.0921E-03     50.0917E-03     28.5013E-03    -65.3146E-03    -61.8278E-03     463.678E-03    -231.739E-03    -232.095E-03    -231.759E-03     463.676E-03    -232.074E-03     1.07060E-03    -132.162E+06    -137.383E+06    -257.144E+06    -136.052E+06    -257.110E+06    -133.528E+06    -262.276E+03         57.2513
            1295     1.58450E-03     98.1736E-03     67.2662E-03    -7.19674E-03    -45.2629E-03    -5.57244E-03     27.5758E-03    -7.19674E-03     44.1863E-03     464.218E-03    -231.842E-03    -233.037E-03    -232.967E-03     464.206E-03    -231.900E-03     5.30467E-03    -123.664E+06    -133.474E+06    -230.628E+06    -133.488E+06    -230.615E+06    -123.664E+06     192.016E+03         57.4644
            1296     2.37651E-03     98.1736E-03     38.6221E-03    -5.90994E-03    -18.0280E-03    -647.121E-06     21.2412E-03    -5.90994E-03    -14.9224E-03     466.215E-03    -232.460E-03    -233.680E-03    -233.557E-03     466.171E-03    -232.539E-03     10.6374E-03    -105.860E+06    -127.953E+06    -203.330E+06    -127.965E+06    -203.317E+06    -105.860E+06     338.471E+03         57.7337
            1297     3.16909E-03     98.1787E-03     23.3257E-03    -2.09991E-03    -7.92351E-03     5.93745E-03     11.1737E-03    -3.80886E-03     22.5749E-03     467.078E-03    -232.225E-03    -233.790E-03    -232.126E-03     466.953E-03    -233.764E-03     18.1362E-03    -84.0608E+06    -119.776E+06    -173.828E+06    -119.786E+06    -173.818E+06    -84.0608E+06    -268.060E+03         57.9984
            1298     3.96176E-03     98.1953E-03     18.8966E-03    -468.702E-06    -6.26439E-03     1.90123E-03     12.4400E-03    -2.17765E-03    -4.12676E-03     464.768E-03    -231.657E-03    -234.083E-03    -231.371E-03     464.482E-03    -234.083E-03     27.6817E-03    -59.9641E+06    -109.550E+06    -143.580E+06    -109.570E+06    -143.560E+06    -59.9641E+06    -516.129E+03         58.2349
            1299     4.75418E-03     98.2212E-03     21.3217E-03    -1.55507E-03    -7.27602E-03    -1.75060E-03     15.9841E-03    -1.74296E-03    -2.71806E-03     463.247E-03    -231.321E-03    -233.653E-03    -230.808E-03     462.735E-03    -233.653E-03     37.4449E-03    -35.6795E+06    -98.8481E+06    -114.498E+06    -99.1167E+06    -114.229E+06    -35.6795E+06     348.819E+03         58.4829
            1300     5.54719E-03     98.2711E-03     26.7788E-03    -1.86466E-03    -12.7573E-03    -7.24598E-03     21.4554E-03    -2.05255E-03     8.25656E-03     464.108E-03    -231.684E-03    -233.517E-03    -231.302E-03     463.260E-03    -233.051E-03     48.1878E-03    -12.5219E+06    -77.8833E+06    -91.3406E+06    -88.4841E+06    -80.7399E+06    -12.5219E+06     693.882E+03         58.7951
            1301     6.34025E-03     98.3340E-03     32.9641E-03    -2.94334E-03    -18.0325E-03    -12.4162E-03     27.3478E-03    -2.94334E-03     10.6869E-03     465.420E-03    -231.667E-03    -233.163E-03    -230.880E-03     464.168E-03    -232.697E-03     58.8856E-03     9.34407E+06    -29.7239E+06    -78.0193E+06    -77.9526E+06    -29.7906E+06     9.34407E+06     462.543E+03         59.1585
            1302     7.13264E-03     98.4112E-03     25.2196E-03    -2.08732E-03    -10.8304E-03    -5.25163E-03     21.1284E-03    -3.57494E-03     6.52641E-03     466.898E-03    -231.532E-03    -233.074E-03    -229.845E-03     465.210E-03    -233.074E-03     68.4016E-03     26.2857E+06     8.06991E+06    -67.6745E+06    -67.5892E+06     7.98460E+06     26.2857E+06     354.132E+03         59.5826
            1303     7.92616E-03     98.4973E-03     16.4625E-03     151.605E-06    -3.85822E-03     821.385E-06     15.3720E-03    -3.43745E-03    -2.08833E-03     466.468E-03    -231.945E-03    -233.291E-03    -230.577E-03     464.265E-03    -232.456E-03     78.2112E-03     38.7636E+06     18.0484E+06    -57.6632E+06    -57.6216E+06     18.0068E+06     38.7636E+06    -114.332E+03         60.1603
            1304     8.71859E-03     98.6061E-03     18.3215E-03    -973.376E-06    -5.08577E-03     351.031E-06     14.9861E-03    -3.07481E-03     1.12320E-03     465.571E-03    -232.691E-03    -233.760E-03    -230.904E-03     462.948E-03    -232.925E-03     85.4382E-03     51.0432E+06     25.9690E+06    -48.2886E+06    -48.2702E+06     25.9507E+06     51.0432E+06    -400.959E+03         61.0442
            1305     9.51058E-03     98.7210E-03     22.4841E-03    -2.88810E-03    -7.81256E-03    -2.19207E-03     16.8660E-03    -2.89052E-03    -3.32680E-03     467.147E-03    -233.247E-03    -234.061E-03    -230.653E-03     463.972E-03    -233.480E-03     93.9497E-03     61.9328E+06     27.8391E+06    -39.5941E+06    -39.5586E+06     27.8035E+06     61.9328E+06    -192.872E+03         62.3999
            1306     10.3047E-03     98.8428E-03     24.2829E-03    -2.94800E-03    -9.35246E-03    -5.00839E-03     19.9412E-03    -2.95041E-03     8.08255E-03     468.411E-03    -232.842E-03    -234.709E-03    -230.805E-03     464.508E-03    -232.842E-03     104.397E-03     70.4611E+06     28.9596E+06    -31.7227E+06    -31.6318E+06     28.8687E+06     70.4611E+06    -149.596E+03         64.4731
            1307     11.0964E-03     98.9915E-03     23.9784E-03    -3.14196E-03    -9.49641E-03    -5.33337E-03     19.8153E-03    -3.14196E-03     4.40491E-03     470.059E-03    -232.210E-03    -236.669E-03    -231.821E-03     465.211E-03    -232.210E-03     116.441E-03     76.4190E+06     37.9741E+06    -24.2899E+06    -24.1576E+06     37.8418E+06     76.4190E+06    -97.6654E+03         67.5743
            1308     11.8922E-03     99.1299E-03     22.1583E-03    -3.30199E-03    -7.91547E-03    -4.76617E-03     19.0090E-03    -3.30199E-03    -1.33423E-03     469.988E-03    -232.420E-03    -237.136E-03    -231.815E-03     464.667E-03    -232.420E-03     122.209E-03     80.2061E+06     45.4131E+06    -17.3786E+06    -17.1689E+06     45.2034E+06     80.2061E+06    -253.176E+03         71.7066
            1309     12.6802E-03     99.3397E-03     23.6241E-03    -3.51644E-03    -8.37981E-03    -7.20359E-03     22.4479E-03    -3.51644E-03     2.81658E-03     473.467E-03    -232.616E-03    -240.694E-03    -232.482E-03     465.254E-03    -232.616E-03     149.686E-03     82.8097E+06     45.8632E+06    -11.1199E+06    -10.8108E+06     45.5540E+06     82.8097E+06    -304.447E+03         76.2680
            1310     13.4779E-03     99.5773E-03     25.9051E-03    -3.92170E-03    -11.0255E-03    -10.0481E-03     24.9278E-03    -3.92170E-03    -8.11195E-03     473.765E-03    -232.605E-03    -241.063E-03    -233.250E-03     465.952E-03    -232.605E-03     144.937E-03     86.4023E+06     47.6821E+06    -5.41048E+06    -5.18965E+06     47.4612E+06     86.4023E+06    -89.4778E+03         80.1674
            1311     792.780E-06     99.7652E-03     94.4630E-03    -21.3732E-03    -55.9659E-03     12.6524E-03     25.8446E-03    -21.3732E-03    -44.7906E-03     462.776E-03    -230.956E-03    -231.942E-03    -231.703E-03     462.773E-03    -231.192E-03     1.77061E-03    -134.509E+06    -140.515E+06    -259.216E+06    -139.192E+06    -259.149E+06    -135.899E+06     2.43877E+06         57.2405
            1312     1.58514E-03     99.7652E-03     50.5611E-03    -4.08866E-03    -30.6364E-03    -2.99803E-03     22.9227E-03    -4.08866E-03     25.2894E-03     463.926E-03    -231.504E-03    -232.959E-03    -232.947E-03     463.914E-03    -231.504E-03     5.54181E-03    -123.924E+06    -134.849E+06    -230.922E+06    -134.867E+06    -230.904E+06    -123.924E+06     777.905E+03         57.4563
            1313     2.37747E-03     99.7674E-03     29.2802E-03    -3.46097E-03    -12.2826E-03    -1.32748E-03     18.3251E-03    -3.46097E-03    -29.8565E-03     466.181E-03    -232.492E-03    -233.592E-03    -233.547E-03     466.136E-03    -232.492E-03     10.6859E-03    -105.601E+06    -128.109E+06    -202.419E+06    -128.121E+06    -202.406E+06    -105.601E+06     18.4150E+03         57.7247
            1314     3.16896E-03     99.7739E-03     20.7422E-03    -2.83898E-03    -7.02917E-03    -735.401E-06     14.4484E-03    -2.83898E-03     6.95246E-03     467.195E-03    -232.253E-03    -233.797E-03    -232.169E-03     467.067E-03    -233.752E-03     18.4505E-03    -83.2644E+06    -119.741E+06    -173.019E+06    -119.746E+06    -173.015E+06    -83.2644E+06    -233.327E+03         57.9881
            1315     3.96134E-03     99.7942E-03     18.7060E-03    -1.94031E-03    -5.46601E-03     4.37707E-03     8.86293E-03    -1.94031E-03     1.58402E-03     464.785E-03    -231.683E-03    -234.065E-03    -231.391E-03     464.493E-03    -234.065E-03     28.0068E-03    -59.1039E+06    -110.158E+06    -143.654E+06    -110.169E+06    -143.643E+06    -59.1039E+06    -324.248E+03         58.2260
            1316     4.75452E-03     99.8174E-03     21.0298E-03    -1.15201E-03    -7.13339E-03     794.840E-06     13.1016E-03    -1.15201E-03    -852.417E-06     463.302E-03    -231.509E-03    -233.621E-03    -230.994E-03     462.787E-03    -233.621E-03     37.5679E-03    -35.7172E+06    -99.7543E+06    -115.257E+06    -99.7889E+06    -115.222E+06    -35.7172E+06    -524.037E+03         58.4756
            1317     5.54725E-03     99.8646E-03     25.3912E-03    -574.693E-06    -11.0510E-03    -6.20124E-03     21.3221E-03    -1.35538E-03     16.2995E-03     464.336E-03    -231.797E-03    -233.569E-03    -231.497E-03     463.494E-03    -233.027E-03     48.0308E-03    -13.3056E+06    -78.6701E+06    -91.4405E+06    -88.5336E+06    -81.5770E+06    -13.3056E+06    -209.585E+03         58.7877
            1318     6.33961E-03     99.9290E-03     23.8417E-03    -755.967E-06    -9.45310E-03    -6.03000E-03     21.6196E-03    -1.95695E-03     1.33825E-03     465.703E-03    -231.630E-03    -233.312E-03    -230.924E-03     464.455E-03    -232.769E-03     58.7875E-03     8.69544E+06    -30.0932E+06    -77.2975E+06    -77.2420E+06    -30.1488E+06     8.69544E+06     609.402E+03         59.1488
            1319     7.13225E-03     100.007E-03     22.5757E-03    -1.86167E-03    -7.83884E-03    -4.62195E-03     19.7791E-03    -2.28196E-03     419.316E-06     466.910E-03    -231.474E-03    -233.143E-03    -229.789E-03     465.226E-03    -233.143E-03     68.3467E-03     26.2142E+06     8.42413E+06    -66.7786E+06    -66.7025E+06     8.34806E+06     26.2142E+06     783.389E+03         59.5704
            1320     7.92524E-03     100.096E-03     20.4343E-03    -2.00597E-03    -7.11513E-03    -4.74168E-03     18.4733E-03    -2.41845E-03     3.99661E-03     466.301E-03    -231.896E-03    -233.278E-03    -230.567E-03     464.119E-03    -232.425E-03     77.8489E-03     39.5455E+06     19.1024E+06    -56.9258E+06    -56.8880E+06     19.0645E+06     39.5455E+06     498.030E+03         60.1488
            1321     8.71755E-03     100.203E-03     21.0118E-03    -2.13970E-03    -8.51886E-03    -5.15323E-03     18.0586E-03    -2.55218E-03     9.58147E-03     465.508E-03    -232.623E-03    -233.761E-03    -230.845E-03     462.878E-03    -232.909E-03     85.5379E-03     51.6582E+06     26.3271E+06    -48.0147E+06    -48.0036E+06      26.316E+06     51.6582E+06     247.975E+03         61.0362
            1322     9.51060E-03     100.316E-03     27.7362E-03    -2.95701E-03    -14.7142E-03    -10.5062E-03     23.5281E-03    -2.95701E-03     6.04596E-03     466.972E-03    -233.256E-03    -233.854E-03    -230.368E-03     463.773E-03    -233.542E-03     94.3064E-03     61.7890E+06     27.5579E+06    -39.7440E+06    -39.7186E+06     27.5324E+06     61.7890E+06     199.074E+03         62.3973
            1323     10.3056E-03     100.436E-03     26.9495E-03    -3.60554E-03    -13.1484E-03    -10.8206E-03     24.6217E-03    -3.60554E-03    -1.67125E-03     468.179E-03    -232.885E-03    -234.504E-03    -230.596E-03     464.270E-03    -232.885E-03     104.432E-03     70.2328E+06     28.8454E+06    -31.8644E+06    -31.8043E+06     28.7852E+06     70.2328E+06    -189.933E+03         64.4772
            1324     11.0969E-03     100.589E-03     23.3455E-03    -4.03499E-03    -9.19671E-03    -5.33947E-03     19.4883E-03    -4.03499E-03    -8.20018E-03     469.832E-03    -232.251E-03    -236.470E-03    -231.619E-03     464.980E-03    -232.251E-03     116.450E-03     76.7089E+06     37.9354E+06    -24.0058E+06    -23.8657E+06     37.7953E+06     76.7089E+06    -617.421E+03         67.5851
            1325     11.8944E-03     100.726E-03     23.1181E-03    -4.30626E-03    -9.68816E-03    -6.25857E-03     19.6885E-03    -4.30626E-03    -7.72092E-03     469.833E-03    -232.477E-03    -236.913E-03    -231.585E-03     464.505E-03    -232.477E-03     122.257E-03     80.6915E+06     45.4499E+06    -16.9497E+06    -16.7075E+06     45.2078E+06     80.6915E+06    -418.533E+03         71.7234
            1326     12.6817E-03     100.935E-03     22.3644E-03    -4.69164E-03    -9.58023E-03    -7.64805E-03     20.4322E-03    -4.69164E-03    -3.73137E-03     473.651E-03    -232.601E-03    -240.827E-03    -232.609E-03     465.433E-03    -232.601E-03     149.810E-03     83.0846E+06     45.6339E+06    -10.9356E+06    -10.6310E+06     45.3292E+06     83.0846E+06    -167.188E+03         76.2899
            1327     13.4788E-03     101.173E-03     19.6385E-03    -2.73880E-03    -10.1624E-03    -4.55789E-03     16.2653E-03    -4.97013E-03    -11.3104E-03     474.085E-03    -232.586E-03    -241.265E-03    -233.452E-03     466.272E-03    -232.586E-03     145.015E-03     86.6136E+06     47.6673E+06    -5.27920E+06    -5.05553E+06     47.4436E+06     86.6136E+06     149.688E+03         80.1945
            1328     793.341E-06     101.358E-03     60.1869E-03     13.8533E-03    -59.9811E-03    -26.0933E-03     16.2664E-03     23.8862E-03    -23.5929E-03     462.633E-03    -230.843E-03    -231.843E-03    -231.841E-03     462.631E-03    -230.843E-03     1.97653E-03    -133.884E+06    -138.074E+06    -259.574E+06    -136.532E+06    -259.461E+06    -135.538E+06    -138.710E+03         57.2280
            1329     1.58468E-03     101.360E-03     39.7788E-03    -1.61291E-03    -26.0436E-03    -3.58816E-03     17.3234E-03    -1.61291E-03     17.7481E-03     463.826E-03    -231.476E-03    -233.068E-03    -233.058E-03     463.816E-03    -231.476E-03     4.95678E-03    -123.864E+06    -132.420E+06    -231.488E+06    -132.172E+06    -231.471E+06    -124.129E+06    -332.196E+03         57.4393
            1330     2.37675E-03     101.365E-03     26.5237E-03    -2.62161E-03    -14.9945E-03    -5.73887E-03     17.2681E-03    -2.62161E-03    -29.7347E-03     465.899E-03    -232.354E-03    -233.488E-03    -233.356E-03     465.858E-03    -232.446E-03     10.2069E-03    -106.164E+06    -126.979E+06    -201.843E+06    -126.984E+06    -201.837E+06    -106.164E+06    -191.946E+03         57.7055
            1331     3.16965E-03     101.372E-03     20.7639E-03    -3.32387E-03    -8.24635E-03    -4.70259E-03     17.2201E-03    -3.32387E-03    -8.26320E-03     466.806E-03    -231.969E-03    -233.668E-03    -231.866E-03     466.684E-03    -233.649E-03     17.9019E-03    -82.4790E+06    -119.130E+06    -173.136E+06    -119.134E+06    -173.132E+06    -82.4790E+06     163.357E+03         57.9685
            1332     3.96183E-03     101.391E-03     25.7502E-03    -3.79622E-03    -11.4887E-03    -6.39861E-03     20.6601E-03    -3.79622E-03    -4.90393E-03     464.578E-03    -231.641E-03    -234.006E-03    -231.354E-03     464.290E-03    -234.006E-03     27.7411E-03    -58.7228E+06    -109.931E+06    -143.544E+06    -109.933E+06    -143.542E+06    -58.7228E+06     191.488E+03         58.2082
            1333     4.75463E-03     101.416E-03     26.9497E-03    -1.99304E-03    -13.0455E-03    -6.64794E-03     22.9065E-03    -4.34740E-03    -8.08404E-03     463.589E-03    -231.878E-03    -233.578E-03    -231.362E-03     463.074E-03    -233.578E-03     37.6043E-03    -35.6588E+06    -99.7194E+06    -114.381E+06    -99.7291E+06    -114.371E+06    -35.6588E+06    -102.485E+03         58.4608
            1334     5.54704E-03     101.463E-03     21.2423E-03    -962.185E-06    -7.02821E-03     4.12489E-03     13.2243E-03    -4.09723E-03    -7.29198E-03     464.755E-03    -232.088E-03    -233.599E-03    -231.832E-03     463.913E-03    -233.012E-03     48.0803E-03    -13.9025E+06    -79.4101E+06    -91.4889E+06    -88.8994E+06    -81.9996E+06    -13.9025E+06    -310.329E+03         58.7742
            1335     6.33930E-03     101.527E-03     17.3760E-03    -899.700E-06    -3.60543E-03     10.1291E-03     5.56104E-03    -2.81932E-03    -10.7270E-03     465.876E-03    -231.618E-03    -233.375E-03    -230.948E-03     464.618E-03    -232.788E-03     59.0003E-03     7.22113E+06    -31.4424E+06    -78.2544E+06    -78.2454E+06    -31.4513E+06     7.22113E+06    -460.204E+03         59.1341
            1336     7.13210E-03     101.603E-03     17.2460E-03    -737.374E-06    -6.03641E-03     1.72041E-03     10.6281E-03    -1.87630E-03    -943.476E-06     466.894E-03    -231.386E-03    -233.163E-03    -229.692E-03     465.200E-03    -233.163E-03     68.5469E-03     25.3444E+06     7.80241E+06    -67.5206E+06    -67.4879E+06     7.76971E+06     25.3444E+06     115.904E+03         59.5546
            1337     7.92459E-03     101.692E-03     24.0095E-03    -2.11649E-03    -13.1657E-03    -9.51951E-03     20.3633E-03    -2.11649E-03    -6.62146E-03     466.188E-03    -231.788E-03    -233.126E-03    -230.311E-03     463.979E-03    -232.395E-03     78.2715E-03     38.6986E+06     18.6949E+06    -57.2755E+06    -57.2395E+06     18.6588E+06     38.6986E+06     864.099E+03         60.1334
            1338     8.71794E-03     101.799E-03     28.3736E-03    -3.14394E-03    -16.7991E-03    -14.7308E-03     26.3052E-03    -3.14394E-03    -6.71301E-03     465.294E-03    -232.454E-03    -233.576E-03    -230.531E-03     462.640E-03    -232.845E-03     85.9065E-03     50.3150E+06     26.1911E+06    -48.2324E+06    -48.2107E+06     26.1695E+06     50.3150E+06     1.14406E+06         61.0224
            1339     9.51101E-03     101.913E-03     26.8374E-03    -2.93386E-03    -15.3122E-03    -11.3505E-03     24.0731E-03    -4.13128E-03    -2.40238E-03     466.748E-03    -233.135E-03    -233.956E-03    -230.379E-03     463.562E-03    -233.526E-03     94.1077E-03     61.5466E+06     28.3073E+06    -39.7269E+06    -39.7085E+06     28.2889E+06     61.5466E+06     560.488E+03         62.3882
            1340     10.3054E-03     102.032E-03     23.7213E-03    -3.48087E-03    -11.0714E-03    -7.97158E-03     21.8188E-03    -4.67829E-03    -6.05591E-03     468.148E-03    -232.883E-03    -234.722E-03    -230.831E-03     464.257E-03    -232.883E-03     104.215E-03     71.4232E+06     30.0057E+06    -31.1848E+06    -31.1428E+06     29.9638E+06     71.4232E+06    -480.251E+03         64.4763
            1341     11.0979E-03     102.182E-03     25.9569E-03    -5.10051E-03    -11.9975E-03    -11.1018E-03     25.0612E-03    -5.10051E-03    -4.87687E-03     469.733E-03    -232.242E-03    -236.454E-03    -231.623E-03     464.902E-03    -232.242E-03     116.199E-03     77.4181E+06     38.3508E+06    -23.7980E+06    -23.6776E+06     38.2304E+06     77.4181E+06    -720.725E+03         67.5928
            1342     11.8942E-03     102.320E-03     26.7203E-03    -5.59792E-03    -12.9711E-03    -11.6556E-03     25.4048E-03    -5.59792E-03    -1.35750E-03     469.872E-03    -232.521E-03    -236.763E-03    -231.459E-03     464.567E-03    -232.521E-03     121.980E-03     80.6394E+06     45.0004E+06    -17.4204E+06    -17.2332E+06     44.8132E+06     80.6394E+06    -281.991E+03         71.7394
            1343     12.6818E-03     102.531E-03     20.4976E-03    -4.68877E-03    -8.37095E-03    -4.69471E-03     17.9688E-03    -5.83618E-03    -5.41370E-03     473.861E-03    -232.618E-03    -240.674E-03    -232.501E-03     465.688E-03    -232.618E-03     149.417E-03     83.0317E+06     45.2816E+06    -11.1575E+06    -10.9054E+06     45.0295E+06     83.0317E+06     54.5854E+03         76.3139
            1344     13.4781E-03     102.766E-03     18.1182E-03    -2.33486E-03    -7.38084E-03    -788.570E-06     14.9047E-03    -5.71360E-03    -7.74837E-03     474.289E-03    -232.559E-03    -241.408E-03    -233.613E-03     466.494E-03    -232.559E-03     144.971E-03     86.3405E+06     47.5208E+06    -5.44712E+06    -5.22682E+06     47.3005E+06     86.3405E+06    -7.51156E+03         80.2248
            1345     791.536E-06     102.951E-03     86.1854E-03     41.8041E-03    -117.401E-03    -52.8753E-03     11.6264E-03     51.8369E-03    -82.0327E-03     463.730E-03    -231.519E-03    -232.084E-03    -231.787E-03     463.727E-03    -231.813E-03     2.45940E-03    -131.666E+06    -135.034E+06    -257.668E+06    -134.536E+06    -257.608E+06    -132.223E+06    -1.60059E+06         57.2120
            1346     1.58446E-03     102.953E-03     37.0877E-03    -478.731E-06    -29.3415E-03    -153.080E-06     7.89925E-03    -478.731E-06     33.5736E-03     464.033E-03    -231.800E-03    -232.859E-03    -232.781E-03     464.022E-03    -231.867E-03     5.16799E-03    -123.422E+06    -132.779E+06    -232.338E+06    -132.528E+06    -232.325E+06    -123.687E+06    -187.665E+03         57.4191
            1347     2.37643E-03     102.957E-03     26.0203E-03    -2.24645E-03    -17.2172E-03    -13.3364E-03     22.1395E-03    -2.24645E-03    -22.5161E-03     465.727E-03    -232.370E-03    -233.306E-03    -233.172E-03     465.685E-03    -232.461E-03     10.3338E-03    -105.386E+06    -126.765E+06    -202.218E+06    -126.772E+06    -202.211E+06    -105.386E+06     541.979E+03         57.6874
            1348     3.16872E-03     102.962E-03     28.8083E-03    -5.27097E-03    -16.5607E-03    -14.5717E-03     26.8193E-03    -5.27097E-03    -6.22883E-03     466.546E-03    -231.877E-03    -233.630E-03    -231.798E-03     466.425E-03    -233.587E-03     17.8824E-03    -82.4765E+06    -118.770E+06    -174.342E+06    -118.779E+06    -174.332E+06    -82.4765E+06     557.548E+03         57.9532
            1349     3.96226E-03     102.982E-03     28.8713E-03    -4.31818E-03    -16.2319E-03    -12.4041E-03     27.7301E-03    -7.00485E-03     5.14401E-03     464.362E-03    -231.582E-03    -234.004E-03    -231.301E-03     464.082E-03    -234.004E-03     27.4012E-03    -58.8755E+06    -109.293E+06    -143.773E+06    -109.306E+06    -143.759E+06    -58.8755E+06     591.906E+03         58.1923
            1350     4.75505E-03     103.008E-03     23.3049E-03    -1.33871E-03    -12.5192E-03    -3.90566E-03     20.6272E-03    -7.27441E-03    -5.49896E-03     463.443E-03    -231.776E-03    -233.569E-03    -231.264E-03     462.930E-03    -233.569E-03     37.4639E-03    -35.6277E+06    -99.1200E+06    -113.532E+06    -99.1308E+06    -113.521E+06    -35.6277E+06     278.474E+03         58.4448
            1351     5.54709E-03     103.058E-03     23.4147E-03    -2.98679E-03    -9.16592E-03     4.23365E-03     13.2642E-03    -6.23582E-03    -9.16337E-03     464.713E-03    -231.994E-03    -233.578E-03    -231.737E-03     463.861E-03    -232.983E-03     48.3398E-03    -13.8198E+06    -79.6689E+06    -91.7165E+06    -89.1166E+06    -82.2688E+06    -13.8198E+06     151.961E+03         58.7597
            1352     6.33941E-03     103.121E-03     26.3751E-03    -4.44549E-03    -11.4998E-03     1.04738E-03     14.5466E-03    -5.16413E-03    -9.47374E-03     465.988E-03    -231.657E-03    -233.326E-03    -230.980E-03     464.715E-03    -232.730E-03     59.3605E-03     7.94036E+06    -31.2261E+06    -78.7387E+06    -78.7324E+06    -31.2323E+06     7.94036E+06     359.228E+03         59.1211
            1353     7.13194E-03     103.201E-03     23.4466E-03    -4.27030E-03    -10.8269E-03    -5.12107E-03     18.4594E-03    -4.98893E-03    -8.54810E-03     466.977E-03    -231.456E-03    -233.126E-03    -229.758E-03     465.279E-03    -233.126E-03     68.6546E-03     25.2310E+06     7.71378E+06    -68.4172E+06    -68.4088E+06     7.70535E+06     25.2310E+06     91.6200E+03         59.5432
            1354     7.92687E-03     103.285E-03     24.4391E-03    -4.03451E-03    -13.2340E-03    -8.59511E-03     21.2136E-03    -5.44787E-03    -12.8410E-03     466.234E-03    -231.786E-03    -233.093E-03    -230.281E-03     464.020E-03    -232.384E-03     78.3618E-03     37.2811E+06     17.4036E+06    -58.6126E+06    -58.5888E+06     17.3798E+06     37.2811E+06    -243.533E+03         60.1250
            1355     8.71945E-03     103.394E-03     22.8806E-03    -1.42569E-03    -13.7020E-03    -5.70815E-03     19.3183E-03    -5.85726E-03    -12.9022E-03     465.318E-03    -232.481E-03    -233.525E-03    -230.551E-03     462.679E-03    -232.817E-03     85.6756E-03     50.0196E+06     25.4507E+06    -48.3896E+06    -48.3584E+06     25.4195E+06     50.0196E+06     136.257E+03         61.0185
            1356     9.51114E-03     103.508E-03     20.0347E-03    -1.68723E-03    -9.66471E-03    -3.43325E-03     18.0189E-03    -5.90287E-03    -733.586E-06     466.977E-03    -233.181E-03    -233.952E-03    -230.458E-03     463.819E-03    -233.516E-03     93.6951E-03     62.6645E+06     29.0785E+06    -38.6683E+06    -38.6550E+06     29.0652E+06     62.6645E+06     420.284E+03         62.3870
            1357     10.3047E-03     103.630E-03     22.9859E-03    -4.70876E-03    -8.78990E-03    -6.52626E-03     21.9497E-03    -5.93623E-03    -2.07331E-03     468.525E-03    -232.874E-03    -234.728E-03    -230.862E-03     464.660E-03    -232.874E-03     103.912E-03     72.1113E+06     31.1135E+06    -30.9344E+06    -30.8817E+06     31.0608E+06     72.1113E+06     106.766E+03         64.4786
            1358     11.0949E-03     103.774E-03     24.5265E-03    -4.53086E-03    -10.4474E-03    -7.20269E-03     22.8641E-03    -6.11318E-03    -5.15058E-03     470.040E-03    -232.236E-03    -236.558E-03    -231.761E-03     465.243E-03    -232.236E-03     115.811E-03     77.7990E+06     38.7052E+06    -24.0588E+06    -23.9716E+06     38.6180E+06     77.7990E+06     41.9535E+03         67.6032
            1359     11.8923E-03     103.912E-03     20.5541E-03    -2.79700E-03    -9.04596E-03    -4.29523E-03     19.1604E-03    -6.15403E-03    -4.61673E-03     469.983E-03    -232.523E-03    -236.855E-03    -231.554E-03     464.682E-03    -232.523E-03     121.961E-03     81.1064E+06     44.8314E+06    -17.3170E+06    -17.2007E+06     44.7151E+06     81.1064E+06    -12.0896E+03         71.7598
            1360     12.6786E-03     104.122E-03     22.4096E-03    -3.17967E-03    -10.4850E-03    -6.64822E-03     21.5251E-03    -6.13185E-03    -6.07877E-03     473.672E-03    -232.616E-03    -240.597E-03    -232.396E-03     465.471E-03    -232.616E-03     149.630E-03     82.8933E+06     44.8750E+06    -11.4559E+06    -11.2345E+06     44.6536E+06     82.8933E+06    -144.014E+03         76.3423
            1361     13.4767E-03     104.364E-03     29.8172E-03    -5.25398E-03    -14.5512E-03    -12.6161E-03     29.0294E-03    -6.40140E-03    -4.62695E-03     473.998E-03    -232.563E-03    -241.350E-03    -233.531E-03     466.179E-03    -232.563E-03     145.136E-03     86.0378E+06     47.3728E+06    -5.56626E+06    -5.36915E+06     47.1757E+06     86.0378E+06    -156.743E+03         80.2584
            1362     791.988E-06     104.544E-03     119.356E-03     55.1136E-03    -166.197E-03    -81.1485E-03     18.7688E-03     70.6524E-03    -122.209E-03     463.807E-03    -231.284E-03    -232.359E-03    -231.516E-03     463.802E-03    -232.123E-03     3.13939E-03    -135.646E+06    -139.857E+06    -259.639E+06    -139.449E+06    -259.620E+06    -136.074E+06     1.17217E+06         57.1955
            1363     1.58362E-03     104.546E-03     50.6045E-03    -5.59461E-03    -38.7010E-03    -6.70653E-03     18.6100E-03    -5.59461E-03     42.3562E-03     464.197E-03    -231.795E-03    -232.807E-03    -232.726E-03     464.183E-03    -231.862E-03     5.96311E-03    -123.545E+06    -135.527E+06    -231.536E+06    -135.538E+06    -231.525E+06    -123.545E+06     209.187E+03         57.4062
            1364     2.37701E-03     104.551E-03     27.2028E-03    -5.14519E-03    -16.6350E-03    -6.75901E-03     18.1975E-03    -6.01594E-03    -19.2844E-03     465.730E-03    -232.469E-03    -233.272E-03    -233.227E-03     465.685E-03    -232.469E-03     10.7324E-03    -105.995E+06    -128.605E+06    -203.672E+06    -128.624E+06    -203.653E+06    -105.995E+06     440.250E+03         57.6790
            1365     3.16890E-03     104.556E-03     26.8177E-03    -5.00995E-03    -16.0986E-03    -10.6661E-03     23.0222E-03    -6.64688E-03     3.27425E-03     466.659E-03    -232.030E-03    -233.677E-03    -232.000E-03     466.536E-03    -233.583E-03     18.1076E-03    -83.7423E+06    -120.097E+06    -175.247E+06    -120.119E+06    -175.225E+06    -83.7423E+06     962.122E+03         57.9466
            1366     3.96271E-03     104.576E-03     18.9759E-03    -2.43061E-03    -10.8976E-03    -4.87449E-03     17.4412E-03    -6.91904E-03     4.15734E-03     464.296E-03    -231.533E-03    -234.045E-03    -231.248E-03     464.012E-03    -234.045E-03     27.5906E-03    -59.6243E+06    -110.479E+06    -143.609E+06    -110.514E+06    -143.574E+06    -59.6243E+06     988.871E+03         58.1830
            1367     4.75475E-03     104.602E-03     16.8336E-03    -1.60544E-03    -8.12088E-03    -795.229E-06     14.1249E-03    -6.22237E-03    -6.37298E-03     463.190E-03    -231.429E-03    -233.596E-03    -230.916E-03     462.677E-03    -233.596E-03     37.4739E-03    -35.7967E+06    -100.299E+06    -113.684E+06    -100.435E+06    -113.548E+06    -35.7967E+06     855.883E+03         58.4336
            1368     5.54680E-03     104.650E-03     26.9248E-03    -5.10859E-03    -13.2663E-03    -9.50020E-03     24.0533E-03    -6.00327E-03     187.229E-06     464.443E-03    -231.767E-03    -233.530E-03    -231.475E-03     463.596E-03    -232.974E-03     48.1842E-03    -13.1216E+06    -79.4093E+06    -92.2609E+06    -89.7678E+06    -81.9024E+06    -13.1216E+06     593.384E+03         58.7490
            1369     6.33903E-03     104.716E-03     33.5168E-03    -6.87056E-03    -18.0282E-03    -16.4236E-03     31.9122E-03    -6.87056E-03     3.90584E-03     465.859E-03    -231.637E-03    -233.280E-03    -230.934E-03     464.600E-03    -232.724E-03     59.0481E-03     8.15204E+06    -31.1104E+06    -78.8038E+06    -78.7942E+06    -31.1200E+06     8.15204E+06     290.845E+03         59.1114
            1370     7.13179E-03     104.796E-03     31.8067E-03    -7.77970E-03    -16.2411E-03    -12.9736E-03     28.5391E-03    -7.77970E-03     7.33040E-03     467.031E-03    -231.611E-03    -233.136E-03    -229.925E-03     465.345E-03    -233.136E-03     68.3935E-03     25.5132E+06     7.73004E+06    -67.9149E+06    -67.9077E+06     7.72285E+06     25.5132E+06     343.333E+03         59.5352
            1371     7.92736E-03     104.881E-03     23.9515E-03    -5.50739E-03    -10.5545E-03    -4.39406E-03     20.1699E-03    -7.88618E-03     9.45983E-03     466.407E-03    -231.964E-03    -233.304E-03    -230.650E-03     464.192E-03    -232.403E-03     78.3969E-03     38.8166E+06     18.6540E+06    -57.7444E+06    -57.7277E+06     18.6373E+06     38.8166E+06     48.2901E+03         60.1207
            1372     8.71991E-03     104.990E-03     20.5438E-03    -2.08184E-03    -10.4907E-03    -2.45597E-03     17.9061E-03    -7.47886E-03    -506.171E-06     465.525E-03    -232.561E-03    -233.743E-03    -230.818E-03     462.880E-03    -232.843E-03     85.7934E-03     51.1886E+06     25.5562E+06    -48.8075E+06    -48.7840E+06     25.5326E+06     51.1886E+06    -747.245E+03         61.0208
            1373     9.51151E-03     105.100E-03     24.1045E-03    -4.24332E-03    -11.9917E-03    -6.14700E-03     21.2780E-03    -7.26154E-03     6.27767E-03     467.064E-03    -233.237E-03    -233.893E-03    -230.452E-03     463.904E-03    -233.518E-03     93.7211E-03     62.0922E+06     27.2280E+06    -40.3249E+06    -40.3113E+06     27.2144E+06     62.0922E+06    -719.168E+03         62.3935
            1374     10.3051E-03     105.220E-03     23.7101E-03    -5.84111E-03    -8.96259E-03    -5.49639E-03     21.6471E-03    -7.24431E-03     1.54041E-03     468.603E-03    -232.852E-03    -234.668E-03    -230.810E-03     464.744E-03    -232.852E-03     103.820E-03     71.9352E+06     31.2062E+06    -31.6802E+06    -31.6546E+06     31.1807E+06     71.9352E+06     431.695E+03         64.4848
            1375     11.0964E-03     105.369E-03     19.1040E-03    -3.52621E-03    -7.06378E-03    -1.72054E-03     17.2983E-03    -7.06378E-03    -9.17697E-03     470.312E-03    -232.273E-03    -236.541E-03    -231.749E-03     465.520E-03    -232.273E-03     115.761E-03     78.2768E+06     39.7365E+06    -23.9129E+06    -23.8642E+06     39.6879E+06     78.2768E+06     619.596E+03         67.6136
            1376     11.8926E-03     105.508E-03     19.8815E-03    -2.91821E-03    -8.91581E-03    -3.46689E-03     18.3718E-03    -6.85734E-03    -7.92528E-03     470.055E-03    -232.619E-03    -236.771E-03    -231.464E-03     464.749E-03    -232.619E-03     122.023E-03     81.0985E+06     44.4067E+06    -17.3722E+06    -17.2905E+06     44.3250E+06     81.0985E+06     131.991E+03         71.7794
            1377     12.6815E-03     105.719E-03     25.1281E-03    -4.05984E-03    -13.2965E-03    -10.1213E-03     24.9185E-03    -7.02549E-03    -4.13314E-03     473.489E-03    -232.684E-03    -240.595E-03    -232.364E-03     465.258E-03    -232.684E-03     149.879E-03     83.3668E+06     45.2020E+06    -11.0126E+06    -10.8405E+06     45.0299E+06     83.3668E+06    -61.1223E+03         76.3691
            1378     13.4774E-03     105.957E-03     26.5024E-03    -3.62914E-03    -13.9565E-03    -10.0492E-03     26.3596E-03    -7.39356E-03    -2.06693E-03     473.615E-03    -232.586E-03    -241.178E-03    -233.316E-03     465.753E-03    -232.586E-03     145.519E-03     86.5542E+06     47.2680E+06    -5.14374E+06    -4.98075E+06     47.1050E+06     86.5542E+06    -216.706E+03         80.2905
            1379     792.840E-06     106.139E-03     129.224E-03     50.6507E-03    -172.624E-03    -81.9301E-03     22.9913E-03     66.1894E-03    -100.507E-03     463.148E-03    -231.096E-03    -232.083E-03    -231.534E-03     463.144E-03    -231.641E-03     3.25092E-03    -137.066E+06    -139.090E+06    -260.279E+06    -138.905E+06    -260.241E+06    -137.289E+06     172.765E+03         57.1833
            1380     1.58525E-03     106.141E-03     73.8370E-03    -9.21399E-03    -56.9736E-03    -14.5301E-03     31.3935E-03    -9.21399E-03     43.6724E-03     463.948E-03    -231.720E-03    -232.926E-03    -232.913E-03     463.935E-03    -231.720E-03     5.78599E-03    -125.178E+06    -134.799E+06    -232.269E+06    -134.818E+06    -232.251E+06    -125.178E+06     424.121E+03         57.3979
            1381     2.37678E-03     106.144E-03     38.4913E-03    -8.86207E-03    -23.0301E-03    -4.86587E-03     21.1978E-03    -9.73282E-03    -21.5669E-03     465.849E-03    -232.416E-03    -233.481E-03    -233.440E-03     465.807E-03    -232.416E-03     10.3893E-03    -106.556E+06    -128.997E+06    -205.025E+06    -129.024E+06    -204.998E+06    -106.556E+06     621.403E+03         57.6739
            1382     3.16891E-03     106.150E-03     23.4161E-03    -5.94079E-03    -10.3083E-03     3.21273E-03     11.5320E-03    -7.57772E-03     3.68203E-03     466.680E-03    -231.967E-03    -233.660E-03    -231.960E-03     466.562E-03    -233.548E-03     17.6561E-03    -84.0020E+06    -120.802E+06    -175.746E+06    -120.820E+06    -175.728E+06    -84.0020E+06     828.910E+03         57.9428
            1383     3.96167E-03     106.171E-03     20.8015E-03    -4.02945E-03    -9.87461E-03    -1.77641E-03     14.5050E-03    -5.83122E-03    -10.2518E-03     464.290E-03    -231.490E-03    -234.037E-03    -231.209E-03     464.008E-03    -234.037E-03     27.4286E-03    -59.5816E+06    -111.243E+06    -144.115E+06    -111.287E+06    -144.072E+06    -59.5816E+06     1.03396E+06         58.1781
            1384     4.75513E-03     106.195E-03     25.8819E-03    -5.01137E-03    -14.6874E-03    -13.1147E-03     25.3447E-03    -6.04695E-03     1.43987E-03     463.288E-03    -231.456E-03    -233.622E-03    -230.947E-03     462.779E-03    -233.622E-03     37.3184E-03    -35.6338E+06    -100.471E+06    -113.636E+06    -100.617E+06    -113.490E+06    -35.6338E+06     937.972E+03         58.4269
            1385     5.54728E-03     106.247E-03     30.3136E-03    -6.15931E-03    -16.2262E-03    -13.9326E-03     29.0479E-03    -7.18719E-03    -687.794E-06     464.394E-03    -231.795E-03    -233.493E-03    -231.449E-03     463.550E-03    -232.996E-03     48.0587E-03    -13.2323E+06    -79.4052E+06    -91.2931E+06    -89.1478E+06    -81.5504E+06    -13.2323E+06     502.927E+03         58.7410
            1386     6.34012E-03     106.306E-03     25.3891E-03    -3.97859E-03    -13.3752E-03    -8.39737E-03     24.1998E-03    -7.76703E-03     2.86862E-03     465.684E-03    -231.586E-03    -233.216E-03    -230.825E-03     464.426E-03    -232.718E-03     59.0249E-03     8.37680E+06    -31.1343E+06    -78.4489E+06    -78.4275E+06    -31.1557E+06     8.37680E+06     559.755E+03         59.1032
            1387     7.13289E-03     106.387E-03     26.7425E-03    -5.00615E-03    -13.4869E-03    -6.93217E-03     22.9483E-03    -7.76671E-03     2.94103E-03     467.011E-03    -231.639E-03    -233.115E-03    -229.952E-03     465.323E-03    -233.115E-03     68.4258E-03     26.3327E+06     8.06632E+06    -68.1350E+06    -68.1058E+06     8.03713E+06     26.3327E+06     63.3629E+03         59.5281
            1388     7.92585E-03     106.474E-03     29.5080E-03    -6.78876E-03    -13.3240E-03    -8.50117E-03     25.6507E-03    -7.75420E-03     2.53293E-03     466.478E-03    -232.060E-03    -233.416E-03    -230.871E-03     464.276E-03    -232.403E-03     78.1985E-03     39.5232E+06     19.2767E+06    -57.5595E+06    -57.5440E+06     19.2612E+06     39.5232E+06    -171.311E+03         60.1160
            1389     8.71773E-03     106.582E-03     28.6759E-03    -6.72656E-03    -13.2342E-03    -11.4803E-03     28.1807E-03    -7.98526E-03    -1.27961E-03     465.490E-03    -232.621E-03    -233.877E-03    -231.007E-03     462.864E-03    -232.865E-03     85.5014E-03     51.4818E+06     26.2818E+06    -48.1807E+06    -48.1548E+06     26.2558E+06     51.4818E+06     327.791E+03         61.0209
            1390     9.51129E-03     106.695E-03     26.6052E-03    -7.05808E-03    -11.6639E-03    -8.47940E-03     24.5672E-03    -8.20463E-03     5.85741E-03     466.789E-03    -233.289E-03    -233.851E-03    -230.445E-03     463.627E-03    -233.532E-03     93.7344E-03     62.5870E+06     27.5874E+06    -40.0578E+06    -40.0297E+06     27.5594E+06     62.5870E+06     76.0505E+03         62.3999
            1391     10.3056E-03     106.816E-03     23.1194E-03    -5.84250E-03    -9.76121E-03    -3.18720E-03     18.7719E-03    -8.06894E-03     64.4123E-06     468.138E-03    -232.843E-03    -234.507E-03    -230.626E-03     464.256E-03    -232.843E-03     104.065E-03     71.6405E+06     30.3248E+06    -32.3335E+06    -32.3267E+06     30.3179E+06     71.6405E+06     26.4355E+03         64.4940
            1392     11.0970E-03     106.963E-03     24.2977E-03    -5.93569E-03    -11.1939E-03    -6.36350E-03     21.4226E-03    -7.89094E-03    -9.04068E-03     470.057E-03    -232.245E-03    -236.462E-03    -231.645E-03     465.241E-03    -232.245E-03     116.050E-03     77.4742E+06     39.3677E+06    -24.6469E+06    -24.6182E+06     39.3390E+06     77.4742E+06     136.426E+03         67.6239
            1393     11.8942E-03     107.101E-03     27.7282E-03    -7.49512E-03    -12.7467E-03    -11.7955E-03     27.3591E-03    -8.07722E-03    -267.689E-06     470.183E-03    -232.620E-03    -236.914E-03    -231.601E-03     464.869E-03    -232.620E-03     122.124E-03     80.8826E+06     45.0393E+06    -17.2179E+06    -17.1563E+06     44.9777E+06     80.8826E+06    -156.477E+03         71.7941
            1394     12.6810E-03     107.310E-03     23.8439E-03    -5.27512E-03    -10.9264E-03    -7.63474E-03     23.5922E-03    -8.31509E-03    -3.04567E-03     473.534E-03    -232.700E-03    -240.621E-03    -232.400E-03     465.314E-03    -232.700E-03     149.798E-03     83.3310E+06     44.9855E+06    -10.7699E+06    -10.6410E+06     44.8565E+06     83.3310E+06    -172.733E+03         76.3904
            1395     13.4788E-03     107.552E-03     17.1691E-03    -2.09803E-03    -8.19560E-03    -1.59267E-03     16.6637E-03    -8.19560E-03    -572.655E-06     473.513E-03    -232.591E-03    -241.038E-03    -233.184E-03     465.659E-03    -232.591E-03     145.435E-03     86.9646E+06     46.8952E+06    -5.24349E+06    -5.10087E+06     46.7526E+06     86.9646E+06    -13.8657E+03         80.3184
            1396     792.315E-06     107.729E-03     128.928E-03     51.0197E-03    -168.644E-03    -65.2349E-03     25.5187E-03     51.0197E-03    -85.7899E-03     462.923E-03    -231.053E-03    -232.060E-03    -232.055E-03     462.919E-03    -231.053E-03     3.26395E-03    -136.603E+06    -138.865E+06    -259.758E+06    -138.808E+06    -259.727E+06    -136.690E+06    -1.15573E+06         57.1804
            1397     1.58450E-03     107.735E-03     83.0398E-03    -6.87092E-03    -66.2979E-03    -6.15162E-03     22.8935E-03    -6.87092E-03     50.7319E-03     463.705E-03    -231.693E-03    -232.921E-03    -232.906E-03     463.690E-03    -231.693E-03     6.06496E-03    -125.940E+06    -135.232E+06    -233.930E+06    -135.248E+06    -233.914E+06    -125.940E+06     511.788E+03         57.3944
            1398     2.37651E-03     107.738E-03     47.7066E-03    -6.94734E-03    -30.5154E-03    -8.55151E-03     25.7427E-03    -6.94734E-03    -28.6641E-03     465.948E-03    -232.374E-03    -233.528E-03    -233.485E-03     465.905E-03    -232.374E-03     10.6316E-03    -106.708E+06    -128.457E+06    -205.608E+06    -128.473E+06    -205.592E+06    -106.708E+06     482.347E+03         57.6733
            1399     3.16939E-03     107.740E-03     35.8035E-03    -7.25361E-03    -18.4556E-03    -7.57843E-03     24.9263E-03    -7.25361E-03     1.02079E-03     466.770E-03    -232.026E-03    -233.671E-03    -232.058E-03     466.650E-03    -233.520E-03     17.7846E-03    -84.1929E+06    -120.470E+06    -176.045E+06    -120.476E+06    -176.040E+06    -84.1929E+06     257.537E+03         57.9450
            1400     3.96164E-03     107.762E-03     36.0788E-03    -7.56254E-03    -19.2484E-03    -9.97561E-03     26.8061E-03    -7.56254E-03    -1.47760E-03     464.431E-03    -231.560E-03    -234.053E-03    -231.278E-03     464.149E-03    -234.053E-03     27.4652E-03    -59.7780E+06    -110.171E+06    -144.397E+06    -110.200E+06    -144.369E+06    -59.7780E+06     214.534E+03         58.1797
            1401     4.75395E-03     107.788E-03     34.9120E-03    -7.23418E-03    -18.5295E-03    -14.3073E-03     31.8068E-03    -8.35111E-03     15.4278E-03     463.158E-03    -231.354E-03    -233.652E-03    -230.846E-03     462.650E-03    -233.652E-03     37.2968E-03    -36.2614E+06    -99.2818E+06    -114.188E+06    -99.4868E+06    -113.983E+06    -36.2614E+06     655.050E+03         58.4256
            1402     5.54724E-03     107.838E-03     30.5386E-03    -6.87649E-03    -14.7422E-03    -10.7742E-03     28.7155E-03    -9.02131E-03    -11.0103E-03     464.167E-03    -231.701E-03    -233.531E-03    -231.387E-03     463.320E-03    -232.999E-03     48.1233E-03    -14.2730E+06    -79.3030E+06    -92.7861E+06    -89.9358E+06    -82.1533E+06    -14.2730E+06     1.26228E+06         58.7378
            1403     6.34026E-03     107.903E-03     25.2334E-03    -5.20204E-03    -11.5761E-03    -5.60549E-03     23.0512E-03    -8.99048E-03    -6.27486E-03     465.635E-03    -231.575E-03    -233.213E-03    -230.852E-03     464.380E-03    -232.680E-03     58.9683E-03     9.38780E+06    -30.2365E+06    -78.8730E+06    -78.7732E+06    -30.3364E+06     9.38780E+06     853.795E+03         59.0990
            1404     7.13247E-03     107.980E-03     26.3394E-03    -5.98885E-03    -11.2933E-03    -6.48964E-03     24.2963E-03    -8.74941E-03    -2.74824E-03     466.972E-03    -231.504E-03    -233.079E-03    -229.826E-03     465.294E-03    -233.079E-03     68.2256E-03     27.5956E+06     9.14366E+06    -67.5862E+06    -67.5297E+06     9.08715E+06     27.5956E+06     285.592E+03         59.5231
            1405     7.92557E-03     108.066E-03     28.6511E-03    -6.89775E-03    -12.7134E-03    -8.31680E-03     26.0739E-03    -8.71711E-03    -3.02552E-03     466.360E-03    -231.941E-03    -233.360E-03    -230.705E-03     464.175E-03    -232.411E-03     77.8842E-03     39.6521E+06     18.7914E+06    -58.2708E+06    -58.2394E+06     18.7600E+06     39.6521E+06      86.328E+03         60.1119
            1406     8.71773E-03     108.172E-03     26.2739E-03    -6.30227E-03    -10.9382E-03    -7.22240E-03     24.9569E-03    -8.70103E-03     862.437E-06     465.433E-03    -232.669E-03    -233.830E-03    -231.000E-03     462.814E-03    -232.881E-03     85.3681E-03     51.1278E+06     25.8861E+06    -49.0765E+06    -49.0414E+06     25.8510E+06     51.1278E+06    -138.924E+03         61.0198
            1407     9.51003E-03     108.288E-03     25.3975E-03    -7.18827E-03    -9.59596E-03    -7.63884E-03     24.8731E-03    -8.62096E-03     247.585E-06     466.620E-03    -233.315E-03    -233.796E-03    -230.415E-03     463.451E-03    -233.526E-03     93.8214E-03     62.5555E+06     28.5538E+06    -39.5369E+06    -39.4941E+06     28.5110E+06     62.5555E+06     437.024E+03         62.4042
            1408     10.3048E-03     108.408E-03     29.6663E-03    -7.78430E-03    -12.8843E-03    -9.10668E-03     26.7420E-03    -8.63759E-03    -3.29639E-03     467.912E-03    -232.845E-03    -234.369E-03    -230.490E-03     464.033E-03    -232.845E-03     104.015E-03     72.4226E+06     30.7068E+06    -30.8484E+06    -30.8393E+06     30.6977E+06     72.4226E+06     593.564E+03         64.5041
            1409     11.0973E-03     108.555E-03     31.1789E-03    -7.84327E-03    -14.0889E-03    -9.85275E-03     27.8586E-03    -8.75905E-03    -754.134E-06     469.991E-03    -232.182E-03    -236.477E-03    -231.661E-03     465.175E-03    -232.182E-03     116.029E-03     78.3966E+06     39.0761E+06    -22.9993E+06    -22.9835E+06     39.0603E+06     78.3966E+06    -261.216E+03         67.6366
            1410     11.8937E-03     108.696E-03     25.8587E-03    -4.94506E-03    -11.3720E-03    -6.75317E-03     25.0558E-03    -8.76099E-03     8.61031E-03     470.056E-03    -232.507E-03    -237.019E-03    -231.707E-03     464.745E-03    -232.507E-03     122.098E-03     81.4071E+06     44.8453E+06    -16.3068E+06    -16.2783E+06     44.8167E+06     81.4071E+06    -122.264E+03         71.8083
            1411     12.6819E-03     108.907E-03     23.9171E-03    -3.78453E-03    -10.6616E-03    -5.50726E-03     23.5420E-03    -8.56377E-03    -1.31528E-03     473.544E-03    -232.642E-03    -240.684E-03    -232.494E-03     465.354E-03    -232.642E-03     149.544E-03     83.5888E+06     44.6604E+06    -10.8129E+06    -10.6855E+06     44.5331E+06     83.5888E+06     373.925E+03         76.4083
            1412     13.4779E-03     109.148E-03     24.9363E-03    -6.08470E-03    -10.8275E-03    -7.97267E-03     24.4146E-03    -8.41785E-03    -1.00541E-03     473.541E-03    -232.574E-03    -241.023E-03    -233.204E-03     465.722E-03    -232.574E-03     145.128E-03     87.1057E+06     46.9387E+06    -5.53108E+06    -5.36817E+06     46.7758E+06     87.1057E+06     118.664E+03         80.3420
            1413     792.683E-06     109.323E-03     117.077E-03     47.7605E-03    -153.318E-03    -73.7781E-03     26.5770E-03     58.7210E-03    -82.9413E-03     463.327E-03    -231.063E-03    -232.326E-03    -232.057E-03     463.324E-03    -231.328E-03     2.86310E-03    -134.929E+06    -137.883E+06    -258.488E+06    -137.916E+06    -258.455E+06    -134.929E+06    -185.560E+03         57.1874
            1414     1.58506E-03     109.327E-03     71.8685E-03    -6.88301E-03    -53.6871E-03    -4.32785E-03     22.5093E-03    -6.88301E-03     30.8816E-03     463.939E-03    -231.742E-03    -232.878E-03    -232.865E-03     463.925E-03    -231.742E-03     5.76435E-03    -124.193E+06    -134.043E+06    -234.429E+06    -134.056E+06    -234.416E+06    -124.193E+06    -310.783E+03         57.3981
            1415     2.37745E-03     109.329E-03     47.3744E-03    -6.54986E-03    -30.8160E-03    -8.32098E-03     24.8793E-03    -6.54986E-03    -25.8049E-03     465.889E-03    -232.409E-03    -233.366E-03    -233.325E-03     465.847E-03    -232.409E-03     10.3384E-03    -107.193E+06    -128.314E+06    -206.187E+06    -128.321E+06    -206.179E+06    -107.193E+06    -87.5314E+03         57.6764
            1416     3.16915E-03     109.335E-03     45.2734E-03    -8.11095E-03    -24.0969E-03    -18.0659E-03     39.2425E-03    -8.11095E-03     2.33221E-03     466.897E-03    -232.136E-03    -233.772E-03    -232.244E-03     466.776E-03    -233.543E-03     17.8360E-03    -84.7258E+06    -119.695E+06    -175.649E+06    -119.700E+06    -175.644E+06    -84.7258E+06    -143.974E+03         57.9494
            1417     3.96128E-03     109.356E-03     45.1775E-03    -9.84959E-03    -22.1615E-03    -17.0488E-03     40.2960E-03    -10.0807E-03    -3.02147E-03     464.417E-03    -231.746E-03    -234.091E-03    -231.457E-03     464.128E-03    -234.091E-03     27.8265E-03    -61.0413E+06    -110.448E+06    -145.018E+06    -110.472E+06    -144.994E+06    -61.0413E+06     45.8441E+03         58.1837
            1418     4.75488E-03     109.379E-03     31.9073E-03    -5.74719E-03    -13.8425E-03    -5.62340E-03     28.3470E-03    -10.4060E-03     9.65788E-03     463.208E-03    -231.597E-03    -233.682E-03    -231.084E-03     462.695E-03    -233.682E-03     37.4951E-03    -37.0050E+06    -100.561E+06    -116.306E+06    -100.765E+06    -116.102E+06    -37.0050E+06     686.934E+03         58.4283
            1419     5.54767E-03     109.427E-03     25.7493E-03    -3.89028E-03    -11.4083E-03    -3.89550E-03     23.9536E-03    -9.60735E-03    -10.8152E-03     464.406E-03    -231.883E-03    -233.603E-03    -231.617E-03     463.567E-03    -233.029E-03     47.9472E-03    -13.0673E+06    -79.0627E+06    -92.1928E+06    -89.2477E+06    -82.0078E+06    -13.0673E+06     1.09533E+06         58.7396
            1420     6.33964E-03     109.493E-03     32.0799E-03    -7.98549E-03    -14.9285E-03    -10.8778E-03     29.3186E-03    -9.27490E-03     6.67356E-03     465.645E-03    -231.515E-03    -233.302E-03    -230.847E-03     464.404E-03    -232.728E-03     58.6096E-03     9.52998E+06    -29.7532E+06    -78.1854E+06    -78.0580E+06    -29.8806E+06     9.52998E+06     1.01261E+06         59.0990
            1421     7.13248E-03     109.573E-03     30.7950E-03    -9.39543E-03    -13.3840E-03    -10.6026E-03     28.0135E-03    -9.39543E-03     7.90869E-03     466.735E-03    -231.324E-03    -233.128E-03    -229.652E-03     465.064E-03    -233.128E-03     68.0610E-03     27.1519E+06     9.03576E+06    -68.1474E+06    -68.0727E+06     8.96104E+06     27.1519E+06     923.479E+03         59.5218
            1422     7.92611E-03     109.659E-03     25.6110E-03    -7.36809E-03    -10.0107E-03    -4.74397E-03     22.1636E-03    -9.18746E-03     6.48174E-03     466.069E-03    -231.831E-03    -233.118E-03    -230.318E-03     463.860E-03    -232.422E-03     78.2570E-03     40.1703E+06     19.2032E+06    -57.9145E+06    -57.8894E+06     19.1780E+06     40.1703E+06     733.756E+03         60.1094
            1423     8.71872E-03     109.770E-03     25.0347E-03    -6.67611E-03    -10.2294E-03    -5.63951E-03     22.5504E-03    -8.78162E-03     9.24834E-03     465.293E-03    -232.670E-03    -233.563E-03    -230.693E-03     462.621E-03    -232.868E-03     86.2174E-03     52.0280E+06     26.2819E+06    -48.4457E+06    -48.4152E+06     26.2514E+06     52.0280E+06     85.5978E+03         61.0189
            1424     9.51145E-03     109.879E-03     28.4603E-03    -8.36531E-03    -11.6654E-03    -9.45399E-03     26.5351E-03    -8.65145E-03     7.67871E-03     466.736E-03    -233.270E-03    -234.047E-03    -230.649E-03     463.536E-03    -233.468E-03     94.3223E-03     62.1635E+06     28.4501E+06    -40.0684E+06    -40.0236E+06     28.4053E+06     62.1635E+06    -275.134E+03         62.4093
            1425     10.3058E-03     110.001E-03     32.0849E-03    -8.52231E-03    -13.0102E-03    -10.6671E-03     29.9492E-03    -8.72977E-03     9.46969E-03     468.074E-03    -232.799E-03    -234.684E-03    -230.796E-03     464.186E-03    -232.799E-03     104.164E-03     71.5434E+06     30.8773E+06    -31.5337E+06    -31.5148E+06     30.8584E+06     71.5434E+06    -213.005E+03         64.5149
            1426     11.0967E-03     110.153E-03     28.8141E-03    -7.03950E-03    -10.7516E-03    -8.22366E-03     27.9714E-03    -8.72478E-03     3.31251E-03     470.101E-03    -232.162E-03    -236.519E-03    -231.695E-03     465.278E-03    -232.162E-03     116.137E-03     77.8968E+06      38.341E+06    -23.8373E+06    -23.8339E+06     38.3376E+06     77.8968E+06    -161.680E+03         67.6505
            1427     11.8942E-03     110.295E-03     24.9235E-03    -4.14123E-03    -9.86602E-03    -4.76817E-03     24.2036E-03    -8.51920E-03     6.52573E-03     470.025E-03    -232.460E-03    -237.045E-03    -231.745E-03     464.725E-03    -232.460E-03     121.965E-03     81.6083E+06     43.9409E+06    -17.2397E+06    -17.2177E+06     43.9188E+06     81.6083E+06     323.983E+03         71.8238
            1428     12.6810E-03     110.505E-03     27.1758E-03    -5.46179E-03    -11.2729E-03    -7.95249E-03     26.7555E-03    -8.36195E-03     1.98812E-03     473.426E-03    -232.616E-03    -240.690E-03    -232.515E-03     465.250E-03    -232.616E-03     149.378E-03     84.3062E+06     45.1283E+06    -11.1211E+06    -10.9991E+06     45.0063E+06     84.3062E+06     563.289E+03         76.4254
            1429     13.4787E-03     110.746E-03     30.8848E-03    -8.44264E-03    -11.5045E-03    -11.1693E-03     30.5495E-03    -8.44264E-03    -2.69257E-03     473.528E-03    -232.566E-03    -240.963E-03    -233.152E-03     465.717E-03    -232.566E-03     145.036E-03     87.5233E+06     47.7020E+06    -5.41755E+06    -5.25846E+06     47.5429E+06     87.5233E+06     292.045E+03         80.3626
            1430     791.529E-06     110.918E-03     123.914E-03     54.9898E-03    -170.273E-03    -91.2037E-03     31.9806E-03     67.8538E-03    -75.7567E-03     464.160E-03    -231.638E-03    -232.310E-03    -231.832E-03     464.155E-03    -232.111E-03     3.14944E-03    -133.478E+06    -136.982E+06    -258.324E+06    -136.933E+06    -258.279E+06    -133.572E+06     1.27029E+06         57.1892
            1431     1.58342E-03     110.923E-03     92.0022E-03    -12.3749E-03    -70.1383E-03    -14.9376E-03     36.8015E-03    -12.3749E-03     21.3266E-03     464.194E-03    -232.011E-03    -232.845E-03    -232.781E-03     464.182E-03    -232.063E-03     5.56227E-03    -122.817E+06    -133.390E+06    -234.038E+06    -133.421E+06    -234.007E+06    -122.817E+06     61.5905E+03         57.3976
            1432     2.37643E-03     110.922E-03     69.7677E-03    -12.2836E-03    -45.3263E-03    -7.82455E-03     32.2660E-03    -12.2836E-03    -25.4043E-03     465.663E-03    -232.475E-03    -233.250E-03    -233.153E-03     465.620E-03    -232.529E-03     10.3897E-03    -105.420E+06    -127.188E+06    -206.525E+06    -127.203E+06    -206.510E+06    -105.420E+06    -1.97352E+03         57.6744
            1433     3.16902E-03     110.932E-03     47.6881E-03    -9.12657E-03    -26.3488E-03    -7.09231E-03     30.3615E-03    -11.0565E-03     25.1517E-03     466.615E-03    -231.966E-03    -233.671E-03    -231.982E-03     466.493E-03    -233.533E-03     17.9671E-03    -83.5545E+06    -119.379E+06    -176.039E+06    -119.393E+06    -176.025E+06    -83.5545E+06     373.853E+03         57.9455
            1434     3.96200E-03     110.950E-03     35.1422E-03    -6.90691E-03    -14.6682E-03    -7.06643E-03     30.8634E-03    -10.2299E-03    -8.19795E-03     464.358E-03    -231.759E-03    -234.054E-03    -231.476E-03     464.075E-03    -234.054E-03     27.5363E-03    -60.0229E+06    -110.978E+06    -146.199E+06    -110.999E+06    -146.178E+06    -60.0229E+06     557.808E+03         58.1797
            1435     4.75445E-03     110.978E-03     27.3865E-03    -4.61151E-03    -9.66669E-03    -2.87633E-03     25.2999E-03    -9.31529E-03     4.58386E-03     463.550E-03    -231.994E-03    -233.699E-03    -231.484E-03     463.040E-03    -233.699E-03     37.3926E-03    -35.6038E+06    -99.8971E+06    -116.066E+06    -99.9225E+06    -116.040E+06    -35.6038E+06     232.650E+03         58.4251
            1436     5.54628E-03     111.028E-03     24.5674E-03    -3.77195E-03    -9.72999E-03    -3.84902E-03     23.2866E-03    -8.37208E-03     2.39649E-03     464.673E-03    -232.155E-03    -233.571E-03    -231.804E-03     463.827E-03    -233.076E-03     48.1385E-03    -13.1125E+06    -79.7110E+06    -91.2885E+06    -88.3099E+06    -82.6896E+06    -13.1125E+06     229.653E+03         58.7364
            1437     6.33946E-03     111.092E-03     28.1168E-03    -6.69588E-03    -12.5293E-03    -8.23301E-03     25.1099E-03    -7.98528E-03     19.1167E-03     465.508E-03    -231.492E-03    -233.273E-03    -230.725E-03     464.246E-03    -232.778E-03     59.0788E-03     8.69040E+06    -31.5703E+06    -78.0775E+06    -77.9928E+06    -31.6550E+06     8.69040E+06     1.22477E+06         59.0963
            1438     7.13237E-03     111.168E-03     31.8902E-03    -8.18039E-03    -16.3570E-03    -12.7385E-03     28.2717E-03    -8.18039E-03     4.70158E-03     466.446E-03    -231.175E-03    -233.104E-03    -229.473E-03     464.743E-03    -233.104E-03     68.6720E-03     27.3381E+06     9.48232E+06    -67.4224E+06    -67.3496E+06     9.40948E+06     27.3381E+06     1.48117E+06         59.5206
            1439     7.92583E-03     111.256E-03     33.6604E-03    -8.71090E-03    -17.5292E-03    -14.8861E-03     31.0173E-03    -8.71090E-03    -451.971E-06     465.947E-03    -231.705E-03    -232.946E-03    -230.072E-03     463.716E-03    -232.347E-03     78.6410E-03     40.1093E+06     20.0404E+06    -57.3791E+06    -57.3460E+06     20.0074E+06     40.1093E+06     826.113E+03         60.1087
            1440     8.71956E-03     111.366E-03     32.8533E-03    -9.20774E-03    -15.5148E-03    -12.2296E-03     29.5682E-03    -9.20774E-03    -1.93674E-03     465.186E-03    -232.507E-03    -233.411E-03    -230.444E-03     462.524E-03    -232.812E-03     86.0242E-03     51.6087E+06     26.7454E+06    -47.8699E+06    -47.8570E+06     26.7325E+06     51.6087E+06     801.808E+03         61.0195
            1441     9.51213E-03     111.482E-03     28.4237E-03    -7.23120E-03    -12.7547E-03    -6.90637E-03     24.6925E-03    -9.34827E-03    -3.48304E-03     466.904E-03    -233.127E-03    -234.234E-03    -230.756E-03     463.731E-03    -233.433E-03     93.9400E-03     62.5130E+06     28.8583E+06    -39.0979E+06    -39.0775E+06     28.8380E+06     62.5130E+06     123.747E+03         62.4163
            1442     10.3058E-03     111.603E-03     24.5211E-03    -5.30373E-03    -10.3654E-03    -2.12592E-03     20.0647E-03    -9.08685E-03    -1.25939E-03     468.535E-03    -232.792E-03    -235.000E-03    -231.112E-03     464.647E-03    -232.792E-03     104.213E-03     72.2347E+06     30.4891E+06    -31.3300E+06    -31.3134E+06     30.4725E+06     72.2347E+06    -302.039E+03         64.5280
            1443     11.0976E-03     111.753E-03     22.9116E-03    -4.91203E-03    -8.67440E-03    -2.29958E-03     20.2991E-03    -8.67440E-03    -8.24250E-03     470.191E-03    -232.200E-03    -236.580E-03    -231.742E-03     465.353E-03    -232.200E-03     116.331E-03     78.4317E+06     37.8309E+06    -24.2861E+06    -24.2549E+06     37.7997E+06     78.4317E+06     588.820E+03         67.6645
            1444     11.8938E-03     111.892E-03     24.6622E-03    -5.97162E-03    -9.80570E-03    -7.23056E-03     24.5744E-03    -8.45889E-03     2.60721E-03     469.803E-03    -232.468E-03    -236.947E-03    -231.625E-03     464.481E-03    -232.468E-03     122.188E-03     81.7067E+06     43.8891E+06    -17.3765E+06    -17.3191E+06     43.8317E+06     81.7067E+06     553.162E+03         71.8383
            1445     12.6820E-03     112.103E-03     25.5369E-03    -6.93183E-03    -9.79735E-03    -8.04378E-03     25.2828E-03    -8.43134E-03     5.60771E-03     473.190E-03    -232.573E-03    -240.602E-03    -232.379E-03     464.966E-03    -232.573E-03     149.779E-03     84.1090E+06     45.0606E+06    -10.9979E+06    -10.8613E+06     44.9240E+06     84.1090E+06     308.593E+03         76.4417
            1446     13.4784E-03     112.342E-03     24.8047E-03    -5.83309E-03    -8.97773E-03    -5.68688E-03     24.0062E-03    -8.32548E-03     4.58399E-03     473.568E-03    -232.537E-03    -241.122E-03    -233.273E-03     465.720E-03    -232.537E-03     145.368E-03     87.1666E+06     48.1540E+06    -5.33734E+06    -5.18101E+06     47.9977E+06     87.1666E+06     358.414E+03         80.3826
            1447     792.110E-06     112.512E-03     145.887E-03     69.9204E-03    -205.399E-03    -92.5354E-03     31.1202E-03     71.8239E-03    -78.3243E-03     463.797E-03    -231.629E-03    -232.057E-03    -231.711E-03     463.792E-03    -231.970E-03     3.16245E-03    -135.809E+06    -139.130E+06    -261.394E+06    -138.718E+06    -261.359E+06    -136.256E+06     563.037E+03         57.1777
            1448     1.58466E-03     112.514E-03     111.669E-03    -10.7926E-03    -92.0824E-03    -12.5239E-03     32.1108E-03    -10.7926E-03     46.6913E-03     463.733E-03    -231.914E-03    -232.811E-03    -232.613E-03     463.719E-03    -232.098E-03     6.17410E-03    -123.047E+06    -134.209E+06    -234.166E+06    -134.262E+06    -234.113E+06    -123.047E+06     1.26223E+06         57.3882
            1449     2.37648E-03     112.515E-03     78.0611E-03    -10.7469E-03    -56.9941E-03    -8.00020E-03     29.0672E-03    -10.7469E-03    -21.4437E-03     465.578E-03    -232.516E-03    -233.315E-03    -233.214E-03     465.532E-03    -232.570E-03     10.8890E-03    -104.714E+06    -128.147E+06    -206.457E+06    -128.189E+06    -206.415E+06    -104.714E+06     886.328E+03         57.6682
            1450     3.16924E-03     112.522E-03     47.5587E-03    -7.06704E-03    -31.0135E-03     1.00837E-03     17.4668E-03    -8.99694E-03     34.5583E-03     466.466E-03    -231.941E-03    -233.534E-03    -231.849E-03     466.343E-03    -233.503E-03     18.0858E-03    -83.0946E+06    -120.806E+06    -177.082E+06    -120.827E+06    -177.060E+06    -83.0946E+06     947.089E+03         57.9400
            1451     3.96185E-03     112.544E-03     28.7292E-03    -3.63936E-03    -16.1496E-03     2.73566E-03     12.9357E-03    -6.73116E-03    -297.917E-06     464.410E-03    -231.691E-03    -234.043E-03    -231.407E-03     464.126E-03    -234.043E-03     27.5517E-03    -58.7781E+06    -110.382E+06    -145.562E+06    -110.401E+06    -145.543E+06    -58.7781E+06     705.116E+03         58.1723
            1452     4.75430E-03     112.571E-03     32.4047E-03    -4.83039E-03    -16.7995E-03    -9.35403E-03     26.1212E-03    -5.99229E-03     17.7822E-03     463.435E-03    -231.754E-03    -233.707E-03    -231.232E-03     462.913E-03    -233.707E-03     37.7969E-03    -35.5296E+06    -99.7071E+06    -114.924E+06    -99.8271E+06    -114.804E+06    -35.5296E+06     332.402E+03         58.4169
            1453     5.54717E-03     112.623E-03     37.1492E-03    -7.05293E-03    -20.0440E-03    -18.4115E-03     35.5167E-03    -7.05293E-03    -5.74885E-03     464.397E-03    -231.954E-03    -233.557E-03    -231.591E-03     463.540E-03    -233.063E-03     48.4973E-03    -13.8019E+06    -81.2821E+06    -92.3560E+06    -89.8183E+06    -83.8198E+06    -13.8019E+06     166.748E+03         58.7294
            1454     6.33955E-03     112.688E-03     34.0959E-03    -8.31412E-03    -17.9789E-03    -14.5576E-03     30.6746E-03    -8.31412E-03    -4.19611E-03     465.294E-03    -231.470E-03    -233.209E-03    -230.698E-03     464.028E-03    -232.715E-03     59.1788E-03     8.48766E+06    -33.4168E+06    -78.1404E+06    -78.0549E+06    -33.5023E+06     8.48766E+06     131.933E+03         59.0923
            1455     7.13284E-03     112.768E-03     30.6310E-03    -7.77376E-03    -15.7926E-03    -11.3805E-03     27.4192E-03    -8.97398E-03    -8.75822E-03     466.442E-03    -231.201E-03    -233.043E-03    -229.499E-03     464.739E-03    -233.043E-03     68.6888E-03     26.6440E+06     8.40942E+06    -66.8126E+06    -66.7811E+06     8.37786E+06     26.6440E+06     1.09530E+06         59.5208
            1456     7.92672E-03     112.853E-03     31.6866E-03    -7.15341E-03    -17.4939E-03    -13.2315E-03     29.6877E-03    -9.41681E-03    -3.15899E-03     466.260E-03    -231.731E-03    -233.223E-03    -230.421E-03     464.055E-03    -232.328E-03     78.2412E-03     40.3496E+06     21.0125E+06    -56.8598E+06    -56.8056E+06     20.9582E+06     40.3496E+06     1.62754E+06         60.1113
            1457     8.71855E-03     112.963E-03     33.8768E-03    -8.74995E-03    -17.3911E-03    -13.5363E-03     31.0852E-03    -9.81313E-03     1.53896E-03     465.380E-03    -232.473E-03    -233.705E-03    -230.742E-03     462.754E-03    -232.810E-03     85.4739E-03     52.2752E+06     27.5493E+06    -47.9930E+06    -47.9672E+06     27.5235E+06     52.2752E+06     937.838E+03         61.0224
            1458     9.51121E-03     113.078E-03     30.9597E-03    -7.87451E-03    -14.9770E-03    -10.5415E-03     28.6413E-03    -9.99159E-03    -3.70978E-03     466.826E-03    -233.109E-03    -234.041E-03    -230.546E-03     463.668E-03    -233.446E-03     93.6895E-03     63.1807E+06     29.3234E+06    -39.3168E+06    -39.3014E+06     29.3080E+06     63.1807E+06     706.537E+03         62.4217
            1459     10.3063E-03     113.200E-03     24.9288E-03    -6.24098E-03    -10.7681E-03    -4.60156E-03     22.3380E-03    -9.81665E-03    -6.94099E-03     468.573E-03    -232.793E-03    -234.764E-03    -230.883E-03     464.692E-03    -232.793E-03     104.107E-03     72.8626E+06     30.6724E+06    -31.3445E+06    -31.3242E+06     30.6521E+06     72.8626E+06     526.533E+03         64.5378
            1460     11.0970E-03     113.349E-03     21.6657E-03    -5.03242E-03    -9.45306E-03    -2.12555E-03     18.7067E-03    -9.40094E-03    -3.63711E-03     470.241E-03    -232.222E-03    -236.464E-03    -231.631E-03     465.409E-03    -232.222E-03     116.252E-03     79.0355E+06     37.3098E+06    -23.4938E+06    -23.4616E+06     37.2776E+06     79.0355E+06     542.845E+03         67.6756
            1461     11.8948E-03     113.489E-03     20.0285E-03    -4.36913E-03    -9.03224E-03    -3.63509E-03     19.2945E-03    -9.03224E-03     6.76310E-03     469.663E-03    -232.475E-03    -236.841E-03    -231.514E-03     464.336E-03    -232.475E-03     122.229E-03     82.0916E+06     43.3297E+06    -16.4086E+06    -16.3109E+06     43.2320E+06     82.0916E+06     966.076E+03         71.8488
            1462     12.6824E-03     113.699E-03     20.4754E-03    -5.75203E-03    -8.78182E-03    -3.92441E-03     18.6478E-03    -8.78182E-03    -1.67408E-03     473.143E-03    -232.536E-03    -240.630E-03    -232.428E-03     464.941E-03    -232.536E-03     149.633E-03     83.9104E+06     45.4945E+06    -10.8744E+06    -10.7201E+06     45.3402E+06     83.9104E+06     949.255E+03         76.4554
            1463     13.4794E-03     113.941E-03     19.3523E-03    -4.26174E-03    -8.51905E-03    -1.72774E-03     16.8183E-03    -8.51905E-03    -3.94192E-03     473.641E-03    -232.516E-03    -241.413E-03    -233.598E-03     465.827E-03    -232.516E-03     145.099E-03     86.9414E+06     48.8134E+06    -5.57231E+06    -5.45505E+06     48.6962E+06     86.9414E+06     383.772E+03         80.4021
            1464     792.107E-06     114.104E-03     148.414E-03     77.1891E-03    -213.733E-03    -92.4145E-03     21.8575E-03     82.4269E-03    -100.872E-03     463.281E-03    -231.407E-03    -231.981E-03    -231.846E-03     463.278E-03    -231.539E-03     2.54592E-03    -136.708E+06    -138.765E+06    -262.468E+06    -138.427E+06    -262.453E+06    -137.061E+06    -619.242E+03         57.1622
            1465     1.58445E-03     114.108E-03     99.7008E-03    -4.40885E-03    -87.3103E-03    -2.13445E-03     14.5249E-03    -4.40885E-03     43.6982E-03     463.155E-03    -231.787E-03    -232.598E-03    -232.453E-03     463.142E-03    -231.919E-03     5.67343E-03    -125.739E+06    -134.718E+06    -236.373E+06    -134.751E+06    -236.340E+06    -125.739E+06     641.460E+03         57.3744
            1466     2.37685E-03     114.111E-03     60.8073E-03    -4.22436E-03    -49.6144E-03    -6.53844E-03     17.7313E-03    -4.22436E-03    -34.6068E-03     465.535E-03    -232.384E-03    -233.269E-03    -233.227E-03     465.493E-03    -232.384E-03     10.3821E-03    -105.488E+06    -128.347E+06    -207.173E+06    -128.402E+06    -207.118E+06    -105.488E+06     1.46766E+06         57.6593
            1467     3.16898E-03     114.115E-03     43.0269E-03    -4.88895E-03    -30.9544E-03    -7.13189E-03     19.2044E-03    -4.88895E-03     8.14631E-03     466.575E-03    -231.904E-03    -233.651E-03    -232.070E-03     466.448E-03    -233.358E-03     18.2465E-03    -82.5815E+06    -120.147E+06    -176.874E+06    -120.181E+06    -176.840E+06    -82.5815E+06     951.571E+03         57.9346
            1468     3.96169E-03     114.140E-03     41.8944E-03    -5.97724E-03    -30.2220E-03    -13.7208E-03     25.3932E-03    -5.97724E-03    -5.71744E-03     464.191E-03    -231.609E-03    -234.057E-03    -231.313E-03     463.895E-03    -234.057E-03     28.2000E-03    -59.5868E+06    -110.529E+06    -146.196E+06    -110.585E+06    -146.141E+06    -59.5868E+06     954.469E+03         58.1652
            1469     4.75505E-03     114.165E-03     40.3230E-03    -7.68127E-03    -25.8421E-03    -17.4697E-03     31.9506E-03    -7.68127E-03     11.0152E-03     463.155E-03    -231.419E-03    -233.684E-03    -230.889E-03     462.626E-03    -233.684E-03     38.0511E-03    -35.7949E+06    -100.353E+06    -115.058E+06    -100.558E+06    -114.853E+06    -35.7949E+06     1.23187E+06         58.4096
            1470     5.54762E-03     114.216E-03     38.9407E-03    -9.17222E-03    -22.1897E-03    -18.3546E-03     35.2388E-03    -9.30529E-03    -17.9641E-03     464.238E-03    -231.732E-03    -233.557E-03    -231.430E-03     463.382E-03    -233.003E-03     48.4740E-03    -12.4957E+06    -80.5206E+06    -91.7502E+06    -89.5542E+06    -82.7165E+06    -12.4957E+06     559.489E+03         58.7264
            1471     6.34067E-03     114.281E-03     38.3513E-03    -10.4429E-03    -20.5751E-03    -18.5308E-03     36.4401E-03    -10.5760E-03    -14.4829E-03     465.454E-03    -231.657E-03    -233.141E-03    -230.956E-03     464.199E-03    -232.587E-03     58.9377E-03     8.02856E+06    -33.9034E+06    -79.4109E+06    -79.3240E+06    -33.9903E+06     8.02856E+06     199.475E+03         59.0938
            1472     7.13328E-03     114.358E-03     30.2177E-03    -8.01626E-03    -14.6433E-03    -9.61435E-03     28.2417E-03    -11.0692E-03    -12.6871E-03     466.808E-03    -231.566E-03    -232.990E-03    -229.880E-03     465.122E-03    -232.990E-03     68.3687E-03     25.5320E+06     7.14646E+06    -68.7872E+06    -68.7837E+06     7.14290E+06     25.5320E+06     358.706E+03         59.5256
            1473     7.92579E-03     114.450E-03     22.5295E-03    -3.67223E-03    -10.5971E-03    -1.64767E-03     20.5049E-03    -10.5971E-03     1.30958E-03     466.440E-03    -231.889E-03    -233.365E-03    -230.664E-03     464.234E-03    -232.384E-03     78.2536E-03     39.1101E+06     20.4683E+06    -57.9099E+06    -57.8816E+06     20.4400E+06     39.1101E+06     630.538E+03         60.1170
            1474     8.71844E-03     114.558E-03     25.6562E-03    -5.10662E-03    -12.5475E-03    -2.15260E-03     19.9835E-03    -9.82885E-03     3.18172E-03     465.358E-03    -232.514E-03    -233.817E-03    -230.861E-03     462.724E-03    -232.835E-03     85.6244E-03     52.3032E+06     27.7764E+06    -47.9665E+06    -47.9175E+06     27.7274E+06     52.3032E+06     1.20448E+06         61.0276
            1475     9.51226E-03     114.674E-03     28.4332E-03    -7.67209E-03    -12.9124E-03    -5.82688E-03     22.9700E-03    -9.29441E-03     2.40263E-03     466.727E-03    -233.106E-03    -234.018E-03    -230.530E-03     463.560E-03    -233.427E-03     93.8048E-03     63.8315E+06     29.3614E+06    -39.3667E+06    -39.3275E+06     29.3222E+06     63.8315E+06     1.40581E+06         62.4271
            1476     10.3053E-03     114.795E-03     29.3253E-03    -8.34645E-03    -12.6850E-03    -11.2396E-03     28.6520E-03    -9.11852E-03     2.86363E-03     468.206E-03    -232.744E-03    -234.562E-03    -230.669E-03     464.312E-03    -232.744E-03     104.236E-03     72.9847E+06     30.7381E+06    -31.5331E+06    -31.4896E+06     30.6946E+06     72.9847E+06     1.08335E+06         64.5439
            1477     11.0978E-03     114.947E-03     29.5842E-03    -7.82331E-03    -14.4981E-03    -12.5416E-03     29.0033E-03    -9.19895E-03     1.91378E-03     469.832E-03    -232.161E-03    -236.260E-03    -231.435E-03     465.007E-03    -232.161E-03     116.127E-03     78.7270E+06     37.3419E+06    -24.3559E+06    -24.3153E+06     37.3013E+06     78.7270E+06     715.197E+03         67.6823
            1478     11.8944E-03     115.088E-03     25.0364E-03    -6.49989E-03    -12.5526E-03    -8.74596E-03     23.9676E-03    -9.23776E-03     9.99525E-03     469.696E-03    -232.451E-03    -236.852E-03    -231.527E-03     464.371E-03    -232.451E-03     122.207E-03     81.3268E+06     42.3575E+06    -17.8229E+06    -17.7432E+06     42.2778E+06     81.3268E+06     900.377E+03         71.8575
            1479     12.6822E-03     115.300E-03     23.3699E-03    -7.60369E-03    -10.1581E-03    -6.51537E-03     21.2574E-03    -9.13398E-03    -1.57272E-03     473.460E-03    -232.567E-03    -240.797E-03    -232.614E-03     465.277E-03    -232.567E-03     149.566E-03     83.9247E+06     45.8116E+06    -11.3060E+06    -11.1981E+06     45.7036E+06     83.9247E+06     702.751E+03         76.4690
            1480     13.4786E-03     115.540E-03     22.8548E-03    -7.19806E-03    -10.2252E-03    -5.30077E-03     19.6953E-03    -8.96299E-03    -3.46035E-03     473.603E-03    -232.530E-03    -241.395E-03    -233.587E-03     465.796E-03    -232.530E-03     145.145E-03     87.6527E+06     50.0556E+06    -5.41621E+06    -5.35741E+06     49.9968E+06     87.6527E+06     359.300E+03         80.4223
            1481     792.671E-06     115.697E-03     167.460E-03     79.6442E-03    -235.755E-03    -119.106E-03     26.7399E-03     103.716E-03    -127.283E-03     463.489E-03    -231.362E-03    -232.122E-03    -232.119E-03     463.486E-03    -231.362E-03     2.63929E-03    -134.920E+06    -137.259E+06    -262.466E+06    -137.068E+06    -262.454E+06    -135.123E+06     587.475E+03         57.1502
            1482     1.58427E-03     115.701E-03     104.495E-03    -8.10072E-03    -88.3306E-03    -9.90812E-03     26.0722E-03    -8.10072E-03     29.2882E-03     463.475E-03    -231.862E-03    -232.444E-03    -232.432E-03     463.463E-03    -231.862E-03     5.32471E-03    -125.271E+06    -134.071E+06    -236.960E+06    -134.077E+06    -236.954E+06    -125.271E+06    -355.806E+03         57.3611
            1483     2.37666E-03     115.704E-03     63.2243E-03    -8.50529E-03    -47.2569E-03    -8.03918E-03     24.0067E-03    -8.50529E-03    -55.2212E-03     465.433E-03    -232.255E-03    -232.997E-03    -232.954E-03     465.390E-03    -232.255E-03     10.5058E-03    -106.484E+06    -127.372E+06    -208.834E+06    -127.403E+06    -208.804E+06    -106.484E+06     101.810E+03         57.6483
            1484     3.16921E-03     115.713E-03     43.7388E-03    -9.49357E-03    -27.1666E-03    -17.4570E-03     34.0292E-03    -9.49357E-03     4.76360E-03     466.419E-03    -231.765E-03    -233.649E-03    -232.085E-03     466.292E-03    -233.203E-03     18.2287E-03    -83.2143E+06    -118.613E+06    -178.728E+06    -118.724E+06    -178.616E+06    -83.2143E+06     1.33347E+06         57.9248
            1485     3.96221E-03     115.734E-03     47.9934E-03    -11.8942E-03    -29.2955E-03    -24.8176E-03     43.5155E-03    -11.8942E-03    -4.77970E-03     464.081E-03    -231.571E-03    -234.018E-03    -231.279E-03     463.789E-03    -234.018E-03     28.0097E-03    -58.8643E+06    -109.964E+06    -146.893E+06    -110.091E+06    -146.767E+06    -58.8643E+06     1.54933E+06         58.1542
            1486     4.75489E-03     115.761E-03     38.0971E-03    -9.82990E-03    -21.2140E-03    -12.9817E-03     33.3071E-03    -13.2722E-03    -283.426E-06     463.243E-03    -231.389E-03    -233.679E-03    -230.869E-03     462.722E-03    -233.679E-03     37.7570E-03    -34.9628E+06    -99.1240E+06    -115.461E+06    -99.3349E+06    -115.250E+06    -34.9628E+06     1.37415E+06         58.4007
            1487     5.54811E-03     115.812E-03     28.6208E-03    -6.59980E-03    -13.7676E-03    -1.22592E-03     21.9957E-03    -12.5164E-03    -5.38045E-03     464.251E-03    -231.684E-03    -233.552E-03    -231.423E-03     463.401E-03    -232.964E-03     48.2512E-03    -13.1157E+06    -78.8544E+06    -92.8940E+06    -88.9755E+06    -82.7729E+06    -13.1157E+06     2.09120E+06         58.7220
            1488     6.34070E-03     115.878E-03     27.9280E-03    -5.96978E-03    -13.0614E-03    -3.86613E-03     24.0140E-03    -11.2511E-03     4.03061E-03     465.617E-03    -231.788E-03    -233.113E-03    -231.122E-03     464.363E-03    -232.524E-03     58.9117E-03     9.24045E+06    -32.1330E+06    -78.9852E+06    -78.8009E+06    -32.3173E+06     9.24045E+06     1.55584E+06         59.0923
            1489     7.13247E-03     115.956E-03     30.6784E-03    -5.96701E-03    -14.6330E-03    -9.10499E-03     29.8100E-03    -10.6267E-03    -8.15188E-03     467.032E-03    -231.786E-03    -232.960E-03    -230.089E-03     465.335E-03    -232.960E-03     68.6139E-03     26.8575E+06     7.93047E+06    -68.3808E+06    -68.3781E+06     7.92778E+06     26.8575E+06     209.057E+03         59.5264
            1490     7.92618E-03     116.047E-03     29.5033E-03    -5.67986E-03    -13.7681E-03    -8.24038E-03     28.6372E-03    -10.3414E-03     3.19136E-03     466.445E-03    -231.944E-03    -233.291E-03    -230.610E-03     464.201E-03    -232.381E-03     78.9100E-03     39.4398E+06     19.3560E+06    -58.6294E+06    -58.6200E+06     19.3466E+06     39.4398E+06     107.215E+03         60.1205
            1491     8.71918E-03     116.157E-03     28.0146E-03    -6.22599E-03    -11.7500E-03    -3.01416E-03     22.9378E-03    -9.88504E-03    -1.51961E-03     465.414E-03    -232.548E-03    -233.743E-03    -230.794E-03     462.751E-03    -232.833E-03     86.1014E-03     51.2878E+06     25.6369E+06    -49.3701E+06    -49.3368E+06     25.6035E+06     51.2878E+06     971.406E+03         61.0337
            1492     9.51087E-03     116.273E-03     26.8369E-03    -6.22091E-03    -9.94045E-03    -1.81922E-03     21.8008E-03    -9.30609E-03    -3.19803E-03     466.783E-03    -233.128E-03    -234.010E-03    -230.544E-03     463.603E-03    -233.414E-03     93.9961E-03     62.1689E+06     28.6636E+06    -40.6980E+06    -40.6520E+06     28.6177E+06     62.1689E+06     1.58553E+06         62.4345
            1493     10.3061E-03     116.396E-03     28.9563E-03    -6.73316E-03    -12.1869E-03    -5.71065E-03     24.7150E-03    -8.96810E-03    -6.28097E-03     468.078E-03    -232.726E-03    -234.555E-03    -230.671E-03     464.194E-03    -232.726E-03     104.108E-03     72.5565E+06     31.1607E+06    -32.3297E+06    -32.2783E+06     31.1093E+06     72.5565E+06     1.64129E+06         64.5505
            1494     11.0977E-03     116.543E-03     31.2838E-03    -7.95335E-03    -14.8074E-03    -9.77239E-03     27.2520E-03    -8.95657E-03    -12.9880E-03     469.699E-03    -232.108E-03    -236.228E-03    -231.427E-03     464.899E-03    -232.108E-03     115.807E-03     79.0898E+06     37.8110E+06    -24.8929E+06    -24.8428E+06     37.7609E+06     79.0898E+06     1.67914E+06         67.6879
            1495     11.8953E-03     116.684E-03     27.7089E-03    -7.14980E-03    -12.3439E-03    -9.70560E-03     26.9498E-03    -9.02906E-03     322.104E-06     469.724E-03    -232.407E-03    -236.840E-03    -231.528E-03     464.412E-03    -232.407E-03     122.068E-03     81.7175E+06     43.2297E+06    -18.1373E+06    -18.0953E+06     43.1878E+06     81.7175E+06     923.667E+03         71.8661
            1496     12.6824E-03     116.899E-03     24.4111E-03    -6.61917E-03    -9.93558E-03    -5.99192E-03     22.7597E-03    -8.91144E-03    -3.24445E-03     473.614E-03    -232.569E-03    -240.800E-03    -232.602E-03     465.416E-03    -232.569E-03     149.678E-03     84.1214E+06     46.2836E+06    -11.6309E+06    -11.5623E+06     46.2150E+06     84.1214E+06     149.582E+03         76.4849
            1497     13.4782E-03     117.141E-03     23.8808E-03    -5.71799E-03    -9.84444E-03    -3.85832E-03     20.7589E-03    -8.58223E-03     4.64566E-03     473.454E-03    -232.537E-03    -241.058E-03    -233.207E-03     465.603E-03    -232.537E-03     145.555E-03     87.8400E+06     50.1386E+06    -5.48587E+06    -5.43465E+06     50.0874E+06     87.8400E+06    -26.0557E+03         80.4471
            1498     791.732E-06     117.292E-03     168.025E-03     63.2382E-03    -221.406E-03    -133.828E-03     34.9616E-03     108.724E-03    -110.191E-03     463.365E-03    -231.368E-03    -232.028E-03    -231.770E-03     463.363E-03    -231.623E-03     2.71976E-03    -134.171E+06    -137.539E+06    -262.386E+06    -137.219E+06    -262.370E+06    -134.506E+06     177.930E+03         57.1364
            1499     1.58458E-03     117.295E-03     91.2164E-03    -13.2320E-03    -68.1895E-03    -15.9520E-03     38.9789E-03    -13.2320E-03     38.7151E-03     463.331E-03    -231.689E-03    -232.374E-03    -232.280E-03     463.318E-03    -231.770E-03     5.40208E-03    -123.114E+06    -133.761E+06    -236.910E+06    -133.771E+06    -236.900E+06    -123.114E+06     281.708E+03         57.3451
            1500     2.37700E-03     117.298E-03     68.1010E-03    -15.1327E-03    -43.5691E-03    -22.4328E-03     46.9646E-03    -15.1327E-03    -28.4151E-03     465.386E-03    -232.229E-03    -233.073E-03    -233.029E-03     465.342E-03    -232.229E-03     10.7244E-03    -107.188E+06    -128.722E+06    -209.981E+06    -128.751E+06    -209.952E+06    -107.188E+06     398.431E+03         57.6371
            1501     3.16964E-03     117.303E-03     47.0501E-03    -10.6781E-03    -27.4936E-03    -17.4874E-03     42.8556E-03    -16.4899E-03     20.0317E-03     466.455E-03    -231.853E-03    -233.616E-03    -232.170E-03     466.334E-03    -233.177E-03     17.8649E-03    -85.2158E+06    -120.416E+06    -181.113E+06    -120.545E+06    -180.983E+06    -85.2158E+06     686.455E+03         57.9184
            1502     3.96251E-03     117.327E-03     33.4743E-03    -6.81864E-03    -18.0309E-03    -3.92708E-03     28.0076E-03    -15.4558E-03     8.48568E-03     464.234E-03    -231.577E-03    -234.012E-03    -231.292E-03     463.950E-03    -234.012E-03     27.5575E-03    -59.7514E+06    -109.616E+06    -147.551E+06    -109.824E+06    -147.344E+06    -59.7514E+06     1.31529E+06         58.1456
            1503     4.75506E-03     117.356E-03     30.4013E-03    -6.46397E-03    -13.4125E-03    -611.615E-06     24.3122E-03    -13.1758E-03     11.0472E-03     463.335E-03    -231.342E-03    -233.716E-03    -230.828E-03     462.821E-03    -233.716E-03     37.5419E-03    -36.1531E+06    -99.6919E+06    -116.437E+06    -99.9583E+06    -116.170E+06    -36.1531E+06     1.66891E+06         58.3891
            1504     5.54788E-03     117.405E-03     28.4854E-03    -5.13287E-03    -13.0193E-03    -2.45574E-03     24.1495E-03    -11.3606E-03     6.70546E-03     464.283E-03    -231.716E-03    -233.593E-03    -231.479E-03     463.433E-03    -232.979E-03     48.2544E-03    -13.7908E+06    -80.0792E+06    -93.0569E+06    -89.1431E+06    -83.9929E+06    -13.7908E+06     1.60127E+06         58.7092
            1505     6.34031E-03     117.474E-03     26.8124E-03    -4.97341E-03    -12.1991E-03    -2.03302E-03     21.7946E-03    -10.1216E-03     11.5964E-03     465.310E-03    -231.543E-03    -233.125E-03    -230.892E-03     464.046E-03    -232.512E-03     59.1421E-03     9.65791E+06    -31.8319E+06    -77.7997E+06    -77.5840E+06    -32.0476E+06     9.65791E+06     2.17655E+06         59.0800
            1506     7.13368E-03     117.556E-03     27.5996E-03    -5.15572E-03    -11.9690E-03    -5.40189E-03     25.2310E-03    -9.35424E-03    -2.02073E-03     466.884E-03    -231.730E-03    -232.972E-03    -230.027E-03     465.182E-03    -232.972E-03     68.7256E-03     29.0388E+06     8.99423E+06    -68.0516E+06    -67.9327E+06     8.87533E+06     29.0388E+06     2.31938E+06         59.5195
            1507     7.92600E-03     117.644E-03     31.3784E-03    -7.81754E-03    -13.8376E-03    -11.5310E-03     30.4633E-03    -9.20912E-03    -3.65411E-03     466.604E-03    -232.117E-03    -233.324E-03    -230.830E-03     464.384E-03    -232.391E-03     78.5487E-03     41.1332E+06     19.4748E+06    -58.9032E+06    -58.8435E+06     19.4151E+06     41.1332E+06     1.68490E+06         60.1193
            1508     8.71931E-03     117.754E-03     33.1058E-03    -9.45112E-03    -14.1735E-03    -13.5018E-03     32.4342E-03    -9.45112E-03    -1.29032E-03     465.400E-03    -232.537E-03    -233.761E-03    -230.808E-03     462.738E-03    -232.828E-03     86.0637E-03     51.3891E+06     24.6891E+06    -50.0014E+06    -49.9733E+06     24.6610E+06     51.3891E+06     1.38291E+06         61.0370
            1509     9.51277E-03     117.870E-03     31.6045E-03    -8.19646E-03    -13.6770E-03    -11.3091E-03     30.6995E-03    -9.65932E-03     2.36903E-03     466.982E-03    -233.040E-03    -234.048E-03    -230.563E-03     463.788E-03    -233.331E-03     94.2501E-03     62.0700E+06     28.3439E+06    -41.1005E+06    -41.0651E+06     28.3085E+06     62.0700E+06     1.40754E+06         62.4459
            1510     10.3060E-03     117.993E-03     28.0179E-03    -7.29543E-03    -11.8695E-03    -5.19875E-03     23.5896E-03    -9.53789E-03    -2.01860E-03     468.487E-03    -232.660E-03    -234.871E-03    -230.991E-03     464.607E-03    -232.660E-03     104.110E-03     71.8186E+06     30.6444E+06    -32.5849E+06    -32.5423E+06     30.6018E+06     71.8186E+06     1.51270E+06         64.5667
            1511     11.0977E-03     118.145E-03     26.1375E-03    -7.31258E-03    -10.7125E-03    -2.10569E-03     19.3136E-03    -9.09540E-03    -2.44641E-03     470.094E-03    -232.075E-03    -236.539E-03    -231.745E-03     465.300E-03    -232.075E-03     115.791E-03     79.0074E+06     37.3888E+06    -24.6087E+06    -24.5693E+06     37.3495E+06     79.0074E+06     1.51239E+06         67.7004
            1512     11.8936E-03     118.287E-03     24.1543E-03    -5.60299E-03    -9.62033E-03    -3.32934E-03     20.8673E-03    -8.60707E-03     6.75399E-03     469.971E-03    -232.360E-03    -236.852E-03    -231.541E-03     464.661E-03    -232.360E-03     122.066E-03     82.8447E+06     44.9304E+06    -17.0222E+06    -16.9858E+06     44.8939E+06     82.8447E+06     947.993E+03         71.8785
            1513     12.6815E-03     118.501E-03     23.8212E-03    -4.76296E-03    -8.72690E-03    -3.65086E-03     22.1623E-03    -8.18005E-03    -6.35542E-03     473.224E-03    -232.561E-03    -240.431E-03    -232.190E-03     464.983E-03    -232.561E-03     149.939E-03     84.9639E+06     47.6795E+06    -10.8375E+06    -10.7613E+06     47.6033E+06     84.9639E+06     340.554E+03         76.5074
            1514     13.4792E-03     118.738E-03     26.1692E-03    -4.98653E-03    -11.1872E-03    -4.95506E-03     22.8013E-03    -7.85078E-03     4.17775E-03     473.338E-03    -232.530E-03    -240.724E-03    -232.825E-03     465.440E-03    -232.530E-03     145.911E-03     88.2995E+06     50.0171E+06    -5.04782E+06    -4.98633E+06     49.9556E+06     88.2995E+06     125.386E+03         80.4826
            1515     792.548E-06     118.884E-03     139.783E-03     39.8908E-03    -172.430E-03    -120.514E-03     31.9447E-03     95.8123E-03    -80.4937E-03     462.794E-03    -231.358E-03    -231.716E-03    -231.459E-03     462.791E-03    -231.613E-03     2.63218E-03    -136.095E+06    -138.974E+06    -263.943E+06    -138.854E+06    -263.931E+06    -136.227E+06    -769.690E+03         57.1211
            1516     1.58496E-03     118.890E-03     58.4897E-03    -10.2942E-03    -38.3183E-03    -12.1555E-03     34.3981E-03    -12.3654E-03     43.1882E-03     462.980E-03    -231.581E-03    -232.202E-03    -232.108E-03     462.968E-03    -231.663E-03     5.63843E-03    -124.683E+06    -134.687E+06    -238.964E+06    -134.704E+06    -238.947E+06    -124.683E+06     990.941E+03         57.3272
            1517     2.37706E-03     118.892E-03     44.1526E-03    -10.3684E-03    -23.4334E-03    -13.8977E-03     36.7723E-03    -12.5239E-03     951.280E-06     465.572E-03    -232.225E-03    -233.269E-03    -233.226E-03     465.529E-03    -232.225E-03     10.5841E-03    -106.287E+06    -128.657E+06    -210.628E+06    -128.690E+06    -210.595E+06    -106.287E+06     1.52700E+06         57.6227
            1518     3.16919E-03     118.900E-03     35.1069E-03    -6.11770E-03    -18.0718E-03    -6.77074E-03     29.7018E-03    -12.0137E-03     17.1878E-03     466.555E-03    -231.870E-03    -233.762E-03    -232.327E-03     466.431E-03    -233.182E-03     18.0033E-03    -83.9137E+06    -120.436E+06    -180.425E+06    -120.534E+06    -180.327E+06    -83.9137E+06     906.473E+03         57.9072
            1519     3.96156E-03     118.925E-03     28.0845E-03    -1.70658E-03    -15.9146E-03    -1.56338E-03     22.3705E-03    -10.3438E-03     14.7744E-03     464.226E-03    -231.519E-03    -234.033E-03    -231.231E-03     463.939E-03    -234.033E-03     27.7676E-03    -61.4785E+06    -111.371E+06    -149.081E+06    -111.578E+06    -148.874E+06    -61.4785E+06     638.211E+03         58.1329
            1520     4.75519E-03     118.950E-03     30.7117E-03    -5.72418E-03    -14.0480E-03    -4.57181E-03     24.5050E-03    -8.99376E-03     14.2678E-03     463.273E-03    -231.225E-03    -233.761E-03    -230.707E-03     462.755E-03    -233.761E-03     37.6451E-03    -38.3834E+06    -101.257E+06    -117.988E+06    -101.553E+06    -117.692E+06    -38.3834E+06     1.20130E+06         58.3738
            1521     5.54824E-03     119.002E-03     29.8446E-03    -8.07830E-03    -10.6520E-03    -9.25060E-03     28.9742E-03    -8.60925E-03    -994.294E-06     464.093E-03    -231.603E-03    -233.578E-03    -231.389E-03     463.238E-03    -232.938E-03     48.3799E-03    -14.1702E+06    -81.0275E+06    -94.8586E+06    -90.7969E+06    -85.0892E+06    -14.1702E+06     1.90114E+06         58.6924
            1522     6.34104E-03     119.068E-03     29.9192E-03    -8.56900E-03    -11.2215E-03    -9.67405E-03     28.4585E-03    -8.65578E-03     5.15367E-03     464.938E-03    -231.468E-03    -233.056E-03    -230.841E-03     463.671E-03    -232.415E-03     59.2012E-03     7.99914E+06    -33.9093E+06    -81.1619E+06    -80.8654E+06    -34.2058E+06     7.99914E+06     2.43939E+06         59.0662
            1523     7.13365E-03     119.147E-03     25.9221E-03    -6.37407E-03    -9.39003E-03    -5.45641E-03     24.0975E-03    -8.48303E-03     5.97198E-03     466.562E-03    -231.586E-03    -232.970E-03    -229.882E-03     464.858E-03    -232.970E-03     68.7350E-03     27.4242E+06     8.18604E+06    -69.5377E+06    -69.3746E+06     8.02292E+06     27.4242E+06     3.25112E+06         59.5113
            1524     7.92654E-03     119.239E-03     29.4657E-03    -6.16461E-03    -13.3797E-03    -8.75204E-03     26.9470E-03    -8.27357E-03     9.04290E-03     466.500E-03    -231.978E-03    -233.394E-03    -230.744E-03     464.287E-03    -232.415E-03     78.4061E-03     40.6445E+06     20.7369E+06    -58.7347E+06    -58.6057E+06     20.6079E+06     40.6445E+06     3.06451E+06         60.1144
            1525     8.71930E-03     119.352E-03     33.2132E-03    -8.39991E-03    -15.8851E-03    -12.3577E-03     29.6859E-03    -8.39991E-03    -777.681E-06     465.321E-03    -232.521E-03    -233.782E-03    -230.847E-03     462.668E-03    -232.804E-03     85.8981E-03     51.2126E+06     25.7773E+06    -49.1757E+06    -49.1246E+06     25.7261E+06     51.2126E+06     1.70261E+06         61.0381
            1526     9.51198E-03     119.471E-03     26.6481E-03    -6.82016E-03    -12.5225E-03    -7.46015E-03     23.1813E-03    -8.41567E-03    -883.658E-06     467.296E-03    -232.965E-03    -234.153E-03    -230.694E-03     464.119E-03    -233.247E-03     94.0400E-03     62.2955E+06     27.9677E+06    -40.0985E+06    -40.0773E+06     27.9465E+06     62.2955E+06     1.06143E+06         62.4611
            1527     10.3062E-03     119.591E-03     22.9463E-03    -5.74874E-03    -11.1626E-03    -6.55281E-03     20.7115E-03    -8.12384E-03     8.93788E-03     468.908E-03    -232.595E-03    -235.063E-03    -231.156E-03     465.000E-03    -232.595E-03     104.483E-03     72.5162E+06     30.0930E+06    -31.8527E+06    -31.8190E+06     30.0593E+06     72.5162E+06     1.36142E+06         64.5928
            1528     11.0972E-03     119.742E-03     24.8299E-03    -7.04894E-03    -10.9022E-03    -7.19033E-03     21.8976E-03    -7.82854E-03     8.25319E-03     470.172E-03    -232.027E-03    -236.551E-03    -231.688E-03     465.309E-03    -232.027E-03     116.640E-03     79.7817E+06     38.3113E+06    -24.1398E+06    -24.1050E+06     38.2765E+06     79.7817E+06     1.24158E+06         67.7267
            1529     11.8945E-03     119.882E-03     23.6269E-03    -6.07422E-03    -9.30248E-03    -4.71094E-03     20.5009E-03    -7.53980E-03     12.8959E-03     469.881E-03    -232.289E-03    -236.741E-03    -231.391E-03     464.531E-03    -232.289E-03     122.499E-03     82.9423E+06     45.7020E+06    -17.3171E+06    -17.2828E+06     45.6677E+06     82.9423E+06     682.658E+03         71.9080
            1530     12.6825E-03     120.093E-03     23.7964E-03    -5.84810E-03    -9.60189E-03    -7.19297E-03     22.8530E-03    -7.31367E-03    -1.63958E-03     472.777E-03    -232.527E-03    -240.389E-03    -232.200E-03     464.589E-03    -232.527E-03     149.527E-03     84.7428E+06     47.7530E+06    -11.3963E+06    -11.3174E+06     47.6740E+06     84.7428E+06     473.549E+03         76.5507
            1531     13.4803E-03     120.333E-03     24.8174E-03    -6.74204E-03    -12.3723E-03    -9.88615E-03     22.8836E-03    -7.29444E-03    -121.020E-06     473.200E-03    -232.520E-03    -240.703E-03    -232.877E-03     465.375E-03    -232.520E-03     145.267E-03     88.6990E+06     50.6774E+06    -5.86721E+06    -5.80874E+06     50.6189E+06     88.6990E+06     190.133E+03         80.5444
            1532     792.827E-06     120.478E-03     110.826E-03     28.3618E-03    -135.659E-03    -84.3222E-03     30.2184E-03     57.6321E-03    -73.2867E-03     462.432E-03    -231.028E-03    -231.613E-03    -231.609E-03     462.428E-03    -231.028E-03     2.95526E-03    -134.756E+06    -137.680E+06    -264.094E+06    -137.097E+06    -264.084E+06    -135.348E+06    -283.415E+03         57.1129
            1533     1.58490E-03     120.482E-03     54.5277E-03    -10.0605E-03    -37.0969E-03    -7.23683E-03     26.7389E-03    -12.1316E-03     28.4703E-03     463.135E-03    -231.657E-03    -232.198E-03    -232.185E-03     463.122E-03    -231.657E-03     5.88753E-03    -125.308E+06    -134.328E+06    -241.713E+06    -134.341E+06    -241.700E+06    -125.308E+06     198.088E+03         57.3140
            1534     2.37695E-03     120.487E-03     27.0647E-03    -3.33165E-03    -14.5260E-03     5.67768E-03     12.0635E-03    -8.53411E-03    -20.4728E-03     465.552E-03    -232.230E-03    -233.101E-03    -233.057E-03     465.508E-03    -232.230E-03     10.7239E-03    -106.595E+06    -127.736E+06    -212.575E+06    -127.770E+06    -212.541E+06    -106.595E+06     1.11453E+06         57.6056
            1535     3.16953E-03     120.495E-03     21.3079E-03    -2.12184E-03    -8.18021E-03     1.92121E-03     14.3377E-03    -5.25311E-03    -3.47041E-03     466.290E-03    -231.799E-03    -233.650E-03    -232.203E-03     466.162E-03    -233.118E-03     18.3210E-03    -84.0929E+06    -120.055E+06    -182.072E+06    -120.165E+06    -181.962E+06    -84.0929E+06     2.26441E+06         57.8858
            1536     3.96220E-03     120.519E-03     31.4435E-03    -5.03619E-03    -16.5372E-03    -12.0732E-03     26.9795E-03    -5.03619E-03     5.79311E-03     464.208E-03    -231.548E-03    -233.989E-03    -231.251E-03     463.911E-03    -233.989E-03     28.2212E-03    -59.8401E+06    -111.222E+06    -149.274E+06    -111.629E+06    -148.867E+06    -59.8401E+06     2.46737E+06         58.1082
            1537     4.75486E-03     120.546E-03     32.1906E-03    -6.54719E-03    -18.9896E-03    -16.5624E-03     29.7634E-03    -6.54719E-03     9.23620E-03     463.409E-03    -231.423E-03    -233.782E-03    -230.893E-03     462.878E-03    -233.782E-03     38.1074E-03    -36.0747E+06    -100.751E+06    -118.671E+06    -101.249E+06    -118.173E+06    -36.0747E+06     1.91008E+06         58.3542
            1538     5.54782E-03     120.598E-03     27.0443E-03    -7.54478E-03    -12.3562E-03    -11.4108E-03     26.1857E-03    -7.63156E-03    -3.89515E-03     464.034E-03    -231.616E-03    -233.666E-03    -231.572E-03     463.175E-03    -232.852E-03     48.5187E-03    -14.3340E+06    -82.0495E+06    -95.6445E+06    -90.8457E+06    -86.8484E+06    -14.3340E+06     2.29281E+06         58.6822
            1539     6.34084E-03     120.666E-03     26.4833E-03    -7.86612E-03    -9.97780E-03    -8.84067E-03     25.4329E-03    -7.95291E-03    -4.13048E-03     464.792E-03    -231.450E-03    -233.131E-03    -231.006E-03     463.534E-03    -232.317E-03     58.9796E-03     7.87048E+06    -35.0594E+06    -79.8998E+06    -79.5416E+06    -35.4176E+06     7.87048E+06     2.97705E+06         59.0606
            1540     7.13345E-03     120.747E-03     25.9476E-03    -7.22761E-03    -9.33671E-03    -6.66878E-03     23.9971E-03    -7.94499E-03    -8.86382E-03     466.043E-03    -231.346E-03    -232.850E-03    -229.651E-03     464.348E-03    -232.850E-03     68.4999E-03     25.7487E+06     7.04947E+06    -69.3643E+06    -69.2054E+06     6.89061E+06     25.7487E+06     2.69850E+06         59.5034
            1541     7.92670E-03     120.837E-03     27.6060E-03    -6.56679E-03    -11.6780E-03    -1.34161E-03     18.2536E-03    -7.55071E-03     10.0961E-03     466.111E-03    -231.680E-03    -233.243E-03    -230.382E-03     463.886E-03    -232.316E-03     78.5665E-03     39.6528E+06     21.2083E+06    -58.7859E+06    -58.7061E+06     21.1286E+06     39.6528E+06     2.09877E+06         60.1034
            1542     8.71956E-03     120.949E-03     26.1374E-03    -5.94459E-03    -11.4869E-03    -379.919E-06     15.9449E-03    -6.85909E-03     3.27937E-03     465.456E-03    -232.600E-03    -233.752E-03    -230.872E-03     462.801E-03    -232.824E-03     85.9599E-03     51.8251E+06     26.9993E+06    -48.5930E+06    -48.5376E+06     26.9438E+06     51.8251E+06     1.68385E+06         61.0310
            1543     9.51151E-03     121.066E-03     24.6767E-03    -4.19728E-03    -12.6534E-03    -6.76642E-03     21.0332E-03    -6.44075E-03    -3.43323E-03     467.108E-03    -233.000E-03    -234.057E-03    -230.659E-03     463.934E-03    -233.224E-03     93.9522E-03     61.8416E+06     27.4258E+06    -40.1705E+06    -40.1273E+06     27.3826E+06     61.8416E+06     1.50613E+06         62.4626
            1544     10.3060E-03     121.189E-03     27.7052E-03    -4.98683E-03    -15.9385E-03    -12.0784E-03     25.4406E-03    -6.58233E-03    -882.621E-06     468.588E-03    -232.587E-03    -234.549E-03    -230.620E-03     464.660E-03    -232.587E-03     104.696E-03     72.1952E+06     29.9992E+06    -32.0784E+06    -32.0452E+06     29.9660E+06     72.1952E+06     1.39500E+06         64.6060
            1545     11.0987E-03     121.340E-03     26.7611E-03    -6.94237E-03    -12.6176E-03    -10.9407E-03     25.0843E-03    -6.94237E-03    -13.5014E-03     470.031E-03    -232.126E-03    -236.312E-03    -231.434E-03     465.152E-03    -232.126E-03     116.804E-03     79.9184E+06     39.0897E+06    -24.4450E+06    -24.4195E+06     39.0642E+06     79.9184E+06     1.06369E+06         67.7587
            1546     11.8955E-03     121.482E-03     23.5691E-03    -6.80668E-03    -9.57288E-03    -7.50306E-03     21.8400E-03    -7.14743E-03    -7.82786E-03     469.680E-03    -232.301E-03    -236.967E-03    -231.615E-03     464.328E-03    -232.301E-03     122.525E-03     83.5842E+06     45.9574E+06    -17.2133E+06    -17.1793E+06     45.9234E+06     83.5842E+06     890.510E+03         71.9680
            1547     12.6825E-03     121.694E-03     20.5251E-03    -5.72270E-03    -9.46185E-03    -3.69423E-03     16.1381E-03    -7.10329E-03    -9.86394E-03     472.587E-03    -232.420E-03    -240.656E-03    -232.412E-03     464.343E-03    -232.420E-03     149.958E-03     85.9494E+06     48.3821E+06    -11.2446E+06    -11.1550E+06     48.2925E+06     85.9494E+06     763.843E+03         76.6314
            1548     13.4782E-03     121.933E-03     16.6184E-03    -4.12679E-03    -8.56946E-03    -1.01670E-03     11.7670E-03    -6.82808E-03    -6.27027E-03     472.890E-03    -232.446E-03    -240.875E-03    -232.944E-03     464.959E-03    -232.446E-03     146.298E-03     89.6609E+06     51.3333E+06    -5.53150E+06    -5.46015E+06     51.2620E+06     89.6609E+06     429.573E+03         80.6223
            1549     793.075E-06     122.070E-03     93.1886E-03    -8.61054E-03    -88.6556E-03    -20.0365E-03     24.5695E-03    -8.61054E-03    -65.2627E-03     462.244E-03    -230.918E-03    -231.537E-03    -231.532E-03     462.238E-03    -230.918E-03     3.92836E-03    -134.193E+06    -138.370E+06    -266.074E+06    -137.821E+06    -266.031E+06    -134.786E+06     1.51470E+06         57.1043
            1550     1.58506E-03     122.074E-03     58.0538E-03    -12.0672E-03    -41.7876E-03    -3.07944E-03     19.3457E-03    -12.0672E-03     10.2695E-03     462.952E-03    -231.608E-03    -232.251E-03    -232.236E-03     462.937E-03    -231.608E-03     6.25995E-03    -123.397E+06    -134.287E+06    -242.165E+06    -134.329E+06    -242.123E+06    -123.397E+06     988.799E+03         57.2903
            1551     2.37742E-03     122.082E-03     40.0425E-03    -5.64035E-03    -24.4585E-03    -1.86733E-03     20.4984E-03    -8.68733E-03    -34.1295E-03     465.219E-03    -232.156E-03    -233.106E-03    -233.060E-03     465.174E-03    -232.156E-03     10.9147E-03    -106.037E+06    -128.187E+06    -215.596E+06    -128.220E+06    -215.562E+06    -106.037E+06     1.02851E+06         57.5733
            1552     3.17012E-03     122.087E-03     25.8689E-03    -3.83370E-03    -11.5660E-03    -1.65640E-03     19.0460E-03    -6.92031E-03    -6.44883E-03     466.126E-03    -231.866E-03    -233.464E-03    -232.207E-03     466.000E-03    -232.998E-03     18.2177E-03    -84.0544E+06    -120.116E+06    -184.802E+06    -120.202E+06    -184.716E+06    -84.0544E+06     2.00618E+06         57.8567
            1553     3.96253E-03     122.108E-03     28.6310E-03    -6.03525E-03    -16.0309E-03    -3.70037E-03     16.3401E-03    -6.07487E-03     5.15135E-03     464.287E-03    -231.607E-03    -233.888E-03    -231.314E-03     463.995E-03    -233.888E-03     27.9938E-03    -58.8181E+06    -109.611E+06    -151.333E+06    -109.994E+06    -150.950E+06    -58.8181E+06     3.19261E+06         58.0813
            1554     4.75629E-03     122.139E-03     31.6685E-03    -6.22211E-03    -20.8759E-03    -10.4818E-03     21.2744E-03    -6.22211E-03     8.47365E-03     463.605E-03    -231.689E-03    -233.778E-03    -231.163E-03     463.079E-03    -233.778E-03     37.9615E-03    -34.1866E+06    -98.6866E+06    -119.323E+06    -99.5796E+06    -118.430E+06    -34.1866E+06     3.53293E+06         58.3275
            1555     5.54856E-03     122.189E-03     25.7309E-03    -6.90186E-03    -14.8389E-03    -11.7060E-03     22.5980E-03    -6.90186E-03    -9.98527E-03     464.340E-03    -231.963E-03    -233.795E-03    -232.002E-03     463.486E-03    -232.903E-03     48.4267E-03    -13.0769E+06    -81.4705E+06    -94.9873E+06    -89.4920E+06    -86.9658E+06    -13.0769E+06     2.90875E+06         58.6652
            1556     6.34045E-03     122.260E-03     22.6601E-03    -7.21374E-03    -10.4873E-03    -7.66558E-03     19.8383E-03    -7.21374E-03     4.35417E-03     464.869E-03    -231.504E-03    -233.339E-03    -231.139E-03     463.612E-03    -232.446E-03     58.9709E-03     7.54367E+06    -36.7098E+06    -79.6726E+06    -79.3198E+06    -37.0626E+06     7.54367E+06     2.75246E+06         59.0549
            1557     7.13341E-03     122.342E-03     22.9000E-03    -5.77738E-03    -9.30388E-03    -4.48883E-03     19.3277E-03    -7.02012E-03    -3.45545E-03     466.038E-03    -231.267E-03    -232.739E-03    -229.567E-03     464.338E-03    -232.739E-03     68.5999E-03     26.4497E+06     7.31458E+06    -68.7583E+06    -68.5864E+06     7.14265E+06     26.4497E+06     2.75462E+06         59.4987
            1558     7.92679E-03     122.431E-03     20.8758E-03    -4.90051E-03    -7.68363E-03     1.20176E-03     13.4996E-03    -6.40980E-03    -489.872E-06     466.032E-03    -231.584E-03    -232.861E-03    -230.073E-03     463.775E-03    -232.114E-03     79.0810E-03     40.1422E+06     21.9673E+06    -58.7476E+06    -58.6591E+06     21.8789E+06     40.1422E+06     2.18299E+06         60.0899
            1559     8.71963E-03     122.547E-03     19.5127E-03    -4.75792E-03    -7.85256E-03     832.936E-06     11.7417E-03    -5.67241E-03     5.55079E-03     465.097E-03    -232.499E-03    -233.525E-03    -230.555E-03     462.406E-03    -232.778E-03     86.5141E-03     52.0494E+06     26.9049E+06    -49.6634E+06    -49.6001E+06     26.8415E+06     52.0494E+06     2.04464E+06         61.0037
            1560     9.51252E-03     122.660E-03     22.2742E-03    -3.76411E-03    -12.1127E-03    -8.67426E-03     20.5659E-03    -5.49424E-03     4.22122E-03     466.568E-03    -232.970E-03    -233.951E-03    -230.466E-03     463.362E-03    -233.249E-03     94.3679E-03     62.4856E+06     27.4220E+06    -40.8035E+06    -40.7461E+06     27.3646E+06     62.4856E+06     1.94907E+06         62.4245
            1561     10.3067E-03     122.785E-03     26.5514E-03    -4.79425E-03    -16.1323E-03    -13.6337E-03     25.1350E-03    -5.87642E-03     2.68584E-03     468.352E-03    -232.646E-03    -234.379E-03    -230.424E-03     464.397E-03    -232.646E-03     105.036E-03     72.6191E+06     30.2676E+06    -32.5086E+06    -32.4750E+06     30.2340E+06     72.6191E+06     1.41246E+06         64.5732
            1562     11.0988E-03     122.938E-03     28.6827E-03    -6.26300E-03    -16.2622E-03    -12.9052E-03     25.3257E-03    -6.26300E-03     1.33742E-03     469.781E-03    -232.366E-03    -236.425E-03    -231.573E-03     464.929E-03    -232.366E-03     116.493E-03     80.3529E+06     39.4735E+06    -24.9038E+06    -24.8785E+06     39.4481E+06     80.3529E+06     1.05770E+06         67.7453
            1563     11.8932E-03     123.109E-03     26.3734E-03    -6.40420E-03    -12.4267E-03    -9.39905E-03     23.3457E-03    -6.40420E-03     1.16785E-03     469.495E-03    -232.572E-03    -237.222E-03    -231.862E-03     464.135E-03    -232.572E-03     122.623E-03     83.9554E+06     45.8756E+06    -17.6922E+06    -17.6636E+06     45.8469E+06     83.9554E+06     801.942E+03         71.9816
            1564     12.6895E-03     123.220E-03     23.8896E-03    -5.16226E-03    -9.64039E-03    -3.70992E-03     18.9990E-03    -6.20210E-03    -171.527E-06     472.860E-03    -232.431E-03    -240.297E-03    -231.856E-03     464.418E-03    -232.431E-03     151.619E-03     86.5066E+06     48.5015E+06    -10.9947E+06    -10.9299E+06     48.4367E+06     86.5066E+06     1.12095E+06         76.6514
            1565     13.4822E-03     123.491E-03     23.6871E-03    -3.66331E-03    -10.7782E-03    -3.34716E-03     18.4050E-03    -5.81220E-03     2.06419E-03     472.850E-03    -232.398E-03    -240.304E-03    -232.101E-03     464.647E-03    -232.398E-03     148.826E-03     90.1336E+06     52.2197E+06     -4.7785E+06    -4.71870E+06     52.1599E+06     90.1336E+06     1.08812E+06         80.6057
            1566     792.688E-06     123.662E-03     131.018E-03    -51.2462E-03    -83.5290E-03     44.9679E-03     5.32954E-03    -54.0549E-03    -76.3642E-03     462.304E-03    -231.190E-03    -231.500E-03    -231.321E-03     462.298E-03    -231.362E-03     3.98829E-03    -134.900E+06    -137.031E+06    -270.025E+06    -137.105E+06    -269.951E+06    -134.900E+06     216.797E+03         57.0900
            1567     1.58565E-03     123.666E-03     52.6292E-03    -3.19226E-03    -43.6823E-03     2.05870E-03     6.88824E-03    -3.19226E-03     33.3646E-03     462.635E-03    -231.312E-03    -231.770E-03    -231.639E-03     462.621E-03    -231.430E-03     5.95116E-03    -122.140E+06    -132.204E+06    -243.622E+06    -132.254E+06    -243.572E+06    -122.140E+06     1.69255E+06         57.2505
            1568     2.37804E-03     123.673E-03     43.2217E-03    -2.79722E-03    -32.9832E-03    -8.45444E-03     18.6930E-03    -2.79722E-03     7.32103E-03     464.867E-03    -231.885E-03    -232.821E-03    -232.684E-03     464.823E-03    -231.978E-03     10.5994E-03    -103.809E+06    -126.921E+06    -216.838E+06    -126.976E+06    -216.783E+06    -103.809E+06     1.87892E+06         57.5157
            1569     3.17045E-03     123.683E-03     45.4262E-03    -4.85956E-03    -30.5552E-03    -14.7016E-03     29.6123E-03    -4.89917E-03     20.3790E-03     466.005E-03    -231.855E-03    -233.410E-03    -232.265E-03     465.879E-03    -232.875E-03     18.2198E-03    -82.3369E+06    -118.643E+06    -187.390E+06    -118.734E+06    -187.300E+06    -82.3369E+06     2.16566E+06         57.8034
            1570     3.96327E-03     123.705E-03     38.0391E-03    -6.52533E-03    -23.2344E-03    -11.5257E-03     26.3699E-03    -6.56494E-03     6.24792E-03     464.571E-03    -231.923E-03    -233.821E-03    -231.636E-03     464.284E-03    -233.821E-03     27.7895E-03    -58.8248E+06    -108.427E+06    -154.370E+06    -108.655E+06    -154.142E+06    -58.8248E+06     2.86335E+06         58.0413
            1571     4.75594E-03     123.731E-03     29.6288E-03    -6.66565E-03    -18.0236E-03    -3.02023E-03     14.6962E-03    -6.73646E-03     8.77145E-03     463.878E-03    -231.969E-03    -233.830E-03    -231.452E-03     463.360E-03    -233.830E-03     37.6419E-03    -35.2050E+06    -97.3230E+06    -121.708E+06    -98.4335E+06    -120.598E+06    -35.2050E+06     4.14170E+06         58.2839
            1572     5.54840E-03     123.788E-03     19.2395E-03    -4.75740E-03    -9.58219E-03    -161.732E-06     11.0475E-03    -5.98582E-03    -12.9104E-03     464.330E-03    -232.110E-03    -233.517E-03    -231.680E-03     463.486E-03    -233.102E-03     48.1392E-03    -11.8832E+06    -79.6635E+06    -96.1447E+06    -88.6022E+06    -87.2060E+06    -11.8832E+06      4.6289E+06         58.6085
            1573     6.34003E-03     123.878E-03     15.9654E-03    -2.76616E-03    -6.95577E-03    -1.02227E-03     12.4845E-03    -5.21876E-03     9.24650E-03     465.120E-03    -231.626E-03    -233.020E-03    -230.784E-03     463.863E-03    -232.606E-03     58.9451E-03     9.97986E+06    -36.8846E+06    -79.0745E+06    -78.3421E+06    -37.6170E+06     9.97986E+06     3.78623E+06         58.9969
            1574     7.13414E-03     123.955E-03     17.6634E-03    -2.10728E-03    -7.66234E-03    -1.28561E-03     13.8244E-03    -4.64501E-03     833.577E-06     466.582E-03    -231.432E-03    -232.883E-03    -229.717E-03     464.867E-03    -232.883E-03     68.9456E-03     28.4427E+06     6.82527E+06    -68.3012E+06    -68.0371E+06     6.56120E+06     28.4427E+06     3.71162E+06         59.4475
            1575     7.93077E-03     124.004E-03     21.8866E-03    -3.16026E-03    -9.40562E-03    -5.74668E-03     19.4704E-03    -4.40301E-03    -1.01484E-03     466.130E-03    -231.726E-03    -232.861E-03    -230.103E-03     463.851E-03    -232.206E-03     79.4576E-03     41.9262E+06     22.7873E+06    -58.7318E+06    -58.5401E+06     22.5956E+06     41.9262E+06     3.88701E+06         60.0386
            1576     8.72304E-03     124.109E-03     25.8831E-03    -4.65379E-03    -13.1115E-03    -11.2357E-03     24.0073E-03    -4.65379E-03     16.0787E-03     464.839E-03    -232.212E-03    -233.366E-03    -230.133E-03     462.105E-03    -232.711E-03     87.1495E-03     52.9658E+06     27.2285E+06    -49.9799E+06    -49.8495E+06     27.0981E+06     52.9658E+06     3.04492E+06         60.9394
            1577     9.51480E-03     124.238E-03     20.0033E-03    -2.53754E-03    -9.99130E-03    -6.06647E-03     18.4401E-03    -4.89921E-03     11.2534E-03     466.742E-03    -232.749E-03    -233.989E-03    -230.228E-03     463.480E-03    -233.248E-03     95.1932E-03     63.6034E+06     28.1114E+06    -41.3183E+06    -41.2580E+06     28.0511E+06     63.6034E+06     2.01275E+06         62.3461
            1578     10.3068E-03     124.367E-03     15.2042E-03    -258.459E-06    -6.89547E-03    -777.053E-06     13.5120E-03    -4.68469E-03     6.92153E-03     468.804E-03    -232.630E-03    -234.734E-03    -230.715E-03     464.785E-03    -232.630E-03     105.936E-03     74.2885E+06     30.8090E+06    -32.7188E+06    -32.6825E+06     30.7727E+06     74.2885E+06     1.48299E+06         64.4828
            1579     11.0960E-03     124.536E-03     20.0931E-03    -645.418E-06    -10.6910E-03    -3.07385E-03     16.1371E-03    -4.30659E-03     12.4828E-03     469.533E-03    -232.625E-03    -236.600E-03    -231.668E-03     464.601E-03    -232.625E-03     117.438E-03     81.6573E+06     40.1529E+06    -24.8482E+06    -24.7853E+06     40.0900E+06     81.6573E+06     1.54499E+06         67.6237
            1580     11.8849E-03     124.730E-03     23.2707E-03    -2.44286E-03    -10.8028E-03    -4.60755E-03     18.6720E-03    -4.03947E-03     1.61590E-03     469.029E-03    -233.133E-03    -236.872E-03    -231.377E-03     463.534E-03    -233.133E-03     124.072E-03     84.5226E+06     46.7038E+06    -18.0470E+06    -17.9831E+06     46.6398E+06     84.5226E+06     1.35125E+06         71.8121
            1581     12.6817E-03     124.875E-03     25.3809E-03    -3.93437E-03    -11.3055E-03    -8.18681E-03     22.2621E-03    -3.93437E-03     3.49153E-03     472.658E-03    -232.699E-03    -239.789E-03    -231.229E-03     464.097E-03    -232.699E-03     152.795E-03     86.0740E+06     48.1754E+06    -11.8443E+06    -11.8225E+06     48.1536E+06     86.0740E+06     677.952E+03         76.4557
            1582     13.4741E-03     125.141E-03     27.0542E-03    -4.05604E-03    -12.8674E-03    -11.8093E-03     25.9961E-03    -4.05604E-03     4.58352E-03     472.984E-03    -232.399E-03    -239.941E-03    -231.726E-03     464.768E-03    -232.399E-03     148.855E-03     89.6296E+06     52.5259E+06    -5.73399E+06    -5.71294E+06     52.5049E+06     89.6296E+06     400.407E+03         80.4180
            1583     792.163E-06     125.243E-03     165.617E-03    -47.2889E-03    -116.757E-03     90.0209E-03    -3.03423E-03    -85.4153E-03    -91.4748E-03     462.849E-03    -231.518E-03    -231.888E-03    -231.710E-03     462.845E-03    -231.691E-03     3.27553E-03    -132.324E+06    -134.663E+06    -269.862E+06    -134.598E+06    -269.817E+06    -132.435E+06    -508.698E+03         57.1243
            1584     1.58522E-03     125.231E-03     52.2236E-03     2.09275E-03    -46.4091E-03     404.250E-06     5.41020E-03     2.09275E-03     29.1292E-03     462.581E-03    -231.053E-03    -231.552E-03    -231.117E-03     462.568E-03    -231.476E-03     5.76207E-03    -122.350E+06    -131.524E+06    -247.399E+06    -131.539E+06    -247.385E+06    -122.350E+06     735.788E+03         57.2763
            1585     2.37845E-03     125.228E-03     38.9434E-03     301.332E-06    -33.4030E-03    -8.44793E-03     13.9883E-03     301.332E-06    -1.51799E-03     463.979E-03    -231.520E-03    -232.501E-03    -232.059E-03     463.936E-03    -231.918E-03     10.4140E-03    -104.083E+06    -125.422E+06    -219.889E+06    -125.514E+06    -219.797E+06    -104.083E+06     2.56827E+06         57.5359
            1586     3.17108E-03     125.242E-03     41.6835E-03    -2.12057E-03    -32.2202E-03    -9.96331E-03     19.4266E-03    -2.12057E-03     9.92169E-03     465.330E-03    -231.927E-03    -233.028E-03    -232.386E-03     465.207E-03    -232.446E-03     18.0903E-03    -82.3945E+06    -117.975E+06    -189.970E+06    -118.133E+06    -189.812E+06    -82.3945E+06     3.33250E+06         57.8247
            1587     3.96391E-03     125.264E-03     36.3525E-03    -3.48690E-03    -24.1674E-03    -7.80135E-03     19.9864E-03    -3.48690E-03    -4.44890E-03     464.768E-03    -232.147E-03    -233.450E-03    -231.855E-03     464.476E-03    -233.450E-03     27.9275E-03    -58.9471E+06    -108.567E+06    -156.767E+06    -108.937E+06    -156.396E+06    -58.9471E+06     3.77398E+06         58.0654
            1588     4.75481E-03     125.306E-03     25.1412E-03    -3.83735E-03    -14.8055E-03    -5.36994E-03     15.7765E-03    -3.90816E-03     11.9043E-03     463.924E-03    -231.864E-03    -233.865E-03    -231.332E-03     463.391E-03    -233.865E-03     38.1963E-03    -35.1202E+06    -97.8563E+06    -124.494E+06    -98.7250E+06    -123.626E+06    -35.1202E+06     4.35168E+06         58.3041
            1589     5.54700E-03     125.360E-03     17.6449E-03    -2.61497E-03    -10.0609E-03    -3.32692E-03     12.1393E-03    -3.84340E-03    -3.47431E-03     464.089E-03    -231.739E-03    -233.214E-03    -231.129E-03     463.228E-03    -232.964E-03     48.5849E-03    -11.4570E+06    -80.0120E+06    -97.1596E+06    -87.5601E+06    -89.6115E+06    -11.4570E+06     4.99301E+06         58.6043
            1590     6.33878E-03     125.441E-03     12.8062E-03    -1.17479E-03    -6.17094E-03    -2.09371E-03     11.1815E-03    -3.62739E-03     2.52316E-03     464.167E-03    -231.392E-03    -232.595E-03    -230.372E-03     462.896E-03    -232.345E-03     59.2064E-03     11.8018E+06    -37.2125E+06    -79.1152E+06    -77.5560E+06    -38.7717E+06     11.8018E+06     6.11805E+06         58.9585
            1591     7.13156E-03     125.521E-03     15.4906E-03    -2.22342E-03    -6.73821E-03    -3.42637E-03     13.4737E-03    -3.51841E-03    -6.48353E-03     465.282E-03    -231.089E-03    -232.610E-03    -229.364E-03     463.556E-03    -232.610E-03     69.0748E-03     31.8464E+06     6.67463E+06    -68.3650E+06    -67.8377E+06     6.14731E+06     31.8464E+06     6.01540E+06         59.3884
            1592     7.92601E-03     125.610E-03     19.4203E-03    -2.35930E-03    -9.07212E-03    -5.52157E-03     17.1466E-03    -3.63610E-03    -2.83884E-03     465.695E-03    -231.460E-03    -232.603E-03    -229.768E-03     463.436E-03    -232.036E-03     79.1213E-03     44.5123E+06     23.3559E+06    -58.3552E+06    -57.9808E+06     22.9816E+06     44.5123E+06     5.31410E+06         59.9778
            1593     8.71721E-03     125.733E-03     19.8372E-03    -495.292E-06    -10.0524E-03    -4.57493E-03     17.6393E-03    -3.77479E-03     9.25099E-03     465.017E-03    -232.035E-03    -233.313E-03    -229.890E-03     462.305E-03    -232.746E-03     86.7859E-03     54.8823E+06     29.2907E+06    -49.0594E+06    -48.8255E+06     29.0568E+06     54.8823E+06     4.17459E+06         60.8895
            1594     9.50992E-03     125.858E-03     20.5728E-03    -556.092E-06    -11.4701E-03    -5.55233E-03     17.9372E-03    -3.83829E-03    -268.171E-06     466.819E-03    -232.350E-03    -233.960E-03    -230.017E-03     463.585E-03    -233.061E-03     94.7929E-03     66.0056E+06     30.5758E+06    -39.8697E+06    -39.7772E+06     30.4833E+06     66.0056E+06     2.30380E+06         62.2962
            1595     10.3033E-03     125.980E-03     17.2917E-03    -473.447E-06    -8.14630E-03    -2.53084E-03     15.0203E-03    -3.81751E-03    -7.29530E-03     468.577E-03    -232.357E-03    -234.468E-03    -230.486E-03     464.596E-03    -232.357E-03     105.383E-03     75.5969E+06     30.5177E+06    -31.4893E+06    -31.4119E+06     30.4403E+06     75.5969E+06     1.81539E+06         64.3978
            1596     11.0946E-03     126.143E-03     12.6749E-03     1.84554E-03    -4.19060E-03     3.92410E-03     9.93650E-03    -3.53080E-03    -3.81865E-03     469.189E-03    -232.478E-03    -236.107E-03    -231.161E-03     464.243E-03    -232.478E-03     117.518E-03     82.2620E+06     39.3141E+06    -24.0649E+06    -23.9379E+06     39.1870E+06     82.2620E+06     2.62594E+06         67.4578
            1597     11.8854E-03     126.333E-03     16.9161E-03     123.436E-06    -7.13533E-03     1.72742E-03     11.3651E-03    -3.18834E-03    -17.1064E-03     468.790E-03    -233.128E-03    -236.448E-03    -230.946E-03     463.288E-03    -233.128E-03     124.086E-03     85.7737E+06     48.2450E+06    -17.3853E+06    -17.2713E+06     48.1311E+06     85.7737E+06     2.31267E+06         71.5461
            1598     12.6819E-03     126.468E-03     19.3094E-03    -1.54755E-03    -9.12124E-03    -1.13217E-03     12.8138E-03    -3.04105E-03    -11.9607E-03     472.154E-03    -232.770E-03    -240.002E-03    -231.550E-03     463.702E-03    -232.770E-03     151.873E-03     87.9617E+06     49.8018E+06    -11.0157E+06    -10.9603E+06     49.7464E+06     87.9617E+06     1.04377E+06         76.1696
            1599     13.4797E-03     126.704E-03     16.4803E-03    -457.920E-06    -6.77142E-03    -503.633E-06     12.6806E-03    -2.92603E-03    -740.582E-06     473.148E-03    -232.349E-03    -240.686E-03    -232.693E-03     465.155E-03    -232.349E-03     146.617E-03     90.7701E+06     53.0902E+06    -5.38138E+06    -5.35912E+06     53.0679E+06     90.7701E+06     362.978E+03         80.2145
            1600     792.063E-06     126.830E-03     152.668E-03    -11.4114E-03    -136.011E-03     91.4276E-03     35.1148E-03    -121.296E-03    -51.6610E-03     462.976E-03    -231.466E-03    -232.174E-03    -232.171E-03     462.973E-03    -231.466E-03     2.46431E-03    -132.910E+06    -136.779E+06    -271.960E+06    -136.315E+06    -271.925E+06    -133.408E+06     1.93450E+06         57.2475
            1601     1.58527E-03     126.807E-03     56.5823E-03    -9.27486E-03    -40.5639E-03    -14.4603E-03     35.8849E-03    -14.6811E-03     1.34236E-03     462.664E-03    -231.089E-03    -231.543E-03    -231.168E-03     462.652E-03    -231.451E-03     5.67788E-03    -122.456E+06    -133.751E+06    -250.690E+06    -133.799E+06    -250.642E+06    -122.456E+06     2.06155E+06         57.4308
            1602     2.37870E-03     126.798E-03     34.5648E-03    -1.73668E-03    -25.9111E-03    -1.09983E-03     20.6304E-03    -12.6136E-03    -25.3308E-03     463.944E-03    -231.432E-03    -232.420E-03    -232.013E-03     463.899E-03    -231.794E-03     10.7294E-03    -105.051E+06    -127.175E+06    -224.062E+06    -127.255E+06    -223.982E+06    -105.051E+06     2.46954E+06         57.7254
            1603     3.17189E-03     126.803E-03     27.9472E-03    -2.61605E-03    -18.6524E-03     13.0630E-03     1.70241E-03    -8.08670E-03    -20.1641E-03     465.211E-03    -231.892E-03    -232.813E-03    -232.389E-03     465.082E-03    -232.187E-03     18.4636E-03    -82.3400E+06    -118.054E+06    -192.237E+06    -118.208E+06    -192.083E+06    -82.3400E+06      3.1805E+06         58.0392
            1604     3.96445E-03     126.820E-03     27.4085E-03    -3.54433E-03    -16.6206E-03     15.9613E-03    -5.17338E-03    -3.54433E-03    -17.2944E-03     464.392E-03    -231.512E-03    -233.184E-03    -231.207E-03     464.087E-03    -233.184E-03     28.5430E-03    -58.8092E+06    -108.987E+06    -158.913E+06    -109.297E+06    -158.603E+06    -58.8092E+06      3.6808E+06         58.2791
            1605     4.75804E-03     126.854E-03     18.6103E-03    -1.48751E-03    -10.7136E-03     39.8729E-06     7.85680E-03    -1.48751E-03     4.07427E-03     463.304E-03    -231.086E-03    -233.607E-03    -230.536E-03     462.755E-03    -233.607E-03     38.7887E-03    -34.8568E+06    -98.0238E+06    -127.598E+06    -98.8943E+06    -126.728E+06    -34.8568E+06     4.42285E+06         58.5030
            1606     5.55174E-03     126.903E-03     20.9667E-03    -1.99938E-03    -12.5268E-03    -11.0472E-03     19.4871E-03    -1.99938E-03    -10.7206E-03     463.345E-03    -231.249E-03    -233.022E-03    -230.997E-03     462.465E-03    -232.393E-03     49.0981E-03    -11.7966E+06    -81.8961E+06    -100.279E+06    -88.4069E+06    -93.7683E+06    -11.7966E+06     5.67747E+06         58.7956
            1607     6.34443E-03     126.977E-03     21.0509E-03    -3.00503E-03    -10.7692E-03    -9.07180E-03     19.3535E-03    -3.00503E-03    -4.50504E-03     462.586E-03    -231.191E-03    -232.453E-03    -230.525E-03     461.292E-03    -231.825E-03     59.6898E-03     10.9766E+06    -40.6675E+06    -79.4999E+06    -77.2213E+06    -42.9461E+06     10.9766E+06     7.03695E+06         59.1362
            1608     7.13859E-03     127.055E-03     19.7984E-03    -3.56360E-03    -7.73961E-03    -7.11740E-03     19.1762E-03    -3.56360E-03     5.66755E-03     463.293E-03    -230.862E-03    -231.885E-03    -229.127E-03     461.558E-03    -231.885E-03     69.1645E-03     31.4717E+06     6.33777E+06    -67.2756E+06    -66.3480E+06     5.41016E+06     31.4717E+06     7.91923E+06         59.5352
            1609     7.93235E-03     127.136E-03     19.3030E-03    -2.56366E-03    -7.91498E-03    -5.67706E-03     18.3419E-03    -3.84046E-03    -1.57338E-03     464.905E-03    -231.103E-03    -231.949E-03    -229.313E-03     462.659E-03    -231.492E-03     78.8311E-03     45.9402E+06     26.1309E+06    -57.1475E+06    -56.5786E+06     25.5620E+06     45.9402E+06     6.74186E+06         60.0950
            1610     8.72448E-03     127.255E-03     14.6103E-03    -529.936E-06    -6.67806E-03    -844.730E-06     12.0564E-03    -3.80943E-03    -912.548E-06     464.864E-03    -232.023E-03    -233.073E-03    -229.779E-03     462.162E-03    -232.616E-03     86.5931E-03     57.3618E+06     31.7538E+06    -47.0535E+06    -46.7680E+06     31.4683E+06     57.3618E+06     4.70668E+06         60.9901
            1611     9.51644E-03     127.383E-03     15.3915E-03     48.3288E-06    -8.42327E-03    -1.11614E-03     11.7400E-03    -3.60731E-03    -501.052E-06     465.647E-03    -232.004E-03    -233.888E-03    -230.067E-03     462.419E-03    -232.597E-03     94.6397E-03     67.7089E+06     32.0328E+06    -38.8455E+06    -38.5113E+06     31.6986E+06     67.7089E+06     4.08711E+06         62.3727
            1612     10.3089E-03     127.515E-03     19.3106E-03    -1.88654E-03    -9.82798E-03    -4.32680E-03     15.4624E-03    -3.53948E-03    -13.3798E-03     466.802E-03    -231.719E-03    -234.135E-03    -230.190E-03     462.857E-03    -231.719E-03     104.761E-03     76.2694E+06     30.7036E+06    -32.1281E+06    -31.7794E+06     30.3548E+06     76.2694E+06     3.97563E+06         64.4316
            1613     11.1017E-03     127.667E-03     18.4269E-03    -1.75803E-03    -8.65871E-03    -2.24007E-03     13.7235E-03    -3.47320E-03    -2.22455E-03     468.298E-03    -231.690E-03    -235.384E-03    -230.551E-03     463.466E-03    -231.690E-03     116.063E-03     82.9258E+06     39.3738E+06    -24.9891E+06    -24.8153E+06     39.1999E+06     82.9258E+06     3.22473E+06         67.4462
            1614     11.8931E-03     127.851E-03     17.2531E-03    -627.297E-06    -7.29316E-03     1.09180E-03     11.4379E-03    -3.19703E-03     2.97560E-03     468.996E-03    -232.343E-03    -236.458E-03    -231.153E-03     463.691E-03    -232.343E-03     121.883E-03     87.1537E+06     49.5392E+06    -17.5249E+06    -17.4258E+06     49.4401E+06     87.1537E+06     2.25858E+06         71.4999
            1615     12.6886E-03     127.995E-03     17.0517E-03    -451.378E-06    -6.25803E-03     1.47220E-03     11.6696E-03    -2.79944E-03    -1.14190E-03     472.317E-03    -232.492E-03    -240.681E-03    -232.360E-03     463.997E-03    -232.492E-03     150.527E-03     89.0647E+06     51.0065E+06    -11.1646E+06    -11.0710E+06     50.9129E+06     89.0647E+06     1.64359E+06         76.1313
            1616     13.4806E-03     128.249E-03     16.4238E-03    -36.9177E-06    -7.18267E-03    -764.357E-06     12.4736E-03    -2.50503E-03     2.36697E-03     472.739E-03    -232.337E-03    -240.940E-03    -232.976E-03     464.775E-03    -232.337E-03     146.334E-03     91.9746E+06     54.6017E+06    -5.84258E+06    -5.78358E+06     54.5427E+06     91.9746E+06     918.963E+03         80.2251
            1617     792.114E-06     128.436E-03     114.361E-03     18.6652E-03    -122.189E-03     81.5894E-03     48.3656E-03    -119.117E-03     6.61626E-03     462.420E-03    -230.873E-03    -232.019E-03    -232.015E-03     462.416E-03    -230.873E-03     3.08462E-03    -134.889E+06    -138.183E+06    -277.891E+06    -137.824E+06    -277.864E+06    -135.275E+06     1.64241E+06         57.3724
            1618     1.58452E-03     128.423E-03     39.0332E-03    -7.71930E-03    -23.4069E-03    -4.09723E-03     27.9202E-03    -15.9160E-03     12.3727E-03     462.876E-03    -231.319E-03    -231.729E-03    -231.657E-03     462.860E-03    -231.376E-03     6.12094E-03    -122.619E+06    -133.300E+06    -254.278E+06    -133.360E+06    -254.218E+06    -122.619E+06     2.52020E+06         57.5978
            1619     2.37722E-03     128.426E-03     24.2482E-03     516.247E-06    -18.0120E-03     4.95333E-03     12.1598E-03    -10.3606E-03     9.81866E-03     464.717E-03    -231.790E-03    -232.361E-03    -232.252E-03     464.665E-03    -231.847E-03     11.6255E-03    -104.787E+06    -127.333E+06    -225.930E+06    -127.419E+06    -225.844E+06    -104.787E+06     2.77079E+06         57.9280
            1620     3.17038E-03     128.433E-03     24.6838E-03    -805.308E-06    -17.2631E-03     5.25807E-03     7.63327E-03    -6.27596E-03    -4.13177E-03     465.475E-03    -231.656E-03    -232.953E-03    -231.941E-03     465.332E-03    -232.526E-03     19.4362E-03    -82.9462E+06    -119.499E+06    -195.566E+06    -119.642E+06    -195.422E+06    -82.9462E+06     3.12263E+06         58.2732
            1621     3.96427E-03     128.447E-03     29.0519E-03    -3.91176E-03    -17.9940E-03     4.70012E-03     6.35781E-03    -3.91176E-03     2.29073E-03     463.961E-03    -231.252E-03    -233.432E-03    -230.935E-03     463.644E-03    -233.432E-03     29.1781E-03    -58.4079E+06    -109.287E+06    -161.798E+06    -109.709E+06    -161.377E+06    -58.4079E+06     4.13070E+06         58.5354
            1622     4.75720E-03     128.478E-03     22.0726E-03    -2.56045E-03    -13.7197E-03     3.31871E-03     5.03424E-03    -2.56045E-03     21.0099E-03     462.972E-03    -230.962E-03    -233.443E-03    -230.408E-03     462.418E-03    -233.443E-03     38.9457E-03    -34.9977E+06    -98.9688E+06    -130.953E+06    -99.9250E+06    -129.996E+06    -34.9977E+06     4.89789E+06         58.7577
            1623     5.55018E-03     128.526E-03     17.5289E-03    -1.26429E-03    -10.3438E-03    -1.07592E-03     9.01220E-03    -2.01539E-03     2.63297E-03     462.825E-03    -231.235E-03    -233.186E-03    -231.122E-03     461.931E-03    -232.406E-03     49.4598E-03    -13.1663E+06    -84.4602E+06    -102.829E+06    -89.0868E+06    -98.2029E+06    -13.1663E+06     5.51927E+06         59.0620
            1624     6.34369E-03     128.591E-03     20.9157E-03    -1.45676E-03    -10.7188E-03    -6.77044E-03     17.7184E-03    -2.20786E-03     2.19586E-03     463.086E-03    -231.338E-03    -232.664E-03    -230.811E-03     461.779E-03    -231.884E-03     60.0575E-03     8.33365E+06    -45.7991E+06    -80.8469E+06    -77.9177E+06    -48.7283E+06     8.33365E+06     7.10123E+06         59.4303
            1625     7.13801E-03     128.660E-03     22.5289E-03    -2.83612E-03    -11.5968E-03    -9.86793E-03     20.8000E-03    -2.83612E-03     10.5351E-03     464.291E-03    -231.254E-03    -231.939E-03    -229.519E-03     462.557E-03    -231.939E-03     69.2297E-03     29.2584E+06     4.84130E+06    -68.1514E+06    -67.1588E+06     3.84865E+06     29.2584E+06     8.16207E+06         59.8368
            1626     7.93268E-03     128.729E-03     20.4675E-03    -2.91754E-03    -8.76637E-03    -5.68266E-03     17.7653E-03    -3.29897E-03    -8.17570E-03     465.105E-03    -231.405E-03    -232.136E-03    -229.738E-03     462.847E-03    -231.544E-03     79.0627E-03     45.9174E+06     29.4631E+06    -57.4210E+06    -56.7907E+06     28.8328E+06     45.9174E+06     7.29752E+06         60.3812
            1627     8.72680E-03     128.826E-03     18.9917E-03    -2.81178E-03    -6.12329E-03    -1.25315E-03     14.5644E-03    -3.25467E-03    -473.963E-06     464.815E-03    -232.068E-03    -233.015E-03    -229.919E-03     462.075E-03    -232.424E-03     87.2141E-03     57.6300E+06     32.3231E+06    -48.7982E+06    -48.2191E+06     31.7440E+06     57.6300E+06     6.54883E+06         61.2367
            1628     9.52165E-03     128.937E-03     15.1639E-03    -1.14524E-03    -4.43432E-03     1.68872E-03     10.7553E-03    -2.85964E-03     14.5438E-03     465.130E-03    -231.842E-03    -233.812E-03    -230.182E-03     461.856E-03    -232.198E-03     95.2910E-03     67.7263E+06     31.1651E+06    -41.1515E+06    -40.4449E+06     30.4585E+06     67.7263E+06     6.86193E+06         62.5718
            1629     10.3167E-03     129.049E-03     16.0854E-03    -692.216E-06    -5.41795E-03     2.19710E-03     10.1233E-03    -2.34516E-03     4.05569E-03     466.121E-03    -231.202E-03    -234.333E-03    -230.360E-03     462.148E-03    -231.202E-03     105.102E-03     77.7914E+06     32.8536E+06    -33.1276E+06    -32.5081E+06     32.2341E+06     77.7914E+06     6.25948E+06         64.6106
            1630     11.1095E-03     129.194E-03     19.5643E-03    -1.97411E-03    -8.37433E-03    -2.12320E-03     13.3131E-03    -1.97411E-03     7.03729E-03     468.584E-03    -231.094E-03    -235.752E-03    -230.920E-03     463.752E-03    -231.094E-03     116.123E-03     84.9828E+06     42.3639E+06    -25.3825E+06    -25.0949E+06     42.0763E+06     84.9828E+06     3.97346E+06         67.6527
            1631     11.9007E-03     129.374E-03     18.0711E-03    -1.00060E-03    -9.14191E-03    -4.53240E-03     14.3162E-03    -1.85517E-03     7.99735E-03     469.748E-03    -231.820E-03    -236.882E-03    -231.569E-03     464.434E-03    -231.820E-03     122.087E-03     88.4149E+06     50.3404E+06    -18.2239E+06    -18.0615E+06     50.1780E+06     88.4149E+06     2.71070E+06         71.7655
            1632     12.6931E-03     129.537E-03     17.5379E-03    -1.09242E-03    -9.19440E-03    -6.25821E-03     15.4563E-03    -1.94698E-03    -2.00557E-03     472.361E-03    -232.323E-03    -240.670E-03    -232.227E-03     463.918E-03    -232.323E-03     151.518E-03     90.1916E+06     52.3948E+06    -11.9286E+06    -11.7671E+06     52.2333E+06     90.1916E+06     2.15501E+06         76.4161
            1633     13.4855E-03     129.817E-03     19.0871E-03    -2.19747E-03    -9.05970E-03    -7.74734E-03     17.7748E-03    -2.19747E-03     2.51709E-03     472.034E-03    -232.359E-03    -240.203E-03    -232.044E-03     463.875E-03    -232.359E-03     148.113E-03     93.2636E+06     56.7518E+06    -5.99007E+06    -5.92727E+06     56.6890E+06     93.2636E+06     991.068E+03         80.4652
            1634     793.703E-06     130.035E-03     90.9119E-03     1.30702E-03    -75.7040E-03     83.0134E-03    -7.42295E-03    -59.0755E-03    -4.29898E-03     461.625E-03    -230.605E-03    -231.377E-03    -231.372E-03     461.620E-03    -230.605E-03     3.60192E-03    -134.588E+06    -137.910E+06    -282.180E+06    -137.334E+06    -282.167E+06    -135.176E+06     1.25719E+06         57.3937
            1635     1.58555E-03     130.034E-03     23.3678E-03     8.88547E-03    -20.1881E-03     9.83975E-03    -9.23456E-03     11.4600E-03    -7.43755E-03     462.675E-03    -231.335E-03    -232.071E-03    -232.052E-03     462.656E-03    -231.335E-03     6.73309E-03    -123.150E+06    -133.263E+06    -258.466E+06    -133.296E+06    -258.433E+06    -123.150E+06     1.94157E+06         57.6312
            1636     2.37757E-03     130.035E-03     18.4258E-03     7.12018E-03    -17.0366E-03    -2.90804E-03     2.35096E-03     9.06646E-03     7.45092E-03     464.959E-03    -231.941E-03    -232.800E-03    -232.741E-03     464.900E-03    -231.941E-03     12.3966E-03    -105.242E+06    -126.873E+06    -229.753E+06    -126.983E+06    -229.643E+06    -105.242E+06     3.13296E+06         57.9562
            1637     3.17077E-03     130.051E-03     22.4679E-03     3.82104E-03    -19.1973E-03    -17.7428E-03     20.4680E-03     4.36642E-03     7.87186E-03     465.880E-03    -231.661E-03    -233.326E-03    -231.991E-03     465.736E-03    -232.851E-03     19.6756E-03    -82.3135E+06    -118.745E+06    -199.008E+06    -119.086E+06    -198.666E+06    -82.3135E+06     4.77912E+06         58.2958
            1638     3.96374E-03     130.075E-03     34.0648E-03    -79.7049E-06    -24.7682E-03    -17.5167E-03     26.8133E-03    -79.7049E-06    -744.195E-06     463.901E-03    -231.465E-03    -233.652E-03    -231.149E-03     463.586E-03    -233.652E-03     29.1155E-03    -58.0181E+06    -109.364E+06    -165.383E+06    -109.979E+06    -164.768E+06    -58.0181E+06     5.43180E+06         58.5806
            1639     4.75542E-03     130.109E-03     29.8035E-03    -1.99389E-03    -18.5570E-03    -4.63543E-03     15.8819E-03    -1.99389E-03     12.0169E-03     462.972E-03    -231.227E-03    -233.417E-03    -230.663E-03     462.408E-03    -233.417E-03     39.2500E-03    -35.5410E+06    -99.0947E+06    -134.407E+06    -100.127E+06    -133.374E+06    -35.5410E+06     5.45669E+06         58.8328
            1640     5.54875E-03     130.161E-03     14.7486E-03    -1.11424E-03    -6.25766E-03     2.62145E-03     6.62057E-03    -1.86534E-03     11.0005E-03     463.573E-03    -231.489E-03    -233.449E-03    -231.345E-03     462.661E-03    -232.681E-03     50.0004E-03    -14.0642E+06    -85.7417E+06    -105.853E+06    -90.0842E+06    -101.510E+06    -14.0642E+06     6.06190E+06         59.1599
            1641     6.34122E-03     130.237E-03     14.4036E-03    -650.548E-06    -8.70975E-03     598.987E-06     5.84593E-03    -1.40165E-03     11.3764E-03     465.092E-03    -231.544E-03    -233.100E-03    -230.987E-03     463.767E-03    -232.332E-03     60.5495E-03     7.70921E+06    -49.7347E+06    -83.2692E+06    -79.7833E+06    -53.2206E+06     7.70921E+06     7.12526E+06         59.5525
            1642     7.13444E-03     130.306E-03     18.7805E-03    -1.25534E-03    -12.9782E-03    -1.97934E-03     7.78172E-03    -1.25534E-03     16.7617E-03     466.564E-03    -231.501E-03    -232.448E-03    -229.817E-03     464.796E-03    -232.364E-03     70.0166E-03     28.4211E+06     1.74838E+06    -70.0179E+06    -69.0388E+06     769.348E+03     28.4211E+06     8.02934E+06         59.9853
            1643     7.92941E-03     130.384E-03     14.1914E-03    -759.926E-06    -7.28278E-03    -1.12268E-03     8.41268E-03    -1.14136E-03     495.988E-06     465.877E-03    -231.566E-03    -232.599E-03    -230.210E-03     463.563E-03    -231.640E-03     80.0937E-03     44.1975E+06     28.2177E+06    -60.6061E+06    -59.5847E+06     27.1963E+06     44.1975E+06     9.22584E+06         60.5568
            1644     8.72270E-03     130.487E-03     16.8112E-03    -395.076E-06    -6.48511E-03     1.05663E-03     9.71232E-03    -837.969E-06     11.6832E-03     465.174E-03    -232.269E-03    -233.495E-03    -230.561E-03     462.372E-03    -232.401E-03     88.2552E-03     57.5932E+06     32.5984E+06    -52.1360E+06    -50.9850E+06     31.4474E+06     57.5932E+06     9.64158E+06         61.4195
            1645     9.51739E-03     130.591E-03     18.5746E-03    -452.103E-06    -6.80684E-03     335.455E-06     11.4938E-03    -513.566E-06     13.6845E-03     466.419E-03    -232.431E-03    -233.962E-03    -230.514E-03     463.102E-03    -232.562E-03     96.0438E-03     69.1686E+06     32.4749E+06    -43.0374E+06    -42.2242E+06     31.6618E+06     69.1686E+06     7.74269E+06         62.7432
            1646     10.3122E-03     130.696E-03     15.8491E-03    -355.367E-06    -5.46455E-03    -1.21774E-03     11.6023E-03    -355.367E-06     5.11141E-03     467.683E-03    -231.614E-03    -234.629E-03    -230.585E-03     463.639E-03    -231.614E-03     106.144E-03     78.7664E+06     34.3207E+06    -33.5252E+06    -33.0084E+06     33.8040E+06     78.7664E+06     5.79413E+06         64.7908
            1647     11.1056E-03     130.833E-03     17.3930E-03    -482.694E-06    -7.99130E-03    -5.84690E-03     15.2486E-03    -482.694E-06     5.61361E-03     469.628E-03    -231.373E-03    -236.824E-03    -231.840E-03     464.643E-03    -231.373E-03     118.098E-03     86.7671E+06     45.1166E+06    -24.7583E+06    -24.2799E+06     44.6382E+06     86.7671E+06     5.22990E+06         67.8760
            1648     11.8975E-03     131.003E-03     20.1722E-03    -1.01496E-03    -12.6979E-03    -12.0445E-03     19.5188E-03    -1.01496E-03    -6.13892E-03     470.009E-03    -231.984E-03    -237.334E-03    -231.867E-03     464.542E-03    -231.984E-03     123.884E-03     90.3283E+06     52.0749E+06    -17.8830E+06    -17.5055E+06     51.6974E+06     90.3283E+06     4.41941E+06         72.0529
            1649     12.6945E-03     131.141E-03     18.6095E-03    -1.65091E-03    -11.3898E-03    -9.95444E-03     17.1741E-03    -1.65091E-03    -11.9336E-03     472.042E-03    -232.305E-03    -240.360E-03    -231.708E-03     463.391E-03    -232.305E-03     153.261E-03     91.9131E+06     54.6993E+06    -11.5888E+06    -11.3521E+06     54.4625E+06     91.9131E+06     3.07036E+06         76.7222
            1650     13.4860E-03     131.419E-03     16.3924E-03    -1.95854E-03    -7.51177E-03    -3.89902E-03     12.7797E-03    -1.95854E-03     3.59494E-03     471.543E-03    -232.346E-03    -239.788E-03    -231.426E-03     463.181E-03    -232.346E-03     149.816E-03     94.8333E+06     59.8611E+06    -5.51027E+06    -5.38444E+06     59.7353E+06     94.8333E+06     1.59149E+06         80.7140
            1651     792.767E-06     131.627E-03     74.4519E-03    -11.7822E-03    -42.5645E-03     59.0131E-03    -29.9584E-03    -8.94949E-03    -30.0780E-03     461.270E-03    -230.472E-03    -231.112E-03    -230.604E-03     461.265E-03    -230.975E-03     3.60485E-03    -134.437E+06    -138.806E+06    -285.860E+06    -138.245E+06    -285.833E+06    -135.026E+06     1.70676E+06         57.3116
            1652     1.58618E-03     131.637E-03     27.9309E-03     13.9696E-03    -27.0502E-03    -3.23995E-03    -1.24443E-03     19.3346E-03    -9.74436E-03     461.917E-03    -230.939E-03    -231.690E-03    -231.617E-03     461.901E-03    -230.994E-03     6.48051E-03    -123.406E+06    -134.096E+06    -263.417E+06    -134.166E+06    -263.346E+06    -123.406E+06     2.42427E+06         57.5362
            1653     2.37920E-03     131.641E-03     25.0635E-03     7.84049E-03    -19.5478E-03    -13.2170E-03     16.7865E-03     9.78677E-03    -12.5253E-03     464.816E-03    -231.497E-03    -232.889E-03    -232.831E-03     464.758E-03    -231.497E-03     12.2099E-03    -105.267E+06    -127.835E+06    -235.172E+06    -127.998E+06    -235.009E+06    -105.267E+06     4.00965E+06         57.8410
            1654     3.17007E-03     131.655E-03     24.9703E-03     3.36723E-03    -18.5337E-03    -11.6447E-03     17.5359E-03     3.91260E-03    -11.0456E-03     466.347E-03    -231.558E-03    -233.620E-03    -232.203E-03     466.193E-03    -232.822E-03     20.2254E-03    -83.2127E+06    -119.334E+06    -204.287E+06    -119.709E+06    -203.911E+06    -83.2127E+06     5.22967E+06         58.1572
            1655     3.96273E-03     131.680E-03     27.0002E-03     1.16429E-03    -19.4415E-03    -6.24091E-03     13.7997E-03     1.16429E-03    -24.6105E-03     463.876E-03    -231.303E-03    -233.674E-03    -230.972E-03     463.545E-03    -233.674E-03     29.8720E-03    -59.8939E+06    -109.694E+06    -170.588E+06    -110.714E+06    -169.568E+06    -59.8939E+06     6.82389E+06         58.4402
            1656     4.75660E-03     131.719E-03     23.4350E-03     99.0052E-06    -13.9406E-03    -4.09276E-03     13.5871E-03     99.0052E-06    -913.050E-06     462.816E-03    -231.215E-03    -233.179E-03    -230.632E-03     462.233E-03    -233.179E-03     39.9297E-03    -35.5400E+06    -99.3289E+06    -137.459E+06    -101.109E+06    -135.679E+06    -35.5400E+06     7.46752E+06         58.7156
            1657     5.54899E-03     131.770E-03     17.3797E-03    -495.293E-06    -9.05480E-03    -5.01518E-03     13.3401E-03    -495.293E-06     10.0738E-03     464.128E-03    -231.688E-03    -233.280E-03    -231.498E-03     463.201E-03    -232.544E-03     50.4604E-03    -13.0713E+06    -86.4590E+06    -107.409E+06    -91.0686E+06    -102.799E+06    -13.0713E+06     7.09675E+06         59.0602
            1658     6.34151E-03     131.842E-03     14.1434E-03    -370.287E-06    -7.38061E-03     232.917E-06     6.85764E-03    -698.071E-06     4.22817E-03     465.945E-03    -231.498E-03    -233.167E-03    -230.883E-03     464.594E-03    -232.431E-03     61.1542E-03     7.99978E+06    -53.3372E+06    -84.2467E+06    -80.2615E+06    -57.3224E+06     7.99978E+06     7.47027E+06         59.4595
            1659     7.13579E-03     131.918E-03     13.9905E-03     61.0657E-06    -8.33866E-03     6.19555E-03    -215.946E-06    -266.719E-06     5.52817E-03     467.173E-03    -231.472E-03    -232.542E-03    -229.799E-03     465.363E-03    -232.404E-03     70.8878E-03     28.8588E+06    -4.73463E+06    -71.6173E+06    -70.0182E+06    -6.33372E+06     28.8588E+06     9.93387E+06         59.9038
            1660     7.92961E-03     131.997E-03     15.9845E-03     158.380E-06    -11.1563E-03     2.26964E-03     2.55853E-03     158.380E-06    -11.7405E-03     466.137E-03    -231.502E-03    -232.865E-03    -230.490E-03     463.762E-03    -231.502E-03     81.1543E-03     45.3451E+06     24.9405E+06    -62.0916E+06    -60.3693E+06     23.2182E+06     45.3451E+06     11.8589E+06         60.4953
            1661     8.72223E-03     132.115E-03     20.3998E-03     41.5747E-06    -15.0504E-03    -2.69665E-03     8.04602E-03     41.5747E-06    -10.0934E-03     465.469E-03    -232.356E-03    -234.062E-03    -231.155E-03     462.563E-03    -232.356E-03     89.9320E-03     58.3858E+06     34.4653E+06    -51.6620E+06    -50.2134E+06     33.0167E+06     58.3858E+06     11.0203E+06         61.3857
            1662     9.51484E-03     132.233E-03     21.1952E-03    -324.247E-06    -14.1561E-03    -2.50350E-03     9.54259E-03    -324.247E-06    -14.1024E-03     467.337E-03    -233.044E-03    -234.259E-03    -230.840E-03     463.918E-03    -233.044E-03     97.6105E-03     70.4296E+06     36.8306E+06    -41.9793E+06    -40.9643E+06     35.8156E+06     70.4296E+06     8.79199E+06         62.7401
            1663     10.3096E-03     132.347E-03     18.5619E-03    -708.751E-06    -10.5231E-03    -3.47357E-03     11.5124E-03    -708.751E-06    -19.8380E-03     468.895E-03    -232.190E-03    -234.995E-03    -230.815E-03     464.715E-03    -232.190E-03     108.007E-03     80.0201E+06     36.5534E+06    -33.7834E+06    -33.1582E+06     35.9281E+06     80.0201E+06     6.43004E+06         64.8153
            1664     11.1023E-03     132.489E-03     17.1054E-03    -1.05169E-03    -8.48222E-03    -2.52847E-03     11.1516E-03    -1.05169E-03    -6.28412E-03     469.872E-03    -231.811E-03    -237.446E-03    -232.267E-03     464.694E-03    -231.811E-03     120.428E-03     87.2025E+06     44.8119E+06    -26.0664E+06    -25.5747E+06     44.3203E+06     87.2025E+06     5.41295E+06         67.9267
            1665     11.8953E-03     132.652E-03     18.1614E-03    -1.17336E-03    -9.00268E-03    -326.039E-06     9.48478E-03    -1.17336E-03    -3.75233E-03     469.724E-03    -232.330E-03    -237.521E-03    -231.876E-03     464.079E-03    -232.330E-03     125.862E-03     91.1438E+06     52.8879E+06    -18.5686E+06    -18.0581E+06     52.3775E+06     91.1438E+06     5.22600E+06         72.1262
            1666     12.6919E-03     132.783E-03     16.9961E-03    -1.14785E-03    -8.02294E-03    -3.15561E-03     12.1287E-03    -1.14785E-03    -2.72293E-03     472.257E-03    -232.302E-03    -240.523E-03    -231.667E-03     463.401E-03    -232.302E-03     155.151E-03     93.3325E+06     58.0247E+06    -12.0693E+06    -11.6997E+06     57.6551E+06     93.3325E+06     4.28757E+06         76.8055
            1667     13.4869E-03     133.040E-03     17.1516E-03    -1.21720E-03    -9.34040E-03    -6.60668E-03     14.4179E-03    -1.21720E-03     7.03300E-03     471.419E-03    -232.270E-03    -240.039E-03    -231.535E-03     462.914E-03    -232.270E-03     151.006E-03     96.8185E+06     63.8952E+06    -6.03144E+06    -5.90398E+06     63.7677E+06     96.8185E+06     2.04459E+06         80.7946
            1668     793.290E-06     133.217E-03     71.9681E-03    -14.7722E-03    -45.6963E-03     12.5496E-03     13.7222E-03    -14.7722E-03    -38.9037E-03     461.337E-03    -230.410E-03    -231.265E-03    -230.405E-03     461.332E-03    -231.265E-03     3.54097E-03    -136.661E+06    -141.959E+06    -291.142E+06    -140.720E+06    -291.062E+06    -137.980E+06     1.09103E+06         57.1932
            1669     1.58608E-03     133.224E-03     37.3309E-03    -1.06125E-03    -24.6569E-03     4.98520E-06     12.6690E-03    -1.06125E-03     17.1769E-03     461.399E-03    -230.620E-03    -231.108E-03    -230.970E-03     461.380E-03    -230.738E-03     6.93290E-03    -124.731E+06    -135.838E+06    -268.667E+06    -135.929E+06    -268.577E+06    -124.731E+06     2.67652E+06         57.3968
            1670     2.37864E-03     133.235E-03     34.8814E-03    -307.509E-06    -23.2537E-03     3.09463E-03     8.53305E-03    -307.509E-06    -835.782E-06     464.106E-03    -231.082E-03    -232.131E-03    -232.069E-03     464.043E-03    -231.082E-03     12.6991E-03    -106.467E+06    -128.746E+06    -241.887E+06    -128.979E+06    -241.654E+06    -106.467E+06     4.38607E+06         57.6874
            1671     3.17217E-03     133.249E-03     26.7600E-03     1.38479E-03    -17.9443E-03     10.0620E-03    -1.24625E-03     1.38479E-03     3.42242E-03     465.899E-03    -231.259E-03    -233.221E-03    -231.779E-03     465.739E-03    -232.541E-03     20.6367E-03    -85.1872E+06    -121.099E+06    -210.362E+06    -121.596E+06    -209.865E+06    -85.1872E+06     6.28981E+06         57.9954
            1672     3.96554E-03     133.278E-03     14.6334E-03     3.07532E-03    -10.1267E-03     8.09459E-03    -3.58785E-03     3.07532E-03    -3.50858E-03     463.851E-03    -231.343E-03    -233.500E-03    -231.004E-03     463.512E-03    -233.500E-03     30.2262E-03    -61.1237E+06    -111.153E+06    -176.068E+06    -112.234E+06    -174.987E+06    -61.1237E+06     7.31690E+06         58.2666
            1673     4.75725E-03     133.314E-03     15.4720E-03     3.03850E-03    -13.9690E-03    -4.76052E-03     6.26349E-03     3.03850E-03     21.5403E-03     462.875E-03    -231.315E-03    -232.961E-03    -230.709E-03     462.269E-03    -232.961E-03     40.6708E-03    -36.3323E+06    -99.4806E+06    -141.674E+06    -101.758E+06    -139.397E+06    -36.3323E+06     8.67589E+06         58.5348
            1674     5.54970E-03     133.375E-03     20.1466E-03     1.62970E-03    -15.5746E-03    -10.2577E-03     14.8297E-03     1.62970E-03     9.32900E-03     464.162E-03    -231.631E-03    -233.153E-03    -231.427E-03     463.208E-03    -232.403E-03     51.2511E-03    -12.2281E+06    -85.1340E+06    -109.255E+06    -90.9834E+06    -103.406E+06    -12.2281E+06     8.61159E+06         58.8752
            1675     6.34190E-03     133.448E-03     15.6493E-03     721.633E-06    -9.03266E-03    -6.88550E-03     13.8299E-03     393.849E-06    -9.51993E-03     465.793E-03    -231.487E-03    -233.059E-03    -230.857E-03     464.414E-03    -232.309E-03     61.7811E-03     9.56452E+06    -57.6606E+06    -86.2150E+06    -81.1141E+06    -62.7614E+06     9.56452E+06     8.85579E+06         59.2675
            1676     7.13566E-03     133.529E-03     16.9527E-03    -26.2893E-06    -12.1046E-03    -6.07761E-03     11.2534E-03    -354.074E-06    -921.919E-06     466.831E-03    -231.477E-03    -232.376E-03    -229.709E-03     464.985E-03    -232.298E-03     71.5695E-03     30.2119E+06    -12.8388E+06    -73.5007E+06    -70.8017E+06    -15.5378E+06     30.2119E+06     11.6870E+06         59.7089
            1677     7.92992E-03     133.618E-03     21.4949E-03    -919.584E-06    -16.4429E-03    -4.95493E-03     10.0070E-03    -919.584E-06    -6.48161E-03     466.042E-03    -231.485E-03    -233.007E-03    -230.576E-03     463.611E-03    -231.485E-03     82.0878E-03     46.0743E+06     23.2457E+06    -62.0767E+06    -59.9179E+06     21.0870E+06     46.0743E+06     13.2976E+06         60.2999
            1678     8.72200E-03     133.730E-03     22.8017E-03    -1.31232E-03    -17.6771E-03    -3.71496E-03     8.83961E-03    -1.31232E-03    -5.54787E-03     465.441E-03    -232.268E-03    -234.304E-03    -231.284E-03     462.420E-03    -232.268E-03     91.6796E-03     57.2758E+06     36.3944E+06    -52.4319E+06    -50.7379E+06     34.7004E+06     57.2758E+06     12.0656E+06         61.2037
            1679     9.51641E-03     133.845E-03     24.2302E-03    -1.55592E-03    -18.7610E-03    -3.74564E-03     9.21484E-03    -1.55592E-03     2.50872E-03     467.143E-03    -233.026E-03    -234.246E-03    -230.719E-03     463.615E-03    -233.026E-03     99.1553E-03     69.8242E+06     40.6432E+06    -43.3999E+06    -42.0389E+06     39.2822E+06     69.8242E+06     10.5893E+06         62.5904
            1680     10.3110E-03     133.959E-03     22.4898E-03    -1.63157E-03    -15.0852E-03    -1.96709E-03     9.37161E-03    -1.63157E-03     3.08043E-03     468.730E-03    -232.115E-03    -234.916E-03    -230.648E-03     464.463E-03    -232.115E-03     109.102E-03     80.9002E+06     40.2775E+06    -34.9680E+06    -33.9098E+06     39.2192E+06     80.9002E+06     8.81213E+06         64.6951
            1681     11.1043E-03     134.097E-03     17.3242E-03    -1.40318E-03    -7.95656E-03     2.87053E-03     6.49714E-03    -1.40318E-03     7.07457E-03     469.349E-03    -231.691E-03    -237.305E-03    -232.007E-03     464.051E-03    -231.691E-03     121.750E-03     87.9890E+06     45.3243E+06    -27.8463E+06    -27.0833E+06     44.5613E+06     87.9890E+06     6.91556E+06         67.8280
            1682     11.8983E-03     134.267E-03     12.8873E-03    -913.163E-06    -3.04165E-03     6.38712E-03     3.45853E-03    -913.163E-06     2.60468E-03     469.462E-03    -232.311E-03    -237.637E-03    -231.871E-03     463.695E-03    -232.311E-03     127.182E-03     92.0671E+06     54.1356E+06    -20.9987E+06    -20.3994E+06     53.5363E+06     92.0671E+06     5.58865E+06         72.0378
            1683     12.6944E-03     134.398E-03     11.2459E-03    -561.985E-06    -3.53973E-03     1.60014E-03     6.10606E-03    -561.985E-06     2.82875E-03     472.630E-03    -232.246E-03    -240.858E-03    -231.992E-03     463.763E-03    -232.246E-03     155.504E-03     95.5776E+06     61.1772E+06    -12.7604E+06    -12.4448E+06     60.8616E+06     95.5776E+06     3.88466E+06         76.7263
            1684     13.4885E-03     134.635E-03     12.7934E-03    -622.955E-06    -6.76000E-03    -5.07979E-03     11.1131E-03    -622.955E-06     717.256E-06     471.615E-03    -232.201E-03    -240.184E-03    -231.738E-03     463.170E-03    -232.201E-03     150.534E-03     99.9547E+06     67.5306E+06    -5.20486E+06    -5.12257E+06     67.4483E+06     99.9547E+06     2.14675E+06         80.7392
            1685     792.576E-06     134.807E-03     68.0143E-03    -12.6559E-03    -49.9963E-03    -20.6873E-03     38.7052E-03    -12.6559E-03    -37.9369E-03     461.055E-03    -230.264E-03    -231.218E-03    -230.258E-03     461.049E-03    -231.218E-03     2.97502E-03    -138.722E+06    -142.865E+06    -294.683E+06    -141.657E+06    -294.573E+06    -140.041E+06     783.458E+03         57.0784
            1686     1.58621E-03     134.827E-03     40.3537E-03    -11.1208E-03    -22.3890E-03     10.5660E-03     7.39869E-03    -11.1208E-03     8.31297E-03     460.863E-03    -230.306E-03    -230.566E-03    -230.355E-03     460.839E-03    -230.494E-03     7.76769E-03    -129.103E+06    -138.303E+06    -274.503E+06    -138.421E+06    -274.385E+06    -129.103E+06     2.19069E+06         57.2524
            1687     2.37970E-03     134.840E-03     31.6629E-03    -1.60220E-03    -24.2398E-03     22.5781E-03    -15.1549E-03    -1.60220E-03    -7.47946E-03     463.415E-03    -230.789E-03    -231.511E-03    -231.429E-03     463.346E-03    -230.802E-03     13.3822E-03    -109.861E+06    -131.940E+06    -249.384E+06    -132.159E+06    -249.165E+06    -109.861E+06     4.25049E+06         57.5264
            1688     3.17230E-03     134.860E-03     25.7104E-03     3.46353E-03    -22.6799E-03     11.7913E-03    -8.76085E-03     3.46353E-03     878.141E-06     465.437E-03    -231.198E-03    -232.906E-03    -231.672E-03     465.275E-03    -232.270E-03     20.8567E-03    -86.7335E+06    -122.714E+06    -215.950E+06    -123.165E+06    -215.499E+06    -86.7335E+06     5.82785E+06         57.8323
            1689     3.96508E-03     134.886E-03     20.5889E-03     3.56011E-03    -19.0632E-03    -5.06132E-03     6.58705E-03     3.56011E-03    -15.2240E-03     463.848E-03    -231.599E-03    -233.310E-03    -231.262E-03     463.511E-03    -233.310E-03     30.1568E-03    -62.1291E+06    -112.191E+06    -181.116E+06    -113.113E+06    -180.194E+06    -62.1291E+06     7.20792E+06         58.0917
            1690     4.75757E-03     134.925E-03     17.3331E-03     1.82598E-03    -14.6169E-03    -6.80977E-03     9.52591E-03     1.82598E-03     1.47555E-03     462.868E-03    -231.328E-03    -232.886E-03    -230.723E-03     462.263E-03    -232.886E-03     40.6328E-03    -37.6984E+06    -100.344E+06    -147.100E+06    -102.349E+06    -145.096E+06    -37.6984E+06     8.60754E+06         58.3411
            1691     5.55044E-03     134.982E-03     17.1607E-03     897.041E-06    -12.0742E-03     129.945E-06     4.95652E-03     897.041E-06    -9.37200E-03     463.675E-03    -231.402E-03    -232.950E-03    -231.065E-03     462.710E-03    -232.322E-03     51.4942E-03    -13.6211E+06    -85.0553E+06    -113.780E+06    -91.7110E+06    -107.125E+06    -13.6211E+06     10.0359E+06         58.6670
            1692     6.34287E-03     135.062E-03     15.5827E-03     1.39416E-03    -9.67762E-03    -896.661E-06     7.53209E-03     663.837E-06    -12.5884E-03     465.198E-03    -231.640E-03    -232.743E-03    -230.864E-03     463.795E-03    -232.114E-03     62.3011E-03     9.49888E+06    -60.2210E+06    -89.1961E+06    -81.1230E+06    -68.2941E+06     9.49888E+06     11.4520E+06         59.0539
            1693     7.13648E-03     135.135E-03     15.1629E-03     999.481E-06    -9.05903E-03    -5.47587E-03     12.3101E-03     269.154E-06     6.39618E-03     466.692E-03    -231.582E-03    -232.112E-03    -229.717E-03     464.803E-03    -232.088E-03     72.3771E-03     29.1894E+06    -19.5770E+06    -74.8253E+06    -71.0018E+06    -23.4005E+06     29.1894E+06     13.1932E+06         59.5026
            1694     7.93114E-03     135.222E-03     15.2117E-03    -132.833E-06    -9.75146E-03    -4.38908E-03     9.84933E-03    -132.833E-06     6.30207E-03     465.967E-03    -231.378E-03    -232.816E-03    -230.293E-03     463.476E-03    -231.409E-03     83.0937E-03     43.0162E+06     20.6234E+06    -64.5488E+06    -61.8828E+06     17.9574E+06     43.0162E+06     14.5831E+06         60.1009
            1695     8.72472E-03     135.331E-03     17.9935E-03    -231.287E-06    -12.4946E-03    -2.22489E-03     7.72379E-03    -231.287E-06     18.7339E-03     465.395E-03    -232.204E-03    -234.365E-03    -231.272E-03     462.303E-03    -232.204E-03     92.7605E-03     55.7086E+06     38.1671E+06    -55.1988E+06    -52.8824E+06     35.8507E+06     55.7086E+06     14.3684E+06         61.0105
            1696     9.51867E-03     135.442E-03     22.1375E-03    -254.346E-06    -16.5291E-03    -3.63228E-03     9.24070E-03    -254.346E-06     21.5517E-03     466.885E-03    -232.843E-03    -234.181E-03    -230.595E-03     463.299E-03    -232.843E-03     99.9720E-03     69.6632E+06     43.8147E+06    -46.5654E+06    -44.6629E+06     41.9122E+06     69.6632E+06     12.7659E+06         62.4097
            1697     10.3136E-03     135.557E-03     19.9143E-03    -291.137E-06    -13.8629E-03    -2.04658E-03     8.09805E-03    -291.137E-06     6.66511E-03     467.841E-03    -231.735E-03    -234.207E-03    -229.921E-03     463.555E-03    -231.735E-03     109.215E-03     80.8374E+06     44.0065E+06    -37.9745E+06    -36.7077E+06     42.7397E+06     80.8374E+06     10.0893E+06         64.5339
            1698     11.1078E-03     135.704E-03     16.4432E-03    -260.206E-06    -8.29190E-03    -1.07146E-03     9.22279E-03    -260.206E-06     7.27281E-03     468.444E-03    -231.310E-03    -236.796E-03    -231.511E-03     463.159E-03    -231.310E-03     121.494E-03     89.2409E+06     46.8266E+06    -28.9314E+06    -28.0013E+06     45.8965E+06     89.2409E+06     8.19602E+06         67.6898
            1699     11.9000E-03     135.870E-03     14.0950E-03    -329.986E-06    -5.51240E-03    -3.70798E-03     12.2906E-03    -329.986E-06    -2.55446E-03     469.401E-03    -232.113E-03    -237.905E-03    -232.117E-03     463.614E-03    -232.113E-03     127.436E-03     95.6444E+06     58.6023E+06    -20.4414E+06    -19.8360E+06     57.9969E+06     95.6444E+06     6.16703E+06         71.9162
            1700     12.6954E-03     136.013E-03     13.0589E-03    -521.635E-06    -6.84774E-03    -3.59879E-03     9.80995E-03    -521.635E-06     3.02783E-03     472.657E-03    -232.183E-03    -241.241E-03    -232.390E-03     463.806E-03    -232.183E-03     155.547E-03      98.396E+06     64.3806E+06    -13.2579E+06    -13.0270E+06     64.1497E+06      98.396E+06     3.31638E+06         76.6180
            1701     13.4909E-03     136.226E-03     10.7099E-03    -638.048E-06    -7.12692E-03    -1.10809E-03     4.69103E-03    -638.048E-06     262.671E-06     471.431E-03    -232.133E-03    -240.332E-03    -231.925E-03     463.025E-03    -232.133E-03     150.292E-03     101.292E+06     69.3706E+06    -6.52374E+06    -6.45164E+06     69.2985E+06     101.292E+06     1.76086E+06         80.6478
            1702     793.802E-06     136.398E-03     49.1631E-03    -1.48161E-03    -42.8679E-03    -21.4277E-03    -505.964E-06     26.7472E-03    -17.8629E-03     460.273E-03    -229.943E-03    -230.675E-03    -230.066E-03     460.266E-03    -230.545E-03     3.56395E-03    -140.715E+06    -146.306E+06    -297.909E+06    -144.957E+06    -297.823E+06    -142.150E+06     1.55852E+06         56.9701
            1703     1.58693E-03     136.416E-03     32.6108E-03     403.550E-06    -28.0895E-03    -3.69066E-03     7.01703E-03     1.59856E-03    -23.5261E-03     460.415E-03    -229.988E-03    -230.395E-03    -230.246E-03     460.390E-03    -230.113E-03     8.03812E-03    -131.341E+06    -141.812E+06    -280.373E+06    -141.928E+06    -280.257E+06    -131.341E+06     2.17422E+06         57.1227
            1704     2.38045E-03     136.433E-03     34.2427E-03    -645.353E-06    -29.9130E-03    -6.58156E-03     10.9112E-03    -645.353E-06    -18.5177E-03     462.415E-03    -230.396E-03    -231.498E-03    -231.419E-03     462.348E-03    -230.409E-03     13.1763E-03    -112.777E+06    -135.264E+06    -254.824E+06    -135.403E+06    -254.684E+06    -112.777E+06     3.53288E+06         57.3744
            1705     3.17389E-03     136.451E-03     27.0609E-03     673.186E-06    -22.9337E-03    -5.11480E-03     12.0311E-03    -2.11593E-03    -3.69339E-03     464.267E-03    -231.022E-03    -232.452E-03    -231.769E-03     464.102E-03    -231.540E-03     20.9059E-03    -90.1662E+06    -126.177E+06    -220.986E+06    -126.460E+06    -220.703E+06    -90.1662E+06     4.75029E+06         57.6662
            1706     3.96627E-03     136.484E-03     25.3152E-03     291.359E-06    -20.4917E-03    -1.08161E-03     8.69421E-03    -2.49776E-03    -8.75989E-03     463.330E-03    -231.434E-03    -232.745E-03    -231.085E-03     462.980E-03    -232.745E-03     30.6786E-03    -66.1607E+06    -116.023E+06    -187.036E+06    -116.789E+06    -186.269E+06    -66.1607E+06     6.40957E+06         57.9101
            1707     4.75842E-03     136.521E-03     20.7048E-03    -1.82032E-03    -12.9274E-03     5.46972E-03     2.30773E-03    -1.82032E-03     2.74061E-03     462.694E-03    -231.070E-03    -232.858E-03    -230.435E-03     462.059E-03    -232.858E-03     41.5559E-03    -42.0193E+06    -104.655E+06    -152.232E+06    -106.363E+06    -150.523E+06    -42.0193E+06     7.85956E+06         58.1456
            1708     5.55186E-03     136.576E-03     15.0125E-03    -597.493E-06    -8.59566E-03     7.96628E-03    -1.54944E-03    -597.493E-06     2.57956E-03     463.046E-03    -231.043E-03    -232.650E-03    -230.647E-03     462.040E-03    -232.040E-03     52.5363E-03    -19.5794E+06    -89.9994E+06    -119.663E+06    -95.5904E+06    -114.072E+06    -19.5794E+06     10.0675E+06         58.4703
            1709     6.34584E-03     136.648E-03     13.5866E-03     1.16083E-03    -7.22650E-03     6.81158E-03     278.849E-06     430.505E-06     2.40207E-03     463.889E-03    -231.465E-03    -232.289E-03    -230.616E-03     462.430E-03    -231.679E-03     63.4235E-03     2.68335E+06    -64.5088E+06    -95.5944E+06    -84.5912E+06    -75.5121E+06     2.68335E+06     12.9705E+06         58.8749
            1710     7.13966E-03     136.723E-03     10.5707E-03     1.84481E-03    -2.96184E-03     5.95108E-03     2.38811E-03     1.11448E-03     6.24016E-03     466.134E-03    -231.540E-03    -231.864E-03    -229.601E-03     464.195E-03    -231.864E-03     73.3124E-03     24.5891E+06    -25.0286E+06    -79.9980E+06    -74.4961E+06    -30.5304E+06     24.5891E+06     15.5035E+06         59.3515
            1711     7.93422E-03     136.804E-03     14.6754E-03     1.27160E-03    -7.88773E-03    -1.04463E-03     7.83235E-03     1.27160E-03    -5.84395E-03     466.262E-03    -231.190E-03    -232.743E-03    -230.125E-03     463.754E-03    -231.300E-03     83.3947E-03     42.6940E+06     17.6487E+06    -68.4756E+06    -64.9935E+06     14.1666E+06     42.6940E+06     16.6580E+06         59.9583
            1712     8.72675E-03     136.924E-03     16.7914E-03     874.374E-06    -11.4349E-03    -4.34036E-03     9.69684E-03     874.374E-06    -7.79465E-03     465.564E-03    -232.159E-03    -234.350E-03    -231.239E-03     462.452E-03    -232.159E-03     93.0396E-03     55.7093E+06     39.5693E+06    -57.9040E+06    -55.2687E+06     36.9340E+06     55.7093E+06     15.6226E+06         60.8591
            1713     9.52017E-03     137.040E-03     13.5187E-03     532.416E-06    -8.67468E-03    -1.02372E-03     5.90987E-03     490.236E-06    -2.84123E-03     466.689E-03    -232.565E-03    -234.273E-03    -230.658E-03     463.074E-03    -232.565E-03     100.360E-03     69.4157E+06     45.5281E+06    -46.8744E+06    -44.9079E+06     43.5616E+06     69.4157E+06     13.1416E+06         62.2638
            1714     10.3145E-03     137.155E-03     13.0338E-03     309.935E-06    -7.78659E-03    -1.80116E-03     7.09060E-03     267.755E-06    -9.87493E-03     467.292E-03    -231.239E-03    -234.155E-03    -229.858E-03     462.995E-03    -231.239E-03     109.330E-03     83.4318E+06     47.9393E+06    -36.2325E+06    -34.8018E+06     46.5086E+06     83.4318E+06     10.8492E+06         64.4086
            1715     11.1088E-03     137.305E-03     13.2068E-03    -16.3565E-06    -7.96473E-03    -3.87449E-03     9.11654E-03    -16.3565E-06    -189.959E-06     468.057E-03    -230.948E-03    -236.614E-03    -231.343E-03     462.787E-03    -230.948E-03     121.286E-03     92.6075E+06     49.4643E+06    -27.4341E+06    -26.3784E+06     48.4086E+06     92.6075E+06     8.74245E+06         67.5796
            1716     11.9014E-03     137.475E-03     14.8390E-03    -289.279E-06    -9.47123E-03    -2.91093E-03     8.27875E-03    -289.279E-06    -7.22000E-03     469.351E-03    -231.911E-03    -237.821E-03    -232.021E-03     463.551E-03    -231.911E-03     127.560E-03     98.2977E+06     61.2849E+06    -19.9168E+06    -19.1895E+06     60.5576E+06     98.2977E+06     7.49526E+06         71.8183
            1717     12.6974E-03     137.618E-03     15.8942E-03    -456.391E-06    -10.6622E-03    -2.80110E-03     8.03312E-03    -456.391E-06    -659.392E-06     472.374E-03    -232.119E-03    -241.175E-03    -232.289E-03     463.488E-03    -232.119E-03     155.851E-03     101.205E+06     70.5661E+06    -13.0959E+06    -12.6647E+06     70.1350E+06     101.205E+06     5.28965E+06         76.5343
            1718     13.4930E-03     137.834E-03     16.6103E-03    -587.768E-06    -11.5918E-03    -3.16375E-03     8.18227E-03    -587.768E-06    -4.14794E-03     471.061E-03    -232.065E-03    -240.570E-03    -232.140E-03     462.632E-03    -232.065E-03     150.493E-03     103.812E+06     73.6355E+06    -6.73973E+06    -6.62041E+06     73.5162E+06     103.812E+06     1.72790E+06         80.5742
            1719     794.649E-06     137.993E-03     42.7638E-03     11.7276E-03    -55.1702E-03    -16.8384E-03    -25.7750E-03     41.9345E-03     29.8804E-03     459.762E-03    -229.615E-03    -230.404E-03    -230.397E-03     459.755E-03    -229.615E-03     4.06603E-03    -147.337E+06    -153.248E+06    -301.149E+06    -151.642E+06    -301.082E+06    -149.010E+06    -414.285E+03         56.8692
            1720     1.58831E-03     137.999E-03     22.5152E-03     6.87901E-03    -26.4107E-03    -9.64304E-03     4.55253E-03     8.07402E-03    -18.1285E-03     460.100E-03    -229.866E-03    -230.393E-03    -230.370E-03     460.077E-03    -229.866E-03     7.60511E-03    -134.928E+06    -146.535E+06    -285.024E+06    -146.371E+06    -284.950E+06    -135.165E+06     1.98580E+06         57.0128
            1721     2.38104E-03     138.016E-03     30.2791E-03     651.112E-06    -26.7028E-03    -17.4330E-03     21.0093E-03     651.112E-06     9.82579E-03     460.690E-03    -230.005E-03    -231.339E-03    -231.268E-03     460.619E-03    -230.005E-03     13.5382E-03    -116.842E+06    -139.622E+06    -259.028E+06    -139.724E+06    -258.926E+06    -116.842E+06     3.05442E+06         57.2378
            1722     3.17416E-03     138.034E-03     21.3012E-03    -194.453E-06    -15.4080E-03    -8.78739E-03     17.4697E-03    -2.98357E-03     17.1614E-03     462.466E-03    -230.377E-03    -231.717E-03    -231.460E-03     462.287E-03    -230.455E-03     21.7787E-03    -95.5272E+06    -131.015E+06    -225.585E+06    -131.251E+06    -225.348E+06    -95.5272E+06     4.09819E+06         57.5062
            1723     3.96821E-03     138.064E-03     17.9113E-03     108.567E-06    -12.2728E-03     6.25984E-03     2.16774E-03    -2.68055E-03     4.93780E-03     462.607E-03    -230.562E-03    -232.053E-03    -230.408E-03     462.232E-03    -231.832E-03     31.7480E-03    -71.9908E+06    -120.612E+06    -192.587E+06    -121.139E+06    -192.060E+06    -71.9908E+06     5.24969E+06         57.7374
            1724     4.76258E-03     138.102E-03     18.9776E-03    -1.07298E-03    -13.8458E-03     6.37438E-03    -1.24262E-03    -1.07298E-03     10.9143E-03     462.276E-03    -230.426E-03    -232.667E-03    -229.746E-03     461.595E-03    -232.667E-03     43.0031E-03    -48.6505E+06    -109.293E+06    -157.995E+06    -110.674E+06    -156.615E+06    -48.6505E+06     7.03590E+06         57.9738
            1725     5.55616E-03     138.159E-03     19.0160E-03    -464.629E-06    -15.0697E-03    -871.801E-06     4.81809E-03    -464.629E-06     4.30707E-03     462.562E-03    -230.490E-03    -232.502E-03    -230.392E-03     461.499E-03    -231.537E-03     54.0427E-03    -25.4902E+06    -95.7087E+06    -125.291E+06    -99.8600E+06    -121.140E+06    -25.4902E+06     9.02558E+06         58.3228
            1726     6.34824E-03     138.240E-03     18.1145E-03    -381.399E-06    -13.6589E-03     2.41723E-03     2.03838E-03    -381.399E-06    -13.6714E-03     462.519E-03    -231.135E-03    -232.314E-03    -230.719E-03     460.995E-03    -231.206E-03     64.7737E-03    -3.11958E+06    -73.3866E+06    -101.139E+06    -88.7698E+06    -85.7555E+06    -3.11958E+06     12.2587E+06         58.7636
            1727     7.14229E-03     138.317E-03     13.1747E-03    -88.0766E-06    -7.24016E-03     4.25551E-03     1.67906E-03    -88.0766E-06     2.42197E-03     465.102E-03    -231.402E-03    -231.915E-03    -229.777E-03     463.113E-03    -231.551E-03     74.2559E-03     19.8094E+06    -33.4119E+06    -85.1838E+06    -77.8038E+06    -40.7920E+06     19.8094E+06     17.0039E+06         59.2600
            1728     7.93618E-03     138.401E-03     18.4935E-03    -32.0868E-06    -12.0535E-03    -697.615E-06     7.13761E-03    -32.0868E-06    -6.32612E-03     466.531E-03    -230.944E-03    -232.816E-03    -230.208E-03     464.002E-03    -231.023E-03     83.7611E-03     41.1739E+06     16.5705E+06    -72.1836E+06    -67.4939E+06     11.8808E+06     41.1739E+06     18.9239E+06         59.8587
            1729     8.72844E-03     138.517E-03     16.0068E-03    -143.946E-06    -11.3430E-03    -821.446E-06     5.55325E-03    -211.903E-06    -18.2214E-03     465.629E-03    -232.079E-03    -234.065E-03    -230.908E-03     462.472E-03    -232.079E-03     93.6864E-03     55.4993E+06     44.1925E+06    -60.4208E+06    -57.9738E+06     41.7455E+06     55.4993E+06     15.5854E+06         60.7510
            1730     9.52261E-03     138.642E-03     6.14511E-03    -90.1513E-06    -2.86370E-03     1.82865E-03     1.56289E-03    -200.288E-06    -810.830E-06     466.401E-03    -232.291E-03    -234.293E-03    -230.626E-03     462.734E-03    -232.291E-03     101.068E-03     68.0807E+06     46.8933E+06    -49.3275E+06    -47.9112E+06     45.4770E+06     68.0807E+06     11.4818E+06         62.1770
            1731     10.3176E-03     138.756E-03     7.50194E-03    -51.1218E-06    -4.91076E-03     445.367E-06     2.18800E-03    -93.3017E-06     5.85691E-03     466.947E-03    -230.899E-03    -234.877E-03    -230.544E-03     462.613E-03    -230.899E-03     109.809E-03     82.9100E+06     48.6701E+06    -39.2044E+06    -38.0156E+06     47.4813E+06     82.9100E+06     9.94429E+06         64.3457
            1732     11.1104E-03     138.899E-03     10.6640E-03    -174.718E-06    -8.89167E-03    -3.72757E-03     5.49993E-03    -174.718E-06     9.85482E-03     467.939E-03    -230.620E-03    -236.934E-03    -231.636E-03     462.641E-03    -230.620E-03     121.627E-03     93.1635E+06     52.0744E+06    -30.0711E+06    -29.0428E+06     51.0460E+06     93.1635E+06     8.91997E+06         67.5096
            1733     11.9029E-03     139.077E-03     13.7628E-03    -424.251E-06    -11.1211E-03    -4.74796E-03     7.38973E-03    -424.251E-06    -4.76263E-03     469.186E-03    -231.666E-03    -237.560E-03    -231.788E-03     463.414E-03    -231.666E-03     127.223E-03     99.6237E+06     62.0694E+06    -20.7036E+06    -19.9737E+06     61.3395E+06     99.6237E+06     7.58280E+06         71.7454
            1734     12.6993E-03     139.221E-03     13.8875E-03    -694.733E-06    -9.44789E-03    -3.59105E-03     8.03063E-03    -694.733E-06    -5.62643E-03     471.987E-03    -232.108E-03    -240.917E-03    -232.056E-03     463.127E-03    -232.108E-03     155.473E-03     104.490E+06     75.7023E+06    -11.9340E+06    -11.4961E+06     75.2644E+06     104.490E+06     6.00496E+06         76.4769
            1735     13.4958E-03     139.441E-03     16.0393E-03    -932.838E-06    -10.0209E-03    -2.95198E-03     8.97047E-03    -932.838E-06    -11.1812E-03     470.734E-03    -232.037E-03    -240.552E-03    -232.115E-03     462.296E-03    -232.037E-03     150.519E-03     108.198E+06     80.4391E+06    -4.97574E+06    -4.76759E+06     80.2309E+06     108.198E+06     3.37530E+06         80.5248
            1736     794.112E-06     139.578E-03     56.8709E-03     2.70681E-03    -58.0611E-03    -127.565E-06    -3.04077E-03     4.68494E-03     77.5298E-03     459.778E-03    -229.347E-03    -230.493E-03    -230.193E-03     459.768E-03    -229.637E-03     4.96955E-03    -150.124E+06    -156.321E+06    -301.001E+06    -154.557E+06    -300.942E+06    -151.947E+06    -401.051E+03         56.7438
            1737     1.58748E-03     139.591E-03     20.3846E-03     2.51880E-03    -20.0293E-03     4.04490E-03    -3.68958E-03     2.51880E-03     3.66287E-03     459.111E-03    -229.221E-03    -230.046E-03    -229.437E-03     459.082E-03    -229.801E-03     8.49353E-03    -139.580E+06    -150.222E+06    -288.190E+06    -150.035E+06    -288.139E+06    -139.818E+06    -116.890E+03         56.8764
            1738     2.38211E-03     139.602E-03     19.9479E-03     3.16603E-03    -17.5073E-03     4.75109E-03    -2.31050E-03     3.16603E-03     19.4238E-03     458.685E-03    -229.166E-03    -230.524E-03    -230.146E-03     458.597E-03    -229.456E-03     15.0061E-03    -122.048E+06    -142.474E+06    -262.559E+06    -142.542E+06    -262.491E+06    -122.048E+06     1.09179E+06         57.0797
            1739     3.17688E-03     139.626E-03     13.0833E-03     2.98173E-03    -10.1763E-03    -885.776E-06     3.79271E-03     2.98173E-03    -2.58639E-03     460.980E-03    -229.582E-03    -231.053E-03    -230.846E-03     460.773E-03    -229.582E-03     23.4920E-03    -100.818E+06    -133.977E+06    -229.224E+06    -134.043E+06    -229.158E+06    -100.818E+06     2.04335E+06         57.3314
            1740     3.97100E-03     139.650E-03     16.5741E-03     1.62512E-03    -13.5146E-03    -7.53909E-03     10.5985E-03     1.62512E-03    -16.1781E-03     462.400E-03    -229.977E-03    -231.651E-03    -230.094E-03     461.999E-03    -231.132E-03     32.9510E-03    -76.8620E+06    -123.768E+06    -198.123E+06    -124.125E+06    -197.767E+06    -76.8620E+06     3.59625E+06         57.5677
            1741     4.76470E-03     139.693E-03     23.6083E-03     158.792E-06    -19.6606E-03    -6.65267E-03     10.6004E-03     158.792E-06     4.99669E-03     461.882E-03    -229.926E-03    -232.038E-03    -229.224E-03     461.180E-03    -232.038E-03     43.6751E-03    -52.7782E+06    -112.326E+06    -164.131E+06    -113.306E+06    -163.151E+06    -52.7782E+06     5.85307E+06         57.8327
            1742     5.55837E-03     139.747E-03     19.4259E-03     44.0366E-06    -17.0481E-03    -3.03208E-03     6.03284E-03    -578.954E-06     6.83861E-03     461.364E-03    -230.061E-03    -232.029E-03    -229.967E-03     460.259E-03    -231.018E-03     54.9851E-03    -28.8476E+06    -99.1792E+06    -131.531E+06    -102.321E+06    -128.389E+06    -28.8476E+06     8.46816E+06         58.2233
            1743     6.35100E-03     139.830E-03     21.3003E-03    -284.934E-06    -17.8386E-03    -3.83248E-03     7.91713E-03    -907.924E-06    -5.66246E-03     461.207E-03    -230.929E-03    -232.531E-03    -230.961E-03     459.637E-03    -230.929E-03     65.7258E-03    -6.75430E+06    -80.5938E+06    -106.413E+06    -91.4976E+06    -95.5096E+06    -6.75430E+06     11.3031E+06         58.6967
            1744     7.14434E-03     139.908E-03     22.3159E-03    -1.14242E-03    -16.0949E-03    -2.86633E-03     9.08728E-03    -1.14242E-03     21.4985E-03     463.878E-03    -231.122E-03    -232.172E-03    -230.119E-03     461.824E-03    -231.122E-03     75.3664E-03     13.3983E+06    -46.4250E+06    -88.4337E+06    -79.9693E+06    -54.8895E+06     13.3983E+06     15.6482E+06         59.1945
            1745     7.93859E-03     139.999E-03     17.3960E-03    -884.126E-06    -11.1958E-03     5.12907E-03     1.07114E-03    -884.126E-06     2.41626E-03     465.853E-03    -230.663E-03    -232.850E-03    -230.246E-03     463.249E-03    -230.663E-03     85.0003E-03     36.9937E+06     10.1902E+06    -73.5435E+06    -68.4023E+06     7.43552E+06     34.6071E+06     19.0858E+06         59.7824
            1746     8.73266E-03     140.112E-03     15.2238E-03    -208.023E-06    -9.87602E-03     4.93954E-03     476.159E-06    -275.980E-06    -1.23785E-03     465.978E-03    -231.908E-03    -234.118E-03    -230.920E-03     462.780E-03    -231.908E-03     94.3250E-03     56.4878E+06     49.4227E+06    -61.5441E+06    -58.7204E+06     48.9855E+06     54.1013E+06     17.5051E+06         60.6829
            1747     9.52576E-03     140.232E-03     13.9573E-03    -84.6762E-06    -10.6692E-03    -4.00520E-03     7.36121E-03    -152.633E-06     1.85128E-03     466.758E-03    -232.097E-03    -234.652E-03    -230.978E-03     463.083E-03    -232.097E-03     101.236E-03     68.5122E+06     52.3781E+06    -53.0706E+06    -51.3455E+06     50.6529E+06     68.5122E+06     13.1956E+06         62.1379
            1748     10.3207E-03     140.350E-03     12.5586E-03    -509.578E-06    -10.7461E-03    -4.67322E-03     6.48575E-03    -509.578E-06    -4.01750E-03     466.619E-03    -230.847E-03    -235.376E-03    -231.038E-03     462.281E-03    -230.847E-03     109.864E-03     82.1320E+06     50.9428E+06    -44.1873E+06    -43.1665E+06     49.9220E+06     82.1320E+06     9.66622E+06         64.3214
            1749     11.1135E-03     140.498E-03     11.9635E-03    -762.146E-06    -8.09064E-03     66.2575E-06     3.80663E-03    -762.146E-06     261.383E-06     467.797E-03    -230.510E-03    -237.016E-03    -231.696E-03     462.476E-03    -230.510E-03     121.881E-03     92.5048E+06     53.6842E+06    -33.7730E+06    -33.1959E+06     53.1071E+06     92.5048E+06     6.94267E+06         67.4604
            1750     11.9054E-03     140.673E-03     13.9367E-03    -811.596E-06    -8.91578E-03     443.725E-06     4.57724E-03    -811.596E-06    -8.20471E-03     469.156E-03    -231.470E-03    -237.555E-03    -231.767E-03     463.367E-03    -231.470E-03     127.393E-03     99.3706E+06     63.0110E+06    -24.0194E+06    -23.6759E+06     62.6674E+06     99.3706E+06     5.05557E+06         71.6785
            1751     12.7022E-03     140.820E-03     16.8534E-03    -836.847E-06    -11.0980E-03    -2.44008E-03     8.19545E-03    -836.847E-06     8.23405E-03     471.575E-03    -232.023E-03    -241.083E-03    -232.197E-03     462.689E-03    -232.023E-03     155.663E-03     105.009E+06     76.7953E+06    -15.6991E+06    -15.4662E+06     76.5624E+06     105.009E+06     4.28052E+06         76.4201
            1752     13.4977E-03     141.043E-03     18.2580E-03    -930.722E-06    -12.0918E-03    -4.99687E-03     11.1631E-03    -930.722E-06     3.74019E-03     470.215E-03    -231.867E-03    -240.523E-03    -232.055E-03     461.746E-03    -231.867E-03     150.750E-03     109.255E+06     85.1393E+06    -8.28824E+06    -8.14013E+06     84.9912E+06     109.255E+06     2.86659E+06         80.4730
            1753     794.489E-06     141.159E-03     57.3052E-03    -8.93022E-03    -42.8684E-03     20.8316E-03     15.3943E-03    -30.7193E-03     26.1664E-03     458.564E-03    -228.555E-03    -229.890E-03    -228.739E-03     458.552E-03    -229.694E-03     5.70666E-03    -152.543E+06    -158.209E+06    -299.329E+06    -156.712E+06    -299.242E+06    -154.128E+06    -581.599E+03         56.5803
            1754     1.59025E-03     141.165E-03     18.5110E-03    -2.39365E-03    -15.5717E-03     7.97679E-03    -5.03749E-03    -2.39365E-03     2.24808E-03     457.284E-03    -228.105E-03    -229.229E-03    -228.067E-03     457.246E-03    -229.229E-03     9.80766E-03    -141.099E+06    -152.074E+06    -287.169E+06    -152.096E+06    -287.146E+06    -141.099E+06    -1.43432E+06         56.7135
            1755     2.38496E-03     141.176E-03     15.8792E-03     1.30386E-03    -14.8166E-03     8.17904E-03    -7.11640E-03     1.30386E-03     9.52765E-03     457.116E-03    -228.130E-03    -229.554E-03    -228.892E-03     457.014E-03    -228.690E-03     16.3628E-03    -125.354E+06    -144.948E+06    -263.313E+06    -145.002E+06    -263.259E+06    -125.354E+06    -2.10584E+06         56.9146
            1756     3.18009E-03     141.195E-03     13.2875E-03     2.74805E-03    -14.1808E-03     5.53815E-03    -6.43145E-03     2.74805E-03    -1.59479E-03     459.541E-03    -228.805E-03    -230.267E-03    -230.042E-03     459.316E-03    -228.805E-03     24.5029E-03    -104.468E+06    -136.223E+06    -232.229E+06    -136.312E+06    -232.140E+06    -104.468E+06    -707.484E+03         57.1610
            1757     3.97473E-03     141.223E-03     15.5959E-03     2.45438E-03    -15.0262E-03    -3.80088E-03     4.37057E-03     2.45438E-03     744.843E-06     461.731E-03    -229.562E-03    -230.770E-03    -229.902E-03     461.303E-03    -230.002E-03     34.0586E-03    -79.6573E+06    -126.368E+06    -201.970E+06    -126.454E+06    -201.885E+06    -79.6573E+06     966.412E+03         57.4170
            1758     4.76807E-03     141.268E-03     19.4870E-03     1.09809E-03    -16.3465E-03    -8.16793E-03     11.3085E-03     1.09809E-03     4.95432E-03     461.341E-03    -229.833E-03    -230.998E-03    -229.253E-03     460.591E-03    -230.828E-03     45.0926E-03    -56.3236E+06    -115.002E+06    -170.646E+06    -115.479E+06    -170.169E+06    -56.3236E+06     3.09057E+06         57.7288
            1759     5.56166E-03     141.330E-03     17.5022E-03     904.430E-06    -11.9763E-03    -1.30348E-03     7.45234E-03     281.439E-06     1.85136E-03     460.160E-03    -230.118E-03    -231.203E-03    -229.475E-03     458.987E-03    -230.673E-03     56.6116E-03    -33.4608E+06    -101.565E+06    -139.065E+06    -103.533E+06    -137.098E+06    -33.4608E+06     6.54097E+06         58.1581
            1760     6.35464E-03     141.407E-03     18.0098E-03     839.670E-06    -12.8897E-03    -116.808E-06     5.85992E-03     216.680E-06     7.06608E-03     460.480E-03    -230.504E-03    -232.260E-03    -230.622E-03     458.842E-03    -230.504E-03     67.1076E-03    -11.7274E+06    -85.1968E+06    -110.169E+06    -91.8604E+06    -103.506E+06    -11.7274E+06     9.64512E+06         58.6510
            1761     7.14853E-03     141.489E-03     20.5951E-03     229.752E-06    -15.2413E-03    -819.386E-06     6.17318E-03     229.752E-06     21.6715E-03     463.180E-03    -230.480E-03    -232.552E-03    -230.454E-03     461.082E-03    -230.480E-03     76.1856E-03     7.77578E+06    -57.8757E+06    -89.3735E+06    -81.0401E+06    -66.2092E+06     7.77578E+06     12.1053E+06         59.1512
            1762     7.94328E-03     141.580E-03     18.7973E-03     253.312E-06    -12.1481E-03    -66.8206E-06     6.71600E-03     253.312E-06    -4.35999E-03     465.356E-03    -230.425E-03    -233.270E-03    -230.663E-03     462.749E-03    -230.425E-03     85.0660E-03     31.7688E+06    -1.97788E+06    -73.3965E+06    -69.2398E+06    -3.74801E+06     29.3822E+06     15.9937E+06         59.7379
            1763     8.73624E-03     141.698E-03     19.6007E-03     117.633E-06    -13.1078E-03    -3.13971E-03     9.63265E-03     117.633E-06     2.86980E-03     466.443E-03    -231.607E-03    -234.546E-03    -231.391E-03     463.288E-03    -231.607E-03     93.7719E-03     55.8343E+06     47.2120E+06    -61.8628E+06    -58.0983E+06     47.8965E+06     51.3853E+06     20.1520E+06         60.6461
            1764     9.52874E-03     141.824E-03     18.9841E-03     209.717E-06    -12.5363E-03    -6.05078E-03     13.0110E-03    -302.593E-06     4.62182E-03     466.848E-03    -231.809E-03    -235.223E-03    -231.581E-03     463.206E-03    -231.809E-03     100.821E-03     72.3438E+06     61.5037E+06    -51.8732E+06    -48.9355E+06     60.6284E+06     70.2814E+06     17.6548E+06         62.1161
            1765     10.3227E-03     141.944E-03     17.9365E-03    -311.491E-06    -11.4995E-03    -8.07609E-03     15.0254E-03    -823.802E-06    -2.19469E-03     466.012E-03    -230.843E-03    -235.468E-03    -231.142E-03     461.686E-03    -230.843E-03     109.667E-03     83.9689E+06     58.3002E+06    -41.4272E+06    -40.1503E+06     57.0234E+06     83.9689E+06     11.1116E+06         64.2978
            1766     11.1164E-03     142.092E-03     16.4361E-03    -1.16040E-03    -10.5058E-03    -4.30365E-03     10.2339E-03    -1.16040E-03     5.33205E-03     467.223E-03    -230.588E-03    -236.697E-03    -231.405E-03     461.931E-03    -230.588E-03     121.476E-03     94.4933E+06     56.3481E+06    -32.1193E+06    -31.5092E+06     55.7380E+06     94.4933E+06     7.13047E+06         67.3974
            1767     11.9093E-03     142.270E-03     12.7609E-03    -1.11508E-03    -7.53430E-03     2.09777E-03     3.12880E-03    -1.11508E-03    -4.04889E-03     468.934E-03    -231.438E-03    -237.392E-03    -231.633E-03     463.175E-03    -231.438E-03     127.038E-03     102.703E+06     66.2340E+06    -24.1545E+06    -23.8496E+06     65.9291E+06     102.703E+06     4.92232E+06         71.5836
            1768     12.7049E-03     142.416E-03     14.4240E-03    -901.678E-06    -9.56424E-03     3.09238E-03     1.76734E-03    -901.678E-06     11.3696E-03     471.162E-03    -231.919E-03    -240.849E-03    -231.981E-03     462.294E-03    -231.919E-03     155.394E-03     107.556E+06     79.1661E+06    -15.8807E+06    -15.7171E+06     79.0025E+06     107.556E+06     3.21998E+06         76.3274
            1769     13.5004E-03     142.642E-03     20.9958E-03    -873.813E-06    -16.3267E-03    -1.64318E-03     6.31233E-03    -873.813E-06    -959.356E-06     468.925E-03    -231.672E-03    -239.754E-03    -231.240E-03     460.411E-03    -231.672E-03     151.098E-03     111.776E+06     87.9169E+06    -6.75065E+06    -6.68415E+06     87.8504E+06     111.776E+06     1.40429E+06         80.3855
            1770     795.933E-06     142.735E-03     35.8572E-03    -1.48305E-03    -29.4294E-03     14.4384E-03     16.1815E-03    -25.6752E-03    -32.0035E-03     455.069E-03    -226.834E-03    -228.250E-03    -226.850E-03     455.055E-03    -228.221E-03     6.01657E-03    -156.284E+06    -160.252E+06    -297.022E+06    -160.330E+06    -296.944E+06    -156.284E+06    -1.27108E+06         56.4129
            1771     1.59235E-03     142.744E-03     20.8860E-03    -4.91596E-03    -12.7582E-03    -2.37021E-03     10.4981E-03    -4.91596E-03    -1.33289E-03     454.522E-03    -227.008E-03    -227.694E-03    -227.106E-03     454.478E-03    -227.552E-03     10.4187E-03    -145.346E+06    -156.223E+06    -282.977E+06    -156.248E+06    -282.952E+06    -145.346E+06    -1.59937E+06         56.5661
            1772     2.38895E-03     142.752E-03     18.5346E-03    -3.76545E-03    -14.9106E-03    -489.005E-06     4.11292E-03    -3.76545E-03    -2.27467E-03     455.381E-03    -227.213E-03    -228.433E-03    -228.047E-03     455.265E-03    -227.483E-03     17.4277E-03    -127.506E+06    -150.161E+06    -259.705E+06    -150.264E+06    -259.602E+06    -127.506E+06    -3.07469E+06         56.7860
            1773     3.18356E-03     142.768E-03     17.6261E-03    -2.24477E-03    -16.0084E-03     3.60102E-03    -1.68781E-03    -2.54024E-03    -9.90697E-03     457.865E-03    -227.847E-03    -229.599E-03    -229.350E-03     457.615E-03    -227.847E-03     25.7762E-03    -105.831E+06    -140.634E+06    -233.052E+06    -140.848E+06    -232.838E+06    -105.831E+06    -4.19747E+06         57.0456
            1774     3.97880E-03     142.803E-03     14.1518E-03    -819.860E-06    -12.1028E-03     7.00490E-03    -4.66037E-03    -1.11533E-03    -443.034E-06     459.934E-03    -228.739E-03    -229.925E-03    -229.454E-03     459.463E-03    -228.739E-03     35.6634E-03    -83.5784E+06    -129.342E+06    -205.333E+06    -129.622E+06    -205.052E+06    -83.5784E+06    -2.96997E+06         57.3276
            1775     4.77291E-03     142.853E-03     14.3275E-03    -171.416E-06    -9.58196E-03     3.44080E-03     1.30479E-03    -171.416E-06    -2.90570E-03     459.930E-03    -229.623E-03    -230.106E-03    -229.166E-03     459.127E-03    -229.760E-03     46.6756E-03    -60.9921E+06    -117.703E+06    -175.522E+06    -117.857E+06    -175.368E+06    -60.9921E+06    -805.838E+03         57.6711
            1776     5.56559E-03     142.910E-03     19.5532E-03    -225.023E-06    -12.2839E-03    -3.32183E-03     10.5911E-03    -225.023E-06    -12.9683E-03     459.413E-03    -230.161E-03    -230.836E-03    -229.480E-03     458.194E-03    -230.299E-03     57.7254E-03    -39.3842E+06    -105.266E+06    -145.705E+06    -105.785E+06    -145.187E+06    -39.3842E+06     1.47360E+06         58.1192
            1777     6.35955E-03     142.993E-03     18.8600E-03    -506.321E-06    -10.3363E-03     664.918E-06     7.85873E-03    -506.321E-06    -19.6603E-03     460.556E-03    -229.944E-03    -232.437E-03    -230.760E-03     458.878E-03    -229.944E-03     67.9349E-03    -17.8466E+06    -91.1233E+06    -114.786E+06    -93.8856E+06    -112.023E+06    -17.8466E+06     4.80091E+06         58.6267
            1778     7.15293E-03     143.080E-03     11.8941E-03    -375.249E-06    -6.03896E-03     3.67341E-03     2.18172E-03    -375.249E-06    -4.08592E-03     463.594E-03    -229.775E-03    -233.375E-03    -231.293E-03     461.511E-03    -229.775E-03     76.0239E-03     5.55194E+06    -66.1886E+06    -87.4577E+06    -80.9618E+06    -72.6845E+06     5.55194E+06     7.22456E+06         59.1347
            1779     7.94702E-03     143.167E-03     14.6756E-03    -470.740E-06    -10.7789E-03    -3.22823E-03     7.12498E-03    -470.740E-06    -13.2032E-03     465.995E-03    -230.117E-03    -233.843E-03    -231.293E-03     463.446E-03    -230.117E-03     84.1766E-03     27.1968E+06    -17.5735E+06    -72.6199E+06    -69.1665E+06    -21.0269E+06     27.1968E+06     12.7678E+06         59.7152
            1780     8.73907E-03     143.288E-03     16.0215E-03    -858.720E-06    -10.3656E-03    -3.09451E-03     8.75622E-03    -864.487E-06    -7.51078E-03     466.570E-03    -231.055E-03    -234.441E-03    -231.335E-03     463.463E-03    -231.055E-03     93.0481E-03     53.6254E+06     35.2809E+06    -62.6122E+06    -58.5334E+06     38.0208E+06     46.8068E+06     19.3108E+06         60.6184
            1781     9.53216E-03     143.413E-03     11.5242E-03    -343.386E-06    -4.96847E-03     3.68372E-03     3.39012E-03    -861.464E-06     4.89714E-03     465.695E-03    -231.257E-03    -235.054E-03    -231.439E-03     462.080E-03    -231.257E-03     100.339E-03     74.8392E+06     64.1771E+06    -51.2804E+06    -48.0177E+06     69.3063E+06     66.4473E+06     19.2418E+06         62.0941
            1782     10.3264E-03     143.537E-03     12.2883E-03    -40.1429E-06    -6.73370E-03     2.85395E-03     3.21293E-03    -552.453E-06     3.31377E-03     465.174E-03    -230.835E-03    -235.616E-03    -231.331E-03     460.889E-03    -230.835E-03     109.133E-03     85.9594E+06     68.2676E+06    -41.0069E+06    -39.2517E+06     68.0856E+06     84.3861E+06     13.2130E+06         64.2619
            1783     11.1199E-03     143.682E-03     15.3354E-03    -527.004E-06    -10.6311E-03    -4.57904E-03     9.28343E-03    -527.004E-06     2.21274E-03     466.797E-03    -230.688E-03    -236.439E-03    -231.203E-03     461.561E-03    -230.688E-03     120.758E-03     96.8885E+06     61.1042E+06    -30.9999E+06    -30.3842E+06     60.4885E+06     96.8885E+06     7.39865E+06         67.3092
            1784     11.9117E-03     143.863E-03     17.4396E-03    -978.781E-06    -13.7351E-03    -11.1687E-03     14.8733E-03    -978.781E-06    -8.84038E-03     468.087E-03    -231.357E-03    -236.505E-03    -230.771E-03     462.352E-03    -231.357E-03     126.614E-03     106.367E+06     68.1206E+06    -20.9984E+06    -20.6261E+06     67.7483E+06     106.367E+06     5.66820E+06         71.4478
            1785     12.7081E-03     144.014E-03     16.0135E-03    -1.56151E-03    -12.6215E-03    -7.60128E-03     10.9933E-03    -1.56151E-03    -2.88305E-03     470.510E-03    -231.584E-03    -239.344E-03    -230.418E-03     461.584E-03    -231.584E-03     155.558E-03     112.851E+06     83.6971E+06    -12.6107E+06    -12.4048E+06     83.4912E+06     112.851E+06     3.83274E+06         76.1808
            1786     13.5054E-03     144.247E-03     17.6772E-03    -1.76904E-03    -13.8022E-03     1.80611E-03     2.06890E-03    -1.76904E-03    -3.03959E-03     467.079E-03    -231.228E-03    -237.735E-03    -229.049E-03     458.393E-03    -231.228E-03     152.421E-03     115.813E+06     90.6371E+06    -6.28860E+06    -6.22414E+06     90.5727E+06     115.813E+06     1.55760E+06         80.2516
            1787     798.697E-06     144.307E-03     33.4773E-03    -3.26528E-03    -22.2198E-03     8.58242E-03     11.1736E-03    -11.7639E-03    -9.98500E-03     451.291E-03    -225.344E-03    -226.025E-03    -225.459E-03     451.278E-03    -225.898E-03     5.57859E-03    -159.033E+06    -163.740E+06    -294.686E+06    -162.631E+06    -294.659E+06    -160.169E+06    -106.974E+03         56.2337
            1788     1.59557E-03     144.322E-03     30.3788E-03    -3.46418E-03    -18.1637E-03    -11.1518E-03     23.3669E-03    -3.46418E-03    -2.40105E-03     451.700E-03    -225.756E-03    -226.136E-03    -226.088E-03     451.652E-03    -225.756E-03     10.8927E-03    -147.074E+06    -158.620E+06    -278.346E+06    -158.673E+06    -278.294E+06    -147.074E+06     -1.8348E+06         56.4107
            1789     2.39158E-03     144.340E-03     27.3903E-03    -5.24303E-03    -15.7625E-03    -4.68292E-03     16.3107E-03    -5.24303E-03    -9.57662E-03     453.028E-03    -225.973E-03    -227.024E-03    -226.892E-03     452.897E-03    -225.973E-03     18.4348E-03    -127.521E+06    -150.958E+06    -254.256E+06    -151.098E+06    -254.116E+06    -127.521E+06    -3.63773E+06         56.6662
            1790     3.18806E-03     144.357E-03     26.4756E-03    -4.08728E-03    -16.0144E-03     1.21897E-03     9.53760E-03    -4.38274E-03     4.69197E-03     455.785E-03    -226.625E-03    -228.965E-03    -228.687E-03     455.507E-03    -226.625E-03     27.1970E-03    -104.925E+06    -141.662E+06    -229.805E+06    -141.945E+06    -229.523E+06    -104.925E+06    -4.85630E+06         56.9693
            1791     3.98268E-03     144.389E-03     25.6873E-03    -2.53456E-03    -15.7935E-03     4.90537E-03     5.28386E-03    -2.83003E-03     16.5243E-03     458.137E-03    -227.795E-03    -229.898E-03    -229.381E-03     457.620E-03    -227.795E-03     37.3003E-03    -84.3026E+06    -132.153E+06    -204.353E+06    -132.700E+06    -203.805E+06    -84.3026E+06    -6.03955E+06         57.2924
            1792     4.77654E-03     144.444E-03     25.3042E-03    -1.28686E-03    -18.0350E-03     6.97074E-03     298.540E-06    -1.28686E-03     25.9260E-03     458.572E-03    -228.931E-03    -230.002E-03    -229.145E-03     457.715E-03    -228.931E-03     48.2469E-03    -64.4033E+06    -121.164E+06    -178.577E+06    -122.014E+06    -177.727E+06    -64.4033E+06    -5.94956E+06         57.6470
            1793     5.57083E-03     144.505E-03     22.6253E-03    -352.495E-06    -17.4330E-03     1.66923E-03     3.52309E-03    -352.495E-06     21.3095E-03     459.120E-03    -229.600E-03    -231.040E-03    -229.786E-03     457.867E-03    -229.600E-03     58.5782E-03    -43.4893E+06    -109.926E+06    -150.600E+06    -110.638E+06    -149.888E+06    -43.4893E+06    -4.20799E+06         58.0809
            1794     6.36252E-03     144.588E-03     20.9853E-03    -604.483E-06    -17.3390E-03    -9.08795E-03     12.7343E-03    -604.483E-06    -313.063E-06     460.893E-03    -229.440E-03    -233.290E-03    -231.594E-03     459.197E-03    -229.440E-03     68.3795E-03    -21.6524E+06    -95.1586E+06    -119.155E+06    -97.3156E+06    -116.998E+06    -21.6524E+06    -2.86357E+06         58.5897
            1795     7.15520E-03     144.676E-03     19.1347E-03    -1.46191E-03    -13.9339E-03    -9.19723E-03     14.3981E-03    -1.46191E-03     8.41170E-03     464.075E-03    -229.326E-03    -234.405E-03    -232.304E-03     461.975E-03    -229.326E-03     76.4309E-03    -676.524E+03    -74.9576E+06    -90.9947E+06    -83.9366E+06    -82.0158E+06    -676.524E+03     523.563E+03         59.1037
            1796     7.94879E-03     144.769E-03     12.2400E-03    -956.085E-06    -7.20683E-03    -1.09595E-03     6.99184E-03    -1.81876E-03     2.50965E-03     466.731E-03    -229.705E-03    -234.455E-03    -231.910E-03     464.186E-03    -229.705E-03     84.2101E-03     19.9250E+06    -37.8031E+06    -73.0479E+06    -71.0747E+06    -39.7763E+06     19.9250E+06     6.78333E+06         59.6721
            1797     8.74098E-03     144.883E-03     10.6576E-03    -714.031E-06    -4.99511E-03     2.48199E-03     4.04891E-03    -1.58247E-03     902.925E-06     467.044E-03    -230.311E-03    -234.648E-03    -231.590E-03     463.987E-03    -230.311E-03     92.3671E-03     45.9206E+06     20.0709E+06    -61.0558E+06    -57.9075E+06     21.7366E+06     41.1065E+06     14.3163E+06         60.5734
            1798     9.53478E-03     145.003E-03     14.7050E-03    -1.23450E-03    -6.44842E-03     2.52933E-03     5.73302E-03    -1.24027E-03     2.28971E-03     465.309E-03    -230.667E-03    -234.870E-03    -231.322E-03     461.761E-03    -230.667E-03     99.3611E-03     73.1719E+06     61.4230E+06    -50.2398E+06    -47.1001E+06     70.0322E+06     61.4230E+06     18.9069E+06         62.0618
            1799     10.3290E-03     145.130E-03     14.7320E-03    -1.05646E-03    -7.50188E-03     1.29020E-03     5.93994E-03    -1.05646E-03    -2.36969E-03     464.340E-03    -230.833E-03    -235.223E-03    -231.000E-03     460.118E-03    -230.833E-03     108.233E-03     88.8631E+06     74.7128E+06    -39.9694E+06    -37.8547E+06     81.1037E+06     80.3575E+06     15.4394E+06         64.2156
            1800     11.1217E-03     145.276E-03     11.9682E-03    -555.177E-06    -6.91243E-03    -1.33502E-03     6.95193E-03    -1.11632E-03    -3.16842E-03     465.446E-03    -230.765E-03    -235.228E-03    -229.965E-03     460.184E-03    -230.765E-03     120.772E-03     96.7794E+06     69.9323E+06    -30.7066E+06    -29.9072E+06     70.7037E+06     95.2086E+06     8.48732E+06         67.2055
            1801     11.9156E-03     145.452E-03     16.6939E-03    -787.808E-06    -11.0932E-03    -4.18536E-03     10.3472E-03    -1.34895E-03    -5.72276E-03     466.091E-03    -231.031E-03    -234.901E-03    -229.027E-03     460.217E-03    -231.031E-03     127.793E-03     105.540E+06     67.9130E+06    -22.4773E+06    -22.2476E+06     67.6833E+06     105.540E+06     4.39708E+06         71.2866
            1802     12.7133E-03     145.609E-03     18.4243E-03    -1.55944E-03    -10.8768E-03    -5.91272E-03     13.4602E-03    -1.55944E-03     980.003E-06     468.534E-03    -230.836E-03    -237.358E-03    -228.191E-03     459.367E-03    -230.836E-03     157.173E-03     115.437E+06     84.6638E+06    -14.6775E+06    -14.4627E+06     84.4490E+06     115.437E+06     4.50603E+06         76.0072
            1803     13.5131E-03     145.839E-03     17.7558E-03    -1.63368E-03    -9.62964E-03    -4.43372E-03     12.5598E-03    -1.63368E-03     4.61677E-03     464.149E-03    -229.647E-03    -235.560E-03    -225.837E-03     455.115E-03    -230.336E-03     155.077E-03     120.999E+06     95.7094E+06    -6.48161E+06    -6.30112E+06     95.5289E+06     120.999E+06     3.50560E+06         80.1065
            1804     798.304E-06     145.881E-03     33.2152E-03    -3.73790E-03    -18.1942E-03     5.90705E-03     16.5728E-03    -11.1969E-03    -3.98806E-03     448.694E-03    -224.065E-03    -224.524E-03    -224.232E-03     448.678E-03    -224.342E-03     5.70380E-03    -160.383E+06    -164.717E+06    -288.737E+06    -163.761E+06    -288.557E+06    -161.519E+06    -2.45503E+06         56.0117
            1805     1.59719E-03     145.902E-03     26.2151E-03    -1.00689E-03    -16.0688E-03     2.34932E-03     8.48459E-03    -1.69455E-03    -5.59191E-03     449.630E-03    -224.626E-03    -225.071E-03    -225.012E-03     449.571E-03    -224.626E-03     12.0740E-03    -148.519E+06    -157.752E+06    -272.789E+06    -158.023E+06    -272.519E+06    -148.519E+06    -4.36705E+06         56.2063
            1806     2.39518E-03     145.923E-03     24.6610E-03    -209.800E-06    -12.2864E-03     2.25140E-03     10.1232E-03    -209.800E-06    -8.57721E-03     451.055E-03    -224.902E-03    -226.057E-03    -225.906E-03     450.905E-03    -224.902E-03     19.6803E-03    -129.922E+06    -150.840E+06    -249.774E+06    -151.111E+06    -249.503E+06    -129.922E+06    -4.94381E+06         56.4970
            1807     3.19146E-03     145.953E-03     27.4925E-03     196.533E-06    -16.4673E-03    -503.705E-06     11.5289E-03     196.533E-06     4.36103E-03     453.557E-03    -225.473E-03    -228.139E-03    -227.821E-03     453.239E-03    -225.473E-03     29.0167E-03    -106.540E+06    -141.727E+06    -225.544E+06    -142.142E+06    -225.129E+06    -106.540E+06    -5.65871E+06         56.8587
            1808     3.98688E-03     145.986E-03     29.3041E-03     6.55890E-06    -19.8594E-03    -1.50992E-03     10.9546E-03     6.55890E-06     7.32593E-03     456.649E-03    -226.460E-03    -229.881E-03    -229.317E-03     456.085E-03    -226.460E-03     39.0124E-03    -81.3746E+06    -130.355E+06    -198.684E+06    -131.080E+06    -197.959E+06    -81.3746E+06    -6.76175E+06         57.2477
            1809     4.78101E-03     146.038E-03     28.3414E-03    -154.027E-06    -20.3506E-03    -368.518E-06     8.35927E-03    -154.027E-06     8.76849E-03     458.526E-03    -227.707E-03    -230.923E-03    -230.033E-03     457.635E-03    -227.707E-03     49.2616E-03    -59.8884E+06    -119.782E+06    -176.567E+06    -121.034E+06    -175.315E+06    -59.8884E+06    -8.20277E+06         57.6269
            1810     5.57433E-03     146.104E-03     21.1988E-03    -183.836E-06    -17.5573E-03     628.477E-06     3.01300E-03    -183.836E-06     9.85806E-03     459.595E-03    -228.813E-03    -231.729E-03    -230.444E-03     458.310E-03    -228.813E-03     59.3595E-03    -41.8271E+06    -107.515E+06    -151.902E+06    -109.802E+06    -149.615E+06    -41.8271E+06    -9.11841E+06         58.0264
            1811     6.36629E-03     146.190E-03     19.4453E-03    -504.355E-06    -18.5815E-03    -4.45222E-03     5.31592E-03    -504.355E-06    -1.85096E-03     461.194E-03    -228.957E-03    -233.839E-03    -232.107E-03     459.462E-03    -228.957E-03     69.1485E-03    -24.4907E+06    -94.9788E+06    -122.123E+06    -98.4443E+06    -118.657E+06    -24.4907E+06    -8.45883E+06         58.5046
            1812     7.15853E-03     146.276E-03     20.4817E-03    -1.12136E-03    -18.6392E-03    -6.36410E-03     8.20658E-03    -1.12136E-03    -5.16707E-03     463.898E-03    -229.036E-03    -235.394E-03    -233.244E-03     461.748E-03    -229.036E-03     77.3613E-03    -7.24894E+06    -78.9474E+06    -98.7473E+06    -87.5469E+06    -90.1478E+06    -7.24894E+06    -6.75545E+06         59.0238
            1813     7.95106E-03     146.367E-03     12.3947E-03    -604.887E-06    -8.14430E-03    -2.67697E-03     7.79005E-03    -1.46756E-03    -3.86609E-03     466.683E-03    -229.438E-03    -235.195E-03    -232.601E-03     464.090E-03    -229.438E-03     85.0643E-03     11.2037E+06    -49.2601E+06    -78.2185E+06    -74.4375E+06    -53.0411E+06     11.2037E+06    -3.37995E+06         59.6010
            1814     8.74251E-03     146.480E-03     11.4287E-03    -659.834E-06    -5.47874E-03    -1.57080E-03     8.38348E-03    -1.52251E-03     609.792E-06     467.485E-03    -229.705E-03    -235.182E-03    -232.089E-03     464.392E-03    -229.705E-03     92.9596E-03     31.5779E+06    -854.943E+03    -61.5784E+06    -60.3726E+06    -2.00288E+06     31.5201E+06     4.86977E+06         60.5021
            1815     9.53520E-03     146.601E-03     12.5448E-03    -1.54085E-03    -5.50617E-03    -1.37103E-03     8.40968E-03    -1.54085E-03     1.36599E-03     465.679E-03    -230.069E-03    -234.648E-03    -231.046E-03     462.077E-03    -230.069E-03     100.101E-03     66.5263E+06     45.9216E+06    -49.6838E+06    -47.1598E+06     57.2719E+06     52.6519E+06     14.6032E+06         61.9924
            1816     10.3296E-03     146.729E-03     15.5382E-03    -1.53659E-03    -8.42880E-03    -1.51457E-03     8.62397E-03    -1.53659E-03     7.20913E-03     463.792E-03    -230.710E-03    -233.815E-03    -229.505E-03     459.483E-03    -230.710E-03     109.169E-03     91.2813E+06     72.1455E+06    -40.4000E+06    -38.0185E+06     88.8998E+06     72.1455E+06     17.4658E+06         64.1310
            1817     11.1253E-03     146.874E-03     12.7189E-03    -924.125E-06    -7.80278E-03    -1.76679E-03     7.24406E-03    -1.48527E-03     14.7829E-03     463.298E-03    -230.593E-03    -232.962E-03    -227.499E-03     457.836E-03    -230.593E-03     122.565E-03     95.3607E+06     78.1425E+06    -32.8567E+06    -31.4579E+06     82.0629E+06     90.0415E+06     12.2204E+06         67.0698
            1818     11.9218E-03     147.045E-03     8.79935E-03    -772.312E-06    -5.27273E-03     809.745E-06     3.27802E-03    -1.33345E-03     7.24837E-03     462.676E-03    -230.388E-03    -232.458E-03    -226.136E-03     456.481E-03    -230.515E-03     130.619E-03     103.912E+06     74.5727E+06    -24.7798E+06    -24.3919E+06     74.1848E+06     103.912E+06     5.18273E+06         71.1160
            1819     12.7211E-03     147.200E-03     9.26946E-03    -1.13773E-03    -5.11225E-03     1.73272E-03     2.42449E-03    -1.13773E-03     595.569E-06     464.819E-03    -229.918E-03    -234.907E-03    -225.127E-03     455.166E-03    -230.045E-03     160.507E-03     115.467E+06     84.2784E+06    -15.8597E+06    -15.7386E+06     84.1574E+06     115.467E+06     2.94672E+06         75.8598
            1820     13.5247E-03     147.416E-03     11.2975E-03    -1.12407E-03    -6.54870E-03    -2.74147E-03     7.49031E-03    -1.12407E-03    -4.71865E-03     460.497E-03    -227.370E-03    -233.272E-03    -222.095E-03     451.003E-03    -229.053E-03     158.146E-03     123.716E+06     98.8069E+06    -7.47703E+06    -7.32951E+06     98.6594E+06     123.716E+06     3.47446E+06         80.0060
            1821     800.625E-06     147.446E-03     50.6915E-03    -5.89938E-03    -42.9967E-03    -5.34480E-03     14.4030E-03    -7.26290E-03    -15.6509E-03     445.834E-03    -222.376E-03    -223.381E-03    -222.716E-03     445.809E-03    -223.016E-03     7.48190E-03    -154.699E+06    -159.783E+06    -280.729E+06    -159.235E+06    -280.517E+06    -155.460E+06    -1.65992E+06         55.7431
            1822     1.59987E-03     147.471E-03     36.2972E-03    -2.83309E-03    -29.8357E-03     7.64263E-03    -493.442E-06    -3.52076E-03    -30.9180E-03     447.703E-03    -223.347E-03    -224.288E-03    -224.209E-03     447.624E-03    -223.347E-03     14.1570E-03    -145.420E+06    -156.641E+06    -264.461E+06    -157.039E+06    -264.063E+06    -145.420E+06    -4.31662E+06         55.9476
            1823     2.39812E-03     147.493E-03     24.4737E-03    -971.115E-06    -21.1926E-03    -1.60082E-03     4.88187E-03    -971.115E-06    -8.44864E-03     449.498E-03    -224.022E-03    -225.572E-03    -225.390E-03     449.316E-03    -224.022E-03     21.7701E-03    -129.882E+06    -150.794E+06    -243.693E+06    -151.336E+06    -243.151E+06    -129.882E+06     -6.8557E+06         56.2642
            1824     3.19521E-03     147.523E-03     24.7772E-03    -2.31208E-03    -20.5263E-03    -10.5250E-03     14.7759E-03    -2.31208E-03    -30.7984E-03     451.784E-03    -224.580E-03    -227.215E-03    -226.849E-03     451.418E-03    -224.580E-03     31.0822E-03    -109.006E+06    -141.738E+06    -219.986E+06    -142.858E+06    -218.866E+06    -109.006E+06    -8.67302E+06         56.6784
            1825     3.99138E-03     147.566E-03     23.5807E-03    -3.62697E-03    -17.3358E-03    -3.94531E-03     10.1902E-03    -3.62697E-03    -28.9455E-03     455.048E-03    -225.165E-03    -229.660E-03    -229.039E-03     454.427E-03    -225.165E-03     40.9689E-03    -84.9966E+06    -130.724E+06    -194.886E+06    -132.341E+06    -193.269E+06    -84.9966E+06    -9.55904E+06         57.1359
            1826     4.78488E-03     147.621E-03     24.3595E-03    -3.73129E-03    -19.1974E-03    -1.33025E-03     6.49228E-03    -3.73129E-03    -16.8091E-03     458.576E-03    -226.240E-03    -231.894E-03    -230.942E-03     457.624E-03    -226.240E-03     50.9640E-03    -61.0021E+06    -118.222E+06    -172.290E+06    -120.253E+06    -170.259E+06    -61.0021E+06    -9.76553E+06         57.5700
            1827     5.57717E-03     147.689E-03     18.3983E-03    -3.72310E-03    -14.2424E-03    -5.03625E-03     9.34426E-03    -3.87526E-03    -1.59267E-03     460.882E-03    -227.665E-03    -232.828E-03    -231.467E-03     459.521E-03    -227.665E-03     61.1815E-03    -41.0636E+06    -105.853E+06    -148.301E+06    -109.768E+06    -144.386E+06    -41.0636E+06    -11.2604E+06         57.9696
            1828     6.36941E-03     147.779E-03     16.9458E-03    -3.50448E-03    -10.3202E-03     4.89365E-03     1.88410E-03    -3.65665E-03    -16.9256E-03     462.247E-03    -228.460E-03    -233.985E-03    -232.175E-03     460.436E-03    -228.460E-03     70.7669E-03    -24.5116E+06    -93.1606E+06    -124.718E+06    -99.1264E+06    -118.752E+06    -24.5116E+06    -12.1107E+06         58.3891
            1829     7.16115E-03     147.872E-03     17.6163E-03    -2.64551E-03    -12.0311E-03     9.21543E-03    -3.63024E-03    -2.64551E-03    -9.35322E-03     463.325E-03    -229.050E-03    -235.040E-03    -232.811E-03     461.097E-03    -229.050E-03     78.6995E-03    -8.36427E+06    -76.6550E+06    -103.119E+06    -88.0366E+06    -91.7375E+06    -8.36427E+06    -11.2163E+06         58.8703
            1830     7.95390E-03     147.963E-03     13.6185E-03    -1.97423E-03    -9.69197E-03     737.800E-06     3.18875E-03    -1.97423E-03    -5.03181E-03     464.712E-03    -229.378E-03    -234.894E-03    -232.155E-03     461.973E-03    -229.378E-03     87.2043E-03     7.10215E+06    -52.4631E+06    -84.2698E+06    -78.1807E+06    -58.5522E+06     7.10215E+06    -10.0880E+06         59.4592
            1831     8.74647E-03     148.084E-03     12.0194E-03    -1.80051E-03    -7.53154E-03     385.725E-06     4.10213E-03    -1.80051E-03    -4.70649E-03     465.501E-03    -229.231E-03    -234.625E-03    -231.291E-03     462.166E-03    -229.231E-03     96.2791E-03     22.0975E+06    -20.3619E+06    -69.0829E+06    -66.9568E+06    -22.4880E+06     22.0975E+06    -5.86763E+06         60.3654
            1832     9.53996E-03     148.206E-03     9.17431E-03    -1.53501E-03    -4.82924E-03     2.39067E-03     1.95440E-03    -1.53501E-03     8.15952E-03     464.152E-03    -229.111E-03    -233.858E-03    -229.936E-03     460.230E-03    -229.111E-03     104.211E-03     48.8410E+06     22.2768E+06    -56.0760E+06    -55.1817E+06     31.6924E+06     38.5310E+06     4.60514E+06         61.8561
            1833     10.3363E-03     148.327E-03     10.8759E-03    -926.377E-06    -5.63300E-03     1.94137E-03     3.59326E-03    -1.21811E-03     11.7528E-03     462.594E-03    -229.663E-03    -232.550E-03    -227.846E-03     457.890E-03    -229.663E-03     113.784E-03     85.0590E+06     60.9017E+06    -44.4502E+06    -42.6463E+06     83.2551E+06     60.9017E+06     13.8877E+06         64.0001
            1834     11.1342E-03     148.458E-03     13.0800E-03    -730.057E-06    -7.06166E-03     708.583E-06     5.60153E-03    -1.02179E-03     5.73140E-03     461.262E-03    -229.702E-03    -231.145E-03    -225.179E-03     455.297E-03    -229.702E-03     127.623E-03     100.165E+06     81.5376E+06    -32.4775E+06    -31.1194E+06     94.9136E+06     85.4304E+06     12.6516E+06         66.9353
            1835     11.9342E-03     148.621E-03     11.6572E-03    -1.06584E-03    -6.96779E-03    -3.71095E-03     8.40032E-03    -1.06584E-03    -2.74067E-03     459.346E-03    -229.280E-03    -230.143E-03    -223.148E-03     452.600E-03    -229.530E-03     135.652E-03     104.231E+06     84.9398E+06    -22.5620E+06    -21.9313E+06     85.1959E+06     103.344E+06     7.29964E+06         70.9940
            1836     12.7383E-03     148.762E-03     10.5234E-03    -1.28108E-03    -6.59535E-03    -4.33441E-03     8.26244E-03    -1.28108E-03    -3.37668E-03     461.362E-03    -228.636E-03    -232.624E-03    -222.198E-03     451.185E-03    -228.886E-03     164.355E-03     115.982E+06     86.4866E+06    -15.3241E+06    -15.0562E+06     86.2188E+06     115.982E+06     3.72073E+06         75.7892
            1837     13.5456E-03     148.990E-03     9.93442E-03    -1.22479E-03    -4.44758E-03     576.505E-06     5.03097E-03    -1.34543E-03     2.28460E-03     457.537E-03    -225.473E-03    -231.466E-03    -219.439E-03     447.765E-03    -227.728E-03     159.564E-03     124.975E+06     99.3109E+06    -8.83969E+06    -8.76820E+06     99.2394E+06     124.975E+06     2.55742E+06         80.0004
            1838     801.895E-06     149.004E-03     49.4035E-03     3.99502E-03    -58.8709E-03    -12.7975E-03    -413.250E-06     7.73841E-03     4.07942E-03     442.916E-03    -221.009E-03    -221.988E-03    -221.574E-03     442.881E-03    -221.388E-03     9.08540E-03    -157.652E+06    -161.084E+06    -275.794E+06    -160.239E+06    -275.620E+06    -158.672E+06    -1.55109E+06         55.4817
            1839     1.60269E-03     149.030E-03     42.3246E-03    -5.39445E-03    -40.2709E-03    -17.1753E-03     19.2289E-03    -5.39445E-03    -30.4437E-03     445.325E-03    -221.865E-03    -223.333E-03    -223.228E-03     445.221E-03    -221.865E-03     16.1821E-03    -143.276E+06    -154.966E+06    -255.965E+06    -155.004E+06    -255.667E+06    -143.536E+06    -2.79198E+06         55.6935
            1840     2.40148E-03     149.062E-03     27.9751E-03    -7.49845E-03    -24.1089E-03    -7.23781E-03     11.8339E-03    -8.22829E-03    -3.71892E-03     447.733E-03    -222.851E-03    -225.061E-03    -224.826E-03     447.499E-03    -222.851E-03     24.6794E-03    -124.233E+06    -148.359E+06    -234.118E+06    -148.869E+06    -233.608E+06    -124.233E+06    -5.70271E+06         56.0192
            1841     3.19944E-03     149.095E-03     22.4162E-03    -6.55417E-03    -21.2567E-03    -1.01127E-03     2.90066E-03    -7.28401E-03    -1.38527E-03     450.581E-03    -223.608E-03    -226.782E-03    -226.341E-03     450.141E-03    -223.608E-03     34.1551E-03    -106.865E+06    -140.880E+06    -209.881E+06    -142.184E+06    -208.577E+06    -106.865E+06    -8.98835E+06         56.4330
            1842     3.99490E-03     149.143E-03     20.5315E-03    -6.01642E-03    -17.6703E-03    -2.38726E-03     5.24851E-03    -6.01642E-03    -922.284E-06     453.230E-03    -224.259E-03    -229.309E-03    -228.575E-03     452.496E-03    -224.259E-03     44.3705E-03    -87.9521E+06    -131.668E+06    -189.763E+06    -134.161E+06    -187.270E+06    -87.9521E+06    -11.5435E+06         56.8994
            1843     4.78921E-03     149.206E-03     26.9604E-03    -5.08964E-03    -22.1009E-03    -523.383E-06     5.38281E-03    -5.08964E-03     18.8952E-03     456.959E-03    -225.277E-03    -231.713E-03    -230.599E-03     455.844E-03    -225.277E-03     55.0563E-03    -66.4575E+06    -119.913E+06    -169.346E+06    -123.993E+06    -165.266E+06    -66.4575E+06    -13.1695E+06         57.3820
            1844     5.58256E-03     149.278E-03     24.6496E-03    -3.84276E-03    -19.1961E-03     2.76094E-03     2.84471E-03    -3.99492E-03     35.2208E-03     460.879E-03    -226.145E-03    -233.204E-03    -231.649E-03     459.324E-03    -226.145E-03     65.3947E-03    -43.2082E+06    -105.436E+06    -144.258E+06    -111.928E+06    -137.766E+06    -43.2082E+06    -14.0107E+06         57.8351
            1845     6.37375E-03     149.371E-03     19.7929E-03    -2.86908E-03    -13.7218E-03     366.625E-06     5.85666E-03    -3.02124E-03     9.34774E-03     461.808E-03    -227.235E-03    -233.729E-03    -231.689E-03     459.768E-03    -227.235E-03     75.0192E-03    -23.6396E+06    -90.7410E+06    -125.008E+06    -100.894E+06    -114.855E+06    -23.6396E+06    -15.1760E+06         58.2217
            1846     7.16592E-03     149.466E-03     21.9367E-03    -2.55489E-03    -14.1722E-03    -1.98859E-03     9.75309E-03    -2.55489E-03     18.1937E-03     461.384E-03    -228.476E-03    -233.522E-03    -230.996E-03     458.857E-03    -228.476E-03     83.4734E-03    -8.22382E+06    -73.4775E+06    -107.430E+06     -89.714E+06    -91.1934E+06    -8.22382E+06    -15.5579E+06         58.6060
            1847     7.95971E-03     149.562E-03     13.9420E-03    -1.48459E-03    -8.12769E-03     1.41934E-03     5.14050E-03    -2.23014E-03     6.61401E-03     461.438E-03    -228.629E-03    -233.289E-03    -230.208E-03     458.357E-03    -228.629E-03     92.1164E-03     7.01916E+06    -51.3345E+06    -87.2363E+06    -78.1156E+06    -60.4551E+06     7.01916E+06    -13.7998E+06         59.1560
            1848     8.75446E-03     149.672E-03     11.1638E-03    -1.04123E-03    -5.66235E-03     2.93455E-03     3.31251E-03    -1.78678E-03    -1.45567E-03     461.383E-03    -228.357E-03    -232.654E-03    -228.893E-03     457.623E-03    -228.357E-03     101.710E-03     21.1141E+06    -27.4132E+06    -72.1211E+06    -68.1372E+06    -31.3971E+06     21.1141E+06    -11.1308E+06         60.1099
            1849     9.55136E-03     149.787E-03     12.4614E-03    -1.46949E-03    -4.83473E-03     920.194E-06     6.70644E-03    -1.46949E-03     6.37484E-03     459.696E-03    -228.151E-03    -231.667E-03    -227.160E-03     455.188E-03    -228.151E-03     111.057E-03     36.4525E+06     9.04441E+06    -58.1811E+06    -56.6748E+06     9.39312E+06     34.5975E+06    -5.07087E+06         61.6758
            1850     10.3501E-03     149.900E-03     9.61120E-03    -1.05504E-03    -3.02409E-03     222.624E-06     6.65622E-03    -1.34678E-03     4.30038E-03     458.713E-03    -227.986E-03    -230.629E-03    -225.191E-03     453.275E-03    -227.986E-03     121.690E-03     73.0511E+06     47.7364E+06    -44.4980E+06    -44.0285E+06     68.4735E+06     51.8444E+06     3.46094E+06         63.8928
            1851     11.1514E-03     150.030E-03     12.4243E-03    -969.072E-06    -6.48773E-03     731.408E-06     5.49685E-03    -1.26081E-03     5.31687E-03     458.320E-03    -227.739E-03    -230.016E-03    -223.234E-03     451.539E-03    -227.739E-03     135.627E-03     101.506E+06     76.0852E+06    -33.5136E+06    -32.7094E+06     100.702E+06     76.0852E+06     8.36670E+06         66.9024
            1852     11.9534E-03     150.199E-03     15.0948E-03    -1.18315E-03    -8.75741E-03    -465.855E-06     6.80327E-03    -1.18315E-03     6.32802E-03     457.328E-03    -227.529E-03    -229.817E-03    -222.243E-03     449.876E-03    -227.651E-03     142.270E-03     104.561E+06     86.5158E+06    -25.0266E+06    -24.3931E+06     91.9513E+06     98.4918E+06     7.83523E+06         71.0343
            1853     12.7575E-03     150.348E-03     12.9102E-03    -1.18523E-03    -6.47014E-03    -3.04128E-03     9.48136E-03    -1.18523E-03     797.735E-06     460.088E-03    -226.911E-03    -232.870E-03    -221.963E-03     449.303E-03    -227.033E-03     169.271E-03     113.127E+06     86.4989E+06    -17.3004E+06    -16.8310E+06     86.0296E+06     113.127E+06     5.85435E+06         75.8936
            1854     13.5637E-03     150.548E-03     13.5244E-03    -1.20937E-03    -7.99031E-03    -5.72120E-03     11.3759E-03    -1.33001E-03     1.70117E-03     456.678E-03    -224.870E-03    -231.170E-03    -219.596E-03     446.490E-03    -226.256E-03     162.715E-03     127.352E+06     101.293E+06    -6.94938E+06    -6.69413E+06     101.038E+06     127.352E+06     3.34860E+06         80.1591
            1855     803.273E-06     150.559E-03     38.2094E-03     6.88572E-03    -52.4183E-03    -17.0537E-03    -898.664E-06     10.6291E-03     35.2173E-03     438.993E-03    -219.231E-03    -219.866E-03    -219.814E-03     438.941E-03    -219.231E-03     10.8706E-03    -156.245E+06    -159.152E+06    -267.059E+06    -157.889E+06    -266.813E+06    -157.754E+06    -3.95962E+06         55.2706
            1856     1.60500E-03     150.592E-03     27.9069E-03    -3.81639E-03    -27.8839E-03    -6.05015E-03     6.07322E-03    -3.81639E-03    -8.55448E-03     441.211E-03    -219.710E-03    -221.535E-03    -221.387E-03     441.062E-03    -219.710E-03     19.2980E-03    -146.281E+06    -154.017E+06    -249.508E+06    -154.259E+06    -249.007E+06    -146.540E+06    -4.90854E+06         55.4737
            1857     2.40567E-03     150.625E-03     19.8013E-03    -2.93593E-03    -19.4248E-03    -1.06909E-03     2.17546E-03    -3.66577E-03    -2.43822E-03     444.962E-03    -220.984E-03    -224.269E-03    -223.947E-03     444.641E-03    -220.984E-03     28.7967E-03    -124.983E+06    -145.290E+06    -225.741E+06    -146.018E+06    -225.013E+06    -124.983E+06    -6.47553E+06         55.7667
            1858     3.20348E-03     150.669E-03     14.2416E-03    -1.40499E-03    -14.5468E-03     4.14039E-03    -3.71573E-03    -2.13482E-03     12.2557E-03     448.934E-03    -222.356E-03    -226.512E-03    -225.931E-03     448.353E-03    -222.356E-03     39.1543E-03    -101.709E+06    -136.245E+06    -201.189E+06    -137.207E+06    -200.227E+06    -101.709E+06    -7.71568E+06         56.1267
            1859     4.00022E-03     150.723E-03     13.2133E-03    -1.10790E-03    -12.9534E-03    -881.218E-06     1.14108E-03    -1.10790E-03     15.6213E-03     451.341E-03    -223.262E-03    -228.494E-03    -227.565E-03     450.412E-03    -223.262E-03     49.8259E-03    -78.8893E+06    -126.273E+06    -179.426E+06    -128.466E+06    -177.233E+06    -78.8893E+06    -10.0927E+06         56.5531
            1860     4.79558E-03     150.790E-03     20.4911E-03    -1.18055E-03    -17.0080E-03    -4.27323E-03     7.75629E-03    -1.18055E-03     13.5126E-03     454.356E-03    -224.353E-03    -230.365E-03    -228.993E-03     452.985E-03    -224.353E-03     60.8932E-03    -58.2308E+06    -114.248E+06    -160.506E+06    -118.899E+06    -155.856E+06    -58.2308E+06    -13.6176E+06         57.0086
            1861     5.58942E-03     150.869E-03     25.3773E-03    -1.18580E-03    -19.3203E-03     1.30434E-03     4.75263E-03    -1.18580E-03     9.12992E-03     457.076E-03    -224.763E-03    -231.524E-03    -229.623E-03     455.176E-03    -224.763E-03     71.9151E-03    -40.2653E+06    -100.659E+06    -140.572E+06    -108.803E+06    -132.428E+06    -40.2653E+06    -15.5115E+06         57.4546
            1862     6.38274E-03     150.957E-03     20.3305E-03    -1.06320E-03    -14.3626E-03    -1.44861E-03     7.41651E-03    -1.06320E-03     3.59299E-03     457.251E-03    -225.334E-03    -232.444E-03    -229.961E-03     454.768E-03    -225.334E-03     82.3197E-03    -22.4675E+06    -85.6419E+06    -121.376E+06    -99.1406E+06    -107.877E+06    -22.4675E+06    -16.9354E+06         57.8510
            1863     7.17772E-03     151.047E-03     20.7461E-03    -1.51951E-03    -15.1865E-03    -8.31149E-03     13.8710E-03    -1.51951E-03     3.75292E-03     457.060E-03    -226.196E-03    -231.956E-03    -228.835E-03     453.939E-03    -226.196E-03     92.2201E-03    -6.05867E+06    -68.9150E+06    -107.214E+06    -89.5324E+06    -86.5968E+06    -6.05867E+06    -18.4315E+06         58.1985
            1864     7.97382E-03     151.142E-03     20.4660E-03    -1.39245E-03    -12.4949E-03    -5.96932E-03     14.6860E-03    -2.13800E-03    -13.2638E-03     457.161E-03    -226.471E-03    -230.690E-03    -226.895E-03     453.366E-03    -226.471E-03     101.576E-03     8.19378E+06    -49.1675E+06    -91.5424E+06    -79.3879E+06    -61.3220E+06     8.19378E+06    -17.6282E+06         58.7263
            1865     8.77035E-03     151.251E-03     16.1581E-03    -1.56366E-03    -6.46175E-03    -2.96031E-03     13.5358E-03    -2.44279E-03    -11.5797E-03     456.532E-03    -226.542E-03    -229.656E-03    -225.051E-03     451.926E-03    -226.542E-03     111.635E-03     21.5195E+06    -27.6729E+06    -76.1720E+06    -69.4981E+06    -34.3468E+06     21.5195E+06    -15.6210E+06         59.7819
            1866     9.57231E-03     151.364E-03     11.4339E-03    -1.17154E-03    -3.18681E-03    -415.014E-06     9.99373E-03    -2.50316E-03    -5.90848E-03     454.379E-03    -226.458E-03    -228.460E-03    -222.997E-03     448.916E-03    -226.458E-03     121.372E-03     34.0629E+06     2.71958E+06    -62.5911E+06    -59.1757E+06    -695.865E+03     34.0629E+06    -12.7433E+06         61.5081
            1867     10.3753E-03     151.488E-03     10.7574E-03    -382.711E-06    -3.03404E-03     3.99773E-03     5.62517E-03    -2.28223E-03    -5.05307E-03     453.809E-03    -225.988E-03    -228.177E-03    -221.832E-03     447.463E-03    -225.988E-03     130.753E-03     62.4555E+06     40.0052E+06    -49.3576E+06    -48.2356E+06     52.4932E+06     48.8456E+06    -5.56340E+06         63.8761
            1868     11.1790E-03     151.606E-03     13.8861E-03    -1.21226E-03    -6.25409E-03     3.98827E-03     4.34516E-03    -1.91373E-03     3.02509E-03     455.110E-03    -225.141E-03    -229.660E-03    -221.911E-03     447.360E-03    -225.141E-03     144.549E-03     90.8391E+06     66.0949E+06    -38.7485E+06    -38.4525E+06     90.5430E+06     66.0949E+06     3.41637E+06         67.0362
            1869     11.9828E-03     151.760E-03     15.7633E-03    -1.70097E-03    -10.2189E-03     1.29543E-03     4.24895E-03    -1.70097E-03    -835.047E-06     456.194E-03    -225.095E-03    -231.434E-03    -223.005E-03     447.765E-03    -225.095E-03     151.217E-03     98.3880E+06     81.9281E+06    -29.4512E+06    -29.0301E+06     93.2547E+06     86.6403E+06     6.03401E+06         71.3198
            1870     12.7848E-03     151.914E-03     11.8373E-03    -1.72548E-03    -8.35980E-03    -1.09553E-03     4.57302E-03    -1.72548E-03    -10.2069E-03     461.190E-03    -225.042E-03    -236.307E-03    -224.699E-03     449.582E-03    -225.042E-03     176.545E-03     108.415E+06     90.0342E+06    -18.9354E+06    -18.4362E+06     90.1485E+06     107.802E+06     2.41978E+06         76.2718
            1871     13.5958E-03     152.090E-03     10.0906E-03    -1.92403E-03    -8.10359E-03    -3.73302E-03     5.72014E-03    -1.92410E-03    -7.46443E-03     461.107E-03    -224.416E-03    -236.108E-03    -225.504E-03     450.629E-03    -224.541E-03     165.500E-03     128.176E+06     102.960E+06    -8.88778E+06    -8.43650E+06     102.509E+06     128.176E+06     956.347E+03         80.5204
            1872     804.555E-06     152.099E-03     51.3777E-03    -1.23691E-03    -50.9287E-03    -19.7929E-03     20.2418E-03    -1.23691E-03    -8.78673E-03     433.907E-03    -216.415E-03    -217.573E-03    -216.805E-03     433.837E-03    -217.114E-03     12.5550E-03    -145.598E+06    -152.916E+06    -257.191E+06    -151.945E+06    -256.913E+06    -146.847E+06    -1.90759E+06         54.9170
            1873     1.60898E-03     152.140E-03     29.0749E-03    -5.75926E-03    -25.4062E-03     14.1235E-03    -10.4549E-03    -5.75926E-03    -33.1674E-03     435.856E-03    -217.098E-03    -218.883E-03    -218.676E-03     435.649E-03    -217.098E-03     22.5904E-03     -138.85E+06    -148.630E+06    -240.233E+06    -149.094E+06    -239.769E+06     -138.85E+06    -4.89314E+06         55.0866
            1874     2.41079E-03     152.184E-03     21.5085E-03    -92.9837E-06    -21.2936E-03     5.62135E-03    -5.40643E-03    -92.9837E-06    -26.2014E-03     440.021E-03    -218.217E-03    -221.785E-03    -221.333E-03     439.568E-03    -218.217E-03     33.9512E-03    -123.235E+06    -142.646E+06    -217.412E+06    -143.655E+06    -216.403E+06    -123.235E+06    -7.71924E+06         55.3413
            1875     3.21107E-03     152.233E-03     15.7310E-03     99.2568E-06    -14.1366E-03    -4.16710E-03     5.76155E-03     99.2568E-06    -15.4326E-03     444.279E-03    -219.939E-03    -224.431E-03    -223.625E-03     443.473E-03    -219.939E-03     45.8792E-03    -98.0722E+06    -132.168E+06    -195.383E+06    -134.058E+06    -193.493E+06    -98.0722E+06    -10.1009E+06         55.6820
            1876     4.00981E-03     152.291E-03     11.2906E-03    -852.084E-06    -9.05817E-03    -3.04900E-03     5.28147E-03    -852.084E-06    -1.78606E-03     447.544E-03    -220.992E-03    -226.724E-03    -225.447E-03     446.267E-03    -220.992E-03     58.0651E-03    -72.6152E+06    -119.835E+06    -171.982E+06    -122.578E+06    -169.239E+06    -72.6152E+06    -11.2501E+06         56.0817
            1877     4.80643E-03     152.360E-03     14.8114E-03    -1.63140E-03    -13.3300E-03    -5.93261E-03     7.41399E-03    -1.63140E-03     676.101E-06     450.571E-03    -221.840E-03    -228.197E-03    -226.356E-03     448.730E-03    -221.840E-03     70.0919E-03    -50.1535E+06    -108.623E+06    -150.438E+06    -112.100E+06     -146.96E+06    -50.1535E+06    -11.4348E+06         56.4576
            1878     5.60295E-03     152.437E-03     21.2358E-03    -2.68620E-03    -16.4536E-03    -9.73197E-03     14.5141E-03    -2.68620E-03    -7.77731E-03     451.145E-03    -222.459E-03    -228.316E-03    -225.811E-03     448.641E-03    -222.459E-03     81.8488E-03    -32.0352E+06    -95.5851E+06    -131.820E+06    -103.655E+06    -123.750E+06    -32.0352E+06    -13.9273E+06         56.7965
            1879     6.40009E-03     152.530E-03     19.8174E-03    -3.36129E-03    -10.7425E-03    -3.05601E-03     12.1309E-03    -3.36129E-03    -2.93047E-03     450.396E-03    -222.865E-03    -228.843E-03    -225.597E-03     447.150E-03    -222.865E-03     93.2419E-03    -15.4749E+06    -80.4610E+06    -113.397E+06    -93.6796E+06    -100.179E+06    -15.4749E+06    -16.0846E+06         57.1565
            1880     7.19837E-03     152.623E-03     16.8055E-03    -1.35417E-03    -9.33687E-03    -292.174E-06     9.76534E-03    -3.35870E-03    -849.268E-06     450.190E-03    -223.078E-03    -228.779E-03    -224.709E-03     446.121E-03    -223.078E-03     104.339E-03     177.493E+03    -64.7271E+06    -100.268E+06    -84.8771E+06    -80.1182E+06     177.493E+03    -16.9311E+06         57.5674
            1881     7.99892E-03     152.727E-03     17.8821E-03    -1.34965E-03    -11.2482E-03    -3.90479E-03     12.5432E-03    -3.35418E-03    -15.4083E-03     450.582E-03    -223.030E-03    -227.783E-03    -222.871E-03     445.670E-03    -223.030E-03     114.666E-03     12.9257E+06    -46.5604E+06    -88.7928E+06    -77.5227E+06    -57.8305E+06     12.9257E+06    -18.0634E+06         58.2168
            1882     8.80080E-03     152.831E-03     17.2630E-03    -3.30924E-03    -7.64265E-03    -3.49998E-03     13.2539E-03    -3.44281E-03    -4.47036E-03     451.003E-03    -223.058E-03    -227.178E-03    -221.419E-03     445.245E-03    -223.058E-03     124.176E-03     24.7704E+06    -25.2058E+06    -76.8582E+06    -69.0722E+06    -32.9918E+06     24.7704E+06    -17.6413E+06         59.4467
            1883     9.60519E-03     152.933E-03     14.8207E-03    -2.07442E-03    -5.20002E-03    -2.19384E-03     13.1461E-03    -3.40604E-03    -1.53960E-03     450.243E-03    -223.086E-03    -227.255E-03    -220.618E-03     443.607E-03    -223.086E-03     133.241E-03     36.5991E+06     1.04611E+06    -65.2326E+06    -60.7837E+06    -3.40282E+06     36.5991E+06    -15.9743E+06         61.3797
            1884     10.4093E-03     153.049E-03     15.9001E-03    -1.41545E-03    -6.72919E-03    -1.38117E-03     12.4516E-03    -3.31497E-03    -8.15978E-03     450.785E-03    -223.051E-03    -228.453E-03    -220.963E-03     443.295E-03    -223.051E-03     141.659E-03     54.1012E+06     34.5230E+06    -53.9533E+06    -52.0027E+06     36.9295E+06     49.7441E+06    -10.3968E+06         63.9571
            1885     11.2157E-03     153.162E-03     14.3000E-03    -2.45528E-03    -5.80899E-03     65.1245E-06     9.20794E-03    -3.23728E-03    -8.04387E-03     453.714E-03    -222.447E-03    -231.680E-03    -222.858E-03     444.893E-03    -222.447E-03     154.242E-03     81.0895E+06     60.7571E+06    -41.2393E+06    -40.8234E+06     79.0308E+06     62.3999E+06    -3.69419E+06         67.3266
            1886     12.0174E-03     153.342E-03     13.1010E-03    -2.81274E-03    -6.81544E-03     650.556E-06     5.99238E-03    -3.17015E-03    -9.72964E-03     457.756E-03    -222.395E-03    -235.649E-03    -226.448E-03     448.555E-03    -222.395E-03     158.586E-03     94.8878E+06     78.4609E+06    -28.4403E+06    -27.9308E+06     92.8975E+06     79.9418E+06    -2.05506E+06         71.8138
            1887     12.8192E-03     153.506E-03     10.7716E-03    -2.35915E-03    -6.75327E-03     1.48070E-03     3.23286E-03    -3.05443E-03    -9.01717E-03     466.239E-03    -223.063E-03    -243.259E-03    -231.679E-03     454.658E-03    -223.063E-03     178.457E-03     102.177E+06     93.1833E+06    -17.3850E+06    -16.5983E+06     93.0101E+06     101.563E+06    -1.44958E+06         76.8855
            1888     13.6147E-03     153.710E-03     9.19613E-03    -2.41077E-03    -5.89982E-03     3.03682E-03     677.973E-06    -2.82925E-03     542.355E-06     471.114E-03    -223.334E-03    -247.607E-03    -237.594E-03     461.101E-03    -223.334E-03     163.906E-03     127.886E+06     103.249E+06    -8.33125E+06    -7.88448E+06     102.803E+06     127.886E+06     158.300E+03         81.1143
            1889     807.084E-06     153.642E-03     63.5999E-03    -10.5498E-03    -46.0303E-03    -28.6872E-03     11.9883E-03     23.7186E-03    -31.3643E-03     429.764E-03    -214.333E-03    -215.291E-03    -214.382E-03     429.669E-03    -215.147E-03     14.7409E-03    -140.681E+06    -148.979E+06    -248.856E+06    -146.313E+06    -248.604E+06    -143.599E+06    -2.05251E+06         54.2134
            1890     1.61266E-03     153.679E-03     31.7003E-03    -2.67124E-03    -23.7327E-03    -5.46442E-03     13.4320E-03    -2.67124E-03    -35.5199E-03     430.547E-03    -214.897E-03    -215.666E-03    -215.359E-03     430.257E-03    -214.913E-03     26.4539E-03    -129.097E+06    -139.912E+06    -230.865E+06    -140.290E+06    -230.487E+06    -129.097E+06    -5.17895E+06         54.3531
            1891     2.41834E-03     153.721E-03     35.3189E-03    -2.59009E-03    -28.3619E-03     878.940E-06     6.07798E-03    -2.59009E-03     2.28771E-03     432.515E-03    -215.082E-03    -217.407E-03    -216.776E-03     431.885E-03    -215.082E-03     39.7687E-03    -110.682E+06    -132.782E+06    -208.717E+06    -133.517E+06    -207.983E+06    -110.682E+06    -6.27096E+06         54.5887
            1892     3.22294E-03     153.779E-03     31.4594E-03    -2.21742E-03    -24.9697E-03    -4.48698E-03     10.9767E-03    -2.21742E-03     11.2313E-03     435.729E-03    -215.881E-03    -219.697E-03    -218.580E-03     434.612E-03    -215.881E-03     53.4564E-03    -89.1349E+06    -124.017E+06    -185.171E+06    -125.625E+06    -183.563E+06    -89.1349E+06    -8.44678E+06         54.9053
            1893     4.02487E-03     153.847E-03     18.0270E-03    -2.95291E-03    -12.9615E-03    -7.88870E-03     12.9542E-03    -2.95291E-03    -1.31285E-03     438.746E-03    -216.852E-03    -221.908E-03    -220.117E-03     436.955E-03    -216.852E-03     68.0291E-03    -67.5334E+06    -114.117E+06    -165.152E+06    -117.022E+06    -162.246E+06    -67.5334E+06    -11.2565E+06         55.2554
            1894     4.82596E-03     153.927E-03     21.1938E-03    -3.66249E-03    -18.0849E-03    -6.57663E-03     9.68557E-03    -3.66249E-03     24.3221E-03     441.238E-03    -217.300E-03    -223.554E-03    -220.942E-03     438.626E-03    -217.300E-03     82.5272E-03    -45.6324E+06    -101.694E+06    -145.702E+06    -106.329E+06    -141.067E+06    -45.6324E+06    -13.1497E+06         55.5997
            1895     5.62674E-03     154.010E-03     19.8554E-03    -4.08687E-03    -15.2850E-03    -7.71337E-03     12.3262E-03    -4.12931E-03     16.1319E-03     442.279E-03    -217.842E-03    -224.015E-03    -220.520E-03     438.784E-03    -217.842E-03     95.6290E-03    -22.3371E+06    -86.0698E+06    -121.985E+06    -93.3159E+06    -114.739E+06    -22.3371E+06    -13.6817E+06         55.9055
            1896     6.42898E-03     154.100E-03     19.6086E-03    -4.56323E-03    -12.3800E-03    -8.89716E-03     16.1682E-03    -4.60567E-03     8.79714E-03     441.791E-03    -218.616E-03    -224.053E-03    -219.647E-03     437.385E-03    -218.616E-03     107.443E-03    -3.35958E+06    -73.4728E+06    -104.006E+06    -83.3044E+06    -94.1742E+06    -3.35958E+06    -13.8716E+06         56.2256
            1897     7.23300E-03     154.195E-03     18.8724E-03    -2.74465E-03    -13.1619E-03    -3.05131E-03     10.7663E-03    -4.74918E-03     3.10647E-03     441.581E-03    -218.755E-03    -224.387E-03    -219.047E-03     436.240E-03    -218.755E-03     118.372E-03     11.4225E+06    -59.1816E+06    -89.3973E+06    -74.0750E+06    -74.5039E+06     11.4225E+06    -14.4795E+06         56.7222
            1898     8.03824E-03     154.283E-03     10.4472E-03    -1.54419E-03    -7.51373E-03     2.81265E-03     2.88421E-03    -4.30759E-03    -9.27446E-03     442.909E-03    -218.427E-03    -225.402E-03    -219.171E-03     436.678E-03    -218.427E-03     128.171E-03     24.9916E+06    -41.7200E+06    -75.3511E+06    -65.2325E+06    -51.8386E+06     24.9916E+06    -14.8123E+06         57.6020
            1899     8.84303E-03     154.388E-03     8.67557E-03    -3.08089E-03    -5.22539E-03    -613.233E-06     4.82229E-03    -3.83977E-03     1.55675E-03     445.860E-03    -218.200E-03    -226.815E-03    -219.757E-03     438.803E-03    -218.200E-03     136.826E-03     37.1258E+06    -20.5208E+06    -64.4734E+06    -57.4673E+06    -27.5270E+06     37.1258E+06    -15.1166E+06         59.0900
            1900     9.64890E-03     154.492E-03     12.0051E-03    -3.20301E-03    -6.36452E-03    -4.28449E-03     10.4864E-03    -3.76439E-03    -1.25652E-03     448.092E-03    -218.411E-03    -229.034E-03    -221.154E-03     440.212E-03    -218.411E-03     145.056E-03     47.8729E+06     1.34191E+06    -54.2713E+06    -49.7958E+06    -3.13362E+06     47.8729E+06    -14.5674E+06         61.2656
            1901     10.4537E-03     154.625E-03     13.5398E-03    -2.78484E-03    -7.31426E-03    -5.79147E-03     13.1322E-03    -3.90003E-03    -4.58550E-03     451.181E-03    -219.037E-03    -232.692E-03    -224.057E-03     442.547E-03    -219.037E-03     152.648E-03     60.3024E+06     31.4600E+06    -43.4064E+06    -40.9883E+06     29.0419E+06     60.3024E+06    -11.9559E+06         64.0835
            1902     11.2545E-03     154.771E-03     12.5132E-03    -2.84977E-03    -5.97277E-03    -4.49762E-03     12.1775E-03    -3.98918E-03    -1.51384E-03     456.989E-03    -219.540E-03    -238.369E-03    -228.803E-03     447.424E-03    -219.540E-03     161.919E-03     82.0920E+06     65.4902E+06    -32.1360E+06    -31.2575E+06     73.7758E+06     72.9279E+06    -8.99217E+06         67.6957
            1903     12.0519E-03     154.945E-03     10.6818E-03    -1.51937E-03    -3.83497E-03     51.1887E-06     9.11125E-03    -3.83497E-03     2.53837E-03     464.886E-03    -220.149E-03    -245.092E-03    -235.678E-03     455.472E-03    -220.149E-03     162.249E-03     98.1319E+06     82.2129E+06    -24.2564E+06    -23.5714E+06     90.6920E+06     88.9678E+06    -6.01664E+06         72.4066
            1904     12.8383E-03     155.146E-03     12.1059E-03    -1.30180E-03    -3.64642E-03     3.36044E-03     7.24746E-03    -3.45022E-03    -3.47808E-03     476.903E-03    -221.258E-03    -255.350E-03    -244.299E-03     465.851E-03    -221.258E-03     177.636E-03     101.981E+06     88.4703E+06    -17.7645E+06    -16.7974E+06     87.5032E+06     101.981E+06    -3.34923E+06         77.6187
            1905     13.6281E-03     155.349E-03     15.5630E-03    -2.73555E-03    -7.39140E-03    -495.925E-06     9.08588E-03    -3.15396E-03     4.80749E-03     483.768E-03    -222.590E-03    -261.129E-03    -251.729E-03     474.369E-03    -222.590E-03     162.134E-03     127.119E+06     99.4855E+06    -9.55375E+06    -8.85652E+06     98.7882E+06     127.119E+06    -987.514E+03         81.8970
            1906     809.249E-06     155.170E-03     54.5892E-03     1.14259E-03    -46.7616E-03    -17.9377E-03    -20.2259E-03     47.1338E-03     13.9345E-03     420.549E-03    -209.776E-03    -210.644E-03    -209.861E-03     420.397E-03    -210.407E-03     18.0746E-03    -130.009E+06    -136.315E+06    -239.060E+06    -133.083E+06    -238.906E+06    -133.395E+06    -4.01978E+06         53.1099
            1907     1.61986E-03     155.208E-03     28.9007E-03     10.2480E-03    -29.6624E-03    -8.32053E-03     7.55890E-03     10.2480E-03    -26.3769E-03     421.446E-03    -210.267E-03    -211.237E-03    -210.766E-03     420.992E-03    -210.284E-03     32.7336E-03    -122.445E+06    -131.153E+06    -221.268E+06    -131.076E+06    -220.877E+06    -122.913E+06    -5.35472E+06         53.2394
            1908     2.42947E-03     155.259E-03     35.8752E-03     3.16341E-03    -31.7125E-03    -13.3053E-03     17.4680E-03     3.16341E-03     12.0796E-03     422.602E-03    -210.604E-03    -212.278E-03    -211.325E-03     421.649E-03    -210.604E-03     48.1757E-03    -102.624E+06    -122.956E+06    -201.697E+06    -124.038E+06    -200.615E+06    -102.624E+06    -8.01530E+06         53.4564
            1909     3.23806E-03     155.321E-03     31.4483E-03    -693.857E-06    -27.2650E-03    -10.9560E-03     15.1393E-03    -693.857E-06     18.8835E-03     424.293E-03    -210.808E-03    -213.416E-03    -211.739E-03     422.616E-03    -210.808E-03     64.2854E-03    -79.7639E+06    -111.901E+06    -178.524E+06    -113.158E+06    -177.267E+06    -79.7639E+06    -8.23769E+06         53.7037
            1910     4.04684E-03     155.388E-03     23.0869E-03    -2.73233E-03    -16.5154E-03    -10.7569E-03     17.3284E-03    -2.73233E-03     794.883E-06     425.538E-03    -210.940E-03    -214.655E-03    -212.060E-03     422.943E-03    -210.940E-03     80.4734E-03    -54.3321E+06    -101.396E+06    -154.401E+06    -103.219E+06    -152.578E+06    -54.3321E+06    -9.03685E+06         53.9753
            1911     4.85575E-03     155.465E-03     28.5842E-03    -4.18216E-03    -19.5956E-03    -11.6318E-03     20.6203E-03    -4.18216E-03     15.4396E-03     426.604E-03    -211.058E-03    -216.345E-03    -212.698E-03     422.957E-03    -211.058E-03     95.8932E-03    -32.2553E+06    -89.3728E+06    -135.315E+06    -93.7149E+06    -130.973E+06    -32.2553E+06    -12.7064E+06         54.3327
            1912     5.66532E-03     155.545E-03     21.4643E-03    -3.73498E-03    -13.1643E-03    -3.80018E-03     13.1898E-03    -4.82454E-03    -1.53768E-03     428.951E-03    -211.093E-03    -218.475E-03    -213.688E-03     424.165E-03    -211.093E-03     110.369E-03    -13.3706E+06    -78.0021E+06    -116.236E+06    -84.5151E+06    -109.723E+06    -13.3706E+06    -14.0327E+06         54.7383
            1913     6.47340E-03     155.645E-03     14.3404E-03    -3.44850E-03    -10.1119E-03     292.423E-06     5.02566E-03    -4.53807E-03     2.37769E-03     431.485E-03    -211.412E-03    -220.078E-03    -214.176E-03     425.583E-03    -211.412E-03     122.984E-03     5.23591E+06    -66.6587E+06    -98.4564E+06    -74.6212E+06    -90.4940E+06     5.23591E+06    -13.6060E+06         55.1576
            1914     7.28194E-03     155.729E-03     17.2950E-03    -4.18232E-03    -15.0611E-03    -3.35850E-03     5.59239E-03    -4.18232E-03    -1.73724E-03     433.413E-03    -212.061E-03    -221.665E-03    -214.770E-03     426.519E-03    -212.061E-03     133.333E-03     22.4059E+06    -53.4254E+06    -80.9327E+06    -65.1194E+06    -69.2387E+06     22.4059E+06    -12.8539E+06         55.7911
            1915     8.09080E-03     155.830E-03     17.2974E-03    -3.38879E-03    -13.9519E-03    -5.54763E-03     9.65201E-03    -4.14766E-03    -3.81431E-03     436.400E-03    -212.701E-03    -224.515E-03    -216.777E-03     428.662E-03    -212.701E-03     141.927E-03     37.0137E+06    -37.9030E+06    -65.4686E+06    -56.7640E+06    -46.6076E+06     37.0137E+06    -12.1440E+06         56.9247
            1916     8.89751E-03     155.943E-03     14.3092E-03    -3.59072E-03    -12.1430E-03    -7.58263E-03     10.5077E-03    -4.34960E-03     7.05739E-03     441.445E-03    -212.735E-03    -228.940E-03    -220.532E-03     433.038E-03    -212.735E-03     149.078E-03     48.4381E+06    -17.8068E+06    -54.4519E+06    -48.5966E+06    -23.6621E+06     48.4381E+06    -12.4000E+06         58.7021
            1917     9.70247E-03     156.061E-03     10.4640E-03    -3.67550E-03    -7.85628E-03    -5.02500E-03     8.51940E-03    -4.56214E-03    -1.70386E-03     447.614E-03    -212.939E-03    -234.285E-03    -225.410E-03     438.739E-03    -212.939E-03     154.541E-03     58.7575E+06     1.44382E+06    -44.9653E+06    -41.5181E+06    -2.00344E+06     58.7575E+06    -11.1700E+06         61.1241
            1918     10.5017E-03     156.197E-03     9.80112E-03    -1.86012E-03    -4.41978E-03     1.69819E-03     6.24281E-03    -4.41978E-03    -6.91243E-03     455.193E-03    -214.014E-03    -240.952E-03    -231.724E-03     445.965E-03    -214.014E-03     159.236E-03     71.5890E+06     33.2327E+06    -37.5178E+06    -35.3322E+06     31.0471E+06     71.5890E+06    -10.8269E+06         64.1822
            1919     11.2969E-03     156.338E-03     11.4953E-03    -547.455E-06    -4.01216E-03     2.57756E-03     8.37024E-03    -4.01216E-03    -1.98032E-03     464.884E-03    -215.800E-03    -249.682E-03    -239.925E-03     455.127E-03    -215.800E-03     165.843E-03     83.5520E+06     69.8734E+06    -30.5791E+06    -29.5395E+06     69.6174E+06     82.7684E+06    -9.10003E+06         68.0645
            1920     12.0820E-03     156.542E-03     14.2550E-03    -464.679E-06    -5.17781E-03    -231.404E-06     12.5534E-03    -3.70950E-03    -4.95138E-03     476.200E-03    -217.909E-03    -258.664E-03    -249.202E-03     466.737E-03    -217.909E-03     165.544E-03     98.6593E+06     83.5813E+06    -23.2993E+06    -22.7408E+06     83.8064E+06     97.8757E+06    -4.83634E+06         73.0156
            1921     12.8610E-03     156.762E-03     18.0145E-03    -2.18699E-03    -6.80468E-03    -2.81364E-03     15.4766E-03    -3.64013E-03    -11.1327E-03     490.233E-03    -219.603E-03    -270.014E-03    -258.989E-03     479.207E-03    -219.603E-03     180.994E-03     108.893E+06     84.5708E+06    -16.2705E+06    -15.0823E+06     83.3825E+06     108.893E+06    -1.62464E+06         78.3494
            1922     13.6342E-03     156.972E-03     18.0706E-03    -3.51955E-03    -7.07472E-03    -5.29523E-03     16.5377E-03    -3.76614E-03    -609.183E-06     496.872E-03    -221.791E-03    -274.650E-03    -265.283E-03     487.505E-03    -221.791E-03     165.148E-03     128.261E+06     96.7924E+06    -10.0279E+06    -8.87878E+06     95.6433E+06     128.261E+06    -1.02147E+06         82.6499
            1923     817.200E-06     156.676E-03     36.1117E-03     6.62992E-03    -36.9450E-03    -6.19457E-03    -6.36154E-03     18.3527E-03     29.9035E-03     403.447E-03    -200.176E-03    -203.333E-03    -200.445E-03     403.216E-03    -202.833E-03     21.6477E-03    -120.078E+06    -127.924E+06    -230.065E+06    -126.234E+06    -229.908E+06    -121.925E+06    -2.23336E+06         51.5655
            1924     1.63281E-03     156.709E-03     28.8279E-03     2.98690E-03    -28.3149E-03    -6.35950E-03     6.87247E-03     2.98690E-03    -27.9260E-03     405.175E-03    -201.740E-03    -203.432E-03    -202.730E-03     404.473E-03    -201.740E-03     40.0375E-03    -109.928E+06    -119.551E+06    -209.777E+06     -119.51E+06    -209.350E+06    -110.396E+06    -5.76818E+06         51.6755
            1925     2.44837E-03     156.764E-03     27.4109E-03    -648.540E-06    -23.4837E-03    -13.6075E-03     18.9028E-03    -2.01664E-03    -28.9511E-03     406.790E-03    -202.360E-03    -204.464E-03    -203.017E-03     405.343E-03    -202.360E-03     58.3581E-03    -92.0035E+06    -111.468E+06    -191.746E+06    -112.609E+06    -190.604E+06    -92.0035E+06    -8.56809E+06         51.8718
            1926     3.26499E-03     156.822E-03     24.5132E-03    -3.79167E-03    -17.0813E-03    -10.1357E-03     18.9356E-03    -5.15977E-03    -16.6263E-03     408.490E-03    -202.660E-03    -205.318E-03    -202.825E-03     405.997E-03    -202.660E-03     77.1140E-03    -71.7454E+06    -104.387E+06    -173.429E+06    -106.562E+06    -171.254E+06    -71.7454E+06    -11.0860E+06         52.1205
            1927     4.08190E-03     156.900E-03     24.8241E-03    -5.13665E-03    -14.7542E-03    -9.69502E-03     21.1541E-03    -6.52581E-03    -6.40382E-03     409.591E-03    -202.674E-03    -206.697E-03    -202.936E-03     405.831E-03    -202.674E-03     95.1581E-03    -48.2645E+06    -93.2070E+06    -149.445E+06    -95.5881E+06    -147.063E+06    -48.2645E+06    -11.0254E+06         52.4043
            1928     4.89905E-03     156.964E-03     23.4922E-03    -5.06603E-03    -13.3490E-03    -6.57989E-03     18.7515E-03    -7.09449E-03    -5.32025E-03     410.527E-03    -202.841E-03    -208.656E-03    -203.560E-03     405.431E-03    -202.841E-03     111.125E-03    -23.3475E+06    -83.4397E+06    -125.109E+06    -85.8758E+06    -122.673E+06    -23.3475E+06    -9.55152E+06         52.7864
            1929     5.71614E-03     157.052E-03     20.0265E-03    -5.10692E-03    -13.5567E-03    -837.659E-06     8.99387E-03    -6.79335E-03    -23.0001E-03     413.848E-03    -202.757E-03    -211.947E-03    -205.444E-03     407.345E-03    -202.757E-03     126.226E-03    -3.45928E+06    -73.4667E+06    -107.622E+06    -77.7785E+06    -103.310E+06    -3.45928E+06    -10.5051E+06         53.3221
            1930     6.53204E-03     157.152E-03     13.6579E-03    -4.77319E-03    -11.6159E-03     5.01530E-03    -1.92616E-03    -5.82031E-03    -14.1427E-03     419.091E-03    -202.722E-03    -216.434E-03    -208.688E-03     411.345E-03    -202.722E-03     139.012E-03     12.6673E+06    -64.2010E+06    -93.2088E+06    -70.0837E+06    -87.3262E+06     12.6673E+06    -10.9045E+06         53.9720
            1931     7.34443E-03     157.259E-03     12.1554E-03    -4.89560E-03    -11.9941E-03     2.67709E-03    -2.51581E-03    -4.89560E-03    -5.55642E-03     425.311E-03    -203.479E-03    -221.385E-03    -212.723E-03     416.650E-03    -203.479E-03     148.409E-03     28.6225E+06    -54.0794E+06    -75.4250E+06    -63.1243E+06    -66.3801E+06     28.6225E+06    -9.33426E+06         54.8580
            1932     8.15370E-03     157.368E-03     15.9092E-03    -4.06651E-03    -13.5526E-03    -4.58302E-03     7.51491E-03    -4.64174E-03    -448.718E-06     431.829E-03    -204.894E-03    -227.385E-03    -218.008E-03     422.452E-03    -204.894E-03     155.961E-03     42.7680E+06    -38.3059E+06    -61.0822E+06    -56.1516E+06    -43.2365E+06     42.7680E+06    -8.00716E+06         56.2748
            1933     8.95888E-03     157.492E-03     17.2842E-03    -3.31437E-03    -11.8198E-03    -7.00814E-03     13.9907E-03    -4.83254E-03     7.18107E-03     440.108E-03    -206.279E-03    -234.968E-03    -225.242E-03     430.382E-03    -206.279E-03     160.798E-03     53.2567E+06    -19.0005E+06    -53.7341E+06    -51.1115E+06    -21.6230E+06     53.2567E+06    -6.39987E+06         58.3301
            1934     9.75830E-03     157.615E-03     15.1775E-03    -3.66859E-03    -7.50165E-03    -4.62325E-03     13.5673E-03    -4.93679E-03    -2.33126E-03     450.736E-03    -207.665E-03    -243.746E-03    -234.003E-03     440.993E-03    -207.665E-03     163.316E-03     63.6951E+06     4.15565E+06    -47.4991E+06    -45.4423E+06     2.09884E+06     63.6951E+06    -6.69125E+06         60.9702
            1935     10.5521E-03     157.756E-03     14.4967E-03    -3.33186E-03    -6.07758E-03    -1.01857E-03     10.8822E-03    -4.77633E-03    -7.20241E-03     462.710E-03    -209.420E-03    -253.493E-03    -243.836E-03     453.053E-03    -209.420E-03     165.182E-03     75.7142E+06     36.4992E+06    -41.0978E+06    -39.9300E+06     35.3314E+06     75.7142E+06    -7.58247E+06         64.2514
            1936     11.3350E-03     157.935E-03     11.6153E-03    -141.335E-06    -5.68034E-03     1.84031E-03     8.40926E-03    -4.45595E-03    -103.926E-06     476.107E-03    -211.812E-03    -264.156E-03    -254.274E-03     466.224E-03    -211.812E-03     169.910E-03     83.8139E+06     69.0379E+06    -34.5351E+06    -33.5968E+06     68.0996E+06     83.8139E+06    -7.39908E+06         68.4280
            1937     12.1101E-03     158.161E-03     12.6007E-03    -1.00576E-03    -6.31377E-03    -246.069E-06     9.72839E-03    -4.20117E-03    -71.2030E-06     488.330E-03    -214.968E-03    -273.391E-03    -263.888E-03     478.827E-03    -214.968E-03     168.947E-03     95.7434E+06     76.7740E+06    -26.7396E+06    -26.0852E+06     76.1196E+06     95.7434E+06    -5.65432E+06         73.6146
            1938     12.8761E-03     158.395E-03     16.1362E-03    -4.22250E-03    -8.80806E-03    -6.50977E-03     13.8379E-03    -4.22250E-03    -1.36596E-03     502.246E-03    -217.977E-03    -283.880E-03    -272.704E-03     491.070E-03    -217.977E-03     185.243E-03     105.969E+06     78.7958E+06    -19.4294E+06    -18.2708E+06     77.6371E+06     105.969E+06    -1.95735E+06         79.0049
            1939     13.6471E-03     158.616E-03     11.9345E-03    -3.64637E-03    -6.83915E-03    -5.72980E-03     11.5450E-03    -4.36619E-03    -1.45218E-03     508.853E-03    -221.222E-03    -287.917E-03    -278.371E-03     499.307E-03    -221.222E-03     169.404E-03     127.857E+06     95.8177E+06    -9.09365E+06    -8.02147E+06     94.7455E+06     127.857E+06    -2.01401E+06         83.2673
            1940     825.154E-06     158.151E-03     44.0232E-03    -9.54337E-03    -34.8768E-03    -15.1998E-03     36.0482E-03    -21.2453E-03     26.0738E-03     382.386E-03    -189.317E-03    -193.119E-03    -189.441E-03     382.041E-03    -192.650E-03     25.9706E-03    -115.393E+06    -121.225E+06    -219.834E+06    -120.109E+06    -219.571E+06    -116.773E+06    -3.19864E+06         49.6484
            1941     1.65083E-03     158.178E-03     27.0638E-03    -7.70584E-03    -19.8413E-03    -9.74221E-03     26.0499E-03    -16.7909E-03    -2.37119E-03     383.628E-03    -190.938E-03    -192.333E-03    -191.338E-03     382.633E-03    -190.938E-03     46.4943E-03    -103.720E+06    -114.441E+06    -197.381E+06    -115.122E+06    -196.700E+06    -103.720E+06    -7.11394E+06         49.7146
            1942     2.47674E-03     158.229E-03     17.9736E-03    -6.38334E-03    -16.5785E-03    -5.85449E-03     14.7770E-03    -13.9108E-03    -10.3004E-03     384.566E-03    -191.022E-03    -193.183E-03    -191.128E-03     382.511E-03    -191.022E-03     67.6134E-03    -87.5968E+06    -107.207E+06    -183.194E+06    -108.361E+06    -182.041E+06    -87.5968E+06    -8.85024E+06         49.8746
            1943     3.30257E-03     158.288E-03     23.2862E-03    -9.13873E-03    -16.3995E-03    -1.43080E-03     10.5909E-03    -11.4121E-03     5.90040E-03     386.417E-03    -190.999E-03    -194.922E-03    -191.394E-03     382.889E-03    -190.999E-03     89.2065E-03    -65.0089E+06    -98.7974E+06    -164.420E+06    -100.492E+06    -162.725E+06    -65.0089E+06    -8.85577E+06         50.1911
            1944     4.12877E-03     158.357E-03     23.4225E-03    -7.88565E-03    -18.1355E-03    -887.146E-06     7.56335E-03    -9.27481E-03     22.3704E-03     389.072E-03    -190.994E-03    -197.609E-03    -192.374E-03     383.837E-03    -190.994E-03     109.473E-03    -44.0718E+06    -92.9081E+06    -145.752E+06    -95.0199E+06    -143.641E+06    -44.0718E+06    -9.33881E+06         50.6187
            1945     4.95479E-03     158.446E-03     14.5441E-03    -5.66318E-03    -12.1074E-03    -832.377E-06     5.29763E-03    -7.69165E-03     11.6812E-03     392.513E-03    -191.545E-03    -201.670E-03    -194.700E-03     385.544E-03    -191.545E-03     127.278E-03    -22.8560E+06    -85.7643E+06    -123.783E+06    -87.5503E+06    -121.997E+06    -22.8560E+06    -7.36337E+06         51.1264
            1946     5.77887E-03     158.547E-03     18.0724E-03    -6.19358E-03    -14.1122E-03    -5.17642E-03     9.77593E-03    -6.83289E-03    -13.1557E-03     398.958E-03    -192.242E-03    -207.233E-03    -198.680E-03     390.404E-03    -192.242E-03     142.554E-03    -1.30615E+06    -78.4254E+06    -101.160E+06    -79.9117E+06    -99.6734E+06    -1.30615E+06    -4.53774E+06         51.8297
            1947     6.59984E-03     158.645E-03     22.5285E-03    -6.89394E-03    -18.2317E-03    -10.6592E-03     14.9560E-03    -6.89394E-03    -15.5375E-03     406.890E-03    -192.852E-03    -214.457E-03    -204.677E-03     397.110E-03    -192.852E-03     154.402E-03     16.0613E+06    -69.9085E+06    -88.4210E+06    -74.4128E+06    -83.9166E+06     16.0613E+06    -3.31326E+06         52.7761
            1948     7.41543E-03     158.768E-03     20.1772E-03    -7.14111E-03    -14.7650E-03    -5.91039E-03     11.3226E-03    -7.14111E-03    -5.41791E-03     417.120E-03    -193.899E-03    -223.896E-03    -213.331E-03     406.555E-03    -193.899E-03     163.018E-03     29.6565E+06    -59.1195E+06    -75.0332E+06    -68.8332E+06    -65.3195E+06     29.6565E+06    -2.01733E+06         54.0075
            1949     8.22421E-03     158.886E-03     15.3648E-03    -6.28563E-03    -10.6908E-03     1.26286E-03     3.98638E-03    -6.86086E-03    -1.30345E-03     429.966E-03    -195.722E-03    -234.365E-03    -223.420E-03     419.021E-03    -195.722E-03     169.032E-03     41.9297E+06    -41.1250E+06    -65.3226E+06    -63.7526E+06    -42.6950E+06     41.9297E+06    -198.704E+03         55.7354
            1950     9.02482E-03     159.020E-03     13.7810E-03    -4.63166E-03    -10.2755E-03     5.78951E-03    -765.844E-06    -6.14983E-03    -3.04776E-03     444.200E-03    -198.492E-03    -245.226E-03    -234.314E-03     433.288E-03    -198.492E-03     172.053E-03     53.4051E+06    -15.7800E+06    -59.8456E+06    -58.1479E+06    -17.4777E+06     53.4051E+06    -1.44531E+03         58.0518
            1951     9.81738E-03     159.167E-03     14.9845E-03    -4.40686E-03    -10.2399E-03     5.38132E-03     306.180E-06    -5.34980E-03    -5.31300E-03     458.329E-03    -201.964E-03    -256.888E-03    -246.313E-03     447.755E-03    -201.964E-03     172.603E-03     64.1159E+06     11.1190E+06    -53.2836E+06    -52.4229E+06     10.2582E+06     64.1159E+06    -2.48653E+06         60.8963
            1952     10.5999E-03     159.330E-03     12.9586E-03    -4.86691E-03    -7.77388E-03    -1.55536E-03     6.74006E-03    -4.86691E-03    -1.80435E-03     473.022E-03    -205.169E-03    -268.933E-03    -258.815E-03     462.904E-03    -205.169E-03     172.060E-03     75.1733E+06     44.0805E+06    -45.8174E+06    -44.5424E+06     42.8055E+06     75.1733E+06    -6.06251E+06         64.3907
            1953     11.3735E-03     159.525E-03     9.50663E-03    -2.86084E-03    -7.73178E-03    -4.97774E-03     8.66137E-03    -4.76962E-03    -1.79792E-03     488.566E-03    -208.653E-03    -280.349E-03    -270.213E-03     478.430E-03    -208.653E-03     175.392E-03     81.5442E+06     69.6370E+06    -36.8262E+06    -35.7969E+06     68.6077E+06     81.5442E+06    -7.83742E+06         68.8464
            1954     12.1365E-03     159.762E-03     8.04032E-03    -2.84067E-03    -7.21572E-03    -2.83785E-03     5.57124E-03    -4.74945E-03     6.11188E-03     500.746E-03    -212.588E-03    -288.338E-03    -278.747E-03     491.154E-03    -212.588E-03     172.729E-03     91.3764E+06     73.2737E+06    -29.1041E+06    -27.9278E+06     72.0975E+06     91.3764E+06    -7.35042E+06         74.2261
            1955     12.8976E-03     159.996E-03     9.77108E-03    -4.65077E-03    -7.98125E-03    -1.21054E-03     3.00037E-03    -4.65077E-03     3.10981E-03     514.036E-03    -216.684E-03    -297.337E-03    -286.264E-03     502.964E-03    -216.684E-03     187.376E-03     102.626E+06     75.5920E+06    -19.2173E+06    -17.8546E+06     74.2293E+06     102.626E+06    -8.73168E+06         79.6107
            1956     13.6519E-03     160.277E-03     7.43658E-03    -2.77659E-03    -6.96325E-03    -157.341E-06     2.32655E-03    -4.47247E-03    -4.78378E-03     518.196E-03    -220.953E-03    -298.563E-03    -289.186E-03     508.818E-03    -220.953E-03     169.962E-03     123.436E+06     89.8272E+06    -7.56672E+06    -6.99755E+06     89.2580E+06     123.436E+06    -4.74319E+06         83.8067
            1957     836.882E-06     159.596E-03     46.4760E-03    -13.6622E-03    -36.2116E-03     1.87632E-03     29.1822E-03    -34.4562E-03     24.1719E-03     355.183E-03    -175.972E-03    -178.962E-03    -177.273E-03     354.685E-03    -177.163E-03     30.4073E-03    -113.504E+06    -117.047E+06    -208.630E+06    -114.843E+06    -208.420E+06    -115.919E+06    -3.84046E+06         47.3394
            1958     1.67375E-03     159.621E-03     20.3799E-03    -4.56926E-03    -21.1684E-03    -3.88332E-03     12.1800E-03    -13.6543E-03     12.0962E-03     355.837E-03    -177.164E-03    -178.610E-03    -177.191E-03     354.418E-03    -177.164E-03     53.3445E-03    -105.900E+06    -114.044E+06    -186.390E+06    -113.688E+06    -185.922E+06    -106.723E+06    -5.38773E+06         47.4437
            1959     2.51160E-03     159.664E-03     14.0501E-03    -4.27593E-03    -18.9112E-03    -8.06909E-03     9.36740E-03    -10.4353E-03     7.30316E-03     357.365E-03    -176.991E-03    -180.266E-03    -177.379E-03     354.478E-03    -176.991E-03     77.2152E-03    -91.2747E+06    -112.222E+06    -176.433E+06    -113.126E+06    -175.528E+06    -91.2747E+06    -6.81942E+06         47.6666
            1960     3.35006E-03     159.725E-03     12.9286E-03    -8.27102E-03    -17.2813E-03    -4.69927E-03     1.25184E-03    -9.17630E-03     8.54109E-03     360.986E-03    -176.921E-03    -183.634E-03    -178.856E-03     356.208E-03    -176.921E-03     100.639E-03    -69.8806E+06    -106.997E+06    -161.622E+06    -107.859E+06    -160.759E+06    -69.8806E+06    -5.85664E+06         48.0844
            1961     4.18733E-03     159.801E-03     15.0449E-03    -6.46499E-03    -16.6832E-03     3.17853E-03    -3.85969E-03    -7.42207E-03     18.2495E-03     366.505E-03    -177.078E-03    -188.732E-03    -181.876E-03     359.649E-03    -177.078E-03     121.982E-03    -46.8811E+06    -100.360E+06    -142.613E+06    -101.845E+06    -141.128E+06    -46.8811E+06    -2.15583E+06         48.6969
            1962     5.02177E-03     159.881E-03     13.6264E-03    -3.36803E-03    -10.0726E-03     2.42990E-03     3.41277E-03    -5.65692E-03     10.3348E-03     373.677E-03    -178.310E-03    -196.064E-03    -187.136E-03     364.750E-03    -178.310E-03     141.041E-03    -25.9686E+06    -96.6680E+06    -124.974E+06    -97.9453E+06    -123.696E+06    -25.9686E+06     228.454E+03         49.4887
            1963     5.85152E-03     159.990E-03     17.3181E-03    -3.66781E-03    -10.2702E-03    -6.52914E-03     14.9089E-03    -4.99962E-03     4.35934E-03     384.523E-03    -179.881E-03    -205.445E-03    -194.815E-03     373.893E-03    -179.881E-03     156.653E-03    -6.83471E+06    -88.3788E+06    -107.018E+06    -93.4689E+06    -101.928E+06    -6.83471E+06     3.50964E+06         50.4854
            1964     6.67550E-03     160.106E-03     24.2515E-03    -5.37382E-03    -15.7772E-03    -13.7589E-03     22.2332E-03    -5.37382E-03     6.99055E-03     397.734E-03    -181.525E-03    -216.178E-03    -204.333E-03     385.889E-03    -181.525E-03     168.693E-03     11.3680E+06    -74.2002E+06    -94.0305E+06    -87.3912E+06    -80.8395E+06     11.3680E+06     5.57887E+06         51.7468
            1965     7.49145E-03     160.242E-03     26.1831E-03    -5.96396E-03    -18.0976E-03    -14.8769E-03     22.9624E-03    -5.96396E-03     18.3537E-03     412.767E-03    -184.357E-03    -229.684E-03    -217.210E-03     400.294E-03    -184.357E-03     177.176E-03     25.3075E+06    -61.0119E+06    -84.0363E+06    -80.7854E+06    -64.2629E+06     25.3075E+06     5.08070E+06         53.3357
            1966     8.29598E-03     160.394E-03     24.7969E-03    -6.21772E-03    -17.9555E-03    -11.3259E-03     18.1673E-03    -6.21772E-03     21.5909E-03     431.517E-03    -187.540E-03    -244.064E-03    -231.652E-03     419.104E-03    -187.540E-03     181.364E-03     37.9722E+06    -38.8369E+06    -74.9899E+06    -72.3882E+06    -41.4386E+06     37.9722E+06     4.64403E+06         55.3709
            1967     9.09071E-03     160.559E-03     24.2558E-03    -5.99503E-03    -17.9737E-03    -4.15119E-03     10.4333E-03    -5.99503E-03     9.97058E-03     450.512E-03    -191.244E-03    -258.215E-03    -246.231E-03     438.528E-03    -191.244E-03     182.679E-03     51.2081E+06    -10.1994E+06    -64.6808E+06    -63.2481E+06    -11.6320E+06     51.2081E+06     3.11467E+06         57.9274
            1968     9.87290E-03     160.731E-03     23.4326E-03    -5.50395E-03    -16.4440E-03    -270.074E-06     7.25866E-03    -5.50395E-03     10.1662E-03     467.998E-03    -196.066E-03    -272.315E-03    -261.001E-03     456.685E-03    -196.066E-03     181.544E-03     64.2230E+06     22.1604E+06    -54.9425E+06    -53.9176E+06     21.1355E+06     64.2230E+06    -483.203E+03         60.9800
            1969     10.6451E-03     160.921E-03     16.9752E-03    -3.75925E-03    -9.43214E-03    -89.4479E-06     8.95333E-03    -5.08009E-03     6.00716E-03     485.519E-03    -200.833E-03    -285.581E-03    -275.045E-03     474.982E-03    -200.833E-03     178.963E-03     75.2808E+06     57.2024E+06    -45.9168E+06    -44.8425E+06     56.1282E+06     75.2808E+06    -5.50525E+06         64.6788
            1970     11.4061E-03     161.144E-03     13.6862E-03    -3.58502E-03    -6.64998E-03    -4.17548E-03     12.5326E-03    -4.90585E-03    -2.95299E-03     501.243E-03    -205.904E-03    -296.591E-03    -286.383E-03     491.036E-03    -205.904E-03     179.296E-03     81.2834E+06     76.0703E+06    -39.0716E+06    -37.2147E+06     74.2495E+06     81.2473E+06    -10.2673E+06         69.3465
            1971     12.1605E-03     161.402E-03     14.9764E-03    -4.95275E-03    -8.66142E-03    -6.74032E-03     13.0553E-03    -4.95275E-03    -340.898E-06     512.928E-03    -210.968E-03    -302.880E-03    -293.475E-03     503.523E-03    -210.968E-03     173.924E-03     88.5613E+06     72.8720E+06    -28.2866E+06    -25.9962E+06     70.6177E+06     88.5252E+06    -13.1947E+06         74.8377
            1972     12.9051E-03     161.675E-03     14.2315E-03    -4.97810E-03    -10.5250E-03    -3.32776E-03     7.03434E-03    -4.97810E-03    -10.2282E-03     524.364E-03    -215.710E-03    -309.043E-03    -298.340E-03     513.661E-03    -215.710E-03     186.800E-03     99.0687E+06     72.9925E+06    -19.1302E+06    -17.0618E+06     70.9242E+06     99.0687E+06    -13.2571E+06         80.1653
            1973     13.6532E-03     161.967E-03     8.82342E-03    -3.05319E-03    -8.32064E-03     331.524E-06     1.96758E-03    -4.84952E-03    -10.4008E-03     524.454E-03    -220.535E-03    -305.357E-03    -296.266E-03     515.363E-03    -220.535E-03     169.084E-03     118.512E+06     79.1428E+06    -11.9311E+06    -10.7583E+06     77.9700E+06     118.512E+06    -8.44371E+06         84.2668
            1974     851.105E-06     160.991E-03     33.8574E-03     624.782E-06    -31.7479E-03     11.2959E-03    -94.3376E-06    -8.46729E-03    -9.99409E-03     321.519E-03    -158.508E-03    -162.794E-03    -162.166E-03     320.892E-03    -158.508E-03     32.2523E-03    -121.144E+06    -125.075E+06    -200.690E+06    -122.897E+06    -200.416E+06    -123.596E+06    -3.05537E+06         44.7903
            1975     1.70384E-03     161.000E-03     14.2825E-03     790.917E-06    -16.3387E-03    -2.81040E-03     754.179E-06     790.917E-06     1.56056E-03     323.512E-03    -160.685E-03    -162.941E-03    -161.068E-03     321.638E-03    -160.685E-03     58.6134E-03    -115.455E+06    -123.409E+06    -183.690E+06    -122.873E+06    -183.366E+06    -116.315E+06    -486.559E+03         45.0485
            1976     2.55553E-03     161.036E-03     13.2222E-03    -1.41965E-03    -17.5365E-03    -10.7750E-03     6.46063E-03    -1.41965E-03     5.48949E-03     327.392E-03    -160.896E-03    -166.860E-03    -163.131E-03     323.664E-03    -160.896E-03     84.5180E-03    -98.9374E+06    -123.546E+06    -174.381E+06    -124.526E+06    -173.401E+06    -98.9374E+06     2.30371E+06         45.4744
            1977     3.40468E-03     161.100E-03     18.9336E-03    -4.28338E-03    -20.2653E-03    -16.8023E-03     15.4706E-03    -4.28338E-03     4.28013E-03     334.452E-03    -161.271E-03    -173.038E-03    -167.101E-03     328.515E-03    -161.271E-03     108.466E-03    -80.0836E+06    -122.823E+06    -167.192E+06    -126.423E+06    -163.592E+06    -80.0836E+06     4.86364E+06         46.0855
            1978     4.25116E-03     161.170E-03     19.3502E-03    -5.22823E-03    -17.5474E-03    -11.3008E-03     14.0606E-03    -6.18531E-03     9.75245E-03     344.167E-03    -162.506E-03    -181.575E-03    -173.277E-03     335.869E-03    -162.506E-03     130.596E-03    -60.2018E+06    -119.840E+06    -150.054E+06    -125.367E+06    -144.527E+06    -60.2018E+06     7.02965E+06         46.9218
            1979     5.09285E-03     161.267E-03     14.8793E-03    -3.85771E-03    -10.4871E-03     691.458E-06     5.98958E-03    -6.14661E-03     7.69627E-03     356.630E-03    -164.692E-03    -192.108E-03    -181.560E-03     346.082E-03    -164.692E-03     150.448E-03    -36.4478E+06    -109.498E+06    -133.144E+06    -118.200E+06    -124.442E+06    -36.4478E+06     9.27273E+06         48.0413
            1980     5.92723E-03     161.384E-03     19.0713E-03    -3.98000E-03    -11.0433E-03     1.53131E-03     7.82853E-03    -5.31181E-03     1.78750E-03     372.244E-03    -167.430E-03    -205.090E-03    -192.706E-03     359.861E-03    -167.430E-03     167.167E-03    -15.0105E+06    -93.3773E+06    -119.434E+06    -109.353E+06    -103.458E+06    -15.0105E+06     9.70453E+06         49.3988
            1981     6.75265E-03     161.540E-03     25.6038E-03    -4.90469E-03    -14.9639E-03    -672.541E-06     11.3124E-03    -4.90469E-03    -18.2584E-03     391.644E-03    -170.632E-03    -220.460E-03    -206.869E-03     378.053E-03    -170.632E-03     180.317E-03     3.96297E+06    -74.0126E+06    -103.750E+06    -98.2734E+06    -79.4896E+06     3.96297E+06     8.91250E+06         50.9827
            1982     7.56521E-03     161.705E-03     30.1666E-03    -4.79411E-03    -20.8388E-03    -577.419E-06     9.90529E-03    -4.79411E-03    -15.2260E-03     412.605E-03    -174.886E-03    -237.611E-03    -223.570E-03     398.564E-03    -174.886E-03     188.968E-03     19.6213E+06    -56.5938E+06    -89.8225E+06    -86.3460E+06    -60.0703E+06     19.6213E+06     6.95290E+06         52.8896
            1983     8.36609E-03     161.894E-03     31.9835E-03    -4.80278E-03    -25.2662E-03    -2.88400E-03     9.60133E-03    -4.80278E-03    -13.2312E-03     435.590E-03    -179.868E-03    -255.549E-03    -241.780E-03     421.822E-03    -179.868E-03     193.046E-03     33.7501E+06    -34.1753E+06    -76.3398E+06    -74.3712E+06    -36.1439E+06     33.7501E+06     3.17768E+06         55.1939
            1984     9.15156E-03     162.089E-03     26.9419E-03    -4.87345E-03    -19.5439E-03    -4.15040E-03     11.5484E-03    -4.87345E-03    -8.44471E-03     458.348E-03    -185.030E-03    -272.837E-03    -259.898E-03     445.409E-03    -185.030E-03     192.683E-03     48.7036E+06    -3.73163E+06    -63.1237E+06    -61.9867E+06    -4.86858E+06     48.7036E+06     458.885E+03         57.9529
            1985     9.92419E-03     162.301E-03     21.0354E-03    -4.91691E-03    -13.5765E-03    -5.87151E-03     13.3304E-03    -4.91691E-03     11.8218E-03     479.422E-03    -191.082E-03    -288.391E-03    -276.541E-03     467.573E-03    -191.082E-03     189.166E-03     64.0654E+06     32.8719E+06    -51.6100E+06    -50.3293E+06     31.5912E+06     64.0654E+06    -2.29232E+06         61.1844
            1986     10.6851E-03     162.516E-03     16.5691E-03    -3.67897E-03    -12.4261E-03    -7.54933E-03     13.0132E-03    -4.99981E-03     10.2916E-03     498.451E-03    -197.296E-03    -302.053E-03    -291.293E-03     487.691E-03    -197.296E-03     184.246E-03     80.8602E+06     67.6988E+06    -40.4938E+06    -39.0864E+06     69.7931E+06     77.3586E+06    -7.46885E+06         65.0379
            1987     11.4371E-03     162.750E-03     11.7284E-03    -3.80835E-03    -9.79168E-03    -6.58806E-03     9.84565E-03    -5.12919E-03    -2.86155E-03     513.873E-03    -203.188E-03    -312.262E-03    -302.235E-03     503.846E-03    -203.188E-03     180.877E-03     88.6457E+06     81.9671E+06    -30.0517E+06    -27.7896E+06     83.2426E+06     85.1081E+06    -12.0297E+06         69.8244
            1988     12.1782E-03     163.022E-03     10.9829E-03    -5.26442E-03    -9.32626E-03    -5.88841E-03     7.54508E-03    -5.26442E-03    -5.36223E-03     524.886E-03    -209.413E-03    -316.565E-03    -307.455E-03     515.776E-03    -209.413E-03     173.991E-03     91.0032E+06     75.2583E+06    -22.5624E+06    -20.0340E+06     72.7658E+06     90.9672E+06    -14.0631E+06         75.3378
            1989     12.9162E-03     163.310E-03     16.1318E-03    -5.44116E-03    -14.0649E-03    -7.11159E-03     9.17847E-03    -5.44116E-03    -20.2466E-03     532.134E-03    -215.170E-03    -317.976E-03    -307.782E-03     521.941E-03    -215.170E-03     184.318E-03     99.6645E+06     67.6005E+06    -16.4544E+06    -14.2583E+06     65.4044E+06     99.6645E+06    -11.3889E+06         80.5671
            1990     13.6564E-03     163.639E-03     14.1948E-03    -5.00629E-03    -12.9432E-03    -4.81081E-03     6.63615E-03    -5.57997E-03    -22.5839E-03     528.320E-03    -220.222E-03    -309.430E-03    -300.804E-03     519.693E-03    -220.222E-03     165.985E-03     118.537E+06     65.9882E+06    -9.06674E+06    -7.64404E+06     64.5655E+06     118.537E+06    -8.33527E+06         84.5653
            1991     868.597E-06     162.331E-03     39.1128E-03     16.5916E-03    -43.8655E-03     5.92394E-03    -12.6006E-03     18.5156E-03     17.0734E-03     286.178E-03    -140.713E-03    -145.466E-03    -144.772E-03     285.484E-03    -140.713E-03     31.8532E-03    -138.329E+06    -148.195E+06    -212.734E+06    -148.475E+06    -208.077E+06    -142.706E+06     8.08040E+06         42.6994
            1992     1.73493E-03     162.323E-03     25.7037E-03     5.26299E-03    -21.2151E-03    -12.5173E-03     15.0819E-03     7.18696E-03     8.92224E-03     290.922E-03    -143.526E-03    -147.483E-03    -145.342E-03     288.781E-03    -143.526E-03     59.5103E-03    -134.886E+06    -149.288E+06    -200.682E+06    -156.296E+06    -193.637E+06    -134.924E+06     12.9941E+06         43.0741
            1993     2.59898E-03     162.355E-03     35.9817E-03    -916.742E-06    -27.4553E-03    -18.9588E-03     27.4852E-03    -916.742E-06    -11.0039E-03     298.357E-03    -144.481E-03    -153.946E-03    -149.702E-03     294.113E-03    -144.481E-03     86.4064E-03    -118.304E+06    -145.059E+06    -195.127E+06    -157.835E+06    -182.351E+06    -118.304E+06     17.4220E+06         43.6622
            1994     3.45983E-03     162.419E-03     38.7605E-03    -4.41660E-03    -26.2348E-03    -13.1021E-03     26.4657E-03    -5.25451E-03    -19.8501E-03     309.488E-03    -146.046E-03    -163.535E-03    -156.852E-03     302.806E-03    -146.046E-03     111.174E-03    -95.2522E+06    -138.466E+06    -181.825E+06    -155.011E+06    -165.280E+06    -95.2522E+06     17.9318E+06         44.4819
            1995     4.31388E-03     162.508E-03     34.3634E-03    -6.24313E-03    -24.1743E-03    -12.1530E-03     23.1800E-03    -7.08104E-03    -11.7618E-03     323.660E-03    -148.647E-03    -175.647E-03    -166.408E-03     314.421E-03    -148.647E-03     134.315E-03    -70.4386E+06    -129.347E+06    -163.790E+06    -146.674E+06    -146.463E+06    -70.4386E+06     16.3269E+06         45.5635
            1996     5.16076E-03     162.633E-03     29.1021E-03    -8.15187E-03    -20.6279E-03    -11.6870E-03     20.1612E-03    -8.15187E-03    -3.72272E-03     341.556E-03    -151.868E-03    -189.787E-03    -178.203E-03     329.971E-03    -151.868E-03     155.077E-03    -47.2342E+06    -112.649E+06    -145.447E+06    -135.424E+06    -122.673E+06    -47.2342E+06     12.8141E+06         46.9396
            1997     5.99813E-03     162.785E-03     25.5219E-03    -6.69779E-03    -14.4430E-03    -2.41502E-03     15.1824E-03    -8.38635E-03    -2.89496E-03     362.418E-03    -155.780E-03    -206.589E-03    -193.153E-03     348.981E-03    -155.780E-03     172.762E-03    -25.6468E+06    -94.8092E+06    -125.043E+06    -120.471E+06    -99.3816E+06    -25.6468E+06     7.87549E+06         48.5940
            1998     6.82256E-03     162.961E-03     26.8022E-03    -5.92872E-03    -14.7723E-03     882.751E-06     13.0776E-03    -7.85916E-03    -26.5358E-03     387.078E-03    -160.528E-03    -225.994E-03    -211.444E-03     372.528E-03    -160.528E-03     186.624E-03    -5.91290E+06    -73.3367E+06    -107.903E+06    -104.955E+06    -76.2853E+06    -5.91290E+06     4.16276E+06         50.4938
            1999     7.63266E-03     163.168E-03     28.9345E-03    -6.95022E-03    -16.4506E-03     2.02362E-03     10.7022E-03    -7.19211E-03    -22.3789E-03     413.127E-03    -165.994E-03    -246.657E-03    -231.738E-03     398.208E-03    -165.994E-03     196.141E-03     11.8241E+06    -50.7631E+06    -91.1191E+06    -88.7213E+06    -53.1609E+06     11.8241E+06    -898.246E+03         52.6665
            2000     8.42634E-03     163.394E-03     27.7042E-03    -5.57726E-03    -17.7389E-03     3.72467E-03     7.15126E-03    -6.48791E-03    -22.7425E-03     440.365E-03    -172.524E-03    -267.461E-03    -252.995E-03     425.899E-03    -172.524E-03     200.172E-03     28.1640E+06    -26.7805E+06    -74.3094E+06    -72.5011E+06    -28.5888E+06     28.1640E+06    -5.21989E+06         55.1626
            2001     9.20447E-03     163.643E-03     20.2802E-03    -4.94806E-03    -12.8844E-03     3.11926E-03     5.18719E-03    -5.85871E-03    -12.9950E-03     467.319E-03    -179.350E-03    -286.991E-03    -273.738E-03     454.067E-03    -179.350E-03     198.014E-03     45.1745E+06     3.21520E+06    -59.4999E+06    -57.1678E+06     883.163E+03     45.1745E+06    -8.13121E+06         58.0601
            2002     9.96579E-03     163.901E-03     12.3613E-03    -5.10197E-03    -8.32687E-03    -1.52070E-03     6.03895E-03    -5.58582E-03     1.35655E-03     490.781E-03    -186.887E-03    -303.614E-03    -291.693E-03     478.860E-03    -186.887E-03     193.017E-03     62.6719E+06     38.2288E+06    -44.5205E+06    -42.6552E+06     36.3635E+06     62.6719E+06    -9.29703E+06         61.3967
            2003     10.7153E-03     164.165E-03     13.1102E-03    -5.18435E-03    -11.4800E-03    -3.89080E-03     6.00491E-03    -5.66820E-03    -5.34929E-03     510.648E-03    -194.438E-03    -317.401E-03    -306.745E-03     499.992E-03    -194.438E-03     186.484E-03     86.1099E+06     72.4414E+06    -32.3920E+06    -30.2624E+06     77.5585E+06     78.8632E+06    -10.6493E+06         65.3176
            2004     11.4547E-03     164.429E-03     12.3585E-03    -5.63037E-03    -11.5327E-03    -2.57054E-03     3.51071E-03    -5.74470E-03    -16.1352E-03     526.273E-03    -201.029E-03    -326.574E-03    -316.935E-03     516.634E-03    -201.029E-03     180.199E-03       94.51E+06     84.3184E+06    -24.7897E+06    -22.4113E+06     89.9363E+06     86.5137E+06    -13.4076E+06         70.1240
            2005     12.1874E-03     164.738E-03     9.16308E-03    -5.51717E-03    -9.87799E-03    -2.02503E-03     1.42446E-03    -5.63151E-03    -62.1630E-06     534.922E-03    -208.348E-03    -327.433E-03    -318.862E-03     526.351E-03    -208.348E-03     170.839E-03     91.9800E+06     71.7006E+06    -17.7537E+06    -15.2755E+06     69.9719E+06     91.2303E+06    -10.5711E+06         75.5836
            2006     12.9176E-03     165.032E-03     13.0564E-03    -5.40790E-03    -13.5198E-03    -3.63359E-03     3.17024E-03    -5.40790E-03     1.58964E-03     536.840E-03    -214.927E-03    -323.341E-03    -314.141E-03     527.640E-03    -214.927E-03     176.330E-03     101.332E+06     63.7255E+06    -11.2154E+06    -9.15795E+06     61.6680E+06     101.332E+06    -7.57807E+06         80.6942
            2007     13.6561E-03     165.329E-03     13.1024E-03    -4.77585E-03    -11.8120E-03    -4.28100E-03     5.94716E-03    -5.15158E-03    -9.02495E-03     528.613E-03    -220.114E-03    -310.021E-03    -302.260E-03     520.852E-03    -220.114E-03     158.100E-03     120.365E+06     57.3731E+06    -6.12064E+06    -4.85770E+06     56.1102E+06     120.365E+06    -6.04638E+06         84.5835
            2008     882.662E-06     163.633E-03     28.0518E-03     13.1433E-03    -38.8474E-03     1.13421E-03    -13.9497E-03     15.1631E-03     56.7000E-03     255.942E-03    -125.844E-03    -130.083E-03    -129.389E-03     255.248E-03    -125.844E-03     30.2146E-03    -196.049E+06    -210.761E+06    -252.836E+06    -215.191E+06    -237.704E+06    -206.750E+06     15.0525E+06         41.5724
            2009     1.76138E-03     163.619E-03     30.2710E-03     1.30129E-03    -26.2651E-03    -17.0525E-03     19.1343E-03     3.22525E-03     34.8929E-03     262.933E-03    -128.846E-03    -134.703E-03    -132.575E-03     260.805E-03    -128.846E-03     56.6276E-03    -172.849E+06    -187.337E+06    -235.915E+06    -204.591E+06    -215.040E+06    -176.469E+06     23.8901E+06         41.9800
            2010     2.63646E-03     163.645E-03     48.0938E-03    -4.77189E-03    -35.4041E-03    -22.6856E-03     35.3753E-03    -4.77189E-03     2.84423E-03     274.038E-03    -130.774E-03    -143.359E-03    -139.127E-03     269.807E-03    -130.774E-03     82.9652E-03    -143.459E+06    -164.420E+06    -221.394E+06    -190.224E+06    -195.591E+06    -143.459E+06     26.3630E+06         42.6385
            2011     3.50545E-03     163.729E-03     43.3377E-03    -7.52393E-03    -28.4312E-03    -13.9414E-03     29.6859E-03    -8.36185E-03    -17.2447E-03     289.085E-03    -133.686E-03    -155.237E-03    -148.528E-03     282.375E-03    -133.686E-03     108.000E-03    -111.413E+06    -144.952E+06    -197.682E+06    -175.578E+06    -167.055E+06    -111.413E+06     24.7783E+06         43.5707
            2012     4.36612E-03     163.838E-03     35.0547E-03    -4.51411E-03    -23.7805E-03    -7.13889E-03     22.7288E-03    -8.82977E-03    -8.83319E-03     307.325E-03    -137.306E-03    -170.332E-03    -161.030E-03     298.024E-03    -137.306E-03     131.838E-03    -82.4773E+06    -128.577E+06    -171.888E+06    -159.631E+06    -140.835E+06    -82.4773E+06     17.1130E+06         44.7945
            2013     5.21668E-03     163.979E-03     34.2748E-03    -4.96990E-03    -25.9875E-03    -8.17498E-03     19.9401E-03    -8.44764E-03     8.77304E-03     329.285E-03    -141.671E-03    -188.284E-03    -176.663E-03     317.665E-03    -141.671E-03     153.299E-03    -57.5417E+06    -110.770E+06    -146.409E+06    -141.476E+06    -115.704E+06    -57.5417E+06     8.08081E+06         46.3227
            2014     6.05439E-03     164.156E-03     29.0443E-03    -6.22774E-03    -21.6662E-03    -8.65665E-03     17.7233E-03    -7.91629E-03     27.4906E-03     354.899E-03    -146.873E-03    -208.513E-03    -195.204E-03     341.590E-03    -146.873E-03     171.103E-03    -35.1351E+06    -85.2469E+06    -126.825E+06    -124.067E+06    -88.0052E+06    -35.1351E+06     195.873E+03         48.1628
            2015     6.87790E-03     164.377E-03     17.2120E-03    -5.22310E-03    -11.0613E-03    -6.84995E-03     14.9310E-03    -7.15354E-03     8.00536E-03     383.969E-03    -152.887E-03    -230.895E-03    -216.689E-03     369.763E-03    -152.887E-03     184.683E-03    -15.0983E+06    -64.2371E+06    -109.014E+06    -104.628E+06    -68.6227E+06    -15.0983E+06    -8.16202E+06         50.2773
            2016     7.68348E-03     164.624E-03     17.6286E-03    -6.23088E-03    -10.9816E-03    -8.58692E-03     15.4758E-03    -6.47277E-03     14.9372E-03     414.053E-03    -159.792E-03    -254.377E-03    -239.973E-03     399.649E-03    -159.792E-03     193.992E-03     4.92080E+06    -40.7898E+06    -89.7961E+06    -85.3438E+06    -45.2420E+06     4.92080E+06    -13.0270E+06         52.6143
            2017     8.47194E-03     164.900E-03     23.5056E-03    -5.26933E-03    -15.0119E-03    -10.2845E-03     19.6889E-03    -6.17998E-03    -1.32303E-03     444.276E-03    -167.567E-03    -276.707E-03    -262.855E-03     430.423E-03    -167.567E-03     197.734E-03     22.9134E+06    -14.5776E+06    -74.9969E+06    -68.7809E+06    -20.7937E+06     22.9134E+06    -17.5220E+06         55.2131
            2018     9.24083E-03     165.196E-03     22.8702E-03    -5.24550E-03    -13.6236E-03    -9.07534E-03     19.2326E-03    -6.15615E-03    -2.44393E-03     473.361E-03    -175.512E-03    -297.364E-03    -284.628E-03     460.626E-03    -175.512E-03     196.295E-03     39.7646E+06     8.13028E+06    -60.4250E+06    -53.8085E+06     1.51373E+06     39.7646E+06    -19.1477E+06         58.1711
            2019     9.99517E-03     165.494E-03     17.9279E-03    -5.64623E-03    -10.0805E-03    -7.21419E-03     15.5454E-03    -6.13008E-03     11.6880E-03     498.406E-03    -183.718E-03    -314.779E-03    -303.211E-03     486.838E-03    -183.718E-03     192.440E-03     57.0804E+06     38.4955E+06    -46.0515E+06    -41.6755E+06     34.1195E+06     57.0804E+06    -17.3753E+06         61.5197
            2020     10.7361E-03     165.794E-03     20.5692E-03    -5.33787E-03    -12.8477E-03    -2.87822E-03     11.0836E-03    -5.82172E-03     5.31947E-03     519.298E-03    -192.171E-03    -328.689E-03    -318.356E-03     508.965E-03    -192.171E-03     185.872E-03     83.1329E+06     69.7511E+06    -36.4113E+06    -33.9189E+06     76.3188E+06     74.0727E+06    -14.8053E+06         65.4030
            2021     11.4680E-03     166.081E-03     19.9551E-03    -5.14236E-03    -12.3740E-03    -1.68361E-03     9.37905E-03    -5.25670E-03    -1.31435E-03     535.239E-03    -199.943E-03    -336.585E-03    -327.355E-03     526.008E-03    -199.943E-03     178.388E-03     94.4156E+06     81.5366E+06    -29.9172E+06    -27.7532E+06     89.1825E+06     84.6058E+06    -12.2456E+06         70.1197
            2022     12.1920E-03     166.387E-03     13.6198E-03    -3.81610E-03    -8.65975E-03    -2.29127E-03     8.13890E-03    -4.70371E-03     6.38943E-03     541.559E-03    -207.944E-03    -334.298E-03    -326.141E-03     533.403E-03    -207.944E-03     168.126E-03     90.9662E+06     75.2757E+06    -25.6303E+06    -22.1469E+06      72.542E+06     90.2166E+06    -13.0634E+06         75.4510
            2023     12.9183E-03     166.683E-03     11.2465E-03    -3.03263E-03    -7.49690E-03     117.885E-06     4.77421E-03    -4.17513E-03     9.99139E-03     539.292E-03    -214.769E-03    -325.699E-03    -317.089E-03     530.682E-03    -214.769E-03     171.317E-03     98.1592E+06     61.1547E+06    -18.3243E+06    -13.8737E+06     56.7041E+06     98.1592E+06    -14.1035E+06         80.4379
            2024     13.6539E-03     167.006E-03     13.1616E-03    -2.91427E-03    -7.37900E-03     1.23467E-03     5.29286E-03    -3.65923E-03    -5.17398E-03     527.812E-03    -220.095E-03    -309.111E-03    -301.831E-03     520.532E-03    -220.095E-03     153.446E-03     119.788E+06     43.5500E+06    -7.09309E+06    -4.60922E+06     41.0661E+06     119.788E+06    -5.24620E+06         84.2575
            2025     890.237E-06     164.896E-03     47.2306E-03    -12.5627E-03    -37.5188E-03    -17.1391E-03     38.6524E-03    -24.3641E-03     24.6466E-03     238.835E-03    -117.324E-03    -121.604E-03    -121.039E-03     238.270E-03    -117.324E-03     26.4836E-03    -247.799E+06    -318.774E+06    -336.443E+06    -326.031E+06    -255.978E+06    -321.007E+06    -791.089E+03         41.4317
            2026     1.77776E-03     164.888E-03     32.7070E-03    -3.09771E-03    -27.7546E-03     7.53741E-03     9.27378E-03    -14.9565E-03     26.9971E-03     246.471E-03    -120.418E-03    -126.500E-03    -124.776E-03     244.746E-03    -120.418E-03     49.1819E-03    -215.352E+06    -275.728E+06    -305.932E+06    -292.124E+06    -230.545E+06    -274.342E+06     337.662E+03         41.8347
            2027     2.65892E-03     164.935E-03     34.0071E-03    -7.25701E-03    -25.1823E-03     5.75945E-03     3.06536E-03    -7.25701E-03     8.69261E-03     259.088E-03    -123.000E-03    -136.051E-03    -132.511E-03     255.549E-03    -123.000E-03     73.6412E-03    -177.557E+06    -221.254E+06    -266.704E+06    -250.250E+06    -201.771E+06    -213.493E+06     610.400E+03         42.5071
            2028     3.53341E-03     165.019E-03     28.8491E-03    -5.24633E-03    -21.0365E-03    -8.58373E-03     16.3963E-03    -5.24633E-03     6.54559E-03     275.772E-03    -126.185E-03    -149.046E-03    -143.279E-03     270.004E-03    -126.185E-03     97.8038E-03    -138.344E+06    -168.847E+06    -225.973E+06    -205.829E+06    -170.813E+06    -156.522E+06    -990.611E+03         43.4643
            2029     4.39826E-03     165.143E-03     25.4020E-03    -1.81655E-03    -17.8279E-03    -8.68206E-03     19.7339E-03    -5.29429E-03     10.6033E-03     296.621E-03    -130.223E-03    -166.222E-03    -158.127E-03     288.526E-03    -130.223E-03     121.019E-03    -104.648E+06    -131.040E+06    -175.921E+06    -165.906E+06    -135.777E+06    -109.926E+06    -3.22764E+06         44.7204
            2030     5.24980E-03     165.314E-03     26.0518E-03    -1.11181E-03    -18.7253E-03    -1.68559E-03     12.4898E-03    -4.58956E-03     19.8129E-03     321.826E-03    -135.443E-03    -187.047E-03    -176.923E-03     311.702E-03    -135.443E-03     141.865E-03    -73.3467E+06    -101.283E+06    -142.493E+06    -136.772E+06    -107.004E+06    -73.3467E+06    -7.36303E+06         46.2876
            2031     6.08657E-03     165.529E-03     26.4078E-03    -3.76537E-03    -19.6907E-03    -4.56535E-03     11.2824E-03    -3.76537E-03     25.0564E-03     351.225E-03    -142.025E-03    -209.591E-03    -198.084E-03     339.718E-03    -142.025E-03     158.734E-03    -42.5981E+06    -70.3400E+06    -120.197E+06    -112.513E+06    -78.0249E+06    -42.5981E+06    -12.1971E+06         48.1672
            2032     6.90532E-03     165.787E-03     18.9980E-03    -3.75894E-03    -15.6357E-03    -9.69854E-03     13.0608E-03    -3.75894E-03    -9.58609E-03     382.766E-03    -149.062E-03    -233.387E-03    -221.214E-03     370.593E-03    -149.062E-03     171.165E-03    -19.0634E+06    -50.4513E+06    -101.896E+06    -95.2952E+06    -57.0517E+06    -19.0634E+06    -17.0785E+06         50.3185
            2033     7.70650E-03     166.073E-03     16.9998E-03    -4.31766E-03    -14.5958E-03    -11.0309E-03     13.4349E-03    -4.31766E-03     758.192E-06     414.534E-03    -156.905E-03    -257.876E-03    -245.684E-03     402.342E-03    -156.905E-03     179.021E-03     1.27886E+06    -26.0951E+06     -92.058E+06    -82.6898E+06    -35.4632E+06     1.27886E+06    -22.9871E+06         52.6912
            2034     8.48775E-03     166.397E-03     20.7048E-03    -4.99459E-03    -18.5978E-03    -11.2281E-03     13.3350E-03    -4.99459E-03    -13.9967E-03     445.736E-03    -165.767E-03    -280.151E-03    -268.445E-03     434.030E-03    -165.767E-03     182.401E-03     19.2669E+06    -3.84796E+06    -82.2132E+06    -72.3603E+06    -13.7008E+06     19.2669E+06    -25.8219E+06         55.3154
            2035     9.25393E-03     166.737E-03     22.4031E-03    -5.27474E-03    -19.0529E-03    -6.16410E-03     9.51437E-03    -5.27474E-03    -10.7202E-03     474.312E-03    -174.446E-03    -299.930E-03    -289.033E-03     463.415E-03    -174.446E-03     181.929E-03     33.9472E+06     13.6522E+06    -74.8054E+06    -64.4344E+06     3.28121E+06     33.9472E+06    -28.3415E+06         58.2511
            2036     10.0030E-03     167.104E-03     17.8648E-03    -4.80565E-03    -13.1146E-03     1.01839E-03     3.73185E-03    -4.80565E-03     15.9769E-03     499.409E-03    -183.171E-03    -316.964E-03    -307.045E-03     489.491E-03    -183.171E-03     178.362E-03     49.8107E+06     39.9646E+06    -64.9276E+06    -54.2501E+06     29.2872E+06     49.8107E+06    -30.3697E+06         61.5066
            2037     10.7388E-03     167.472E-03     18.0219E-03    -3.99375E-03    -14.2473E-03     1.47529E-03     2.29928E-03    -3.99375E-03     11.3083E-03     519.497E-03    -191.851E-03    -329.237E-03    -320.319E-03     510.579E-03    -191.851E-03     172.613E-03     72.9991E+06     60.6472E+06    -47.0715E+06    -40.6993E+06     59.5901E+06     67.6840E+06    -23.6273E+06         65.2309
            2038     11.4648E-03     167.821E-03     16.8021E-03    -3.38853E-03    -14.3416E-03    -1.06584E-03     3.52635E-03    -3.38853E-03     2.18846E-03     533.477E-03    -200.035E-03    -334.084E-03    -325.828E-03     525.222E-03    -200.035E-03     168.245E-03     90.9150E+06     76.1207E+06    -30.7155E+06    -27.8999E+06     78.6202E+06     85.5999E+06    -15.2526E+06         69.7386
            2039     12.1913E-03     168.143E-03     10.6651E-03    -2.30547E-03    -10.1018E-03    -3.73958E-03     5.07619E-03    -3.07874E-03    -455.319E-06     539.101E-03    -207.990E-03    -330.911E-03    -323.281E-03     531.471E-03    -207.990E-03     162.076E-03     101.106E+06     83.8542E+06    -19.8993E+06    -16.2274E+06     80.1823E+06     101.106E+06    -12.7587E+06         74.8987
            2040     12.9186E-03     168.451E-03     8.62266E-03    -1.75529E-03    -6.32936E-03    -2.45253E-03     5.88834E-03    -2.89779E-03    -1.27970E-03     537.332E-03    -214.736E-03    -322.731E-03    -314.804E-03     529.406E-03    -214.736E-03     163.952E-03     107.383E+06     61.1542E+06    -15.9971E+06    -12.2470E+06     57.4041E+06     107.383E+06    -9.42550E+06         79.8159
            2041     13.6592E-03     168.704E-03     13.8188E-03    -2.30036E-03    -7.91810E-03     944.273E-06     5.32566E-03    -2.66959E-03    -7.61327E-03     527.431E-03    -220.074E-03    -307.774E-03    -301.132E-03     520.789E-03    -220.074E-03     146.572E-03     119.868E+06     30.7167E+06    -18.3865E+06    -12.5700E+06     24.9002E+06     119.868E+06    -5.92164E+06         83.5834
            2042     889.432E-06     166.148E-03     74.9349E-03    -1.44975E-03    -53.9475E-03    -34.2257E-03     62.3640E-03    -8.60064E-03     48.3499E-03     241.241E-03    -119.212E-03    -122.094E-03    -121.791E-03     240.939E-03    -119.212E-03     19.0929E-03    -224.783E+06    -360.223E+06    -370.414E+06    -363.864E+06    -229.100E+06    -362.456E+06    -20.7068E+06         42.2796
            2043     1.77593E-03     166.154E-03     46.8832E-03    -4.65139E-03    -30.6476E-03     4.29015E-03     23.8042E-03    -16.5102E-03     35.6743E-03     246.708E-03    -121.149E-03    -125.602E-03    -124.640E-03     245.745E-03    -121.149E-03     35.4647E-03    -196.444E+06    -325.855E+06    -353.726E+06    -342.877E+06    -207.292E+06    -325.855E+06    -38.0984E+06         42.6327
            2044     2.65990E-03     166.200E-03     32.4492E-03    -9.00735E-03    -24.4050E-03     5.67701E-03     2.36724E-03    -9.00735E-03     8.54093E-03     256.980E-03    -123.311E-03    -133.469E-03    -131.328E-03     254.838E-03    -123.311E-03     55.5813E-03    -166.678E+06    -277.473E+06    -325.597E+06    -305.453E+06    -186.821E+06    -277.473E+06    -50.6062E+06         43.2550
            2045     3.53460E-03     166.298E-03     18.8319E-03    -5.31191E-03    -13.8339E-03     8.35739E-03    -3.35944E-03    -5.31191E-03    -15.2387E-03     272.779E-03    -126.202E-03    -145.874E-03    -142.178E-03     269.083E-03    -126.202E-03     76.5665E-03    -137.938E+06    -227.507E+06    -291.024E+06    -265.189E+06    -163.773E+06    -227.507E+06    -55.6735E+06         44.1690
            2046     4.39958E-03     166.449E-03     23.3574E-03    -3.18077E-03    -16.7422E-03     6.86126E-03    -246.010E-06    -3.18077E-03    -22.6265E-03     293.778E-03    -130.765E-03    -163.249E-03    -157.867E-03     288.396E-03    -130.765E-03     97.1058E-03    -103.807E+06    -181.386E+06    -254.218E+06    -225.347E+06    -134.354E+06    -179.710E+06    -57.4071E+06         45.3771
            2047     5.24968E-03     166.649E-03     20.3552E-03    -2.59031E-03    -15.9220E-03    -2.31766E-03     6.75091E-03    -2.59031E-03    -9.96672E-03     319.901E-03    -136.500E-03    -184.455E-03    -177.584E-03     313.030E-03    -136.500E-03     115.500E-03    -73.5039E+06    -136.668E+06    -215.621E+06    -184.914E+06    -108.980E+06    -131.898E+06    -56.2628E+06         46.8771
            2048     6.08143E-03     166.903E-03     15.8655E-03    -2.96101E-03    -9.57373E-03    -3.90342E-03     10.2637E-03    -3.02946E-03     3.62320E-03     350.480E-03    -143.434E-03    -207.609E-03    -199.737E-03     342.608E-03    -143.434E-03     130.169E-03    -45.1504E+06    -97.2098E+06    -181.706E+06    -152.888E+06    -83.3188E+06    -87.8594E+06    -52.8988E+06         48.6577
            2049     6.89527E-03     167.197E-03     20.5080E-03    -3.74743E-03    -15.4576E-03    -8.84121E-03     13.9600E-03    -3.81589E-03    -23.6044E-03     382.427E-03    -151.109E-03    -231.203E-03    -222.874E-03     374.098E-03    -151.109E-03     140.439E-03    -18.6758E+06    -60.7346E+06    -151.602E+06    -122.662E+06    -59.5405E+06    -48.8098E+06    -50.6757E+06         50.6957
            2050     7.68900E-03     167.528E-03     19.0230E-03    -4.71564E-03    -15.3988E-03    -10.4219E-03     14.0461E-03    -4.71564E-03    -10.3679E-03     413.503E-03    -159.508E-03    -253.857E-03    -245.578E-03     405.224E-03    -159.508E-03     146.081E-03    -2.52128E+06    -27.1240E+06    -121.192E+06    -94.9838E+06    -42.0602E+06    -13.7931E+06    -44.3643E+06         52.9820
            2051     8.46669E-03     167.890E-03     18.2136E-03    -4.91140E-03    -11.8813E-03    -2.47120E-03     8.80351E-03    -4.91140E-03    -11.1868E-03     442.758E-03    -168.752E-03    -273.886E-03    -265.955E-03     434.828E-03    -168.752E-03     148.356E-03     15.9647E+06    -678.883E+03    -93.8046E+06     -73.416E+06    -21.0675E+06     15.9647E+06    -36.7728E+06         55.5253
            2052     9.22637E-03     168.283E-03     19.3085E-03    -4.00727E-03    -11.6888E-03     3.03484E-03     4.79008E-03    -4.21247E-03    -14.1801E-03     469.774E-03    -178.060E-03    -291.429E-03    -283.976E-03     462.321E-03    -178.060E-03     148.449E-03     42.4446E+06     24.4909E+06    -69.5405E+06    -52.4417E+06     7.39213E+06     42.4446E+06    -34.5825E+06         58.3286
            2053     9.97419E-03     168.683E-03     18.0699E-03    -3.23564E-03    -11.7149E-03     1.19690E-03     5.36331E-03    -3.44084E-03     5.32947E-03     492.827E-03    -187.150E-03    -306.050E-03    -299.111E-03     485.888E-03    -187.150E-03     147.242E-03     62.2577E+06     40.7527E+06    -49.4819E+06    -36.3613E+06     27.6321E+06     62.2577E+06    -31.4806E+06         61.3853
            2054     10.7105E-03     169.078E-03     18.7215E-03    -3.06518E-03    -12.2304E-03     1.09419E-03     5.39691E-03    -3.06518E-03    -7.66543E-03     508.991E-03    -195.053E-03    -314.768E-03    -308.192E-03     502.415E-03    -195.053E-03     146.145E-03     75.7000E+06     52.2589E+06    -32.6579E+06    -23.8030E+06     43.4040E+06     75.7000E+06    -25.0884E+06         64.8604
            2055     11.4461E-03     169.435E-03     14.9027E-03    -1.72869E-03    -8.79094E-03     5.74669E-03     1.36134E-03    -2.72496E-03    -16.1054E-03     519.761E-03    -202.185E-03    -316.682E-03    -310.233E-03     513.312E-03    -202.185E-03     146.048E-03     93.1809E+06     65.9302E+06    -17.1373E+06    -12.6850E+06     61.4779E+06     93.1809E+06    -16.5052E+06         69.0751
            2056     12.1837E-03     169.740E-03     12.4277E-03    -1.26772E-03    -9.53522E-03     3.63140E-03     257.309E-06    -2.26399E-03     145.156E-06     524.501E-03    -209.209E-03    -314.208E-03    -308.045E-03     518.338E-03    -209.209E-03     142.971E-03     111.212E+06     70.6197E+06    -11.7878E+06    -10.0823E+06     68.9142E+06     111.212E+06    -5.44062E+06         73.9976
            2057     12.9194E-03     170.080E-03     11.0238E-03    -1.85189E-03    -9.30678E-03     564.799E-06     1.15226E-03    -1.85189E-03     3.21870E-03     525.296E-03    -215.423E-03    -309.772E-03    -303.509E-03     519.033E-03    -215.423E-03     143.755E-03     120.060E+06     59.1306E+06    -8.40851E+06    -7.36205E+06     58.0842E+06     120.060E+06     1.34749E+06         78.8620
            2058     13.6549E-03     170.411E-03     9.59515E-03    -1.45456E-03    -8.34647E-03     1.92120E-03    -672.518E-06    -1.45456E-03     277.213E-06     519.928E-03    -220.338E-03    -299.462E-03    -294.197E-03     514.663E-03    -220.338E-03     129.719E-03     134.984E+06     35.4685E+06    -9.87117E+06     383.635E+03     25.2137E+06     134.984E+06     1.27170E+06         82.7098
            2059     877.265E-06     167.443E-03     81.7984E-03     9.06322E-03    -71.4638E-03    -47.7891E-03     6.88721E-03     60.2997E-03     13.6104E-03     268.768E-03    -133.575E-03    -135.233E-03    -134.270E-03     268.683E-03    -134.452E-03     4.62699E-03    -148.680E+06    -268.508E+06    -283.518E+06    -272.634E+06    -159.563E+06    -268.508E+06    -32.9924E+06         44.3017
            2060     1.75511E-03     167.426E-03     42.9039E-03     3.25744E-03    -36.7448E-03    -9.22279E-03     15.3819E-03     3.25744E-03     6.71008E-03     269.709E-03    -133.615E-03    -135.857E-03    -135.189E-03     269.446E-03    -134.021E-03     11.9873E-03    -127.145E+06    -255.175E+06    -287.085E+06    -265.512E+06    -148.717E+06    -255.175E+06    -52.5309E+06         44.5530
            2061     2.62902E-03     167.470E-03     31.2276E-03    -886.904E-06    -27.5665E-03    -11.8997E-03     15.5608E-03    -886.904E-06     38.9564E-03     276.215E-03    -135.300E-03    -140.354E-03    -139.723E-03     275.584E-03    -135.300E-03     23.4218E-03    -111.328E+06    -236.227E+06    -292.397E+06    -261.043E+06    -142.681E+06    -236.227E+06    -67.9343E+06         45.0595
            2062     3.49880E-03     167.595E-03     32.6597E-03    -2.64924E-03    -31.1898E-03    -11.4690E-03     12.9389E-03    -2.64924E-03     19.7992E-03     287.667E-03    -137.971E-03    -149.857E-03    -148.659E-03     286.469E-03    -137.971E-03     35.0897E-03    -89.0113E+06    -210.232E+06    -291.400E+06    -248.278E+06    -132.134E+06    -210.232E+06    -81.0811E+06         45.8492
            2063     4.35520E-03     167.764E-03     29.5333E-03    -3.28414E-03    -29.7243E-03    -6.63304E-03     6.44208E-03    -3.28414E-03    -4.14659E-03     305.095E-03    -142.496E-03    -163.559E-03    -161.692E-03     303.228E-03    -142.496E-03     46.9049E-03    -61.8022E+06    -178.104E+06    -278.300E+06    -227.397E+06    -112.706E+06    -178.104E+06    -90.1563E+06         46.9012
            2064     5.19761E-03     167.988E-03     17.0330E-03    -3.67596E-03    -19.5542E-03    -6.81253E-03     4.29126E-03    -3.67596E-03     498.062E-06     327.887E-03    -148.198E-03    -180.333E-03    -177.851E-03     325.405E-03    -148.198E-03     58.3088E-03    -40.6949E+06    -144.698E+06    -261.883E+06    -203.673E+06    -98.9049E+06    -144.698E+06    -96.5870E+06         48.2021
            2065     6.02236E-03     168.272E-03     15.2880E-03    -4.07583E-03    -13.1197E-03    -7.22789E-03     9.46465E-03    -4.14429E-03     21.5999E-03     353.478E-03    -154.928E-03    -199.159E-03    -196.240E-03     350.559E-03    -154.928E-03     67.5897E-03    -18.9025E+06    -107.648E+06    -237.517E+06    -170.194E+06    -86.2251E+06    -107.648E+06    -98.7882E+06         49.7545
            2066     6.82762E-03     168.598E-03     15.4083E-03    -3.47884E-03    -10.6518E-03    -6.09483E-03     11.6659E-03    -4.29345E-03     171.725E-06     381.362E-03    -162.551E-03    -218.697E-03    -215.568E-03     378.232E-03    -162.551E-03     74.2338E-03    -6.01380E+06    -72.2105E+06    -205.620E+06    -139.282E+06    -72.3522E+06    -72.2105E+06    -92.6518E+06         51.5598
            2067     7.61626E-03     168.963E-03     12.6966E-03    -3.21388E-03    -10.2934E-03    -5.50458E-03     8.65392E-03    -3.96003E-03    -477.768E-06     407.826E-03    -170.717E-03    -236.481E-03    -233.344E-03     404.689E-03    -170.717E-03     78.2768E-03     1.12900E+06    -46.5965E+06    -178.423E+06    -114.440E+06    -67.0138E+06    -42.4375E+06    -83.8122E+06         53.6125
            2068     8.38634E-03     169.378E-03     11.7923E-03    -3.17802E-03    -8.25180E-03    -1.40077E-03     4.94124E-03    -3.17802E-03    -190.807E-06     431.656E-03    -179.338E-03    -251.894E-03    -248.814E-03     428.576E-03    -179.338E-03     81.5345E-03     17.4615E+06    -20.2750E+06    -147.590E+06    -88.3179E+06    -49.4890E+06    -12.5968E+06    -75.7278E+06         55.9079
            2069     9.14527E-03     169.807E-03     14.4408E-03    -2.25347E-03    -8.92986E-03    -3.71407E-03     9.43016E-03    -2.45867E-03    -8.44482E-03     453.759E-03    -187.964E-03    -265.422E-03    -262.339E-03     450.676E-03    -187.964E-03     86.4161E-03     37.9371E+06     8.20090E+06    -114.144E+06    -68.6805E+06    -18.2728E+06     18.9475E+06    -65.6262E+06         58.4540
            2070     9.89384E-03     170.247E-03     18.1805E-03    -2.08849E-03    -12.0408E-03    -9.16222E-03     15.5071E-03    -2.29369E-03     7.55910E-03     471.013E-03    -195.801E-03    -275.083E-03    -271.816E-03     467.746E-03    -195.801E-03     93.7389E-03     57.6190E+06     29.4717E+06    -88.4069E+06    -54.0385E+06     2.45064E+06     50.2716E+06    -55.2734E+06         61.2586
            2071     10.6414E-03     170.692E-03     17.0973E-03    -2.13519E-03    -9.31468E-03    -4.91271E-03     12.6954E-03    -2.13519E-03     350.287E-06     482.873E-03    -202.402E-03    -280.530E-03    -276.888E-03     479.231E-03    -202.402E-03     102.339E-03     73.1986E+06     39.2787E+06    -66.7670E+06    -42.9926E+06     15.5043E+06     73.1986E+06    -43.0724E+06         64.4942
            2072     11.3890E-03     171.093E-03     13.6988E-03    -617.101E-06    -7.44065E-03    -2.25073E-03     9.50512E-03    -1.61337E-03    -5.81523E-03     492.229E-03    -208.136E-03    -283.439E-03    -279.468E-03     488.259E-03    -208.136E-03     109.013E-03     95.8008E+06     36.6799E+06    -48.5837E+06    -36.6037E+06     24.6999E+06     95.8008E+06    -26.5447E+06         68.4637
            2073     12.1346E-03     171.512E-03     13.2568E-03    -113.492E-06    -10.4459E-03    -1.74218E-03     5.54929E-03    -1.10976E-03     2.19115E-03     499.016E-03    -213.431E-03    -284.801E-03    -280.758E-03     494.973E-03    -213.431E-03     111.260E-03     118.299E+06     44.2531E+06    -26.5005E+06    -22.9596E+06     40.7122E+06     118.299E+06    -8.02045E+06         73.1746
            2074     12.8857E-03     171.851E-03     10.5620E-03    -708.439E-06    -9.51579E-03     3.03244E-03    -1.98620E-03    -708.439E-06    -5.08333E-03     501.835E-03    -218.055E-03    -283.867E-03    -279.499E-03     497.467E-03    -218.055E-03     116.142E-03     122.990E+06     43.4108E+06    -17.7700E+06    -16.5484E+06     42.1892E+06     122.990E+06     796.899E+03         78.0830
            2075     13.6417E-03     172.108E-03     7.47108E-03    -362.490E-06    -8.01077E-03     3.64481E-03    -4.18450E-03    -362.490E-06    -10.2191E-03     497.009E-03    -221.519E-03    -275.876E-03    -272.016E-03     493.149E-03    -221.519E-03     108.022E-03     138.044E+06     34.5825E+06    -19.3899E+06    -12.5851E+06     27.7777E+06     138.044E+06     2.17720E+06         82.2003
            2076     849.563E-06     168.771E-03     142.440E-03     2.27872E-03    -139.039E-03    -108.986E-03    -8.40444E-03     123.070E-03    -12.4309E-03     326.249E-03    -162.399E-03    -163.730E-03    -162.722E-03     326.156E-03    -163.314E-03    -11.4704E-03    -76.2908E+06    -133.464E+06    -150.040E+06    -140.060E+06    -85.4732E+06    -134.261E+06    -18.3511E+06         47.7624
            2077     1.70589E-03     168.760E-03     36.5587E-03     6.89114E-03    -39.3141E-03     7.13845E-03    -9.89383E-03     6.89114E-03    -19.1788E-03     327.038E-03    -162.152E-03    -164.030E-03    -163.170E-03     326.584E-03    -162.557E-03    -22.1699E-03    -67.9616E+06    -138.212E+06    -172.027E+06    -152.714E+06    -87.2742E+06    -138.212E+06    -37.3977E+06         47.9077
            2078     2.56261E-03     168.812E-03     29.2100E-03     6.55685E-03    -33.7158E-03     4.37106E-03    -8.87692E-03     6.55685E-03     1.81305E-03     331.365E-03    -163.998E-03    -166.242E-03    -165.125E-03     330.248E-03    -163.998E-03    -32.9898E-03    -52.3419E+06    -124.704E+06    -183.793E+06    -151.697E+06    -84.4373E+06    -124.704E+06    -55.0202E+06         48.2691
            2079     3.40599E-03     168.935E-03     29.4540E-03     4.65360E-03    -36.5183E-03    -9.54472E-03     2.48039E-03     4.65360E-03     23.2797E-03     337.306E-03    -166.665E-03    -171.037E-03    -168.685E-03     335.469E-03    -167.180E-03    -40.8130E-03    -30.6061E+06    -103.650E+06    -188.780E+06    -140.159E+06    -79.2270E+06    -103.650E+06    -71.3619E+06         48.8721
            2080     4.24129E-03     169.121E-03     26.3800E-03     1.09873E-03    -30.5773E-03    -23.0923E-03     18.8951E-03     1.09873E-03     5.33036E-03     346.975E-03    -170.054E-03    -177.908E-03    -174.240E-03     344.361E-03    -171.108E-03    -47.1718E-03    -14.2835E+06    -82.5967E+06    -186.455E+06    -126.244E+06    -74.4947E+06    -82.5967E+06    -80.7044E+06         49.6730
            2081     5.06325E-03     169.360E-03     23.7905E-03    -2.31326E-03    -25.6461E-03    -21.3981E-03     19.5425E-03    -2.31326E-03    -4.19682E-03     359.977E-03    -173.420E-03    -186.660E-03    -180.663E-03     356.584E-03    -176.024E-03    -51.6647E-03     3.02385E+06    -61.9488E+06    -179.568E+06    -112.755E+06    -63.7885E+06    -61.9488E+06    -86.3290E+06         50.6362
            2082     5.87108E-03     169.657E-03     20.8906E-03    -3.70789E-03    -19.0540E-03    -5.19815E-03     7.03475E-03    -3.70789E-03     13.8005E-03     373.414E-03    -176.633E-03    -197.134E-03    -187.359E-03     369.338E-03    -182.332E-03    -54.8354E-03      9.7926E+06    -47.0523E+06    -176.165E+06    -104.849E+06    -61.5235E+06    -47.0523E+06    -89.9533E+06         51.7553
            2083     6.66474E-03     170.001E-03     14.1477E-03    -2.21700E-03    -14.2828E-03     5.25611E-03    -4.64510E-03    -2.96315E-03     11.7619E-03     387.477E-03    -179.511E-03    -208.060E-03    -194.084E-03     382.971E-03    -188.981E-03    -56.0323E-03     10.9746E+06    -35.0735E+06    -174.469E+06    -99.6525E+06    -63.8416E+06    -35.0735E+06    -90.1173E+06         53.0363
            2084     7.44296E-03     170.404E-03     7.46731E-03    -985.369E-06    -11.0845E-03     1.89722E-03    -4.76822E-03    -1.73153E-03     2.58311E-03     400.395E-03    -181.818E-03    -218.332E-03    -199.769E-03     395.834E-03    -195.819E-03    -54.3024E-03     16.5000E+06    -23.6942E+06    -169.811E+06    -93.2055E+06    -61.3505E+06    -22.4488E+06    -90.4206E+06         54.5476
            2085     8.21200E-03     170.835E-03     7.39213E-03    -1.23955E-03    -7.64329E-03    -3.29225E-03     3.04109E-03    -1.23955E-03    -2.84323E-03     411.018E-03    -183.551E-03    -227.114E-03    -204.043E-03     406.808E-03    -202.412E-03    -48.3560E-03     20.2880E+06    -14.5141E+06    -162.454E+06    -89.8139E+06    -57.0956E+06    -9.77041E+06    -87.1374E+06         56.3898
            2086     8.97461E-03     171.288E-03     13.2611E-03    -1.22938E-03    -9.79676E-03    -3.12135E-03     6.58569E-03    -1.22938E-03    -6.68484E-03     418.849E-03    -183.992E-03    -234.780E-03    -206.653E-03     415.435E-03    -208.705E-03    -34.9213E-03     29.1884E+06     730.431E+03    -146.875E+06    -86.7825E+06    -40.3723E+06     10.1989E+06    -79.4123E+06         58.6068
            2087     9.74036E-03     171.730E-03     16.5566E-03    -825.046E-06    -13.5273E-03     2.44961E-03     579.707E-06    -825.046E-06     7.54600E-03     424.390E-03    -184.334E-03    -239.581E-03    -207.844E-03     421.928E-03    -213.609E-03    -15.0520E-03     47.5923E+06     21.8790E+06    -127.747E+06    -81.3942E+06    -17.1267E+06     40.2450E+06    -71.5136E+06         61.1969
            2088     10.5063E-03     172.206E-03     11.7043E-03     36.6875E-06    -8.18666E-03     3.24811E-03     269.490E-06     36.6875E-06     11.8241E-03     428.393E-03    -185.536E-03    -242.538E-03    -208.880E-03     426.668E-03    -217.469E-03     8.19353E-03     63.0940E+06     22.3301E+06    -107.791E+06    -70.9131E+06    -14.5477E+06     63.0940E+06    -58.4633E+06         64.3184
            2089     11.2796E-03     172.663E-03     12.5324E-03     583.504E-06    -10.3623E-03    -3.44342E-03     5.61355E-03     583.504E-06    -5.84404E-03     433.718E-03    -189.651E-03    -244.848E-03    -212.947E-03     432.290E-03    -220.124E-03     37.0077E-03     83.1932E+06     13.3040E+06    -87.2621E+06    -62.4403E+06    -11.5177E+06     83.1932E+06    -41.8880E+06         68.2740
            2090     12.0554E-03     173.055E-03     12.9519E-03     576.852E-06    -13.9256E-03    -7.64504E-03     6.67139E-03     576.852E-06    -12.6230E-03     444.992E-03    -198.955E-03    -246.190E-03    -221.751E-03     442.932E-03    -221.334E-03     69.6477E-03     104.630E+06     20.7148E+06    -58.7049E+06    -41.1861E+06     3.19599E+06     104.630E+06    -28.6715E+06         73.1852
            2091     12.8320E-03     173.381E-03     9.97380E-03     462.922E-06    -10.1848E-03    -4.37686E-03     4.16583E-03     462.922E-06    -15.7130E-03     457.919E-03    -211.979E-03    -246.017E-03    -231.757E-03     454.164E-03    -222.484E-03     100.285E-03     124.346E+06     31.2029E+06    -36.3553E+06    -17.3473E+06     12.1949E+06     124.346E+06    -11.5608E+06         78.5345
            2092     13.6165E-03     173.666E-03     12.2997E-03     578.285E-06    -11.8800E-03     1.27848E-03    -858.785E-06     578.285E-06    -4.39785E-03     461.423E-03    -220.042E-03    -241.737E-03    -234.708E-03     457.602E-03    -223.251E-03     101.528E-03     147.792E+06     36.0854E+06    -22.5849E+06    -9.78656E+06     23.2870E+06     147.792E+06    -653.820E+03         82.9888
            2093     819.645E-06     170.222E-03     233.614E-03    -7.44616E-03    -224.116E-03    -210.959E-03    -9.24299E-03     222.253E-03     11.5906E-03     432.369E-03    -215.294E-03    -216.894E-03    -215.858E-03     431.371E-03    -215.331E-03    -43.9748E-03    -14.3454E+06    -24.0251E+06    -57.6203E+06    -28.7608E+06    -42.7055E+06    -24.5245E+06    -8.57137E+06         51.6966
            2094     1.62970E-03     170.209E-03     26.4595E-03     3.96518E-03    -20.1887E-03     5.56844E-03    -1.09605E-03     5.76366E-03     4.33942E-03     436.351E-03    -216.054E-03    -219.400E-03    -216.554E-03     433.506E-03    -216.054E-03    -79.7762E-03     517.734E+03    -17.1914E+06    -66.0663E+06    -34.9242E+06    -30.8612E+06    -16.9547E+06    -20.6286E+06         51.8061
            2095     2.43174E-03     170.256E-03     28.0248E-03     4.74376E-03    -29.4780E-03    -66.5353E-06    -1.38672E-03     4.74376E-03    -12.8322E-03     442.040E-03    -218.650E-03    -222.229E-03    -216.027E-03     435.838E-03    -218.650E-03    -121.370E-03     16.7313E+06    -12.9379E+06    -73.5144E+06    -31.0326E+06    -33.0981E+06    -5.59036E+06    -33.9427E+06         52.0701
            2096     3.23285E-03     170.386E-03     23.6142E-03     3.08623E-03    -24.8951E-03     958.956E-06    -2.23982E-03     3.08623E-03     10.0674E-03     446.530E-03    -221.793E-03    -224.533E-03    -211.851E-03     435.208E-03    -223.153E-03    -163.768E-03     29.4838E+06    -6.67379E+06    -75.8804E+06    -29.0381E+06    -30.3020E+06     6.26965E+06    -41.8001E+06         52.4963
            2097     4.02542E-03     170.562E-03     24.2214E-03     1.74073E-03    -22.2040E-03    -2.71570E-03     4.73307E-03     1.74073E-03     13.7341E-03     448.284E-03    -221.733E-03    -227.006E-03    -203.974E-03     430.525E-03    -227.006E-03    -202.923E-03     37.0801E+06    -4.03024E+06    -83.3129E+06    -32.5643E+06    -32.1423E+06     14.4436E+06    -48.7340E+06         53.0358
            2098     4.80718E-03     170.800E-03     23.6848E-03     416.290E-06    -22.0419E-03    -10.7037E-03     12.3466E-03     416.290E-06     21.3232E-06     448.047E-03    -217.154E-03    -231.234E-03    -192.260E-03     423.154E-03    -231.234E-03    -235.902E-03     45.6536E+06    -2.06608E+06    -81.4783E+06    -29.5740E+06    -34.6064E+06     26.2895E+06    -47.8902E+06         53.6328
            2099     5.57792E-03     171.095E-03     16.0616E-03    -198.625E-06    -17.2822E-03    -7.48566E-03     6.26504E-03    -198.625E-06     125.037E-06     445.232E-03    -208.595E-03    -236.834E-03    -177.428E-03     414.065E-03    -236.834E-03    -258.206E-03     46.6241E+06     3.85706E+06    -82.5222E+06    -37.3587E+06    -30.4976E+06     35.8152E+06    -46.2226E+06         54.2272
            2100     6.34315E-03     171.435E-03     12.8645E-03     54.9748E-06    -20.2794E-03    -3.13891E-03    -4.27599E-03     54.9748E-06     3.84905E-03     438.022E-03    -196.524E-03    -241.059E-03    -161.067E-03     402.564E-03    -241.059E-03    -267.356E-03     55.1797E+06     5.68423E+06    -85.3325E+06    -39.3503E+06    -30.3126E+06     45.1943E+06    -48.4348E+06         54.7916
            2101     7.10210E-03     171.830E-03     8.65512E-03     40.9188E-06    -18.3638E-03    -6.01128E-03    -3.69744E-03     40.9188E-06     3.67849E-03     426.532E-03    -181.764E-03    -245.071E-03    -144.688E-03     389.456E-03    -245.071E-03    -263.450E-03     64.0804E+06     6.72650E+06    -79.1374E+06    -36.5063E+06    -29.2507E+06     57.4264E+06    -44.8413E+06         55.5355
            2102     7.86307E-03     172.252E-03     12.2215E-03    -397.546E-06    -14.1892E-03    -5.77202E-03     3.80433E-03    -397.546E-06     9.14987E-03     412.595E-03    -165.142E-03    -248.100E-03    -129.722E-03     377.175E-03    -248.100E-03    -246.863E-03     69.0390E+06     12.9932E+06    -77.3401E+06    -38.3268E+06    -26.0201E+06     69.0390E+06    -43.4691E+06         56.8077
            2103     8.63417E-03     172.690E-03     13.1830E-03    -194.033E-06    -10.9648E-03     2.74192E-03    -523.716E-06    -194.033E-06     2.25255E-03     396.415E-03    -147.653E-03    -248.815E-03    -115.991E-03     364.753E-03    -248.815E-03    -220.596E-03     79.4388E+06     13.4973E+06    -73.0650E+06    -36.4171E+06    -23.1506E+06     79.4388E+06    -40.3358E+06         58.7157
            2104     9.41856E-03     173.141E-03     13.3702E-03     718.186E-06    -11.0536E-03     6.03400E-03    -3.71744E-03     718.186E-06    -1.06799E-03     378.251E-03    -129.616E-03    -248.395E-03    -103.671E-03     352.306E-03    -248.395E-03    -184.475E-03     90.7463E+06     12.0722E+06    -62.2667E+06    -35.7448E+06    -14.4496E+06     90.7463E+06    -32.7822E+06         61.1796
            2105     10.2137E-03     173.644E-03     13.3095E-03     1.47208E-03    -10.4871E-03     4.43756E-03    -1.61512E-03     1.47208E-03     8.50491E-03     361.404E-03    -114.543E-03    -246.773E-03    -96.0205E-03     342.881E-03    -246.773E-03    -141.108E-03     101.037E+06     16.4137E+06    -54.6240E+06    -34.4058E+06    -3.80449E+06     101.037E+06    -31.1852E+06         64.3037
            2106     11.0371E-03     174.105E-03     14.9447E-03     1.88104E-03    -12.4463E-03     1.97281E-03     525.582E-06     1.88104E-03     5.19816E-03     350.924E-03    -108.312E-03    -242.998E-03    -96.0364E-03     338.648E-03    -242.998E-03    -94.7649E-03     103.576E+06     10.9404E+06    -51.1746E+06    -27.8047E+06    -12.4295E+06     103.576E+06    -24.4096E+06         68.4334
            2107     11.8944E-03     174.510E-03     12.1596E-03     2.18059E-03    -9.72420E-03    -1.36237E-03     3.79772E-03     2.18059E-03    -1.97604E-03     349.947E-03    -112.248E-03    -237.909E-03    -103.880E-03     341.579E-03    -237.909E-03    -45.6953E-03     110.938E+06     16.6642E+06    -49.8255E+06    -27.6717E+06    -5.48957E+06     110.938E+06    -24.6300E+06         73.8048
            2108     12.7559E-03     174.892E-03     8.34351E-03     2.56248E-03    -8.21201E-03    -2.29647E-03     2.42797E-03     2.56248E-03    -2.87113E-03     358.363E-03    -125.608E-03    -233.024E-03    -119.848E-03     352.604E-03    -233.024E-03     3.12714E-03     125.462E+06     15.5055E+06    -46.1078E+06    -15.7936E+06    -14.8087E+06     125.462E+06    -15.9539E+06         79.7787
            2109     13.5952E-03     175.242E-03     13.4472E-03     2.89404E-03    -15.3797E-03    -2.64353E-03     711.012E-06     2.89404E-03     3.72047E-03     365.937E-03    -138.038E-03    -228.102E-03    -134.879E-03     362.778E-03    -228.102E-03     36.8274E-03     132.965E+06     27.5954E+06    -23.5581E+06     1.26668E+06     2.77059E+06     132.965E+06    -3.26426E+06         84.7974


