********************************************************************************
Field Output Report, written Mon May  5 20:18:41 2025

Source 1
---------

   ODB: D:/AISI_1020/Vel_10/1020_2a_16_rd_1000_cal_10_v_10_fric_050.odb
   Step: Step-1
   Frame: Increment  10123468: Step Time =    1.345

Loc 1 : Nodal values from source 1

Output sorted by column "Node Label".

Field Output reported at nodes for region: DIE_2A_16_D0_36-1.Region_1
   Computation algorithm: EXTRAPOLATE_COMPUTE_AVERAGE
   Averaged at nodes
   Averaging regions: ODB_REGIONS

      Node Label     COORD.COOR1     COORD.COOR2
                          @Loc 1          @Loc 1
-------------------------------------------------
               1     18.4546E-03     189.806E-03


Field Output reported at nodes for region: DIE_2A_16_D0_36-1.Region_2
   Computation algorithm: EXTRAPOLATE_COMPUTE_AVERAGE
   Averaged at nodes
   Averaging regions: ODB_REGIONS

      Node Label     COORD.COOR1     COORD.COOR2
                          @Loc 1          @Loc 1
-------------------------------------------------
               1     18.4546E-03     189.806E-03


Field Output reported at nodes for part: WIRE_1-1
   Computation algorithm: EXTRAPOLATE_COMPUTE_AVERAGE
   Averaged at nodes
   Averaging regions: ODB_REGIONS

      Node Label     COORD.COOR1     COORD.COOR2    ER.Max. Prin    ER.Mid. Prin    ER.Min. Prin         ER.ER11         ER.ER22         ER.ER33         ER.ER12    PE.Max. Prin    PE.Mid. Prin    PE.Min. Prin         PE.PE11         PE.PE22         PE.PE33         PE.PE12     S.Max. Prin     S.Mid. Prin     S.Min. Prin           S.S11           S.S22           S.S33           S.S12            TEMP
                          @Loc 1          @Loc 1          @Loc 1          @Loc 1          @Loc 1          @Loc 1          @Loc 1          @Loc 1          @Loc 1          @Loc 1          @Loc 1          @Loc 1          @Loc 1          @Loc 1          @Loc 1          @Loc 1          @Loc 1          @Loc 1          @Loc 1          @Loc 1          @Loc 1          @Loc 1          @Loc 1          @Loc 1
-----------------------------------------------------------------------------------------------------------------------------------------------------------------------------------------------------------------------------------------------------------------------------------------------------------------------------------------------------------------------------------------------------------------
               1     16.1341E-03     69.0877E-03     127.730E-03     125.505E-03    -438.335E-03     127.730E-03    -438.335E-03     125.505E-03    -141.813E-06     224.841E-03    -110.382E-03    -114.460E-03    -111.332E-03     221.713E-03    -110.382E-03     64.8536E-03     146.094E+06     133.527E+06    -6.42994E+06    -6.31073E+06     133.408E+06     146.094E+06     -4.0289E+06         61.1244
               2    -350.709E-09     68.2024E-03     188.148E-03     60.8416E-03    -436.120E-03     60.8398E-03    -436.118E-03     188.148E-03     1.85970E-03     221.441E-03    -109.308E-03    -112.132E-03    -111.003E-03     221.438E-03    -110.435E-03     1.86329E-03    -153.370E+06    -155.785E+06    -363.871E+06    -153.373E+06    -363.869E+06    -155.785E+06     684.284E+03         39.2116
               3     135.065E-09    -1.52656E-15     174.230E-03     173.551E-03    -614.603E-03     173.551E-03    -614.603E-03     174.230E-03     204.074E-06     367.209E-03    -183.393E-03    -183.816E-03    -183.813E-03     367.206E-03    -183.393E-03     2.68163E-03    -96.2285E+06    -97.6965E+06    -314.451E+06    -96.4102E+06    -314.269E+06    -97.6965E+06    -6.29429E+06         47.7061
               4     15.9000E-03    -1.52656E-15     201.842E-03     175.232E-03    -689.218E-03     201.266E-03    -688.642E-03     175.232E-03    -45.2942E-03     315.655E-03    -120.230E-03    -195.424E-03    -182.180E-03     302.410E-03    -120.230E-03     162.401E-03     148.215E+06     125.316E+06    -2.05408E+06    -1.53220E+06     124.794E+06     148.215E+06    -8.13632E+06         65.8759
               5     16.2113E-03     138.121E-03     1.15712E-03    -540.302E-06    -2.76603E-03     1.15711E-03    -2.76602E-03    -540.302E-06    -14.3284E-06     183.236E-03    -77.0368E-03    -106.199E-03    -77.0365E-03     183.236E-03    -106.199E-03    -579.628E-06     96.9047E+06     34.6805E+06    -37.6257E+06    -30.8200E+06     27.8748E+06     96.9047E+06    -21.1134E+06         62.2242
               6     2.59159E-06     135.197E-03     843.445E-06     842.270E-06    -3.54810E-03     841.541E-06    -3.54737E-03     843.445E-06    -113.132E-06     184.720E-03    -91.6713E-03    -93.0488E-03    -92.9304E-03     184.602E-03    -91.6713E-03    -11.4701E-03     94.8293E+06     91.3781E+06    -8.81079E+06     91.1542E+06    -8.58692E+06     94.8293E+06    -4.73062E+06         31.4531
               7     15.2448E-03     69.0125E-03     127.775E-03     125.488E-03    -438.577E-03     127.775E-03    -438.577E-03     125.488E-03    -427.957E-06     228.405E-03    -110.402E-03    -118.003E-03    -109.945E-03     220.348E-03    -110.402E-03     98.9094E-03     141.816E+06     128.124E+06    -8.72347E+06    -8.59898E+06     127.999E+06     141.816E+06    -1.18536E+06         60.1632
               8     14.3378E-03     68.8578E-03     127.732E-03     125.453E-03    -438.884E-03     127.732E-03    -438.884E-03     125.453E-03    -383.958E-06     227.101E-03    -110.488E-03    -116.613E-03    -107.890E-03     218.378E-03    -110.488E-03     104.803E-03     126.384E+06     112.807E+06    -15.2507E+06    -15.1146E+06     112.671E+06     126.384E+06     2.90281E+06         58.1890
               9     13.4419E-03     68.7692E-03     127.510E-03     125.402E-03    -438.880E-03     127.510E-03    -438.880E-03     125.402E-03    -69.2323E-06     223.751E-03    -110.572E-03    -113.179E-03    -108.118E-03     218.690E-03    -110.572E-03     81.8179E-03     101.134E+06     92.6922E+06    -26.0736E+06    -25.9298E+06     92.5484E+06     101.134E+06     3.83487E+06         56.1278
              10     12.5438E-03     68.6671E-03     127.259E-03     125.338E-03    -438.751E-03     127.259E-03    -438.751E-03     125.338E-03    -73.1464E-06     224.331E-03    -110.593E-03    -113.738E-03    -109.116E-03     219.710E-03    -110.593E-03     77.9939E-03     82.6420E+06     77.4946E+06    -35.6750E+06    -35.5715E+06     80.2652E+06     79.7679E+06     2.41589E+06         54.0199
              11     11.6453E-03     68.5864E-03     127.009E-03     125.270E-03    -438.592E-03     127.009E-03    -438.592E-03     125.270E-03    -74.9460E-06     222.887E-03    -110.587E-03    -112.300E-03    -108.956E-03     219.543E-03    -110.587E-03     66.5678E-03     74.7881E+06     62.3542E+06    -44.0080E+06    -43.9437E+06     74.7238E+06     62.3542E+06    -761.536E+03         51.9183
              12     10.7503E-03     68.5095E-03     126.752E-03     125.196E-03    -438.390E-03     126.752E-03    -438.390E-03     125.196E-03    -104.047E-06     222.061E-03    -110.649E-03    -111.413E-03    -108.708E-03     219.357E-03    -110.649E-03     59.6455E-03     63.1111E+06     48.1930E+06    -51.3441E+06    -51.3068E+06     57.7156E+06     53.5513E+06    -1.84778E+06         49.8828
              13     9.85249E-03     68.4437E-03     126.490E-03     125.119E-03    -438.168E-03     126.490E-03    -438.168E-03     125.119E-03    -115.404E-06     221.738E-03    -110.736E-03    -111.002E-03    -108.978E-03     219.714E-03    -110.736E-03     51.6109E-03     43.0143E+06     18.1844E+06    -59.2957E+06    -59.2651E+06     18.1538E+06     43.0143E+06    -684.283E+03         47.9715
              14     8.95552E-03     68.3863E-03     126.219E-03     125.040E-03    -437.921E-03     126.218E-03    -437.921E-03     125.040E-03    -136.091E-06     221.701E-03    -110.775E-03    -110.926E-03    -109.426E-03     220.213E-03    -110.787E-03     44.2226E-03     23.1910E+06    -41.2353E+06    -71.4221E+06    -70.8632E+06    -41.7942E+06     23.1910E+06    -891.685E+03         46.2317
              15     8.06207E-03     68.3390E-03     125.955E-03     124.960E-03    -437.666E-03     125.955E-03    -437.666E-03     124.960E-03    -121.317E-06     221.519E-03    -110.675E-03    -110.844E-03    -109.663E-03     220.481E-03    -110.819E-03     36.9187E-03     6.08516E+06    -79.7480E+06    -98.0578E+06    -80.7171E+06    -97.0886E+06     6.08516E+06     15.1489E+03         44.6943
              16     7.16394E-03     68.2997E-03     125.691E-03     124.882E-03    -437.405E-03     125.691E-03    -437.405E-03     124.882E-03    -139.030E-06     221.286E-03    -110.458E-03    -110.828E-03    -109.773E-03     220.601E-03    -110.828E-03     29.8845E-03    -11.6405E+06    -89.6068E+06    -144.267E+06    -89.6783E+06    -144.195E+06    -11.6405E+06    -550.655E+03         43.3736
              17     6.26927E-03     68.2700E-03     125.444E-03     124.808E-03    -437.147E-03     125.444E-03    -437.147E-03     124.808E-03    -107.290E-06     221.068E-03    -110.225E-03    -110.843E-03    -109.807E-03     220.650E-03    -110.843E-03     23.3560E-03    -29.2136E+06    -100.083E+06    -187.644E+06    -100.132E+06    -187.595E+06    -29.2136E+06    -786.812E+03         42.2690
              18     5.37308E-03     68.2470E-03     125.220E-03     124.738E-03    -436.905E-03     125.220E-03    -436.905E-03     124.738E-03    -137.463E-06     221.061E-03    -110.206E-03    -110.856E-03    -109.964E-03     220.820E-03    -110.856E-03     17.6683E-03    -48.5502E+06    -109.870E+06    -229.514E+06    -109.881E+06    -229.502E+06    -48.5502E+06    -10.7814E+03         41.3695
              19     4.47762E-03     68.2301E-03     125.013E-03     124.676E-03    -436.684E-03     125.013E-03    -436.684E-03     124.676E-03    -54.4485E-06     221.261E-03    -110.419E-03    -110.842E-03    -110.291E-03     221.132E-03    -110.842E-03     12.8967E-03    -69.4319E+06    -119.205E+06    -268.310E+06    -119.229E+06    -268.286E+06    -69.4319E+06    -1.13037E+06         40.6567
              20     3.58187E-03     68.2187E-03     124.850E-03     124.622E-03    -436.490E-03     124.850E-03    -436.490E-03     124.622E-03    -155.319E-06     221.240E-03    -110.442E-03    -110.798E-03    -110.379E-03     221.177E-03    -110.798E-03     8.92993E-03    -91.7210E+06    -129.746E+06    -300.024E+06    -129.762E+06    -300.007E+06    -91.7210E+06    -641.214E+03         40.1096
              21     2.68640E-03     68.2107E-03     124.699E-03     124.579E-03    -436.330E-03     124.699E-03    -436.329E-03     124.579E-03     63.1849E-06     221.194E-03    -110.416E-03    -110.778E-03    -110.391E-03     221.169E-03    -110.778E-03     5.56169E-03    -113.368E+06    -139.647E+06    -332.678E+06    -139.649E+06    -332.677E+06    -113.368E+06     141.483E+03         39.7073
              22     1.79045E-03     68.2071E-03     124.602E-03     124.549E-03    -436.216E-03     124.601E-03    -436.215E-03     124.549E-03    -277.768E-06     221.323E-03    -110.519E-03    -110.804E-03    -110.544E-03     221.314E-03    -110.770E-03     3.34703E-03    -132.271E+06    -147.919E+06    -354.202E+06    -147.923E+06    -354.199E+06    -132.271E+06     472.750E+03         39.4317
              23     896.154E-06     68.2035E-03     156.368E-03     92.6895E-03    -436.146E-03     92.7142E-03    -436.145E-03     156.343E-03     359.533E-06     221.422E-03    -109.942E-03    -111.481E-03    -110.821E-03     221.418E-03    -110.597E-03     2.21448E-03    -147.316E+06    -153.682E+06    -362.058E+06    -152.478E+06    -362.055E+06    -148.523E+06     733.887E+03         39.2676
              24    -1.68763E-06     66.9570E-03     190.297E-03     60.6265E-03    -440.295E-03     60.6233E-03    -440.292E-03     190.297E-03     2.50233E-03     221.288E-03    -109.925E-03    -111.363E-03    -109.923E-03     221.286E-03    -111.363E-03     1.21645E-03    -151.124E+06    -155.985E+06    -363.664E+06    -154.613E+06    -363.655E+06    -152.505E+06    -412.159E+03         39.2363
              25     1.16955E-06     65.7087E-03     190.716E-03     62.0069E-03    -444.912E-03     62.0026E-03    -444.908E-03     190.716E-03     2.96784E-03     221.190E-03    -109.739E-03    -111.451E-03    -111.139E-03     221.190E-03    -110.051E-03     694.740E-06    -153.305E+06    -159.245E+06    -366.044E+06    -156.792E+06    -366.037E+06    -155.766E+06    -899.314E+03         39.2603
              26     1.30541E-06     64.4653E-03     190.407E-03     64.4929E-03    -449.628E-03     64.4888E-03    -449.623E-03     190.407E-03     2.90105E-03     220.636E-03    -109.238E-03    -111.398E-03    -110.636E-03     220.634E-03    -109.998E-03     1.59899E-03    -153.629E+06    -157.170E+06    -366.879E+06    -154.715E+06    -366.874E+06    -156.089E+06    -750.898E+03         39.2839
              27    -2.65522E-06     63.2194E-03     189.410E-03     68.0483E-03    -454.505E-03     68.0426E-03    -454.499E-03     189.410E-03     3.39074E-03     220.751E-03    -109.834E-03    -110.917E-03    -109.832E-03     220.749E-03    -110.917E-03     598.777E-06    -155.009E+06    -156.609E+06    -369.879E+06    -156.100E+06    -369.870E+06    -155.528E+06    -42.1694E+03         39.3072
              28     2.06671E-06     61.9743E-03     187.224E-03     72.8530E-03    -459.859E-03     72.8463E-03    -459.852E-03     187.224E-03     3.74618E-03     221.237E-03    -109.773E-03    -111.464E-03    -111.139E-03     221.236E-03    -110.097E-03    -17.6436E-06    -153.390E+06    -154.498E+06    -367.601E+06    -153.988E+06    -367.592E+06    -153.908E+06     1.38638E+06         39.3307
              29     386.901E-09     60.7278E-03     184.596E-03     78.4457E-03    -465.447E-03     78.4393E-03    -465.440E-03     184.596E-03     3.71729E-03     221.637E-03    -109.740E-03    -111.897E-03    -111.896E-03     221.636E-03    -109.740E-03     856.355E-06    -149.650E+06    -151.921E+06    -363.123E+06    -150.249E+06    -363.114E+06    -151.332E+06     68.8279E+03         39.3546
              30     1.00782E-06     59.4801E-03     181.316E-03     85.2172E-03    -471.266E-03     85.2105E-03    -471.260E-03     181.316E-03     3.84940E-03     221.466E-03    -110.158E-03    -111.308E-03    -111.307E-03     221.465E-03    -110.158E-03     1.14475E-03    -152.893E+06    -155.828E+06    -365.052E+06    -154.151E+06    -365.048E+06    -154.574E+06    -897.931E+03         39.3789
              31    -348.948E-09     58.2339E-03     177.453E-03     92.9378E-03    -477.423E-03     92.9311E-03    -477.416E-03     177.453E-03     3.90072E-03     220.802E-03    -109.951E-03    -110.851E-03    -110.309E-03     220.801E-03    -110.491E-03     1.27088E-03    -154.505E+06    -156.306E+06    -363.244E+06    -156.344E+06    -363.206E+06    -154.505E+06     1.70647E+06         39.4038
              32    -613.718E-09     56.9899E-03     173.469E-03     101.039E-03    -483.852E-03     101.031E-03    -483.845E-03     173.469E-03     4.13075E-03     220.700E-03    -109.896E-03    -110.805E-03    -109.895E-03     220.700E-03    -110.805E-03     592.575E-06    -152.358E+06    -154.761E+06    -359.331E+06    -152.989E+06    -359.248E+06    -154.214E+06    -252.426E+03         39.4290
              33    -68.0911E-09     55.7445E-03     169.225E-03     109.611E-03    -490.598E-03     109.604E-03    -490.590E-03     169.225E-03     4.28915E-03     221.392E-03    -110.045E-03    -111.346E-03    -110.978E-03     221.392E-03    -110.414E-03     133.127E-06    -154.129E+06    -156.467E+06    -362.290E+06    -154.190E+06    -362.230E+06    -156.467E+06    -993.417E+03         39.4546
              34     1.73158E-06     54.4964E-03     164.945E-03     118.482E-03    -497.613E-03     118.475E-03    -497.606E-03     164.945E-03     4.13715E-03     221.788E-03    -110.246E-03    -111.541E-03    -111.540E-03     221.786E-03    -110.246E-03     1.11616E-03    -153.471E+06    -157.478E+06    -364.748E+06    -157.012E+06    -364.732E+06    -153.953E+06     789.132E+03         39.4804
              35    -1.04507E-06     53.2492E-03     160.822E-03     127.477E-03    -504.802E-03     127.470E-03    -504.795E-03     160.822E-03     4.09672E-03     221.210E-03    -110.396E-03    -110.814E-03    -110.757E-03     221.208E-03    -110.451E-03     998.472E-06    -151.171E+06    -156.356E+06    -364.119E+06    -154.699E+06    -364.116E+06    -152.831E+06     7.59856E+03         39.5063
              36     923.215E-09     52.0053E-03     156.730E-03     136.712E-03    -512.240E-03     136.706E-03    -512.234E-03     156.730E-03     4.18107E-03     220.849E-03    -109.874E-03    -110.975E-03    -110.919E-03     220.849E-03    -109.930E-03     91.0295E-06    -152.816E+06    -155.547E+06    -363.932E+06    -152.833E+06    -363.915E+06    -155.547E+06    -820.697E+03         39.5322
              37     936.258E-09     50.7598E-03     153.179E-03     145.598E-03    -519.826E-03     145.592E-03    -519.820E-03     153.179E-03     3.85652E-03     221.180E-03    -110.004E-03    -111.176E-03    -111.176E-03     221.180E-03    -110.004E-03     442.095E-06    -153.576E+06    -156.186E+06    -366.699E+06    -155.132E+06    -366.684E+06    -154.645E+06    -949.711E+03         39.5580
              38    -692.580E-09     49.5123E-03     155.009E-03     149.248E-03    -527.503E-03     154.043E-03    -527.497E-03     150.209E-03     3.86367E-03     221.131E-03    -110.364E-03    -110.767E-03    -110.767E-03     221.131E-03    -110.364E-03     373.799E-06    -153.811E+06    -156.790E+06    -366.956E+06    -155.355E+06    -366.953E+06    -155.250E+06     854.962E+03         39.5836
              39     1.17097E-06     48.2669E-03     162.528E-03     147.401E-03    -535.336E-03     162.523E-03    -535.331E-03     147.401E-03     3.79593E-03     220.868E-03    -109.747E-03    -111.121E-03    -111.120E-03     220.868E-03    -109.747E-03     521.858E-06    -150.960E+06    -154.717E+06    -364.701E+06    -153.281E+06    -364.697E+06    -152.399E+06     682.450E+03         39.6090
              40     818.545E-09     47.0209E-03     170.178E-03     145.386E-03    -543.132E-03     170.174E-03    -543.128E-03     145.386E-03     3.38193E-03     221.202E-03    -110.052E-03    -111.150E-03    -111.148E-03     221.200E-03    -110.052E-03     1.50955E-03    -150.637E+06    -154.878E+06    -365.865E+06    -152.979E+06    -365.841E+06    -152.560E+06    -1.46860E+06         39.6340
              41    -842.809E-09     45.7749E-03     177.192E-03     144.006E-03    -550.896E-03     177.188E-03    -550.892E-03     144.006E-03     3.39645E-03     222.255E-03    -111.078E-03    -111.177E-03    -111.176E-03     222.254E-03    -111.078E-03     1.23591E-03    -152.943E+06    -155.244E+06    -367.423E+06    -153.371E+06    -367.373E+06    -154.866E+06     112.732E+03         39.6585
              42     1.01906E-06     44.5262E-03     183.580E-03     143.262E-03    -558.667E-03     183.576E-03    -558.664E-03     143.262E-03     3.13752E-03     222.399E-03    -110.827E-03    -111.572E-03    -111.572E-03     222.399E-03    -110.827E-03     333.054E-06    -153.155E+06    -155.510E+06    -365.965E+06    -153.568E+06    -365.929E+06    -155.132E+06     753.281E+03         39.6826
              43     113.245E-09     43.2797E-03     189.145E-03     143.213E-03    -566.257E-03     189.142E-03    -566.254E-03     143.213E-03     2.87996E-03     221.231E-03    -110.220E-03    -111.012E-03    -111.011E-03     221.231E-03    -110.220E-03     647.387E-06    -153.902E+06    -157.187E+06    -366.834E+06    -155.219E+06    -366.825E+06    -155.880E+06    -1.02978E+06         39.7062
              44     157.251E-09     42.0339E-03     193.637E-03     144.041E-03    -573.615E-03     193.635E-03    -573.612E-03     144.041E-03     2.44394E-03     221.287E-03    -110.006E-03    -111.281E-03    -110.145E-03     221.283E-03    -111.137E-03     2.21454E-03    -152.958E+06    -154.903E+06    -368.626E+06    -154.266E+06    -368.626E+06    -153.595E+06    -60.3163E+03         39.7292
              45    -2.19983E-06     40.7861E-03     197.755E-03     145.284E-03    -580.813E-03     197.752E-03    -580.810E-03     145.284E-03     2.71113E-03     221.213E-03    -109.525E-03    -111.688E-03    -110.547E-03     221.203E-03    -110.656E-03    -168.639E-06    -153.201E+06    -154.037E+06    -366.426E+06    -153.214E+06    -366.414E+06    -154.037E+06     1.16562E+06         39.7521
              46     4.03544E-06     39.5439E-03     201.215E-03     146.969E-03    -587.727E-03     201.213E-03    -587.725E-03     146.969E-03     2.08349E-03     219.378E-03    -109.112E-03    -110.266E-03    -110.133E-03     219.367E-03    -109.234E-03     84.2367E-06    -149.608E+06    -153.035E+06    -362.676E+06    -149.621E+06    -362.663E+06    -153.035E+06     958.183E+03         39.7749
              47    -4.30277E-06     38.2984E-03     203.279E-03     149.548E-03    -594.161E-03     203.277E-03    -594.159E-03     149.548E-03     1.97125E-03     219.039E-03    -108.830E-03    -110.209E-03    -108.824E-03     219.033E-03    -110.209E-03     2.01305E-03    -149.195E+06    -157.936E+06    -362.559E+06    -154.708E+06    -362.559E+06    -152.423E+06    -111.625E+03         39.7977
              48     2.11340E-06     37.0547E-03     206.033E-03     151.560E-03    -600.348E-03     206.031E-03    -600.346E-03     151.560E-03     2.45923E-03     220.985E-03    -108.773E-03    -112.212E-03    -110.953E-03     220.985E-03    -110.032E-03     613.237E-06    -153.595E+06    -161.294E+06    -365.647E+06    -159.121E+06    -365.633E+06    -155.781E+06    -1.11716E+06         39.8207
              49     1.76167E-06     35.8099E-03     207.625E-03     154.193E-03    -606.185E-03     207.624E-03    -606.184E-03     154.193E-03     1.63691E-03     222.225E-03    -109.526E-03    -112.698E-03    -112.698E-03     222.224E-03    -109.526E-03     139.106E-06    -151.985E+06    -154.604E+06    -367.078E+06    -152.460E+06    -367.036E+06    -154.171E+06     547.286E+03         39.8439
              50     18.8472E-09     34.5609E-03     208.016E-03     157.254E-03    -611.401E-03     208.015E-03    -611.400E-03     157.254E-03     1.61710E-03     221.419E-03    -109.805E-03    -111.614E-03    -110.796E-03     221.418E-03    -110.622E-03     144.935E-06    -155.830E+06    -157.764E+06    -370.939E+06    -156.328E+06    -370.875E+06    -157.331E+06    -234.065E+03         39.8667
              51    -1.49886E-06     33.3155E-03     208.178E-03     160.184E-03    -616.175E-03     208.177E-03    -616.175E-03     160.184E-03     1.51841E-03     219.429E-03    -108.981E-03    -110.449E-03    -108.979E-03     219.427E-03    -110.449E-03    -477.868E-06    -156.538E+06    -159.305E+06    -367.911E+06    -157.911E+06    -367.804E+06    -158.038E+06     712.856E+03         39.8882
              52     346.081E-09     32.0739E-03     208.114E-03     163.102E-03    -620.556E-03     208.113E-03    -620.556E-03     163.102E-03     1.67904E-03     219.083E-03    -108.922E-03    -110.161E-03    -109.502E-03     219.075E-03    -109.573E-03     895.413E-06    -151.860E+06    -153.562E+06    -360.914E+06    -153.673E+06    -360.803E+06    -151.860E+06     629.433E+03         39.9070
              53     705.337E-09     30.8264E-03     207.776E-03     165.913E-03    -624.278E-03     207.775E-03    -624.277E-03     165.913E-03     1.15412E-03     220.722E-03    -109.531E-03    -111.191E-03    -110.112E-03     220.716E-03    -110.603E-03     2.36295E-03    -149.879E+06    -154.548E+06    -361.250E+06    -150.361E+06    -361.204E+06    -154.112E+06    -1.30606E+06         39.9210
              54    -2.67517E-06     29.5835E-03     206.863E-03     168.813E-03    -627.500E-03     206.862E-03    -627.499E-03     168.813E-03     1.47916E-03     222.020E-03    -110.272E-03    -111.748E-03    -110.675E-03     222.020E-03    -111.345E-03     662.736E-06    -149.900E+06    -160.241E+06    -364.384E+06    -156.022E+06    -364.369E+06    -154.133E+06    -222.540E+03         39.9274
              55     3.47001E-06     28.3330E-03     206.020E-03     171.321E-03    -630.305E-03     206.019E-03    -630.304E-03     171.321E-03     1.27238E-03     222.309E-03    -110.188E-03    -112.121E-03    -112.120E-03     222.308E-03    -110.188E-03     918.085E-06    -154.038E+06    -166.374E+06    -369.651E+06    -160.156E+06    -369.640E+06    -160.266E+06    -606.279E+03         39.9227
              56    -804.168E-09     27.0860E-03     204.526E-03     173.860E-03    -632.446E-03     204.525E-03    -632.445E-03     173.860E-03     853.753E-06     221.331E-03    -109.644E-03    -111.688E-03    -111.171E-03     221.328E-03    -110.157E-03     1.90944E-03    -146.124E+06    -159.476E+06    -362.372E+06    -153.355E+06    -362.265E+06    -152.352E+06     3.62797E+06         39.9031
              57    -30.2460E-09     25.8415E-03     202.755E-03     176.168E-03    -634.089E-03     202.754E-03    -634.089E-03     176.168E-03     870.824E-06     221.744E-03    -110.409E-03    -111.336E-03    -110.406E-03     221.741E-03    -111.336E-03     1.99252E-03    -138.895E+06    -153.370E+06    -357.108E+06    -146.342E+06    -356.786E+06    -146.245E+06    -1.62204E+06         39.8644
              58    -795.518E-09     24.5938E-03     200.896E-03     178.153E-03    -635.291E-03     200.896E-03    -635.290E-03     178.153E-03     823.854E-06     222.087E-03    -110.772E-03    -111.315E-03    -110.900E-03     222.086E-03    -111.186E-03     702.679E-06    -149.609E+06    -158.933E+06    -365.866E+06    -151.830E+06    -365.618E+06    -156.959E+06    -3.06660E+06         39.8031
              59     1.05455E-06     23.3451E-03     199.023E-03     179.832E-03    -636.015E-03     199.023E-03    -636.014E-03     179.832E-03     606.499E-06     220.091E-03    -109.833E-03    -110.258E-03    -109.962E-03     220.091E-03    -110.129E-03     481.657E-06    -149.396E+06    -154.707E+06    -364.949E+06    -151.406E+06    -364.912E+06    -152.733E+06     2.54889E+06         39.7165
              60    -1.62541E-06     22.1073E-03     196.785E-03     181.501E-03    -636.332E-03     196.785E-03    -636.331E-03     181.501E-03     502.028E-06     218.991E-03    -109.170E-03    -109.821E-03    -109.524E-03     218.990E-03    -109.466E-03    -158.391E-06    -147.737E+06    -154.990E+06    -364.405E+06    -151.659E+06    -364.399E+06    -151.074E+06     377.341E+03         39.6038
              61     2.30957E-06     20.8593E-03     194.979E-03     182.556E-03    -636.300E-03     194.978E-03    -636.300E-03     182.556E-03     510.944E-06     218.560E-03    -108.615E-03    -109.946E-03    -109.945E-03     218.560E-03    -108.615E-03    -672.707E-06    -150.796E+06    -156.755E+06    -366.271E+06    -154.715E+06    -366.268E+06    -152.838E+06    -784.191E+03         39.4667
              62    -584.037E-09     19.6216E-03     192.753E-03     183.626E-03    -635.859E-03     192.753E-03    -635.859E-03     183.626E-03    -79.9544E-06     216.745E-03    -107.699E-03    -109.047E-03    -108.674E-03     216.745E-03    -108.071E-03    -415.410E-06    -151.663E+06    -156.868E+06    -368.101E+06    -154.828E+06    -368.099E+06    -153.705E+06    -664.035E+03         39.3104
              63    -45.9049E-09     18.3779E-03     190.855E-03     184.122E-03    -635.185E-03     190.855E-03    -635.185E-03     184.122E-03     288.143E-06     213.297E-03    -106.023E-03    -107.274E-03    -106.901E-03     213.297E-03    -106.396E-03    -780.952E-06    -155.464E+06    -160.050E+06    -369.857E+06    -158.627E+06    -369.856E+06    -156.887E+06    -379.227E+03         39.1444
              64     1.61359E-06     17.1462E-03     189.475E-03     184.052E-03    -634.326E-03     189.475E-03    -634.326E-03     184.052E-03    -218.245E-06     208.159E-03    -103.505E-03    -104.654E-03    -104.381E-03     208.157E-03    -103.776E-03    -1.44086E-03    -146.370E+06    -150.007E+06    -361.496E+06    -148.592E+06    -361.488E+06    -147.793E+06     796.657E+03         38.9822
              65    -2.08043E-06     15.9234E-03     187.337E-03     184.418E-03    -633.176E-03     187.337E-03    -633.175E-03     184.418E-03    -116.332E-06     200.920E-03    -100.244E-03    -100.676E-03    -100.233E-03     200.909E-03    -100.676E-03    -3.39341E-03    -149.510E+06    -156.610E+06    -367.011E+06    -151.801E+06    -366.934E+06    -154.397E+06    -1.80228E+06         38.8410
              66     1.71736E-06     14.7018E-03     185.916E-03     184.034E-03    -631.950E-03     185.916E-03    -631.950E-03     184.034E-03    -66.6631E-06     189.548E-03    -94.4816E-03    -95.0661E-03    -94.8927E-03     189.535E-03    -94.6427E-03    -3.65305E-03    -157.000E+06    -165.984E+06    -373.126E+06    -161.324E+06    -372.899E+06    -161.886E+06     1.29796E+06         38.7406
              67    -882.918E-09     13.5047E-03     184.697E-03     183.323E-03    -630.624E-03     184.697E-03    -630.624E-03     183.323E-03    -210.889E-06     173.126E-03    -86.1291E-03    -86.9967E-03    -86.9739E-03     173.103E-03    -86.1291E-03    -4.45827E-03    -155.310E+06    -160.436E+06    -366.410E+06    -159.663E+06    -366.154E+06    -156.339E+06     856.465E+03         38.7017
              68     1.67212E-06     12.3296E-03     183.470E-03     182.535E-03    -629.158E-03     183.470E-03    -629.158E-03     182.535E-03    -196.013E-06     155.689E-03    -77.4258E-03    -78.2632E-03    -78.2339E-03     155.660E-03    -77.4258E-03    -5.18756E-03    -161.938E+06    -163.037E+06    -368.890E+06    -162.129E+06    -368.769E+06    -162.967E+06    -1.63714E+06         38.7430
              69    -951.757E-09     11.1722E-03     182.228E-03     181.743E-03    -627.651E-03     182.191E-03    -627.651E-03     181.780E-03    -262.675E-06     141.161E-03    -70.3707E-03    -70.7905E-03    -70.7605E-03     141.131E-03    -70.3707E-03    -4.95201E-03    -163.820E+06    -164.866E+06    -369.217E+06    -163.920E+06    -369.187E+06    -164.796E+06     664.368E+03         38.8811
              70     954.130E-09     10.0307E-03     180.996E-03     180.802E-03    -626.046E-03     180.960E-03    -626.046E-03     180.839E-03    -44.3701E-06     128.422E-03    -64.0139E-03    -64.4079E-03    -64.3712E-03     128.385E-03    -64.0139E-03    -5.31881E-03    -168.810E+06    -170.353E+06    -373.929E+06    -169.387E+06    -373.918E+06    -169.786E+06    -1.41892E+06         39.1314
              71    -281.718E-09     8.89974E-03     180.126E-03     179.537E-03    -624.446E-03     180.126E-03    -624.446E-03     179.537E-03     44.6638E-06     121.998E-03    -60.5975E-03    -61.4006E-03    -61.3839E-03     121.981E-03    -60.5975E-03    -2.54026E-03    -157.911E+06    -159.592E+06    -362.029E+06    -159.114E+06    -361.393E+06    -159.026E+06     7.43431E+06         39.5083
              72     1.10696E-06     7.77908E-03     179.039E-03     178.538E-03    -622.842E-03     179.039E-03    -622.842E-03     178.538E-03     104.678E-06     132.661E-03    -65.7787E-03    -66.8826E-03    -66.8800E-03     132.659E-03    -65.7787E-03     980.636E-06    -126.653E+06    -135.858E+06    -336.565E+06    -135.533E+06    -335.775E+06    -127.768E+06     4.00514E+06         40.0318
              73     292.721E-09     6.62447E-03     177.734E-03     177.593E-03    -621.062E-03     177.734E-03    -621.062E-03     177.593E-03     114.857E-06     160.973E-03    -79.9233E-03    -81.0498E-03    -81.0263E-03     160.950E-03    -79.9233E-03     4.40233E-03    -119.630E+06    -136.707E+06    -338.786E+06    -127.877E+06    -338.629E+06    -128.617E+06    -4.25873E+06         40.7333
              74     491.171E-09     5.43169E-03     176.690E-03     176.429E-03    -619.246E-03     176.690E-03    -619.246E-03     176.429E-03     92.4826E-06     203.260E-03    -101.043E-03    -102.217E-03    -101.437E-03     203.196E-03    -101.759E-03     8.80327E-03    -118.897E+06    -131.296E+06    -339.448E+06    -122.492E+06    -339.265E+06    -127.884E+06     4.11878E+06         41.6592
              75    -1.63431E-06     4.17884E-03     175.752E-03     175.366E-03    -617.564E-03     175.554E-03    -617.564E-03     175.564E-03     220.630E-06     256.722E-03    -127.542E-03    -129.180E-03    -127.467E-03     256.647E-03    -129.180E-03     10.6457E-03    -104.227E+06    -110.054E+06    -324.216E+06    -107.824E+06    -324.031E+06    -106.643E+06     3.78421E+06         42.8754
              76     104.536E-09     2.84898E-03     174.842E-03     174.578E-03    -616.091E-03     174.578E-03    -616.091E-03     174.842E-03     421.026E-06     311.442E-03    -155.193E-03    -156.249E-03    -155.275E-03     311.391E-03    -156.116E-03     9.60887E-03    -96.5646E+06    -100.959E+06    -317.517E+06    -98.5886E+06    -317.471E+06    -98.9804E+06     1.52502E+06         44.4697
              77     191.269E-09     1.44659E-03     174.320E-03     173.914E-03    -615.010E-03     173.914E-03    -615.010E-03     174.320E-03     144.131E-06     352.287E-03    -175.971E-03    -176.316E-03    -176.295E-03     352.266E-03    -175.971E-03     5.75801E-03    -96.4504E+06    -99.1627E+06    -316.794E+06    -98.5618E+06    -316.661E+06    -97.1844E+06    -998.601E+03         46.5398
              78     829.675E-06    -1.52656E-15     174.033E-03     173.640E-03    -614.620E-03     173.640E-03    -614.620E-03     174.033E-03     171.159E-06     364.120E-03    -181.183E-03    -182.937E-03    -181.377E-03     364.103E-03    -182.725E-03     5.50462E-03    -96.4316E+06    -98.3974E+06    -311.019E+06    -97.8676E+06    -310.815E+06    -97.1656E+06     287.435E+03         47.7613
              79     1.66199E-03    -1.52656E-15     173.813E-03     173.727E-03    -614.690E-03     173.727E-03    -614.690E-03     173.813E-03     203.698E-06     355.316E-03    -174.714E-03    -180.602E-03    -174.667E-03     355.269E-03    -180.602E-03     9.85474E-03    -95.9586E+06    -98.6711E+06    -309.948E+06    -98.9236E+06    -309.696E+06    -95.9586E+06    -422.425E+03         47.9228
              80     2.50444E-03    -1.52656E-15     173.801E-03     173.754E-03    -614.838E-03     173.768E-03    -614.838E-03     173.787E-03     299.651E-06     342.141E-03    -165.005E-03    -177.136E-03    -164.917E-03     342.052E-03    -177.136E-03     13.2309E-03    -91.8425E+06    -96.2817E+06    -307.708E+06    -96.5190E+06    -307.470E+06    -91.8425E+06    -658.297E+03         48.1904
              81     3.35449E-03    -1.52656E-15     173.849E-03     173.789E-03    -615.052E-03     173.849E-03    -615.052E-03     173.789E-03     413.990E-06     326.336E-03    -153.590E-03    -172.746E-03    -153.452E-03     326.199E-03    -172.746E-03     16.1641E-03    -86.5143E+06    -96.3027E+06    -305.765E+06    -96.4008E+06    -305.666E+06    -86.5143E+06     3.13038E+06         48.5738
              82     4.21704E-03    -1.52656E-15     173.954E-03     173.809E-03    -615.338E-03     173.954E-03    -615.338E-03     173.809E-03     523.033E-06     308.749E-03    -141.054E-03    -167.695E-03    -140.884E-03     308.579E-03    -167.695E-03     17.4627E-03    -80.4915E+06    -94.8721E+06    -302.079E+06    -94.8906E+06    -302.061E+06    -80.4915E+06    -1.43957E+06         49.0845
              83     5.09101E-03    -1.52656E-15     174.102E-03     173.844E-03    -615.721E-03     174.102E-03    -615.721E-03     173.844E-03     633.670E-06     290.101E-03    -127.987E-03    -162.114E-03    -127.791E-03     289.905E-03    -162.114E-03     18.0721E-03    -75.6370E+06    -90.0272E+06    -271.487E+06    -90.0524E+06    -271.462E+06    -75.6370E+06    -2.10831E+06         49.7350
              84     5.97657E-03    -1.52656E-15     174.269E-03     173.892E-03    -616.197E-03     174.269E-03    -616.197E-03     173.892E-03     792.652E-06     271.808E-03    -115.609E-03    -156.199E-03    -115.386E-03     271.586E-03    -156.199E-03     18.5529E-03    -78.0809E+06    -85.1972E+06    -223.604E+06    -85.4080E+06    -223.393E+06    -78.0809E+06    -4.20210E+06         50.5357
              85     6.87355E-03    -1.52656E-15     174.440E-03     173.950E-03    -616.768E-03     174.440E-03    -616.767E-03     173.950E-03     991.812E-06     254.996E-03    -104.746E-03    -150.250E-03    -104.494E-03     254.745E-03    -150.250E-03     18.9762E-03    -75.5172E+06    -78.4308E+06    -169.397E+06    -76.4794E+06    -168.711E+06    -78.1540E+06    -7.51319E+06         51.4937
              86     7.77854E-03    -1.52656E-15     174.596E-03     174.014E-03    -617.441E-03     174.595E-03    -617.440E-03     174.014E-03     1.23255E-03     239.974E-03    -95.5079E-03    -144.467E-03    -95.2249E-03     239.691E-03    -144.467E-03     19.4632E-03    -62.2189E+06    -74.4868E+06    -109.666E+06    -65.1220E+06    -106.763E+06    -74.4868E+06    -9.09261E+06         52.6109
              87     8.69203E-03    -1.52656E-15     174.701E-03     174.079E-03    -618.221E-03     174.700E-03    -618.220E-03     174.079E-03     1.56347E-03     226.455E-03    -87.5286E-03    -138.927E-03    -87.2454E-03     226.172E-03    -138.927E-03     18.8506E-03    -19.3886E+06    -60.8040E+06    -73.8126E+06    -52.6379E+06    -30.8532E+06    -70.5142E+06    -10.4752E+06         53.8824
              88     9.61370E-03    -1.52656E-15     174.714E-03     174.137E-03    -619.134E-03     174.713E-03    -619.133E-03     174.137E-03     1.94423E-03     214.879E-03    -81.0318E-03    -133.847E-03    -80.7757E-03     214.622E-03    -133.847E-03     17.4025E-03     34.4967E+06    -35.8569E+06    -54.9720E+06    -44.1802E+06     33.4151E+06    -45.5671E+06    -2.98580E+06         55.2950
              89     10.5390E-03    -1.52656E-15     174.593E-03     174.182E-03    -620.215E-03     174.590E-03    -620.213E-03     174.182E-03     2.61461E-03     208.692E-03    -79.2939E-03    -129.398E-03    -78.8906E-03     208.289E-03    -129.398E-03     21.0874E-03     61.9992E+06    -8.08217E+06    -39.6588E+06    -39.2074E+06     61.5478E+06    -8.08217E+06    -1.72864E+06         56.8217
              90     11.4602E-03    -1.52656E-15     174.411E-03     174.208E-03    -621.742E-03     174.408E-03    -621.739E-03     174.208E-03     3.18671E-03     208.208E-03    -82.4761E-03    -125.732E-03    -81.8912E-03     207.623E-03    -125.732E-03     26.0505E-03     75.9744E+06     29.6008E+06    -28.5429E+06    -28.2151E+06     75.6466E+06     29.6008E+06    -4.43667E+06         58.4302
              91     12.3777E-03    -1.52656E-15     174.268E-03     174.093E-03    -623.995E-03     174.141E-03    -623.988E-03     174.212E-03     4.49723E-03     206.568E-03    -83.7251E-03    -122.843E-03    -83.1472E-03     205.990E-03    -122.843E-03     25.8727E-03     88.2755E+06     67.7507E+06    -19.8574E+06    -19.8504E+06     82.6052E+06     73.4141E+06    -799.264E+03         60.0985
              92     13.2998E-03    -1.52656E-15     174.585E-03     174.099E-03    -628.433E-03     174.458E-03    -628.427E-03     174.219E-03     4.56742E-03     207.331E-03    -86.8416E-03    -120.489E-03    -85.9177E-03     206.407E-03    -120.489E-03     32.2812E-03     112.619E+06     94.5442E+06    -13.4390E+06    -13.4090E+06     94.5142E+06     112.619E+06     636.679E+03         61.7992
              93     14.2109E-03    -1.52656E-15     176.128E-03     174.294E-03    -637.039E-03     176.112E-03    -637.022E-03     174.294E-03     6.61771E-03     224.044E-03    -104.677E-03    -119.367E-03    -102.336E-03     221.298E-03    -118.962E-03     58.2033E-03     133.439E+06     110.903E+06    -11.1841E+06    -10.0333E+06     109.753E+06     133.439E+06     9.70378E+06         63.4881
              94     15.0793E-03    -1.52656E-15     189.569E-03     174.796E-03    -665.868E-03     189.266E-03    -665.565E-03     174.796E-03    -17.7262E-03     276.728E-03    -119.363E-03    -157.365E-03    -148.646E-03     268.009E-03    -119.363E-03     119.674E-03     142.666E+06     121.093E+06    -8.33234E+06    -6.94507E+06     119.706E+06     142.666E+06     4.46277E+06         65.0997
              95     16.0048E-03     1.43291E-03     195.676E-03     176.404E-03    -661.604E-03     194.709E-03    -660.637E-03     176.404E-03    -56.0723E-03     292.710E-03    -118.080E-03    -174.630E-03    -159.367E-03     277.447E-03    -118.080E-03     164.997E-03     146.171E+06     126.371E+06    -5.85355E+06    -5.40609E+06     125.924E+06     146.171E+06    -497.475E+03         64.9459
              96     16.0757E-03     2.72871E-03     185.298E-03     178.393E-03    -625.128E-03     184.389E-03    -624.220E-03     178.393E-03    -52.5185E-03     255.159E-03    -114.584E-03    -140.575E-03    -125.060E-03     239.644E-03    -114.584E-03     153.574E-03     146.704E+06     131.047E+06    -7.06485E+06    -6.82637E+06     130.808E+06     146.704E+06     5.47109E+06         63.3637
              97     16.1071E-03     3.94037E-03     180.484E-03     178.816E-03    -615.657E-03     179.449E-03    -615.353E-03     179.547E-03    -30.0652E-03     243.534E-03    -112.240E-03    -131.294E-03    -121.994E-03     234.234E-03    -112.240E-03     112.539E-03     150.906E+06     135.944E+06    -2.30886E+06    -2.16151E+06     135.797E+06     150.906E+06     4.45838E+06         62.2466
              98     16.1210E-03     5.22260E-03     180.141E-03     178.593E-03    -615.671E-03     178.490E-03    -615.569E-03     180.141E-03    -17.4812E-03     247.698E-03    -110.774E-03    -136.924E-03    -132.779E-03     243.553E-03    -110.774E-03     79.1023E-03     152.967E+06     135.808E+06    -166.897E+03         542.598     135.640E+06     152.967E+06     357.384E+03         61.4468
              99     16.1320E-03     6.49323E-03     180.600E-03     178.821E-03    -617.094E-03     178.788E-03    -617.061E-03     180.600E-03    -9.68101E-03     250.487E-03    -110.045E-03    -140.442E-03    -137.015E-03     247.060E-03    -110.045E-03     72.8840E-03     148.019E+06     127.343E+06    -6.37160E+06    -6.29955E+06     127.271E+06     148.019E+06    -2.17844E+06         60.8828
             100     16.1334E-03     7.78905E-03     180.991E-03     179.355E-03    -619.640E-03     179.347E-03    -619.632E-03     180.991E-03    -4.70890E-03     254.672E-03    -109.704E-03    -144.968E-03    -141.302E-03     251.005E-03    -109.704E-03     76.1751E-03     146.830E+06     124.530E+06    -8.63972E+06    -8.62557E+06     124.515E+06     146.830E+06     993.848E+03         60.5008
             101     16.1337E-03     9.08338E-03     181.397E-03     179.953E-03    -622.079E-03     179.951E-03    -622.077E-03     181.397E-03    -2.73247E-03     257.014E-03    -109.605E-03    -147.409E-03    -143.146E-03     252.751E-03    -109.605E-03     82.5297E-03     150.020E+06     126.774E+06    -5.91813E+06    -5.74857E+06     126.604E+06     150.020E+06    -2.22584E+06         60.2480
             102     16.1356E-03     10.3669E-03     181.862E-03     180.302E-03    -623.062E-03     180.301E-03    -623.061E-03     181.862E-03    -1.47580E-03     256.759E-03    -109.573E-03    -147.186E-03    -142.449E-03     252.023E-03    -109.573E-03     86.9588E-03     154.076E+06     129.696E+06    -1.20886E+06    -922.584E+03     129.410E+06     154.076E+06    -284.716E+03         60.0852
             103     16.1356E-03     11.6620E-03     182.344E-03     180.625E-03    -624.366E-03     180.625E-03    -624.366E-03     182.344E-03    -66.3860E-06     255.308E-03    -109.640E-03    -145.667E-03    -140.894E-03     250.534E-03    -109.640E-03     86.9739E-03     154.897E+06     131.452E+06     226.434E+03     402.628E+03     131.276E+06     154.897E+06     1.18038E+06         59.9784
             104     16.1321E-03     12.9373E-03     182.842E-03     180.692E-03    -625.445E-03     180.692E-03    -625.445E-03     182.842E-03     135.292E-06     251.037E-03    -109.810E-03    -141.227E-03    -136.432E-03     246.242E-03    -109.810E-03     86.1887E-03     149.174E+06     126.845E+06    -5.78280E+06    -5.73611E+06     126.798E+06     149.174E+06    -1.43097E+06         59.9059
             105     16.1351E-03     14.2115E-03     183.343E-03     180.960E-03    -625.363E-03     180.958E-03    -625.360E-03     183.343E-03     1.85255E-03     247.753E-03    -109.949E-03    -137.804E-03    -132.685E-03     242.634E-03    -109.949E-03     88.2362E-03     150.027E+06     129.484E+06    -3.69860E+06    -3.42323E+06     129.208E+06     150.027E+06     4.57155E+06         59.8596
             106     16.1303E-03     15.4922E-03     183.741E-03     181.584E-03    -628.619E-03     181.581E-03    -628.617E-03     183.741E-03     2.46748E-03     248.558E-03    -110.182E-03    -138.376E-03    -133.597E-03     243.779E-03    -110.182E-03     85.3085E-03     138.181E+06     119.741E+06    -13.8484E+06    -13.1197E+06     119.013E+06     138.181E+06    -1.22147E+06         59.8271
             107     16.1183E-03     16.7597E-03     184.181E-03     181.303E-03    -629.996E-03     181.296E-03    -629.989E-03     184.181E-03    -2.88622E-03     240.838E-03    -110.484E-03    -130.354E-03    -125.727E-03     236.211E-03    -110.484E-03     82.1691E-03     139.080E+06     121.650E+06    -11.3798E+06    -10.6003E+06     120.870E+06     139.080E+06    -864.487E+03         59.8074
             108     16.1417E-03     18.0037E-03     184.761E-03     180.173E-03    -624.312E-03     180.166E-03    -624.305E-03     184.761E-03    -4.17814E-03     227.425E-03    -110.395E-03    -117.030E-03    -112.331E-03     222.726E-03    -110.395E-03     79.8924E-03     148.762E+06     132.329E+06     1.78630E+06     2.42387E+06     131.692E+06     148.762E+06     153.417E+03         59.8124
             109     16.1372E-03     19.2459E-03     185.164E-03     179.602E-03    -622.983E-03     179.600E-03    -622.980E-03     185.164E-03     897.971E-06     227.907E-03    -110.259E-03    -117.648E-03    -113.595E-03     223.854E-03    -110.259E-03     74.3028E-03     149.611E+06     131.767E+06     711.188E+03     1.03636E+06     131.442E+06     149.611E+06    -5.38077E+06         59.8284
             110     16.1291E-03     20.5256E-03     185.322E-03     179.701E-03    -625.273E-03     179.699E-03    -625.270E-03     185.322E-03     2.43084E-03     230.148E-03    -110.512E-03    -119.636E-03    -114.686E-03     225.198E-03    -110.512E-03     81.8907E-03     149.002E+06     130.739E+06    -2.87136E+06    -2.83067E+06     130.699E+06     149.002E+06     469.573E+03         59.8400
             111     16.1329E-03     21.7595E-03     185.404E-03     179.831E-03    -625.475E-03     179.830E-03    -625.475E-03     185.404E-03     836.837E-06     226.048E-03    -110.757E-03    -115.291E-03    -110.140E-03     220.898E-03    -110.757E-03     82.8406E-03     141.043E+06     124.480E+06    -9.13412E+06    -9.03073E+06     124.377E+06     141.043E+06    -860.217E+03         59.8573
             112     16.1248E-03     22.9980E-03     185.436E-03     179.268E-03    -624.647E-03     179.266E-03    -624.645E-03     185.436E-03    -1.65968E-03     223.981E-03    -110.789E-03    -113.192E-03    -109.011E-03     219.800E-03    -110.789E-03     74.6313E-03     140.255E+06     124.062E+06    -8.77976E+06    -8.01294E+06     123.295E+06     140.255E+06     4.48816E+06         59.8862
             113     16.1364E-03     24.2415E-03     185.414E-03     178.235E-03    -620.762E-03     178.232E-03    -620.759E-03     185.414E-03    -2.64436E-03     220.471E-03    -108.914E-03    -111.557E-03    -106.112E-03     216.757E-03    -110.645E-03     69.5198E-03     149.842E+06     133.842E+06     2.28878E+06     2.98059E+06     133.150E+06     149.842E+06     6.71482E+06         59.9240
             114     16.1365E-03     25.4712E-03     185.218E-03     177.396E-03    -618.130E-03     177.396E-03    -618.130E-03     185.218E-03    -724.557E-06     220.549E-03    -108.759E-03    -111.790E-03    -107.063E-03     217.553E-03    -110.490E-03     62.5984E-03     148.082E+06     131.754E+06    -1.32519E+06    -973.745E+03     131.402E+06     148.082E+06    -4.87146E+06         59.9624
             115     16.1322E-03     26.7312E-03     184.808E-03     176.710E-03    -617.111E-03     176.710E-03    -617.110E-03     184.808E-03    -379.273E-06     223.606E-03    -110.466E-03    -113.140E-03    -109.744E-03     220.210E-03    -110.466E-03     67.0199E-03     144.310E+06     126.607E+06    -8.29716E+06    -7.94354E+06     126.253E+06     144.310E+06    -4.47832E+06         59.9968
             116     16.1376E-03     27.9755E-03     184.263E-03     175.971E-03    -614.031E-03     175.971E-03    -614.031E-03     184.263E-03    -567.299E-06     223.312E-03    -110.441E-03    -112.872E-03    -108.931E-03     219.372E-03    -110.441E-03     72.3625E-03     150.054E+06     132.585E+06    -2.25335E+06    -2.22385E+06     132.555E+06     150.054E+06     1.74081E+06         60.0313
             117     16.1353E-03     29.2201E-03     183.540E-03     175.177E-03    -611.445E-03     175.177E-03    -611.445E-03     183.540E-03     334.856E-06     224.276E-03    -110.391E-03    -113.886E-03    -110.323E-03     220.713E-03    -110.391E-03     68.9721E-03     145.683E+06     129.565E+06    -5.47821E+06    -5.44986E+06     129.537E+06     145.683E+06     1.09528E+06         60.0650
             118     16.1340E-03     30.4670E-03     182.629E-03     174.367E-03    -609.023E-03     174.367E-03    -609.023E-03     182.629E-03     149.220E-06     225.018E-03    -110.415E-03    -114.603E-03    -111.256E-03     221.671E-03    -110.415E-03     67.0899E-03     147.719E+06     132.069E+06     -3.0745E+06    -3.05725E+06     132.051E+06     147.719E+06     784.896E+03         60.0961
             119     16.1358E-03     31.7153E-03     181.573E-03     173.432E-03    -605.263E-03     173.432E-03    -605.263E-03     181.573E-03    -57.3573E-06     223.797E-03    -110.428E-03    -113.368E-03    -109.953E-03     220.381E-03    -110.428E-03     67.5269E-03     149.808E+06     135.011E+06    -373.143E+03    -348.448E+03     134.986E+06     149.808E+06     1.80483E+06         60.1269
             120     16.1353E-03     32.9608E-03     180.343E-03     172.446E-03    -601.637E-03     172.446E-03    -601.637E-03     180.343E-03     520.401E-06     224.231E-03    -110.416E-03    -113.815E-03    -110.430E-03     220.846E-03    -110.416E-03     67.3166E-03     144.992E+06     130.772E+06    -4.84806E+06    -4.82182E+06     130.746E+06     144.992E+06    -340.724E+03         60.1575
             121     16.1337E-03     34.2096E-03     178.933E-03     171.481E-03    -598.245E-03     171.481E-03    -598.244E-03     178.933E-03     469.164E-06     224.254E-03    -110.463E-03    -113.791E-03    -110.648E-03     221.112E-03    -110.463E-03     64.8419E-03     143.558E+06     129.100E+06    -6.68136E+06    -6.61257E+06     129.031E+06     143.558E+06    -2.95883E+06         60.1860
             122     16.1337E-03     35.4532E-03     177.385E-03     170.370E-03    -593.973E-03     170.370E-03    -593.973E-03     177.385E-03    -106.152E-06     223.840E-03    -110.484E-03    -113.356E-03    -110.253E-03     220.737E-03    -110.484E-03     64.3585E-03     145.822E+06     130.978E+06    -4.96884E+06    -4.91233E+06     130.921E+06     145.822E+06    -1.24986E+06         60.2153
             123     16.1350E-03     36.6995E-03     175.703E-03     169.151E-03    -589.012E-03     169.151E-03    -589.012E-03     175.703E-03     48.1145E-06     223.812E-03    -110.456E-03    -113.355E-03    -110.161E-03     220.618E-03    -110.456E-03     65.3126E-03     145.750E+06     130.885E+06    -5.13756E+06    -5.13064E+06     130.878E+06     145.750E+06     923.129E+03         60.2455
             124     16.1345E-03     37.9574E-03     173.869E-03     167.973E-03    -584.503E-03     167.973E-03    -584.503E-03     173.869E-03     445.951E-06     223.205E-03    -110.536E-03    -112.668E-03    -108.610E-03     219.146E-03    -110.536E-03     72.8362E-03     145.945E+06     131.179E+06    -5.02304E+06    -5.02159E+06     131.178E+06     145.945E+06     277.184E+03         60.2719
             125     16.1326E-03     39.2037E-03     171.911E-03     166.716E-03    -579.833E-03     166.716E-03    -579.833E-03     171.911E-03     21.5165E-06     222.672E-03    -110.609E-03    -112.063E-03    -107.411E-03     218.020E-03    -110.609E-03     78.3072E-03     147.822E+06     133.473E+06    -3.13359E+06    -3.13021E+06     133.470E+06     147.822E+06     444.607E+03         60.2982
             126     16.1350E-03     40.4350E-03     169.866E-03     165.330E-03    -574.189E-03     165.330E-03    -574.189E-03     169.866E-03    -295.394E-06     221.921E-03    -110.559E-03    -111.363E-03    -107.443E-03     218.002E-03    -110.559E-03     71.7846E-03     146.720E+06     132.907E+06    -3.88157E+06    -3.87242E+06     132.898E+06     146.720E+06    -149.988E+03         60.3282
             127     16.1344E-03     41.6814E-03     167.724E-03     163.900E-03    -568.560E-03     163.900E-03    -568.560E-03     167.724E-03    -21.8595E-06     223.046E-03    -110.490E-03    -112.556E-03    -108.958E-03     219.448E-03    -110.490E-03     69.1233E-03     145.977E+06     131.910E+06    -4.71541E+06    -4.70918E+06     131.904E+06     145.977E+06    -802.421E+03         60.3590
             128     16.1346E-03     42.9300E-03     165.491E-03     162.467E-03    -562.993E-03     162.467E-03    -562.993E-03     165.491E-03     156.535E-06     224.469E-03    -110.457E-03    -114.012E-03    -110.434E-03     220.891E-03    -110.457E-03     69.2349E-03     146.874E+06     132.573E+06    -4.33415E+06    -4.33007E+06     132.569E+06     146.874E+06     327.459E+03         60.3892
             129     16.1346E-03     44.1746E-03     163.192E-03     161.031E-03    -557.231E-03     161.031E-03    -557.231E-03     163.192E-03     239.376E-06     224.266E-03    -110.464E-03    -113.802E-03    -110.429E-03     220.893E-03    -110.464E-03     67.1816E-03     147.639E+06     133.200E+06    -3.55272E+06    -3.54863E+06     133.196E+06     147.639E+06     674.922E+03         60.4188
             130     16.1339E-03     45.4225E-03     160.848E-03     159.539E-03    -551.410E-03     159.539E-03    -551.410E-03     160.848E-03     202.375E-06     223.318E-03    -110.497E-03    -112.821E-03    -109.627E-03     220.124E-03    -110.497E-03     65.2254E-03     146.688E+06     132.480E+06    -4.23631E+06    -4.23318E+06     132.477E+06     146.688E+06    -254.407E+03         60.4481
             131     16.1343E-03     46.6652E-03     158.484E-03     158.001E-03    -545.307E-03     158.001E-03    -545.307E-03     158.484E-03     114.187E-06     222.599E-03    -110.513E-03    -112.086E-03    -108.919E-03     219.432E-03    -110.513E-03     64.8022E-03     146.186E+06     131.991E+06    -4.17118E+06    -4.16805E+06     131.988E+06     146.186E+06    -256.261E+03         60.4787
             132     16.1343E-03     47.9123E-03     156.474E-03     156.076E-03    -539.145E-03     156.438E-03    -539.145E-03     156.112E-03     202.460E-06     222.711E-03    -110.513E-03    -112.197E-03    -109.017E-03     219.530E-03    -110.513E-03     64.9637E-03     146.458E+06     132.110E+06    -4.34765E+06    -4.34258E+06     132.105E+06     146.458E+06    -391.959E+03         60.5107
             133     16.1339E-03     49.1591E-03     154.872E-03     153.742E-03    -533.071E-03     154.872E-03    -533.071E-03     153.742E-03     258.714E-06     223.076E-03    -110.524E-03    -112.552E-03    -109.262E-03     219.786E-03    -110.524E-03     66.1263E-03     146.904E+06     132.586E+06    -4.38700E+06    -4.36487E+06     132.564E+06     146.904E+06     526.480E+03         60.5427
             134     16.1338E-03     50.4051E-03     153.250E-03     151.398E-03    -526.916E-03     153.250E-03    -526.916E-03     151.398E-03     66.1514E-06     222.963E-03    -110.537E-03    -112.427E-03    -109.185E-03     219.721E-03    -110.537E-03     65.6146E-03     147.348E+06     132.598E+06    -3.79190E+06    -3.77176E+06     132.578E+06     147.348E+06     667.063E+03         60.5750
             135     16.1338E-03     51.6487E-03     151.591E-03     149.101E-03    -520.464E-03     151.591E-03    -520.464E-03     149.101E-03     69.7007E-06     222.866E-03    -110.522E-03    -112.344E-03    -109.141E-03     219.663E-03    -110.522E-03     65.2188E-03     147.158E+06     131.591E+06    -4.43155E+06    -4.42094E+06     131.581E+06     147.158E+06    -1.15919E+06         60.6084
             136     16.1350E-03     52.8959E-03     150.008E-03     146.845E-03    -514.391E-03     150.008E-03    -514.391E-03     146.845E-03     316.051E-06     223.940E-03    -110.511E-03    -113.428E-03    -110.187E-03     220.699E-03    -110.511E-03     65.8108E-03     147.541E+06     132.222E+06    -4.45375E+06    -4.44519E+06     132.213E+06     147.541E+06    -935.302E+03         60.6419
             137     16.1316E-03     54.1482E-03     148.326E-03     144.653E-03    -508.514E-03     148.325E-03    -508.514E-03     144.653E-03    -203.914E-06     223.717E-03    -110.544E-03    -113.172E-03    -109.761E-03     220.305E-03    -110.544E-03     67.4120E-03     145.685E+06     131.518E+06    -5.56139E+06    -5.48479E+06     131.441E+06     145.685E+06     2.07345E+06         60.6741
             138     16.1356E-03     55.3896E-03     146.524E-03     142.568E-03    -501.645E-03     146.524E-03    -501.645E-03     142.568E-03    -510.625E-06     221.363E-03    -110.076E-03    -111.287E-03    -107.328E-03     217.868E-03    -110.540E-03     67.7774E-03     149.145E+06     136.084E+06    -677.432E+03    -592.437E+03     135.999E+06     149.145E+06     1.48865E+06         60.7084
             139     16.1360E-03     56.6292E-03     144.808E-03     140.559E-03    -495.309E-03     144.808E-03    -495.309E-03     140.559E-03     222.649E-06     222.232E-03    -110.011E-03    -112.221E-03    -108.571E-03     219.046E-03    -110.476E-03     64.8940E-03     148.620E+06     135.654E+06    -2.67578E+06    -2.65191E+06     135.630E+06     148.620E+06    -1.80386E+06         60.7452
             140     16.1329E-03     57.8802E-03     143.164E-03     138.614E-03    -489.768E-03     143.164E-03    -489.768E-03     138.614E-03     424.693E-06     224.475E-03    -110.465E-03    -114.009E-03    -110.897E-03     221.362E-03    -110.465E-03     64.6069E-03     146.477E+06     133.112E+06    -6.43682E+06    -6.42050E+06     133.096E+06     146.477E+06    -1.33284E+06         60.7810
             141     16.1350E-03     59.1283E-03     141.527E-03     136.771E-03    -483.750E-03     141.527E-03    -483.750E-03     136.771E-03     264.573E-06     224.330E-03    -110.493E-03    -113.836E-03    -110.503E-03     220.996E-03    -110.493E-03     66.8035E-03     147.948E+06     134.884E+06    -4.39253E+06    -4.37588E+06     134.868E+06     147.948E+06     713.946E+03         60.8165
             142     16.1332E-03     60.3768E-03     139.857E-03     135.030E-03    -477.964E-03     139.857E-03    -477.964E-03     135.030E-03     328.278E-06     224.117E-03    -110.529E-03    -113.588E-03    -110.114E-03     220.643E-03    -110.529E-03     68.1546E-03     146.544E+06     133.493E+06    -5.81890E+06    -5.79465E+06     133.469E+06     146.544E+06     1.82189E+06         60.8524
             143     16.1331E-03     61.6257E-03     138.160E-03     133.389E-03    -472.252E-03     138.160E-03    -472.252E-03     133.389E-03     185.764E-06     223.189E-03    -110.580E-03    -112.609E-03    -109.129E-03     219.709E-03    -110.580E-03     68.0137E-03     147.477E+06     134.636E+06    -3.85420E+06    -3.84518E+06     134.627E+06     147.477E+06     794.278E+03         60.8885
             144     16.1336E-03     62.8634E-03     136.444E-03     131.856E-03    -466.427E-03     136.444E-03    -466.427E-03     131.856E-03     69.1345E-06     222.745E-03    -110.576E-03    -112.169E-03    -108.980E-03     219.557E-03    -110.576E-03     64.9749E-03     146.165E+06     134.122E+06    -4.78713E+06    -4.78414E+06     134.119E+06     146.165E+06    -458.293E+03         60.9264
             145     16.1327E-03     64.1111E-03     134.796E-03     130.412E-03    -460.769E-03     134.796E-03    -460.769E-03     130.412E-03     383.816E-06     222.525E-03    -110.589E-03    -111.936E-03    -108.998E-03     219.587E-03    -110.589E-03     62.4094E-03     147.356E+06     135.936E+06    -4.53382E+06    -4.52124E+06     135.924E+06     147.356E+06    -1.27870E+06         60.9642
             146     16.1333E-03     65.3590E-03     133.233E-03     129.041E-03    -455.851E-03     133.232E-03    -455.850E-03     129.041E-03     259.562E-06     222.607E-03    -110.674E-03    -111.934E-03    -108.683E-03     219.357E-03    -110.674E-03     65.5780E-03     146.776E+06     134.963E+06    -4.91789E+06    -4.90493E+06     134.950E+06     146.776E+06    -335.589E+03         60.9994
             147     16.1284E-03     66.6082E-03     131.436E-03     127.777E-03    -450.446E-03     131.435E-03    -450.445E-03     127.777E-03    -977.499E-06     221.572E-03    -109.881E-03    -111.691E-03    -107.354E-03     218.053E-03    -110.700E-03     68.0401E-03     146.807E+06     133.971E+06    -2.75377E+06    -2.55219E+06     133.770E+06     146.807E+06     4.12211E+06         61.0366
             148     16.1384E-03     67.8389E-03     129.513E-03     126.625E-03    -443.751E-03     129.512E-03    -443.750E-03     126.625E-03    -1.11410E-03     220.515E-03    -109.732E-03    -110.783E-03    -106.673E-03     217.224E-03    -110.551E-03     65.5903E-03     149.691E+06     136.804E+06    -54.2445E+03     184.472E+03     136.565E+06     149.691E+06     1.95564E+06         61.0801
             149     16.1346E-03     70.3493E-03     125.990E-03     124.409E-03    -433.325E-03     125.990E-03    -433.325E-03     124.409E-03    -185.806E-06     226.111E-03    -110.390E-03    -115.721E-03    -112.226E-03     222.617E-03    -110.390E-03     68.6794E-03     145.129E+06     132.057E+06    -7.80738E+06    -7.72756E+06     131.977E+06     145.129E+06    -2.06743E+06         61.1639
             150     16.1361E-03     71.5903E-03     124.242E-03     123.366E-03    -427.497E-03     124.242E-03    -427.497E-03     123.366E-03    -53.9764E-06     223.023E-03    -110.451E-03    -112.573E-03    -108.897E-03     219.348E-03    -110.451E-03     69.8470E-03     149.871E+06     137.024E+06    -1.84457E+06    -1.77983E+06     136.959E+06     149.871E+06     2.37460E+06         61.2029
             151     16.1356E-03     72.8349E-03     122.582E-03     122.323E-03    -422.406E-03     122.579E-03    -422.406E-03     122.326E-03     694.334E-06     222.614E-03    -110.493E-03    -112.121E-03    -108.953E-03     219.446E-03    -110.493E-03     64.6953E-03     147.668E+06     135.331E+06    -3.96295E+06    -3.87682E+06     135.245E+06     147.668E+06     838.340E+03         61.2425
             152     16.1317E-03     74.0766E-03     121.275E-03     120.955E-03    -417.792E-03     120.955E-03    -417.792E-03     121.275E-03     319.268E-06     223.442E-03    -110.571E-03    -112.871E-03    -109.843E-03     220.414E-03    -110.571E-03     63.4836E-03     143.721E+06     130.763E+06    -8.27304E+06    -8.24945E+06     130.739E+06     143.721E+06    -1.52968E+06         61.2811
             153     16.1329E-03     75.3301E-03     120.248E-03     119.156E-03    -412.088E-03     119.156E-03    -412.088E-03     120.248E-03    -564.531E-06     222.664E-03    -110.597E-03    -112.067E-03    -108.502E-03     219.099E-03    -110.597E-03     68.6495E-03     148.873E+06     135.630E+06    -1.10545E+06    -1.04133E+06     135.566E+06     148.873E+06     1.79562E+06         61.3218
             154     16.1361E-03     76.5723E-03     119.214E-03     117.230E-03    -405.953E-03     117.230E-03    -405.953E-03     119.214E-03    -489.906E-06     221.059E-03    -110.330E-03    -110.729E-03    -106.917E-03     217.483E-03    -110.566E-03     68.4371E-03     152.392E+06     139.793E+06     2.14372E+06     2.32820E+06     139.608E+06     152.392E+06    -838.668E+03         61.3638
             155     16.1337E-03     77.8112E-03     118.123E-03     115.342E-03    -400.321E-03     115.342E-03    -400.321E-03     118.123E-03    -86.6892E-06     223.201E-03    -110.239E-03    -112.961E-03    -109.272E-03     219.748E-03    -110.476E-03     67.7559E-03     144.622E+06     132.234E+06    -8.01846E+06    -7.88645E+06     132.102E+06     144.622E+06    -2.04380E+06         61.4065
             156     16.1358E-03     79.0638E-03     116.964E-03     113.518E-03    -394.608E-03     113.518E-03    -394.608E-03     116.964E-03     112.248E-06     225.534E-03    -110.415E-03    -115.118E-03    -111.781E-03     222.196E-03    -110.415E-03     67.0482E-03     143.871E+06     131.316E+06    -7.89634E+06    -7.87865E+06     131.298E+06     143.871E+06     163.777E+03         61.4488
             157     16.1331E-03     80.3145E-03     115.727E-03     111.699E-03    -388.884E-03     111.699E-03    -388.884E-03     115.727E-03     237.591E-06     226.685E-03    -110.438E-03    -116.246E-03    -112.591E-03     223.030E-03    -110.438E-03     70.2071E-03     147.253E+06     134.896E+06    -2.37081E+06    -2.33836E+06     134.863E+06     147.253E+06     618.091E+03         61.4896
             158     16.1340E-03     81.5667E-03     114.404E-03     109.819E-03    -383.032E-03     109.819E-03    -383.032E-03     114.404E-03     27.4044E-06     226.784E-03    -110.471E-03    -116.313E-03    -112.580E-03     223.051E-03    -110.471E-03     71.0292E-03     144.162E+06     131.886E+06    -5.59455E+06    -5.56751E+06     131.859E+06     144.162E+06     1.66109E+06         61.5316
             159     16.1325E-03     82.8139E-03     112.999E-03     107.836E-03    -376.721E-03     107.836E-03    -376.721E-03     112.999E-03    -369.300E-06     222.163E-03    -109.333E-03    -112.830E-03    -108.183E-03     218.762E-03    -110.578E-03     66.9932E-03     143.727E+06     131.329E+06    -6.43610E+06    -6.43307E+06     131.326E+06     143.727E+06     42.0394E+03         61.5734
             160     16.1355E-03     84.0498E-03     111.501E-03     105.780E-03    -369.993E-03     105.780E-03    -369.993E-03     111.501E-03    -446.737E-06     219.161E-03    -108.540E-03    -110.620E-03    -104.937E-03     215.558E-03    -110.620E-03     68.3432E-03     146.143E+06     133.916E+06    -4.32183E+06    -4.31287E+06     133.907E+06     146.143E+06    -1.02969E+06         61.6194
             161     16.1348E-03     85.2934E-03     109.881E-03     103.711E-03    -363.240E-03     103.711E-03    -363.240E-03     109.881E-03    -207.071E-06     221.143E-03    -109.697E-03    -111.446E-03    -107.132E-03     217.665E-03    -110.532E-03     67.5645E-03     148.174E+06     135.837E+06    -3.19036E+06    -3.17909E+06     135.825E+06     148.174E+06    -1.23083E+06         61.6709
             162     16.1352E-03     86.5370E-03     108.123E-03     101.636E-03    -356.431E-03     101.636E-03    -356.431E-03     108.123E-03    -16.8206E-06     222.826E-03    -110.478E-03    -112.348E-03    -109.093E-03     219.571E-03    -110.478E-03     65.7313E-03     147.820E+06     134.366E+06    -2.99148E+06    -2.98747E+06     134.362E+06     147.820E+06    -663.870E+03         61.7217
             163     16.1348E-03     87.7842E-03     106.228E-03     99.5404E-03    -349.406E-03     99.5404E-03    -349.406E-03     106.228E-03     39.4399E-06     223.448E-03    -110.471E-03    -112.977E-03    -109.751E-03     220.222E-03    -110.471E-03     65.5721E-03     146.979E+06     132.745E+06    -4.14761E+06    -4.14679E+06     132.744E+06     146.979E+06    -334.803E+03         61.7714
             164     16.1344E-03     89.0309E-03     104.195E-03     97.3928E-03    -342.125E-03     97.3928E-03    -342.125E-03     104.195E-03     26.7972E-06     223.943E-03    -110.472E-03    -113.471E-03    -110.237E-03     220.709E-03    -110.472E-03     65.7439E-03     147.820E+06     133.616E+06    -4.15382E+06    -4.15052E+06     133.612E+06     147.820E+06     269.865E+03         61.8215
             165     16.1350E-03     90.2783E-03     102.022E-03     95.1956E-03    -334.551E-03     95.1956E-03    -334.551E-03     102.022E-03     15.6604E-06     223.476E-03    -110.489E-03    -112.988E-03    -109.745E-03     220.234E-03    -110.489E-03     65.7354E-03     147.724E+06     134.735E+06    -4.72932E+06    -4.72284E+06     134.729E+06     147.724E+06     949.488E+03         61.8716
             166     16.1340E-03     91.5260E-03     99.7111E-03     92.9394E-03    -326.764E-03     92.9394E-03    -326.764E-03     99.7111E-03    -35.6709E-06     222.836E-03    -110.515E-03    -112.321E-03    -109.000E-03     219.515E-03    -110.515E-03     66.3984E-03     148.440E+06     136.482E+06    -4.33718E+06    -4.33232E+06     136.477E+06     148.440E+06     210.794E+03         61.9223
             167     16.1352E-03     92.7681E-03     97.2640E-03     90.6377E-03    -318.641E-03     90.6377E-03    -318.641E-03     97.2640E-03    -44.9335E-06     222.662E-03    -110.510E-03    -112.151E-03    -108.829E-03     219.340E-03    -110.510E-03     66.3672E-03     149.436E+06     136.998E+06    -3.62349E+06    -3.62187E+06     136.996E+06     149.436E+06    -132.622E+03         61.9751
             168     16.1347E-03     94.0166E-03     94.6791E-03     88.2979E-03    -310.372E-03     88.2979E-03    -310.372E-03     94.6791E-03     5.31677E-06     222.882E-03    -110.504E-03    -112.378E-03    -109.108E-03     219.612E-03    -110.504E-03     65.8892E-03     149.765E+06     137.441E+06    -4.18274E+06    -4.18003E+06     137.439E+06     149.765E+06     570.172E+03         62.0286
             169     16.1345E-03     95.2608E-03     91.9634E-03     85.9021E-03    -301.862E-03     85.9021E-03    -301.862E-03     91.9634E-03    -35.8899E-06     222.688E-03    -110.508E-03    -112.180E-03    -108.875E-03     219.383E-03    -110.508E-03     66.2014E-03     150.625E+06     139.960E+06    -3.86071E+06    -3.85727E+06     139.957E+06     150.625E+06     690.280E+03         62.0823
             170     16.1356E-03     96.5066E-03     89.1256E-03     83.4781E-03    -293.037E-03     83.4781E-03    -293.037E-03     89.1256E-03     60.9983E-06     222.664E-03    -110.493E-03    -112.170E-03    -108.825E-03     219.319E-03    -110.493E-03     66.5945E-03     150.964E+06     142.116E+06    -3.97172E+06    -3.96748E+06     142.112E+06     150.964E+06     761.954E+03         62.1369
             171     16.1346E-03     97.7532E-03     86.1651E-03     81.0486E-03    -284.259E-03     81.0486E-03    -284.259E-03     86.1651E-03     175.982E-06     223.280E-03    -110.503E-03    -112.777E-03    -109.494E-03     219.997E-03    -110.503E-03     66.1004E-03     151.681E+06     144.578E+06    -4.62414E+06    -4.61991E+06     144.573E+06     151.681E+06     766.956E+03         62.1911
             172     16.1337E-03     98.9992E-03     83.1002E-03     78.5516E-03    -275.272E-03     78.5515E-03    -275.272E-03     83.1002E-03    -98.1837E-06     223.190E-03    -110.525E-03    -112.665E-03    -109.331E-03     219.856E-03    -110.525E-03     66.5865E-03     152.487E+06     146.805E+06    -4.79548E+06    -4.77334E+06     146.783E+06     152.487E+06     1.54899E+06         62.2453
             173     16.1355E-03     100.245E-03     79.9551E-03     75.9765E-03    -265.710E-03     75.9765E-03    -265.710E-03     79.9551E-03    -236.142E-06     222.275E-03    -110.495E-03    -111.780E-03    -108.346E-03     218.841E-03    -110.495E-03     67.3962E-03     155.265E+06     150.733E+06    -3.19713E+06    -3.17588E+06     150.711E+06     155.265E+06     1.38702E+06         62.3017
             174     16.1370E-03     101.488E-03     76.7250E-03     73.4059E-03    -256.222E-03     73.4059E-03    -256.222E-03     76.7250E-03     1.71348E-06     222.935E-03    -110.452E-03    -112.483E-03    -109.099E-03     219.551E-03    -110.452E-03     67.0332E-03     156.598E+06     153.415E+06    -3.93465E+06    -3.91596E+06     153.396E+06     156.598E+06     1.33452E+06         62.3584
             175     16.1338E-03     102.740E-03     73.4193E-03     70.8193E-03    -246.844E-03     70.8193E-03    -246.844E-03     73.4193E-03    -57.2270E-06     222.932E-03    -110.466E-03    -112.466E-03    -109.165E-03     219.631E-03    -110.466E-03     66.2200E-03     155.789E+06     154.172E+06    -6.09029E+06    -6.07167E+06     154.153E+06     155.789E+06     1.10475E+06         62.4122
             176     16.1375E-03     103.978E-03     70.0698E-03     68.2092E-03    -237.074E-03     68.2092E-03    -237.074E-03     70.0698E-03    -232.498E-06     221.557E-03    -110.465E-03    -111.092E-03    -107.695E-03     218.159E-03    -110.465E-03     66.8843E-03     157.387E+06     156.882E+06    -5.39209E+06    -5.36140E+06     156.852E+06     157.387E+06     1.46918E+06         62.4653
             177     16.1363E-03     105.226E-03     66.6841E-03     65.5752E-03    -227.320E-03     65.5752E-03    -227.320E-03     66.6841E-03    -254.690E-06     221.942E-03    -110.418E-03    -111.524E-03    -108.242E-03     218.660E-03    -110.418E-03     65.7904E-03     161.271E+06     160.775E+06    -4.09608E+06    -4.02436E+06     160.879E+06     161.095E+06     3.43240E+06         62.5176
             178     16.1376E-03     106.467E-03     63.2781E-03     62.9046E-03    -217.552E-03     62.9082E-03    -217.552E-03     63.2742E-03    -468.509E-06     221.548E-03    -110.299E-03    -111.249E-03    -108.176E-03     218.552E-03    -110.376E-03     62.8650E-03     164.450E+06     163.641E+06    -3.23160E+06    -3.18217E+06     163.768E+06     164.274E+06     1.03071E+06         62.5653
             179     16.1395E-03     107.710E-03     60.2041E-03     59.8655E-03    -207.527E-03     60.2036E-03    -207.527E-03     59.8655E-03    -714.670E-06     221.396E-03    -110.189E-03    -111.207E-03    -107.889E-03     218.155E-03    -110.266E-03     65.2669E-03     164.501E+06     163.214E+06    -5.55277E+06    -5.54061E+06     163.202E+06     164.501E+06    -1.40529E+06         62.6092
             180     16.1424E-03     108.962E-03     57.4777E-03     56.4658E-03    -197.474E-03     57.4772E-03    -197.474E-03     56.4658E-03    -738.173E-06     222.477E-03    -110.108E-03    -112.368E-03    -108.816E-03     218.924E-03    -110.108E-03     68.6101E-03     168.325E+06     166.536E+06    -5.84208E+06    -5.83035E+06     166.524E+06     168.325E+06    -1.40116E+06         62.6464
             181     16.1441E-03     110.204E-03     54.7942E-03     53.0825E-03    -187.615E-03     54.7937E-03    -187.615E-03     53.0825E-03    -712.739E-06     221.572E-03    -110.027E-03    -111.545E-03    -108.041E-03     218.068E-03    -110.027E-03     67.9679E-03     174.129E+06     171.595E+06    -3.94690E+06    -3.92001E+06     171.568E+06     174.129E+06     476.270E+03         62.6702
             182     16.1455E-03     111.451E-03     52.1304E-03     49.7356E-03    -177.921E-03     52.1294E-03    -177.920E-03     49.7356E-03    -932.922E-06     219.949E-03    -109.794E-03    -110.154E-03    -106.485E-03     216.441E-03    -109.956E-03     67.6724E-03     175.875E+06     171.844E+06    -5.41166E+06    -5.37870E+06     171.811E+06     175.875E+06     2.41017E+06         62.6819
             183     16.1489E-03     112.683E-03     49.4435E-03     46.4511E-03    -168.188E-03     49.4408E-03    -168.185E-03     46.4511E-03    -1.46691E-03     216.481E-03    -106.644E-03    -109.837E-03    -103.363E-03     213.200E-03    -109.837E-03     64.7429E-03     179.034E+06     172.392E+06    -6.03103E+06    -6.01390E+06     172.375E+06     179.034E+06     1.64626E+06         62.6869
             184     16.1547E-03     113.924E-03     46.6907E-03     43.2521E-03    -158.336E-03     46.6847E-03    -158.330E-03     43.2521E-03    -2.17830E-03     212.745E-03    -103.159E-03    -109.586E-03    -99.1661E-03     208.752E-03    -109.586E-03     69.9839E-03     183.616E+06     173.031E+06    -5.71496E+06    -5.71169E+06     173.028E+06     183.616E+06     613.719E+03         62.6961
             185     16.1648E-03     115.153E-03     43.8294E-03     40.1505E-03    -148.247E-03     43.8187E-03    -148.236E-03     40.1505E-03    -2.84545E-03     212.106E-03    -103.111E-03    -108.994E-03    -98.4070E-03     207.401E-03    -108.994E-03     76.3991E-03     187.019E+06     173.473E+06    -4.19098E+06    -4.18539E+06     173.467E+06     187.019E+06     777.935E+03         62.7300
             186     16.1786E-03     116.381E-03     40.8915E-03     37.1459E-03    -137.913E-03     40.8786E-03    -137.900E-03     37.1459E-03    -3.03438E-03     209.789E-03    -101.593E-03    -108.196E-03    -97.4821E-03     205.678E-03    -108.196E-03     71.0502E-03     191.533E+06     175.664E+06    -4.61960E+06    -4.55569E+06     175.600E+06     191.533E+06     3.00903E+06         62.8019
             187     16.1938E-03     117.605E-03     38.0091E-03     34.2186E-03    -127.769E-03     37.9997E-03    -127.759E-03     34.2186E-03    -2.46597E-03     212.785E-03    -103.136E-03    -109.649E-03    -101.492E-03     208.742E-03    -107.250E-03     71.2836E-03     192.886E+06     175.590E+06    -6.58818E+06    -6.52944E+06     175.531E+06     192.886E+06     2.12732E+06         62.9265
             188     16.2023E-03     118.846E-03     35.2725E-03     31.3376E-03    -118.196E-03     35.2686E-03    -118.192E-03     31.3376E-03    -1.47054E-03     221.964E-03    -106.396E-03    -115.567E-03    -112.052E-03     218.449E-03    -106.396E-03     68.0164E-03     193.946E+06     171.696E+06    -6.97645E+06    -6.95988E+06     171.679E+06     193.946E+06    -1.37346E+06         63.1095
             189     16.2055E-03     120.110E-03     32.6914E-03     28.4982E-03    -109.191E-03     32.6905E-03    -109.190E-03     28.4982E-03    -663.082E-06     229.977E-03    -105.968E-03    -124.009E-03    -120.106E-03     226.074E-03    -105.968E-03     73.2216E-03     197.266E+06     165.782E+06    -6.65868E+06    -6.60531E+06     165.729E+06     197.266E+06    -2.96623E+06         63.3451
             190     16.2056E-03     121.371E-03     30.2001E-03     25.7196E-03    -100.461E-03     30.1999E-03    -100.460E-03     25.7196E-03    -286.466E-06     239.539E-03    -105.684E-03    -133.855E-03    -129.311E-03     234.995E-03    -105.684E-03     81.6704E-03     198.361E+06     158.804E+06    -6.19834E+06    -6.12114E+06     158.727E+06     198.361E+06    -3.56627E+06         63.6367
             191     16.2056E-03     122.642E-03     27.7215E-03     23.0144E-03    -91.7583E-03     27.7214E-03    -91.7583E-03     23.0144E-03    -178.376E-06     248.227E-03    -105.425E-03    -142.802E-03    -138.542E-03     243.967E-03    -105.425E-03     81.1745E-03     197.034E+06     151.095E+06    -2.73075E+06    -2.68387E+06     151.048E+06     197.034E+06    -2.50246E+06         63.9687
             192     16.2060E-03     123.929E-03     25.2524E-03     20.3903E-03    -83.1307E-03     25.2523E-03    -83.1307E-03     20.3903E-03    -162.879E-06     255.059E-03    -105.226E-03    -149.833E-03    -145.363E-03     250.589E-03    -105.226E-03     84.6101E-03     192.265E+06     145.209E+06    -5.12375E+06    -5.11431E+06     145.199E+06     192.265E+06    -1.15554E+06         64.3076
             193     16.2057E-03     125.216E-03     22.8092E-03     17.8527E-03    -74.6526E-03     22.8091E-03    -74.6525E-03     17.8527E-03    -191.144E-06     260.597E-03    -105.074E-03    -155.523E-03    -151.223E-03     256.297E-03    -105.074E-03     84.1419E-03     191.006E+06     139.554E+06    -6.74477E+06    -6.65840E+06     139.467E+06     191.006E+06    -2.85652E+06         64.6142
             194     16.2059E-03     126.511E-03     20.4099E-03     15.4066E-03    -66.3520E-03     20.4097E-03    -66.3518E-03     15.4066E-03    -259.571E-06     263.852E-03    -104.990E-03    -158.862E-03    -154.610E-03     259.600E-03    -104.990E-03     84.3598E-03     189.488E+06     125.762E+06    -6.41712E+06    -6.10394E+06     125.449E+06     189.488E+06    -6.19737E+06         64.8414
             195     16.2064E-03     127.812E-03     18.0610E-03     13.0585E-03    -58.2570E-03     18.0607E-03    -58.2566E-03     13.0585E-03    -338.662E-06     265.877E-03    -104.926E-03    -160.951E-03    -156.602E-03     261.528E-03    -104.926E-03     85.7253E-03     186.553E+06     106.622E+06    -4.64484E+06    -4.20381E+06     106.181E+06     186.553E+06    -6.98447E+06         64.9420
             196     16.2068E-03     129.107E-03     15.7722E-03     10.8127E-03    -50.4007E-03     15.7716E-03    -50.4001E-03     10.8127E-03    -407.427E-06     267.645E-03    -104.864E-03    -162.781E-03    -158.553E-03     263.418E-03    -104.864E-03     84.8849E-03     182.118E+06     82.6178E+06    -8.05586E+06    -7.01692E+06     81.5788E+06     182.118E+06    -9.04419E+06         64.8683
             197     16.2071E-03     130.411E-03     13.5376E-03     8.67470E-03    -42.7632E-03     13.5366E-03    -42.7622E-03     8.67470E-03    -469.977E-06     270.393E-03    -104.779E-03    -165.615E-03    -161.361E-03     266.140E-03    -104.779E-03     85.7039E-03     182.666E+06     61.0773E+06    -2.43663E+06    -1.59974E+06     60.2404E+06     182.666E+06    -5.39445E+06         64.5835
             198     16.2084E-03     131.717E-03     11.3411E-03     6.65432E-03    -35.3033E-03     11.3397E-03    -35.3019E-03     6.65432E-03    -510.890E-06     272.905E-03    -104.669E-03    -168.236E-03    -164.058E-03     268.727E-03    -104.669E-03     85.4217E-03     182.244E+06     48.1239E+06    -5.43069E+06    -5.17555E+06     47.8687E+06     182.244E+06    -2.34856E+06         64.0835
             199     16.2089E-03     133.024E-03     9.16255E-03     4.76751E-03    -27.9789E-03     9.16079E-03    -27.9771E-03     4.76751E-03    -509.708E-06     273.255E-03    -104.576E-03    -168.678E-03    -164.792E-03     269.369E-03    -104.576E-03     82.5135E-03     186.466E+06     44.6448E+06    -1.40332E+06    -476.526E+03     43.7180E+06     186.466E+06     196.159E+03         63.4320
             200     16.2121E-03     134.328E-03     6.97242E-03     3.03536E-03    -20.7403E-03     6.97072E-03    -20.7386E-03     3.03536E-03    -435.145E-06     268.167E-03    -104.596E-03    -163.571E-03    -160.223E-03     264.819E-03    -104.596E-03     75.6215E-03     189.692E+06     44.0870E+06    -8.10729E+06    -6.82377E+06     42.8035E+06     189.692E+06    -1.77017E+06         62.7816
             201     16.2127E-03     135.624E-03     4.73657E-03     1.47262E-03    -13.5754E-03     4.73550E-03    -13.5744E-03     1.47262E-03    -278.136E-06     264.667E-03    -104.543E-03    -160.125E-03    -156.484E-03     261.027E-03    -104.543E-03     77.9083E-03     187.943E+06     48.5985E+06    -4.48675E+06     1.52189E+06     42.5899E+06     187.943E+06     2.34252E+06         62.3472
             202     16.2169E-03     136.922E-03     2.38009E-03     97.0662E-06    -6.39020E-03     2.37977E-03    -6.38988E-03     97.0662E-06    -99.1464E-06     224.581E-03    -90.7334E-03    -133.848E-03    -117.070E-03     222.384E-03    -105.315E-03     42.8215E-03     144.515E+06     45.2594E+06    -5.64910E+06     3.16005E+06     36.4502E+06     144.515E+06    -3.44723E+06         62.2187
             203     15.2162E-03     138.020E-03     1.01894E-03    -516.521E-06    -2.73785E-03     1.01448E-03    -2.73339E-03    -516.521E-06    -185.651E-06     181.666E-03    -74.8525E-03    -106.814E-03    -74.5994E-03     181.413E-03    -106.814E-03    -11.5868E-03     93.9509E+06     15.1936E+06    -44.2633E+06    -17.8863E+06    -11.1833E+06     93.9509E+06    -13.3088E+06         61.0720
             204     14.2728E-03     137.800E-03     806.925E-06    -433.570E-06    -2.73368E-03     777.737E-06    -2.70449E-03    -433.570E-06    -591.141E-06     172.880E-03    -64.7928E-03    -108.087E-03    -63.9974E-03     172.085E-03    -108.087E-03    -26.7991E-03     113.742E+06     14.0943E+06    -12.3740E+06     11.5823E+06    -9.86203E+06     113.742E+06    -1.28804E+06         58.5081
             205     13.3433E-03     137.556E-03     704.458E-06    -304.912E-06    -2.77073E-03     627.498E-06    -2.69377E-03    -304.912E-06    -1.00460E-03     165.213E-03    -55.6548E-03    -109.558E-03    -54.0375E-03     163.596E-03    -109.558E-03    -37.1004E-03     126.354E+06     28.9309E+06     2.72879E+06     26.7286E+06     4.93104E+06     126.354E+06     2.14195E+06         55.4737
             206     12.4118E-03     137.311E-03     685.511E-06    -163.576E-06    -2.82788E-03     559.405E-06    -2.70177E-03    -163.576E-06    -1.30280E-03     168.101E-03    -56.9568E-03    -111.144E-03    -53.9045E-03     165.048E-03    -111.144E-03    -51.5614E-03     126.514E+06     27.8711E+06    -2.61218E+06     27.7977E+06    -2.53874E+06     126.514E+06     1.30663E+06         52.1608
             207     11.4937E-03     137.059E-03     712.498E-06    -20.6655E-06    -2.93542E-03     550.252E-06    -2.77317E-03    -20.6655E-06    -1.50311E-03     176.463E-03    -64.0638E-03    -112.399E-03    -59.2392E-03     171.638E-03    -112.399E-03    -67.2687E-03     135.721E+06     30.7429E+06     2.62203E+06     30.4806E+06     2.88440E+06     135.721E+06     2.69643E+06         48.8474
             208     10.5884E-03     136.809E-03     746.180E-06     118.005E-06    -3.07173E-03     565.453E-06    -2.89100E-03     118.005E-06    -1.62153E-03     186.928E-03    -73.9578E-03    -112.970E-03    -67.3860E-03     180.356E-03    -112.970E-03    -81.6715E-03     138.585E+06     31.4635E+06    -457.764E+03     31.2411E+06    -235.368E+03     138.585E+06     2.45711E+06         45.7580
             209     9.69721E-03     136.564E-03     773.745E-06     247.692E-06    -3.21516E-03     593.427E-06    -3.03484E-03     247.692E-06    -1.65696E-03     196.668E-03    -83.9181E-03    -112.750E-03    -76.0071E-03     188.757E-03    -112.750E-03    -92.8808E-03     140.279E+06     32.3320E+06     1.78401E+06      32.287E+06     1.82904E+06     140.279E+06     1.16886E+06         43.0227
             210     8.81626E-03     136.331E-03     789.671E-06     365.463E-06    -3.34593E-03     623.896E-06    -3.18015E-03     365.463E-06    -1.62117E-03     204.536E-03    -92.7607E-03    -111.775E-03    -84.2132E-03     195.988E-03    -111.775E-03    -99.3595E-03     140.385E+06     32.9899E+06    -1.25954E+06     32.9580E+06    -1.22771E+06     140.385E+06     712.205E+03         40.6828
             211     7.94188E-03     136.114E-03     801.827E-06     469.685E-06    -3.45631E-03     660.387E-06    -3.31487E-03     469.685E-06    -1.52346E-03     210.521E-03    -100.425E-03    -110.096E-03    -91.8032E-03     201.900E-03    -110.096E-03    -102.095E-03     143.383E+06     35.3990E+06     1.98669E+06     35.0941E+06     2.29158E+06     143.383E+06    -2.41910E+06         38.7195
             212     7.07318E-03     135.918E-03     814.749E-06     559.065E-06    -3.53983E-03     702.261E-06    -3.42735E-03     559.065E-06    -1.37798E-03     213.350E-03    -105.194E-03    -108.156E-03    -97.5442E-03     205.353E-03    -107.809E-03    -99.6554E-03     143.265E+06     40.7211E+06    -1.45087E+06      40.007E+06    -736.767E+03     143.265E+06    -5.44070E+06         37.0838
             213     6.20528E-03     135.743E-03     823.613E-06     633.341E-06    -3.58905E-03     739.785E-06    -3.50522E-03     633.341E-06    -1.20021E-03     212.601E-03    -105.120E-03    -107.481E-03    -100.695E-03     205.815E-03    -105.120E-03    -92.0963E-03     139.410E+06     47.6503E+06    -2.72539E+06     46.7403E+06    -1.81539E+06     139.410E+06    -6.70777E+06         35.7194
             214     5.33449E-03     135.594E-03     832.292E-06     693.080E-06    -3.60771E-03     774.225E-06    -3.54964E-03     693.080E-06    -1.00330E-03     209.446E-03    -102.265E-03    -107.181E-03    -101.846E-03     204.111E-03    -102.265E-03    -81.3069E-03     132.313E+06     55.1022E+06    -3.77206E+06     54.1995E+06    -2.86941E+06     132.313E+06    -7.19533E+06         34.5798
             215     4.45927E-03     135.471E-03     836.821E-06     739.606E-06    -3.60474E-03     799.432E-06    -3.56735E-03     739.606E-06    -805.792E-06     204.336E-03    -99.4408E-03    -104.896E-03    -101.040E-03     200.480E-03    -99.4408E-03    -68.3717E-03     124.065E+06     62.0952E+06    -3.66338E+06     61.4294E+06    -2.99753E+06     124.065E+06    -6.53909E+06         33.6334
             216     3.57708E-03     135.370E-03     838.076E-06     774.943E-06    -3.59016E-03     815.705E-06    -3.56779E-03     774.943E-06    -621.756E-06     198.084E-03    -96.8513E-03    -101.232E-03    -98.6522E-03     195.504E-03    -96.8513E-03    -55.0518E-03     114.348E+06     70.4872E+06    -263.084E+03     69.5003E+06     723.838E+03     114.348E+06    -8.09882E+06         32.8620
             217     2.68872E-03     135.294E-03     835.659E-06     801.324E-06    -3.57161E-03     823.850E-06    -3.55980E-03     801.324E-06    -447.555E-06     192.212E-03    -94.7202E-03    -97.4920E-03    -95.9265E-03     190.647E-03    -94.7202E-03    -42.0600E-03     108.116E+06     80.2652E+06    -4.45332E+06     79.0586E+06    -3.24678E+06     108.116E+06    -9.90408E+06         32.2580
             218     1.79460E-03     135.238E-03     833.766E-06     821.298E-06    -3.55706E-03     828.696E-06    -3.55199E-03     821.298E-06    -289.547E-06     187.282E-03    -93.1165E-03    -94.1655E-03    -93.2638E-03     186.486E-03    -93.2224E-03    -29.3043E-03     101.881E+06     88.4995E+06    -4.14140E+06     87.6924E+06    -3.33429E+06     101.881E+06    -8.57650E+06         31.8202
             219     897.055E-06     135.205E-03     839.895E-06     836.143E-06    -3.55018E-03     837.588E-06    -3.54846E-03     836.730E-06    -165.607E-06     184.903E-03    -92.0541E-03    -92.8488E-03    -92.4433E-03     184.603E-03    -92.1600E-03    -17.2756E-03     95.6221E+06     91.6488E+06    -3.56530E+06     91.2131E+06    -3.12957E+06     95.6221E+06    -6.17384E+06         31.5480
             220    -1.23102E-06     133.991E-03     1.23648E-03     1.22442E-03    -6.61933E-03     1.23491E-03    -6.61834E-03     1.22500E-03    -174.737E-06     156.450E-03    -77.5301E-03    -78.9197E-03    -78.1476E-03     156.379E-03    -78.2310E-03    -7.88612E-03     54.9029E+06     50.0462E+06    -19.4244E+06     52.4313E+06    -18.6783E+06     51.7718E+06    -6.08954E+06         31.3492
             221    -19.2004E-09     132.855E-03     2.19582E-03     2.17095E-03    -12.8812E-03     2.19439E-03    -12.8798E-03     2.17095E-03    -293.115E-06     109.287E-03    -54.1311E-03    -55.1563E-03    -54.1175E-03     109.274E-03    -55.1563E-03    -1.51365E-03    -21.0730E+06    -31.7804E+06    -55.9998E+06    -30.6556E+06    -46.4172E+06    -31.7804E+06    -9.29739E+06         31.0985
             222    -539.823E-09     131.762E-03     3.45956E-03     3.41751E-03    -19.3355E-03     3.45819E-03    -19.3341E-03     3.41751E-03    -347.786E-06     79.5608E-03    -39.5549E-03    -40.0059E-03    -39.6611E-03     79.5403E-03    -39.8792E-03     2.61697E-03    -80.7651E+06    -116.581E+06    -122.411E+06    -117.520E+06    -85.6559E+06    -116.581E+06    -11.8563E+06         30.8257
             223     746.702E-09     130.692E-03     4.95288E-03     4.86241E-03    -25.9319E-03     4.95191E-03    -25.9309E-03     4.86241E-03    -342.321E-06     65.3145E-03    -32.5923E-03    -32.7222E-03    -32.6343E-03     65.2298E-03    -32.5955E-03     5.47134E-03    -126.934E+06    -202.509E+06    -205.451E+06    -203.515E+06    -128.870E+06    -202.509E+06    -11.3015E+06         30.6424
             224    -880.605E-09     129.631E-03     6.64121E-03     6.43355E-03    -32.6952E-03     6.64066E-03    -32.6946E-03     6.43355E-03    -281.553E-06     66.0376E-03    -32.6638E-03    -33.3738E-03    -33.2133E-03     65.8803E-03    -32.6670E-03     7.89050E-03    -164.128E+06    -281.810E+06    -285.884E+06    -285.117E+06    -164.895E+06    -281.810E+06    -9.27392E+06         30.6266
             225     2.07863E-06     128.558E-03     8.52817E-03     8.09172E-03    -39.6898E-03     8.52791E-03    -39.6895E-03     8.09172E-03    -226.250E-06     78.8950E-03    -38.8812E-03    -40.0138E-03    -39.7950E-03     78.6762E-03    -38.8812E-03     10.1880E-03    -188.445E+06    -336.189E+06    -340.378E+06    -338.031E+06    -188.721E+06    -338.260E+06    -5.67329E+06         30.8218
             226    -1.54869E-06     127.467E-03     10.6725E-03     9.79333E-03    -46.9658E-03     10.6724E-03    -46.9657E-03     9.79333E-03    -113.308E-06     99.4314E-03    -48.9178E-03    -50.5136E-03    -49.1044E-03     99.1922E-03    -50.0878E-03     11.8726E-03    -189.996E+06    -287.163E+06    -291.127E+06    -286.112E+06    -191.047E+06    -291.127E+06     2.96615E+06         31.2381
             227    -921.310E-09     126.350E-03     13.2401E-03     11.3942E-03    -54.5773E-03     13.2401E-03    -54.5773E-03     11.3942E-03     85.2836E-06     124.223E-03    -60.9572E-03    -63.2661E-03    -61.9243E-03     124.052E-03    -62.1273E-03     11.0606E-03    -156.051E+06    -178.759E+06    -199.017E+06    -178.035E+06    -178.078E+06    -177.714E+06     6.71734E+06         31.8547
             228     2.96231E-06     125.203E-03     16.3838E-03     12.7207E-03    -62.5437E-03     16.3836E-03    -62.5435E-03     12.7207E-03     256.249E-06     146.845E-03    -71.6757E-03    -75.1697E-03    -75.0655E-03     146.741E-03    -71.6757E-03     9.56367E-03    -108.710E+06    -113.677E+06    -163.195E+06    -111.993E+06    -162.850E+06    -110.739E+06     1.13361E+06         32.6241
             229     1.26419E-06     124.034E-03     20.1116E-03     13.7012E-03    -70.7961E-03     20.1110E-03    -70.7956E-03     13.7012E-03     433.183E-06     164.559E-03    -80.4910E-03    -84.0683E-03    -82.7399E-03     164.453E-03    -81.7131E-03     10.2328E-03    -89.1137E+06    -91.3100E+06    -158.890E+06    -89.1851E+06    -158.819E+06    -91.3100E+06    -2.21047E+06         33.4799
             230    -3.63922E-06     122.846E-03     24.7278E-03     14.0954E-03    -79.3520E-03     24.7260E-03    -79.3502E-03     14.0954E-03     829.776E-06     179.282E-03    -88.8884E-03    -90.3938E-03    -88.8221E-03     179.216E-03    -90.3938E-03     7.20082E-03    -90.2836E+06    -90.6252E+06    -172.365E+06    -90.7154E+06    -172.107E+06    -90.4509E+06    -4.22824E+06         34.3520
             231     3.10664E-06     121.644E-03     30.4785E-03     13.6909E-03    -88.2514E-03     30.4756E-03    -88.2486E-03     13.6909E-03     1.16001E-03     191.147E-03    -93.9462E-03    -97.2008E-03    -96.8870E-03     191.117E-03    -94.2296E-03     5.49898E-03    -94.0203E+06    -94.9425E+06    -192.014E+06    -94.5739E+06    -191.635E+06    -94.7682E+06    -6.01683E+06         35.1799
             232     2.21433E-06     120.425E-03     37.2472E-03     12.4673E-03    -97.4196E-03     37.2432E-03    -97.4157E-03     12.4673E-03     1.45161E-03     199.654E-03    -97.6996E-03    -101.954E-03    -101.921E-03     199.621E-03    -97.6996E-03     5.98494E-03    -99.1301E+06    -100.124E+06    -215.590E+06    -99.4509E+06    -215.269E+06    -100.124E+06    -6.10349E+06         35.9188
             233     81.7748E-09     119.205E-03     44.9797E-03     10.3719E-03    -106.866E-03     44.9743E-03    -106.861E-03     10.3719E-03     1.82096E-03     204.740E-03    -101.487E-03    -103.253E-03    -102.757E-03     204.727E-03    -101.970E-03     3.97000E-03    -106.850E+06    -108.075E+06    -237.440E+06    -107.079E+06    -237.211E+06    -108.075E+06    -5.26771E+06         36.5422
             234    -979.403E-09     117.975E-03     53.8157E-03     7.35578E-03    -116.628E-03     53.8088E-03    -116.621E-03     7.35578E-03     2.15298E-03     208.721E-03    -103.641E-03    -105.080E-03    -103.623E-03     208.703E-03    -105.080E-03     4.71184E-03    -121.932E+06    -123.291E+06    -254.191E+06    -122.384E+06    -254.120E+06    -122.911E+06    -2.89836E+06         37.0434
             235    -768.012E-09     116.737E-03     63.8521E-03     3.49202E-03    -126.574E-03     63.8441E-03    -126.566E-03     3.49202E-03     2.45406E-03     210.999E-03    -103.972E-03    -107.027E-03    -103.959E-03     210.986E-03    -107.027E-03     3.64242E-03    -132.846E+06    -133.863E+06    -268.676E+06    -134.036E+06    -268.503E+06    -132.846E+06    -4.26202E+06         37.4303
             236    -2.99930E-06     115.512E-03     74.8469E-03    -961.210E-06    -136.829E-03     74.8380E-03    -136.820E-03    -961.210E-06     2.75226E-03     212.530E-03    -105.111E-03    -107.419E-03    -105.109E-03     212.529E-03    -107.419E-03     1.01372E-03    -144.141E+06    -145.304E+06    -289.219E+06    -144.958E+06    -289.038E+06    -144.668E+06    -4.59047E+06         37.7195
             237     2.61403E-06     114.269E-03     87.0198E-03    -6.11662E-03    -147.383E-03     87.0097E-03    -147.373E-03    -6.11662E-03     3.08402E-03     213.838E-03    -105.442E-03    -108.396E-03    -108.185E-03     213.837E-03    -105.652E-03     838.102E-06    -155.241E+06    -156.219E+06    -305.534E+06    -155.746E+06    -305.478E+06    -155.768E+06    -2.85407E+06         37.9315
             238     2.32663E-06     113.030E-03     100.080E-03    -12.1630E-03    -158.015E-03     100.071E-03    -158.006E-03    -12.1630E-03     3.08122E-03     214.258E-03    -105.630E-03    -108.628E-03    -108.347E-03     214.232E-03    -105.885E-03     4.73556E-03    -155.653E+06    -158.285E+06    -317.731E+06    -156.162E+06    -317.672E+06    -157.835E+06    -3.05363E+06         38.0863
             239    -2.85700E-06     111.796E-03     113.636E-03    -18.8108E-03    -168.904E-03     113.627E-03    -168.895E-03    -18.8108E-03     3.29859E-03     217.399E-03    -108.120E-03    -109.279E-03    -108.093E-03     217.373E-03    -109.279E-03     3.38990E-03    -160.905E+06    -166.470E+06    -331.497E+06    -164.365E+06    -331.420E+06    -163.087E+06    -3.51680E+06         38.2005
             240     1.27340E-06     110.551E-03     127.816E-03    -25.4704E-03    -180.045E-03     127.806E-03    -180.035E-03    -25.4704E-03     3.58613E-03     219.189E-03    -107.972E-03    -111.217E-03    -110.310E-03     219.188E-03    -108.877E-03    -1.38778E-03    -169.568E+06    -176.368E+06    -344.681E+06    -173.043E+06    -344.588E+06    -172.985E+06    -3.96550E+06         38.2875
             241     2.87631E-06     109.308E-03     141.497E-03    -31.8266E-03    -191.301E-03     141.488E-03    -191.293E-03    -31.8266E-03     3.25515E-03     217.828E-03    -107.726E-03    -110.102E-03    -110.096E-03     217.822E-03    -107.726E-03     1.18599E-03    -175.101E+06    -179.092E+06    -360.716E+06    -175.734E+06    -360.657E+06    -178.518E+06    -3.24329E+06         38.3560
             242    -2.81673E-06     108.065E-03     154.774E-03    -38.1702E-03    -202.607E-03     154.767E-03    -202.600E-03    -38.1702E-03     3.20661E-03     218.291E-03    -108.360E-03    -109.931E-03    -108.391E-03     218.285E-03    -109.894E-03     2.70657E-03    -172.559E+06    -175.489E+06    -365.524E+06    -173.187E+06    -365.470E+06    -174.915E+06     537.202E+03         38.4120
             243     32.5715E-09     106.823E-03     168.344E-03    -44.0904E-03    -213.973E-03     168.337E-03    -213.967E-03    -44.0904E-03     3.14989E-03     219.966E-03    -109.051E-03    -110.915E-03    -109.380E-03     219.964E-03    -110.584E-03     1.37894E-03    -164.453E+06    -172.000E+06    -367.820E+06    -169.818E+06    -367.647E+06    -166.809E+06    -1.83313E+06         38.4594
             244     620.250E-09     105.577E-03     181.149E-03    -48.8794E-03    -225.355E-03     181.144E-03    -225.351E-03    -48.8794E-03     2.77485E-03     220.568E-03    -109.696E-03    -110.871E-03    -110.870E-03     220.566E-03    -109.696E-03     1.34983E-03    -165.985E+06    -178.149E+06    -378.037E+06    -171.332E+06    -377.882E+06    -172.957E+06    -2.34525E+06         38.5006
             245     801.763E-09     104.332E-03     192.363E-03    -52.4959E-03    -236.701E-03     192.360E-03    -236.698E-03    -52.4959E-03     2.32286E-03     220.781E-03    -109.870E-03    -110.911E-03    -110.711E-03     220.778E-03    -110.067E-03     1.96336E-03    -160.533E+06    -174.554E+06    -375.556E+06    -167.616E+06    -375.522E+06    -167.505E+06     2.66645E+06         38.5371
             246    -1.07496E-06     103.086E-03     202.089E-03    -54.7360E-03    -247.967E-03     202.087E-03    -247.965E-03    -54.7360E-03     2.03194E-03     220.714E-03    -110.172E-03    -110.542E-03    -110.343E-03     220.711E-03    -110.369E-03     1.36102E-03    -156.980E+06    -169.662E+06    -374.510E+06    -164.168E+06    -374.370E+06    -162.614E+06    -2.35732E+06         38.5697
             247     1.31939E-06     101.841E-03     210.587E-03    -55.5388E-03    -259.016E-03     210.586E-03    -259.015E-03    -55.5388E-03     1.71921E-03     220.321E-03    -109.539E-03    -110.782E-03    -110.781E-03     220.320E-03    -109.539E-03     1.04211E-03    -164.891E+06    -172.243E+06    -381.480E+06    -166.842E+06    -381.247E+06    -170.525E+06     -262.28E+03         38.5993
             248     619.452E-09     100.597E-03     217.364E-03    -55.0711E-03    -269.961E-03     217.364E-03    -269.960E-03    -55.0711E-03     1.21691E-03     220.915E-03    -109.860E-03    -111.055E-03    -111.052E-03     220.912E-03    -109.860E-03     1.72762E-03    -161.468E+06    -163.707E+06    -376.335E+06    -163.820E+06    -376.222E+06    -161.468E+06     2.86188E+06         38.6264
             249    -391.899E-09     99.3494E-03     222.295E-03    -53.1282E-03    -280.659E-03     222.294E-03    -280.659E-03    -53.1282E-03     961.711E-06     221.260E-03    -110.436E-03    -110.824E-03    -110.823E-03     221.259E-03    -110.436E-03     828.285E-06    -155.065E+06    -156.717E+06    -370.247E+06    -155.597E+06    -370.237E+06    -156.195E+06     367.498E+03         38.6516
             250     853.013E-09     98.1048E-03     225.680E-03    -49.6950E-03    -291.024E-03     225.680E-03    -291.024E-03    -49.6950E-03     672.972E-06     220.453E-03    -109.770E-03    -110.683E-03    -110.683E-03     220.453E-03    -109.770E-03     490.682E-06    -157.532E+06    -159.522E+06    -370.844E+06    -158.422E+06    -370.813E+06    -158.662E+06    -653.923E+03         38.6753
             251     319.828E-09     96.8598E-03     227.148E-03    -44.9379E-03    -301.145E-03     227.148E-03    -301.144E-03    -44.9379E-03     129.974E-06     220.246E-03    -109.289E-03    -110.957E-03    -109.935E-03     220.243E-03    -110.308E-03     1.82495E-03    -159.403E+06    -161.488E+06    -372.591E+06    -160.299E+06    -372.554E+06    -160.629E+06    -361.670E+03         38.6980
             252    -2.16585E-06     95.6139E-03     227.575E-03    -39.0403E-03    -310.821E-03     227.575E-03    -310.821E-03    -39.0403E-03     177.694E-06     220.673E-03    -109.610E-03    -111.062E-03    -110.040E-03     220.670E-03    -110.629E-03     706.139E-06    -155.117E+06    -158.450E+06    -370.253E+06    -157.239E+06    -370.238E+06    -156.342E+06     1.58689E+06         38.7200
             253     2.96343E-06     94.3701E-03     226.849E-03    -31.9736E-03    -320.182E-03     226.849E-03    -320.182E-03    -31.9736E-03    -138.792E-06     220.843E-03    -109.738E-03    -111.105E-03    -111.102E-03     220.840E-03    -109.738E-03     684.560E-06    -153.703E+06    -158.429E+06    -367.730E+06    -155.816E+06    -367.724E+06    -156.322E+06    -269.634E+03         38.7418
             254    -1.33047E-06     93.1228E-03     224.028E-03    -23.6886E-03    -329.160E-03     224.028E-03    -329.159E-03    -23.6886E-03    -477.205E-06     221.123E-03    -110.074E-03    -111.049E-03    -111.005E-03     221.120E-03    -110.115E-03     1.49792E-03    -152.083E+06    -158.084E+06    -366.629E+06    -155.484E+06    -366.611E+06    -154.701E+06     555.549E+03         38.7633
             255     1.29339E-06     91.8773E-03     219.902E-03    -14.4955E-03    -337.656E-03     219.902E-03    -337.656E-03    -14.4955E-03    -531.097E-06     221.288E-03    -110.427E-03    -110.861E-03    -110.818E-03     221.287E-03    -110.468E-03     963.696E-06    -148.497E+06    -155.627E+06    -365.590E+06    -151.920E+06    -365.551E+06    -152.244E+06    -454.801E+03         38.7847
             256    -639.983E-09     90.6311E-03     214.186E-03    -4.01538E-03    -345.735E-03     214.185E-03    -345.734E-03    -4.01538E-03    -913.806E-06     221.267E-03    -110.382E-03    -110.885E-03    -110.774E-03     221.266E-03    -110.492E-03     865.041E-06    -149.402E+06    -156.408E+06    -367.427E+06    -152.695E+06    -367.393E+06    -153.149E+06    -716.866E+03         38.8061
             257     479.438E-09     89.3861E-03     207.123E-03     7.63174E-03    -353.402E-03     207.123E-03    -353.401E-03     7.63174E-03    -929.246E-06     221.756E-03    -109.993E-03    -111.763E-03    -111.653E-03     221.756E-03    -110.103E-03     66.4492E-06    -151.135E+06    -157.118E+06    -368.272E+06    -154.404E+06    -368.263E+06    -153.859E+06     657.063E+03         38.8271
             258     2.45599E-06     88.1376E-03     198.805E-03     20.1039E-03    -360.649E-03     198.804E-03    -360.648E-03     20.1039E-03    -1.30470E-03     221.599E-03    -109.558E-03    -112.041E-03    -112.040E-03     221.598E-03    -109.558E-03     668.215E-06    -151.592E+06    -155.588E+06    -366.109E+06    -152.872E+06    -366.102E+06    -154.315E+06     509.812E+03         38.8477
             259    -969.913E-09     86.8915E-03     188.934E-03     33.3482E-03    -367.385E-03     188.933E-03    -367.384E-03     33.3482E-03    -1.47622E-03     220.759E-03    -109.661E-03    -111.099E-03    -110.481E-03     220.757E-03    -110.276E-03     1.70105E-03    -152.242E+06    -153.873E+06    -364.401E+06    -153.885E+06    -364.389E+06    -152.242E+06     7.70419E+03         38.8677
             260    -132.311E-09     85.6460E-03     178.741E-03     46.8023E-03    -373.709E-03     178.740E-03    -373.708E-03     46.8023E-03    -1.27974E-03     220.646E-03    -109.755E-03    -110.891E-03    -110.274E-03     220.644E-03    -110.370E-03     989.418E-06    -153.021E+06    -155.637E+06    -365.143E+06    -153.390E+06    -365.131E+06    -155.279E+06    -23.6214E+03         38.8871
             261     1.03776E-06     84.4019E-03     168.074E-03     60.4789E-03    -379.659E-03     168.073E-03    -379.658E-03     60.4789E-03    -1.36005E-03     221.087E-03    -110.225E-03    -110.862E-03    -110.861E-03     221.086E-03    -110.225E-03     829.043E-06    -150.773E+06    -155.466E+06    -364.504E+06    -153.215E+06    -364.496E+06    -153.032E+06     287.798E+03         38.9060
             262    -802.218E-09     83.1556E-03     156.812E-03     74.2152E-03    -385.217E-03     156.811E-03    -385.217E-03     74.2152E-03    -1.24777E-03     221.666E-03    -110.629E-03    -111.037E-03    -110.744E-03     221.665E-03    -110.921E-03     953.500E-06    -151.536E+06    -155.817E+06    -364.406E+06    -153.972E+06    -364.404E+06    -153.383E+06    -372.290E+03         38.9246
             263     257.702E-09     81.9068E-03     145.484E-03     87.7416E-03    -390.426E-03     145.483E-03    -390.426E-03     87.7416E-03    -1.06119E-03     221.829E-03    -110.557E-03    -111.272E-03    -110.979E-03     221.828E-03    -110.849E-03     1.04087E-03    -152.711E+06    -156.117E+06    -365.182E+06    -154.271E+06    -365.182E+06    -154.558E+06    -42.4864E+03         38.9434
             264     516.715E-09     80.6612E-03     134.142E-03     100.996E-03    -395.327E-03     134.141E-03    -395.326E-03     100.996E-03    -962.739E-06     221.466E-03    -110.167E-03    -111.298E-03    -111.296E-03     221.464E-03    -110.167E-03     1.67999E-03    -153.039E+06    -156.583E+06    -365.927E+06    -154.598E+06    -365.926E+06    -155.023E+06    -168.885E+03         38.9627
             265     720.251E-09     79.4128E-03     124.223E-03     112.600E-03    -399.922E-03     123.102E-03    -399.922E-03     113.720E-03    -801.000E-06     220.288E-03    -109.388E-03    -110.901E-03    -110.899E-03     220.286E-03    -109.388E-03    -257.823E-06    -152.940E+06    -155.812E+06    -366.062E+06    -153.827E+06    -366.062E+06    -154.925E+06     2.01168E+03         38.9829
             266     725.971E-09     78.1777E-03     126.088E-03     112.290E-03    -404.292E-03     112.290E-03    -404.291E-03     126.088E-03    -714.483E-06     219.821E-03    -108.711E-03    -111.110E-03    -111.107E-03     219.818E-03    -108.711E-03    -1.85121E-03    -154.387E+06    -156.299E+06    -367.587E+06    -155.275E+06    -367.586E+06    -155.413E+06     366.018E+03         39.0045
             267     2.11085E-06     76.9257E-03     137.809E-03     102.132E-03    -408.479E-03     102.132E-03    -408.478E-03     137.809E-03    -662.796E-06     220.709E-03    -109.300E-03    -111.409E-03    -111.407E-03     220.707E-03    -109.300E-03     39.9603E-06    -154.939E+06    -156.831E+06    -368.484E+06    -155.809E+06    -368.481E+06    -155.964E+06     838.678E+03         39.0276
             268    -1.17715E-06     75.6808E-03     148.604E-03     92.8802E-03    -412.401E-03     92.8801E-03    -412.401E-03     148.604E-03    -447.849E-06     220.778E-03    -109.208E-03    -111.569E-03    -109.720E-03     220.773E-03    -111.052E-03     2.45941E-03    -155.421E+06    -157.674E+06    -369.274E+06    -157.727E+06    -369.221E+06    -155.421E+06    -1.81497E+06         39.0522
             269    -2.11841E-06     74.4324E-03     158.248E-03     84.4309E-03    -416.328E-03     84.4308E-03    -416.328E-03     158.248E-03     298.509E-06     220.503E-03    -109.302E-03    -111.201E-03    -109.353E-03     220.499E-03    -111.147E-03     2.03666E-03    -155.595E+06    -159.629E+06    -370.754E+06    -157.063E+06    -370.674E+06    -158.242E+06    -500.449E+03         39.0782
             270     2.18418E-06     73.1902E-03     166.502E-03     77.1570E-03    -420.329E-03     77.1567E-03    -420.329E-03     166.502E-03     673.091E-06     221.099E-03    -109.854E-03    -111.245E-03    -111.243E-03     221.097E-03    -109.854E-03     1.38962E-03    -150.178E+06    -154.753E+06    -366.939E+06    -152.137E+06    -366.909E+06    -152.824E+06     1.57738E+06         39.1052
             271     230.240E-09     71.9445E-03     174.085E-03     70.7146E-03    -424.104E-03     70.7143E-03    -424.104E-03     174.085E-03     729.206E-06     221.637E-03    -109.699E-03    -111.938E-03    -111.034E-03     221.636E-03    -110.602E-03     494.983E-06    -150.539E+06    -153.147E+06    -366.549E+06    -152.468E+06    -366.548E+06    -151.218E+06    -405.004E+03         39.1324
             272    -1.85456E-06     70.6992E-03     180.387E-03     65.6405E-03    -427.937E-03     65.6393E-03    -427.936E-03     180.387E-03     1.45529E-03     222.005E-03    -110.127E-03    -111.878E-03    -110.975E-03     222.004E-03    -111.030E-03    -672.559E-06    -153.300E+06    -154.237E+06    -367.282E+06    -153.559E+06    -367.281E+06    -153.979E+06     74.6477E+03         39.1595
             273     3.37399E-06     69.4484E-03     184.786E-03     62.5002E-03    -432.044E-03     62.4986E-03    -432.042E-03     184.786E-03     1.76830E-03     222.142E-03    -109.798E-03    -112.344E-03    -112.343E-03     222.141E-03    -109.798E-03     558.170E-06    -154.667E+06    -155.959E+06    -366.434E+06    -154.927E+06    -366.433E+06    -155.701E+06     493.461E+03         39.1860
             274     15.2310E-03     67.7722E-03     129.510E-03     126.590E-03    -444.052E-03     129.509E-03    -444.052E-03     126.590E-03    -511.654E-06     227.018E-03    -110.194E-03    -116.824E-03    -108.538E-03     219.141E-03    -110.603E-03     98.1781E-03     139.604E+06     126.559E+06    -8.20788E+06    -8.07224E+06     126.423E+06     139.604E+06    -59.4277E+03         60.1198
             275     14.3375E-03     67.6120E-03     129.278E-03     126.522E-03    -444.199E-03     129.278E-03    -444.198E-03     126.522E-03     42.7297E-06     228.605E-03    -110.681E-03    -117.925E-03    -109.518E-03     220.199E-03    -110.681E-03     103.409E-03     120.132E+06     107.151E+06    -20.8160E+06    -20.7074E+06     107.042E+06     120.132E+06    -1.10289E+06         58.1524
             276     13.4377E-03     67.5244E-03     128.924E-03     126.449E-03    -443.969E-03     128.924E-03    -443.969E-03     126.449E-03     18.5441E-06     225.066E-03    -110.694E-03    -114.372E-03    -109.494E-03     220.188E-03    -110.694E-03     80.6300E-03     102.184E+06     93.1756E+06    -27.1785E+06    -27.0173E+06     93.0143E+06     102.184E+06     1.19736E+06         56.1044
             277     12.5414E-03     67.4193E-03     128.645E-03     126.366E-03    -443.774E-03     128.645E-03    -443.774E-03     126.366E-03     11.4626E-06     224.937E-03    -110.649E-03    -114.289E-03    -109.932E-03     220.581E-03    -110.649E-03     75.7906E-03     86.7994E+06     81.9384E+06    -33.2000E+06    -33.1018E+06     84.0719E+06     84.5678E+06     2.31725E+06         54.0111
             278     11.6478E-03     67.3392E-03     128.339E-03     126.277E-03    -443.518E-03     128.339E-03    -443.518E-03     126.277E-03    -25.4665E-06     223.128E-03    -110.590E-03    -112.538E-03    -109.369E-03     219.959E-03    -110.590E-03     64.9058E-03     78.4386E+06     66.9120E+06    -40.3179E+06    -40.2477E+06     78.3684E+06     66.9120E+06     1.27926E+06         51.9236
             279     10.7496E-03     67.2636E-03     128.018E-03     126.184E-03    -443.225E-03     128.018E-03    -443.225E-03     126.184E-03    -52.8318E-06     222.429E-03    -110.599E-03    -111.830E-03    -109.160E-03     219.759E-03    -110.599E-03     59.3688E-03     62.4258E+06     48.0202E+06    -52.4666E+06    -52.4075E+06     57.2560E+06     53.1309E+06    -623.110E+03         49.9006
             280     9.85411E-03     67.1971E-03     127.696E-03     126.089E-03    -442.917E-03     127.696E-03    -442.917E-03     126.089E-03    -66.7012E-06     221.732E-03    -110.654E-03    -111.078E-03    -109.054E-03     219.708E-03    -110.654E-03     51.6163E-03     40.5845E+06     15.8198E+06    -62.5460E+06    -62.5067E+06     15.7805E+06     40.5845E+06    -1.35600E+06         47.9993
             281     8.95832E-03     67.1397E-03     127.377E-03     125.993E-03    -442.602E-03     127.377E-03    -442.602E-03     125.993E-03    -85.1050E-06     221.415E-03    -110.639E-03    -110.777E-03    -109.203E-03     219.913E-03    -110.710E-03     44.4205E-03     23.9659E+06    -39.8709E+06    -71.1948E+06    -69.2217E+06    -41.8440E+06     23.9659E+06    -1.12081E+06         46.2660
             282     8.05998E-03     67.0920E-03     127.060E-03     125.897E-03    -442.277E-03     127.060E-03    -442.277E-03     125.897E-03    -78.3607E-06     221.374E-03    -110.589E-03    -110.785E-03    -109.568E-03     220.325E-03    -110.757E-03     37.0604E-03     7.64472E+06    -78.4381E+06    -98.1049E+06    -79.1392E+06    -97.4038E+06     7.64472E+06    -428.784E+03         44.7321
             283     7.16601E-03     67.0534E-03     126.752E-03     125.804E-03    -441.952E-03     126.752E-03    -441.952E-03     125.804E-03    -94.3807E-06     221.123E-03    -110.357E-03    -110.766E-03    -109.690E-03     220.454E-03    -110.764E-03     29.5333E-03    -10.6333E+06    -88.8157E+06    -142.386E+06    -88.9788E+06    -142.223E+06    -10.6333E+06     587.984E+03         43.4124
             284     6.26905E-03     67.0233E-03     126.459E-03     125.715E-03    -441.634E-03     126.459E-03    -441.634E-03     125.715E-03    -68.4152E-06     220.916E-03    -110.141E-03    -110.774E-03    -109.733E-03     220.507E-03    -110.774E-03     23.0784E-03    -30.1037E+06    -98.9637E+06    -188.065E+06    -99.1692E+06    -187.859E+06    -30.1037E+06    -580.501E+03         42.3070
             285     5.37355E-03     67.0008E-03     126.194E-03     125.633E-03    -441.339E-03     126.194E-03    -441.339E-03     125.633E-03    -104.649E-06     220.986E-03    -110.191E-03    -110.795E-03    -109.948E-03     220.743E-03    -110.795E-03     17.7582E-03     -47.462E+06    -108.588E+06    -230.127E+06    -108.675E+06    -230.039E+06     -47.462E+06    -793.780E+03         41.4054
             286     4.47758E-03     66.9835E-03     125.956E-03     125.560E-03    -441.074E-03     125.956E-03    -441.074E-03     125.560E-03    -28.7354E-06     221.071E-03    -110.290E-03    -110.781E-03    -110.159E-03     220.940E-03    -110.781E-03     12.9533E-03    -68.8703E+06    -119.403E+06    -267.263E+06    -119.426E+06    -267.239E+06    -68.8703E+06    -12.0913E+03         40.6900
             287     3.58235E-03     66.9722E-03     125.754E-03     125.498E-03    -440.838E-03     125.754E-03    -440.838E-03     125.498E-03    -130.449E-06     221.073E-03    -110.321E-03    -110.752E-03    -110.260E-03     221.011E-03    -110.752E-03     8.84016E-03    -91.9318E+06    -130.556E+06    -300.787E+06    -130.563E+06    -300.780E+06    -91.9318E+06     232.094E+03         40.1401
             288     2.68655E-03     66.9650E-03     125.594E-03     125.447E-03    -440.645E-03     125.593E-03    -440.645E-03     125.447E-03     83.5516E-06     221.110E-03    -110.372E-03    -110.738E-03    -110.345E-03     221.083E-03    -110.738E-03     5.83757E-03    -114.555E+06    -140.539E+06    -333.946E+06    -140.543E+06    -333.942E+06    -114.555E+06     311.284E+03         39.7354
             289     1.79137E-03     66.9605E-03     125.468E-03     125.408E-03    -440.511E-03     125.461E-03    -440.511E-03     125.415E-03    -274.685E-06     221.264E-03    -110.513E-03    -110.750E-03    -110.535E-03     221.251E-03    -110.716E-03     3.91786E-03    -134.342E+06    -148.026E+06    -354.676E+06    -148.034E+06    -354.667E+06    -134.342E+06    -386.769E+03         39.4580
             290     895.043E-06     66.9575E-03     157.855E-03     93.0093E-03    -440.378E-03     93.0110E-03    -440.376E-03     157.851E-03     683.440E-06     221.321E-03    -110.254E-03    -111.067E-03    -110.284E-03     221.316E-03    -111.032E-03     2.18227E-03    -146.690E+06    -153.460E+06    -361.883E+06    -152.782E+06    -361.870E+06    -147.381E+06    -469.400E+03         39.2927
             291     15.2346E-03     66.5190E-03     131.088E-03     127.734E-03    -449.913E-03     131.087E-03    -449.912E-03     127.734E-03    -471.893E-06     227.718E-03    -110.318E-03    -117.400E-03    -109.613E-03     220.341E-03    -110.728E-03     96.3478E-03     140.849E+06     128.525E+06    -7.40182E+06    -7.29372E+06     128.417E+06     140.849E+06     1.51379E+06         60.0796
             292     14.3353E-03     66.3708E-03     130.652E-03     127.656E-03    -449.363E-03     130.652E-03    -449.363E-03     127.656E-03    -12.4955E-06     229.526E-03    -110.724E-03    -118.802E-03    -111.043E-03     221.766E-03    -110.724E-03     100.222E-03     123.396E+06     110.684E+06    -18.5360E+06    -18.4798E+06     110.628E+06     123.396E+06    -1.84150E+06         58.1217
             293     13.4404E-03     66.2737E-03     130.390E-03     127.572E-03    -449.179E-03     130.390E-03    -449.179E-03     127.572E-03    -39.0731E-06     225.544E-03    -110.647E-03    -114.897E-03    -110.250E-03     220.896E-03    -110.647E-03     78.9378E-03     102.131E+06     92.5762E+06    -28.5981E+06    -28.5484E+06     92.5264E+06     102.131E+06    -1.49354E+06         56.0862
             294     12.5461E-03     66.1733E-03     130.055E-03     127.474E-03    -448.869E-03     130.055E-03    -448.869E-03     127.474E-03    -26.9642E-06     224.408E-03    -110.571E-03    -113.837E-03    -109.656E-03     220.227E-03    -110.571E-03     74.3886E-03     85.5299E+06     80.2468E+06    -35.4025E+06    -35.4009E+06     82.7800E+06     82.9950E+06    -131.006E+03         54.0055
             295     11.6463E-03     66.0928E-03     129.709E-03     127.370E-03    -448.547E-03     129.709E-03    -448.547E-03     127.370E-03    -28.1001E-06     222.871E-03    -110.522E-03    -112.349E-03    -109.178E-03     219.700E-03    -110.522E-03     64.8642E-03     74.8165E+06     64.3355E+06    -44.1212E+06    -44.0940E+06     74.7893E+06     64.3355E+06     902.038E+03         51.9299
             296     10.7515E-03     66.0166E-03     129.346E-03     127.261E-03    -448.187E-03     129.346E-03    -448.187E-03     127.261E-03    -40.0912E-06     222.352E-03    -110.538E-03    -111.814E-03    -109.166E-03     219.704E-03    -110.538E-03     59.1319E-03     62.5853E+06     51.2353E+06    -51.1850E+06    -51.1168E+06     59.1133E+06     54.6391E+06     969.963E+03         49.9181
             297     9.85445E-03     65.9505E-03     128.975E-03     127.151E-03    -447.812E-03     128.975E-03    -447.812E-03     127.151E-03    -46.5716E-06     221.667E-03    -110.586E-03    -111.081E-03    -109.042E-03     219.628E-03    -110.586E-03     51.8194E-03     41.7033E+06     16.5901E+06    -60.0210E+06    -59.9412E+06     16.5103E+06     41.7033E+06    -499.521E+03         48.0259
             298     8.95707E-03     65.8942E-03     128.601E-03     127.041E-03    -447.424E-03     128.601E-03    -447.424E-03     127.041E-03    -55.9607E-06     221.348E-03    -110.562E-03    -110.786E-03    -109.197E-03     219.831E-03    -110.634E-03     44.6221E-03     22.7312E+06    -41.1813E+06    -72.6041E+06    -70.7082E+06    -43.0772E+06     22.7312E+06    -711.675E+03         46.2991
             299     8.06263E-03     65.8449E-03     128.241E-03     126.933E-03    -447.042E-03     128.241E-03    -447.042E-03     126.933E-03    -48.5761E-06     221.099E-03    -110.391E-03    -110.708E-03    -109.370E-03     220.053E-03    -110.683E-03     36.9907E-03     6.30504E+06    -76.4116E+06    -101.870E+06    -79.4805E+06    -98.8010E+06     6.30504E+06     138.140E+03         44.7687
             300     7.16537E-03     65.8067E-03     127.893E-03     126.828E-03    -446.663E-03     127.893E-03    -446.663E-03     126.828E-03    -62.1963E-06     220.955E-03    -110.249E-03    -110.706E-03    -109.577E-03     220.280E-03    -110.704E-03     29.6462E-03    -10.9332E+06    -88.3042E+06    -142.953E+06    -88.4724E+06    -142.785E+06    -10.9332E+06     587.998E+03         43.4501
             301     6.27006E-03     65.7777E-03     127.566E-03     126.727E-03    -446.298E-03     127.566E-03    -446.298E-03     126.727E-03    -36.4721E-06     220.919E-03    -110.208E-03    -110.711E-03    -109.797E-03     220.508E-03    -110.711E-03     23.1367E-03    -28.9561E+06    -97.9946E+06    -185.494E+06    -98.2785E+06    -185.210E+06    -28.9561E+06     430.140E+03         42.3440
             302     5.37377E-03     65.7540E-03     127.261E-03     126.635E-03    -445.955E-03     127.261E-03    -445.955E-03     126.635E-03    -79.8078E-06     220.824E-03    -110.103E-03    -110.721E-03    -109.865E-03     220.587E-03    -110.721E-03     17.5377E-03    -48.4779E+06    -109.719E+06    -232.144E+06    -109.887E+06    -231.976E+06    -48.4779E+06    -34.7857E+03         41.4405
             303     4.47825E-03     65.7378E-03     126.998E-03     126.553E-03    -445.649E-03     126.998E-03    -445.649E-03     126.553E-03    -4.95555E-06     220.735E-03    -109.996E-03    -110.738E-03    -109.867E-03     220.605E-03    -110.738E-03     12.9322E-03    -67.9735E+06    -120.127E+06    -267.461E+06    -120.179E+06    -267.409E+06    -67.9735E+06     446.332E+03         40.7224
             304     3.58196E-03     65.7257E-03     126.767E-03     126.484E-03    -445.383E-03     126.767E-03    -445.383E-03     126.484E-03    -100.971E-06     220.849E-03    -110.083E-03    -110.765E-03    -110.019E-03     220.784E-03    -110.765E-03     9.02417E-03    -90.3369E+06    -129.764E+06    -300.560E+06    -129.789E+06    -300.535E+06    -90.3369E+06     823.767E+03         40.1698
             305     2.68633E-03     65.7195E-03     126.598E-03     126.426E-03    -445.167E-03     126.598E-03    -445.167E-03     126.426E-03     94.4294E-06     221.186E-03    -110.407E-03    -110.780E-03    -110.377E-03     221.157E-03    -110.780E-03     6.16770E-03    -113.568E+06    -139.366E+06    -333.221E+06    -139.373E+06    -333.215E+06    -113.568E+06     661.921E+03         39.7627
             306     1.79028E-03     65.7139E-03     126.459E-03     126.372E-03    -445.006E-03     126.443E-03    -445.006E-03     126.389E-03    -262.619E-06     221.396E-03    -110.589E-03    -110.807E-03    -110.654E-03     221.383E-03    -110.729E-03     3.77290E-03    -134.571E+06    -147.028E+06    -353.717E+06    -147.037E+06    -353.709E+06    -134.571E+06    -249.134E+03         39.4835
             307     895.534E-06     65.7118E-03     158.547E-03     94.1755E-03    -444.925E-03     94.1731E-03    -444.922E-03     158.547E-03     935.279E-06     221.299E-03    -110.153E-03    -111.146E-03    -110.928E-03     221.296E-03    -110.368E-03     1.51706E-03    -148.633E+06    -154.596E+06    -363.313E+06    -153.376E+06    -363.303E+06    -149.863E+06    -1.07428E+06         39.3171
             308     15.2324E-03     65.2764E-03     132.894E-03     128.989E-03    -455.465E-03     132.894E-03    -455.465E-03     128.989E-03    -148.011E-06     228.254E-03    -110.691E-03    -117.563E-03    -110.124E-03     220.815E-03    -110.691E-03     96.1563E-03     142.306E+06     129.892E+06    -8.02416E+06    -8.01705E+06     129.884E+06     142.306E+06    -358.469E+03         60.0452
             309     14.3382E-03     65.1195E-03     132.362E-03     128.894E-03    -454.891E-03     132.362E-03    -454.891E-03     128.894E-03    -350.027E-06     229.809E-03    -110.669E-03    -119.140E-03    -111.192E-03     221.861E-03    -110.669E-03     101.268E-03     125.821E+06     112.197E+06    -17.3219E+06    -17.2099E+06     112.085E+06     125.821E+06     1.58275E+06         58.0941
             310     13.4432E-03     65.0275E-03     131.970E-03     128.795E-03    -454.519E-03     131.970E-03    -454.519E-03     128.795E-03    -136.604E-06     225.450E-03    -110.581E-03    -114.869E-03    -110.103E-03     220.684E-03    -110.581E-03     79.8591E-03     101.189E+06     91.2017E+06    -29.3376E+06    -29.2020E+06     91.0661E+06     101.189E+06     883.207E+03         56.0682
             311     12.5433E-03     64.9278E-03     131.564E-03     128.681E-03    -454.130E-03     131.564E-03    -454.130E-03     128.681E-03    -92.8994E-06     224.298E-03    -110.517E-03    -113.781E-03    -109.424E-03     219.941E-03    -110.517E-03     75.8572E-03     83.4786E+06     78.3896E+06    -37.1463E+06    -37.1205E+06     80.5813E+06     81.2610E+06    -1.16915E+06         53.9986
             312     11.6493E-03     64.8462E-03     131.154E-03     128.564E-03    -453.722E-03     131.154E-03    -453.722E-03     128.564E-03    -49.9779E-06     223.041E-03    -110.472E-03    -112.569E-03    -109.333E-03     219.805E-03    -110.472E-03     65.5479E-03     75.3078E+06     64.3740E+06    -43.7046E+06    -43.7020E+06     75.3052E+06     64.3740E+06    -491.719E+03         51.9349
             313     10.7514E-03     64.7702E-03     130.743E-03     128.443E-03    -453.301E-03     130.743E-03    -453.301E-03     128.443E-03    -43.4751E-06     222.267E-03    -110.476E-03    -111.791E-03    -109.130E-03     219.606E-03    -110.476E-03     59.2535E-03     61.7992E+06     49.6185E+06    -52.4423E+06    -52.3809E+06     58.2733E+06     53.0829E+06    -382.048E+03         49.9343
             314     9.85472E-03     64.7052E-03     130.330E-03     128.322E-03    -452.868E-03     130.330E-03    -452.868E-03     128.322E-03    -32.7992E-06     221.688E-03    -110.523E-03    -111.165E-03    -109.146E-03     219.670E-03    -110.523E-03     51.5577E-03     42.6241E+06     18.2827E+06     -60.772E+06    -60.5740E+06     18.0846E+06     42.6241E+06     441.457E+03         48.0513
             315     8.95955E-03     64.6466E-03     129.917E-03     128.201E-03    -452.428E-03     129.917E-03    -452.428E-03     128.201E-03    -38.8664E-06     221.189E-03    -110.396E-03    -110.793E-03    -109.142E-03     219.694E-03    -110.552E-03     44.3029E-03     21.4727E+06    -39.2761E+06    -74.0062E+06    -70.6622E+06    -42.6201E+06     21.4727E+06     714.840E+03         46.3310
             316     8.06192E-03     64.5998E-03     129.513E-03     128.082E-03    -451.990E-03     129.513E-03    -451.990E-03     128.082E-03    -24.7768E-06     220.736E-03    -110.100E-03    -110.636E-03    -109.066E-03     219.679E-03    -110.613E-03     37.1741E-03     4.05704E+06    -76.7516E+06    -104.428E+06    -79.7830E+06    -101.397E+06     4.05704E+06     61.4250E+03         44.8041
             317     7.16592E-03     64.5606E-03     129.130E-03     127.968E-03    -451.567E-03     129.130E-03    -451.567E-03     127.968E-03    -37.7566E-06     220.739E-03    -110.068E-03    -110.671E-03    -109.374E-03     220.045E-03    -110.671E-03     30.0434E-03    -10.4412E+06    -88.4648E+06    -144.305E+06    -88.6813E+06    -144.088E+06    -10.4412E+06     520.458E+03         43.4865
             318     6.26991E-03     64.5304E-03     128.772E-03     127.860E-03    -451.163E-03     128.772E-03    -451.163E-03     127.860E-03    -11.8650E-06     220.852E-03    -110.164E-03    -110.688E-03    -109.742E-03     220.430E-03    -110.688E-03     23.4109E-03    -28.7705E+06    -99.2189E+06    -185.160E+06    -99.4966E+06    -184.882E+06    -28.7705E+06     1.10438E+06         42.3798
             319     5.37465E-03     64.5087E-03     128.443E-03     127.760E-03    -450.785E-03     128.443E-03    -450.785E-03     127.760E-03    -49.1080E-06     220.757E-03    -110.056E-03    -110.701E-03    -109.807E-03     220.507E-03    -110.701E-03     18.0014E-03    -48.2771E+06    -109.713E+06    -230.968E+06    -109.863E+06    -230.819E+06    -48.2771E+06     813.594E+03         41.4745
             320     4.47802E-03     64.4917E-03     128.155E-03     127.671E-03    -450.444E-03     128.155E-03    -450.444E-03     127.671E-03     16.9395E-06     220.686E-03    -109.962E-03    -110.724E-03    -109.826E-03     220.550E-03    -110.724E-03     13.1460E-03    -68.3816E+06    -120.638E+06    -268.291E+06    -120.717E+06    -268.212E+06    -68.3816E+06     450.184E+03         40.7540
             321     3.58198E-03     64.4807E-03     127.901E-03     127.595E-03    -450.155E-03     127.901E-03    -450.155E-03     127.595E-03    -77.9578E-06     220.899E-03    -110.154E-03    -110.745E-03    -110.092E-03     220.837E-03    -110.745E-03     8.82321E-03    -89.7886E+06    -130.568E+06    -300.803E+06    -130.615E+06    -300.757E+06    -89.7886E+06     903.182E+03         40.1989
             322     2.68596E-03     64.4725E-03     127.721E-03     127.534E-03    -449.922E-03     127.721E-03    -449.922E-03     127.534E-03     104.905E-06     221.268E-03    -110.501E-03    -110.766E-03    -110.540E-03     221.243E-03    -110.702E-03     5.56011E-03    -112.950E+06    -139.162E+06    -331.753E+06    -139.180E+06    -331.734E+06    -112.950E+06     980.035E+03         39.7896
             323     1.79145E-03     64.4676E-03     127.576E-03     127.478E-03    -449.749E-03     127.566E-03    -449.749E-03     127.488E-03    -239.879E-06     221.251E-03    -110.549E-03    -110.702E-03    -110.683E-03     221.243E-03    -110.560E-03     2.97701E-03    -134.125E+06    -147.704E+06    -352.323E+06    -147.711E+06    -352.316E+06    -134.125E+06     670.281E+03         39.5086
             324     895.816E-06     64.4652E-03     158.948E-03     95.9716E-03    -449.653E-03     95.9783E-03    -449.651E-03     158.939E-03     932.523E-06     220.855E-03    -109.846E-03    -111.009E-03    -110.621E-03     220.853E-03    -110.232E-03     1.70260E-03    -148.869E+06    -154.605E+06    -363.744E+06    -153.381E+06    -363.737E+06    -150.099E+06     40.1741E+03         39.3410
             325     15.2374E-03     64.0348E-03     134.635E-03     130.353E-03    -460.751E-03     134.635E-03    -460.751E-03     130.353E-03     168.856E-06     228.407E-03    -110.601E-03    -117.805E-03    -110.101E-03     220.702E-03    -110.601E-03     96.8378E-03     139.871E+06     127.332E+06    -10.2461E+06    -10.2219E+06     127.308E+06     139.871E+06    -10.1281E+03         60.0120
             326     14.3372E-03     63.8694E-03     134.185E-03     130.242E-03    -460.500E-03     134.185E-03    -460.500E-03     130.242E-03    -112.843E-06     229.253E-03    -110.613E-03    -118.640E-03    -110.376E-03     220.989E-03    -110.613E-03     102.404E-03     125.049E+06     111.203E+06    -18.1268E+06    -17.9620E+06     111.038E+06     125.049E+06     1.41667E+06         58.0661
             327     13.4397E-03     63.7828E-03     133.645E-03     130.125E-03    -460.020E-03     133.645E-03    -460.020E-03     130.125E-03    -123.638E-06     224.935E-03    -110.580E-03    -114.355E-03    -109.717E-03     220.297E-03    -110.580E-03     78.6148E-03     106.609E+06     95.8469E+06    -24.5623E+06    -24.3114E+06     95.5960E+06     106.609E+06     1.48083E+06         56.0482
             328     12.5456E-03     63.6801E-03     133.155E-03     129.998E-03    -459.541E-03     133.155E-03    -459.541E-03     129.998E-03    -73.4682E-06     224.476E-03    -110.503E-03    -113.973E-03    -109.657E-03     220.160E-03    -110.503E-03     75.5399E-03     85.5909E+06     78.3009E+06    -34.8733E+06    -34.7663E+06     81.7396E+06     82.0452E+06     279.573E+03         53.9898
             329     11.6476E-03     63.5994E-03     132.684E-03     129.871E-03    -459.066E-03     132.684E-03    -459.066E-03     129.871E-03    -52.9333E-06     223.004E-03    -110.442E-03    -112.562E-03    -109.333E-03     219.774E-03    -110.442E-03     65.4932E-03     74.0397E+06     62.3078E+06    -44.7255E+06    -44.7005E+06     74.0146E+06     62.3078E+06    -1.37747E+06         51.9382
             330     10.7519E-03     63.5245E-03     132.219E-03     129.741E-03    -458.583E-03     132.219E-03    -458.583E-03     129.741E-03    -32.0902E-06     222.446E-03    -110.443E-03    -112.003E-03    -109.306E-03     219.749E-03    -110.443E-03     59.6867E-03     60.9080E+06     50.3145E+06    -53.2098E+06    -53.1253E+06     58.4161E+06     52.7219E+06    -1.09168E+06         49.9487
             331     9.85634E-03     63.4573E-03     131.766E-03     129.612E-03    -458.103E-03     131.766E-03    -458.103E-03     129.612E-03    -17.4857E-06     221.742E-03    -110.466E-03    -111.276E-03    -109.220E-03     219.686E-03    -110.466E-03     52.0379E-03     39.2470E+06     15.7736E+06    -62.6208E+06    -62.3063E+06     15.4591E+06     39.2470E+06    -104.673E+03         48.0751
             332     8.95895E-03     63.4019E-03     131.324E-03     129.483E-03    -457.624E-03     131.324E-03    -457.624E-03     129.483E-03    -12.3184E-06     221.039E-03    -110.351E-03    -110.688E-03    -109.008E-03     219.518E-03    -110.510E-03     44.6700E-03     22.6706E+06    -38.6037E+06    -72.9031E+06    -69.2063E+06    -42.3005E+06     22.6706E+06     843.957E+03         46.3613
             333     8.06281E-03     63.3537E-03     130.888E-03     129.358E-03    -457.148E-03     130.888E-03    -457.148E-03     129.358E-03    -2.37099E-06     220.712E-03    -110.134E-03    -110.578E-03    -109.071E-03     219.649E-03    -110.578E-03     37.2544E-03      5.9629E+06    -74.8710E+06    -104.392E+06    -78.6175E+06    -100.646E+06      5.9629E+06     849.072E+03         44.8382
             334     7.16629E-03     63.3148E-03     130.477E-03     129.238E-03    -456.689E-03     130.477E-03    -456.689E-03     129.238E-03    -15.9972E-06     220.495E-03    -109.858E-03    -110.637E-03    -109.162E-03     219.799E-03    -110.637E-03     30.1199E-03    -11.0936E+06    -89.5043E+06    -145.381E+06    -89.7252E+06    -145.160E+06    -11.0936E+06     612.652E+03         43.5220
             335     6.26983E-03     63.2844E-03     130.096E-03     129.124E-03    -456.256E-03     130.096E-03    -456.256E-03     129.124E-03     15.5723E-06     220.518E-03    -109.826E-03    -110.693E-03    -109.399E-03     220.092E-03    -110.693E-03     23.4918E-03    -27.7977E+06    -98.0612E+06    -184.669E+06    -98.3236E+06    -184.407E+06    -27.7977E+06     1.01055E+06         42.4148
             336     5.37315E-03     63.2624E-03     129.745E-03     129.018E-03    -455.850E-03     129.745E-03    -455.850E-03     129.018E-03    -17.7327E-06     220.839E-03    -110.113E-03    -110.726E-03    -109.869E-03     220.595E-03    -110.726E-03     17.7690E-03    -47.4688E+06    -108.248E+06    -230.711E+06    -108.370E+06    -230.589E+06    -47.4688E+06     1.05944E+06         41.5078
             337     4.47801E-03     63.2458E-03     129.440E-03     128.924E-03    -455.487E-03     129.440E-03    -455.487E-03     128.924E-03     40.6915E-06     220.992E-03    -110.283E-03    -110.709E-03    -110.153E-03     220.862E-03    -110.709E-03     12.8577E-03    -68.2865E+06    -118.678E+06    -267.693E+06    -118.744E+06    -267.626E+06    -68.2865E+06     819.397E+03         40.7852
             338     3.58253E-03     63.2345E-03     129.174E-03     128.844E-03    -455.177E-03     129.173E-03    -455.177E-03     128.844E-03    -55.9168E-06     221.091E-03    -110.429E-03    -110.662E-03    -110.367E-03     221.029E-03    -110.662E-03     8.92919E-03    -88.1579E+06    -128.851E+06    -301.086E+06    -128.907E+06    -301.030E+06    -88.1579E+06     328.530E+03         40.2278
             339     2.68768E-03     63.2260E-03     128.972E-03     128.780E-03    -454.930E-03     128.972E-03    -454.930E-03     128.780E-03     117.112E-06     221.067E-03    -110.430E-03    -110.636E-03    -110.466E-03     221.038E-03    -110.573E-03     5.86621E-03    -109.566E+06    -138.901E+06    -331.747E+06    -138.945E+06    -331.703E+06    -109.566E+06     1.00451E+06         39.8163
             340     1.79157E-03     63.2218E-03     128.821E-03     128.731E-03    -454.752E-03     128.821E-03    -454.751E-03     128.731E-03    -242.005E-06     220.831E-03    -110.315E-03    -110.516E-03    -110.370E-03     220.822E-03    -110.453E-03     3.30715E-03    -133.089E+06    -147.695E+06    -350.513E+06    -147.718E+06    -350.490E+06    -133.089E+06     1.24977E+06         39.5335
             341     895.773E-06     63.2203E-03     159.079E-03     98.3791E-03    -454.591E-03     98.3952E-03    -454.588E-03     159.060E-03     1.17910E-03     220.731E-03    -110.073E-03    -110.658E-03    -110.070E-03     220.728E-03    -110.658E-03     1.47584E-03    -149.497E+06    -154.170E+06    -363.353E+06    -153.920E+06    -363.345E+06    -149.756E+06     366.384E+03         39.3648
             342     15.2357E-03     62.7887E-03     136.237E-03     131.796E-03    -466.284E-03     136.237E-03    -466.284E-03     131.796E-03     171.022E-06     229.231E-03    -110.574E-03    -118.658E-03    -110.803E-03     221.377E-03    -110.574E-03     98.5163E-03     140.868E+06     128.154E+06    -8.29389E+06    -8.27400E+06     128.134E+06     140.868E+06     352.368E+03         59.9769
             343     14.3399E-03     62.6258E-03     135.798E-03     131.684E-03    -465.986E-03     135.798E-03    -465.986E-03     131.684E-03     171.694E-06     229.589E-03    -110.548E-03    -119.041E-03    -110.819E-03     221.367E-03    -110.548E-03     102.137E-03     125.417E+06     111.869E+06    -16.8308E+06    -16.7622E+06     111.800E+06     125.417E+06     190.596E+03         58.0380
             344     13.4431E-03     62.5348E-03     135.301E-03     131.563E-03    -465.577E-03     135.301E-03    -465.577E-03     131.563E-03     24.2702E-06     224.368E-03    -110.504E-03    -113.865E-03    -109.322E-03     219.826E-03    -110.504E-03     77.6816E-03     104.207E+06     94.0078E+06    -26.2761E+06    -26.1265E+06     93.8582E+06     104.207E+06     386.334E+03         56.0294
             345     12.5450E-03     62.4340E-03     134.785E-03     131.430E-03    -465.077E-03     134.785E-03    -465.077E-03     131.430E-03    -11.8116E-06     224.110E-03    -110.454E-03    -113.656E-03    -109.402E-03     219.857E-03    -110.454E-03     74.9070E-03     86.3861E+06     79.9052E+06    -33.5258E+06    -33.3859E+06     82.7502E+06     83.4011E+06     1.63542E+06         53.9816
             346     11.6490E-03     62.3537E-03     134.278E-03     131.297E-03    -464.568E-03     134.278E-03    -464.568E-03     131.297E-03    -5.17813E-06     222.723E-03    -110.404E-03    -112.320E-03    -109.143E-03     219.546E-03    -110.404E-03     64.9171E-03     75.8323E+06     63.6679E+06    -42.2674E+06    -42.1868E+06     75.6003E+06     63.8193E+06     797.236E+03         51.9411
             347     10.7521E-03     62.2768E-03     133.777E-03     131.162E-03    -464.048E-03     133.777E-03    -464.048E-03     131.162E-03    -3.43131E-06     222.126E-03    -110.416E-03    -111.710E-03    -109.020E-03     219.436E-03    -110.416E-03     59.5897E-03     60.7422E+06     48.0452E+06    -52.3716E+06    -52.2593E+06     56.9609E+06     51.7142E+06    -273.559E+03         49.9621
             348     9.85508E-03     62.2118E-03     133.293E-03     131.029E-03    -463.534E-03     133.293E-03    -463.534E-03     131.029E-03     14.7292E-06     221.516E-03    -110.469E-03    -111.047E-03    -108.980E-03     219.450E-03    -110.469E-03     52.1223E-03     40.1372E+06     15.9116E+06    -61.4084E+06    -61.1108E+06     15.6140E+06     40.1372E+06    -346.934E+03         48.0970
             349     8.95925E-03     62.1555E-03     132.822E-03     130.897E-03    -463.023E-03     132.822E-03    -463.023E-03     130.897E-03     15.8229E-06     221.234E-03    -110.514E-03    -110.720E-03    -109.187E-03     219.704E-03    -110.517E-03     44.8465E-03     22.3903E+06    -40.4327E+06    -75.5435E+06    -72.0245E+06    -43.9516E+06     22.3903E+06     202.757E+03         46.3899
             350     8.06293E-03     62.1077E-03     132.371E-03     130.769E-03    -462.529E-03     132.371E-03    -462.529E-03     130.769E-03     32.7606E-06     220.917E-03    -110.313E-03    -110.605E-03    -109.290E-03     219.845E-03    -110.555E-03     37.4166E-03     5.42364E+06    -77.0621E+06    -103.429E+06    -80.9156E+06    -99.5751E+06     5.42364E+06     744.272E+03         44.8713
             351     7.16658E-03     62.0694E-03     131.945E-03     130.645E-03    -462.049E-03     131.945E-03    -462.049E-03     130.645E-03     19.4194E-06     220.444E-03    -109.850E-03    -110.594E-03    -109.162E-03     219.756E-03    -110.594E-03     29.9217E-03    -11.4281E+06    -88.8820E+06    -144.284E+06    -88.9548E+06    -144.211E+06    -11.4281E+06    -208.002E+03         43.5570
             352     6.26982E-03     62.0390E-03     131.542E-03     130.527E-03    -461.591E-03     131.542E-03    -461.591E-03     130.527E-03     47.9683E-06     220.372E-03    -109.715E-03    -110.656E-03    -109.294E-03     219.950E-03    -110.656E-03     23.3612E-03    -28.5736E+06    -98.6829E+06    -186.156E+06    -98.8013E+06    -186.037E+06    -28.5736E+06     209.090E+03         42.4495
             353     5.37435E-03     62.0158E-03     131.176E-03     130.420E-03    -461.172E-03     131.176E-03    -461.172E-03     130.420E-03     15.7916E-06     220.719E-03    -110.017E-03    -110.701E-03    -109.778E-03     220.479E-03    -110.701E-03     17.5879E-03    -47.3315E+06    -107.967E+06    -230.149E+06    -108.046E+06    -230.070E+06    -47.3315E+06     920.226E+03         41.5410
             354     4.47835E-03     61.9995E-03     130.861E-03     130.323E-03    -460.796E-03     130.861E-03    -460.796E-03     130.323E-03     69.3552E-06     220.942E-03    -110.246E-03    -110.696E-03    -110.117E-03     220.813E-03    -110.696E-03     12.9502E-03    -67.2162E+06    -117.945E+06    -267.382E+06    -117.982E+06    -267.345E+06    -67.2162E+06     460.609E+03         40.8162
             355     3.58278E-03     61.9880E-03     130.588E-03     130.240E-03    -460.471E-03     130.588E-03    -460.471E-03     130.240E-03    -28.7991E-06     220.971E-03    -110.307E-03    -110.665E-03    -110.236E-03     220.901E-03    -110.665E-03     9.56314E-03    -87.7351E+06    -128.265E+06    -300.573E+06    -128.327E+06    -300.511E+06    -87.7351E+06     769.547E+03         40.2565
             356     2.68662E-03     61.9803E-03     130.363E-03     130.175E-03    -460.206E-03     130.362E-03    -460.206E-03     130.175E-03     124.814E-06     220.930E-03    -110.293E-03    -110.636E-03    -110.260E-03     220.896E-03    -110.636E-03     6.42318E-03    -109.932E+06    -138.832E+06    -332.348E+06    -138.894E+06    -332.286E+06    -109.932E+06     776.539E+03         39.8428
             357     1.79102E-03     61.9766E-03     130.223E-03     130.124E-03    -460.012E-03     130.222E-03    -460.011E-03     130.124E-03    -230.239E-06     220.968E-03    -110.352E-03    -110.616E-03    -110.341E-03     220.957E-03    -110.616E-03     3.70434E-03    -131.584E+06    -146.588E+06    -349.796E+06    -146.618E+06    -349.765E+06    -131.584E+06     793.293E+03         39.5584
             358     895.379E-06     61.9742E-03     158.703E-03     101.477E-03    -459.896E-03     101.513E-03    -459.892E-03     158.663E-03     1.37636E-03     221.153E-03    -110.115E-03    -111.037E-03    -110.796E-03     221.150E-03    -110.354E-03     1.34787E-03    -147.502E+06    -151.723E+06    -361.706E+06    -151.473E+06    -361.696E+06    -147.762E+06     1.11481E+06         39.3886
             359     15.2345E-03     61.5369E-03     137.891E-03     133.333E-03    -472.010E-03     137.891E-03    -472.010E-03     133.333E-03     178.016E-06     229.469E-03    -110.563E-03    -118.906E-03    -111.110E-03     221.674E-03    -110.563E-03     99.0051E-03     140.968E+06     128.025E+06    -8.78709E+06    -8.77391E+06     128.012E+06     140.968E+06    -296.686E+03         59.9413
             360     14.3408E-03     61.3787E-03     137.407E-03     133.225E-03    -471.604E-03     137.407E-03    -471.604E-03     133.225E-03     146.954E-06     229.902E-03    -110.505E-03    -119.397E-03    -111.307E-03     221.812E-03    -110.505E-03     101.847E-03     123.929E+06     110.322E+06    -18.4409E+06    -18.4121E+06     110.293E+06     123.929E+06    -443.951E+03         58.0091
             361     13.4432E-03     61.2905E-03     136.936E-03     133.108E-03    -471.207E-03     136.936E-03    -471.207E-03     133.108E-03     116.628E-06     224.552E-03    -110.440E-03    -114.112E-03    -109.430E-03     219.870E-03    -110.440E-03     78.9206E-03     103.667E+06     93.3144E+06    -26.7068E+06    -26.6627E+06     93.2703E+06     103.667E+06    -137.423E+03         56.0102
             362     12.5465E-03     61.1877E-03     136.424E-03     132.977E-03    -470.722E-03     136.424E-03    -470.722E-03     132.977E-03     75.1886E-06     223.966E-03    -110.397E-03    -113.568E-03    -109.251E-03     219.648E-03    -110.397E-03     75.3811E-03     86.0624E+06     80.8502E+06    -34.7715E+06    -34.7054E+06     82.5777E+06     84.2688E+06     381.378E+03         53.9732
             363     11.6496E-03     61.1071E-03     135.918E-03     132.846E-03    -470.217E-03     135.918E-03    -470.217E-03     132.846E-03     48.1603E-06     222.504E-03    -110.350E-03    -112.154E-03    -108.978E-03     219.328E-03    -110.350E-03     64.8735E-03     76.3932E+06     64.2042E+06    -42.1098E+06    -42.0471E+06     76.1792E+06     64.3556E+06     1.75276E+06         51.9439
             364     10.7525E-03     61.0320E-03     135.411E-03     132.711E-03    -469.695E-03     135.411E-03    -469.695E-03     132.711E-03     46.2914E-06     221.669E-03    -110.383E-03    -111.287E-03    -108.619E-03     219.002E-03    -110.383E-03     59.2456E-03     63.2794E+06     47.8989E+06    -50.7279E+06    -50.5270E+06     57.9421E+06     53.0353E+06     1.77970E+06         49.9752
             365     9.85561E-03     60.9654E-03     134.909E-03     132.579E-03    -469.166E-03     134.909E-03    -469.166E-03     132.579E-03     53.3703E-06     221.175E-03    -110.448E-03    -110.727E-03    -108.660E-03     219.127E-03    -110.468E-03     51.8482E-03     41.0618E+06     16.2411E+06    -62.2413E+06    -61.9630E+06     15.9628E+06     41.0618E+06     1.37146E+06         48.1185
             366     8.95879E-03     60.9093E-03     134.429E-03     132.447E-03    -468.648E-03     134.429E-03    -468.648E-03     132.447E-03     56.6751E-06     221.151E-03    -110.480E-03    -110.672E-03    -109.088E-03     219.614E-03    -110.525E-03     44.9389E-03     21.9931E+06    -40.0393E+06    -74.4557E+06    -71.2932E+06    -43.2019E+06     21.9931E+06     175.260E+03         46.4178
             367     8.06280E-03     60.8614E-03     133.965E-03     132.319E-03    -468.141E-03     133.965E-03    -468.141E-03     132.319E-03     74.3532E-06     220.985E-03    -110.365E-03    -110.620E-03    -109.331E-03     219.901E-03    -110.570E-03     37.6511E-03     5.16499E+06    -78.5123E+06    -101.272E+06    -80.5052E+06    -99.2785E+06     5.16499E+06    -891.167E+03         44.9034
             368     7.16683E-03     60.8236E-03     133.527E-03     132.195E-03    -467.650E-03     133.527E-03    -467.650E-03     132.195E-03     66.6188E-06     220.696E-03    -110.102E-03    -110.594E-03    -109.396E-03     219.990E-03    -110.594E-03     30.3221E-03    -12.2312E+06    -90.3348E+06    -144.053E+06    -90.3556E+06    -144.032E+06    -12.2312E+06    -400.134E+03         43.5912
             369     6.27091E-03     60.7936E-03     133.117E-03     132.077E-03    -467.183E-03     133.117E-03    -467.183E-03     132.077E-03     88.5760E-06     220.510E-03    -109.882E-03    -110.628E-03    -109.438E-03     220.066E-03    -110.628E-03     24.0288E-03    -30.0528E+06    -99.9432E+06    -187.555E+06    -99.9572E+06    -187.541E+06    -30.0528E+06    -254.821E+03         42.4839
             370     5.37389E-03     60.7698E-03     132.742E-03     131.969E-03    -466.755E-03     132.742E-03    -466.755E-03     131.969E-03     51.5749E-06     220.513E-03    -109.834E-03    -110.679E-03    -109.576E-03     220.255E-03    -110.679E-03     18.2157E-03    -48.0320E+06    -109.863E+06    -230.087E+06    -109.878E+06    -230.071E+06    -48.0320E+06     66.2018E+03         41.5741
             371     4.47801E-03     60.7536E-03     132.420E-03     131.872E-03    -466.372E-03     132.420E-03    -466.372E-03     131.872E-03     98.0787E-06     220.716E-03    -110.001E-03    -110.715E-03    -109.866E-03     220.581E-03    -110.715E-03     13.1903E-03    -67.8741E+06    -119.686E+06    -267.358E+06    -119.706E+06    -267.338E+06    -67.8741E+06     419.890E+03         40.8473
             372     3.58188E-03     60.7422E-03     132.143E-03     131.788E-03    -466.042E-03     132.143E-03    -466.042E-03     131.788E-03    -905.522E-09     220.882E-03    -110.151E-03    -110.731E-03    -110.083E-03     220.814E-03    -110.731E-03     9.31155E-03    -89.7929E+06    -130.069E+06    -301.034E+06    -130.110E+06    -300.993E+06    -89.7929E+06     807.867E+03         40.2853
             373     2.68639E-03     60.7345E-03     131.910E-03     131.723E-03    -465.773E-03     131.910E-03    -465.773E-03     131.723E-03     149.598E-06     221.010E-03    -110.262E-03    -110.748E-03    -110.233E-03     220.982E-03    -110.748E-03     5.96524E-03    -112.331E+06    -138.445E+06    -330.855E+06    -138.482E+06    -330.817E+06    -112.331E+06     557.089E+03         39.8696
             374     1.79066E-03     60.7304E-03     131.792E-03     131.668E-03    -465.569E-03     131.791E-03    -465.569E-03     131.668E-03    -203.627E-06     221.247E-03    -110.472E-03    -110.775E-03    -110.462E-03     221.237E-03    -110.775E-03     3.58260E-03    -132.954E+06    -145.888E+06    -350.286E+06    -145.905E+06    -350.269E+06    -132.954E+06    -148.812E+03         39.5836
             375     895.353E-06     60.7279E-03     158.187E-03     105.043E-03    -465.465E-03     105.109E-03    -465.461E-03     158.118E-03     1.38352E-03     221.517E-03    -110.173E-03    -111.345E-03    -111.248E-03     221.514E-03    -110.267E-03     1.79680E-03    -145.831E+06    -150.964E+06    -360.461E+06    -150.136E+06    -360.448E+06    -146.671E+06     127.961E+03         39.4128
             376     15.2387E-03     60.2922E-03     139.611E-03     134.977E-03    -477.776E-03     139.611E-03    -477.776E-03     134.977E-03     230.192E-06     229.319E-03    -110.520E-03    -118.800E-03    -110.927E-03     221.447E-03    -110.520E-03     99.2557E-03     141.119E+06     127.968E+06    -9.48498E+06    -9.46224E+06     127.946E+06     141.119E+06     713.683E+03         59.9070
             377     14.3388E-03     60.1308E-03     139.110E-03     134.876E-03    -477.405E-03     139.110E-03    -477.405E-03     134.876E-03     160.553E-06     229.284E-03    -110.486E-03    -118.798E-03    -110.722E-03     221.208E-03    -110.486E-03     101.171E-03     125.214E+06     111.064E+06    -18.1112E+06    -18.0798E+06     111.032E+06     125.214E+06    -1.29311E+06         57.9799
             378     13.4437E-03     60.0442E-03     138.601E-03     134.767E-03    -476.976E-03     138.601E-03    -476.976E-03     134.767E-03     145.124E-06     224.725E-03    -110.426E-03    -114.300E-03    -109.663E-03     220.089E-03    -110.426E-03     78.4899E-03     103.966E+06     92.9807E+06    -26.8866E+06    -26.8604E+06     92.9545E+06     103.966E+06    -892.211E+03         55.9896
             379     12.5470E-03     59.9417E-03     138.107E-03     134.644E-03    -476.509E-03     138.107E-03    -476.509E-03     134.644E-03     99.5090E-06     224.044E-03    -110.362E-03    -113.681E-03    -109.272E-03     219.635E-03    -110.362E-03     76.2093E-03     85.3278E+06     78.6754E+06    -35.2124E+06    -35.1979E+06     81.8527E+06     82.1360E+06     327.858E+03         53.9636
             380     11.6499E-03     59.8616E-03     137.611E-03     134.519E-03    -476.028E-03     137.611E-03    -476.028E-03     134.519E-03     103.893E-06     222.420E-03    -110.326E-03    -112.094E-03    -108.854E-03     219.181E-03    -110.326E-03     65.4928E-03     74.1012E+06     62.6830E+06    -44.6931E+06    -44.6587E+06     74.0668E+06     62.6830E+06     1.20385E+06         51.9456
             381     10.7532E-03     59.7859E-03     137.108E-03     134.390E-03    -475.515E-03     137.108E-03    -475.515E-03     134.390E-03     104.787E-06     221.708E-03    -110.367E-03    -111.341E-03    -108.637E-03     219.004E-03    -110.367E-03     59.6496E-03     61.4294E+06     50.7975E+06    -52.9163E+06    -52.7487E+06     58.8562E+06     53.2030E+06     2.47654E+06         49.9874
             382     9.85584E-03     59.7208E-03     136.618E-03     134.262E-03    -475.006E-03     136.618E-03    -475.006E-03     134.262E-03     111.641E-06     221.070E-03    -110.405E-03    -110.666E-03    -108.534E-03     218.985E-03    -110.452E-03     52.3224E-03     41.8503E+06     18.2379E+06    -60.2569E+06    -60.0715E+06     18.0525E+06     41.8503E+06     1.36121E+06         48.1397
             383     8.95888E-03     59.6628E-03     136.137E-03     134.136E-03    -474.494E-03     136.137E-03    -474.494E-03     134.136E-03     112.687E-06     220.866E-03    -110.331E-03    -110.535E-03    -108.774E-03     219.310E-03    -110.535E-03     45.1408E-03     23.0924E+06    -40.9617E+06    -70.5796E+06    -69.5410E+06    -42.0003E+06     23.0924E+06     60.5939E+03         46.4454
             384     8.06222E-03     59.6156E-03     135.669E-03     134.011E-03    -473.988E-03     135.669E-03    -473.988E-03     134.011E-03     126.335E-06     220.792E-03    -110.179E-03    -110.612E-03    -109.096E-03     219.708E-03    -110.612E-03     37.6302E-03     5.69811E+06    -77.5415E+06    -101.015E+06    -79.4213E+06    -99.1355E+06     5.69811E+06    -126.838E+03         44.9350
             385     7.16577E-03     59.5772E-03     135.228E-03     133.890E-03    -473.496E-03     135.228E-03    -473.496E-03     133.890E-03     115.147E-06     220.789E-03    -110.131E-03    -110.658E-03    -109.412E-03     220.070E-03    -110.658E-03     30.6331E-03    -11.4310E+06    -89.2620E+06    -144.882E+06    -89.2807E+06    -144.863E+06    -11.4310E+06    -357.726E+03         43.6248
             386     6.26971E-03     59.5476E-03     134.820E-03     133.775E-03    -473.033E-03     134.820E-03    -473.033E-03     133.775E-03     133.583E-06     220.806E-03    -110.124E-03    -110.682E-03    -109.670E-03     220.352E-03    -110.682E-03     24.3070E-03    -29.3837E+06    -99.7164E+06    -187.138E+06    -99.7191E+06    -187.136E+06    -29.3837E+06    -108.074E+03         42.5179
             387     5.37434E-03     59.5244E-03     134.445E-03     133.670E-03    -472.607E-03     134.445E-03    -472.607E-03     133.670E-03     90.0623E-06     220.728E-03    -110.024E-03    -110.704E-03    -109.763E-03     220.467E-03    -110.704E-03     18.3410E-03    -48.2729E+06    -109.922E+06    -230.868E+06    -109.923E+06    -230.867E+06    -48.2729E+06    -205.789E+03         41.6072
             388     4.47789E-03     59.5077E-03     134.124E-03     133.575E-03    -472.224E-03     134.124E-03    -472.224E-03     133.575E-03     133.043E-06     220.768E-03    -110.048E-03    -110.720E-03    -109.915E-03     220.635E-03    -110.720E-03     13.0260E-03    -68.3298E+06    -119.727E+06    -267.252E+06    -119.735E+06    -267.244E+06    -68.3298E+06     97.9389E+03         40.8786
             389     3.58241E-03     59.4959E-03     133.849E-03     133.492E-03    -471.897E-03     133.849E-03    -471.897E-03     133.492E-03     29.6098E-06     220.885E-03    -110.155E-03    -110.730E-03    -110.093E-03     220.823E-03    -110.730E-03     8.88916E-03    -90.1365E+06    -129.037E+06    -300.640E+06    -129.047E+06    -300.630E+06    -90.1365E+06    -98.8792E+03         40.3145
             390     2.68640E-03     59.4888E-03     133.619E-03     133.427E-03    -471.634E-03     133.619E-03    -471.634E-03     133.427E-03     172.635E-06     221.062E-03    -110.318E-03    -110.744E-03    -110.291E-03     221.035E-03    -110.744E-03     5.77421E-03    -111.322E+06    -137.403E+06    -330.909E+06    -137.411E+06    -330.902E+06    -111.322E+06    -458.543E+03         39.8969
             391     1.79070E-03     59.4840E-03     133.493E-03     133.373E-03    -471.439E-03     133.493E-03    -471.439E-03     133.373E-03    -184.936E-06     221.260E-03    -110.518E-03    -110.741E-03    -110.509E-03     221.251E-03    -110.741E-03     3.27504E-03    -131.494E+06    -144.615E+06    -349.866E+06    -144.629E+06    -349.852E+06    -131.494E+06     123.588E+03         39.6094
             392     895.101E-06     59.4815E-03     157.390E-03     109.281E-03    -471.312E-03     109.338E-03    -471.308E-03     157.331E-03     1.45981E-03     221.391E-03    -110.371E-03    -111.021E-03    -110.943E-03     221.389E-03    -110.446E-03     1.66019E-03    -147.144E+06    -151.910E+06    -360.874E+06    -151.081E+06    -360.863E+06    -147.985E+06    -295.955E+03         39.4376
             393     15.2363E-03     59.0467E-03     141.282E-03     136.724E-03    -483.607E-03     141.282E-03    -483.607E-03     136.724E-03     303.562E-06     229.404E-03    -110.476E-03    -118.928E-03    -111.114E-03     221.591E-03    -110.476E-03     98.6399E-03      141.93E+06     128.278E+06    -8.77478E+06    -8.74427E+06     128.248E+06      141.93E+06     1.47686E+06         59.8733
             394     14.3419E-03     58.8845E-03     140.796E-03     136.638E-03    -483.270E-03     140.796E-03    -483.270E-03     136.638E-03     211.343E-06     228.834E-03    -110.447E-03    -118.387E-03    -110.294E-03     220.742E-03    -110.447E-03     101.174E-03     126.294E+06     111.939E+06    -16.7838E+06    -16.7456E+06     111.900E+06     126.294E+06     271.640E+03         57.9517
             395     13.4435E-03     58.7980E-03     140.334E-03     136.542E-03    -482.890E-03     140.334E-03    -482.890E-03     136.542E-03     97.3107E-06     224.183E-03    -110.412E-03    -113.771E-03    -109.128E-03     219.540E-03    -110.412E-03     78.4223E-03     103.438E+06     92.7158E+06    -26.0746E+06    -26.0548E+06     92.6960E+06     103.438E+06    -1.29762E+06         55.9691
             396     12.5463E-03     58.6960E-03     139.862E-03     136.430E-03    -482.475E-03     139.861E-03    -482.475E-03     136.430E-03     131.135E-06     223.888E-03    -110.376E-03    -113.512E-03    -109.079E-03     219.454E-03    -110.376E-03     76.4021E-03     82.1228E+06     77.0131E+06    -36.2866E+06    -36.2649E+06     78.6140E+06     80.5002E+06     550.126E+03         53.9530
             397     11.6495E-03     58.6156E-03     139.369E-03     136.315E-03    -482.009E-03     139.369E-03    -482.009E-03     136.315E-03     159.903E-06     222.426E-03    -110.360E-03    -112.065E-03    -108.771E-03     219.132E-03    -110.360E-03     66.0336E-03     73.2480E+06     63.6228E+06    -44.3484E+06     -44.307E+06     73.2065E+06     63.6228E+06     1.89602E+06         51.9460
             398     10.7522E-03     58.5405E-03     138.883E-03     136.197E-03    -481.529E-03     138.883E-03    -481.529E-03     136.197E-03     172.744E-06     221.914E-03    -110.399E-03    -111.514E-03    -108.764E-03     219.164E-03    -110.399E-03     60.1780E-03     62.2172E+06     52.1231E+06    -52.3001E+06    -52.2693E+06     60.0949E+06     54.2147E+06     445.666E+03         49.9985
             399     9.85576E-03     58.4748E-03     138.403E-03     136.079E-03    -481.040E-03     138.403E-03    -481.040E-03     136.079E-03     187.776E-06     221.304E-03    -110.446E-03    -110.858E-03    -108.721E-03     219.194E-03    -110.472E-03     52.6642E-03     42.2252E+06     19.0730E+06    -60.9050E+06    -60.8785E+06     19.0465E+06     42.2252E+06    -75.9457E+03         48.1602
             400     8.95887E-03     58.4178E-03     137.934E-03     135.961E-03    -480.547E-03     137.934E-03    -480.547E-03     135.961E-03     183.989E-06     220.849E-03    -110.257E-03    -110.592E-03    -108.722E-03     219.275E-03    -110.553E-03     45.3950E-03     23.5876E+06    -40.7826E+06    -70.5847E+06    -69.5413E+06    -41.8260E+06     23.5876E+06     478.507E+03         46.4729
             401     8.06206E-03     58.3694E-03     137.477E-03     135.845E-03    -480.061E-03     137.477E-03    -480.061E-03     135.845E-03     189.117E-06     220.681E-03    -110.038E-03    -110.643E-03    -108.955E-03     219.598E-03    -110.643E-03     37.5837E-03     6.31925E+06    -77.7424E+06    -100.090E+06    -78.8150E+06    -99.0173E+06     6.31925E+06     218.023E+03         44.9667
             402     7.16563E-03     58.3317E-03     137.049E-03     135.732E-03    -479.591E-03     137.049E-03    -479.591E-03     135.732E-03     170.408E-06     220.789E-03    -110.084E-03    -110.704E-03    -109.380E-03     220.085E-03    -110.704E-03     30.3116E-03    -10.5739E+06    -88.4706E+06    -144.819E+06    -88.4756E+06    -144.814E+06    -10.5739E+06     324.995E+03         43.6586
             403     6.26962E-03     58.3006E-03     136.651E-03     135.623E-03    -479.143E-03     136.651E-03    -479.143E-03     135.623E-03     181.206E-06     220.917E-03    -110.187E-03    -110.730E-03    -109.752E-03     220.482E-03    -110.730E-03     23.7619E-03    -28.3102E+06    -98.4286E+06    -187.165E+06    -98.4304E+06    -187.163E+06    -28.3102E+06     142.599E+03         42.5521
             404     5.37354E-03     58.2785E-03     136.286E-03     135.522E-03    -478.728E-03     136.285E-03    -478.728E-03     135.522E-03     135.739E-06     220.937E-03    -110.203E-03    -110.734E-03    -109.951E-03     220.685E-03    -110.734E-03     18.0998E-03    -47.5784E+06    -108.766E+06    -230.525E+06    -108.767E+06    -230.525E+06    -47.5784E+06    -128.504E+03         41.6406
             405     4.47839E-03     58.2612E-03     135.974E-03     135.431E-03    -478.358E-03     135.974E-03    -478.358E-03     135.431E-03     169.645E-06     220.906E-03    -110.183E-03    -110.724E-03    -110.045E-03     220.769E-03    -110.724E-03     13.2755E-03    -68.0532E+06    -118.870E+06    -267.335E+06    -118.872E+06    -267.332E+06    -68.0532E+06    -473.457E+03         40.9103
             406     3.58223E-03     58.2505E-03     135.701E-03     135.351E-03    -478.038E-03     135.701E-03    -478.038E-03     135.351E-03     60.6829E-06     220.969E-03    -110.260E-03    -110.709E-03    -110.196E-03     220.905E-03    -110.709E-03     9.05387E-03    -89.1364E+06    -128.360E+06    -299.909E+06    -128.366E+06    -299.903E+06    -89.1364E+06    -925.358E+03         40.3443
             407     2.68657E-03     58.2425E-03     135.482E-03     135.288E-03    -477.779E-03     135.482E-03    -477.779E-03     135.288E-03     184.976E-06     221.109E-03    -110.438E-03    -110.671E-03    -110.410E-03     221.081E-03    -110.671E-03     5.86817E-03    -111.952E+06    -138.670E+06    -331.668E+06    -138.677E+06    -331.661E+06    -111.952E+06    -740.355E+03         39.9248
             408     1.79135E-03     58.2378E-03     135.336E-03     135.239E-03    -477.590E-03     135.336E-03    -477.590E-03     135.239E-03    -166.075E-06     221.146E-03    -110.512E-03    -110.634E-03    -110.552E-03     221.137E-03    -110.586E-03     3.25769E-03    -132.126E+06    -147.091E+06    -351.259E+06    -147.100E+06    -351.249E+06    -132.126E+06     142.763E+03         39.6357
             409     895.899E-06     58.2356E-03     156.364E-03     114.078E-03    -477.468E-03     114.103E-03    -477.465E-03     156.336E-03     1.50912E-03     220.962E-03    -110.222E-03    -110.740E-03    -110.448E-03     220.959E-03    -110.511E-03     1.65947E-03    -147.317E+06    -153.085E+06    -359.924E+06    -153.110E+06    -359.899E+06    -147.317E+06     1.22392E+06         39.4628
             410     15.2401E-03     57.7990E-03     142.934E-03     138.577E-03    -489.520E-03     142.933E-03    -489.520E-03     138.577E-03     242.117E-06     229.103E-03    -110.455E-03    -118.648E-03    -110.938E-03     221.394E-03    -110.455E-03     97.4317E-03     142.830E+06     128.788E+06    -7.78514E+06    -7.75770E+06     128.760E+06     142.830E+06     108.020E+03         59.8397
             411     14.3407E-03     57.6403E-03     142.555E-03     138.509E-03    -489.247E-03     142.555E-03    -489.247E-03     138.509E-03     68.0313E-06     228.450E-03    -110.443E-03    -118.007E-03    -109.762E-03     220.205E-03    -110.443E-03     102.378E-03     126.345E+06     112.170E+06    -15.3240E+06    -15.2753E+06     112.122E+06     126.345E+06     1.53091E+06         57.9230
             412     13.4435E-03     57.5523E-03     142.149E-03     138.429E-03    -489.000E-03     142.149E-03    -489.000E-03     138.429E-03     142.698E-06     224.177E-03    -110.436E-03    -113.741E-03    -108.960E-03     219.396E-03    -110.436E-03     79.6690E-03     103.037E+06     91.7325E+06    -26.0517E+06    -25.9828E+06     91.6636E+06     103.037E+06     1.48958E+06         55.9481
             413     12.5464E-03     57.4505E-03     141.657E-03     138.331E-03    -488.582E-03     141.657E-03    -488.582E-03     138.331E-03     212.354E-06     223.894E-03    -110.426E-03    -113.468E-03    -109.028E-03     219.454E-03    -110.426E-03     76.4720E-03     83.6375E+06     78.3175E+06    -35.0304E+06    -34.9721E+06     78.4836E+06     83.4131E+06     867.976E+03         53.9422
             414     11.6486E-03     57.3702E-03     141.189E-03     138.232E-03    -488.163E-03     141.189E-03    -488.163E-03     138.232E-03     235.805E-06     222.439E-03    -110.415E-03    -112.024E-03    -108.720E-03     219.134E-03    -110.415E-03     66.1269E-03     74.4603E+06     65.6397E+06    -42.5155E+06    -42.4923E+06     73.8313E+06     66.2456E+06    -163.192E+03         51.9462
             415     10.7520E-03     57.2941E-03     140.723E-03     138.129E-03    -487.717E-03     140.723E-03    -487.717E-03     138.129E-03     251.307E-06     221.997E-03    -110.454E-03    -111.543E-03    -108.787E-03     219.241E-03    -110.454E-03     60.2607E-03     63.9798E+06     52.7790E+06    -49.7753E+06    -49.7695E+06     60.7635E+06     55.9895E+06    -117.181E+03         50.0092
             416     9.85507E-03     57.2289E-03     140.263E-03     138.025E-03    -487.263E-03     140.263E-03    -487.263E-03     138.025E-03     261.287E-06     221.551E-03    -110.522E-03    -111.029E-03    -108.915E-03     219.437E-03    -110.522E-03     52.7357E-03     43.2374E+06     18.4253E+06    -59.0601E+06    -59.0499E+06     18.4151E+06     43.2374E+06     360.439E+03         48.1801
             417     8.95858E-03     57.1719E-03     139.818E-03     137.921E-03    -486.806E-03     139.818E-03    -486.806E-03     137.921E-03     256.895E-06     221.127E-03    -110.396E-03    -110.732E-03    -108.977E-03     219.561E-03    -110.584E-03     45.3229E-03     24.4146E+06    -41.1332E+06    -69.4765E+06    -69.0171E+06    -41.5926E+06     24.4146E+06     522.740E+03         46.5001
             418     8.06191E-03     57.1241E-03     139.388E-03     137.817E-03    -486.357E-03     139.388E-03    -486.357E-03     137.817E-03     254.309E-06     220.864E-03    -110.212E-03    -110.652E-03    -109.124E-03     219.776E-03    -110.652E-03     37.6879E-03     6.73937E+06    -77.5641E+06    -99.5796E+06    -78.6339E+06    -98.5098E+06     6.73937E+06     468.051E+03         44.9987
             419     7.16572E-03     57.0849E-03     138.983E-03     137.715E-03    -485.919E-03     138.983E-03    -485.919E-03     137.715E-03     228.417E-06     220.874E-03    -110.177E-03    -110.697E-03    -109.473E-03     220.170E-03    -110.697E-03     30.2939E-03    -10.4610E+06    -88.1882E+06    -144.859E+06    -88.1941E+06    -144.853E+06    -10.4610E+06     176.023E+03         43.6930
             420     6.26972E-03     57.0548E-03     138.607E-03     137.616E-03    -485.503E-03     138.607E-03    -485.503E-03     137.616E-03     232.296E-06     220.830E-03    -110.108E-03    -110.723E-03    -109.682E-03     220.404E-03    -110.723E-03     23.5066E-03    -27.8294E+06    -98.0091E+06    -186.991E+06    -98.0167E+06    -186.983E+06    -27.8294E+06     418.109E+03         42.5869
             421     5.37402E-03     57.0318E-03     138.259E-03     137.523E-03    -485.113E-03     138.259E-03    -485.113E-03     137.523E-03     179.634E-06     220.793E-03    -110.051E-03    -110.742E-03    -109.807E-03     220.549E-03    -110.742E-03     17.8044E-03    -47.2491E+06    -108.350E+06    -230.064E+06    -108.357E+06    -230.056E+06    -47.2491E+06     184.219E+03         41.6744
             422     4.47758E-03     57.0156E-03     137.962E-03     137.438E-03    -484.761E-03     137.962E-03    -484.761E-03     137.438E-03     201.932E-06     220.912E-03    -110.162E-03    -110.750E-03    -110.026E-03     220.777E-03    -110.750E-03     13.2115E-03    -67.4667E+06    -118.956E+06    -267.114E+06    -118.960E+06    -267.111E+06    -67.4667E+06    -371.113E+03         40.9423
             423     3.58228E-03     57.0038E-03     137.696E-03     137.364E-03    -484.457E-03     137.696E-03    -484.457E-03     137.364E-03     87.9133E-06     221.097E-03    -110.368E-03    -110.729E-03    -110.302E-03     221.031E-03    -110.729E-03     9.20333E-03    -88.8809E+06    -129.848E+06    -300.376E+06    -129.856E+06    -300.368E+06    -88.8809E+06    -166.153E+03         40.3743
             424     2.68701E-03     56.9966E-03     137.495E-03     137.304E-03    -484.207E-03     137.495E-03    -484.207E-03     137.304E-03     204.496E-06     221.151E-03    -110.486E-03    -110.665E-03    -110.456E-03     221.121E-03    -110.665E-03     6.15688E-03    -112.524E+06    -140.570E+06    -332.044E+06    -140.577E+06    -332.037E+06    -112.524E+06     121.800E+03         39.9530
             425     1.79112E-03     56.9918E-03     137.343E-03     137.260E-03    -484.027E-03     137.343E-03    -484.027E-03     137.260E-03    -166.154E-06     221.108E-03    -110.491E-03    -110.617E-03    -110.542E-03     221.096E-03    -110.555E-03     3.66816E-03    -134.950E+06    -149.272E+06    -352.120E+06    -149.274E+06    -352.119E+06    -134.950E+06    -107.376E+03         39.6623
             426     895.722E-06     56.9899E-03     155.364E-03     119.141E-03    -483.905E-03     119.145E-03    -483.901E-03     155.356E-03     1.62118E-03     220.901E-03    -110.192E-03    -110.709E-03    -110.252E-03     220.899E-03    -110.647E-03     1.47661E-03    -148.589E+06    -153.835E+06    -358.768E+06    -152.950E+06    -358.725E+06    -149.517E+06    -333.164E+03         39.4884
             427     15.2375E-03     56.5539E-03     144.722E-03     140.530E-03    -495.453E-03     144.721E-03    -495.453E-03     140.530E-03     89.0840E-06     228.200E-03    -110.261E-03    -117.939E-03    -109.821E-03     220.314E-03    -110.493E-03     98.3689E-03     140.903E+06     127.393E+06    -8.48157E+06    -8.46136E+06     127.373E+06     140.903E+06    -1.45938E+06         59.8047
             428     14.3398E-03     56.3965E-03     144.392E-03     140.479E-03    -495.471E-03     144.392E-03    -495.471E-03     140.479E-03     144.876E-06     229.076E-03    -110.510E-03    -118.565E-03    -110.141E-03     220.651E-03    -110.510E-03     103.604E-03     123.206E+06     108.795E+06    -18.6183E+06    -18.5617E+06     108.738E+06     123.206E+06     1.14608E+06         57.8927
             429     13.4420E-03     56.3052E-03     143.924E-03     140.418E-03    -495.176E-03     143.924E-03    -495.176E-03     140.418E-03     306.495E-06     224.638E-03    -110.491E-03    -114.147E-03    -109.363E-03     219.854E-03    -110.491E-03     79.8271E-03     102.900E+06     91.6353E+06    -26.3078E+06    -26.2205E+06     91.5480E+06     102.900E+06     2.46178E+06         55.9268
             430     12.5451E-03     56.2054E-03     143.483E-03     140.342E-03    -494.830E-03     143.483E-03    -494.830E-03     140.342E-03     301.442E-06     224.088E-03    -110.461E-03    -113.627E-03    -109.241E-03     219.702E-03    -110.461E-03     76.0573E-03     85.7156E+06     79.9270E+06    -33.2674E+06    -33.2190E+06     81.1809E+06     84.4133E+06     577.977E+03         53.9318
             431     11.6487E-03     56.1239E-03     143.045E-03     140.264E-03    -494.456E-03     143.045E-03    -494.456E-03     140.264E-03     324.592E-06     222.510E-03    -110.440E-03    -112.070E-03    -108.801E-03     219.241E-03    -110.440E-03     65.7909E-03     76.0096E+06     65.8171E+06    -41.6114E+06    -41.5965E+06     75.3888E+06     66.4230E+06    -734.391E+03         51.9470
             432     10.7512E-03     56.0489E-03     142.612E-03     140.181E-03    -494.062E-03     142.612E-03    -494.062E-03     140.181E-03     325.671E-06     221.914E-03    -110.480E-03    -111.434E-03    -108.695E-03     219.176E-03    -110.480E-03     60.0651E-03     62.6854E+06     50.9337E+06    -51.1989E+06    -51.1919E+06      59.211E+06     54.4011E+06    -389.630E+03         50.0205
             433     9.85448E-03     55.9821E-03     142.195E-03     140.097E-03    -493.666E-03     142.195E-03    -493.666E-03     140.097E-03     331.535E-06     221.599E-03    -110.555E-03    -111.044E-03    -108.947E-03     219.502E-03    -110.555E-03     52.5101E-03     42.6073E+06     17.7924E+06    -60.1200E+06    -60.1108E+06     17.7833E+06     42.6073E+06     553.521E+03         48.2003
             434     8.95828E-03     55.9259E-03     141.789E-03     140.011E-03    -493.265E-03     141.789E-03    -493.265E-03     140.011E-03     318.298E-06     221.391E-03    -110.554E-03    -110.837E-03    -109.245E-03     219.851E-03    -110.606E-03     44.9817E-03     24.5109E+06    -40.9808E+06    -69.5101E+06    -68.9930E+06    -41.4979E+06     24.5109E+06     777.970E+03         46.5274
             435     8.06216E-03     55.8780E-03     141.398E-03     139.924E-03    -492.866E-03     141.398E-03    -492.866E-03     139.924E-03     314.162E-06     221.107E-03    -110.405E-03    -110.702E-03    -109.382E-03     220.027E-03    -110.645E-03     37.5992E-03     6.87796E+06    -77.9093E+06    -98.7080E+06    -78.6809E+06    -97.9364E+06     6.87796E+06     699.325E+03         45.0309
             436     7.16599E-03     55.8387E-03     141.027E-03     139.836E-03    -492.475E-03     141.027E-03    -492.475E-03     139.836E-03     281.664E-06     220.827E-03    -110.153E-03    -110.674E-03    -109.449E-03     220.122E-03    -110.674E-03     30.3036E-03    -10.8432E+06    -88.5863E+06    -144.520E+06    -88.5993E+06    -144.507E+06    -10.8432E+06     555.708E+03         43.7276
             437     6.27005E-03     55.8084E-03     140.678E-03     139.750E-03    -492.097E-03     140.678E-03    -492.097E-03     139.750E-03     275.857E-06     220.697E-03    -109.990E-03    -110.707E-03    -109.561E-03     220.268E-03    -110.707E-03     23.5938E-03    -28.4421E+06    -98.7107E+06    -187.101E+06    -98.7275E+06    -187.084E+06    -28.4421E+06     310.746E+03         42.6218
             438     5.37367E-03     55.7861E-03     140.359E-03     139.667E-03    -491.743E-03     140.359E-03    -491.743E-03     139.667E-03     217.605E-06     220.740E-03    -110.001E-03    -110.740E-03    -109.754E-03     220.494E-03    -110.740E-03     17.8657E-03    -47.1926E+06    -108.916E+06    -229.525E+06    -108.938E+06    -229.503E+06    -47.1926E+06     400.746E+03         41.7083
             439     4.47812E-03     55.7694E-03     140.081E-03     139.591E-03    -491.421E-03     140.081E-03    -491.421E-03     139.591E-03     233.462E-06     220.864E-03    -110.107E-03    -110.757E-03    -109.973E-03     220.730E-03    -110.757E-03     13.1613E-03    -67.8576E+06    -120.139E+06    -267.164E+06    -120.154E+06    -267.150E+06    -67.8576E+06     651.836E+03         40.9746
             440     3.58207E-03     55.7575E-03     139.833E-03     139.525E-03    -491.141E-03     139.833E-03    -491.141E-03     139.525E-03     115.388E-06     221.015E-03    -110.258E-03    -110.757E-03    -110.192E-03     220.949E-03    -110.757E-03     9.16275E-03    -89.6177E+06    -130.933E+06    -300.960E+06    -130.939E+06    -300.954E+06    -89.6177E+06     600.720E+03         40.4046
             441     2.68618E-03     55.7505E-03     139.654E-03     139.470E-03    -490.914E-03     139.653E-03    -490.914E-03     139.470E-03     222.723E-06     221.159E-03    -110.426E-03    -110.733E-03    -110.397E-03     221.130E-03    -110.733E-03     6.08172E-03    -112.031E+06    -139.930E+06    -331.480E+06    -139.934E+06    -331.475E+06    -112.031E+06     361.782E+03         39.9814
             442     1.79102E-03     55.7457E-03     139.504E-03     139.429E-03    -490.743E-03     139.503E-03    -490.743E-03     139.430E-03    -153.219E-06     221.189E-03    -110.483E-03    -110.706E-03    -110.485E-03     221.178E-03    -110.693E-03     3.69144E-03    -134.186E+06    -147.857E+06    -350.789E+06    -147.861E+06    -350.785E+06    -134.186E+06    -333.762E+03         39.6892
             443     895.463E-06     55.7439E-03     154.320E-03     124.512E-03    -490.634E-03     124.508E-03    -490.630E-03     154.320E-03     1.70971E-03     221.278E-03    -110.254E-03    -111.024E-03    -110.732E-03     221.276E-03    -110.544E-03     1.31234E-03    -149.443E+06    -153.973E+06    -359.897E+06    -152.838E+06    -359.864E+06    -150.612E+06    -908.047E+03         39.5144
             444     15.2341E-03     55.3087E-03     146.387E-03     142.553E-03    -501.696E-03     146.387E-03    -501.696E-03     142.553E-03    -6.07376E-06     228.154E-03    -110.325E-03    -117.829E-03    -109.783E-03     220.339E-03    -110.557E-03     98.7785E-03     139.623E+06     126.479E+06    -9.29430E+06    -9.24106E+06     126.426E+06     139.623E+06    -72.3641E+03         59.7697
             445     14.3381E-03     55.1481E-03     146.049E-03     142.534E-03    -501.645E-03     146.049E-03    -501.645E-03     142.534E-03     398.928E-06     229.499E-03    -110.554E-03    -118.944E-03    -110.860E-03     221.414E-03    -110.554E-03     101.570E-03     122.448E+06     108.340E+06    -20.5154E+06    -20.4417E+06     108.266E+06     122.448E+06    -1.18859E+06         57.8638
             446     13.4424E-03     55.0603E-03     145.672E-03     142.504E-03    -501.430E-03     145.672E-03    -501.430E-03     142.504E-03     343.033E-06     224.629E-03    -110.510E-03    -114.119E-03    -109.474E-03     219.984E-03    -110.510E-03     78.6090E-03     104.171E+06     92.6893E+06    -26.7019E+06    -26.6315E+06     92.6189E+06     104.171E+06    -249.470E+03         55.9072
             447     12.5456E-03     54.9580E-03     145.311E-03     142.457E-03    -501.175E-03     145.311E-03    -501.175E-03     142.457E-03     373.437E-06     223.996E-03    -110.469E-03    -113.527E-03    -109.203E-03     219.672E-03    -110.469E-03     75.4872E-03     85.5172E+06     79.8739E+06    -34.2522E+06    -34.2354E+06     81.5140E+06     83.8603E+06     -62.393E+03         53.9224
             448     11.6485E-03     54.8788E-03     144.935E-03     142.405E-03    -500.878E-03     144.935E-03    -500.878E-03     142.405E-03     376.056E-06     222.559E-03    -110.443E-03    -112.116E-03    -108.882E-03     219.326E-03    -110.443E-03     65.4565E-03     75.2552E+06     65.5636E+06    -42.4915E+06    -42.4730E+06     75.2368E+06     65.5636E+06     99.3727E+03         51.9486
             449     10.7516E-03     54.8027E-03     144.561E-03     142.347E-03    -500.562E-03     144.561E-03    -500.562E-03     142.347E-03     382.484E-06     222.009E-03    -110.478E-03    -111.531E-03    -108.810E-03     219.288E-03    -110.478E-03     59.8822E-03     62.3594E+06     51.1120E+06    -51.2177E+06    -51.2084E+06     59.1374E+06     54.3247E+06     212.188E+03         50.0326
             450     9.85483E-03     54.7362E-03     144.197E-03     142.288E-03    -500.237E-03     144.197E-03    -500.237E-03     142.288E-03     383.241E-06     221.506E-03    -110.548E-03    -110.958E-03    -108.883E-03     219.430E-03    -110.548E-03     52.2442E-03     41.6588E+06     16.9564E+06    -60.6198E+06    -60.6174E+06     16.9540E+06     41.6588E+06     160.768E+03         48.2212
             451     8.95814E-03     54.6792E-03     143.841E-03     142.224E-03    -499.906E-03     143.841E-03    -499.906E-03     142.224E-03     370.414E-06     221.361E-03    -110.602E-03    -110.759E-03    -109.223E-03     219.825E-03    -110.602E-03     44.9214E-03     23.6929E+06    -41.6994E+06    -70.0595E+06    -69.9364E+06    -41.8225E+06     23.6929E+06     521.888E+03         46.5549
             452     8.06230E-03     54.6314E-03     143.500E-03     142.156E-03    -499.572E-03     143.500E-03    -499.572E-03     142.156E-03     360.861E-06     221.171E-03    -110.462E-03    -110.708E-03    -109.454E-03     220.094E-03    -110.640E-03     37.5409E-03     6.78820E+06    -77.8753E+06    -98.9998E+06    -79.0260E+06    -97.8491E+06     6.78820E+06     793.087E+03         45.0630
             453     7.16622E-03     54.5929E-03     143.172E-03     142.086E-03    -499.238E-03     143.172E-03    -499.238E-03     142.086E-03     326.815E-06     220.763E-03    -110.095E-03    -110.667E-03    -109.389E-03     220.056E-03    -110.667E-03     30.3662E-03    -10.7473E+06    -88.6448E+06    -144.199E+06    -88.6681E+06    -144.175E+06    -10.7473E+06     847.046E+03         43.7619
             454     6.26961E-03     54.5626E-03     142.858E-03     142.015E-03    -498.910E-03     142.858E-03    -498.910E-03     142.015E-03     314.051E-06     220.648E-03    -109.941E-03    -110.707E-03    -109.508E-03     220.215E-03    -110.707E-03     23.6838E-03    -28.3726E+06    -98.7813E+06    -186.672E+06    -98.8026E+06    -186.651E+06    -28.3726E+06     558.606E+03         42.6566
             455     5.37390E-03     54.5400E-03     142.577E-03     141.945E-03    -498.599E-03     142.577E-03    -498.599E-03     141.945E-03     250.918E-06     220.772E-03    -110.030E-03    -110.742E-03    -109.784E-03     220.526E-03    -110.742E-03     17.8630E-03    -47.3477E+06    -109.416E+06    -229.711E+06    -109.443E+06    -229.685E+06    -47.3477E+06     588.253E+03         41.7423
             456     4.47781E-03     54.5232E-03     142.327E-03     141.881E-03    -498.318E-03     142.327E-03    -498.318E-03     141.881E-03     263.876E-06     220.868E-03    -110.113E-03    -110.755E-03    -109.978E-03     220.732E-03    -110.755E-03     13.2101E-03    -67.9016E+06    -119.348E+06    -266.852E+06    -119.361E+06    -266.838E+06    -67.9016E+06     686.141E+03         41.0070
             457     3.58211E-03     54.5118E-03     142.105E-03     141.824E-03    -498.073E-03     142.105E-03    -498.073E-03     141.824E-03     141.614E-06     221.027E-03    -110.275E-03    -110.752E-03    -110.209E-03     220.961E-03    -110.752E-03     9.09458E-03    -89.5100E+06    -129.377E+06    -300.521E+06    -129.380E+06    -300.519E+06    -89.5100E+06     270.698E+03         40.4351
             458     2.68660E-03     54.5040E-03     141.946E-03     141.776E-03    -497.873E-03     141.945E-03    -497.873E-03     141.776E-03     236.124E-06     221.127E-03    -110.388E-03    -110.739E-03    -110.362E-03     221.101E-03    -110.739E-03     5.63174E-03    -111.093E+06    -138.393E+06    -330.782E+06    -138.396E+06    -330.779E+06    -111.093E+06    -237.802E+03         40.0100
             459     1.79067E-03     54.4998E-03     141.811E-03     141.738E-03    -497.715E-03     141.810E-03    -497.715E-03     141.739E-03    -121.837E-06     221.140E-03    -110.384E-03    -110.756E-03    -110.375E-03     221.131E-03    -110.756E-03     3.27618E-03    -131.719E+06    -146.092E+06    -350.388E+06    -146.100E+06    -350.381E+06    -131.719E+06    -268.838E+03         39.7164
             460     894.914E-06     54.4976E-03     153.340E-03     130.102E-03    -497.629E-03     130.104E-03    -497.625E-03     153.335E-03     1.66487E-03     221.481E-03    -110.318E-03    -111.163E-03    -110.963E-03     221.478E-03    -110.515E-03     1.75257E-03    -147.599E+06    -153.894E+06    -361.163E+06    -153.665E+06    -361.151E+06    -147.840E+06     320.808E+03         39.5405
             461     15.2369E-03     54.0603E-03     148.052E-03     144.658E-03    -508.167E-03     148.051E-03    -508.167E-03     144.658E-03    -44.5226E-06     228.901E-03    -110.543E-03    -118.358E-03    -110.682E-03     221.225E-03    -110.543E-03     97.9458E-03     141.531E+06     127.573E+06    -8.21734E+06    -8.17361E+06     127.529E+06     141.531E+06     1.06003E+06         59.7381
             462     14.3407E-03     53.9023E-03     147.706E-03     144.678E-03    -507.871E-03     147.706E-03    -507.871E-03     144.678E-03     194.847E-06     228.857E-03    -110.526E-03    -118.331E-03    -110.354E-03     220.880E-03    -110.526E-03     100.771E-03     125.668E+06     111.432E+06    -17.2086E+06    -17.1550E+06     111.378E+06     125.668E+06    -734.406E+03         57.8380
             463     13.4427E-03     53.8138E-03     147.471E-03     144.684E-03    -507.814E-03     147.471E-03    -507.814E-03     144.684E-03     309.800E-06     224.351E-03    -110.494E-03    -113.857E-03    -109.183E-03     219.677E-03    -110.494E-03     78.7693E-03     102.896E+06     91.9172E+06    -27.9369E+06    -27.8645E+06     91.8449E+06     102.896E+06    -1.12002E+06         55.8888
             464     12.5454E-03     53.7126E-03     147.167E-03     144.669E-03    -507.624E-03     147.167E-03    -507.624E-03     144.669E-03     364.488E-06     223.960E-03    -110.464E-03    -113.496E-03    -109.124E-03     219.589E-03    -110.464E-03     75.8652E-03     84.3748E+06     78.7624E+06    -35.7016E+06    -35.6705E+06     80.7278E+06     82.3784E+06    -799.268E+03         53.9136
             465     11.6483E-03     53.6327E-03     146.871E-03     144.649E-03    -507.429E-03     146.871E-03    -507.429E-03     144.649E-03     398.112E-06     222.716E-03    -110.439E-03    -112.278E-03    -109.042E-03     219.481E-03    -110.439E-03     65.5008E-03     74.6483E+06     64.8774E+06    -43.1276E+06    -43.1083E+06      74.629E+06     64.8774E+06    -319.063E+03         51.9503
             466     10.7518E-03     53.5563E-03     146.567E-03     144.620E-03    -507.202E-03     146.567E-03    -507.202E-03     144.620E-03     410.964E-06     222.137E-03    -110.463E-03    -111.673E-03    -108.959E-03     219.422E-03    -110.463E-03     59.8360E-03     62.4274E+06     51.6890E+06    -51.5287E+06    -51.5077E+06     59.4425E+06     54.6530E+06     551.367E+03         50.0447
             467     9.85511E-03     53.4906E-03     146.270E-03     144.588E-03    -506.964E-03     146.270E-03    -506.964E-03     144.588E-03     416.345E-06     221.484E-03    -110.523E-03    -110.961E-03    -108.880E-03     219.403E-03    -110.523E-03     52.3166E-03     41.5975E+06     17.2113E+06    -60.7063E+06    -60.6920E+06     17.1970E+06     41.5975E+06     378.582E+03         48.2422
             468     8.95852E-03     53.4329E-03     145.971E-03     144.549E-03    -506.713E-03     145.971E-03    -506.713E-03     144.549E-03     402.686E-06     221.156E-03    -110.464E-03    -110.692E-03    -109.024E-03     219.609E-03    -110.586E-03     45.0516E-03     23.3669E+06    -42.2477E+06    -70.1350E+06    -70.0738E+06    -42.3089E+06     23.3669E+06     136.422E+03         46.5824
             469     8.06204E-03     53.3848E-03     145.686E-03     144.504E-03    -506.454E-03     145.686E-03    -506.454E-03     144.504E-03     395.787E-06     220.987E-03    -110.330E-03    -110.657E-03    -109.264E-03     219.910E-03    -110.645E-03     37.5140E-03     6.68955E+06    -78.4048E+06    -99.3100E+06    -79.5457E+06    -98.1691E+06     6.68955E+06     528.078E+03         45.0947
             470     7.16584E-03     53.3470E-03     145.411E-03     144.454E-03    -506.187E-03     145.411E-03    -506.187E-03     144.454E-03     362.128E-06     220.840E-03    -110.161E-03    -110.679E-03    -109.460E-03     220.139E-03    -110.679E-03     30.2383E-03    -10.9159E+06    -89.2106E+06    -144.145E+06    -89.2337E+06    -144.122E+06    -10.9159E+06     707.686E+03         43.7959
             471     6.27000E-03     53.3165E-03     145.142E-03     144.401E-03    -505.922E-03     145.142E-03    -505.922E-03     144.401E-03     349.327E-06     220.711E-03    -110.002E-03    -110.709E-03    -109.569E-03     220.278E-03    -110.709E-03     23.7146E-03    -28.5222E+06    -98.9811E+06    -186.279E+06    -99.0028E+06    -186.257E+06    -28.5222E+06     630.251E+03         42.6912
             472     5.37376E-03     53.2938E-03     144.906E-03     144.348E-03    -505.667E-03     144.906E-03    -505.667E-03     144.348E-03     282.350E-06     220.805E-03    -110.067E-03    -110.738E-03    -109.819E-03     220.557E-03    -110.738E-03     17.8828E-03    -47.0108E+06    -108.445E+06    -229.549E+06    -108.460E+06    -229.534E+06    -47.0108E+06     171.824E+03         41.7762
             473     4.47795E-03     53.2775E-03     144.689E-03     144.296E-03    -505.431E-03     144.689E-03    -505.431E-03     144.296E-03     290.456E-06     220.949E-03    -110.212E-03    -110.737E-03    -110.081E-03     220.818E-03    -110.737E-03     12.9859E-03    -67.2119E+06    -118.414E+06    -266.361E+06    -118.416E+06    -266.358E+06    -67.2119E+06     115.554E+03         41.0394
             474     3.58220E-03     53.2652E-03     144.501E-03     144.249E-03    -505.224E-03     144.501E-03    -505.224E-03     144.249E-03     163.233E-06     220.982E-03    -110.265E-03    -110.718E-03    -110.201E-03     220.919E-03    -110.718E-03     8.98945E-03    -88.9224E+06    -128.099E+06    -299.307E+06    -128.102E+06    -299.304E+06    -88.9224E+06    -38.6578E+03         40.4656
             475     2.68672E-03     53.2580E-03     144.357E-03     144.209E-03    -505.049E-03     144.357E-03    -505.049E-03     144.209E-03     251.012E-06     221.043E-03    -110.335E-03    -110.707E-03    -110.309E-03     221.016E-03    -110.707E-03     5.72497E-03    -110.651E+06    -137.332E+06    -331.010E+06    -137.336E+06    -331.006E+06    -110.651E+06    -610.514E+03         40.0387
             476     1.79114E-03     53.2542E-03     144.245E-03     144.177E-03    -504.921E-03     144.245E-03    -504.921E-03     144.177E-03    -109.987E-06     221.192E-03    -110.441E-03    -110.751E-03    -110.494E-03     221.182E-03    -110.689E-03     3.39612E-03    -130.198E+06    -145.389E+06    -351.685E+06    -145.396E+06    -351.679E+06    -130.198E+06    -417.596E+03         39.7436
             477     895.580E-06     53.2511E-03     152.511E-03     135.820E-03    -504.838E-03     135.835E-03    -504.834E-03     152.493E-03     1.65080E-03     221.250E-03    -110.444E-03    -110.806E-03    -110.684E-03     221.246E-03    -110.563E-03     1.76343E-03    -144.929E+06    -152.375E+06    -361.152E+06    -151.551E+06    -361.146E+06    -145.759E+06    -44.9963E+03         39.5668
             478     15.2386E-03     52.8165E-03     149.876E-03     146.865E-03    -514.407E-03     149.876E-03    -514.407E-03     146.865E-03     104.713E-06     228.911E-03    -110.512E-03    -118.399E-03    -110.557E-03     221.069E-03    -110.512E-03     98.4031E-03     142.293E+06     127.604E+06    -8.23967E+06    -8.19245E+06     127.557E+06     142.293E+06     1.01183E+06         59.7075
             479     14.3390E-03     52.6562E-03     149.592E-03     146.915E-03    -514.374E-03     149.592E-03    -514.374E-03     146.915E-03     58.9627E-06     228.679E-03    -110.515E-03    -118.164E-03    -109.915E-03     220.429E-03    -110.515E-03     102.215E-03     126.082E+06     111.466E+06    -16.8811E+06    -16.8303E+06     111.415E+06     126.082E+06     1.57830E+06         57.8119
             480     13.4422E-03     52.5684E-03     149.324E-03     146.954E-03    -514.288E-03     149.324E-03    -514.288E-03     146.954E-03     268.233E-06     224.338E-03    -110.497E-03    -113.840E-03    -109.142E-03     219.640E-03    -110.497E-03     78.9829E-03     102.958E+06     92.5795E+06    -26.6645E+06    -26.6320E+06     92.5470E+06     102.958E+06    -247.073E+03         55.8700
             481     12.5450E-03     52.4668E-03     149.092E-03     146.973E-03    -514.202E-03     149.092E-03    -514.202E-03     146.973E-03     343.878E-06     224.119E-03    -110.459E-03    -113.660E-03    -109.286E-03     219.746E-03    -110.459E-03     75.9168E-03     83.8724E+06     78.1247E+06    -36.1446E+06    -36.1087E+06     81.0453E+06     80.9159E+06    -913.937E+03         53.9046
             482     11.6487E-03     52.3858E-03     148.857E-03     146.986E-03    -514.093E-03     148.857E-03    -514.093E-03     146.986E-03     395.962E-06     222.759E-03    -110.423E-03    -112.336E-03    -109.104E-03     219.527E-03    -110.423E-03     65.4725E-03     73.8547E+06     62.3449E+06    -44.8094E+06    -44.7935E+06     73.8388E+06     62.3449E+06    -894.070E+03         51.9520
             483     10.7520E-03     52.3108E-03     148.627E-03     146.989E-03    -513.967E-03     148.627E-03    -513.967E-03     146.989E-03     419.908E-06     222.127E-03    -110.453E-03    -111.674E-03    -108.951E-03     219.405E-03    -110.453E-03     59.9324E-03     62.1768E+06     49.3472E+06    -52.6154E+06    -52.5932E+06     57.8782E+06     53.6235E+06    -317.228E+03         50.0564
             484     9.85522E-03     52.2440E-03     148.405E-03     146.986E-03    -513.824E-03     148.405E-03    -513.824E-03     146.986E-03     434.445E-06     221.532E-03    -110.514E-03    -111.018E-03    -108.920E-03     219.435E-03    -110.514E-03     52.5278E-03     42.1135E+06     17.6311E+06    -61.0996E+06    -61.0538E+06     17.5854E+06     42.1135E+06     399.733E+03         48.2625
             485     8.95879E-03     52.1872E-03     148.174E-03     146.975E-03    -513.664E-03     148.174E-03    -513.664E-03     146.975E-03     423.713E-06     221.119E-03    -110.432E-03    -110.687E-03    -108.994E-03     219.566E-03    -110.571E-03     45.1449E-03     23.0993E+06    -41.1274E+06    -70.9130E+06    -70.1769E+06    -41.8635E+06     23.0993E+06     163.098E+03         46.6094
             486     8.06197E-03     52.1391E-03     147.951E-03     146.956E-03    -513.488E-03     147.951E-03    -513.488E-03     146.956E-03     417.802E-06     220.885E-03    -110.246E-03    -110.639E-03    -109.172E-03     219.811E-03    -110.639E-03     37.4396E-03     6.59956E+06    -78.3435E+06    -99.8200E+06    -79.3678E+06    -98.7957E+06     6.59956E+06    -88.4937E+03         45.1260
             487     7.16590E-03     52.1003E-03     147.737E-03     146.928E-03    -513.301E-03     147.737E-03    -513.301E-03     146.928E-03     387.175E-06     220.796E-03    -110.117E-03    -110.679E-03    -109.427E-03     220.106E-03    -110.679E-03     29.9909E-03    -10.9329E+06    -89.2544E+06    -144.008E+06    -89.2672E+06    -143.995E+06    -10.9329E+06     398.017E+03         43.8295
             488     6.26977E-03     52.0708E-03     147.520E-03     146.895E-03    -513.106E-03     147.520E-03    -513.106E-03     146.895E-03     375.048E-06     220.779E-03    -110.076E-03    -110.704E-03    -109.648E-03     220.351E-03    -110.704E-03     23.5970E-03    -28.8834E+06    -99.0829E+06    -186.358E+06     -99.096E+06    -186.345E+06    -28.8834E+06     167.237E+03         42.7255
             489     5.37378E-03     52.0476E-03     147.333E-03     146.859E-03    -512.914E-03     147.333E-03    -512.914E-03     146.859E-03     307.234E-06     220.870E-03    -110.152E-03    -110.718E-03    -109.904E-03     220.622E-03    -110.718E-03     17.8859E-03    -47.3327E+06    -108.881E+06    -229.388E+06    -108.885E+06    -229.384E+06    -47.3327E+06     51.8696E+03         41.8099
             490     4.47831E-03     52.0307E-03     147.156E-03     146.822E-03    -512.733E-03     147.156E-03    -512.733E-03     146.822E-03     310.659E-06     220.919E-03    -110.214E-03    -110.705E-03    -110.083E-03     220.789E-03    -110.705E-03     12.9623E-03    -67.1494E+06    -118.726E+06    -265.712E+06    -118.729E+06    -265.709E+06    -67.1494E+06     52.8997E+03         41.0717
             491     3.58267E-03     52.0197E-03     147.001E-03     146.787E-03    -512.566E-03     147.001E-03    -512.566E-03     146.787E-03     180.686E-06     220.827E-03    -110.131E-03    -110.695E-03    -110.068E-03     220.763E-03    -110.695E-03     8.99073E-03    -89.0390E+06    -128.772E+06    -298.708E+06    -128.777E+06    -298.703E+06    -89.0390E+06    -308.499E+03         40.4961
             492     2.68629E-03     52.0121E-03     146.881E-03     146.755E-03    -512.422E-03     146.881E-03    -512.422E-03     146.755E-03     269.068E-06     220.964E-03    -110.256E-03    -110.708E-03    -110.228E-03     220.936E-03    -110.708E-03     5.90826E-03    -111.908E+06    -138.558E+06    -331.192E+06    -138.562E+06    -331.189E+06    -111.908E+06    -416.670E+03         40.0674
             493     1.79083E-03     52.0077E-03     146.786E-03     146.728E-03    -512.313E-03     146.781E-03    -512.313E-03     146.733E-03    -115.004E-06     221.288E-03    -110.527E-03    -110.762E-03    -110.615E-03     221.277E-03    -110.662E-03     3.76625E-03    -132.981E+06    -147.101E+06    -352.551E+06    -147.104E+06    -352.548E+06    -132.981E+06    -518.028E+03         39.7708
             494     895.854E-06     52.0049E-03     151.740E-03     141.714E-03    -512.255E-03     141.723E-03    -512.251E-03     151.727E-03     1.67919E-03     221.133E-03    -110.241E-03    -110.892E-03    -110.861E-03     221.130E-03    -110.269E-03     1.50019E-03    -147.571E+06    -153.310E+06    -361.506E+06    -151.956E+06    -361.496E+06    -148.936E+06    -729.802E+03         39.5930
             495     15.2358E-03     51.5715E-03     151.558E-03     149.139E-03    -520.614E-03     151.558E-03    -520.614E-03     149.139E-03     198.342E-06     228.638E-03    -110.531E-03    -118.107E-03    -110.310E-03     220.841E-03    -110.531E-03     98.0715E-03     142.105E+06     127.164E+06    -8.10590E+06    -8.06046E+06     127.118E+06     142.105E+06     652.821E+03         59.6755
             496     14.3400E-03     51.4104E-03     151.420E-03     149.226E-03    -520.810E-03     151.420E-03    -520.810E-03     149.226E-03     269.752E-06     228.959E-03    -110.533E-03    -118.425E-03    -110.214E-03     220.747E-03    -110.533E-03     102.074E-03     126.615E+06     111.959E+06    -16.1348E+06    -16.0722E+06     111.896E+06     126.615E+06     1.71242E+06         57.7850
             497     13.4422E-03     51.3228E-03     151.220E-03     149.302E-03    -520.850E-03     151.220E-03    -520.850E-03     149.302E-03     269.259E-06     224.519E-03    -110.503E-03    -114.016E-03    -109.327E-03     219.830E-03    -110.503E-03     78.9429E-03     104.152E+06     93.8742E+06    -25.2726E+06    -25.2420E+06     93.8436E+06     104.152E+06     606.805E+03         55.8513
             498     12.5458E-03     51.2200E-03     151.052E-03     149.357E-03    -520.857E-03     151.052E-03    -520.856E-03     149.357E-03     345.614E-06     224.180E-03    -110.456E-03    -113.724E-03    -109.354E-03     219.810E-03    -110.456E-03     75.9005E-03     84.2237E+06     79.0826E+06    -34.8312E+06    -34.7954E+06     81.4077E+06     81.8627E+06     230.087E+03         53.8957
             499     11.6486E-03     51.1403E-03     150.894E-03     149.404E-03    -520.855E-03     150.894E-03    -520.855E-03     149.404E-03     391.947E-06     222.620E-03    -110.420E-03    -112.200E-03    -108.956E-03     219.376E-03    -110.420E-03     65.5752E-03     73.7824E+06     62.3290E+06    -44.2964E+06    -44.2618E+06     73.7478E+06     62.3290E+06    -309.174E+03         51.9532
             500     10.7517E-03     51.0642E-03     150.735E-03     149.441E-03    -520.828E-03     150.735E-03    -520.828E-03     149.441E-03     421.145E-06     222.156E-03    -110.454E-03    -111.702E-03    -108.956E-03     219.410E-03    -110.454E-03     60.1825E-03     61.4968E+06     47.3346E+06    -53.0571E+06    -53.0408E+06     56.4108E+06     52.4044E+06    -975.377E+03         50.0673
             501     9.85521E-03     50.9982E-03     150.593E-03     149.470E-03    -520.792E-03     150.593E-03    -520.792E-03     149.470E-03     441.381E-06     221.628E-03    -110.517E-03    -111.112E-03    -109.018E-03     219.534E-03    -110.517E-03     52.4863E-03     42.1954E+06     17.0368E+06    -61.4929E+06    -61.4377E+06     16.9816E+06     42.1954E+06    -502.837E+03         48.2820
             502     8.95841E-03     50.9410E-03     150.438E-03     149.488E-03    -520.732E-03     150.438E-03    -520.732E-03     149.488E-03     439.884E-06     221.204E-03    -110.497E-03    -110.707E-03    -109.102E-03     219.663E-03    -110.561E-03     44.9858E-03     23.2303E+06    -40.2508E+06    -71.5175E+06    -70.7123E+06    -41.0561E+06     23.2303E+06     -32.958E+03         46.6357
             503     8.06262E-03     50.8929E-03     150.284E-03     149.496E-03    -520.648E-03     150.284E-03    -520.648E-03     149.496E-03     433.413E-06     220.880E-03    -110.264E-03    -110.617E-03    -109.191E-03     219.807E-03    -110.617E-03     37.4367E-03     5.69024E+06    -78.7325E+06    -100.593E+06    -80.0916E+06    -99.2340E+06     5.69024E+06    -222.014E+03         45.1569
             504     7.16602E-03     50.8546E-03     150.136E-03     149.493E-03    -520.546E-03     150.136E-03    -520.546E-03     149.493E-03     401.120E-06     220.712E-03    -110.052E-03    -110.660E-03    -109.359E-03     220.019E-03    -110.660E-03     30.0338E-03    -10.9458E+06    -89.1036E+06    -144.096E+06    -89.1172E+06    -144.082E+06    -10.9458E+06    -179.837E+03         43.8629
             505     6.26989E-03     50.8243E-03     149.978E-03     149.482E-03    -520.430E-03     149.977E-03    -520.430E-03     149.482E-03     391.779E-06     220.787E-03    -110.101E-03    -110.686E-03    -109.675E-03     220.361E-03    -110.686E-03     23.5375E-03    -28.3915E+06    -98.3943E+06    -185.932E+06    -98.3968E+06    -185.929E+06    -28.3915E+06     52.7972E+03         42.7595
             506     5.37432E-03     50.8014E-03     149.844E-03     149.464E-03    -520.305E-03     149.844E-03    -520.305E-03     149.464E-03     322.932E-06     220.800E-03    -110.102E-03    -110.698E-03    -109.854E-03     220.552E-03    -110.698E-03     17.9187E-03    -47.5569E+06    -108.625E+06    -229.301E+06    -108.626E+06    -229.300E+06    -47.5569E+06     36.6463E+03         41.8433
             507     4.47812E-03     50.7848E-03     149.708E-03     149.443E-03    -520.180E-03     149.708E-03    -520.180E-03     149.443E-03     322.925E-06     220.766E-03    -110.062E-03    -110.704E-03    -109.929E-03     220.633E-03    -110.704E-03     13.0766E-03    -67.6264E+06    -119.262E+06    -265.996E+06    -119.264E+06    -265.994E+06    -67.6264E+06    -280.049E+03         41.1036
             508     3.58211E-03     50.7736E-03     149.585E-03     149.421E-03    -520.061E-03     149.585E-03    -520.061E-03     149.421E-03     192.045E-06     220.872E-03    -110.164E-03    -110.708E-03    -110.100E-03     220.809E-03    -110.708E-03     8.98984E-03    -89.0212E+06    -129.630E+06    -298.866E+06    -129.631E+06    -298.865E+06    -89.0212E+06    -98.7675E+03         40.5262
             509     2.68677E-03     50.7666E-03     149.507E-03     149.400E-03    -519.959E-03     149.507E-03    -519.959E-03     149.400E-03     277.970E-06     221.055E-03    -110.358E-03    -110.697E-03    -110.330E-03     221.027E-03    -110.697E-03     5.98524E-03    -112.080E+06    -139.293E+06    -331.185E+06    -139.294E+06    -331.184E+06    -112.080E+06     91.6210E+03         40.0958
             510     1.79091E-03     50.7611E-03     149.426E-03     149.378E-03    -519.876E-03     149.420E-03    -519.876E-03     149.384E-03    -90.1260E-06     221.168E-03    -110.477E-03    -110.691E-03    -110.504E-03     221.157E-03    -110.653E-03     3.57997E-03    -133.821E+06    -146.860E+06    -352.121E+06    -146.861E+06    -352.119E+06    -133.821E+06    -92.3716E+03         39.7979
             511     895.276E-06     50.7589E-03     151.279E-03     147.483E-03    -519.832E-03     147.480E-03    -519.830E-03     151.279E-03     1.53846E-03     221.181E-03    -110.244E-03    -110.937E-03    -110.866E-03     221.179E-03    -110.313E-03     1.38356E-03    -148.815E+06    -153.111E+06    -362.617E+06    -152.585E+06    -362.609E+06    -149.349E+06    -544.580E+03         39.6191
             512     15.2371E-03     50.3235E-03     153.186E-03     151.459E-03    -526.956E-03     153.186E-03    -526.956E-03     151.459E-03     167.605E-06     228.639E-03    -110.537E-03    -118.102E-03    -110.441E-03     220.978E-03    -110.537E-03     97.4581E-03     140.788E+06     126.243E+06    -8.89973E+06    -8.86999E+06     126.214E+06     140.788E+06    -411.308E+03         59.6440
             513     14.3391E-03     50.1656E-03     153.129E-03     151.592E-03    -527.168E-03     153.129E-03    -527.168E-03     151.592E-03     291.444E-06     228.996E-03    -110.529E-03    -118.467E-03    -110.378E-03     220.906E-03    -110.529E-03     101.579E-03     125.335E+06     110.873E+06    -17.5176E+06    -17.4778E+06     110.833E+06     125.335E+06    -99.4779E+03         57.7588
             514     13.4423E-03     50.0759E-03     153.097E-03     151.710E-03    -527.411E-03     153.097E-03    -527.411E-03     151.710E-03     318.294E-06     224.533E-03    -110.495E-03    -114.038E-03    -109.323E-03     219.818E-03    -110.495E-03     79.1861E-03     104.305E+06     93.9328E+06    -25.2473E+06    -25.2054E+06     93.8909E+06     104.305E+06     1.11111E+06         55.8329
             515     12.5454E-03     49.9742E-03     153.027E-03     151.804E-03    -527.553E-03     153.027E-03    -527.553E-03     151.804E-03     353.673E-06     224.089E-03    -110.452E-03    -113.637E-03    -109.281E-03     219.734E-03    -110.452E-03     75.7464E-03     84.5319E+06     79.3827E+06    -33.8964E+06    -33.8580E+06     81.4123E+06     82.4640E+06     1.07778E+06         53.8865
             516     11.6485E-03     49.8943E-03     152.959E-03     151.889E-03    -527.672E-03     152.959E-03    -527.672E-03     151.889E-03     400.393E-06     222.627E-03    -110.421E-03    -112.207E-03    -108.981E-03     219.402E-03    -110.421E-03     65.3896E-03     75.4576E+06     64.3164E+06    -42.2262E+06    -42.1909E+06     75.4223E+06     64.3164E+06     758.518E+03         51.9541
             517     10.7517E-03     49.8182E-03     152.888E-03     151.960E-03    -527.764E-03     152.888E-03    -527.764E-03     151.960E-03     421.005E-06     222.151E-03    -110.448E-03    -111.703E-03    -108.982E-03     219.431E-03    -110.448E-03     59.9043E-03     62.5198E+06     48.5559E+06    -51.3537E+06    -51.3219E+06     57.5974E+06     53.4465E+06    -497.939E+03         50.0779
             518     9.85513E-03     49.7516E-03     152.824E-03     152.022E-03    -527.836E-03     152.823E-03    -527.836E-03     152.022E-03     442.631E-06     221.607E-03    -110.508E-03    -111.099E-03    -109.023E-03     219.531E-03    -110.508E-03     52.2636E-03     41.9090E+06     15.6314E+06    -61.0217E+06    -60.9842E+06     15.5938E+06     41.9090E+06    -986.375E+03         48.3011
             519     8.95924E-03     49.6950E-03     152.749E-03     152.071E-03    -527.882E-03     152.749E-03    -527.882E-03     152.071E-03     447.360E-06     221.199E-03    -110.482E-03    -110.716E-03    -109.104E-03     219.657E-03    -110.554E-03     44.9900E-03     23.9391E+06    -40.9448E+06    -70.2385E+06    -70.0402E+06    -41.1431E+06     23.9391E+06    -149.687E+03         46.6614
             520     8.06223E-03     49.6470E-03     152.671E-03     152.107E-03    -527.898E-03     152.671E-03    -527.898E-03     152.107E-03     445.915E-06     220.878E-03    -110.273E-03    -110.605E-03    -109.197E-03     219.802E-03    -110.605E-03     37.4928E-03     5.93837E+06    -78.0540E+06    -100.128E+06    -79.4403E+06    -98.7419E+06     5.93837E+06    -249.095E+03         45.1871
             521     7.16621E-03     49.6086E-03     152.592E-03     152.130E-03    -527.886E-03     152.592E-03    -527.886E-03     152.130E-03     410.554E-06     220.705E-03    -110.057E-03    -110.648E-03    -109.355E-03     220.002E-03    -110.648E-03     30.2846E-03    -11.1077E+06    -88.9180E+06    -144.771E+06    -88.9321E+06    -144.757E+06    -11.1077E+06    -588.405E+03         43.8955
             522     6.27022E-03     49.5780E-03     152.497E-03     152.142E-03    -527.853E-03     152.497E-03    -527.853E-03     152.142E-03     400.401E-06     220.671E-03    -109.988E-03    -110.683E-03    -109.548E-03     220.231E-03    -110.683E-03     23.8788E-03    -28.4733E+06    -98.6624E+06    -186.156E+06    -98.6658E+06    -186.153E+06    -28.4733E+06    -160.988E+03         42.7929
             523     5.37389E-03     49.5554E-03     152.418E-03     152.145E-03    -527.801E-03     152.418E-03    -527.801E-03     152.145E-03     330.239E-06     220.694E-03    -109.979E-03    -110.714E-03    -109.726E-03     220.440E-03    -110.714E-03     18.1175E-03    -47.6824E+06    -108.964E+06    -228.940E+06    -108.966E+06    -228.938E+06    -47.6824E+06     129.850E+03         41.8761
             524     4.47810E-03     49.5390E-03     152.333E-03     152.140E-03    -527.737E-03     152.333E-03    -527.737E-03     152.140E-03     330.506E-06     220.785E-03    -110.051E-03    -110.734E-03    -109.915E-03     220.648E-03    -110.734E-03     13.2317E-03    -68.6747E+06    -119.565E+06    -266.337E+06    -119.567E+06    -266.335E+06    -68.6747E+06     63.6409E+03         41.1351
             525     3.58233E-03     49.5276E-03     152.245E-03     152.133E-03    -527.671E-03     152.245E-03    -527.671E-03     152.133E-03     200.257E-06     221.037E-03    -110.308E-03    -110.729E-03    -110.242E-03     220.972E-03    -110.729E-03     9.14919E-03    -90.0145E+06    -129.230E+06    -299.568E+06    -129.231E+06    -299.567E+06    -90.0145E+06    -284.684E+03         40.5561
             526     2.68648E-03     49.5203E-03     152.207E-03     152.123E-03    -527.614E-03     152.207E-03    -527.614E-03     152.123E-03     283.854E-06     221.238E-03    -110.550E-03    -110.688E-03    -110.536E-03     221.210E-03    -110.674E-03     6.00350E-03    -111.042E+06    -138.181E+06    -330.708E+06    -138.183E+06    -330.706E+06    -111.042E+06    -306.767E+03         40.1241
             527     1.79138E-03     49.5152E-03     152.154E-03     152.101E-03    -527.571E-03     152.143E-03    -527.571E-03     152.113E-03    -89.7587E-06     221.071E-03    -110.468E-03    -110.603E-03    -110.472E-03     221.061E-03    -110.589E-03     3.37513E-03    -131.627E+06    -146.448E+06    -352.100E+06    -146.453E+06    -352.096E+06    -131.627E+06     187.107E+03         39.8248
             528     895.571E-06     49.5133E-03     153.560E-03     150.667E-03    -527.528E-03     153.065E-03    -527.525E-03     151.159E-03     1.54008E-03     221.011E-03    -110.352E-03    -110.659E-03    -110.552E-03     221.010E-03    -110.457E-03     1.23613E-03    -147.546E+06    -153.451E+06    -363.035E+06    -152.737E+06    -363.030E+06    -148.266E+06     716.824E+03         39.6451
             529     15.2363E-03     49.0773E-03     154.878E-03     153.825E-03    -533.242E-03     154.878E-03    -533.242E-03     153.825E-03     206.326E-06     228.573E-03    -110.528E-03    -118.046E-03    -110.368E-03     220.896E-03    -110.528E-03     97.6324E-03     140.870E+06     126.726E+06    -8.89731E+06    -8.85893E+06     126.688E+06     140.870E+06    -38.0975E+03         59.6133
             530     14.3401E-03     48.9196E-03     154.909E-03     154.001E-03    -533.611E-03     154.909E-03    -533.611E-03     154.001E-03     221.006E-06     228.989E-03    -110.519E-03    -118.470E-03    -110.371E-03     220.890E-03    -110.519E-03     101.674E-03     124.341E+06     110.218E+06    -18.4183E+06    -18.3891E+06     110.189E+06     124.341E+06    -631.745E+03         57.7328
             531     13.4427E-03     48.8301E-03     154.956E-03     154.162E-03    -533.962E-03     154.956E-03    -533.962E-03     154.162E-03     326.785E-06     224.566E-03    -110.486E-03    -114.080E-03    -109.356E-03     219.841E-03    -110.486E-03     79.2862E-03     103.380E+06     92.6198E+06    -26.8801E+06    -26.8543E+06      92.594E+06     103.380E+06     35.6989E+03         55.8144
             532     12.5456E-03     48.7282E-03     154.999E-03     154.297E-03    -534.254E-03     154.999E-03    -534.254E-03     154.297E-03     375.348E-06     224.094E-03    -110.444E-03    -113.650E-03    -109.307E-03     219.751E-03    -110.444E-03     75.6321E-03     85.3547E+06     79.4199E+06    -34.2399E+06    -34.2065E+06     81.6989E+06     83.0424E+06     811.572E+03         53.8773
             533     11.6489E-03     48.6481E-03     155.035E-03     154.421E-03    -534.511E-03     155.035E-03    -534.511E-03     154.421E-03     407.518E-06     222.757E-03    -110.403E-03    -112.353E-03    -109.146E-03     219.549E-03    -110.403E-03     65.2371E-03     76.3564E+06     65.1738E+06    -42.0249E+06    -41.9944E+06     76.3259E+06     65.1738E+06     517.695E+03         51.9549
             534     10.7524E-03     48.5720E-03     155.061E-03     154.529E-03    -534.732E-03     155.061E-03    -534.731E-03     154.529E-03     431.499E-06     222.042E-03    -110.425E-03    -111.617E-03    -108.912E-03     219.337E-03    -110.425E-03     59.7317E-03     63.5841E+06     50.3254E+06    -50.0284E+06    -49.9811E+06     59.1483E+06     54.7139E+06     103.744E+03         50.0884
             535     9.85560E-03     48.5057E-03     155.082E-03     154.625E-03    -534.920E-03     155.082E-03    -534.920E-03     154.625E-03     445.697E-06     221.353E-03    -110.494E-03    -110.859E-03    -108.771E-03     219.265E-03    -110.494E-03     52.3933E-03     42.1128E+06     15.2162E+06    -59.1625E+06    -59.1144E+06     15.1681E+06     42.1128E+06    -234.353E+03         48.3197
             536     8.95839E-03     48.4488E-03     155.093E-03     154.706E-03    -535.076E-03     155.093E-03    -535.076E-03     154.706E-03     445.957E-06     221.099E-03    -110.473E-03    -110.626E-03    -108.977E-03     219.539E-03    -110.562E-03     45.2303E-03     24.2503E+06    -42.3152E+06    -69.0466E+06    -68.8901E+06    -42.4716E+06     24.2503E+06    -190.026E+03         46.6862
             537     8.06268E-03     48.4009E-03     155.094E-03     154.771E-03    -535.199E-03     155.094E-03    -535.199E-03     154.771E-03     447.980E-06     220.909E-03    -110.286E-03    -110.623E-03    -109.194E-03     219.817E-03    -110.623E-03     37.7760E-03     6.93801E+06    -77.4863E+06    -98.8487E+06    -78.5249E+06    -97.8101E+06     6.93801E+06     158.777E+03         45.2163
             538     7.16616E-03     48.3627E-03     155.090E-03     154.821E-03    -535.284E-03     155.090E-03    -535.284E-03     154.821E-03     413.378E-06     220.738E-03    -110.072E-03    -110.666E-03    -109.354E-03     220.020E-03    -110.666E-03     30.6053E-03    -11.1389E+06    -88.6594E+06    -144.972E+06    -88.6690E+06    -144.963E+06    -11.1389E+06    -91.2371E+03         43.9273
             539     6.26968E-03     48.3321E-03     155.061E-03     154.857E-03    -535.336E-03     155.061E-03    -535.336E-03     154.857E-03     403.138E-06     220.632E-03    -109.923E-03    -110.709E-03    -109.481E-03     220.190E-03    -110.709E-03     23.9493E-03    -28.8825E+06    -99.0117E+06    -186.770E+06    -99.0147E+06    -186.767E+06    -28.8825E+06    -76.0522E+03         42.8256
             540     5.37374E-03     48.3096E-03     155.038E-03     154.881E-03    -535.362E-03     155.038E-03    -535.362E-03     154.881E-03     335.597E-06     220.671E-03    -109.916E-03    -110.755E-03    -109.663E-03     220.418E-03    -110.755E-03     18.1173E-03    -48.0021E+06    -108.989E+06    -228.949E+06    -108.992E+06    -228.946E+06    -48.0021E+06      91.912E+03         41.9083
             541     4.47766E-03     48.2928E-03     155.010E-03     154.894E-03    -535.367E-03     155.010E-03    -535.367E-03     154.894E-03     338.121E-06     220.917E-03    -110.136E-03    -110.781E-03    -109.998E-03     220.779E-03    -110.781E-03     13.3568E-03    -68.3935E+06    -118.509E+06    -265.741E+06    -118.512E+06    -265.738E+06    -68.3935E+06    -114.442E+03         41.1660
             542     3.58187E-03     48.2816E-03     154.964E-03     154.902E-03    -535.359E-03     154.964E-03    -535.358E-03     154.902E-03     203.516E-06     221.226E-03    -110.470E-03    -110.756E-03    -110.402E-03     221.157E-03    -110.756E-03     9.36301E-03    -90.3202E+06    -128.677E+06    -299.367E+06    -128.678E+06    -299.366E+06    -90.3202E+06    -398.407E+03         40.5856
             543     2.68689E-03     48.2733E-03     154.960E-03     154.903E-03    -535.342E-03     154.960E-03    -535.342E-03     154.903E-03     287.800E-06     221.302E-03    -110.614E-03    -110.688E-03    -110.600E-03     221.273E-03    -110.674E-03     5.91046E-03    -112.091E+06    -138.537E+06    -331.512E+06    -138.539E+06    -331.510E+06    -112.091E+06    -466.257E+03         40.1521
             544     1.79121E-03     48.2698E-03     154.942E-03     154.864E-03    -535.319E-03     154.901E-03    -535.319E-03     154.905E-03    -91.3547E-06     221.100E-03    -110.508E-03    -110.592E-03    -110.528E-03     221.091E-03    -110.563E-03     3.25733E-03    -131.440E+06    -146.765E+06    -352.771E+06    -146.773E+06    -352.763E+06    -131.440E+06    -214.511E+03         39.8514
             545     895.642E-06     48.2674E-03     158.719E-03     151.114E-03    -535.321E-03     158.675E-03    -535.319E-03     151.155E-03     1.49890E-03     220.922E-03    -110.092E-03    -110.830E-03    -110.792E-03     220.920E-03    -110.128E-03     1.39344E-03    -145.690E+06    -152.701E+06    -362.500E+06    -151.990E+06    -362.491E+06    -146.409E+06     302.798E+03         39.6708
             546     15.2374E-03     47.8324E-03     156.567E-03     156.182E-03    -539.452E-03     156.531E-03    -539.452E-03     156.217E-03     226.819E-06     228.473E-03    -110.524E-03    -117.949E-03    -110.183E-03     220.707E-03    -110.524E-03     97.8136E-03     140.756E+06     126.650E+06    -8.55141E+06    -8.54058E+06     126.639E+06     140.756E+06     181.861E+03         59.5827
             547     14.3389E-03     47.6728E-03     156.743E-03     156.386E-03    -540.031E-03     156.692E-03    -540.031E-03     156.437E-03     280.407E-06     229.203E-03    -110.522E-03    -118.681E-03    -110.473E-03     220.995E-03    -110.522E-03     102.155E-03     125.030E+06     110.804E+06    -17.1870E+06    -17.1724E+06     110.790E+06     125.030E+06     565.453E+03         57.7067
             548     13.4426E-03     47.5843E-03     156.888E-03     156.576E-03    -540.509E-03     156.823E-03    -540.509E-03     156.641E-03     333.863E-06     224.741E-03    -110.479E-03    -114.262E-03    -109.570E-03     220.049E-03    -110.479E-03     79.0289E-03     103.402E+06     92.4381E+06    -26.4099E+06    -26.3978E+06     92.4260E+06     103.402E+06    -356.773E+03         55.7959
             549     12.5458E-03     47.4821E-03     157.031E-03     156.751E-03    -540.935E-03     156.964E-03    -540.934E-03     156.817E-03     380.148E-06     224.122E-03    -110.428E-03    -113.695E-03    -109.330E-03     219.758E-03    -110.428E-03     75.8494E-03     85.0298E+06     79.0350E+06    -34.6215E+06    -34.5870E+06     81.3243E+06     82.7060E+06    -784.588E+03         53.8681
             550     11.6492E-03     47.4016E-03     157.171E-03     156.917E-03    -541.335E-03     157.107E-03    -541.335E-03     156.981E-03     417.431E-06     222.656E-03    -110.392E-03    -112.264E-03    -109.019E-03     219.411E-03    -110.392E-03     65.5973E-03     76.4410E+06     65.3094E+06    -41.9072E+06    -41.8595E+06     76.3933E+06     65.3094E+06    -223.662E+03         51.9553
             551     10.7525E-03     47.3260E-03     157.288E-03     157.071E-03    -541.684E-03     157.233E-03    -541.684E-03     157.126E-03     438.665E-06     221.942E-03    -110.423E-03    -111.519E-03    -108.777E-03     219.200E-03    -110.423E-03     60.1092E-03     63.1737E+06     50.2514E+06    -50.5151E+06    -50.4809E+06     59.0250E+06     54.3659E+06     400.783E+03         50.0979
             552     9.85523E-03     47.2605E-03     157.398E-03     157.210E-03    -541.999E-03     157.350E-03    -541.999E-03     157.257E-03     452.677E-06     221.287E-03    -110.497E-03    -110.790E-03    -108.664E-03     219.167E-03    -110.503E-03     52.7766E-03     41.8456E+06     15.6928E+06    -59.7323E+06    -59.6822E+06     15.6427E+06     41.8456E+06     392.006E+03         48.3372
             553     8.95884E-03     47.2025E-03     157.490E-03     157.332E-03    -542.274E-03     157.451E-03    -542.274E-03     157.371E-03     442.705E-06     221.011E-03    -110.423E-03    -110.588E-03    -108.847E-03     219.432E-03    -110.584E-03     45.4915E-03     23.5434E+06    -42.4529E+06    -69.9962E+06    -69.3161E+06    -43.1329E+06     23.5434E+06    -46.0346E+03         46.7101
             554     8.06166E-03     47.1552E-03     157.567E-03     157.437E-03    -542.508E-03     157.536E-03    -542.508E-03     157.468E-03     443.587E-06     220.951E-03    -110.294E-03    -110.657E-03    -109.196E-03     219.853E-03    -110.657E-03     37.8779E-03     6.75336E+06    -77.9562E+06    -99.1982E+06    -78.8115E+06    -98.3429E+06     6.75336E+06     200.703E+03         45.2447
             555     7.16559E-03     47.1162E-03     157.629E-03     157.526E-03    -542.697E-03     157.610E-03    -542.697E-03     157.545E-03     413.628E-06     220.840E-03    -110.139E-03    -110.701E-03    -109.427E-03     220.128E-03    -110.701E-03     30.4561E-03    -10.4123E+06    -88.0960E+06    -144.134E+06    -88.1033E+06    -144.127E+06    -10.4123E+06     492.152E+03         43.9583
             556     6.26985E-03     47.0864E-03     157.668E-03     157.590E-03    -542.841E-03     157.654E-03    -542.841E-03     157.605E-03     405.272E-06     220.709E-03    -109.970E-03    -110.739E-03    -109.534E-03     220.273E-03    -110.739E-03     23.8064E-03    -28.4843E+06    -98.0075E+06    -186.560E+06    -98.0103E+06    -186.557E+06    -28.4843E+06     166.626E+03         42.8576
             557     5.37350E-03     47.0634E-03     157.700E-03     157.639E-03    -542.946E-03     157.688E-03    -542.946E-03     157.650E-03     337.864E-06     220.768E-03    -109.988E-03    -110.779E-03    -109.737E-03     220.517E-03    -110.779E-03     18.0083E-03    -47.6028E+06    -108.108E+06    -228.876E+06    -108.111E+06    -228.874E+06    -47.6028E+06    -216.071E+03         41.9400
             558     4.47754E-03     47.0470E-03     157.720E-03     157.679E-03    -543.021E-03     157.717E-03    -543.021E-03     157.682E-03     338.620E-06     220.967E-03    -110.167E-03    -110.801E-03    -110.031E-03     220.831E-03    -110.801E-03     13.2640E-03    -68.1220E+06    -118.707E+06    -265.855E+06    -118.709E+06    -265.853E+06    -68.1220E+06    -118.412E+03         41.1967
             559     3.58216E-03     47.0344E-03     157.723E-03     157.697E-03    -543.071E-03     157.715E-03    -543.071E-03     157.705E-03     204.324E-06     221.167E-03    -110.376E-03    -110.790E-03    -110.307E-03     221.097E-03    -110.790E-03     9.40711E-03    -89.9029E+06    -129.050E+06    -299.193E+06    -129.051E+06    -299.192E+06    -89.9029E+06     120.373E+03         40.6146
             560     2.68644E-03     47.0275E-03     157.750E-03     157.710E-03    -543.098E-03     157.742E-03    -543.098E-03     157.718E-03     286.211E-06     221.260E-03    -110.508E-03    -110.751E-03    -110.479E-03     221.230E-03    -110.751E-03     6.03989E-03    -112.783E+06    -138.463E+06    -331.574E+06    -138.464E+06    -331.573E+06    -112.783E+06     28.9862E+03         40.1795
             561     1.79112E-03     47.0234E-03     157.754E-03     157.690E-03    -543.107E-03     157.717E-03    -543.107E-03     157.727E-03    -72.9391E-06     221.285E-03    -110.578E-03    -110.707E-03    -110.583E-03     221.275E-03    -110.692E-03     3.49613E-03    -133.056E+06    -145.838E+06    -353.239E+06    -145.842E+06    -353.235E+06    -133.056E+06    -555.970E+03         39.8775
             562     895.700E-06     47.0220E-03     163.956E-03     151.522E-03    -543.119E-03     163.916E-03    -543.117E-03     151.560E-03     1.31252E-03     221.249E-03    -110.329E-03    -110.920E-03    -110.889E-03     221.246E-03    -110.356E-03     2.00499E-03    -146.096E+06    -151.795E+06    -363.081E+06    -150.849E+06    -363.065E+06    -147.057E+06    -1.22552E+06         39.6961
             563     15.2362E-03     46.5884E-03     158.613E-03     158.127E-03    -545.649E-03     158.127E-03    -545.649E-03     158.613E-03     217.203E-06     228.701E-03    -110.517E-03    -118.184E-03    -110.425E-03     220.942E-03    -110.517E-03     97.8363E-03     140.311E+06     126.380E+06    -8.74732E+06    -8.74438E+06     126.377E+06     140.311E+06    -90.8055E+03         59.5526
             564     14.3396E-03     46.4256E-03     158.880E-03     158.397E-03    -546.347E-03     158.396E-03    -546.347E-03     158.880E-03     315.603E-06     229.289E-03    -110.503E-03    -118.785E-03    -110.644E-03     221.148E-03    -110.503E-03     101.626E-03     125.114E+06     110.870E+06    -17.2048E+06    -17.1913E+06     110.856E+06     125.114E+06    -43.1917E+03         57.6817
             565     13.4431E-03     46.3379E-03     159.128E-03     158.670E-03    -547.000E-03     158.670E-03    -547.000E-03     159.128E-03     336.228E-06     224.458E-03    -110.460E-03    -113.997E-03    -109.386E-03     219.846E-03    -110.460E-03     78.2630E-03     104.562E+06     93.4921E+06    -24.9326E+06    -24.9191E+06     93.4787E+06     104.562E+06    -159.619E+03         55.7780
             566     12.5461E-03     46.2362E-03     159.345E-03     158.922E-03    -547.574E-03     158.922E-03    -547.573E-03     159.345E-03     377.004E-06     223.860E-03    -110.420E-03    -113.440E-03    -109.058E-03     219.478E-03    -110.420E-03     75.9894E-03     85.4672E+06     79.1995E+06    -33.6900E+06    -33.6660E+06     81.7834E+06     82.8592E+06    -531.360E+03         53.8586
             567     11.6490E-03     46.1556E-03     159.548E-03     159.164E-03    -548.105E-03     159.164E-03    -548.105E-03     159.548E-03     413.295E-06     222.379E-03    -110.405E-03    -111.975E-03    -108.685E-03     219.089E-03    -110.405E-03     65.9825E-03     74.9928E+06     63.6494E+06    -42.8910E+06    -42.8482E+06     74.9500E+06     63.6494E+06    -464.105E+03         51.9548
             568     10.7515E-03     46.0805E-03     159.732E-03     159.396E-03    -548.594E-03     159.395E-03    -548.593E-03     159.732E-03     437.867E-06     221.939E-03    -110.458E-03    -111.481E-03    -108.712E-03     219.170E-03    -110.458E-03     60.4032E-03     62.1452E+06     49.4337E+06    -51.6341E+06    -51.5857E+06     58.1209E+06     53.4096E+06     616.929E+03         50.1063
             569     9.85518E-03     46.0140E-03     159.899E-03     159.612E-03    -549.040E-03     159.612E-03    -549.040E-03     159.899E-03     451.708E-06     221.468E-03    -110.532E-03    -110.936E-03    -108.797E-03     219.336E-03    -110.538E-03     52.9377E-03     41.3624E+06     16.4401E+06    -61.0600E+06    -61.0088E+06     16.3889E+06     41.3624E+06     808.592E+03         48.3538
             570     8.95792E-03     45.9576E-03     160.046E-03     159.809E-03    -549.437E-03     159.809E-03    -549.437E-03     160.046E-03     443.982E-06     221.195E-03    -110.511E-03    -110.684E-03    -109.004E-03     219.611E-03    -110.607E-03     45.5971E-03     22.9876E+06    -42.0954E+06    -70.5293E+06    -69.9226E+06    -42.7021E+06     22.9876E+06    -55.6975E+03         46.7333
             571     8.06196E-03     45.9084E-03     160.173E-03     159.981E-03    -549.784E-03     159.980E-03    -549.784E-03     160.173E-03     444.622E-06     221.031E-03    -110.342E-03    -110.689E-03    -109.269E-03     219.941E-03    -110.672E-03     37.7016E-03     6.31874E+06    -78.5906E+06    -99.5065E+06    -78.9635E+06    -99.1337E+06     6.31874E+06    -342.357E+03         45.2727
             572     7.16592E-03     45.8703E-03     160.278E-03     160.130E-03    -550.075E-03     160.130E-03    -550.075E-03     160.278E-03     413.960E-06     220.785E-03    -110.067E-03    -110.718E-03    -109.371E-03     220.089E-03    -110.718E-03     30.1482E-03    -10.5562E+06    -88.5847E+06    -144.194E+06    -88.5891E+06    -144.190E+06    -10.5562E+06     19.5969E+03         43.9889
             573     6.26928E-03     45.8401E-03     160.363E-03     160.250E-03    -550.313E-03     160.250E-03    -550.313E-03     160.363E-03     402.938E-06     220.796E-03    -110.038E-03    -110.758E-03    -109.601E-03     220.359E-03    -110.758E-03     23.8294E-03    -28.1299E+06    -98.2068E+06    -186.187E+06    -98.2136E+06    -186.180E+06    -28.1299E+06     335.252E+03         42.8891
             574     5.37361E-03     45.8174E-03     160.430E-03     160.346E-03    -550.502E-03     160.346E-03    -550.502E-03     160.430E-03     333.412E-06     220.959E-03    -110.182E-03    -110.778E-03    -109.933E-03     220.711E-03    -110.778E-03     17.9040E-03    -47.4721E+06    -108.616E+06    -228.716E+06    -108.621E+06    -228.711E+06    -47.4721E+06     281.576E+03         41.9713
             575     4.47796E-03     45.8005E-03     160.481E-03     160.431E-03    -550.648E-03     160.431E-03    -550.648E-03     160.481E-03     335.812E-06     220.881E-03    -110.094E-03    -110.786E-03    -109.961E-03     220.748E-03    -110.786E-03     13.1237E-03    -68.2610E+06    -119.163E+06    -266.004E+06    -119.163E+06    -266.003E+06    -68.2610E+06     109.148E+03         41.2269
             576     3.58176E-03     45.7887E-03     160.519E-03     160.476E-03    -550.756E-03     160.476E-03    -550.756E-03     160.519E-03     203.708E-06     220.843E-03    -110.010E-03    -110.833E-03    -109.940E-03     220.773E-03    -110.833E-03     9.47743E-03    -89.7878E+06    -128.844E+06    -299.638E+06    -128.845E+06    -299.637E+06    -89.7878E+06     315.163E+03         40.6432
             577     2.68600E-03     45.7809E-03     160.556E-03     160.519E-03    -550.831E-03     160.530E-03    -550.830E-03     160.545E-03     289.504E-06     221.137E-03    -110.213E-03    -110.924E-03    -110.181E-03     221.105E-03    -110.924E-03     6.33845E-03    -112.122E+06    -137.815E+06    -330.732E+06    -137.816E+06    -330.731E+06    -112.122E+06     157.573E+03         40.2064
             578     1.79032E-03     45.7773E-03     160.572E-03     160.537E-03    -550.880E-03     160.548E-03    -550.880E-03     160.561E-03    -89.8548E-06     221.627E-03    -110.604E-03    -111.023E-03    -110.591E-03     221.614E-03    -111.023E-03     4.01995E-03    -133.014E+06    -145.386E+06    -352.933E+06    -145.387E+06    -352.932E+06    -133.014E+06    -390.822E+03         39.9032
             579     894.928E-06     45.7753E-03     168.880E-03     152.263E-03    -550.898E-03     168.854E-03    -550.896E-03     152.287E-03     1.29969E-03     222.074E-03    -110.950E-03    -111.124E-03    -110.995E-03     222.070E-03    -111.075E-03     2.17139E-03    -147.529E+06    -151.836E+06    -364.277E+06    -150.900E+06    -364.250E+06    -148.491E+06    -213.249E+03         39.7209
             580     15.2372E-03     45.3398E-03     161.001E-03     159.710E-03    -551.775E-03     159.710E-03    -551.775E-03     161.001E-03     210.755E-06     228.968E-03    -110.486E-03    -118.482E-03    -110.825E-03     221.311E-03    -110.486E-03     97.4279E-03     140.575E+06     126.697E+06    -9.00579E+06    -8.99873E+06     126.690E+06     140.575E+06    -353.947E+03         59.5239
             581     14.3412E-03     45.1803E-03     161.312E-03     160.091E-03    -552.591E-03     160.091E-03    -552.591E-03     161.312E-03     256.671E-06     228.804E-03    -110.468E-03    -118.336E-03    -110.262E-03     220.730E-03    -110.468E-03     101.356E-03     125.264E+06     111.059E+06    -17.3999E+06    -17.3870E+06     111.046E+06     125.264E+06    -780.196E+03         57.6577
             582     13.4433E-03     45.0920E-03     161.603E-03     160.484E-03    -553.401E-03     160.484E-03    -553.401E-03     161.603E-03     318.612E-06     223.936E-03    -110.456E-03    -113.481E-03    -108.743E-03     219.198E-03    -110.456E-03     79.1818E-03     104.097E+06     93.2014E+06    -25.6928E+06    -25.6831E+06     93.1917E+06     104.097E+06    -704.226E+03         55.7601
             583     12.5459E-03     44.9909E-03     161.862E-03     160.853E-03    -554.122E-03     160.853E-03    -554.122E-03     161.862E-03     360.532E-06     223.784E-03    -110.446E-03    -113.338E-03    -108.860E-03     219.306E-03    -110.446E-03     76.7440E-03     84.5256E+06     78.6322E+06    -34.2752E+06    -34.2689E+06     81.0559E+06     82.0956E+06     301.555E+03         53.8484
             584     11.6482E-03     44.9104E-03     162.105E-03     161.208E-03    -554.803E-03     161.208E-03    -554.803E-03     162.105E-03     403.543E-06     222.459E-03    -110.443E-03    -112.016E-03    -108.705E-03     219.148E-03    -110.443E-03     66.1931E-03     74.1959E+06     63.3577E+06    -43.0201E+06    -42.9745E+06     74.1504E+06     63.3577E+06     861.532E+03         51.9537
             585     10.7515E-03     44.8343E-03     162.326E-03     161.540E-03    -555.425E-03     161.540E-03    -555.425E-03     162.326E-03     432.444E-06     222.030E-03    -110.496E-03    -111.533E-03    -108.763E-03     219.260E-03    -110.496E-03     60.4242E-03     61.5861E+06     49.7818E+06    -52.3667E+06    -52.2767E+06     58.1001E+06     53.1777E+06     495.970E+03         50.1144
             586     9.85416E-03     44.7682E-03     162.528E-03     161.857E-03    -556.004E-03     161.857E-03    -556.004E-03     162.528E-03     450.494E-06     221.730E-03    -110.566E-03    -111.164E-03    -109.054E-03     219.620E-03    -110.566E-03     52.6758E-03     41.7706E+06     17.4502E+06    -60.8130E+06    -60.7540E+06     17.3912E+06     41.7706E+06     23.2504E+03         48.3702
             587     8.95838E-03     44.7109E-03     162.707E-03     162.149E-03    -556.524E-03     162.149E-03    -556.524E-03     162.707E-03     446.862E-06     221.400E-03    -110.537E-03    -110.862E-03    -109.232E-03     219.846E-03    -110.614E-03     45.1993E-03     23.3537E+06    -41.9928E+06    -70.0082E+06    -69.6011E+06    -42.3998E+06     23.3537E+06    -97.0512E+03         46.7565
             588     8.06202E-03     44.6622E-03     162.864E-03     162.406E-03    -556.980E-03     162.406E-03    -556.980E-03     162.864E-03     443.645E-06     220.919E-03    -110.232E-03    -110.687E-03    -109.165E-03     219.835E-03    -110.670E-03     37.6071E-03     5.85453E+06    -79.2444E+06    -99.5703E+06    -79.5006E+06    -99.3141E+06     5.85453E+06    -116.013E+03         45.3003
             589     7.16543E-03     44.6244E-03     162.997E-03     162.630E-03    -557.371E-03     162.630E-03    -557.371E-03     162.997E-03     408.608E-06     220.730E-03    -110.004E-03    -110.726E-03    -109.303E-03     220.029E-03    -110.726E-03     30.2429E-03    -11.2182E+06    -89.2903E+06    -144.761E+06    -89.2930E+06    -144.759E+06    -11.2182E+06    -184.782E+03         44.0191
             590     6.26953E-03     44.5940E-03     163.107E-03     162.827E-03    -557.702E-03     162.827E-03    -557.702E-03     163.107E-03     398.179E-06     220.821E-03    -110.049E-03    -110.772E-03    -109.606E-03     220.378E-03    -110.772E-03     24.0141E-03    -28.5759E+06    -99.1746E+06    -186.578E+06    -99.1790E+06    -186.574E+06    -28.5759E+06     205.184E+03         42.9201
             591     5.37372E-03     44.5704E-03     163.196E-03     162.987E-03    -557.978E-03     162.987E-03    -557.978E-03     163.196E-03     326.569E-06     220.873E-03    -110.068E-03    -110.805E-03    -109.808E-03     220.614E-03    -110.805E-03     18.3100E-03    -47.5997E+06     -109.17E+06    -228.437E+06    -109.175E+06    -228.433E+06    -47.5997E+06     450.844E+03         42.0020
             592     4.47794E-03     44.5548E-03     163.265E-03     163.126E-03    -558.196E-03     163.126E-03    -558.196E-03     163.265E-03     329.306E-06     220.884E-03    -110.045E-03    -110.840E-03    -109.902E-03     220.741E-03    -110.840E-03     13.6046E-03    -67.8060E+06    -118.972E+06    -265.500E+06    -118.972E+06    -265.499E+06    -67.8060E+06     251.563E+03         41.2564
             593     3.58187E-03     44.5430E-03     163.317E-03     163.226E-03    -558.363E-03     163.226E-03    -558.363E-03     163.317E-03     198.339E-06     220.901E-03    -109.990E-03    -110.910E-03    -109.916E-03     220.826E-03    -110.910E-03     9.70495E-03    -89.5350E+06    -128.955E+06    -299.748E+06    -128.956E+06    -299.748E+06    -89.5350E+06     210.273E+03         40.6712
             594     2.68539E-03     44.5352E-03     163.359E-03     163.298E-03    -558.485E-03     163.300E-03    -558.485E-03     163.357E-03     290.533E-06     221.220E-03    -110.184E-03    -111.036E-03    -110.152E-03     221.188E-03    -111.036E-03     6.30271E-03    -112.131E+06    -138.066E+06    -330.685E+06    -138.066E+06    -330.685E+06    -112.131E+06     105.766E+03         40.2329
             595     1.78946E-03     44.5303E-03     163.394E-03     163.351E-03    -558.564E-03     163.359E-03    -558.564E-03     163.385E-03    -86.3652E-06     221.895E-03    -110.713E-03    -111.182E-03    -110.722E-03     221.883E-03    -111.162E-03     3.59787E-03    -132.312E+06    -146.202E+06    -353.012E+06    -146.204E+06    -353.009E+06    -132.312E+06     37.5532E+03         39.9284
             596     894.519E-06     44.5273E-03     173.496E-03     153.312E-03    -558.630E-03     173.477E-03    -558.628E-03     153.329E-03     1.16854E-03     222.337E-03    -110.923E-03    -111.414E-03    -111.314E-03     222.335E-03    -111.021E-03     1.35169E-03    -147.148E+06    -152.903E+06    -364.243E+06    -151.934E+06    -364.223E+06    -148.137E+06     410.493E+03         39.7453
             597     15.2388E-03     44.0935E-03     163.365E-03     161.284E-03    -557.744E-03     161.284E-03    -557.744E-03     163.365E-03     214.393E-06     228.722E-03    -110.456E-03    -118.267E-03    -110.687E-03     221.143E-03    -110.456E-03     97.2709E-03     141.638E+06     127.602E+06    -8.21372E+06    -8.20539E+06     127.593E+06     141.638E+06    -293.555E+03         59.4961
             598     14.3404E-03     43.9350E-03     163.716E-03     161.781E-03    -558.749E-03     161.781E-03    -558.749E-03     163.716E-03     216.012E-06     227.751E-03    -110.467E-03    -117.284E-03    -109.248E-03     219.715E-03    -110.467E-03     101.275E-03     125.132E+06     110.689E+06    -17.3459E+06    -17.3360E+06     110.679E+06     125.132E+06    -1.03586E+06         57.6333
             599     13.4422E-03     43.8480E-03     164.048E-03     162.277E-03    -559.692E-03     162.277E-03    -559.692E-03     164.048E-03     280.103E-06     223.848E-03    -110.494E-03    -113.354E-03    -108.456E-03     218.951E-03    -110.494E-03     80.5380E-03     102.714E+06     91.8789E+06    -26.3186E+06    -26.3114E+06     91.8718E+06     102.714E+06    -440.438E+03         55.7412
             600     12.5442E-03     43.7445E-03     164.347E-03     162.760E-03    -560.569E-03     162.760E-03    -560.569E-03     164.347E-03     353.847E-06     224.130E-03    -110.492E-03    -113.639E-03    -109.168E-03     219.660E-03    -110.492E-03     76.6876E-03     83.2627E+06     78.1257E+06    -35.6053E+06    -35.6005E+06     80.0491E+06     81.3344E+06     243.146E+03         53.8380
             601     11.6482E-03     43.6644E-03     164.628E-03     163.216E-03    -561.385E-03     163.216E-03    -561.385E-03     164.628E-03     410.108E-06     222.734E-03    -110.473E-03    -112.261E-03    -108.997E-03     219.471E-03    -110.473E-03     65.7859E-03     74.3444E+06     64.1886E+06    -43.6919E+06    -43.6500E+06     74.3025E+06     64.1886E+06     714.996E+03         51.9530
             602     10.7508E-03     43.5886E-03     164.885E-03     163.655E-03    -562.144E-03     163.655E-03    -562.144E-03     164.885E-03     431.344E-06     222.270E-03    -110.502E-03    -111.768E-03    -109.037E-03     219.539E-03    -110.502E-03     60.0248E-03     62.8398E+06     51.1633E+06    -50.8543E+06    -50.7887E+06     59.3252E+06     54.6123E+06    -8.97634E+03         50.1231
             603     9.85487E-03     43.5213E-03     165.121E-03     164.067E-03    -562.847E-03     164.067E-03    -562.847E-03     165.121E-03     448.222E-06     221.717E-03    -110.548E-03    -111.169E-03    -109.078E-03     219.636E-03    -110.558E-03     52.3516E-03     42.5123E+06     17.3542E+06    -59.6496E+06    -59.6179E+06     17.3224E+06     42.5123E+06    -394.573E+03         48.3870
             604     8.95853E-03     43.4643E-03     165.332E-03     164.445E-03    -563.481E-03     164.445E-03    -563.481E-03     165.332E-03     443.618E-06     221.208E-03    -110.426E-03    -110.783E-03    -109.049E-03     219.660E-03    -110.611E-03     45.0833E-03     23.3688E+06    -42.1441E+06    -70.2059E+06    -69.6814E+06    -42.6686E+06     23.3688E+06     296.650E+03         46.7794
             605     8.06191E-03     43.4170E-03     165.518E-03     164.789E-03    -564.045E-03     164.789E-03    -564.045E-03     165.518E-03     435.385E-06     220.883E-03    -110.203E-03    -110.679E-03    -109.114E-03     219.794E-03    -110.679E-03     37.7269E-03     6.09097E+06    -78.4454E+06    -99.5882E+06    -79.2527E+06    -98.7809E+06     6.09097E+06     348.893E+03         45.3274
             606     7.16550E-03     43.3780E-03     165.678E-03     165.095E-03    -564.542E-03     165.095E-03    -564.542E-03     165.678E-03     396.890E-06     220.842E-03    -110.108E-03    -110.734E-03    -109.402E-03     220.136E-03    -110.734E-03     30.3232E-03    -10.9711E+06    -88.7270E+06    -144.945E+06    -88.7278E+06    -144.944E+06    -10.9711E+06     111.699E+03         44.0486
             607     6.26943E-03     43.3477E-03     165.812E-03     165.366E-03    -564.968E-03     165.366E-03    -564.968E-03     165.812E-03     387.261E-06     220.664E-03    -109.878E-03    -110.786E-03    -109.443E-03     220.229E-03    -110.786E-03     23.7809E-03    -28.9150E+06    -98.8766E+06    -187.040E+06    -98.8769E+06    -187.039E+06    -28.9150E+06    -45.7308E+03         42.9506
             608     5.37287E-03     43.3249E-03     165.922E-03     165.587E-03    -565.322E-03     165.587E-03    -565.322E-03     165.922E-03     317.057E-06     220.629E-03    -109.766E-03    -110.864E-03    -109.506E-03     220.370E-03    -110.864E-03     18.3100E-03    -47.5671E+06    -108.924E+06    -228.573E+06    -108.926E+06    -228.571E+06    -47.5671E+06    -113.965E+03         42.0319
             609     4.47650E-03     43.3083E-03     166.011E-03     165.778E-03    -565.611E-03     165.778E-03    -565.611E-03     166.011E-03     320.713E-06     221.048E-03    -110.117E-03    -110.931E-03    -109.976E-03     220.907E-03    -110.931E-03     13.4410E-03    -67.4354E+06    -118.928E+06    -265.554E+06    -118.931E+06    -265.551E+06    -67.4354E+06     128.803E+03         41.2852
             610     3.58109E-03     43.2968E-03     166.079E-03     165.936E-03    -565.839E-03     165.935E-03    -565.839E-03     166.079E-03     186.092E-06     221.414E-03    -110.425E-03    -110.989E-03    -110.397E-03     221.346E-03    -110.949E-03     9.21828E-03    -88.6351E+06    -128.958E+06    -299.121E+06    -128.959E+06    -299.120E+06    -88.6351E+06     255.814E+03         40.6987
             611     2.68582E-03     43.2891E-03     166.131E-03     166.036E-03    -566.013E-03     166.036E-03    -566.013E-03     166.131E-03     284.965E-06     221.619E-03    -110.554E-03    -111.065E-03    -110.688E-03     221.592E-03    -110.905E-03     5.76912E-03    -111.947E+06    -139.139E+06    -331.048E+06    -139.143E+06    -331.044E+06    -111.947E+06     491.999E+03         40.2590
             612     1.79081E-03     43.2828E-03     166.180E-03     166.127E-03    -566.131E-03     166.141E-03    -566.131E-03     166.166E-03    -73.2552E-06     221.614E-03    -110.670E-03    -110.944E-03    -110.811E-03     221.606E-03    -110.795E-03     2.90262E-03    -133.918E+06    -147.932E+06    -352.986E+06    -147.937E+06    -352.981E+06    -133.918E+06     778.053E+03         39.9533
             613     895.841E-06     43.2802E-03     177.675E-03     154.695E-03    -566.216E-03     177.673E-03    -566.214E-03     154.695E-03     1.05012E-03     221.372E-03    -110.473E-03    -110.899E-03    -110.898E-03     221.371E-03    -110.473E-03     1.07522E-03    -148.622E+06    -154.335E+06    -363.725E+06    -153.352E+06    -363.719E+06    -149.611E+06    -161.265E+03         39.7692
             614     15.2381E-03     42.8431E-03     165.683E-03     162.793E-03    -563.573E-03     162.793E-03    -563.573E-03     165.683E-03     154.005E-06     228.003E-03    -110.462E-03    -117.541E-03    -110.203E-03     220.665E-03    -110.462E-03     96.1723E-03     141.700E+06     127.503E+06    -7.86073E+06    -7.85252E+06     127.494E+06     141.700E+06    -459.472E+03         59.4677
             615     14.3406E-03     42.6957E-03     166.072E-03     163.441E-03    -564.757E-03     163.441E-03    -564.757E-03     166.072E-03     185.995E-06     227.182E-03    -110.496E-03    -116.686E-03    -108.818E-03     219.315E-03    -110.496E-03     100.698E-03     124.946E+06     110.622E+06    -17.2230E+06    -17.2083E+06     110.608E+06     124.946E+06    -546.350E+03         57.6085
             616     13.4406E-03     42.6007E-03     166.441E-03     164.048E-03    -565.870E-03     164.048E-03    -565.870E-03     166.441E-03     293.668E-06     224.373E-03    -110.526E-03    -113.846E-03    -108.849E-03     219.375E-03    -110.526E-03     81.5677E-03     102.545E+06     91.5823E+06    -27.0723E+06    -27.0606E+06     91.5706E+06     102.545E+06     503.018E+03         55.7231
             617     12.5456E-03     42.4985E-03     166.780E-03     164.617E-03    -566.867E-03     164.617E-03    -566.867E-03     166.780E-03     380.767E-06     224.417E-03    -110.500E-03    -113.918E-03    -109.581E-03     220.081E-03    -110.500E-03     75.5993E-03     84.1111E+06     78.5016E+06    -35.3650E+06    -35.3594E+06     80.4197E+06     82.1872E+06     319.816E+03         53.8289
             618     11.6476E-03     42.4185E-03     167.096E-03     165.173E-03    -567.812E-03     165.173E-03    -567.812E-03     167.096E-03     416.159E-06     222.827E-03    -110.455E-03    -112.372E-03    -109.165E-03     219.620E-03    -110.455E-03     65.2560E-03     75.0544E+06     64.6597E+06    -43.3037E+06    -43.2915E+06     75.0422E+06     64.6597E+06    -754.074E+03         51.9535
             619     10.7522E-03     42.3413E-03     167.387E-03     165.710E-03    -568.696E-03     165.710E-03    -568.696E-03     167.387E-03     435.446E-06     222.179E-03    -110.475E-03    -111.703E-03    -108.985E-03     219.461E-03    -110.475E-03     59.8583E-03     62.7508E+06     50.8643E+06    -51.2917E+06    -51.2757E+06     59.3193E+06     54.2799E+06    -620.204E+03         50.1323
             620     9.85522E-03     42.2758E-03     167.655E-03     166.214E-03    -569.515E-03     166.214E-03    -569.515E-03     167.655E-03     440.858E-06     221.327E-03    -110.480E-03    -110.847E-03    -108.668E-03     219.218E-03    -110.550E-03     52.6834E-03     41.6734E+06     16.2181E+06    -60.6314E+06    -60.6116E+06     16.1984E+06     41.6734E+06     229.119E+03         48.4034
             621     8.95797E-03     42.2183E-03     167.897E-03     166.683E-03    -570.265E-03     166.683E-03    -570.265E-03     167.897E-03     427.702E-06     221.111E-03    -110.464E-03    -110.647E-03    -108.891E-03     219.525E-03    -110.634E-03     45.5568E-03     23.5173E+06    -42.1963E+06    -70.2180E+06    -70.0766E+06    -42.3377E+06     23.5173E+06     530.314E+03         46.8015
             622     8.06150E-03     42.1711E-03     168.112E-03     167.118E-03    -570.943E-03     167.118E-03    -570.943E-03     168.112E-03     419.987E-06     221.132E-03    -110.419E-03    -110.712E-03    -109.342E-03     220.041E-03    -110.699E-03     37.8154E-03     6.24717E+06    -77.9758E+06    -99.2431E+06    -79.3608E+06    -97.8581E+06     6.24717E+06     336.635E+03         45.3538
             623     7.16565E-03     42.1313E-03     168.298E-03     167.501E-03    -571.541E-03     167.501E-03    -571.541E-03     168.298E-03     379.640E-06     220.933E-03    -110.197E-03    -110.736E-03    -109.488E-03     220.224E-03    -110.736E-03     30.3481E-03    -11.3620E+06    -89.0745E+06    -145.174E+06    -89.0763E+06    -145.172E+06    -11.3620E+06    -99.5507E+03         44.0778
             624     6.26948E-03     42.1022E-03     168.455E-03     167.842E-03    -572.054E-03     167.842E-03    -572.054E-03     168.455E-03     367.912E-06     220.786E-03    -110.014E-03    -110.773E-03    -109.597E-03     220.370E-03    -110.773E-03     23.2456E-03    -28.5527E+06    -98.6055E+06    -186.910E+06    -98.6071E+06    -186.908E+06    -28.5527E+06    -123.814E+03         42.9807
             625     5.37307E-03     42.0793E-03     168.586E-03     168.130E-03    -572.489E-03     168.130E-03    -572.489E-03     168.586E-03     299.192E-06     220.826E-03    -110.018E-03    -110.809E-03    -109.786E-03     220.594E-03    -110.809E-03     17.2808E-03    -47.5738E+06    -108.734E+06    -228.714E+06    -108.736E+06    -228.713E+06    -47.5738E+06    -167.761E+03         42.0619
             626     4.47732E-03     42.0617E-03     168.693E-03     168.371E-03    -572.849E-03     168.371E-03    -572.849E-03     168.693E-03     309.272E-06     221.020E-03    -110.193E-03    -110.826E-03    -110.077E-03     220.904E-03    -110.826E-03     12.1771E-03    -67.8262E+06    -119.288E+06    -266.004E+06    -119.290E+06    -266.001E+06    -67.8262E+06    -170.244E+03         41.3141
             627     3.58170E-03     42.0499E-03     168.777E-03     168.576E-03    -573.139E-03     168.576E-03    -573.139E-03     168.777E-03     174.184E-06     221.382E-03    -110.542E-03    -110.841E-03    -110.545E-03     221.329E-03    -110.784E-03     8.28690E-03    -88.9139E+06    -129.461E+06    -299.332E+06    -129.463E+06    -299.331E+06    -88.9139E+06     193.304E+03         40.7261
             628     2.68696E-03     42.0416E-03     168.842E-03     168.714E-03    -573.363E-03     168.714E-03    -573.363E-03     168.842E-03     270.891E-06     221.380E-03    -110.537E-03    -110.843E-03    -110.689E-03     221.356E-03    -110.667E-03     5.57105E-03    -110.650E+06    -138.764E+06    -331.640E+06    -138.768E+06    -331.636E+06    -110.650E+06     733.134E+03         40.2849
             629     1.79201E-03     42.0368E-03     168.917E-03     168.824E-03    -573.521E-03     168.863E-03    -573.521E-03     168.878E-03    -67.4424E-06     220.951E-03    -110.258E-03    -110.693E-03    -110.375E-03     220.939E-03    -110.564E-03     3.72060E-03    -132.284E+06    -146.716E+06    -351.578E+06    -146.722E+06    -351.572E+06    -132.284E+06     983.078E+03         39.9777
             630     895.687E-06     42.0352E-03     181.301E-03     156.464E-03    -573.599E-03     181.299E-03    -573.598E-03     156.464E-03     842.970E-06     221.013E-03    -110.095E-03    -110.918E-03    -110.170E-03     221.006E-03    -110.836E-03     2.58475E-03    -148.042E+06    -152.688E+06    -362.712E+06    -152.372E+06    -362.709E+06    -148.360E+06     431.916E+03         39.7927
             631     15.2381E-03     41.5976E-03     167.933E-03     164.302E-03    -569.279E-03     164.302E-03    -569.279E-03     167.933E-03     34.3255E-06     227.238E-03    -110.519E-03    -116.719E-03    -109.391E-03     219.910E-03    -110.519E-03     95.9877E-03     139.858E+06     125.855E+06     -9.2734E+06    -9.26575E+06     125.847E+06     139.858E+06    -773.126E+03         59.4381
             632     14.3386E-03     41.4526E-03     168.356E-03     165.048E-03    -570.638E-03     165.048E-03    -570.638E-03     168.356E-03     232.534E-06     228.392E-03    -110.555E-03    -117.837E-03    -109.846E-03     220.401E-03    -110.555E-03     102.053E-03     124.833E+06     110.880E+06    -17.6068E+06    -17.5948E+06     110.868E+06     124.833E+06     292.313E+03         57.5834
             633     13.4425E-03     41.3543E-03     168.763E-03     165.725E-03    -571.843E-03     165.725E-03    -571.843E-03     168.763E-03     371.376E-06     225.508E-03    -110.526E-03    -114.982E-03    -109.936E-03     220.462E-03    -110.526E-03     82.2728E-03     104.395E+06     93.3002E+06    -26.2191E+06    -26.2062E+06     93.2873E+06     104.395E+06     553.118E+03         55.7063
             634     12.5447E-03     41.2514E-03     169.138E-03     166.399E-03    -572.967E-03     166.399E-03    -572.967E-03     169.138E-03     383.337E-06     224.239E-03    -110.460E-03    -113.780E-03    -109.541E-03     220.001E-03    -110.460E-03     74.7858E-03     85.1977E+06     78.9674E+06    -34.4725E+06    -34.4647E+06     81.0789E+06     83.0785E+06    -458.581E+03         53.8212
             635     11.6496E-03     41.1727E-03     169.487E-03     167.061E-03    -574.040E-03     167.061E-03    -574.040E-03     169.487E-03     409.920E-06     222.667E-03    -110.412E-03    -112.255E-03    -109.029E-03     219.441E-03    -110.412E-03     65.4206E-03     75.0683E+06     64.1017E+06    -42.6266E+06    -42.6226E+06     75.0643E+06     64.1017E+06    -284.809E+03         51.9543
             636     10.7516E-03     41.0949E-03     169.811E-03     167.690E-03    -575.038E-03     167.690E-03    -575.038E-03     169.811E-03     417.683E-06     221.861E-03    -110.449E-03    -111.412E-03    -108.704E-03     219.153E-03    -110.449E-03     59.6493E-03     62.1057E+06     49.5798E+06    -52.0795E+06    -52.0712E+06     58.4189E+06     53.2584E+06     108.539E+03         50.1413
             637     9.85434E-03     41.0311E-03     170.110E-03     168.290E-03    -575.975E-03     168.290E-03    -575.974E-03     170.110E-03     420.619E-06     221.021E-03    -110.373E-03    -110.648E-03    -108.409E-03     218.957E-03    -110.548E-03     52.0640E-03     41.1102E+06     16.0449E+06    -61.9431E+06    -61.9144E+06     16.0162E+06     41.1102E+06     40.8587E+03         48.4194
             638     8.95748E-03     40.9720E-03     170.381E-03     168.853E-03    -576.842E-03     168.853E-03    -576.842E-03     170.381E-03     403.138E-06     220.964E-03    -110.298E-03    -110.666E-03    -108.716E-03     219.369E-03    -110.653E-03     45.7015E-03     23.3519E+06    -42.2480E+06    -70.6226E+06    -70.5942E+06    -42.2764E+06     23.3519E+06     49.0784E+03         46.8231
             639     8.06178E-03     40.9241E-03     170.623E-03     169.371E-03    -577.626E-03     169.371E-03    -577.626E-03     170.623E-03     394.409E-06     221.222E-03    -110.461E-03    -110.761E-03    -109.378E-03     220.106E-03    -110.728E-03     38.2139E-03     6.57844E+06    -78.1724E+06    -98.4811E+06    -79.0768E+06    -97.5767E+06     6.57844E+06     127.547E+03         45.3797
             640     7.16545E-03     40.8855E-03     170.834E-03     169.830E-03    -578.315E-03     169.830E-03    -578.315E-03     170.834E-03     354.995E-06     221.313E-03    -110.478E-03    -110.835E-03    -109.863E-03     220.603E-03    -110.741E-03     30.3819E-03    -11.3503E+06    -89.1320E+06    -144.909E+06    -89.1349E+06    -144.907E+06    -11.3503E+06    -142.611E+03         44.1064
             641     6.26945E-03     40.8555E-03     171.013E-03     170.237E-03    -578.918E-03     170.237E-03    -578.917E-03     171.013E-03     340.938E-06     221.333E-03    -110.468E-03    -110.865E-03    -110.223E-03     220.927E-03    -110.705E-03     22.9432E-03    -28.5834E+06    -98.8648E+06    -186.998E+06    -98.8681E+06    -186.995E+06    -28.5834E+06    -410.779E+03         43.0108
             642     5.37481E-03     40.8325E-03     171.163E-03     170.590E-03    -579.434E-03     170.590E-03    -579.434E-03     171.163E-03     272.522E-06     221.215E-03    -110.442E-03    -110.773E-03    -110.373E-03     220.998E-03    -110.626E-03     16.7296E-03    -47.5957E+06    -109.039E+06    -228.558E+06    -109.042E+06    -228.554E+06    -47.5957E+06     119.508E+03         42.0921
             643     4.47911E-03     40.8161E-03     171.287E-03     170.883E-03    -579.861E-03     170.883E-03    -579.861E-03     171.287E-03     288.496E-06     220.797E-03    -110.194E-03    -110.603E-03    -110.148E-03     220.688E-03    -110.540E-03     11.8030E-03    -68.5048E+06    -119.545E+06    -266.178E+06    -119.548E+06    -266.176E+06    -68.5048E+06     285.155E+03         41.3433
             644     3.58331E-03     40.8033E-03     171.384E-03     171.133E-03    -580.204E-03     171.133E-03    -580.204E-03     171.384E-03     155.141E-06     220.447E-03    -109.918E-03    -110.529E-03    -109.880E-03     220.393E-03    -110.512E-03     8.40019E-03    -89.5485E+06    -129.337E+06    -299.726E+06    -129.338E+06    -299.724E+06    -89.5485E+06    -46.7706E+03         40.7535
             645     2.68732E-03     40.7956E-03     171.460E-03     171.296E-03    -580.464E-03     171.296E-03    -580.464E-03     171.460E-03     264.053E-06     220.474E-03    -109.892E-03    -110.582E-03    -109.881E-03     220.446E-03    -110.566E-03     5.95653E-03    -110.867E+06    -138.688E+06    -331.804E+06    -138.690E+06    -331.802E+06    -110.867E+06     189.917E+03         40.3104
             646     1.79033E-03     40.7923E-03     171.544E-03     171.425E-03    -580.646E-03     171.457E-03    -580.645E-03     171.511E-03    -109.806E-06     220.907E-03    -110.143E-03    -110.764E-03    -110.272E-03     220.895E-03    -110.622E-03     3.89203E-03    -132.029E+06    -146.725E+06    -350.989E+06    -146.728E+06    -350.985E+06    -132.029E+06     422.733E+03         40.0017
             647     894.612E-06     40.7885E-03     184.675E-03     158.394E-03    -580.766E-03     184.661E-03    -580.765E-03     158.406E-03     930.041E-06     221.208E-03    -109.904E-03    -111.304E-03    -110.553E-03     221.200E-03    -110.646E-03     1.40921E-03    -147.701E+06    -152.147E+06    -361.010E+06    -151.739E+06    -361.001E+06    -148.119E+06     797.926E+03         39.8158
             648     15.2338E-03     40.3561E-03     170.093E-03     165.731E-03    -574.905E-03     165.731E-03    -574.905E-03     170.093E-03     29.9564E-06     227.161E-03    -110.589E-03    -116.572E-03    -109.375E-03     219.964E-03    -110.589E-03     95.8298E-03     140.301E+06     126.528E+06    -9.00336E+06    -8.99840E+06     126.523E+06     140.301E+06    -171.064E+03         59.4087
             649     14.3369E-03     40.2038E-03     170.553E-03     166.508E-03    -576.269E-03     166.508E-03    -576.269E-03     170.553E-03     332.658E-06     229.369E-03    -110.590E-03    -118.779E-03    -110.966E-03     221.555E-03    -110.590E-03     101.601E-03     124.274E+06     110.224E+06    -18.4323E+06    -18.4295E+06     110.221E+06     124.274E+06     101.912E+03         57.5591
             650     13.4424E-03     40.1056E-03     170.997E-03     167.308E-03    -577.577E-03     167.307E-03    -577.577E-03     170.997E-03     324.500E-06     225.983E-03    -110.505E-03    -115.478E-03    -110.482E-03     220.987E-03    -110.505E-03     81.9730E-03     103.888E+06     92.9184E+06    -26.1463E+06    -26.1376E+06     92.9097E+06     103.888E+06    -400.053E+03         55.6900
             651     12.5472E-03     40.0071E-03     171.404E-03     168.112E-03    -578.847E-03     168.112E-03    -578.847E-03     171.404E-03     349.101E-06     224.086E-03    -110.421E-03    -113.665E-03    -109.487E-03     219.907E-03    -110.421E-03     74.4363E-03     85.1202E+06     79.2541E+06    -33.8632E+06    -33.8561E+06     81.3269E+06     83.0403E+06    -602.750E+03         53.8132
             652     11.6482E-03     39.9256E-03     171.785E-03     168.868E-03    -580.031E-03     168.868E-03    -580.031E-03     171.785E-03     373.541E-06     222.556E-03    -110.379E-03    -112.177E-03    -108.913E-03     219.292E-03    -110.379E-03     65.7076E-03     74.4334E+06     63.7867E+06    -43.2565E+06    -43.2526E+06     74.4294E+06     63.7867E+06     423.857E+03         51.9548
             653     10.7525E-03     39.8502E-03     172.139E-03     169.597E-03    -581.151E-03     169.597E-03    -581.151E-03     172.139E-03     379.888E-06     222.074E-03    -110.403E-03    -111.671E-03    -109.052E-03     219.455E-03    -110.403E-03     58.7258E-03     62.0412E+06     49.8536E+06    -52.2494E+06    -52.2405E+06     58.4115E+06     53.4744E+06     522.088E+03         50.1503
             654     9.85570E-03     39.7846E-03     172.466E-03     170.291E-03    -582.198E-03     170.291E-03    -582.198E-03     172.466E-03     381.517E-06     221.315E-03    -110.342E-03    -110.973E-03    -108.925E-03     219.381E-03    -110.456E-03     50.3696E-03     42.2543E+06     16.9901E+06    -60.2165E+06    -60.1995E+06     16.9730E+06     42.2543E+06    -301.692E+03         48.4366
             655     8.95838E-03     39.7279E-03     172.763E-03     170.935E-03    -583.165E-03     170.935E-03    -583.165E-03     172.763E-03     365.904E-06     220.691E-03    -110.004E-03    -110.686E-03    -108.747E-03     219.266E-03    -110.519E-03     43.1295E-03     23.2572E+06    -42.8267E+06    -70.3815E+06    -70.0426E+06    -43.1656E+06     23.2572E+06    -682.314E+03         46.8466
             656     8.06032E-03     39.6770E-03     173.030E-03     171.527E-03    -584.047E-03     171.527E-03    -584.047E-03     173.030E-03     356.350E-06     220.481E-03    -109.858E-03    -110.622E-03    -108.884E-03     219.487E-03    -110.603E-03     35.8432E-03     6.20524E+06    -79.3288E+06    -98.9115E+06    -79.9896E+06    -98.2506E+06     6.20524E+06     78.6871E+03         45.4069
             657     7.16530E-03     39.6384E-03     173.263E-03     172.065E-03    -584.834E-03     172.065E-03    -584.834E-03     173.263E-03     318.965E-06     220.846E-03    -110.105E-03    -110.740E-03    -109.555E-03     220.201E-03    -110.646E-03     28.9777E-03    -10.8408E+06    -88.7894E+06    -143.626E+06    -88.7983E+06    -143.617E+06    -10.8408E+06     280.680E+03         44.1355
             658     6.27087E-03     39.6078E-03     173.463E-03     172.536E-03    -585.517E-03     172.536E-03    -585.517E-03     173.463E-03     307.292E-06     220.945E-03    -110.144E-03    -110.801E-03    -109.890E-03     220.530E-03    -110.641E-03     23.2252E-03    -28.7102E+06    -98.4788E+06    -187.100E+06    -98.4808E+06    -187.098E+06    -28.7102E+06    -323.721E+03         43.0404
             659     5.37526E-03     39.5859E-03     173.632E-03     172.942E-03    -586.100E-03     172.942E-03    -586.100E-03     173.632E-03     240.400E-06     220.968E-03    -110.214E-03    -110.753E-03    -110.092E-03     220.697E-03    -110.606E-03     18.7186E-03    -47.4649E+06    -108.609E+06    -229.060E+06    -108.613E+06    -229.056E+06    -47.4649E+06    -128.186E+03         42.1212
             660     4.48036E-03     39.5696E-03     173.770E-03     173.289E-03    -586.588E-03     173.289E-03    -586.588E-03     173.770E-03     260.927E-06     221.056E-03    -110.318E-03    -110.738E-03    -110.374E-03     220.894E-03    -110.520E-03     14.1852E-03    -67.9358E+06    -118.474E+06    -266.012E+06    -118.480E+06    -266.006E+06    -67.9358E+06    -154.649E+03         41.3714
             661     3.58412E-03     39.5594E-03     173.879E-03     173.571E-03    -586.980E-03     173.571E-03    -586.980E-03     173.879E-03     128.377E-06     220.724E-03    -109.929E-03    -110.795E-03    -110.247E-03     220.656E-03    -110.409E-03     9.19142E-03    -89.2423E+06    -128.379E+06    -299.797E+06    -128.383E+06    -299.792E+06    -89.2423E+06    -247.667E+03         40.7803
             662     2.68632E-03     39.5514E-03     173.964E-03     173.781E-03    -587.279E-03     173.781E-03    -587.279E-03     173.964E-03     244.213E-06     220.583E-03    -109.749E-03    -110.834E-03    -110.267E-03     220.560E-03    -110.293E-03     4.81284E-03    -111.081E+06    -138.616E+06    -331.590E+06    -138.619E+06    -331.588E+06    -111.081E+06    -110.055E+03         40.3357
             663     1.79131E-03     39.5454E-03     174.027E-03     173.941E-03    -587.494E-03     173.940E-03    -587.493E-03     174.027E-03    -76.3057E-06     220.469E-03    -109.907E-03    -110.561E-03    -110.383E-03     220.464E-03    -110.080E-03     1.62004E-03    -131.617E+06    -146.717E+06    -351.512E+06    -146.720E+06    -351.509E+06    -131.617E+06    -18.1347E+03         40.0258
             664     897.051E-06     39.5419E-03     187.634E-03     160.492E-03    -587.654E-03     187.614E-03    -587.652E-03     160.511E-03     654.736E-06     219.796E-03    -109.524E-03    -110.272E-03    -110.205E-03     219.790E-03    -109.585E-03     388.293E-06    -145.271E+06    -151.379E+06    -359.963E+06    -149.673E+06    -359.955E+06    -146.985E+06     588.415E+03         39.8390
             665     15.2352E-03     39.1005E-03     172.158E-03     167.067E-03    -580.339E-03     167.067E-03    -580.339E-03     172.158E-03     89.8047E-06     228.128E-03    -110.622E-03    -117.506E-03    -110.102E-03     220.724E-03    -110.622E-03     98.4444E-03     141.658E+06     127.654E+06    -8.32556E+06    -8.32015E+06     127.649E+06     141.658E+06     446.817E+03         59.3807
             666     14.3410E-03     38.9638E-03     172.655E-03     167.931E-03    -581.644E-03     167.931E-03    -581.644E-03     172.655E-03     159.218E-06     229.973E-03    -110.581E-03    -119.392E-03    -111.673E-03     222.254E-03    -110.581E-03     101.478E-03     125.677E+06     111.294E+06    -17.3802E+06    -17.3745E+06     111.288E+06     125.677E+06    -81.0951E+03         57.5363
             667     13.4420E-03     38.8530E-03     173.129E-03     168.884E-03    -583.130E-03     168.884E-03    -583.130E-03     173.129E-03     218.000E-06     225.511E-03    -110.477E-03    -115.034E-03    -110.092E-03     220.569E-03    -110.477E-03     81.4093E-03     102.730E+06     91.7822E+06    -26.4037E+06    -26.3991E+06     91.7776E+06     102.730E+06    -518.699E+03         55.6738
             668     12.5458E-03     38.7641E-03     173.564E-03     169.757E-03    -584.481E-03     169.757E-03    -584.481E-03     173.564E-03     294.598E-06     224.172E-03    -110.394E-03    -113.778E-03    -109.680E-03     220.074E-03    -110.394E-03     73.8337E-03     83.0387E+06     77.7686E+06    -35.6626E+06    -35.6581E+06     79.6404E+06     81.1624E+06    -314.429E+03         53.8046
             669     11.6499E-03     38.6782E-03     173.972E-03     170.607E-03    -585.775E-03     170.607E-03    -585.775E-03     173.972E-03     323.532E-06     223.007E-03    -110.327E-03    -112.680E-03    -109.462E-03     219.789E-03    -110.327E-03     65.3031E-03     74.0636E+06     64.0169E+06    -44.1673E+06    -44.1563E+06     74.0526E+06     64.0169E+06    -318.857E+03         51.9553
             670     10.7531E-03     38.6043E-03     174.353E-03     171.421E-03    -587.001E-03     171.421E-03    -587.000E-03     174.353E-03     327.691E-06     222.168E-03    -110.311E-03    -111.857E-03    -109.284E-03     219.596E-03    -110.311E-03     58.3208E-03     62.3303E+06     50.7740E+06    -51.8928E+06    -51.8817E+06     58.9334E+06     54.1599E+06    -434.093E+03         50.1598
             671     9.85744E-03     38.5374E-03     174.703E-03     172.197E-03    -588.147E-03     172.197E-03    -588.147E-03     174.703E-03     329.769E-06     221.822E-03    -110.313E-03    -111.508E-03    -109.540E-03     219.853E-03    -110.313E-03     50.8737E-03     42.3498E+06     17.0998E+06    -60.1654E+06    -60.1613E+06     17.0957E+06     42.3498E+06    -44.2532E+03         48.4541
             672     8.96278E-03     38.4821E-03     175.023E-03     172.917E-03    -589.203E-03     172.917E-03    -589.203E-03     175.023E-03     313.344E-06     221.069E-03    -110.081E-03    -110.988E-03    -109.335E-03     219.637E-03    -110.301E-03     43.3181E-03     23.4783E+06    -42.2211E+06    -69.9392E+06    -69.5073E+06    -42.6530E+06     23.4783E+06     51.5780E+03         46.8707
             673     8.06706E-03     38.4332E-03     175.310E-03     173.577E-03    -590.170E-03     173.577E-03    -590.170E-03     175.310E-03     301.827E-06     220.092E-03    -109.589E-03    -110.503E-03    -108.731E-03     219.070E-03    -110.339E-03     36.3225E-03     5.77490E+06    -79.0477E+06    -99.7132E+06    -79.8539E+06    -98.9070E+06     5.77490E+06    -592.811E+03         45.4353
             674     7.16824E-03     38.3927E-03     175.564E-03     174.186E-03    -591.042E-03     174.186E-03    -591.042E-03     175.564E-03     267.926E-06     219.552E-03    -109.118E-03    -110.434E-03    -108.467E-03     218.901E-03    -110.434E-03     28.8990E-03    -10.8825E+06    -89.2976E+06    -143.749E+06    -89.3639E+06    -143.683E+06    -10.8825E+06    -117.468E+03         44.1654
             675     6.27007E-03     38.3621E-03     175.782E-03     174.714E-03    -591.800E-03     174.714E-03    -591.800E-03     175.782E-03     268.700E-06     219.653E-03    -109.089E-03    -110.564E-03    -108.692E-03     219.256E-03    -110.564E-03     22.6552E-03    -28.3129E+06    -98.4066E+06    -186.105E+06    -98.4151E+06    -186.097E+06    -28.3129E+06     302.388E+03         43.0699
             676     5.37264E-03     38.3409E-03     175.968E-03     175.175E-03    -592.447E-03     175.175E-03    -592.447E-03     175.968E-03     204.627E-06     220.378E-03    -109.711E-03    -110.668E-03    -109.455E-03     220.123E-03    -110.668E-03     17.9954E-03    -47.2804E+06    -108.371E+06    -229.558E+06    -108.374E+06    -229.555E+06    -47.2804E+06    -473.815E+03         42.1497
             677     4.47599E-03     38.3219E-03     176.121E-03     175.566E-03    -592.992E-03     175.566E-03    -592.992E-03     176.121E-03     225.788E-06     221.218E-03    -110.379E-03    -110.839E-03    -110.426E-03     221.074E-03    -110.648E-03     13.0826E-03    -67.2650E+06    -118.567E+06    -265.810E+06    -118.578E+06    -265.799E+06    -67.2650E+06    -321.274E+03         41.3988
             678     3.58245E-03     38.3128E-03     176.244E-03     175.875E-03    -593.434E-03     175.875E-03    -593.434E-03     176.244E-03     103.982E-06     221.634E-03    -110.428E-03    -111.206E-03    -111.146E-03     221.574E-03    -110.428E-03     8.60262E-03    -90.1032E+06    -129.296E+06    -300.338E+06    -129.306E+06    -300.328E+06    -90.1032E+06     103.780E+03         40.8067
             679     2.69046E-03     38.3048E-03     176.335E-03     176.149E-03    -593.782E-03     176.149E-03    -593.782E-03     176.335E-03     220.715E-06     221.001E-03    -110.047E-03    -110.954E-03    -110.922E-03     220.969E-03    -110.047E-03     5.70860E-03    -112.357E+06    -137.954E+06    -331.095E+06    -137.957E+06    -331.092E+06    -112.357E+06    -380.405E+03         40.3611
             680     1.79535E-03     38.3008E-03     176.390E-03     176.324E-03    -594.033E-03     176.324E-03    -594.033E-03     176.390E-03    -100.277E-06     219.695E-03    -109.640E-03    -110.055E-03    -109.971E-03     219.677E-03    -109.706E-03     3.38078E-03    -131.112E+06    -145.347E+06    -351.722E+06    -145.366E+06    -351.703E+06    -131.112E+06    -1.05345E+06         40.0500
             681     896.547E-06     38.3009E-03     189.844E-03     162.958E-03    -594.146E-03     189.822E-03    -594.145E-03     162.979E-03     589.357E-06     219.065E-03    -109.140E-03    -109.925E-03    -109.161E-03     219.058E-03    -109.896E-03     2.18866E-03    -144.181E+06    -153.505E+06    -361.302E+06    -151.909E+06    -361.285E+06    -145.796E+06    -725.409E+03         39.8621
             682     15.2333E-03     37.8603E-03     174.130E-03     168.469E-03    -585.323E-03     168.469E-03    -585.323E-03     174.130E-03     158.982E-06     227.889E-03    -110.563E-03    -117.326E-03    -109.700E-03     220.263E-03    -110.563E-03     98.3903E-03     141.303E+06     127.125E+06    -8.41374E+06    -8.40602E+06     127.118E+06     141.303E+06     126.419E+03         59.3553
             683     14.3366E-03     37.7057E-03     174.651E-03     169.458E-03    -586.928E-03     169.458E-03    -586.928E-03     174.651E-03     28.9222E-06     229.557E-03    -110.557E-03    -119.001E-03    -111.040E-03     221.596E-03    -110.557E-03     101.881E-03     126.115E+06     111.790E+06    -16.6943E+06    -16.6847E+06     111.780E+06     126.115E+06    -99.2239E+03         57.5136
             684     13.4448E-03     37.6146E-03     175.144E-03     170.413E-03    -588.437E-03     170.413E-03    -588.437E-03     175.144E-03     210.326E-06     225.544E-03    -110.472E-03    -115.073E-03    -110.239E-03     220.710E-03    -110.472E-03     80.4801E-03     103.914E+06     92.6614E+06    -26.1900E+06    -26.1797E+06     92.6511E+06     103.914E+06     436.687E+03         55.6568
             685     12.5457E-03     37.5127E-03     175.601E-03     171.342E-03    -589.864E-03     171.342E-03    -589.864E-03     175.601E-03     249.449E-06     224.227E-03    -110.383E-03    -113.844E-03    -109.610E-03     219.993E-03    -110.383E-03     74.9081E-03     84.0361E+06     78.0475E+06    -35.4850E+06    -35.4748E+06     80.3033E+06     81.7701E+06     485.325E+03         53.7953
             686     11.6514E-03     37.4331E-03     176.032E-03     172.264E-03    -591.241E-03     172.264E-03    -591.241E-03     176.032E-03     269.379E-06     223.322E-03    -110.305E-03    -113.018E-03    -109.714E-03     220.019E-03    -110.305E-03     66.2769E-03     74.8249E+06     64.0752E+06    -43.2925E+06    -43.2818E+06     74.8142E+06     64.0752E+06    -685.608E+03         51.9545
             687     10.7547E-03     37.3579E-03     176.434E-03     173.150E-03    -592.550E-03     173.149E-03    -592.550E-03     176.434E-03     265.220E-06     222.453E-03    -110.274E-03    -112.179E-03    -109.424E-03     219.698E-03    -110.274E-03     60.3468E-03     62.0227E+06     49.8244E+06    -51.8672E+06    -51.8537E+06     58.2947E+06     53.5389E+06    -1.00377E+06         50.1674
             688     9.85790E-03     37.2909E-03     176.806E-03     173.994E-03    -593.783E-03     173.994E-03    -593.783E-03     176.806E-03     263.265E-06     221.761E-03    -110.280E-03    -111.481E-03    -109.373E-03     219.654E-03    -110.280E-03     52.6728E-03     41.3992E+06     15.9031E+06    -61.7733E+06    -61.7657E+06     15.8956E+06     41.3992E+06    -151.581E+03         48.4689
             689     8.96113E-03     37.2349E-03     177.144E-03     174.785E-03    -594.926E-03     174.785E-03    -594.925E-03     177.144E-03     248.048E-06     221.312E-03    -110.271E-03    -111.041E-03    -109.467E-03     219.739E-03    -110.271E-03     45.5271E-03     23.6354E+06    -41.3333E+06    -70.8885E+06    -70.7527E+06    -41.4691E+06     23.6354E+06     227.464E+03         46.8915
             690     8.06452E-03     37.1884E-03     177.449E-03     175.514E-03    -595.966E-03     175.514E-03    -595.966E-03     177.449E-03     240.625E-06     220.864E-03    -110.070E-03    -110.794E-03    -109.473E-03     219.729E-03    -110.256E-03     38.5096E-03     5.90071E+06    -77.4221E+06    -99.9405E+06    -79.2714E+06    -98.0912E+06     5.90071E+06    -537.330E+03         45.4608
             691     7.16936E-03     37.1485E-03     177.718E-03     176.175E-03    -596.899E-03     176.175E-03    -596.899E-03     177.718E-03     209.902E-06     219.983E-03    -109.487E-03    -110.497E-03    -109.039E-03     219.301E-03    -110.262E-03     29.5356E-03    -10.9636E+06    -88.4540E+06    -144.935E+06    -88.5581E+06    -144.831E+06    -10.9636E+06    -1.07578E+06         44.1942
             692     6.27187E-03     37.1197E-03     177.952E-03     176.753E-03    -597.725E-03     176.753E-03    -597.725E-03     177.952E-03     218.004E-06     219.642E-03    -109.268E-03    -110.374E-03    -108.981E-03     219.289E-03    -110.308E-03     21.2815E-03    -28.1550E+06    -98.9572E+06    -186.543E+06    -99.0120E+06    -186.489E+06    -28.1550E+06    -230.117E+03         43.1002
             693     5.37569E-03     37.0937E-03     178.151E-03     177.268E-03    -598.441E-03     177.268E-03    -598.441E-03     178.151E-03     162.984E-06     219.709E-03    -109.340E-03    -110.369E-03    -109.157E-03     219.526E-03    -110.369E-03     15.2797E-03    -47.3032E+06    -109.300E+06    -228.896E+06    -109.307E+06    -228.889E+06    -47.3032E+06     184.367E+03         42.1797
             694     4.48056E-03     37.0774E-03     178.317E-03     177.702E-03    -599.039E-03     177.702E-03    -599.039E-03     178.317E-03     191.642E-06     219.787E-03    -109.306E-03    -110.480E-03    -109.238E-03     219.682E-03    -110.444E-03     11.4538E-03    -67.8223E+06    -119.614E+06    -266.065E+06    -119.626E+06    -266.053E+06    -67.8223E+06    -49.7644E+03         41.4273
             695     3.58366E-03     37.0638E-03     178.451E-03     178.038E-03    -599.526E-03     178.038E-03    -599.526E-03     178.451E-03     73.4029E-06     220.270E-03    -109.360E-03    -110.910E-03    -109.683E-03     220.202E-03    -110.519E-03     9.17478E-03    -89.9744E+06    -129.747E+06    -300.298E+06    -129.758E+06    -300.287E+06    -89.9744E+06     82.5980E+03         40.8332
             696     2.68673E-03     37.0595E-03     178.548E-03     178.348E-03    -599.892E-03     178.348E-03    -599.892E-03     178.548E-03     199.886E-06     220.635E-03    -109.714E-03    -110.921E-03    -110.037E-03     220.593E-03    -110.555E-03     7.38604E-03    -114.039E+06    -138.922E+06    -330.729E+06    -138.925E+06    -330.726E+06    -114.039E+06    -232.134E+03         40.3859
             697     1.78965E-03     37.0575E-03     178.625E-03     178.475E-03    -600.146E-03     178.474E-03    -600.146E-03     178.625E-03    -176.729E-06     220.916E-03    -110.264E-03    -110.652E-03    -110.319E-03     220.892E-03    -110.573E-03     5.27348E-03    -134.345E+06    -146.424E+06    -351.853E+06    -146.441E+06    -351.836E+06    -134.345E+06    -1.08070E+06         40.0737
             698     895.684E-06     37.0563E-03     192.349E-03     165.002E-03    -600.300E-03     192.237E-03    -600.298E-03     165.112E-03     761.682E-06     221.080E-03    -109.613E-03    -111.467E-03    -110.766E-03     221.074E-03    -110.308E-03     2.20035E-03    -147.929E+06    -155.504E+06    -363.305E+06    -154.434E+06    -363.281E+06    -149.022E+06    -1.37628E+06         39.8853
             699     15.2426E-03     36.6263E-03     175.972E-03     169.762E-03    -590.052E-03     169.762E-03    -590.052E-03     175.972E-03     181.170E-06     228.875E-03    -110.460E-03    -118.415E-03    -110.495E-03     220.955E-03    -110.460E-03     98.6516E-03     141.126E+06     126.749E+06    -8.10985E+06    -8.10017E+06     126.739E+06     141.126E+06     405.854E+03         59.3309
             700     14.3399E-03     36.4566E-03     176.510E-03     170.837E-03    -591.866E-03     170.837E-03    -591.866E-03     176.510E-03     281.257E-06     229.098E-03    -110.447E-03    -118.652E-03    -110.394E-03     220.841E-03    -110.447E-03     101.935E-03     124.638E+06     110.815E+06    -17.6828E+06    -17.6715E+06     110.804E+06     124.638E+06    -272.112E+03         57.4930
             701     13.4414E-03     36.3665E-03     177.022E-03     171.810E-03    -593.407E-03     171.810E-03    -593.407E-03     177.022E-03     236.816E-06     224.507E-03    -110.397E-03    -114.110E-03    -109.700E-03     220.097E-03    -110.397E-03     76.5847E-03     103.551E+06     92.7794E+06    -27.3687E+06    -27.3425E+06     92.7531E+06     103.551E+06    -379.681E+03         55.6411
             702     12.5471E-03     36.2677E-03     177.498E-03     172.829E-03    -594.929E-03     172.829E-03    -594.929E-03     177.498E-03     208.483E-06     223.618E-03    -110.342E-03    -113.275E-03    -109.115E-03     219.458E-03    -110.342E-03     74.0484E-03     85.7307E+06     80.0880E+06    -34.1820E+06    -34.1575E+06     81.8118E+06     83.9823E+06     266.684E+03         53.7863
             703     11.6478E-03     36.1859E-03     177.948E-03     173.825E-03    -596.394E-03     173.825E-03    -596.394E-03     177.948E-03     198.628E-06     222.572E-03    -110.297E-03    -112.275E-03    -109.069E-03     219.366E-03    -110.297E-03     65.1456E-03     75.3446E+06     64.6804E+06    -42.1034E+06    -42.0952E+06     75.3364E+06     64.6804E+06      578.17E+03         51.9527
             704     10.7525E-03     36.1105E-03     178.367E-03     174.774E-03    -597.778E-03     174.774E-03    -597.778E-03     178.367E-03     193.344E-06     222.278E-03    -110.295E-03    -111.982E-03    -109.275E-03     219.570E-03    -110.295E-03     59.7647E-03     62.3555E+06     49.7971E+06    -52.0524E+06    -52.0355E+06     58.6960E+06     53.4397E+06     211.617E+03         50.1731
             705     9.85697E-03     36.0450E-03     178.756E-03     175.681E-03    -599.081E-03     175.681E-03    -599.081E-03     178.756E-03     185.027E-06     221.679E-03    -110.312E-03    -111.367E-03    -109.301E-03     219.613E-03    -110.312E-03     52.1327E-03     41.0519E+06     15.9906E+06    -62.0359E+06    -61.9654E+06     15.9201E+06     41.0519E+06    -781.390E+03         48.4818
             706     8.96017E-03     35.9897E-03     179.110E-03     176.532E-03    -600.295E-03     176.532E-03    -600.295E-03     179.110E-03     173.803E-06     221.525E-03    -110.294E-03    -111.231E-03    -109.741E-03     220.036E-03    -110.294E-03     44.2308E-03     23.4922E+06    -41.7335E+06    -70.7973E+06    -70.3246E+06    -42.2062E+06     23.4922E+06    -1.20089E+06         46.9106
             707     8.06533E-03     35.9403E-03     179.428E-03     177.317E-03    -601.404E-03     177.317E-03    -601.404E-03     179.428E-03     180.350E-06     221.188E-03    -110.240E-03    -110.948E-03    -109.943E-03     220.183E-03    -110.240E-03     36.2438E-03     7.06981E+06    -77.0085E+06    -98.7144E+06    -78.4817E+06    -97.2412E+06     7.06981E+06    -487.106E+03         45.4850
             708     7.16943E-03     35.9035E-03     179.709E-03     178.025E-03    -602.394E-03     178.025E-03    -602.394E-03     179.709E-03     153.397E-06     220.616E-03    -110.158E-03    -110.457E-03    -109.807E-03     219.965E-03    -110.158E-03     29.1293E-03    -10.8585E+06    -88.1762E+06    -144.694E+06    -88.2338E+06    -144.637E+06    -10.8585E+06    -789.583E+03         44.2218
             709     6.27555E-03     35.8728E-03     179.955E-03     178.644E-03    -603.269E-03     178.644E-03    -603.269E-03     179.955E-03     158.499E-06     220.097E-03    -109.906E-03    -110.191E-03    -109.584E-03     219.673E-03    -110.089E-03     23.3533E-03    -29.2932E+06    -99.7220E+06    -188.066E+06    -99.7833E+06    -188.005E+06    -29.2932E+06    -902.037E+03         43.1297
             710     5.37962E-03     35.8506E-03     180.165E-03     179.201E-03    -604.031E-03     179.201E-03    -604.031E-03     180.165E-03     112.407E-06     219.248E-03    -109.157E-03    -110.092E-03    -108.901E-03     218.993E-03    -110.092E-03     17.9105E-03    -47.7833E+06    -109.650E+06    -229.054E+06    -109.667E+06    -229.038E+06    -47.7833E+06    -55.7492E+03         42.2093
             711     4.48025E-03     35.8338E-03     180.339E-03     179.672E-03    -604.675E-03     179.672E-03    -604.675E-03     180.339E-03     148.128E-06     218.632E-03    -108.383E-03    -110.249E-03    -108.239E-03     218.488E-03    -110.249E-03     13.5092E-03    -67.8035E+06    -118.917E+06    -265.793E+06    -118.922E+06    -265.788E+06    -67.8035E+06    -163.871E+03         41.4555
             712     3.58184E-03     35.8214E-03     180.482E-03     180.031E-03    -605.191E-03     180.031E-03    -605.191E-03     180.482E-03     37.8543E-06     219.015E-03    -108.430E-03    -110.585E-03    -108.357E-03     218.942E-03    -110.585E-03     9.33016E-03    -89.0961E+06    -129.581E+06    -300.005E+06    -129.586E+06    -300.000E+06    -89.0961E+06    -56.2676E+03         40.8596
             713     2.68403E-03     35.8140E-03     180.590E-03     180.357E-03    -605.586E-03     180.357E-03    -605.586E-03     180.590E-03     170.080E-06     220.483E-03    -109.528E-03    -110.955E-03    -109.504E-03     220.459E-03    -110.955E-03     5.17192E-03    -111.853E+06     -139.22E+06    -330.392E+06    -139.224E+06    -330.388E+06    -111.853E+06     542.895E+03         40.4107
             714     1.78963E-03     35.8097E-03     180.682E-03     180.498E-03    -605.861E-03     180.497E-03    -605.861E-03     180.682E-03    -131.845E-06     221.912E-03    -110.698E-03    -111.214E-03    -110.760E-03     221.905E-03    -111.145E-03     2.53536E-03    -135.277E+06    -147.722E+06    -352.847E+06    -147.725E+06    -352.844E+06    -135.277E+06     341.945E+03         40.0975
             715     894.387E-06     35.8077E-03     194.178E-03     167.330E-03    -606.075E-03     194.046E-03    -606.074E-03     167.462E-03     412.519E-06     222.297E-03    -110.291E-03    -112.006E-03    -111.945E-03     222.296E-03    -110.351E-03     816.837E-06    -149.111E+06    -153.353E+06    -364.840E+06    -152.281E+06    -364.819E+06    -150.204E+06     368.020E+03         39.9087
             716     15.2342E-03     35.3765E-03     177.663E-03     170.874E-03    -594.713E-03     170.874E-03    -594.713E-03     177.663E-03     160.760E-06     230.732E-03    -110.438E-03    -120.293E-03    -112.238E-03     222.677E-03    -110.438E-03     99.8045E-03     140.745E+06     126.392E+06    -9.12333E+06    -9.07831E+06     126.347E+06     140.745E+06     364.058E+03         59.3035
             717     14.3444E-03     35.2116E-03     178.220E-03     171.972E-03    -596.346E-03     171.972E-03    -596.346E-03     178.220E-03     316.597E-06     230.441E-03    -110.342E-03    -120.099E-03    -111.665E-03     222.008E-03    -110.342E-03     103.416E-03     127.009E+06      113.11E+06    -15.9730E+06    -15.9158E+06     113.053E+06     127.009E+06     1.67210E+06         57.4720
             718     13.4482E-03     35.1219E-03     178.750E-03     173.115E-03    -598.048E-03     173.115E-03    -598.048E-03     178.750E-03     173.144E-06     223.656E-03    -110.265E-03    -113.391E-03    -108.931E-03     219.196E-03    -110.265E-03     76.7815E-03     103.614E+06     93.5399E+06    -25.6677E+06    -25.6120E+06     93.4843E+06     103.614E+06    -157.825E+03         55.6264
             719     12.5481E-03     35.0221E-03     179.241E-03     174.207E-03    -599.651E-03     174.207E-03    -599.651E-03     179.241E-03     138.979E-06     223.362E-03    -110.228E-03    -113.133E-03    -108.943E-03     219.172E-03    -110.228E-03     74.1761E-03     82.3478E+06     77.5858E+06    -36.1093E+06    -36.0782E+06     79.2110E+06     80.6916E+06    -1.20528E+06         53.7781
             720     11.6529E-03     34.9414E-03     179.706E-03     175.270E-03    -601.193E-03     175.270E-03    -601.193E-03     179.706E-03     127.051E-06     222.220E-03    -110.201E-03    -112.019E-03    -108.903E-03     219.104E-03    -110.201E-03     64.1947E-03     74.1919E+06     64.5288E+06    -43.4987E+06    -43.4785E+06     74.1717E+06     64.5288E+06     105.939E+03         51.9523
             721     10.7545E-03     34.8640E-03     180.138E-03     176.287E-03    -602.655E-03     176.287E-03    -602.655E-03     180.138E-03     108.379E-06     221.547E-03    -110.221E-03    -111.325E-03    -108.767E-03     218.989E-03    -110.221E-03     57.9828E-03     63.4331E+06     51.9457E+06    -50.6805E+06    -50.6650E+06     59.9371E+06     55.4262E+06     569.337E+03         50.1801
             722     9.85677E-03     34.7996E-03     180.538E-03     177.252E-03    -604.025E-03     177.252E-03    -604.025E-03     180.538E-03     109.644E-06     221.472E-03    -110.248E-03    -111.224E-03    -109.270E-03     219.518E-03    -110.248E-03     50.7405E-03     42.9805E+06     18.0101E+06    -58.6779E+06    -58.6055E+06     17.9377E+06     42.9805E+06    -583.635E+03         48.4956
             723     8.96256E-03     34.7407E-03     180.903E-03     178.144E-03    -605.289E-03     178.144E-03    -605.289E-03     180.903E-03     98.6070E-06     221.371E-03    -110.226E-03    -111.145E-03    -109.671E-03     219.897E-03    -110.226E-03     44.0273E-03     23.5663E+06    -42.2676E+06    -69.5806E+06    -68.5506E+06    -43.2976E+06     23.5663E+06    -1.20043E+06         46.9302
             724     8.06678E-03     34.6952E-03     181.231E-03     178.969E-03    -606.444E-03     178.969E-03    -606.444E-03     181.231E-03     105.010E-06     220.674E-03    -110.098E-03    -110.576E-03    -109.431E-03     219.634E-03    -110.203E-03     36.8492E-03     7.39764E+06    -78.0779E+06    -98.5916E+06    -78.3847E+06    -98.2848E+06     7.39764E+06    -451.075E+03         45.5085
             725     7.17060E-03     34.6572E-03     181.522E-03     179.719E-03    -607.483E-03     179.719E-03    -607.483E-03     181.522E-03     89.5614E-06     220.016E-03    -109.759E-03    -110.257E-03    -109.101E-03     219.293E-03    -110.193E-03     30.7170E-03    -10.8353E+06    -88.7903E+06    -144.165E+06    -88.8169E+06    -144.139E+06    -10.8353E+06     318.762E+03         44.2474
             726     6.27252E-03     34.6280E-03     181.777E-03     180.376E-03    -608.398E-03     180.376E-03    -608.398E-03     181.777E-03     98.7345E-06     219.824E-03    -109.579E-03    -110.245E-03    -109.120E-03     219.330E-03    -110.209E-03     25.2828E-03    -29.7860E+06    -98.7627E+06    -187.653E+06    -98.7776E+06    -187.638E+06    -29.7860E+06    -319.331E+03         43.1561
             727     5.37540E-03     34.6062E-03     181.994E-03     180.961E-03    -609.193E-03     180.961E-03    -609.193E-03     181.994E-03     56.8465E-06     219.833E-03    -109.585E-03    -110.248E-03    -109.305E-03     219.545E-03    -110.240E-03     19.1582E-03    -47.6845E+06    -108.283E+06    -229.627E+06    -108.301E+06    -229.609E+06    -47.6845E+06    -1.02327E+06         42.2360
             728     4.48049E-03     34.5909E-03     182.177E-03     181.451E-03    -609.863E-03     181.451E-03    -609.863E-03     182.177E-03     101.431E-06     219.804E-03    -109.356E-03    -110.448E-03    -109.398E-03     219.661E-03    -110.263E-03     13.4752E-03    -68.1511E+06    -119.638E+06    -266.674E+06    -119.646E+06    -266.667E+06    -68.1511E+06    -221.923E+03         41.4823
             729     3.58369E-03     34.5780E-03     182.327E-03     181.849E-03    -610.416E-03     181.849E-03    -610.416E-03     182.327E-03     3.83626E-06     219.920E-03    -109.295E-03    -110.626E-03    -109.575E-03     219.864E-03    -110.290E-03     8.09363E-03    -89.8537E+06    -129.616E+06    -300.105E+06    -129.619E+06    -300.102E+06    -89.8537E+06     33.2491E+03         40.8859
             730     2.68784E-03     34.5683E-03     182.441E-03     182.188E-03    -610.855E-03     182.188E-03    -610.855E-03     182.441E-03     143.430E-06     220.084E-03    -109.588E-03    -110.496E-03    -109.736E-03     220.072E-03    -110.337E-03     3.47583E-03    -111.181E+06    -139.116E+06    -330.837E+06    -139.121E+06    -330.832E+06    -111.181E+06     311.070E+03         40.4361
             731     1.79101E-03     34.5625E-03     182.527E-03     182.386E-03    -611.165E-03     182.386E-03    -611.165E-03     182.527E-03    -134.590E-06     220.291E-03    -109.853E-03    -110.438E-03    -109.852E-03     220.290E-03    -110.438E-03     1.19124E-03    -132.479E+06    -147.626E+06    -351.486E+06    -147.641E+06    -351.471E+06    -132.479E+06     1.26765E+06         40.1217
             732     895.687E-06     34.5612E-03     195.291E-03     169.843E-03    -611.343E-03     195.223E-03    -611.343E-03     169.910E-03     414.487E-06     220.944E-03    -109.881E-03    -111.063E-03    -110.376E-03     220.943E-03    -110.567E-03     409.448E-06    -149.311E+06    -154.211E+06    -364.957E+06    -153.504E+06    -364.913E+06    -150.061E+06     642.875E+03         39.9318
             733     15.2401E-03     34.1268E-03     179.218E-03     171.996E-03    -598.964E-03     171.996E-03    -598.964E-03     179.218E-03     222.973E-06     230.407E-03    -110.422E-03    -119.986E-03    -112.088E-03     222.510E-03    -110.422E-03     98.9640E-03     139.299E+06     125.304E+06    -10.5555E+06    -10.4965E+06     125.245E+06     139.299E+06    -1.37820E+06         59.2754
             734     14.3420E-03     33.9613E-03     179.785E-03     173.162E-03    -600.628E-03     173.162E-03    -600.628E-03     179.785E-03     9.01155E-06     229.992E-03    -110.342E-03    -119.650E-03    -111.347E-03     221.688E-03    -110.342E-03     102.800E-03     126.988E+06     112.851E+06    -16.7694E+06    -16.7087E+06     112.791E+06     126.988E+06     1.12669E+06         57.4473
             735     13.4448E-03     33.8793E-03     180.322E-03     174.385E-03    -602.412E-03     174.385E-03    -602.412E-03     180.322E-03     69.0028E-06     224.353E-03    -110.265E-03    -114.088E-03    -109.358E-03     219.624E-03    -110.265E-03     79.1869E-03     105.575E+06     95.3827E+06    -23.6860E+06    -23.5457E+06     95.2424E+06     105.575E+06     2.54192E+06         55.6075
             736     12.5490E-03     33.7758E-03     180.820E-03     175.511E-03    -604.055E-03     175.511E-03    -604.055E-03     180.820E-03     68.8529E-06     224.161E-03    -110.196E-03    -113.965E-03    -109.478E-03     219.674E-03    -110.196E-03     76.8933E-03     83.7825E+06     78.6546E+06    -34.4509E+06    -34.3314E+06     80.8413E+06     81.4763E+06     1.11853E+06         53.7672
             737     11.6518E-03     33.6946E-03     181.293E-03     176.609E-03    -605.638E-03     176.609E-03    -605.638E-03     181.293E-03     39.6591E-06     222.718E-03    -110.134E-03    -112.583E-03    -109.304E-03     219.438E-03    -110.134E-03     65.9656E-03     74.3451E+06     63.9451E+06    -43.8364E+06    -43.7685E+06     74.2772E+06     63.9451E+06    -1.50853E+06         51.9501
             738     10.7558E-03     33.6205E-03     181.732E-03     177.674E-03    -607.153E-03     177.674E-03    -607.153E-03     181.732E-03     30.4247E-06     221.888E-03    -110.127E-03    -111.760E-03    -109.055E-03     219.183E-03    -110.127E-03     59.6832E-03     63.2895E+06     51.1197E+06    -50.6150E+06    -50.5525E+06     59.1510E+06     55.1957E+06    -1.81051E+06         50.1863
             739     9.86018E-03     33.5520E-03     182.139E-03     178.679E-03    -608.569E-03     178.679E-03    -608.569E-03     182.139E-03     31.9357E-06     221.025E-03    -110.130E-03    -110.895E-03    -108.801E-03     218.961E-03    -110.160E-03     52.0645E-03     43.0590E+06     17.5955E+06    -59.2692E+06    -59.2396E+06     17.5658E+06     43.0590E+06    -17.9221E+03         48.5086
             740     8.96182E-03     33.4965E-03     182.511E-03     179.609E-03    -609.875E-03     179.609E-03    -609.875E-03     182.511E-03     20.0600E-06     220.419E-03    -109.978E-03    -110.441E-03    -108.667E-03     218.873E-03    -110.207E-03     44.9222E-03     23.6597E+06    -41.7396E+06    -70.6328E+06    -69.8498E+06    -42.5226E+06     23.6597E+06     690.296E+03         46.9479
             741     8.06459E-03     33.4485E-03     182.846E-03     180.465E-03    -611.065E-03     180.465E-03    -611.065E-03     182.846E-03     29.6320E-06     220.045E-03    -109.731E-03    -110.314E-03    -108.700E-03     218.975E-03    -110.274E-03     37.3124E-03     6.03201E+06    -78.4944E+06    -100.181E+06    -79.4284E+06    -99.2467E+06     6.03201E+06     16.0748E+03         45.5293
             742     7.16750E-03     33.4136E-03     183.143E-03     181.243E-03    -612.136E-03     181.243E-03    -612.136E-03     183.143E-03     23.4758E-06     219.925E-03    -109.592E-03    -110.333E-03    -108.881E-03     219.215E-03    -110.333E-03     30.3444E-03    -11.3361E+06    -88.6809E+06    -144.482E+06    -88.7090E+06    -144.454E+06    -11.3361E+06     189.596E+03         44.2706
             743     6.27125E-03     33.3831E-03     183.403E-03     181.935E-03    -613.086E-03     181.935E-03    -613.086E-03     183.403E-03     41.3224E-06     219.973E-03    -109.585E-03    -110.388E-03    -109.145E-03     219.532E-03    -110.388E-03     23.8128E-03    -28.5433E+06    -97.4752E+06    -186.376E+06    -97.4787E+06    -186.373E+06    -28.5433E+06    -56.7737E+03         43.1807
             744     5.37573E-03     33.3605E-03     183.627E-03     182.537E-03    -613.907E-03     182.537E-03    -613.907E-03     183.627E-03     4.39720E-06     220.521E-03    -109.983E-03    -110.538E-03    -109.888E-03     220.275E-03    -110.388E-03     17.8011E-03    -48.2130E+06    -108.725E+06    -229.976E+06    -108.738E+06    -229.963E+06    -48.2130E+06    -304.657E+03         42.2613
             745     4.47946E-03     33.3445E-03     183.816E-03     183.045E-03    -614.605E-03     183.045E-03    -614.605E-03     183.816E-03     58.7162E-06     221.045E-03    -110.243E-03    -110.802E-03    -110.672E-03     220.915E-03    -110.243E-03     12.9384E-03    -69.4282E+06    -120.937E+06    -267.581E+06    -120.949E+06    -267.569E+06    -69.4282E+06    -30.7116E+03         41.5078
             746     3.58598E-03     33.3319E-03     183.969E-03     183.484E-03    -615.186E-03     183.484E-03    -615.186E-03     183.969E-03    -29.9759E-06     220.528E-03    -109.971E-03    -110.557E-03    -110.471E-03     220.460E-03    -109.988E-03     9.26007E-03    -91.1754E+06    -130.264E+06    -300.491E+06    -130.267E+06    -300.488E+06    -91.1754E+06    -242.065E+03         40.9111
             747     2.69081E-03     33.3241E-03     184.087E-03     183.804E-03    -615.633E-03     183.804E-03    -615.633E-03     184.087E-03     110.784E-06     219.612E-03    -109.602E-03    -110.010E-03    -109.796E-03     219.577E-03    -109.781E-03     6.00392E-03    -113.412E+06    -139.317E+06    -331.542E+06    -139.321E+06    -331.538E+06    -113.412E+06    -401.009E+03         40.4602
             748     1.79409E-03     33.3205E-03     184.202E-03     184.025E-03    -615.960E-03     184.060E-03    -615.960E-03     184.168E-03    -164.546E-06     219.199E-03    -109.328E-03    -109.871E-03    -109.478E-03     219.186E-03    -109.708E-03     3.33872E-03    -131.140E+06    -146.734E+06    -350.437E+06    -146.748E+06    -350.423E+06    -131.140E+06     549.123E+03         40.1445
             749     895.798E-06     33.3160E-03     196.222E-03     172.158E-03    -616.137E-03     196.190E-03    -616.137E-03     172.191E-03     351.460E-06     219.296E-03    -109.125E-03    -110.171E-03    -109.215E-03     219.292E-03    -110.077E-03     976.537E-06    -147.561E+06    -154.624E+06    -362.122E+06    -153.939E+06    -362.057E+06    -148.312E+06     1.02916E+06         39.9537
             750     15.2382E-03     32.8785E-03     180.628E-03     173.138E-03    -602.719E-03     173.138E-03    -602.719E-03     180.628E-03     237.614E-06     229.432E-03    -110.404E-03    -119.027E-03    -110.980E-03     221.385E-03    -110.404E-03     99.9830E-03     139.139E+06     124.708E+06    -9.62139E+06    -9.58638E+06     124.673E+06     139.139E+06    -1.37622E+06         59.2470
             751     14.3419E-03     32.7179E-03     181.191E-03     174.389E-03    -604.688E-03     174.389E-03    -604.688E-03     181.191E-03     24.4532E-06     229.112E-03    -110.378E-03    -118.734E-03    -110.410E-03     220.789E-03    -110.378E-03     102.519E-03     122.959E+06     108.556E+06    -19.4457E+06    -19.4127E+06     108.523E+06     122.959E+06    -1.80921E+06         57.4207
             752     13.4444E-03     32.6317E-03     181.726E-03     175.536E-03    -606.417E-03     175.536E-03    -606.417E-03     181.726E-03     50.6423E-06     225.013E-03    -110.321E-03    -114.692E-03    -110.068E-03     220.389E-03    -110.321E-03     78.5133E-03     104.773E+06     93.9494E+06    -26.3562E+06    -26.2415E+06     93.8346E+06     104.773E+06     949.397E+03         55.5863
             753     12.5482E-03     32.5291E-03     182.227E-03     176.718E-03    -608.110E-03     176.718E-03    -608.110E-03     182.227E-03    -20.5739E-06     224.496E-03    -110.221E-03    -114.274E-03    -109.977E-03     220.198E-03    -110.221E-03     75.3070E-03     89.2319E+06     82.7330E+06    -31.6328E+06    -31.5181E+06     85.3758E+06     86.4744E+06     2.29958E+06         53.7543
             754     11.6516E-03     32.4498E-03     182.700E-03     177.858E-03    -609.740E-03     177.858E-03    -609.740E-03     182.700E-03    -45.4261E-06     222.321E-03    -110.138E-03    -112.183E-03    -108.949E-03     219.087E-03    -110.138E-03     65.4469E-03     77.7214E+06     65.7862E+06    -40.5490E+06    -40.4739E+06     77.6463E+06     65.7862E+06     99.5906E+03         51.9451
             755     10.7556E-03     32.3717E-03     183.141E-03     178.930E-03    -611.259E-03     178.930E-03    -611.259E-03     183.141E-03    -54.1132E-06     221.783E-03    -110.152E-03    -111.631E-03    -108.808E-03     218.960E-03    -110.152E-03     60.9744E-03     62.2730E+06     48.1828E+06    -51.8076E+06    -51.7377E+06     57.2907E+06     53.0953E+06    -1.09124E+06         50.1884
             756     9.85804E-03     32.3092E-03     183.549E-03     179.958E-03    -612.698E-03     179.958E-03    -612.698E-03     183.549E-03    -50.1433E-06     221.063E-03    -110.184E-03    -110.879E-03    -108.659E-03     218.872E-03    -110.214E-03     53.6470E-03     41.4501E+06     15.4902E+06    -61.6314E+06    -61.5853E+06     15.4441E+06     41.4501E+06    -516.674E+03         48.5173
             757     8.96173E-03     32.2501E-03     183.923E-03     180.918E-03    -614.034E-03     180.918E-03    -614.034E-03     183.923E-03    -47.2602E-06     220.327E-03    -109.919E-03    -110.408E-03    -108.436E-03     218.726E-03    -110.290E-03     45.6442E-03     24.2859E+06    -40.6367E+06    -70.3391E+06    -69.2206E+06    -41.7552E+06     24.2859E+06     232.491E+03         46.9620
             758     8.06466E-03     32.2057E-03     184.260E-03     181.796E-03    -615.247E-03     181.796E-03    -615.247E-03     184.260E-03    -33.4639E-06     220.093E-03    -109.716E-03    -110.378E-03    -108.646E-03     219.024E-03    -110.378E-03     37.2851E-03     5.07585E+06    -79.0925E+06    -100.263E+06    -79.8392E+06    -99.5162E+06     5.07585E+06     494.834E+03         45.5476
             759     7.16806E-03     32.1666E-03     184.560E-03     182.591E-03    -616.339E-03     182.591E-03    -616.339E-03     184.560E-03    -43.1325E-06     220.364E-03    -109.930E-03    -110.433E-03    -109.229E-03     219.663E-03    -110.433E-03     30.1736E-03    -11.6873E+06    -89.2007E+06    -144.425E+06    -89.2512E+06    -144.374E+06    -11.6873E+06     564.534E+03         44.2918
             760     6.27240E-03     32.1382E-03     184.823E-03     183.303E-03    -617.310E-03     183.303E-03    -617.310E-03     184.823E-03    -15.2757E-06     220.628E-03    -110.029E-03    -110.599E-03    -109.761E-03     220.194E-03    -110.433E-03     23.7122E-03    -28.4292E+06    -98.4694E+06    -185.841E+06    -98.4936E+06    -185.817E+06    -28.4292E+06     823.645E+03         43.2038
             761     5.37506E-03     32.1151E-03     185.051E-03     183.923E-03    -618.153E-03     183.923E-03    -618.153E-03     185.051E-03    -42.3640E-06     220.715E-03    -110.043E-03    -110.672E-03    -110.101E-03     220.466E-03    -110.365E-03     17.9582E-03    -49.8962E+06    -110.301E+06    -230.172E+06    -110.327E+06    -230.147E+06    -49.8962E+06     657.735E+03         42.2850
             762     4.48108E-03     32.0965E-03     185.242E-03     184.450E-03    -618.872E-03     184.450E-03    -618.872E-03     185.242E-03     9.10723E-06     220.542E-03    -109.908E-03    -110.634E-03    -110.147E-03     220.406E-03    -110.260E-03     13.2183E-03    -69.1275E+06    -119.424E+06    -266.796E+06    -119.430E+06    -266.790E+06    -69.1275E+06     101.293E+03         41.5308
             763     3.58450E-03     32.0874E-03     185.396E-03     184.898E-03    -619.455E-03     184.898E-03    -619.455E-03     185.396E-03    -71.9207E-06     220.185E-03    -109.804E-03    -110.381E-03    -109.959E-03     220.108E-03    -110.148E-03     10.0092E-03    -90.6572E+06    -130.185E+06    -300.068E+06    -130.186E+06    -300.067E+06    -90.6572E+06    -61.2875E+03         40.9328
             764     2.68729E-03     32.0800E-03     185.517E-03     185.210E-03    -619.910E-03     185.210E-03    -619.910E-03     185.517E-03     84.5933E-06     220.071E-03    -109.932E-03    -110.139E-03    -110.004E-03     220.028E-03    -110.024E-03     7.24325E-03    -115.074E+06    -140.509E+06    -332.015E+06    -140.511E+06    -332.013E+06    -115.074E+06    -291.069E+03         40.4807
             765     1.79187E-03     32.0762E-03     185.635E-03     185.458E-03    -620.232E-03     185.493E-03    -620.232E-03     185.601E-03    -202.032E-06     219.916E-03    -109.842E-03    -110.075E-03    -110.057E-03     219.898E-03    -109.842E-03     4.62096E-03    -134.912E+06    -147.460E+06    -352.260E+06    -147.462E+06    -352.259E+06    -134.912E+06    -412.491E+03         40.1642
             766     897.809E-06     32.0731E-03     196.906E-03     174.352E-03    -620.456E-03     196.892E-03    -620.455E-03     174.366E-03     405.129E-06     219.391E-03    -109.327E-03    -110.064E-03    -109.730E-03     219.382E-03    -109.653E-03     2.26323E-03    -147.366E+06    -152.146E+06    -359.959E+06    -152.202E+06    -359.903E+06    -147.366E+06     239.660E+03         39.9728
             767     15.2386E-03     31.6321E-03     181.856E-03     174.089E-03    -606.315E-03     174.089E-03    -606.315E-03     181.856E-03     179.564E-06     229.003E-03    -110.410E-03    -118.594E-03    -110.866E-03     221.276E-03    -110.410E-03     98.2926E-03     141.123E+06     126.021E+06    -7.38407E+06    -7.36024E+06     125.997E+06     141.123E+06     265.256E+03         59.2176
             768     14.3400E-03     31.4732E-03     182.417E-03     175.331E-03    -608.240E-03     175.331E-03    -608.240E-03     182.417E-03     206.459E-06     228.949E-03    -110.365E-03    -118.584E-03    -110.589E-03     220.955E-03    -110.365E-03     100.788E-03     121.903E+06     107.205E+06    -19.7972E+06    -19.7544E+06     107.163E+06     121.903E+06    -2.00755E+06         57.3950
             769     13.4445E-03     31.3830E-03     182.952E-03     176.565E-03    -610.031E-03     176.565E-03    -610.031E-03     182.952E-03    -58.8773E-06     224.708E-03    -110.306E-03    -114.402E-03    -109.765E-03     220.071E-03    -110.306E-03     78.5430E-03     103.062E+06     92.2213E+06    -27.5776E+06    -27.4859E+06     92.1295E+06     103.062E+06    -2.84870E+06         55.5660
             770     12.5498E-03     31.2823E-03     183.451E-03     177.805E-03    -611.791E-03     177.805E-03    -611.791E-03     183.451E-03    -105.474E-06     224.147E-03    -110.229E-03    -113.917E-03    -109.583E-03     219.813E-03    -110.229E-03     75.5549E-03     86.8869E+06     80.2405E+06    -33.9752E+06    -33.8988E+06     82.9638E+06     84.0872E+06    -1.40063E+06         53.7401
             771     11.6531E-03     31.2048E-03     183.919E-03     178.963E-03    -613.430E-03     178.963E-03    -613.430E-03     183.919E-03    -114.466E-06     222.112E-03    -110.183E-03    -111.929E-03    -108.618E-03     218.802E-03    -110.183E-03     66.1532E-03     77.2107E+06     65.8427E+06    -41.2173E+06    -41.1615E+06     77.1549E+06     65.8427E+06     1.59136E+06         51.9376
             772     10.7531E-03     31.1284E-03     184.356E-03     180.067E-03    -614.977E-03     180.067E-03    -614.977E-03     184.356E-03    -135.204E-06     221.328E-03    -110.216E-03    -111.112E-03    -108.234E-03     218.478E-03    -110.244E-03     61.1205E-03     64.1123E+06     50.7338E+06    -48.4108E+06    -48.3701E+06     59.2613E+06     55.5441E+06     1.57740E+06         50.1874
             773     9.85686E-03     31.0612E-03     184.761E-03     181.099E-03    -616.418E-03     181.099E-03    -616.418E-03     184.761E-03    -119.851E-06     220.894E-03    -110.211E-03    -110.684E-03    -108.387E-03     218.733E-03    -110.347E-03     53.2488E-03     42.1288E+06     15.1606E+06    -58.0497E+06    -57.9813E+06     15.0922E+06     42.1288E+06     220.182E+03         48.5222
             774     8.95979E-03     31.0067E-03     185.131E-03     182.059E-03    -617.750E-03     182.059E-03    -617.750E-03     185.131E-03    -114.710E-06     220.746E-03    -110.183E-03    -110.563E-03    -108.689E-03     219.123E-03    -110.433E-03     46.0789E-03     22.8572E+06    -42.4004E+06    -69.9505E+06    -68.8795E+06    -43.4714E+06     22.8572E+06     453.448E+03         46.9723
             775     8.06288E-03     30.9589E-03     185.466E-03     182.951E-03    -618.974E-03     182.951E-03    -618.974E-03     185.466E-03    -99.8562E-06     220.762E-03    -110.248E-03    -110.514E-03    -109.144E-03     219.646E-03    -110.502E-03     38.1516E-03     5.56181E+06    -77.9310E+06    -99.8061E+06    -79.0945E+06    -98.6426E+06     5.56181E+06     997.542E+03         45.5624
             776     7.16677E-03     30.9219E-03     185.766E-03     183.755E-03    -620.076E-03     183.755E-03    -620.076E-03     185.766E-03    -105.390E-06     220.847E-03    -110.296E-03    -110.551E-03    -109.606E-03     220.126E-03    -110.520E-03     30.6423E-03    -11.3503E+06    -88.7673E+06    -144.227E+06    -88.8149E+06    -144.180E+06    -11.3503E+06     1.29810E+06         44.3096
             777     6.27004E-03     30.8912E-03     186.029E-03     184.475E-03    -621.053E-03     184.475E-03    -621.053E-03     186.029E-03    -71.0906E-06     220.895E-03    -110.211E-03    -110.684E-03    -109.961E-03     220.448E-03    -110.487E-03     24.1262E-03    -30.0355E+06    -100.394E+06    -186.414E+06    -100.425E+06    -186.383E+06    -30.0355E+06     1.44962E+06         43.2230
             778     5.37727E-03     30.8681E-03     186.256E-03     185.107E-03    -621.908E-03     185.107E-03    -621.908E-03     186.256E-03    -95.4793E-06     220.560E-03    -109.956E-03    -110.604E-03    -109.851E-03     220.289E-03    -110.438E-03     18.7404E-03    -49.9882E+06    -110.841E+06    -228.752E+06    -110.874E+06    -228.720E+06    -49.9882E+06     1.28451E+06         42.3042
             779     4.47910E-03     30.8532E-03     186.448E-03     185.641E-03    -622.629E-03     185.641E-03    -622.629E-03     186.448E-03    -40.6144E-06     220.129E-03    -109.691E-03    -110.438E-03    -109.539E-03     219.977E-03    -110.438E-03     13.9062E-03    -69.3907E+06    -119.130E+06    -266.066E+06    -119.143E+06    -266.053E+06    -69.3907E+06     537.590E+03         41.5490
             780     3.58255E-03     30.8417E-03     186.602E-03     186.090E-03    -623.216E-03     186.090E-03    -623.216E-03     186.602E-03    -108.007E-06     220.343E-03    -109.874E-03    -110.469E-03    -109.800E-03     220.270E-03    -110.469E-03     9.68446E-03    -90.3972E+06    -129.064E+06    -299.918E+06    -129.064E+06    -299.917E+06    -90.3972E+06     112.656E+03         40.9496
             781     2.68791E-03     30.8352E-03     186.724E-03     186.416E-03    -623.679E-03     186.416E-03    -623.679E-03     186.724E-03     45.7008E-06     220.659E-03    -110.157E-03    -110.502E-03    -110.168E-03     220.624E-03    -110.456E-03     6.60384E-03    -113.366E+06    -139.289E+06    -331.590E+06    -139.290E+06    -331.589E+06    -113.366E+06    -128.983E+03         40.4964
             782     1.79210E-03     30.8300E-03     186.821E-03     186.677E-03    -624.008E-03     186.688E-03    -624.008E-03     186.811E-03    -180.673E-06     220.671E-03    -110.199E-03    -110.471E-03    -110.255E-03     220.656E-03    -110.402E-03     4.10687E-03    -135.301E+06    -147.951E+06    -352.762E+06    -147.952E+06    -352.760E+06    -135.301E+06    -321.070E+03         40.1790
             783     894.338E-06     30.8302E-03     197.320E-03     176.364E-03    -624.208E-03     197.306E-03    -624.207E-03     176.378E-03     189.393E-06     220.688E-03    -109.882E-03    -110.806E-03    -110.194E-03     220.682E-03    -110.488E-03     2.63541E-03    -147.608E+06    -153.113E+06    -360.500E+06    -151.021E+06    -360.476E+06    -149.724E+06    -837.614E+03         39.9870
             784     15.2388E-03     30.3856E-03     182.910E-03     174.915E-03    -609.696E-03     174.915E-03    -609.696E-03     182.910E-03     53.4923E-06     229.527E-03    -110.376E-03    -119.151E-03    -111.699E-03     222.076E-03    -110.376E-03     96.7920E-03     142.589E+06     127.380E+06    -7.47910E+06    -7.44618E+06     127.347E+06     142.589E+06     1.27808E+06         59.1888
             785     14.3448E-03     30.2268E-03     183.467E-03     176.216E-03    -611.433E-03     176.216E-03    -611.433E-03     183.467E-03    -139.443E-06     228.151E-03    -110.328E-03    -117.823E-03    -109.956E-03     220.284E-03    -110.328E-03     100.334E-03     126.957E+06     111.947E+06    -16.3060E+06    -16.2516E+06     111.893E+06     126.957E+06    -449.919E+03         57.3697
             786     13.4460E-03     30.1388E-03     183.993E-03     177.564E-03    -613.364E-03     177.564E-03    -613.364E-03     183.993E-03    -180.609E-06     223.575E-03    -110.323E-03    -113.252E-03    -108.292E-03     218.615E-03    -110.323E-03     80.8398E-03     102.150E+06     90.8930E+06    -27.7283E+06    -27.6387E+06     90.8034E+06     102.150E+06    -2.67539E+06         55.5438
             787     12.5461E-03     30.0357E-03     184.483E-03     178.758E-03    -615.071E-03     178.758E-03    -615.071E-03     184.483E-03    -175.988E-06     223.940E-03    -110.321E-03    -113.619E-03    -109.072E-03     219.394E-03    -110.321E-03     77.1199E-03     82.1948E+06     77.0994E+06    -37.6268E+06    -37.4787E+06     78.4158E+06     80.7302E+06    -3.32582E+06         53.7222
             788     11.6488E-03     29.9596E-03     184.943E-03     179.938E-03    -616.722E-03     179.938E-03    -616.722E-03     184.943E-03    -199.088E-06     222.670E-03    -110.296E-03    -112.373E-03    -109.098E-03     219.395E-03    -110.296E-03     65.8980E-03     75.8172E+06     66.3328E+06    -42.9938E+06    -42.8538E+06     75.6771E+06     66.3328E+06    -1.92000E+06         51.9264
             789     10.7546E-03     29.8825E-03     185.370E-03     181.052E-03    -618.273E-03     181.052E-03    -618.273E-03     185.370E-03    -175.808E-06     221.622E-03    -110.297E-03    -111.325E-03    -108.477E-03     218.802E-03    -110.325E-03     60.8780E-03     62.6109E+06     51.3307E+06    -50.7405E+06    -50.6262E+06     59.2362E+06     54.5911E+06     1.47100E+06         50.1837
             790     9.85558E-03     29.8178E-03     185.767E-03     182.078E-03    -619.702E-03     182.078E-03    -619.702E-03     185.767E-03    -174.623E-06     220.784E-03    -110.253E-03    -110.531E-03    -108.243E-03     218.668E-03    -110.425E-03     52.6081E-03     40.8239E+06     16.4403E+06    -59.9631E+06    -59.8421E+06     16.3193E+06     40.8239E+06     2.57921E+06         48.5245
             791     8.95800E-03     29.7601E-03     186.130E-03     183.037E-03    -621.023E-03     183.037E-03    -621.023E-03     186.130E-03    -179.024E-06     220.787E-03    -110.250E-03    -110.537E-03    -108.719E-03     219.244E-03    -110.525E-03     44.9354E-03     21.9472E+06    -42.2726E+06    -70.6558E+06    -70.2617E+06    -42.6668E+06     21.9472E+06     1.79965E+06         46.9793
             792     8.06234E-03     29.7130E-03     186.460E-03     183.925E-03    -622.236E-03     183.925E-03    -622.236E-03     186.460E-03    -162.620E-06     221.030E-03    -110.428E-03    -110.602E-03    -109.370E-03     219.959E-03    -110.588E-03     37.4067E-03     4.84941E+06    -79.0244E+06    -100.050E+06    -80.4922E+06    -98.5824E+06     4.84941E+06     1.01161E+06         45.5729
             793     7.16651E-03     29.6750E-03     186.755E-03     184.727E-03    -623.334E-03     184.727E-03    -623.334E-03     186.755E-03    -162.418E-06     220.975E-03    -110.347E-03    -110.628E-03    -109.678E-03     220.273E-03    -110.595E-03     30.2844E-03    -12.8641E+06    -91.0064E+06    -144.468E+06    -91.0329E+06    -144.441E+06    -12.8641E+06     1.16668E+06         44.3222
             794     6.27223E-03     29.6447E-03     187.015E-03     185.453E-03    -624.307E-03     185.453E-03    -624.307E-03     187.015E-03    -128.298E-06     220.500E-03    -109.863E-03    -110.637E-03    -109.440E-03     220.046E-03    -110.606E-03     24.3328E-03    -31.4030E+06    -101.502E+06    -186.481E+06    -101.529E+06    -186.455E+06    -31.4030E+06     1.38717E+06         43.2360
             795     5.37268E-03     29.6233E-03     187.239E-03     186.078E-03    -625.151E-03     186.078E-03    -625.151E-03     187.239E-03    -148.596E-06     220.317E-03    -109.646E-03    -110.671E-03    -109.369E-03     220.039E-03    -110.671E-03     18.9366E-03    -48.8015E+06    -109.371E+06    -227.534E+06    -109.394E+06    -227.512E+06    -48.8015E+06     974.090E+03         42.3164
             796     4.47825E-03     29.6072E-03     187.429E-03     186.615E-03    -625.872E-03     186.615E-03    -625.872E-03     187.429E-03    -84.7302E-06     220.620E-03    -109.882E-03    -110.738E-03    -109.725E-03     220.463E-03    -110.738E-03     14.1917E-03    -69.9406E+06    -119.825E+06    -265.795E+06    -119.841E+06    -265.778E+06    -69.9406E+06     766.206E+03         41.5599
             797     3.58271E-03     29.5966E-03     187.583E-03     187.066E-03    -626.467E-03     187.066E-03    -626.467E-03     187.583E-03    -149.864E-06     220.871E-03    -110.078E-03    -110.794E-03    -109.995E-03     220.788E-03    -110.794E-03     10.2745E-03    -91.8269E+06    -129.938E+06    -299.993E+06    -129.945E+06    -299.986E+06    -91.8269E+06     811.184E+03         40.9593
             798     2.68584E-03     29.5885E-03     187.704E-03     187.399E-03    -626.924E-03     187.399E-03    -626.924E-03     187.704E-03     21.1671E-06     221.073E-03    -110.193E-03    -110.879E-03    -110.153E-03     221.032E-03    -110.879E-03     7.19099E-03    -112.420E+06    -138.468E+06    -330.737E+06    -138.477E+06    -330.727E+06    -112.420E+06     857.306E+03         40.5048
             799     1.78979E-03     29.5858E-03     187.801E-03     187.653E-03    -627.260E-03     187.663E-03    -627.260E-03     187.790E-03    -234.593E-06     221.535E-03    -110.567E-03    -110.968E-03    -110.549E-03     221.518E-03    -110.968E-03     4.60493E-03    -133.551E+06    -146.906E+06    -351.759E+06    -146.913E+06    -351.753E+06    -133.551E+06     317.820E+03         40.1863
             800     896.337E-06     29.5819E-03     197.354E-03     178.290E-03    -627.452E-03     197.325E-03    -627.452E-03     178.318E-03     303.766E-06     221.939E-03    -110.562E-03    -111.376E-03    -110.759E-03     221.934E-03    -111.175E-03     1.98339E-03    -146.890E+06    -155.431E+06    -361.585E+06    -153.323E+06    -361.577E+06    -149.006E+06    -238.334E+03         39.9936
             801     15.2410E-03     29.1343E-03     183.811E-03     175.915E-03    -612.551E-03     175.915E-03    -612.551E-03     183.811E-03    -111.256E-06     228.630E-03    -110.391E-03    -118.239E-03    -110.620E-03     221.011E-03    -110.391E-03     97.8453E-03     142.840E+06     127.302E+06    -7.88617E+06    -7.80978E+06     127.226E+06     142.840E+06     332.892E+03         59.1576
             802     14.3420E-03     28.9847E-03     184.343E-03     177.234E-03    -614.555E-03     177.234E-03    -614.555E-03     184.343E-03    -328.853E-06     227.923E-03    -110.400E-03    -117.523E-03    -109.432E-03     219.831E-03    -110.400E-03     101.978E-03     128.243E+06     112.849E+06    -16.2157E+06    -16.1245E+06     112.758E+06     128.243E+06     13.7004E+03         57.3400
             803     13.4417E-03     28.8954E-03     184.848E-03     178.422E-03    -616.302E-03     178.422E-03    -616.302E-03     184.848E-03    -217.586E-06     224.172E-03    -110.406E-03    -113.766E-03    -108.722E-03     219.127E-03    -110.406E-03     81.8237E-03     104.200E+06     92.1154E+06    -26.4252E+06    -26.3934E+06     92.0836E+06     104.200E+06    -85.1855E+03         55.5185
             804     12.5455E-03     28.7898E-03     185.323E-03     179.641E-03    -618.015E-03     179.641E-03    -618.014E-03     185.323E-03    -316.009E-06     223.976E-03    -110.380E-03    -113.596E-03    -109.227E-03     219.607E-03    -110.380E-03     75.5533E-03     84.2482E+06     77.5614E+06    -34.5841E+06    -34.4857E+06     79.9812E+06     81.7300E+06    -2.47814E+06         53.7030
             805     11.6505E-03     28.7114E-03     185.767E-03     180.797E-03    -619.641E-03     180.797E-03    -619.641E-03     185.767E-03    -256.550E-06     222.292E-03    -110.345E-03    -111.947E-03    -108.837E-03     219.182E-03    -110.345E-03     64.1806E-03     71.4655E+06     60.7818E+06    -45.8532E+06    -45.7034E+06     71.3156E+06     60.7818E+06    -2.06055E+06         51.9134
             806     10.7514E-03     28.6385E-03     186.180E-03     181.871E-03    -621.131E-03     181.871E-03    -621.131E-03     186.180E-03    -215.332E-06     221.724E-03    -110.390E-03    -111.334E-03    -108.573E-03     218.963E-03    -110.390E-03     60.3052E-03     58.9493E+06     49.3277E+06    -56.0825E+06    -55.9617E+06     57.3724E+06     50.7839E+06     1.72331E+06         50.1764
             807     9.85591E-03     28.5712E-03     186.564E-03     182.886E-03    -622.538E-03     182.886E-03    -622.538E-03     186.564E-03    -214.634E-06     221.212E-03    -110.441E-03    -110.771E-03    -108.584E-03     219.061E-03    -110.477E-03     53.1192E-03     38.3096E+06     18.2546E+06    -66.4503E+06    -66.3661E+06     18.1705E+06     38.3096E+06     2.31863E+06         48.5227
             808     8.95989E-03     28.5154E-03     186.917E-03     183.840E-03    -623.843E-03     183.840E-03    -623.843E-03     186.917E-03    -225.026E-06     221.022E-03    -110.389E-03    -110.633E-03    -108.877E-03     219.435E-03    -110.558E-03     45.5794E-03     20.3461E+06    -40.5477E+06    -74.8218E+06    -74.5237E+06    -40.8458E+06     20.3461E+06     1.35580E+06         46.9817
             809     8.06223E-03     28.4665E-03     187.237E-03     184.716E-03    -625.030E-03     184.716E-03    -625.030E-03     187.237E-03    -213.154E-06     220.743E-03    -110.102E-03    -110.642E-03    -108.992E-03     219.633E-03    -110.640E-03     38.0703E-03     3.30902E+06    -79.8311E+06    -101.500E+06    -82.9098E+06    -98.4215E+06     3.30902E+06     670.657E+03         45.5775
             810     7.16644E-03     28.4282E-03     187.524E-03     185.502E-03    -626.101E-03     185.502E-03    -626.101E-03     187.524E-03    -217.214E-06     220.558E-03    -109.843E-03    -110.715E-03    -109.099E-03     219.813E-03    -110.714E-03     31.1839E-03    -15.0600E+06    -92.9072E+06    -145.401E+06    -92.9284E+06    -145.380E+06    -15.0600E+06     508.791E+03         44.3271
             811     6.26787E-03     28.4003E-03     187.778E-03     186.219E-03    -627.057E-03     186.219E-03    -627.057E-03     187.778E-03    -186.160E-06     220.608E-03    -109.812E-03    -110.795E-03    -109.347E-03     220.142E-03    -110.795E-03     24.5232E-03    -31.6013E+06    -101.545E+06    -185.917E+06    -101.562E+06    -185.899E+06    -31.6013E+06     850.230E+03         43.2403
             812     5.37405E-03     28.3773E-03     187.998E-03     186.843E-03    -627.893E-03     186.843E-03    -627.893E-03     187.998E-03    -201.858E-06     220.619E-03    -109.728E-03    -110.891E-03    -109.467E-03     220.358E-03    -110.891E-03     18.3896E-03    -48.7416E+06    -108.879E+06    -227.017E+06    -108.897E+06    -226.998E+06    -48.7416E+06     656.691E+03         42.3196
             813     4.47609E-03     28.3615E-03     188.183E-03     187.379E-03    -628.603E-03     187.379E-03    -628.603E-03     188.183E-03    -130.999E-06     220.878E-03    -109.887E-03    -110.991E-03    -109.739E-03     220.729E-03    -110.991E-03     13.8225E-03    -70.0399E+06    -118.468E+06    -265.132E+06    -118.489E+06    -265.111E+06    -70.0399E+06     117.998E+03         41.5615
             814     3.58008E-03     28.3495E-03     188.336E-03     187.806E-03    -629.184E-03     187.806E-03    -629.184E-03     188.336E-03    -187.075E-06     221.370E-03    -110.290E-03    -111.080E-03    -110.214E-03     221.294E-03    -111.080E-03     9.71511E-03    -92.8050E+06    -130.996E+06    -300.502E+06    -131.010E+06    -300.488E+06    -92.8050E+06     114.134E+03         40.9591
             815     2.68490E-03     28.3437E-03     188.456E-03     188.160E-03    -629.646E-03     188.160E-03    -629.646E-03     188.456E-03    -19.2381E-06     221.820E-03    -110.614E-03    -111.206E-03    -110.651E-03     221.789E-03    -111.138E-03     6.09076E-03    -111.845E+06    -139.017E+06    -330.272E+06    -139.028E+06    -330.261E+06    -111.845E+06     668.714E+03         40.5029
             816     1.78980E-03     28.3368E-03     188.546E-03     188.394E-03    -629.968E-03     188.393E-03    -629.968E-03     188.546E-03    -242.290E-06     222.050E-03    -110.838E-03    -111.211E-03    -110.895E-03     222.038E-03    -111.143E-03     3.23730E-03    -131.866E+06    -146.055E+06    -350.275E+06    -146.066E+06    -350.264E+06    -131.866E+06    -16.6517E+03         40.1830
             817     893.456E-06     28.3355E-03     197.303E-03     179.886E-03    -630.196E-03     197.235E-03    -630.195E-03     179.954E-03     219.536E-06     222.181E-03    -110.551E-03    -111.630E-03    -111.515E-03     222.178E-03    -110.663E-03     1.41105E-03    -147.500E+06    -157.644E+06    -363.028E+06    -154.540E+06    -363.018E+06    -150.614E+06    -691.257E+03         39.9893
             818     15.2359E-03     27.8891E-03     184.523E-03     176.665E-03    -615.175E-03     176.665E-03    -615.175E-03     184.523E-03    -207.879E-06     227.375E-03    -110.456E-03    -116.919E-03    -109.525E-03     219.982E-03    -110.456E-03     96.9844E-03     141.307E+06     124.620E+06    -9.35677E+06    -9.29444E+06     124.558E+06     141.307E+06     309.251E+03         59.1240
             819     14.3377E-03     27.7404E-03     185.034E-03     177.943E-03    -617.133E-03     177.943E-03    -617.133E-03     185.034E-03    -185.150E-06     228.149E-03    -110.468E-03    -117.681E-03    -110.015E-03     220.483E-03    -110.468E-03     99.5543E-03     125.513E+06     110.479E+06    -17.7912E+06    -17.6246E+06     110.312E+06     125.513E+06    -1.52668E+06         57.3087
             820     13.4441E-03     27.6473E-03     185.518E-03     179.216E-03    -618.901E-03     179.216E-03    -618.901E-03     185.518E-03    -462.407E-06     225.066E-03    -110.425E-03    -114.641E-03    -109.825E-03     220.250E-03    -110.425E-03     80.2696E-03     106.666E+06     95.2946E+06    -23.1374E+06    -23.0077E+06     95.1648E+06     106.666E+06    -769.344E+03         55.4929
             821     12.5483E-03     27.5439E-03     185.968E-03     180.437E-03    -620.630E-03     180.437E-03    -620.630E-03     185.968E-03    -354.362E-06     223.257E-03    -110.370E-03    -112.887E-03    -108.576E-03     218.953E-03    -110.377E-03     75.2171E-03     83.5973E+06     76.7426E+06    -33.8349E+06    -33.7828E+06     79.2552E+06     81.0326E+06     457.553E+03         53.6828
             822     11.6481E-03     27.4675E-03     186.390E-03     181.507E-03    -622.146E-03     181.507E-03    -622.146E-03     186.390E-03    -283.538E-06     221.761E-03    -110.392E-03    -111.369E-03    -108.066E-03     218.466E-03    -110.400E-03     65.8828E-03     69.6128E+06     59.4932E+06    -46.2286E+06    -46.0539E+06     69.4382E+06     59.4932E+06     2.96025E+06         51.8970
             823     10.7528E-03     27.3918E-03     186.785E-03     182.553E-03    -623.589E-03     182.553E-03    -623.589E-03     186.785E-03    -259.474E-06     221.947E-03    -110.485E-03    -111.462E-03    -108.654E-03     219.139E-03    -110.485E-03     60.8352E-03     59.3895E+06     51.1289E+06    -56.0700E+06    -55.9170E+06     59.0126E+06     51.3528E+06     3.70291E+06         50.1640
             824     9.85422E-03     27.3264E-03     187.153E-03     183.538E-03    -624.942E-03     183.538E-03    -624.942E-03     187.153E-03    -254.756E-06     221.452E-03    -110.532E-03    -110.921E-03    -108.671E-03     219.249E-03    -110.578E-03     53.8202E-03     40.5552E+06     20.5883E+06    -64.7968E+06    -64.7303E+06     21.0035E+06     40.0735E+06     475.900E+03         48.5142
             825     8.95690E-03     27.2683E-03     187.491E-03     184.459E-03    -626.193E-03     184.459E-03    -626.193E-03     187.491E-03    -265.391E-06     221.180E-03    -110.443E-03    -110.737E-03    -108.859E-03     219.521E-03    -110.662E-03     46.6512E-03     18.7271E+06    -42.5945E+06    -75.5853E+06    -75.4333E+06    -42.7466E+06     18.7271E+06    -221.129E+03         46.9757
             826     8.06184E-03     27.2210E-03     187.799E-03     185.311E-03    -627.342E-03     185.311E-03    -627.342E-03     187.799E-03    -262.930E-06     220.873E-03    -110.113E-03    -110.760E-03    -108.968E-03     219.729E-03    -110.760E-03     38.6081E-03     2.48446E+06    -79.1593E+06    -101.952E+06    -82.0093E+06    -99.1020E+06     2.48446E+06    -225.163E+03         45.5726
             827     7.16306E-03     27.1841E-03     188.076E-03     186.084E-03    -628.381E-03     186.084E-03    -628.381E-03     188.076E-03    -280.974E-06     220.759E-03    -109.905E-03    -110.855E-03    -109.181E-03     220.036E-03    -110.855E-03     30.6750E-03    -13.4694E+06    -90.3606E+06    -144.084E+06    -90.3760E+06    -144.069E+06    -13.4694E+06    -402.797E+03         44.3221
             828     6.26902E-03     27.1519E-03     188.322E-03     186.782E-03    -629.313E-03     186.782E-03    -629.313E-03     188.322E-03    -261.168E-06     220.932E-03    -110.001E-03    -110.931E-03    -109.574E-03     220.505E-03    -110.931E-03     23.4679E-03    -31.1480E+06    -100.982E+06    -185.443E+06    -100.983E+06    -185.442E+06    -31.1480E+06     176.163E+03         43.2341
             829     5.37143E-03     27.1323E-03     188.534E-03     187.398E-03    -630.134E-03     187.398E-03    -630.134E-03     188.534E-03    -267.092E-06     221.175E-03    -110.169E-03    -111.006E-03    -109.947E-03     220.936E-03    -110.989E-03     17.5968E-03    -47.6973E+06    -107.993E+06    -226.337E+06    -108.024E+06    -226.306E+06    -47.6973E+06    -244.892E+03         42.3115
             830     4.47662E-03     27.1148E-03     188.714E-03     187.922E-03    -630.824E-03     187.922E-03    -630.824E-03     188.714E-03    -184.478E-06     221.336E-03    -110.306E-03    -111.029E-03    -110.199E-03     221.211E-03    -111.013E-03     12.4860E-03    -69.2461E+06    -118.734E+06    -265.155E+06    -118.782E+06    -265.107E+06    -69.2461E+06    -155.634E+03         41.5511
             831     3.58077E-03     27.1035E-03     188.863E-03     188.337E-03    -631.386E-03     188.337E-03    -631.386E-03     188.863E-03    -228.092E-06     221.537E-03    -110.520E-03    -111.017E-03    -110.470E-03     221.487E-03    -111.017E-03     8.01523E-03    -91.2926E+06    -129.855E+06    -300.540E+06    -129.896E+06    -300.499E+06    -91.2926E+06    -1.03720E+06         40.9460
             832     2.68580E-03     27.0946E-03     188.980E-03     188.688E-03    -631.839E-03     188.688E-03    -631.839E-03     188.980E-03    -69.8405E-06     221.831E-03    -110.788E-03    -111.043E-03    -110.835E-03     221.810E-03    -110.975E-03     5.21308E-03    -110.517E+06    -138.661E+06    -330.329E+06    -138.684E+06    -330.306E+06    -110.517E+06    -1.27018E+06         40.4873
             833     1.79131E-03     27.0909E-03     189.069E-03     188.914E-03    -632.167E-03     188.914E-03    -632.167E-03     189.069E-03    -233.658E-06     221.737E-03    -110.711E-03    -111.026E-03    -110.881E-03     221.729E-03    -110.848E-03     2.79630E-03    -130.837E+06    -147.491E+06    -351.009E+06    -147.502E+06    -350.999E+06    -130.837E+06    -41.3395E+03         40.1653
             834     896.666E-06     27.0883E-03     196.817E-03     181.411E-03    -632.370E-03     196.743E-03    -632.370E-03     181.484E-03     56.0300E-06     221.438E-03    -110.100E-03    -111.338E-03    -110.972E-03     221.434E-03    -110.462E-03     1.74491E-03    -143.819E+06    -155.850E+06    -361.165E+06    -152.799E+06    -361.102E+06    -146.933E+06     1.86957E+06         39.9702
             835     15.2389E-03     26.6420E-03     185.059E-03     177.267E-03    -617.650E-03     177.266E-03    -617.649E-03     185.059E-03    -612.623E-06     227.631E-03    -110.489E-03    -117.143E-03    -109.870E-03     220.359E-03    -110.489E-03     95.1224E-03     143.409E+06     126.153E+06    -7.44669E+06    -7.22904E+06     125.935E+06     143.409E+06    -659.587E+03         59.0906
             836     14.3424E-03     26.4975E-03     185.547E-03     178.665E-03    -619.381E-03     178.664E-03    -619.380E-03     185.547E-03    -749.705E-06     228.452E-03    -110.496E-03    -117.956E-03    -109.942E-03     220.438E-03    -110.496E-03     102.029E-03     128.002E+06     112.681E+06    -13.6581E+06    -13.2070E+06     112.230E+06     128.002E+06     2.86895E+06         57.2776
             837     13.4441E-03     26.3957E-03     185.998E-03     180.009E-03    -621.312E-03     180.009E-03    -621.312E-03     185.998E-03    -465.767E-06     224.434E-03    -110.477E-03    -113.957E-03    -108.846E-03     219.322E-03    -110.477E-03     82.4830E-03     102.315E+06     92.8150E+06    -24.3947E+06    -23.9762E+06     92.8981E+06     101.813E+06     1.85513E+06         55.4639
             838     12.5451E-03     26.3049E-03     186.419E-03     181.036E-03    -622.802E-03     181.036E-03    -622.802E-03     186.419E-03    -279.834E-06     223.123E-03    -110.505E-03    -112.618E-03    -107.979E-03     218.492E-03    -110.512E-03     78.0679E-03     80.6409E+06     77.0123E+06    -35.9018E+06    -35.6942E+06     78.3519E+06     79.0939E+06     3.66657E+06         53.6561
             839     11.6472E-03     26.2202E-03     186.817E-03     182.071E-03    -624.254E-03     182.071E-03    -624.254E-03     186.817E-03    -268.865E-06     222.759E-03    -110.568E-03    -112.190E-03    -108.626E-03     219.202E-03    -110.576E-03     68.5630E-03     71.4854E+06     63.4265E+06    -45.0866E+06    -44.7785E+06     71.1773E+06     63.4265E+06     4.42244E+06         51.8738
             840     10.7489E-03     26.1463E-03     187.191E-03     183.072E-03    -625.622E-03     183.072E-03    -625.622E-03     187.191E-03    -286.072E-06     222.689E-03    -110.630E-03    -112.058E-03    -109.222E-03     219.852E-03    -110.630E-03     61.2362E-03     63.7931E+06     54.2452E+06    -51.0238E+06    -50.8709E+06     61.5874E+06     56.2980E+06     1.13415E+06         50.1451
             841     9.85357E-03     26.0799E-03     187.539E-03     184.022E-03    -626.907E-03     184.022E-03    -626.907E-03     187.539E-03    -309.661E-06     222.079E-03    -110.630E-03    -111.449E-03    -109.271E-03     219.947E-03    -110.676E-03     52.9766E-03     44.4467E+06     21.7846E+06    -57.9445E+06    -57.7269E+06     22.0487E+06     43.9651E+06     342.299E+03         48.4985
             842     8.95716E-03     26.0228E-03     187.859E-03     184.904E-03    -628.092E-03     184.904E-03    -628.092E-03     187.859E-03    -335.421E-06     221.359E-03    -110.441E-03    -110.919E-03    -109.117E-03     219.843E-03    -110.727E-03     44.5524E-03     22.7841E+06    -40.1265E+06    -69.8201E+06    -67.5584E+06    -42.3882E+06     22.7841E+06    -473.887E+03         46.9616
             843     8.05869E-03     25.9750E-03     188.152E-03     185.718E-03    -629.185E-03     185.718E-03    -629.185E-03     188.152E-03    -355.411E-06     221.125E-03    -110.332E-03    -110.793E-03    -109.314E-03     220.107E-03    -110.793E-03     36.4078E-03     4.28554E+06    -79.2338E+06    -100.172E+06    -79.7762E+06    -99.6299E+06     4.28554E+06    -1.12461E+06         45.5584
             844     7.16576E-03     25.9361E-03     188.417E-03     186.475E-03    -630.192E-03     186.475E-03    -630.192E-03     188.417E-03    -374.089E-06     221.087E-03    -110.248E-03    -110.839E-03    -109.604E-03     220.443E-03    -110.839E-03     28.9810E-03    -10.7922E+06    -87.9889E+06    -142.734E+06    -88.0648E+06    -142.658E+06    -10.7922E+06    -1.19749E+06         44.3065
             845     6.26759E-03     25.9074E-03     188.651E-03     187.154E-03    -631.090E-03     187.154E-03    -631.090E-03     188.651E-03    -353.889E-06     220.966E-03    -110.092E-03    -110.874E-03    -109.713E-03     220.587E-03    -110.874E-03     22.0736E-03    -27.5317E+06    -96.0595E+06    -185.096E+06    -96.2513E+06    -184.904E+06    -27.5317E+06    -2.82501E+06         43.2158
             846     5.37284E-03     25.8841E-03     188.855E-03     187.737E-03    -631.869E-03     187.737E-03    -631.869E-03     188.855E-03    -356.076E-06     221.173E-03    -110.265E-03    -110.908E-03    -110.076E-03     220.967E-03    -110.891E-03     16.3372E-03    -48.4962E+06    -110.587E+06    -230.345E+06    -110.763E+06    -230.169E+06    -48.4962E+06    -1.70201E+06         42.2895
             847     4.47771E-03     25.8677E-03     189.030E-03     188.248E-03    -632.544E-03     188.248E-03    -632.544E-03     189.030E-03    -271.637E-06     221.372E-03    -110.491E-03    -110.881E-03    -110.393E-03     221.257E-03    -110.864E-03     12.1445E-03    -67.4489E+06    -121.502E+06    -265.328E+06    -121.563E+06    -265.267E+06    -67.4489E+06     1.10863E+06         41.5251
             848     3.58293E-03     25.8567E-03     189.172E-03     188.674E-03    -633.104E-03     188.674E-03    -633.104E-03     189.172E-03    -297.788E-06     221.296E-03    -110.495E-03    -110.801E-03    -110.435E-03     221.236E-03    -110.801E-03     8.74231E-03    -88.4737E+06    -127.895E+06    -297.376E+06    -127.951E+06    -297.319E+06    -88.4737E+06     954.738E+03         40.9162
             849     2.68679E-03     25.8486E-03     189.282E-03     189.003E-03    -633.528E-03     189.003E-03    -633.528E-03     189.282E-03    -126.354E-06     221.112E-03    -110.339E-03    -110.773E-03    -110.310E-03     221.084E-03    -110.773E-03     5.91833E-03    -113.134E+06    -137.936E+06    -331.484E+06    -137.987E+06    -331.432E+06    -113.134E+06    -812.015E+03         40.4538
             850     1.79053E-03     25.8438E-03     189.368E-03     189.216E-03    -633.841E-03     189.216E-03    -633.841E-03     189.368E-03    -274.192E-06     221.264E-03    -110.334E-03    -110.930E-03    -110.432E-03     221.252E-03    -110.819E-03     3.94381E-03    -132.699E+06    -146.762E+06    -352.757E+06    -146.779E+06    -352.741E+06    -132.699E+06    -113.669E+03         40.1290
             851     894.938E-06     25.8426E-03     196.080E-03     182.727E-03    -634.033E-03     196.021E-03    -634.033E-03     182.787E-03     56.8063E-06     221.640E-03    -110.433E-03    -111.207E-03    -110.538E-03     221.634E-03    -111.096E-03     2.70666E-03    -140.360E+06    -152.251E+06    -359.365E+06    -148.742E+06    -359.199E+06    -144.035E+06    -220.101E+03         39.9321
             852     15.2375E-03     25.4077E-03     185.443E-03     178.269E-03    -619.613E-03     178.268E-03    -619.613E-03     185.443E-03    -1.04883E-03     226.904E-03    -109.682E-03    -117.222E-03    -108.523E-03     219.070E-03    -110.547E-03     97.2497E-03     139.691E+06     123.522E+06    -9.22033E+06    -8.96606E+06     123.268E+06     139.691E+06    -2.67314E+06         59.0553
             853     14.3358E-03     25.2432E-03     185.877E-03     179.577E-03    -621.806E-03     179.576E-03    -621.805E-03     185.877E-03    -736.876E-06     228.546E-03    -110.649E-03    -117.897E-03    -109.124E-03     219.773E-03    -110.649E-03     106.159E-03     123.753E+06     108.441E+06    -18.3864E+06    -17.9100E+06     107.964E+06     123.753E+06     4.42943E+06         57.2415
             854     13.4395E-03     25.1578E-03     186.287E-03     180.506E-03    -623.220E-03     180.506E-03    -623.220E-03     186.287E-03    -177.643E-06     224.481E-03    -110.696E-03    -113.786E-03    -108.650E-03     219.346E-03    -110.696E-03     82.6662E-03     102.408E+06     92.6893E+06    -25.6924E+06    -25.1085E+06     92.6071E+06     101.907E+06     7.07754E+06         55.4289
             855     12.5394E-03     25.0563E-03     186.679E-03     181.483E-03    -624.600E-03     181.483E-03    -624.600E-03     186.679E-03    -200.075E-06     224.684E-03    -110.698E-03    -113.985E-03    -109.521E-03     220.220E-03    -110.698E-03     76.6876E-03     83.8047E+06     79.6340E+06    -35.0398E+06    -34.6774E+06     81.5322E+06     81.5441E+06     4.24739E+06         53.6250
             856     11.6442E-03     24.9746E-03     187.052E-03     182.446E-03    -625.924E-03     182.446E-03    -625.924E-03     187.052E-03    -243.333E-06     223.717E-03    -110.657E-03    -113.060E-03    -109.816E-03     220.473E-03    -110.657E-03     65.5899E-03     75.5841E+06     65.0887E+06    -43.7161E+06    -43.2935E+06     75.1615E+06     65.0887E+06    -1.30183E+06         51.8477
             857     10.7492E-03     24.8984E-03     187.404E-03     183.406E-03    -627.207E-03     183.406E-03    -627.206E-03     187.404E-03    -368.082E-06     222.923E-03    -110.643E-03    -112.280E-03    -109.685E-03     220.328E-03    -110.643E-03     58.5730E-03     65.2997E+06     51.4246E+06    -49.1281E+06    -48.8488E+06     59.8817E+06     56.5633E+06    -3.66141E+06         50.1222
             858     9.85324E-03     24.8318E-03     187.732E-03     184.318E-03    -628.422E-03     184.318E-03    -628.422E-03     187.732E-03    -414.341E-06     222.379E-03    -110.644E-03    -111.735E-03    -109.786E-03     220.430E-03    -110.644E-03     50.7278E-03     44.2496E+06     18.7532E+06    -57.8666E+06    -57.6912E+06     18.5777E+06     44.2496E+06     360.837E+03         48.4768
             859     8.95789E-03     24.7766E-03     188.034E-03     185.173E-03    -629.555E-03     185.173E-03    -629.555E-03     188.034E-03    -480.065E-06     221.835E-03    -110.556E-03    -111.279E-03    -109.803E-03     220.429E-03    -110.626E-03     43.0067E-03     24.6947E+06    -38.0598E+06    -71.3557E+06    -69.0472E+06    -40.3682E+06     24.6947E+06     551.828E+03         46.9397
             860     8.06402E-03     24.7282E-03     188.310E-03     185.972E-03    -630.607E-03     185.972E-03    -630.607E-03     188.310E-03    -507.168E-06     221.069E-03    -110.220E-03    -110.850E-03    -109.492E-03     220.125E-03    -110.634E-03     35.1278E-03     8.79368E+06    -74.4297E+06    -98.5807E+06    -77.6103E+06    -95.4001E+06     8.79368E+06     -284.47E+03         45.5344
             861     7.16477E-03     24.6903E-03     188.559E-03     186.691E-03    -631.554E-03     186.691E-03    -631.554E-03     188.559E-03    -517.434E-06     220.542E-03    -109.884E-03    -110.658E-03    -109.278E-03     219.936E-03    -110.658E-03     28.0864E-03    -10.1776E+06    -88.1067E+06    -143.602E+06    -88.1797E+06    -143.529E+06    -10.1776E+06    -1.34936E+06         44.2783
             862     6.27114E-03     24.6599E-03     188.781E-03     187.331E-03    -632.401E-03     187.331E-03    -632.401E-03     188.781E-03    -488.079E-06     220.528E-03    -109.827E-03    -110.701E-03    -109.446E-03     220.147E-03    -110.701E-03     22.2156E-03    -29.2583E+06    -98.9656E+06    -187.356E+06    -99.2830E+06    -187.038E+06    -29.2583E+06    -1.54105E+06         43.1822
             863     5.37467E-03     24.6384E-03     188.975E-03     187.895E-03    -633.144E-03     187.895E-03    -633.144E-03     188.975E-03    -476.488E-06     220.635E-03    -109.890E-03    -110.745E-03    -109.653E-03     220.398E-03    -110.745E-03     17.4764E-03    -50.0823E+06     -110.65E+06    -231.683E+06    -110.976E+06    -231.358E+06    -50.0823E+06    -613.651E+03         42.2501
             864     4.47787E-03     24.6216E-03     189.141E-03     188.380E-03    -633.790E-03     188.380E-03    -633.790E-03     189.141E-03    -389.207E-06     220.869E-03    -110.086E-03    -110.783E-03    -109.949E-03     220.733E-03    -110.783E-03     13.2177E-03    -68.1721E+06    -119.605E+06    -267.103E+06    -119.690E+06    -267.018E+06    -68.1721E+06    -552.917E+03         41.4799
             865     3.58147E-03     24.6100E-03     189.278E-03     188.796E-03    -634.328E-03     188.796E-03    -634.328E-03     189.278E-03    -383.007E-06     221.101E-03    -110.311E-03    -110.790E-03    -110.243E-03     221.033E-03    -110.790E-03     9.35706E-03    -87.3424E+06    -127.776E+06    -296.584E+06    -127.811E+06    -296.549E+06    -87.3424E+06     1.33807E+06         40.8656
             866     2.68651E-03     24.6029E-03     189.383E-03     189.117E-03    -634.748E-03     189.117E-03    -634.748E-03     189.383E-03    -200.244E-06     221.154E-03    -110.329E-03    -110.824E-03    -110.348E-03     221.124E-03    -110.776E-03     5.97429E-03    -112.320E+06    -137.221E+06    -330.340E+06    -137.270E+06    -330.292E+06    -112.320E+06     1.49602E+06         40.3988
             867     1.79029E-03     24.5990E-03     189.459E-03     189.330E-03    -635.036E-03     189.330E-03    -635.036E-03     189.459E-03    -313.105E-06     221.219E-03    -110.344E-03    -110.875E-03    -110.382E-03     221.209E-03    -110.827E-03     3.43460E-03    -133.424E+06    -143.840E+06    -352.112E+06    -143.872E+06    -352.079E+06    -133.424E+06    -509.365E+03         40.0707
             868     894.498E-06     24.5940E-03     195.194E-03     183.786E-03    -635.215E-03     195.158E-03    -635.215E-03     183.822E-03     43.3616E-06     221.700E-03    -110.600E-03    -111.100E-03    -110.661E-03     221.697E-03    -111.035E-03     1.66265E-03    -145.214E+06    -152.354E+06    -361.611E+06    -148.811E+06    -361.479E+06    -148.889E+06    -2.11708E+06         39.8716
             869     15.2313E-03     24.1578E-03     185.615E-03     178.862E-03    -621.854E-03     178.861E-03    -621.853E-03     185.615E-03    -1.17541E-03     226.992E-03    -109.834E-03    -117.158E-03    -108.344E-03     219.043E-03    -110.699E-03     99.4803E-03     136.127E+06     120.787E+06    -10.0199E+06    -9.61625E+06     120.383E+06     136.127E+06     1.52965E+06         59.0170
             870     14.3360E-03     24.0038E-03     186.010E-03     179.864E-03    -623.470E-03     179.864E-03    -623.470E-03     186.010E-03     42.5427E-06     229.062E-03    -110.783E-03    -118.280E-03    -109.928E-03     220.711E-03    -110.783E-03     103.563E-03     117.976E+06     104.366E+06    -23.8054E+06    -23.4245E+06     103.985E+06     117.976E+06    -2.94033E+06         57.2050
             871     13.4346E-03     23.9089E-03     186.394E-03     180.735E-03    -624.664E-03     180.735E-03    -624.664E-03     186.394E-03    -138.214E-06     225.890E-03    -110.772E-03    -115.118E-03    -110.515E-03     221.286E-03    -110.772E-03     78.6399E-03     105.489E+06     95.1236E+06    -28.6098E+06    -28.0529E+06     94.5667E+06     105.489E+06    -18.7179E+03         55.3966
             872     12.5442E-03     23.8076E-03     186.764E-03     181.709E-03    -625.948E-03     181.709E-03    -625.948E-03     186.764E-03    -236.414E-06     225.586E-03    -110.650E-03    -114.936E-03    -111.050E-03     221.700E-03    -110.650E-03     71.9021E-03     89.3966E+06     84.2375E+06     -33.436E+06    -33.1281E+06     84.9934E+06     88.3328E+06     2.11073E+06         53.5974
             873     11.6484E-03     23.7275E-03     187.115E-03     182.680E-03    -627.196E-03     182.680E-03    -627.196E-03     187.115E-03    -464.922E-06     223.676E-03    -110.491E-03    -113.186E-03    -110.265E-03     220.755E-03    -110.491E-03     62.4301E-03     80.8674E+06     68.7081E+06    -37.7283E+06    -37.3773E+06     80.5164E+06     68.7081E+06    -651.786E+03         51.8229
             874     10.7521E-03     23.6504E-03     187.444E-03     183.602E-03    -628.401E-03     183.602E-03    -628.401E-03     187.444E-03    -572.586E-06     222.477E-03    -110.421E-03    -112.056E-03    -109.682E-03     220.104E-03    -110.421E-03     55.9790E-03     62.8796E+06     45.9406E+06    -53.0590E+06    -52.7612E+06     56.7382E+06     51.7841E+06    -2.00203E+06         50.0973
             875     9.85581E-03     23.5864E-03     187.750E-03     184.470E-03    -629.539E-03     184.470E-03    -629.539E-03     187.750E-03    -640.195E-06     221.279E-03    -110.213E-03    -111.066E-03    -109.002E-03     219.449E-03    -110.447E-03     49.1127E-03     40.5096E+06     15.7614E+06     -66.345E+06    -66.2848E+06     15.7013E+06     40.5096E+06    -59.7561E+03         48.4494
             876     8.95995E-03     23.5274E-03     188.033E-03     185.303E-03    -630.621E-03     185.303E-03    -630.621E-03     188.033E-03    -686.846E-06     221.087E-03    -110.147E-03    -110.940E-03    -109.163E-03     219.642E-03    -110.479E-03     43.5468E-03     24.6399E+06    -36.2584E+06    -72.9266E+06    -71.7314E+06    -37.4537E+06     24.6399E+06     316.768E+03         46.9077
             877     8.06309E-03     23.4828E-03     188.289E-03     186.064E-03    -631.609E-03     186.064E-03    -631.609E-03     188.289E-03    -701.090E-06     221.074E-03    -110.205E-03    -110.870E-03    -109.561E-03     220.057E-03    -110.496E-03     36.4769E-03     6.87535E+06    -76.5878E+06    -99.1270E+06    -79.6547E+06    -96.0601E+06     6.87535E+06     248.734E+03         45.4969
             878     7.16926E-03     23.4446E-03     188.521E-03     186.746E-03    -632.501E-03     186.746E-03    -632.501E-03     188.521E-03    -703.935E-06     220.492E-03    -109.838E-03    -110.654E-03    -109.348E-03     219.845E-03    -110.497E-03     28.9752E-03    -12.0742E+06    -89.5903E+06    -143.884E+06    -89.6424E+06    -143.832E+06    -12.0742E+06     666.053E+03         44.2346
             879     6.26977E-03     23.4153E-03     188.727E-03     187.348E-03    -633.296E-03     187.348E-03    -633.296E-03     188.727E-03    -655.654E-06     219.983E-03    -109.439E-03    -110.545E-03    -109.055E-03     219.600E-03    -110.545E-03     22.2026E-03    -31.1214E+06    -99.5110E+06    -188.168E+06    -99.7733E+06    -187.905E+06    -31.1214E+06     460.396E+03         43.1312
             880     5.37295E-03     23.3926E-03     188.908E-03     187.892E-03    -633.999E-03     187.892E-03    -633.999E-03     188.908E-03    -616.620E-06     220.178E-03    -109.542E-03    -110.636E-03    -109.316E-03     219.952E-03    -110.636E-03     16.9851E-03    -48.1854E+06    -107.094E+06    -229.689E+06    -107.417E+06    -229.366E+06    -48.1854E+06    -143.102E+03         42.1913
             881     4.47764E-03     23.3755E-03     189.062E-03     188.339E-03    -634.598E-03     188.339E-03    -634.598E-03     189.062E-03    -518.496E-06     220.668E-03    -109.982E-03    -110.686E-03    -109.859E-03     220.545E-03    -110.686E-03     12.4511E-03    -69.6273E+06    -117.912E+06    -268.113E+06    -118.033E+06    -267.992E+06    -69.6273E+06    -1.52379E+06         41.4136
             882     3.58224E-03     23.3640E-03     189.192E-03     188.725E-03    -635.099E-03     188.725E-03    -635.099E-03     189.192E-03    -488.148E-06     220.954E-03    -110.259E-03    -110.695E-03    -110.206E-03     220.902E-03    -110.695E-03     8.03321E-03    -88.4892E+06    -127.774E+06    -300.063E+06    -127.811E+06    -300.025E+06    -88.4892E+06    -1.41778E+06         40.7926
             883     2.68587E-03     23.3562E-03     189.292E-03     189.031E-03    -635.501E-03     189.031E-03    -635.501E-03     189.292E-03    -283.084E-06     221.123E-03    -110.420E-03    -110.704E-03    -110.449E-03     221.104E-03    -110.656E-03     4.77731E-03    -107.720E+06    -136.198E+06    -329.546E+06    -136.224E+06    -329.521E+06    -107.720E+06     814.460E+03         40.3203
             884     1.79183E-03     23.3521E-03     189.367E-03     189.240E-03    -635.787E-03     189.240E-03    -635.787E-03     189.367E-03    -347.865E-06     221.205E-03    -110.404E-03    -110.800E-03    -110.713E-03     221.197E-03    -110.485E-03     3.03992E-03    -130.021E+06    -144.180E+06    -350.572E+06    -144.221E+06    -350.531E+06    -130.021E+06     1.21474E+06         39.9878
             885     896.423E-06     23.3493E-03     194.211E-03     184.586E-03    -635.957E-03     194.181E-03    -635.957E-03     184.615E-03    -51.7303E-06     220.639E-03    -110.065E-03    -110.574E-03    -110.394E-03     220.636E-03    -110.242E-03     1.45435E-03    -145.054E+06    -150.956E+06    -361.108E+06    -149.333E+06    -361.062E+06    -146.723E+06     1.63770E+06         39.7860
             886     15.2332E-03     22.9110E-03     185.620E-03     179.310E-03    -624.288E-03     179.309E-03    -624.286E-03     185.620E-03    -978.831E-06     229.514E-03    -110.782E-03    -118.733E-03    -111.377E-03     222.159E-03    -110.782E-03     97.8349E-03     140.161E+06     124.890E+06    -7.77605E+06    -7.16064E+06     124.275E+06     140.161E+06     4.41981E+06         58.9825
             887     14.3332E-03     22.7590E-03     185.991E-03     179.869E-03    -624.581E-03     179.869E-03    -624.580E-03     185.991E-03    -222.320E-06     230.737E-03    -110.683E-03    -120.054E-03    -112.656E-03     223.339E-03    -110.683E-03     98.4807E-03     126.337E+06     112.555E+06    -17.0835E+06    -16.6151E+06     112.087E+06     126.337E+06    -423.306E+03         57.1766
             888     13.4443E-03     22.6566E-03     186.359E-03     180.838E-03    -625.730E-03     180.838E-03    -625.730E-03     186.359E-03    -426.939E-06     225.991E-03    -110.506E-03    -115.485E-03    -111.240E-03     221.746E-03    -110.506E-03     75.6593E-03     102.815E+06     93.0405E+06    -30.5513E+06    -30.0767E+06     92.5660E+06     102.815E+06    -6.15933E+06         55.3723
             889     12.5461E-03     22.5611E-03     186.709E-03     181.850E-03    -626.916E-03     181.850E-03    -626.916E-03     186.709E-03    -777.951E-06     224.366E-03    -110.357E-03    -114.009E-03    -110.320E-03     220.677E-03    -110.357E-03     70.0942E-03     86.2536E+06     81.7846E+06    -35.2806E+06    -34.8582E+06     82.6650E+06     84.9509E+06    -4.00930E+06         53.5731
             890     11.6506E-03     22.4789E-03     187.035E-03     182.860E-03    -628.174E-03     182.860E-03    -628.174E-03     187.035E-03    -854.425E-06     222.889E-03    -110.238E-03    -112.651E-03    -109.665E-03     219.903E-03    -110.238E-03     62.9946E-03     75.9685E+06     66.1476E+06    -41.7539E+06    -41.2465E+06     75.4610E+06     66.1476E+06     3.50986E+06         51.7962
             891     10.7558E-03     22.4042E-03     187.336E-03     183.738E-03    -629.292E-03     183.738E-03    -629.292E-03     187.336E-03    -897.981E-06     221.908E-03    -110.193E-03    -111.715E-03    -109.266E-03     219.459E-03    -110.193E-03     56.7703E-03     63.2498E+06     50.5115E+06    -50.8889E+06    -50.4016E+06     60.0049E+06     53.2691E+06     5.25165E+06         50.0670
             892     9.85919E-03     22.3410E-03     187.615E-03     184.561E-03    -630.351E-03     184.560E-03    -630.350E-03     187.615E-03    -942.114E-06     220.846E-03    -109.993E-03    -110.853E-03    -108.744E-03     218.971E-03    -110.227E-03     49.6173E-03     43.0891E+06     17.2741E+06    -61.0013E+06    -60.4185E+06     18.1539E+06     41.6264E+06     20.5921E+03         48.4142
             893     8.95976E-03     22.2843E-03     187.872E-03     185.322E-03    -631.334E-03     185.322E-03    -631.334E-03     187.872E-03    -942.866E-06     220.236E-03    -109.719E-03    -110.517E-03    -108.551E-03     218.845E-03    -110.294E-03     42.5037E-03     25.2302E+06    -36.4105E+06    -70.8456E+06    -68.8193E+06    -38.4368E+06     25.2302E+06    -188.661E+03         46.8658
             894     8.06322E-03     22.2348E-03     188.106E-03     186.021E-03    -632.236E-03     186.021E-03    -632.235E-03     188.106E-03    -924.292E-06     220.258E-03    -109.752E-03    -110.506E-03    -108.981E-03     219.329E-03    -110.349E-03     34.7070E-03     5.21007E+06    -73.6356E+06    -101.814E+06    -78.6356E+06    -96.8139E+06     5.21007E+06     475.597E+03         45.4466
             895     7.16624E-03     22.1986E-03     188.317E-03     186.652E-03    -633.060E-03     186.652E-03    -633.060E-03     188.317E-03    -906.520E-06     220.584E-03    -109.921E-03    -110.663E-03    -109.639E-03     219.992E-03    -110.354E-03     27.6122E-03    -12.3535E+06    -87.7751E+06    -145.118E+06    -87.9128E+06    -144.980E+06    -12.3535E+06    -499.248E+03         44.1754
             896     6.27293E-03     22.1704E-03     188.506E-03     187.224E-03    -633.806E-03     187.224E-03    -633.806E-03     188.506E-03    -841.669E-06     220.472E-03    -109.832E-03    -110.639E-03    -109.821E-03     220.140E-03    -110.318E-03     20.6414E-03    -26.8867E+06    -95.7243E+06    -185.940E+06    -95.9676E+06    -185.697E+06    -26.8867E+06    -143.503E+03         43.0632
             897     5.37663E-03     22.1475E-03     188.671E-03     187.725E-03    -634.453E-03     187.725E-03    -634.453E-03     188.671E-03    -792.274E-06     220.080E-03    -109.641E-03    -110.439E-03    -109.642E-03     219.912E-03    -110.270E-03     14.6055E-03    -47.8356E+06    -107.990E+06    -230.564E+06    -108.274E+06    -230.280E+06    -47.8356E+06    -369.979E+03         42.1141
             898     4.47939E-03     22.1300E-03     188.812E-03     188.143E-03    -635.012E-03     188.142E-03    -635.012E-03     188.812E-03    -670.089E-06     219.851E-03    -109.604E-03    -110.247E-03    -109.523E-03     219.770E-03    -110.247E-03     10.1185E-03    -68.5727E+06    -118.053E+06    -266.435E+06    -118.176E+06    -266.311E+06    -68.5727E+06    -427.765E+03         41.3271
             899     3.58352E-03     22.1173E-03     188.930E-03     188.498E-03    -635.471E-03     188.498E-03    -635.470E-03     188.930E-03    -608.228E-06     219.969E-03    -109.725E-03    -110.244E-03    -109.689E-03     219.933E-03    -110.244E-03     6.64110E-03    -89.9547E+06    -127.498E+06    -300.969E+06    -127.532E+06    -300.935E+06    -89.9547E+06    -956.256E+03         40.6973
             900     2.68859E-03     22.1113E-03     189.025E-03     188.767E-03    -635.834E-03     188.767E-03    -635.834E-03     189.025E-03    -388.852E-06     220.306E-03    -109.948E-03    -110.359E-03    -110.097E-03     220.292E-03    -110.195E-03     4.30007E-03    -110.802E+06    -137.939E+06    -332.392E+06    -137.946E+06    -332.386E+06    -110.802E+06    -692.696E+03         40.2176
             901     1.79112E-03     22.1058E-03     189.098E-03     188.977E-03    -636.115E-03     188.979E-03    -636.114E-03     189.096E-03    -399.449E-06     220.339E-03    -109.919E-03    -110.420E-03    -110.342E-03     220.332E-03    -109.990E-03     2.33233E-03    -128.899E+06    -144.685E+06    -350.219E+06    -144.709E+06    -350.196E+06    -128.899E+06     528.185E+03         39.8797
             902     896.612E-06     22.1032E-03     192.957E-03     185.294E-03    -636.281E-03     192.937E-03    -636.281E-03     185.313E-03    -99.2071E-06     219.576E-03    -109.482E-03    -110.094E-03    -109.924E-03     219.574E-03    -109.649E-03     403.479E-06    -142.694E+06    -150.973E+06    -359.897E+06    -149.330E+06    -359.871E+06    -144.363E+06     763.261E+03         39.6745
             903     15.2303E-03     21.6569E-03     185.568E-03     179.856E-03    -625.455E-03     179.856E-03    -625.455E-03     185.568E-03     131.195E-06     231.982E-03    -110.676E-03    -121.306E-03    -113.932E-03     224.609E-03    -110.676E-03     99.8365E-03     141.236E+06     125.504E+06    -9.74742E+06    -9.41507E+06     125.172E+06     141.236E+06     904.175E+03         58.9559
             904     14.3466E-03     21.5077E-03     185.903E-03     180.237E-03    -625.663E-03     180.236E-03    -625.662E-03     185.903E-03    -945.601E-06     232.230E-03    -110.430E-03    -121.800E-03    -114.903E-03     225.333E-03    -110.430E-03     96.1125E-03     132.520E+06     116.860E+06    -13.1773E+06    -12.8954E+06     116.578E+06     132.520E+06     1.61390E+06         57.1545
             905     13.4463E-03     21.4109E-03     186.236E-03     181.209E-03    -626.628E-03     181.208E-03    -626.627E-03     186.236E-03    -1.38362E-03     225.085E-03    -110.155E-03    -114.930E-03    -110.759E-03     220.914E-03    -110.155E-03     74.8468E-03     105.286E+06     94.8763E+06    -24.0585E+06    -23.8285E+06     94.6463E+06     105.286E+06    -1.00401E+06         55.3514
             906     12.5516E-03     21.3151E-03     186.545E-03     182.221E-03    -627.864E-03     182.220E-03    -627.863E-03     186.545E-03    -1.32158E-03     222.776E-03    -110.019E-03    -112.758E-03    -109.096E-03     219.114E-03    -110.019E-03     69.5664E-03     78.6916E+06     74.8232E+06    -38.6568E+06    -38.2777E+06     76.1130E+06     77.0226E+06    -2.13772E+06         53.5492
             907     11.6537E-03     21.2338E-03     186.830E-03     183.026E-03    -628.892E-03     183.026E-03    -628.891E-03     186.830E-03    -1.18823E-03     221.540E-03    -109.983E-03    -111.557E-03    -108.616E-03     218.599E-03    -109.983E-03     62.2560E-03     68.6459E+06     60.2211E+06    -50.0014E+06    -49.4963E+06     68.1408E+06     60.2211E+06     610.495E+03         51.7673
             908     10.7550E-03     21.1582E-03     187.096E-03     183.828E-03    -629.914E-03     183.828E-03    -629.913E-03     187.096E-03    -1.18638E-03     221.141E-03    -109.991E-03    -111.150E-03    -108.780E-03     218.771E-03    -109.991E-03     55.7354E-03     62.8019E+06     53.7913E+06    -53.7360E+06    -53.2111E+06     62.2771E+06     53.7913E+06     2.59384E+06         50.0322
             909     9.85821E-03     21.0953E-03     187.342E-03     184.567E-03    -630.855E-03     184.566E-03    -630.855E-03     187.342E-03    -1.20184E-03     221.403E-03    -109.975E-03    -111.428E-03    -109.674E-03     219.650E-03    -109.975E-03     47.9630E-03     45.3909E+06     21.5758E+06    -57.9747E+06    -57.2055E+06     23.0613E+06     43.1361E+06     966.678E+03         48.3732
             910     8.96531E-03     21.0382E-03     187.569E-03     185.238E-03    -631.724E-03     185.237E-03    -631.724E-03     187.569E-03    -1.21310E-03     220.857E-03    -109.668E-03    -111.189E-03    -109.765E-03     219.676E-03    -109.911E-03     39.1732E-03     24.6173E+06    -36.5001E+06    -72.6419E+06    -67.4050E+06    -41.7370E+06     24.6173E+06    -301.473E+03         46.8180
             911     8.06768E-03     20.9923E-03     187.777E-03     185.873E-03    -632.539E-03     185.872E-03    -632.539E-03     187.777E-03    -1.17749E-03     219.465E-03    -109.213E-03    -110.253E-03    -108.882E-03     218.751E-03    -109.870E-03     30.3426E-03     8.25263E+06    -70.5118E+06    -100.945E+06    -76.3459E+06    -95.1113E+06     8.25263E+06     445.637E+03         45.3896
             912     7.17088E-03     20.9520E-03     187.966E-03     186.439E-03    -633.279E-03     186.438E-03    -633.278E-03     187.966E-03    -1.14314E-03     219.144E-03    -109.130E-03    -110.014E-03    -108.856E-03     218.718E-03    -109.862E-03     23.3682E-03    -10.4474E+06    -86.7639E+06    -144.155E+06    -87.2326E+06    -143.686E+06    -10.4474E+06     264.192E+03         44.1065
             913     6.27385E-03     20.9234E-03     188.136E-03     186.949E-03    -633.946E-03     186.949E-03    -633.946E-03     188.136E-03    -1.06854E-03     219.702E-03    -109.489E-03    -110.213E-03    -109.638E-03     219.446E-03    -109.807E-03     18.1756E-03    -28.2671E+06    -98.3748E+06    -186.760E+06    -98.5116E+06    -186.624E+06    -28.2671E+06     369.880E+03         42.9817
             914     5.37958E-03     20.9021E-03     188.285E-03     187.418E-03    -634.548E-03     187.418E-03    -634.547E-03     188.285E-03    -989.598E-06     219.869E-03    -109.583E-03    -110.286E-03    -110.080E-03     219.725E-03    -109.645E-03     13.4691E-03    -47.3821E+06    -107.231E+06    -228.837E+06    -107.411E+06    -228.657E+06    -47.3821E+06     228.112E+03         42.0206
             915     4.48444E-03     20.8863E-03     188.412E-03     187.804E-03    -635.061E-03     187.804E-03    -635.061E-03     188.412E-03    -846.107E-06     219.098E-03    -109.127E-03    -109.971E-03    -109.586E-03     219.040E-03    -109.454E-03     8.34926E-03    -67.6440E+06    -117.019E+06    -266.799E+06    -117.112E+06    -266.705E+06    -67.6440E+06    -575.555E+03         41.2222
             916     3.58647E-03     20.8741E-03     188.517E-03     188.123E-03    -635.481E-03     188.123E-03    -635.481E-03     188.517E-03    -737.542E-06     218.344E-03    -108.873E-03    -109.471E-03    -108.986E-03     218.326E-03    -109.340E-03     4.22567E-03    -88.8869E+06    -127.682E+06    -300.800E+06    -127.702E+06    -300.779E+06    -88.8869E+06    -208.177E+03         40.5819
             917     2.68838E-03     20.8666E-03     188.600E-03     188.381E-03    -635.814E-03     188.381E-03    -635.814E-03     188.600E-03    -503.533E-06     218.319E-03    -108.872E-03    -109.447E-03    -109.028E-03     218.312E-03    -109.284E-03     2.34442E-03    -110.907E+06    -137.077E+06    -332.713E+06    -137.080E+06    -332.711E+06    -110.907E+06    -469.152E+03         40.0932
             918     1.79476E-03     20.8605E-03     188.670E-03     188.533E-03    -636.052E-03     188.534E-03    -636.052E-03     188.668E-03    -471.707E-06     218.287E-03    -108.886E-03    -109.401E-03    -109.046E-03     218.283E-03    -109.237E-03     1.14381E-03    -130.299E+06    -144.000E+06    -350.389E+06    -144.007E+06    -350.382E+06    -130.299E+06    -1.09412E+06         39.7483
             919     896.287E-06     20.8622E-03     191.842E-03     185.564E-03    -636.222E-03     191.777E-03    -636.222E-03     185.628E-03    -96.5889E-06     218.356E-03    -108.774E-03    -109.582E-03    -109.439E-03     218.355E-03    -108.917E-03    -236.122E-06    -145.254E+06    -152.035E+06    -361.095E+06    -151.021E+06    -361.088E+06    -146.275E+06    -1.11181E+06         39.5388
             920     15.2379E-03     20.3977E-03     185.475E-03     180.053E-03    -625.403E-03     180.051E-03    -625.401E-03     185.475E-03     556.180E-06     231.411E-03    -110.409E-03    -121.002E-03    -113.736E-03     224.145E-03    -110.409E-03     98.4719E-03     143.051E+06     125.509E+06    -7.45486E+06    -7.28429E+06     125.339E+06     143.051E+06    -2.89040E+06         58.9385
             921     14.3415E-03     20.2555E-03     185.767E-03     181.088E-03    -626.448E-03     181.086E-03    -626.447E-03     185.767E-03    -1.69988E-03     229.393E-03    -110.214E-03    -119.180E-03    -112.118E-03     222.332E-03    -110.214E-03     96.6697E-03     126.323E+06     110.765E+06    -15.6452E+06    -15.4942E+06     110.614E+06     126.323E+06    -2.90807E+06         57.1341
             922     13.4533E-03     20.1644E-03     186.029E-03     182.032E-03    -627.771E-03     182.031E-03    -627.770E-03     186.029E-03    -1.67009E-03     225.762E-03    -110.026E-03    -115.736E-03    -111.151E-03     221.177E-03    -110.026E-03     78.5238E-03     103.705E+06     93.1317E+06    -25.0958E+06    -24.6308E+06     92.6666E+06     103.705E+06     4.78086E+06         55.3274
             923     12.5540E-03     20.0720E-03     186.272E-03     182.591E-03    -628.589E-03     182.590E-03    -628.589E-03     186.272E-03    -1.30935E-03     224.574E-03    -109.832E-03    -114.741E-03    -110.816E-03     220.648E-03    -109.832E-03     72.2060E-03     82.0457E+06     77.1631E+06    -36.8688E+06    -36.2936E+06     78.0458E+06     80.5878E+06     7.04931E+06         53.5241
             924     11.6570E-03     19.9886E-03     186.507E-03     183.196E-03    -629.409E-03     183.195E-03    -629.408E-03     186.507E-03    -1.34012E-03     222.796E-03    -109.635E-03    -113.161E-03    -110.439E-03     220.074E-03    -109.635E-03     59.9119E-03     71.4201E+06     61.6941E+06    -46.7610E+06    -46.5789E+06     71.2380E+06     61.6941E+06     743.279E+03         51.7408
             925     10.7606E-03     19.9156E-03     186.731E-03     183.816E-03    -630.224E-03     183.815E-03    -630.223E-03     186.731E-03    -1.36218E-03     221.436E-03    -109.476E-03    -111.960E-03    -110.050E-03     219.526E-03    -109.476E-03     50.0168E-03     61.5237E+06     51.9306E+06    -56.7089E+06    -56.5874E+06     61.4022E+06     51.9306E+06    -3.43857E+06         50.0020
             926     9.86503E-03     19.8466E-03     186.943E-03     184.441E-03    -631.030E-03     184.440E-03    -631.029E-03     186.943E-03    -1.41992E-03     220.900E-03    -109.315E-03    -111.585E-03    -110.270E-03     219.585E-03    -109.315E-03     41.2568E-03     42.0583E+06     22.4472E+06      -65.14E+06    -64.6572E+06     23.2893E+06     40.7334E+06    -1.74665E+06         48.3361
             927     8.96882E-03     19.7916E-03     187.141E-03     185.040E-03    -631.803E-03     185.040E-03    -631.802E-03     187.141E-03    -1.45800E-03     220.224E-03    -109.110E-03    -111.115E-03    -110.288E-03     219.398E-03    -109.110E-03     32.4193E-03     23.4439E+06    -35.5143E+06    -75.3187E+06     -70.598E+06    -40.2350E+06     23.4439E+06    -941.048E+03         46.7712
             928     8.07581E-03     19.7470E-03     187.323E-03     185.602E-03    -632.522E-03     185.602E-03    -632.521E-03     187.323E-03    -1.44906E-03     218.775E-03    -108.760E-03    -110.015E-03    -109.364E-03     218.282E-03    -108.918E-03     24.9565E-03     7.31927E+06    -74.7317E+06    -102.276E+06    -79.3777E+06    -97.6304E+06     7.31927E+06    -487.928E+03         45.3310
             929     7.17869E-03     19.7108E-03     187.489E-03     186.114E-03    -633.189E-03     186.113E-03    -633.188E-03     187.489E-03    -1.40119E-03     217.448E-03    -108.306E-03    -109.142E-03    -108.387E-03     217.169E-03    -108.782E-03     18.6184E-03    -9.68175E+06    -86.6773E+06    -142.528E+06    -87.1632E+06    -142.042E+06    -9.68175E+06     971.302E+03         44.0339
             930     6.28074E-03     19.6798E-03     187.637E-03     186.572E-03    -633.788E-03     186.572E-03    -633.788E-03     187.637E-03    -1.31076E-03     217.079E-03    -108.205E-03    -108.874E-03    -108.240E-03     216.939E-03    -108.699E-03     12.6429E-03    -28.2370E+06    -96.1874E+06    -186.234E+06    -96.2218E+06    -186.199E+06    -28.2370E+06    -383.888E+03         42.8934
             931     5.38298E-03     19.6569E-03     187.768E-03     186.987E-03    -634.321E-03     186.987E-03    -634.321E-03     187.768E-03    -1.20338E-03     217.219E-03    -108.136E-03    -109.082E-03    -108.539E-03     217.149E-03    -108.610E-03     8.65199E-03    -44.5091E+06    -105.428E+06    -228.474E+06    -105.476E+06    -228.426E+06    -44.5091E+06    -275.754E+03         41.9164
             932     4.48764E-03     19.6416E-03     187.881E-03     187.332E-03    -634.784E-03     187.332E-03    -634.784E-03     187.881E-03    -1.02687E-03     217.263E-03    -108.135E-03    -109.128E-03    -108.796E-03     217.229E-03    -108.433E-03     6.14285E-03    -64.8064E+06    -115.512E+06    -265.784E+06    -115.562E+06    -265.734E+06    -64.8064E+06     772.625E+03         41.1035
             933     3.59270E-03     19.6336E-03     187.974E-03     187.622E-03    -635.170E-03     187.622E-03    -635.170E-03     187.974E-03    -886.466E-06     216.801E-03    -108.147E-03    -108.653E-03    -108.582E-03     216.785E-03    -108.202E-03     3.92265E-03    -86.4560E+06    -126.463E+06    -300.985E+06    -126.499E+06    -300.948E+06    -86.4560E+06    -553.669E+03         40.4509
             934     2.69616E-03     19.6247E-03     188.045E-03     187.864E-03    -635.474E-03     187.864E-03    -635.474E-03     188.045E-03    -636.490E-06     215.877E-03    -107.680E-03    -108.198E-03    -107.815E-03     215.870E-03    -108.055E-03     1.94072E-03    -106.813E+06    -135.017E+06    -331.445E+06    -135.032E+06    -331.429E+06    -106.813E+06    -493.842E+03         39.9518
             935     1.79393E-03     19.6219E-03     188.107E-03     187.983E-03    -635.679E-03     187.989E-03    -635.679E-03     188.101E-03    -505.631E-06     215.582E-03    -107.490E-03    -108.091E-03    -107.489E-03     215.581E-03    -108.091E-03     471.270E-06    -130.070E+06    -144.072E+06    -351.024E+06    -144.081E+06    -351.015E+06    -130.070E+06    -331.449E+03         39.5990
             936     897.493E-06     19.6178E-03     190.446E-03     185.813E-03    -635.807E-03     190.382E-03    -635.807E-03     185.877E-03    -353.491E-06     216.260E-03    -107.652E-03    -108.608E-03    -108.139E-03     216.259E-03    -108.120E-03    -133.739E-06    -146.407E+06    -152.694E+06    -362.848E+06    -151.677E+06    -362.845E+06    -147.428E+06    -819.236E+03         39.3843
             937     15.2507E-03     19.1653E-03     185.284E-03     180.760E-03    -624.999E-03     180.758E-03    -624.998E-03     185.284E-03    -524.365E-06     230.022E-03    -110.211E-03    -119.811E-03    -111.911E-03     222.122E-03    -110.211E-03     100.359E-03     142.886E+06     125.411E+06    -3.97249E+06    -3.66816E+06     125.107E+06     142.886E+06    -3.13223E+06         58.9249
             938     14.3461E-03     19.0090E-03     185.492E-03     182.053E-03    -627.531E-03     182.052E-03    -627.530E-03     185.492E-03    -1.09606E-03     229.343E-03    -110.095E-03    -119.249E-03    -111.389E-03     221.483E-03    -110.095E-03     99.7403E-03     121.346E+06     106.658E+06    -18.4865E+06    -17.9828E+06     106.154E+06     121.346E+06     3.00958E+06         57.1169
             939     13.4422E-03     18.9164E-03     185.678E-03     182.291E-03    -628.270E-03     182.291E-03    -628.270E-03     185.678E-03    -594.647E-06     227.226E-03    -109.854E-03    -117.372E-03    -113.493E-03     223.347E-03    -109.854E-03     71.7959E-03     98.5472E+06     89.0130E+06    -32.4313E+06    -31.5922E+06     88.1739E+06     98.5472E+06     5.70884E+06         55.3095
             940     12.5529E-03     18.8208E-03     185.872E-03     182.653E-03    -628.859E-03     182.653E-03    -628.858E-03     185.872E-03    -1.04405E-03     226.867E-03    -109.441E-03    -117.426E-03    -114.369E-03     223.810E-03    -109.441E-03     62.9311E-03     86.0419E+06     81.2742E+06    -36.1733E+06    -35.6206E+06     81.7345E+06     85.0290E+06     3.75792E+06         53.5085
             941     11.6635E-03     18.7398E-03     186.066E-03     183.157E-03    -629.553E-03     183.157E-03    -629.553E-03     186.066E-03    -1.30228E-03     224.727E-03    -108.922E-03    -115.805E-03    -113.846E-03     222.768E-03    -108.922E-03     50.6615E-03     79.0019E+06     69.1070E+06    -39.8941E+06    -39.7829E+06     78.5343E+06     69.4633E+06     2.20961E+06         51.7265
             942     10.7727E-03     18.6679E-03     186.254E-03     183.676E-03    -630.229E-03     183.675E-03    -630.229E-03     186.254E-03    -1.54638E-03     222.353E-03    -108.424E-03    -113.928E-03    -112.591E-03     221.015E-03    -108.424E-03     41.8646E-03     65.8687E+06     55.7043E+06    -48.7420E+06    -48.6566E+06     64.6774E+06     56.8102E+06    -915.629E+03         49.9854
             943     9.87880E-03     18.6024E-03     186.435E-03     184.210E-03    -630.915E-03     184.209E-03    -630.914E-03     186.435E-03    -1.68135E-03     219.613E-03    -108.018E-03    -111.595E-03    -110.734E-03     218.752E-03    -108.018E-03     33.2229E-03     44.3824E+06     22.4899E+06    -59.3388E+06    -59.0605E+06     22.7444E+06     43.8496E+06    -3.70566E+06         48.3119
             944     8.98436E-03     18.5467E-03     186.604E-03     184.728E-03    -631.587E-03     184.727E-03    -631.586E-03     186.604E-03    -1.74759E-03     217.594E-03    -107.688E-03    -109.906E-03    -109.426E-03     217.113E-03    -107.688E-03     24.5910E-03     24.7977E+06    -36.8602E+06    -73.4708E+06    -69.6551E+06    -40.6759E+06     24.7977E+06    -2.54251E+06         46.7340
             945     8.08629E-03     18.5040E-03     186.762E-03     185.230E-03    -632.228E-03     185.229E-03    -632.227E-03     186.762E-03    -1.74318E-03     216.705E-03    -107.380E-03    -109.326E-03    -109.076E-03     216.455E-03    -107.380E-03     17.3618E-03     7.41200E+06    -73.9608E+06    -102.270E+06    -77.9993E+06    -98.2316E+06     7.41200E+06    -1.66155E+06         45.2782
             946     7.19059E-03     18.4691E-03     186.905E-03     185.689E-03    -632.824E-03     185.688E-03    -632.823E-03     186.905E-03    -1.68741E-03     215.634E-03    -107.053E-03    -108.581E-03    -108.457E-03     215.510E-03    -107.053E-03     11.7546E-03    -10.0959E+06    -87.5147E+06    -143.408E+06    -87.6604E+06    -143.263E+06    -10.0959E+06    -1.76935E+06         43.9649
             947     6.29427E-03     18.4395E-03     187.032E-03     186.105E-03    -633.367E-03     186.104E-03    -633.367E-03     187.032E-03    -1.57161E-03     213.917E-03    -106.553E-03    -107.364E-03    -107.068E-03     213.873E-03    -106.804E-03     6.38184E-03    -26.1969E+06    -95.9664E+06    -184.193E+06    -96.0226E+06    -184.137E+06    -26.1969E+06    -108.260E+03         42.8071
             948     5.39561E-03     18.4189E-03     187.143E-03     186.463E-03    -633.835E-03     186.463E-03    -633.835E-03     187.143E-03    -1.43013E-03     212.482E-03    -105.756E-03    -106.726E-03    -105.746E-03     212.472E-03    -106.726E-03     2.57792E-03    -44.6915E+06    -105.219E+06    -228.998E+06    -105.246E+06    -228.971E+06    -44.6915E+06    -299.457E+03         41.8116
             949     4.49353E-03     18.4024E-03     187.240E-03     186.757E-03    -634.238E-03     186.757E-03    -634.238E-03     187.240E-03    -1.22044E-03     212.256E-03    -105.288E-03    -106.968E-03    -105.454E-03     212.245E-03    -106.791E-03     1.22707E-03    -64.6796E+06    -116.289E+06    -266.167E+06    -116.314E+06    -266.142E+06    -64.6796E+06     33.4448E+03         40.9809
             950     3.59402E-03     18.3919E-03     187.321E-03     187.008E-03    -634.573E-03     187.008E-03    -634.573E-03     187.321E-03    -1.03761E-03     212.925E-03    -105.732E-03    -107.193E-03    -106.038E-03     212.911E-03    -106.873E-03     1.51346E-03    -86.2425E+06    -126.158E+06    -298.566E+06    -126.193E+06    -298.531E+06    -86.2425E+06     845.949E+03         40.3128
             951     2.69523E-03     18.3881E-03     187.385E-03     187.214E-03    -634.839E-03     187.214E-03    -634.839E-03     187.385E-03    -765.719E-06     213.542E-03    -106.400E-03    -107.142E-03    -106.667E-03     213.534E-03    -106.867E-03     1.75059E-03    -109.120E+06    -137.436E+06    -332.421E+06    -137.466E+06    -332.391E+06    -109.120E+06    -30.1488E+03         39.8018
             952     1.79995E-03     18.3836E-03     187.438E-03     187.339E-03    -635.039E-03     187.344E-03    -635.039E-03     187.433E-03    -604.084E-06     213.503E-03    -106.496E-03    -107.007E-03    -106.736E-03     213.502E-03    -106.765E-03     711.801E-06    -129.074E+06    -144.950E+06    -351.302E+06    -144.969E+06    -351.283E+06    -129.074E+06     369.630E+03         39.4404
             953     898.659E-06     18.3814E-03     189.160E-03     185.747E-03    -635.151E-03     189.119E-03    -635.151E-03     185.788E-03    -196.677E-06     213.297E-03    -106.201E-03    -107.095E-03    -106.749E-03     213.296E-03    -106.546E-03    -315.136E-06    -147.209E+06    -153.577E+06    -363.031E+06    -152.874E+06    -363.022E+06    -147.920E+06     262.090E+03         39.2203
             954     15.2317E-03     17.9179E-03     184.846E-03     180.918E-03    -626.007E-03     180.913E-03    -626.002E-03     184.846E-03    -1.37405E-03     234.277E-03    -110.209E-03    -124.068E-03    -116.403E-03     226.612E-03    -110.209E-03     101.030E-03     138.858E+06     123.469E+06    -7.66771E+06    -7.22906E+06     123.030E+06     138.858E+06     2.87874E+06         58.9129
             955     14.3437E-03     17.7588E-03     185.009E-03     181.550E-03    -627.598E-03     181.549E-03    -627.597E-03     185.009E-03     744.143E-06     235.501E-03    -109.703E-03    -125.799E-03    -119.197E-03     228.900E-03    -109.703E-03     90.7125E-03     118.377E+06     104.799E+06    -25.5270E+06    -24.7974E+06     104.070E+06     118.377E+06     3.31956E+06         57.1157
             956     13.4634E-03     17.6643E-03     185.177E-03     181.784E-03    -627.936E-03     181.783E-03    -627.936E-03     185.177E-03    -296.254E-06     229.197E-03    -109.025E-03    -120.172E-03    -117.700E-03     226.725E-03    -109.025E-03     58.2747E-03     103.144E+06     92.6941E+06    -31.7454E+06    -31.0735E+06     92.0223E+06     103.144E+06    -1.29581E+06         55.3180
             957     12.5731E-03     17.5680E-03     185.355E-03     182.356E-03    -628.655E-03     182.356E-03    -628.654E-03     185.355E-03    -971.879E-06     226.830E-03    -108.276E-03    -118.554E-03    -116.735E-03     225.011E-03    -108.276E-03     49.3326E-03     88.1422E+06     83.7335E+06    -34.2281E+06    -34.1257E+06     83.6311E+06     88.1422E+06    -2.88827E+06         53.5200
             958     11.6814E-03     17.4904E-03     185.526E-03     182.857E-03    -629.274E-03     182.857E-03    -629.274E-03     185.526E-03    -1.49637E-03     223.964E-03    -107.486E-03    -116.477E-03    -115.360E-03     222.846E-03    -107.486E-03     38.5907E-03     78.5813E+06     70.8813E+06    -40.6162E+06    -40.4558E+06     78.0573E+06     71.2449E+06    -1.70145E+06         51.7362
             959     10.7897E-03     17.4182E-03     185.690E-03     183.393E-03    -629.936E-03     183.392E-03    -629.935E-03     185.690E-03    -1.84609E-03     221.181E-03    -106.737E-03    -114.444E-03    -113.685E-03     220.423E-03    -106.737E-03     30.9706E-03     68.7382E+06     60.1889E+06    -46.0645E+06    -45.9083E+06     67.4761E+06     61.2948E+06    -754.825E+03         49.9893
             960     9.89822E-03     17.3589E-03     185.843E-03     183.892E-03    -630.561E-03     183.891E-03    -630.559E-03     185.843E-03    -2.05690E-03     217.598E-03    -106.084E-03    -111.514E-03    -111.076E-03     217.160E-03    -106.084E-03     22.9038E-03     47.1426E+06     24.9117E+06    -54.7826E+06    -54.7385E+06     24.9745E+06     47.0357E+06    -596.659E+03         48.3060
             961     9.00101E-03     17.3071E-03     185.986E-03     184.356E-03    -631.157E-03     184.355E-03    -631.156E-03     185.986E-03    -2.13913E-03     214.675E-03    -105.551E-03    -109.124E-03    -108.891E-03     214.441E-03    -105.551E-03     15.9782E-03     26.3436E+06    -37.0363E+06    -68.6774E+06    -65.2971E+06    -40.4166E+06     26.3436E+06    -1.93228E+06         46.7142
             962     8.10577E-03     17.2639E-03     186.118E-03     184.798E-03    -631.726E-03     184.797E-03    -631.725E-03     186.118E-03    -2.11448E-03     213.163E-03    -105.079E-03    -108.084E-03    -107.997E-03     213.076E-03    -105.079E-03     9.12005E-03     7.23153E+06    -75.9799E+06    -99.5695E+06    -77.2979E+06    -98.2514E+06     7.23153E+06    -1.71998E+06         45.2414
             963     7.20885E-03     17.2297E-03     186.237E-03     185.203E-03    -632.252E-03     185.202E-03    -632.251E-03     186.237E-03    -2.02064E-03     211.467E-03    -104.624E-03    -106.843E-03    -106.817E-03     211.441E-03    -104.624E-03     4.18699E-03    -10.3816E+06    -87.2648E+06    -142.409E+06    -87.3123E+06    -142.361E+06    -10.3816E+06    -692.394E+03         43.9090
             964     6.30994E-03     17.2044E-03     186.342E-03     185.554E-03    -632.721E-03     185.553E-03    -632.720E-03     186.342E-03    -1.85939E-03     209.395E-03    -104.197E-03    -105.198E-03    -105.113E-03     209.386E-03    -104.273E-03     832.181E-06    -28.6329E+06    -97.4878E+06    -184.629E+06    -97.5786E+06    -184.538E+06    -28.6329E+06    -706.116E+03         42.7311
             965     5.40875E-03     17.1861E-03     186.434E-03     185.867E-03    -633.134E-03     185.867E-03    -633.133E-03     186.434E-03    -1.66379E-03     207.725E-03    -103.453E-03    -104.273E-03    -103.612E-03     207.717E-03    -104.106E-03    -1.86871E-03    -48.3007E+06    -108.529E+06    -228.625E+06    -108.618E+06    -228.536E+06    -48.3007E+06     208.694E+03         41.7161
             966     4.50831E-03     17.1715E-03     186.513E-03     186.115E-03    -633.478E-03     186.114E-03    -633.477E-03     186.513E-03    -1.42360E-03     206.728E-03    -102.581E-03    -104.148E-03    -102.568E-03     206.716E-03    -104.148E-03    -3.57860E-03    -69.6792E+06    -118.764E+06    -267.309E+06    -118.813E+06    -267.260E+06    -69.6792E+06    -58.7966E+03         40.8668
             967     3.60314E-03     17.1609E-03     186.579E-03     186.312E-03    -633.760E-03     186.312E-03    -633.759E-03     186.579E-03    -1.18109E-03     207.094E-03    -102.742E-03    -104.353E-03    -102.716E-03     207.069E-03    -104.353E-03    -4.77933E-03    -90.6160E+06    -128.942E+06    -298.430E+06    -128.960E+06    -298.412E+06    -90.6160E+06     186.245E+03         40.1821
             968     2.70084E-03     17.1512E-03     186.631E-03     186.488E-03    -633.983E-03     186.487E-03    -633.983E-03     186.631E-03    -877.150E-06     208.326E-03    -103.646E-03    -104.680E-03    -103.740E-03     208.288E-03    -104.548E-03    -4.83756E-03    -110.486E+06    -137.625E+06    -329.757E+06    -137.650E+06    -329.732E+06    -110.486E+06     831.928E+03         39.6575
             969     1.79851E-03     17.1482E-03     186.678E-03     186.573E-03    -634.149E-03     186.573E-03    -634.149E-03     186.678E-03    -644.525E-06     209.143E-03    -104.228E-03    -104.914E-03    -104.603E-03     209.112E-03    -104.509E-03    -3.52753E-03    -133.280E+06    -148.209E+06    -353.710E+06    -148.238E+06    -353.680E+06    -133.280E+06     135.910E+03         39.2864
             970     901.270E-06     17.1468E-03     188.089E-03     185.319E-03    -634.273E-03     188.030E-03    -634.273E-03     185.378E-03    -423.006E-06     208.759E-03    -103.955E-03    -104.803E-03    -104.656E-03     208.747E-03    -104.091E-03    -2.10431E-03    -145.940E+06    -152.196E+06    -361.449E+06    -151.504E+06    -361.429E+06    -146.651E+06     425.822E+03         39.0602
             971     15.2452E-03     16.6526E-03     184.260E-03     180.584E-03    -628.096E-03     180.579E-03    -628.091E-03     184.260E-03    -1.39358E-03     243.728E-03    -109.960E-03    -133.768E-03    -127.835E-03     237.795E-03    -109.960E-03     93.2938E-03     137.334E+06     121.434E+06    -13.5010E+06    -12.6851E+06     120.618E+06     137.334E+06     4.58490E+06         58.9187
             972     14.3698E-03     16.4973E-03     184.432E-03     180.508E-03    -626.806E-03     180.505E-03    -626.803E-03     184.432E-03    -409.584E-06     239.465E-03    -108.873E-03    -130.592E-03    -125.800E-03     234.673E-03    -108.873E-03     80.8913E-03     129.923E+06     115.386E+06    -15.6522E+06    -14.8634E+06     114.597E+06     129.923E+06     4.01646E+06         57.1384
             973     13.4795E-03     16.4096E-03     184.610E-03     181.397E-03    -627.617E-03     181.397E-03    -627.617E-03     184.610E-03    -1.12622E-03     231.567E-03    -107.768E-03    -123.799E-03    -121.457E-03     229.225E-03    -107.768E-03     57.3850E-03     110.203E+06     97.6182E+06    -22.5446E+06    -22.1017E+06     97.1754E+06     110.203E+06    -2.95855E+06         55.3488
             974     12.5940E-03     16.3158E-03     184.774E-03     181.961E-03    -628.175E-03     181.960E-03    -628.174E-03     184.774E-03    -1.62258E-03     228.552E-03    -106.661E-03    -121.892E-03    -120.227E-03     226.887E-03    -106.661E-03     47.1790E-03     88.4679E+06     82.6916E+06    -32.7910E+06    -32.6123E+06     82.5129E+06     88.4679E+06    -4.33349E+06         53.5538
             975     11.7069E-03     16.2421E-03     184.927E-03     182.536E-03    -628.830E-03     182.535E-03    -628.828E-03     184.927E-03    -2.09693E-03     223.910E-03    -105.526E-03    -118.384E-03    -117.590E-03     223.116E-03    -105.526E-03     32.6571E-03     76.6571E+06     69.5052E+06    -41.8177E+06    -41.6222E+06     75.9175E+06     70.0494E+06    -4.53852E+06         51.7695
             976     10.8173E-03     16.1723E-03     185.068E-03     183.045E-03    -629.437E-03     183.044E-03    -629.435E-03     185.068E-03    -2.39728E-03     219.350E-03    -104.475E-03    -114.875E-03    -114.459E-03     218.934E-03    -104.475E-03     22.8927E-03     66.1538E+06     57.6801E+06    -51.5929E+06    -51.4714E+06     66.0322E+06     57.6801E+06    -2.10958E+06         50.0172
             977     9.92316E-03     16.1179E-03     185.197E-03     183.527E-03    -630.032E-03     183.525E-03    -630.029E-03     185.197E-03    -2.56484E-03     215.540E-03    -103.528E-03    -112.012E-03    -111.858E-03     215.387E-03    -103.528E-03     13.0545E-03     45.4495E+06     24.4405E+06    -59.8798E+06    -59.8462E+06     26.2728E+06     43.5836E+06    -450.633E+03         48.3244
             978     9.02962E-03     16.0704E-03     185.314E-03     183.963E-03    -630.585E-03     183.961E-03    -630.583E-03     185.314E-03    -2.60628E-03     211.893E-03    -102.670E-03    -109.222E-03    -109.175E-03     211.845E-03    -102.670E-03     5.51890E-03     23.6231E+06    -37.9745E+06    -68.0798E+06    -67.7752E+06    -38.2791E+06     23.6231E+06    -208.943E+03         46.7201
             979     8.13099E-03     16.0288E-03     185.418E-03     184.346E-03    -631.085E-03     184.344E-03    -631.083E-03     185.418E-03    -2.53552E-03     208.220E-03    -101.955E-03    -106.265E-03    -106.235E-03     208.189E-03    -101.955E-03    -599.765E-06     5.32953E+06    -75.9625E+06    -98.6902E+06    -77.3447E+06    -97.3080E+06     5.32953E+06    -22.6057E+03         45.2305
             980     7.23098E-03     15.9985E-03     185.510E-03     184.684E-03    -631.533E-03     184.683E-03    -631.531E-03     185.510E-03    -2.38055E-03     205.382E-03    -101.391E-03    -103.991E-03    -103.930E-03     205.321E-03    -101.391E-03    -5.52457E-03    -12.5569E+06     -87.422E+06    -142.184E+06    -87.4384E+06    -142.167E+06    -12.5569E+06     287.708E+03         43.8778
             981     6.32842E-03     15.9761E-03     185.592E-03     184.971E-03    -631.928E-03     184.970E-03    -631.927E-03     185.592E-03    -2.15531E-03     203.471E-03    -100.959E-03    -102.512E-03    -102.418E-03     203.377E-03    -100.959E-03    -8.46897E-03    -32.0627E+06    -98.9254E+06    -184.068E+06    -99.0520E+06    -183.941E+06    -32.0627E+06     1.15886E+06         42.6788
             982     5.42651E-03     15.9581E-03     185.662E-03     185.220E-03    -632.268E-03     185.219E-03    -632.267E-03     185.662E-03    -1.89715E-03     202.289E-03    -100.463E-03    -101.826E-03    -101.539E-03     202.159E-03    -100.620E-03    -10.6171E-03    -51.7280E+06    -109.707E+06    -228.522E+06    -109.872E+06    -228.358E+06    -51.7280E+06     857.460E+03         41.6438
             983     4.52101E-03     15.9473E-03     185.720E-03     185.420E-03    -632.556E-03     185.419E-03    -632.555E-03     185.720E-03    -1.59434E-03     201.276E-03    -99.9742E-03    -101.301E-03    -100.795E-03     201.130E-03    -100.335E-03    -11.4652E-03    -71.5292E+06    -120.111E+06    -265.179E+06    -120.198E+06    -265.093E+06    -71.5292E+06     808.983E+03         40.7764
             984     3.61964E-03     15.9342E-03     185.767E-03     185.573E-03    -632.784E-03     185.572E-03    -632.784E-03     185.767E-03    -1.30846E-03     200.232E-03    -99.6708E-03    -100.561E-03    -99.9757E-03     200.116E-03    -100.140E-03    -10.8801E-03    -93.2876E+06    -130.548E+06    -298.427E+06    -130.588E+06    -298.388E+06    -93.2876E+06     192.948E+03         40.0754
             985     2.71509E-03     15.9274E-03     185.803E-03     185.699E-03    -632.961E-03     185.699E-03    -632.961E-03     185.803E-03    -966.841E-06     199.695E-03    -99.5356E-03    -100.159E-03    -99.5046E-03     199.612E-03    -100.107E-03    -9.85635E-03    -113.433E+06    -139.498E+06    -329.335E+06    -139.513E+06    -329.319E+06    -113.433E+06    -154.696E+03         39.5366
             986     1.81060E-03     15.9206E-03     185.833E-03     185.768E-03    -633.092E-03     185.768E-03    -633.092E-03     185.833E-03    -707.115E-06     199.869E-03    -99.5026E-03    -100.366E-03    -99.6159E-03     199.818E-03    -100.202E-03    -7.64430E-03    -134.581E+06    -148.057E+06    -351.655E+06    -148.079E+06    -351.633E+06    -134.581E+06    -218.838E+03         39.1544
             987     904.216E-06     15.9189E-03     186.593E-03     185.102E-03    -633.160E-03     186.562E-03    -633.160E-03     185.133E-03    -396.698E-06     200.504E-03    -99.8650E-03    -100.639E-03    -100.007E-03     200.482E-03    -100.475E-03    -4.79647E-03    -147.148E+06    -153.933E+06    -363.085E+06    -151.537E+06    -363.038E+06    -149.592E+06    -1.27740E+06         38.9214
             988     15.2545E-03     15.3667E-03     183.796E-03     181.259E-03    -627.936E-03     181.256E-03    -627.934E-03     183.796E-03    -180.150E-06     248.306E-03    -109.505E-03    -138.801E-03    -132.822E-03     242.327E-03    -109.505E-03     94.8952E-03     136.780E+06     119.579E+06    -15.9037E+06    -14.5130E+06     118.189E+06     136.780E+06    -1.87899E+06         58.9430
             989     14.3750E-03     15.2414E-03     183.919E-03     181.044E-03    -627.190E-03     181.042E-03    -627.188E-03     183.919E-03    -2.33205E-03     243.066E-03    -108.128E-03    -134.938E-03    -130.020E-03     238.148E-03    -108.128E-03     83.4036E-03     133.586E+06     117.271E+06    -13.8890E+06    -12.7477E+06     116.129E+06     133.586E+06     694.884E+03         57.1707
             990     13.4945E-03     15.1493E-03     184.055E-03     181.396E-03    -627.357E-03     181.395E-03    -627.355E-03     184.055E-03    -2.16496E-03     236.444E-03    -106.647E-03    -129.797E-03    -127.466E-03     234.113E-03    -106.647E-03     58.0243E-03     115.710E+06     102.687E+06    -17.4385E+06    -17.0867E+06     102.336E+06     115.710E+06     2.77056E+06         55.3891
             991     12.6133E-03     15.0593E-03     184.187E-03     181.862E-03    -627.825E-03     181.859E-03    -627.823E-03     184.187E-03    -2.64002E-03     231.513E-03    -105.062E-03    -126.451E-03    -125.047E-03     230.110E-03    -105.062E-03     43.5844E-03     89.0367E+06     82.2394E+06    -31.5116E+06    -31.2082E+06     83.5072E+06     87.4654E+06    -980.728E+03         53.6016
             992     11.7310E-03     14.9891E-03     184.310E-03     182.321E-03    -628.348E-03     182.318E-03    -628.345E-03     184.310E-03    -2.92776E-03     225.355E-03    -103.480E-03    -121.875E-03    -121.263E-03     224.743E-03    -103.480E-03     28.6552E-03     74.8364E+06     65.9628E+06    -42.3384E+06    -42.2619E+06     74.2230E+06     66.4996E+06    -2.27825E+06         51.8208
             993     10.8432E-03     14.9310E-03     184.422E-03     182.780E-03    -628.906E-03     182.777E-03    -628.903E-03     184.422E-03    -3.13368E-03     219.831E-03    -101.991E-03    -117.840E-03    -117.570E-03     219.561E-03    -101.991E-03     17.9653E-03     65.2964E+06     56.1154E+06    -50.5245E+06    -50.4811E+06     65.2530E+06     56.1154E+06    -1.83673E+06         50.0680
             994     9.95357E-03     14.8764E-03     184.521E-03     183.201E-03    -629.437E-03     183.198E-03    -629.434E-03     184.521E-03    -3.18592E-03     214.699E-03    -100.581E-03    -114.118E-03    -114.054E-03     214.636E-03    -100.581E-03     6.43961E-03     44.2172E+06     24.7134E+06    -60.2229E+06    -60.1793E+06     27.0852E+06     41.8018E+06    -1.32160E+06         48.3707
             995     9.06065E-03     14.8360E-03     184.608E-03     183.574E-03    -629.925E-03     183.572E-03    -629.922E-03     184.608E-03    -3.11922E-03     209.520E-03    -99.2655E-03    -110.255E-03    -110.229E-03     209.494E-03    -99.2655E-03    -2.71088E-03     20.4217E+06    -37.3509E+06    -70.6060E+06    -70.2953E+06    -37.6615E+06     20.4217E+06     638.608E+03         46.7574
             996     8.16401E-03     14.8022E-03     184.682E-03     183.898E-03    -630.359E-03     183.896E-03    -630.356E-03     184.682E-03    -2.95765E-03     204.382E-03    -98.1177E-03    -106.265E-03    -106.150E-03     204.268E-03    -98.1177E-03    -10.2552E-03     2.54702E+06    -77.1080E+06    -98.1722E+06    -79.6261E+06    -95.6541E+06     2.54702E+06     1.18389E+06         45.2545
             997     7.26159E-03     14.7754E-03     184.745E-03     184.167E-03    -630.732E-03     184.164E-03    -630.730E-03     184.745E-03    -2.71433E-03     200.136E-03    -97.1518E-03    -102.984E-03    -102.691E-03     199.842E-03    -97.1518E-03    -17.5451E-03    -15.1532E+06    -89.1414E+06    -141.369E+06    -89.2299E+06    -141.281E+06    -15.1532E+06     1.40472E+06         43.8852
             998     6.35863E-03     14.7550E-03     184.798E-03     184.381E-03    -631.046E-03     184.379E-03    -631.044E-03     184.798E-03    -2.40608E-03     196.955E-03    -96.3541E-03    -100.601E-03    -100.169E-03     196.523E-03    -96.3541E-03    -21.5310E-03    -32.5875E+06    -98.4540E+06    -182.040E+06    -98.5732E+06    -181.921E+06    -32.5875E+06     1.77139E+06         42.6676
             999     5.45220E-03     14.7398E-03     184.842E-03     184.558E-03    -631.305E-03     184.556E-03    -631.304E-03     184.842E-03    -2.07675E-03     194.601E-03    -95.6748E-03    -98.9260E-03    -98.4505E-03     194.125E-03    -95.6748E-03    -22.7667E-03    -52.3251E+06    -110.421E+06    -226.866E+06    -110.609E+06    -226.678E+06    -52.3251E+06     1.77327E+06         41.6132
            1000     4.54923E-03     14.7276E-03     184.876E-03     184.689E-03    -631.515E-03     184.688E-03    -631.514E-03     184.876E-03    -1.72740E-03     192.381E-03    -95.0792E-03    -97.3020E-03    -96.8978E-03     191.977E-03    -95.0792E-03    -21.1442E-03    -73.2431E+06    -122.636E+06    -264.121E+06    -122.759E+06    -263.997E+06    -73.2431E+06     2.03823E+06         40.7271
            1001     3.63956E-03     14.7208E-03     184.903E-03     184.788E-03    -631.678E-03     184.788E-03    -631.678E-03     184.903E-03    -1.38655E-03     190.276E-03    -94.6089E-03    -95.6675E-03    -95.4035E-03     190.012E-03    -94.6089E-03    -17.0128E-03    -96.3606E+06    -132.916E+06    -296.343E+06    -132.980E+06    -296.279E+06    -96.3606E+06     2.02851E+06         40.0092
            1002     2.72996E-03     14.7126E-03     184.921E-03     184.870E-03    -631.801E-03     184.869E-03    -631.800E-03     184.921E-03    -1.04050E-03     188.835E-03    -94.2040E-03    -94.6312E-03    -94.3250E-03     188.673E-03    -94.3483E-03    -13.0032E-03    -118.632E+06    -141.623E+06    -329.126E+06    -141.663E+06    -329.087E+06    -118.632E+06     156.094E+03         39.4563
            1003     1.81954E-03     14.7088E-03     184.937E-03     184.893E-03    -631.883E-03     184.893E-03    -631.883E-03     184.937E-03    -736.512E-06     188.211E-03    -93.8348E-03    -94.3758E-03    -93.7567E-03     188.130E-03    -94.3728E-03    -9.00637E-03    -134.706E+06    -147.310E+06    -349.035E+06    -147.317E+06    -349.027E+06    -134.706E+06    -624.055E+03         39.0635
            1004     908.763E-06     14.7059E-03     185.431E-03     184.460E-03    -631.931E-03     185.401E-03    -631.931E-03     184.490E-03    -348.293E-06     188.849E-03    -94.0800E-03    -94.7691E-03    -94.2651E-03     188.820E-03    -94.5544E-03    -5.34168E-03    -149.243E+06    -157.757E+06    -364.268E+06    -155.429E+06    -364.152E+06    -151.686E+06     695.377E+03         38.8235
            1005     15.2552E-03     14.1028E-03     183.377E-03     181.393E-03    -626.327E-03     181.392E-03    -626.325E-03     183.377E-03     631.977E-06     249.140E-03    -109.218E-03    -139.922E-03    -133.866E-03     243.085E-03    -109.218E-03     96.0242E-03     142.007E+06     123.046E+06    -10.9293E+06    -10.1029E+06     122.220E+06     142.007E+06    -1.66478E+06         58.9770
            1006     14.3784E-03     13.9648E-03     183.445E-03     181.631E-03    -627.089E-03     181.629E-03    -627.088E-03     183.445E-03    -1.63458E-03     247.958E-03    -107.572E-03    -140.386E-03    -135.796E-03     243.368E-03    -107.572E-03     80.7041E-03     123.812E+06     107.473E+06    -24.5792E+06    -23.4305E+06     106.324E+06     123.812E+06    -7.63507E+06         57.2120
            1007     13.5094E-03     13.8809E-03     183.524E-03     181.600E-03    -627.076E-03     181.598E-03    -627.074E-03     183.524E-03    -2.91603E-03     241.942E-03    -105.645E-03    -136.297E-03    -134.348E-03     239.993E-03    -105.645E-03     53.9661E-03     109.830E+06     96.8160E+06    -27.6103E+06    -26.9658E+06     96.1716E+06     109.830E+06    -2.20416E+06         55.4427
            1008     12.6350E-03     13.7983E-03     183.612E-03     181.921E-03    -627.472E-03     181.918E-03    -627.469E-03     183.612E-03    -3.40235E-03     234.678E-03    -103.594E-03    -131.084E-03    -129.906E-03     233.499E-03    -103.594E-03     40.4006E-03     94.0213E+06     86.0833E+06    -29.3761E+06    -28.9352E+06     88.2171E+06     91.4466E+06     3.66925E+06         53.6656
            1009     11.7527E-03     13.7383E-03     183.695E-03     182.257E-03    -627.911E-03     182.252E-03    -627.907E-03     183.695E-03    -3.75364E-03     228.042E-03    -101.518E-03    -126.525E-03    -126.078E-03     227.596E-03    -101.518E-03     24.3381E-03     78.1599E+06     66.8665E+06    -39.6312E+06    -39.3639E+06     77.8926E+06     66.8665E+06     1.66505E+06         51.8920
            1010     10.8711E-03     13.6811E-03     183.770E-03     182.615E-03    -628.384E-03     182.611E-03    -628.379E-03     183.770E-03    -3.87494E-03     221.795E-03    -99.4805E-03    -122.315E-03    -122.177E-03     221.657E-03    -99.4805E-03     11.9953E-03     64.1381E+06     53.6089E+06    -50.0955E+06    -50.0591E+06     64.1017E+06     53.6089E+06    -1.03636E+06         50.1442
            1011     9.98531E-03     13.6387E-03     183.832E-03     182.955E-03    -628.846E-03     182.951E-03    -628.841E-03     183.832E-03    -3.82384E-03     214.993E-03    -97.5031E-03    -117.489E-03    -117.454E-03     214.957E-03    -97.5031E-03    -246.859E-06     43.1064E+06     24.4453E+06    -59.8280E+06    -59.7485E+06     26.1764E+06     41.2958E+06     654.495E+03         48.4482
            1012     9.09320E-03     13.6037E-03     183.884E-03     183.245E-03    -629.259E-03     183.241E-03    -629.254E-03     183.884E-03    -3.62166E-03     208.588E-03    -95.5882E-03    -112.999E-03    -112.856E-03     208.444E-03    -95.5882E-03    -11.3882E-03     20.3737E+06    -34.8376E+06    -71.1365E+06    -70.9708E+06    -35.0033E+06     20.3737E+06     1.88568E+06         46.8316
            1013     8.19809E-03     13.5777E-03     183.924E-03     183.484E-03    -629.608E-03     183.481E-03    -629.604E-03     183.924E-03    -3.32480E-03     202.111E-03    -93.7897E-03    -108.321E-03    -107.953E-03     201.743E-03    -93.7897E-03    -20.1920E-03     921.074E+03    -76.5484E+06    -98.5964E+06    -81.4969E+06    -93.6478E+06     921.074E+03     2.18898E+06         45.3216
            1014     7.30138E-03     13.5567E-03     183.953E-03     183.667E-03    -629.892E-03     183.665E-03    -629.890E-03     183.953E-03    -2.97086E-03     195.636E-03    -92.1700E-03    -103.466E-03    -102.881E-03     195.050E-03    -92.1700E-03    -26.0670E-03    -16.9284E+06    -91.2318E+06    -139.714E+06    -91.4386E+06    -139.507E+06    -16.9284E+06     2.96858E+06         43.9412
            1015     6.39702E-03     13.5442E-03     183.975E-03     183.795E-03    -630.112E-03     183.793E-03    -630.110E-03     183.974E-03    -2.57609E-03     190.014E-03    -90.7735E-03    -99.2402E-03    -98.5192E-03     189.293E-03    -90.7735E-03    -28.8110E-03    -35.9038E+06    -102.919E+06    -181.482E+06    -103.323E+06    -181.077E+06    -35.9038E+06     3.63596E+06         42.7090
            1016     5.49103E-03     13.5307E-03     183.990E-03     183.889E-03    -630.278E-03     183.890E-03    -630.276E-03     183.988E-03    -2.18147E-03     185.058E-03    -89.6250E-03    -95.4330E-03    -94.6630E-03     184.288E-03    -89.6250E-03    -29.2997E-03    -56.0043E+06    -114.252E+06    -224.336E+06    -114.668E+06    -223.920E+06    -56.0043E+06     4.37727E+06         41.6379
            1017     4.57599E-03     13.5261E-03     184.008E-03     183.933E-03    -630.398E-03     183.944E-03    -630.397E-03     183.996E-03    -1.77855E-03     181.180E-03    -88.7157E-03    -92.4644E-03    -91.7630E-03     180.479E-03    -88.7157E-03    -27.3162E-03    -78.1579E+06    -124.870E+06    -262.599E+06    -125.041E+06    -262.428E+06    -78.1579E+06     4.09802E+06         40.7346
            1018     3.66352E-03     13.5185E-03     184.017E-03     183.961E-03    -630.482E-03     183.979E-03    -630.481E-03     183.999E-03    -1.39819E-03     178.364E-03    -87.9981E-03    -90.3663E-03    -89.8313E-03     177.829E-03    -87.9981E-03    -23.3983E-03    -100.274E+06    -134.765E+06    -293.885E+06    -134.880E+06    -293.770E+06    -100.274E+06     3.36231E+06         40.0011
            1019     2.74899E-03     13.5149E-03     184.012E-03     183.987E-03    -630.539E-03     184.002E-03    -630.539E-03     183.997E-03    -1.03507E-03     176.154E-03    -87.3348E-03    -88.8193E-03    -88.3397E-03     175.794E-03    -87.4542E-03    -18.9967E-03    -121.540E+06    -143.168E+06    -324.036E+06    -143.204E+06    -324.000E+06    -121.540E+06     1.54100E+06         39.4354
            1020     1.83237E-03     13.5105E-03     184.007E-03     183.975E-03    -630.569E-03     183.985E-03    -630.569E-03     183.996E-03    -703.166E-06     174.760E-03    -86.9283E-03    -87.8320E-03    -87.5178E-03     174.565E-03    -87.0477E-03    -13.6596E-03    -140.671E+06    -151.552E+06    -350.467E+06    -151.559E+06    -350.461E+06    -140.671E+06    -627.872E+03         39.0329
            1021     917.272E-06     13.5066E-03     184.351E-03     183.642E-03    -630.601E-03     184.333E-03    -630.601E-03     183.660E-03    -390.348E-06     173.701E-03    -86.4969E-03    -87.2045E-03    -87.1352E-03     173.632E-03    -86.4969E-03    -7.58947E-03    -152.597E+06    -158.619E+06    -363.932E+06    -158.237E+06    -363.800E+06    -153.111E+06    -236.771E+03         38.7868
            1022     15.2591E-03     12.8277E-03     182.874E-03     180.831E-03    -625.456E-03     180.831E-03    -625.456E-03     182.874E-03    -280.871E-06     253.154E-03    -108.952E-03    -144.202E-03    -138.409E-03     247.361E-03    -108.952E-03     94.9329E-03     147.116E+06     125.763E+06    -6.47474E+06    -6.43202E+06     125.720E+06     147.116E+06     107.399E+03         59.0287
            1023     14.3919E-03     12.6843E-03     182.934E-03     181.276E-03    -625.927E-03     181.274E-03    -625.926E-03     182.934E-03    -1.67328E-03     251.163E-03    -107.025E-03    -144.137E-03    -139.683E-03     246.708E-03    -107.025E-03     80.3652E-03     129.893E+06     112.171E+06    -15.8312E+06    -15.2284E+06     111.568E+06     129.893E+06    -1.05355E+06         57.2740
            1024     13.5211E-03     12.6052E-03     182.988E-03     181.645E-03    -626.529E-03     181.642E-03    -626.525E-03     182.988E-03    -3.22725E-03     244.693E-03    -104.783E-03    -139.909E-03    -138.087E-03     242.870E-03    -104.783E-03     52.5741E-03     103.191E+06     91.0761E+06    -31.4022E+06    -30.5732E+06     90.2472E+06     103.191E+06    -5.21150E+06         55.5143
            1025     12.6473E-03     12.5353E-03     183.040E-03     181.894E-03    -626.935E-03     181.889E-03    -626.930E-03     183.040E-03    -4.08022E-03     239.019E-03    -102.367E-03    -136.652E-03    -135.582E-03     237.949E-03    -102.367E-03     39.0880E-03     88.9635E+06     82.2237E+06    -37.3783E+06    -36.7211E+06     82.5701E+06     87.9600E+06    -2.89219E+06         53.7485
            1026     11.7760E-03     12.4765E-03     183.085E-03     182.238E-03    -627.442E-03     182.231E-03    -627.436E-03     183.085E-03    -4.47144E-03     232.268E-03    -99.7789E-03    -132.489E-03    -132.102E-03     231.881E-03    -99.7789E-03     22.6644E-03     81.2215E+06     69.5446E+06    -40.4687E+06    -39.7939E+06     79.3921E+06     70.6991E+06     2.62221E+06         51.9875
            1027     10.8983E-03     12.4330E-03     183.118E-03     182.540E-03    -627.897E-03     182.533E-03    -627.890E-03     183.118E-03    -4.55324E-03     224.599E-03    -97.1311E-03    -127.467E-03    -127.385E-03     224.516E-03    -97.1311E-03     8.21299E-03     65.7536E+06     54.3964E+06    -48.1632E+06    -47.8802E+06     65.4707E+06     54.3964E+06     3.10745E+06         50.2505
            1028     10.0148E-03     12.3968E-03     183.143E-03     182.790E-03    -628.298E-03     182.789E-03    -628.292E-03     183.139E-03    -4.36841E-03     216.417E-03    -94.5271E-03    -121.890E-03    -121.844E-03     216.372E-03    -94.5271E-03    -4.80344E-03     42.6354E+06     24.7992E+06    -58.6525E+06    -58.5818E+06     26.5669E+06     40.7970E+06     1.99928E+06         48.5617
            1029     9.13005E-03     12.3721E-03     183.196E-03     182.940E-03    -628.630E-03     182.983E-03    -628.625E-03     183.148E-03    -4.01222E-03     208.397E-03    -91.9577E-03    -116.439E-03    -116.227E-03     208.185E-03    -91.9577E-03    -15.6412E-03     19.6048E+06    -32.1864E+06    -73.5570E+06    -71.9967E+06    -33.7466E+06     19.6048E+06     4.30022E+06         46.9484
            1030     8.23905E-03     12.3545E-03     183.250E-03     183.023E-03    -628.878E-03     183.122E-03    -628.874E-03     183.147E-03    -3.57149E-03     200.127E-03    -89.4797E-03    -110.647E-03    -110.135E-03     199.615E-03    -89.4797E-03    -24.6925E-03     713.615E+03    -73.0119E+06    -98.3976E+06    -81.9637E+06    -89.4458E+06     713.615E+03     6.01803E+06         45.4371
            1031     7.33706E-03     12.3472E-03     183.261E-03     183.073E-03    -629.046E-03     183.193E-03    -629.043E-03     183.139E-03    -3.09364E-03     191.916E-03    -87.1449E-03    -104.771E-03    -103.938E-03     191.083E-03    -87.1449E-03    -31.0931E-03    -21.5873E+06    -95.2910E+06    -140.282E+06    -96.4442E+06    -139.129E+06    -21.5873E+06     5.82773E+06         44.0516
            1032     6.43338E-03     12.3381E-03     183.255E-03     183.099E-03    -629.157E-03     183.227E-03    -629.155E-03     183.125E-03    -2.60570E-03     183.858E-03    -85.0562E-03    -98.8021E-03    -97.6735E-03     182.730E-03    -85.0562E-03    -35.0135E-03    -39.8281E+06    -105.063E+06    -181.070E+06    -105.739E+06    -180.394E+06    -39.8281E+06     5.93202E+06         42.8107
            1033     5.52151E-03     12.3381E-03     183.229E-03     183.105E-03    -629.213E-03     183.227E-03    -629.212E-03     183.105E-03    -2.13038E-03     176.532E-03    -83.2845E-03    -93.2471E-03    -92.0103E-03     175.295E-03    -83.2845E-03    -35.8877E-03    -58.0775E+06    -113.167E+06    -220.279E+06    -113.569E+06    -219.877E+06    -58.0775E+06     5.00822E+06         41.7283
            1034     4.61006E-03     12.3343E-03     183.190E-03     183.084E-03    -629.229E-03     183.189E-03    -629.228E-03     183.084E-03    -1.69722E-03     170.778E-03    -81.7959E-03    -88.9821E-03    -87.8569E-03     169.653E-03    -81.7959E-03    -33.8199E-03    -79.4930E+06    -126.234E+06    -258.891E+06    -126.407E+06    -258.718E+06    -79.4930E+06     4.37368E+06         40.8129
            1035     3.69219E-03     12.3337E-03     183.155E-03     183.061E-03    -629.226E-03     183.155E-03    -629.226E-03     183.061E-03    -1.30592E-03     165.863E-03    -80.5432E-03    -85.3198E-03    -84.4036E-03     164.947E-03    -80.5432E-03    -29.9891E-03    -99.3998E+06    -135.146E+06    -290.023E+06    -135.280E+06    -289.889E+06    -99.3998E+06     3.93490E+06         40.0678
            1036     2.77142E-03     12.3315E-03     183.105E-03     183.037E-03    -629.200E-03     183.104E-03    -629.200E-03     183.037E-03    -938.946E-06     161.795E-03    -79.5341E-03    -82.2605E-03    -81.6781E-03     161.212E-03    -79.5341E-03    -23.3634E-03    -122.704E+06    -146.562E+06    -320.944E+06    -146.666E+06    -320.841E+06    -122.704E+06     3.48931E+06         39.4917
            1037     1.85085E-03     12.3303E-03     183.048E-03     183.018E-03    -629.182E-03     183.047E-03    -629.181E-03     183.018E-03    -644.769E-06     158.933E-03    -78.7194E-03    -80.2136E-03    -79.9451E-03     158.664E-03    -78.7194E-03    -15.5900E-03    -143.932E+06    -156.249E+06    -347.320E+06    -156.324E+06    -347.245E+06    -143.932E+06     2.15583E+06         39.0813
            1038     925.741E-06     12.3292E-03     183.246E-03     182.772E-03    -629.169E-03     183.246E-03    -629.169E-03     182.772E-03    -362.697E-06     156.694E-03    -77.8836E-03    -78.8102E-03    -78.7216E-03     156.605E-03    -77.8836E-03    -8.51315E-03    -158.017E+06    -161.655E+06    -363.868E+06    -161.219E+06    -363.790E+06    -158.531E+06    -475.886E+03         38.8299
            1039     15.2663E-03     11.5398E-03     182.366E-03     180.745E-03    -624.597E-03     180.744E-03    -624.596E-03     182.366E-03    -1.29355E-03     256.055E-03    -108.677E-03    -147.378E-03    -141.420E-03     250.098E-03    -108.677E-03     96.8381E-03     146.436E+06     124.502E+06    -7.59625E+06    -7.44164E+06     124.347E+06     146.436E+06    -878.791E+03         59.1060
            1040     14.3960E-03     11.4076E-03     182.408E-03     181.049E-03    -625.090E-03     181.046E-03    -625.087E-03     182.408E-03    -2.97465E-03     252.711E-03    -106.604E-03    -146.107E-03    -141.448E-03     248.052E-03    -106.604E-03     82.4204E-03     131.210E+06     112.106E+06    -16.2658E+06    -16.0429E+06     111.883E+06     131.210E+06    -557.514E+03         57.3604
            1041     13.5258E-03     11.3269E-03     182.443E-03     181.469E-03    -625.716E-03     181.464E-03    -625.710E-03     182.443E-03    -4.04651E-03     246.618E-03    -104.205E-03    -142.413E-03    -140.595E-03     244.800E-03    -104.205E-03     52.7741E-03     109.574E+06     97.2687E+06    -24.2393E+06    -23.7693E+06     96.7987E+06     109.574E+06    -106.064E+03         55.6104
            1042     12.6618E-03     11.2616E-03     182.467E-03     181.869E-03    -626.362E-03     181.861E-03    -626.354E-03     182.467E-03    -4.93036E-03     242.369E-03    -101.481E-03    -140.888E-03    -139.787E-03     241.268E-03    -101.481E-03     40.3998E-03     83.4028E+06     77.5116E+06    -39.1509E+06    -38.6409E+06     78.3254E+06     82.0790E+06    -4.20839E+06         53.8571
            1043     11.7904E-03     11.2125E-03     182.541E-03     182.151E-03    -626.940E-03     182.210E-03    -626.931E-03     182.474E-03    -5.24068E-03     236.433E-03    -98.4887E-03    -137.944E-03    -137.486E-03     235.975E-03    -98.4887E-03     24.7164E-03     72.9260E+06     63.3522E+06    -47.7236E+06    -47.1172E+06     71.1651E+06     64.5068E+06    -2.64233E+06         52.1114
            1044     10.9186E-03     11.1764E-03     182.666E-03     182.331E-03    -627.465E-03     182.525E-03    -627.456E-03     182.463E-03    -5.13351E-03     228.257E-03    -95.3234E-03    -132.934E-03    -132.842E-03     228.165E-03    -95.3234E-03     9.11650E-03     65.8644E+06     54.2760E+06    -51.1977E+06    -50.5748E+06     65.2415E+06     54.2760E+06     3.64944E+06         50.3901
            1045     10.0428E-03     11.1545E-03     182.751E-03     182.405E-03    -627.833E-03     182.712E-03    -627.826E-03     182.436E-03    -4.74024E-03     218.883E-03    -92.0962E-03    -126.787E-03    -126.738E-03     218.834E-03    -92.0962E-03    -4.39441E-03     40.5908E+06     22.4731E+06    -61.9922E+06    -61.3611E+06     26.3351E+06     36.0978E+06     5.93994E+06         48.7150
            1046     9.15671E-03     11.1395E-03     182.807E-03     182.397E-03    -628.063E-03     182.801E-03    -628.057E-03     182.397E-03    -4.19521E-03     209.148E-03    -88.9125E-03    -120.236E-03    -119.992E-03     208.905E-03    -88.9125E-03    -16.6170E-03     19.4459E+06    -30.1044E+06    -73.1796E+06    -70.9782E+06    -32.3057E+06     19.4459E+06     6.61053E+06         47.1118
            1047     8.26473E-03     11.1359E-03     182.814E-03     182.349E-03    -628.188E-03     182.810E-03    -628.184E-03     182.349E-03    -3.57267E-03     199.780E-03    -85.7564E-03    -114.024E-03    -113.396E-03     199.152E-03    -85.7564E-03    -27.2452E-03     248.851E+03    -74.0512E+06    -97.5915E+06    -83.9708E+06    -87.6720E+06     248.851E+03     8.19503E+06         45.6071
            1048     7.37299E-03     11.1362E-03     182.764E-03     182.297E-03    -628.223E-03     182.762E-03    -628.220E-03     182.297E-03    -2.97207E-03     189.828E-03    -82.6692E-03    -107.159E-03    -106.098E-03     188.767E-03    -82.6692E-03    -35.1442E-03    -20.6426E+06    -93.0331E+06    -136.813E+06    -95.0442E+06    -134.802E+06    -20.6426E+06     7.47205E+06         44.2243
            1049     6.47022E-03     11.1436E-03     182.671E-03     182.244E-03    -628.191E-03     182.669E-03    -628.190E-03     182.244E-03    -2.41183E-03     179.172E-03    -79.8281E-03    -99.3442E-03    -97.9492E-03     177.777E-03    -79.8281E-03    -39.1899E-03    -39.2939E+06    -103.760E+06    -179.734E+06    -104.484E+06    -179.009E+06    -39.2939E+06     6.08139E+06         42.9824
            1050     5.56132E-03     11.1511E-03     182.551E-03     182.191E-03    -628.114E-03     182.550E-03    -628.113E-03     182.191E-03    -1.89551E-03     169.418E-03    -77.3290E-03    -92.0891E-03    -90.6308E-03     167.960E-03    -77.3290E-03    -38.8823E-03    -58.1504E+06    -114.695E+06    -218.195E+06    -115.421E+06    -217.469E+06    -58.1504E+06     7.30555E+06         41.8956
            1051     4.64284E-03     11.1572E-03     182.421E-03     182.140E-03    -628.009E-03     182.420E-03    -628.008E-03     182.140E-03    -1.46952E-03     160.920E-03    -75.1815E-03    -85.7383E-03    -84.4657E-03     159.647E-03    -75.1815E-03    -35.3066E-03    -76.8577E+06    -124.482E+06    -253.388E+06    -124.953E+06    -252.917E+06    -76.8577E+06     6.74184E+06         40.9741
            1052     3.72166E-03     11.1627E-03     182.290E-03     182.093E-03    -627.903E-03     182.290E-03    -627.903E-03     182.093E-03    -1.10989E-03     153.727E-03    -73.3710E-03    -80.3564E-03    -79.3400E-03     152.711E-03    -73.3710E-03    -30.7233E-03    -101.491E+06    -139.174E+06    -289.531E+06    -139.441E+06    -289.263E+06    -101.491E+06     5.87436E+06         40.2220
            1053     2.79525E-03     11.1685E-03     182.195E-03     182.048E-03    -627.812E-03     182.194E-03    -627.812E-03     182.048E-03    -773.025E-06     147.663E-03    -71.9754E-03    -75.6876E-03    -75.0320E-03     147.007E-03    -71.9754E-03    -23.8270E-03    -122.940E+06    -147.335E+06    -315.816E+06    -147.588E+06    -315.563E+06    -122.940E+06     6.34624E+06         39.6395
            1054     1.86292E-03     11.1689E-03     182.079E-03     182.009E-03    -627.720E-03     182.079E-03    -627.720E-03     182.009E-03    -511.515E-06     143.452E-03    -71.0920E-03    -72.3602E-03    -72.0621E-03     143.154E-03    -71.0920E-03    -15.5536E-03    -144.961E+06    -156.381E+06    -341.121E+06    -156.497E+06    -341.004E+06    -144.961E+06     4.27421E+06         39.2238
            1055     932.387E-06     11.1716E-03     182.117E-03     181.867E-03    -627.662E-03     182.099E-03    -627.662E-03     181.886E-03    -339.209E-06     141.621E-03    -70.5788E-03    -71.0418E-03    -70.9450E-03     141.524E-03    -70.5788E-03    -8.33826E-03    -160.468E+06    -164.168E+06    -361.869E+06    -163.715E+06    -361.834E+06    -160.956E+06     1.66538E+06         38.9692
            1056     15.2672E-03     10.2642E-03     181.877E-03     180.522E-03    -623.492E-03     180.520E-03    -623.490E-03     181.877E-03    -2.35033E-03     257.589E-03    -108.579E-03    -149.010E-03    -142.790E-03     251.370E-03    -108.579E-03     99.0923E-03     149.274E+06     127.093E+06    -5.63892E+06    -5.25705E+06     126.711E+06     149.274E+06     768.194E+03         59.2173
            1057     14.3986E-03     10.1199E-03     181.901E-03     180.931E-03    -624.241E-03     180.925E-03    -624.235E-03     181.901E-03    -4.22088E-03     254.048E-03    -106.421E-03    -147.627E-03    -142.663E-03     249.084E-03    -106.421E-03     85.0806E-03     131.016E+06     111.717E+06    -17.6560E+06    -17.3826E+06     111.444E+06     131.016E+06    -356.806E+03         57.4819
            1058     13.5356E-03     10.0497E-03     181.923E-03     181.403E-03    -625.029E-03     181.404E-03    -625.019E-03     181.912E-03    -5.61348E-03     248.144E-03    -103.918E-03    -144.226E-03    -142.219E-03     246.137E-03    -103.918E-03     55.7771E-03     106.872E+06     93.5234E+06    -28.0193E+06    -27.8268E+06     93.3309E+06     106.872E+06    -1.14575E+06         55.7442
            1059     12.6621E-03     9.98637E-03     182.138E-03     181.750E-03    -625.932E-03     181.976E-03    -625.920E-03     181.900E-03    -6.14252E-03     244.555E-03    -101.041E-03    -143.513E-03    -142.241E-03     243.282E-03    -101.041E-03     43.3163E-03     88.2467E+06     81.9752E+06    -32.1071E+06    -31.5708E+06     83.6693E+06     86.0164E+06     2.34060E+06         54.0057
            1060     11.7983E-03     9.93989E-03     182.445E-03     181.821E-03    -626.665E-03     182.397E-03    -626.653E-03     181.857E-03    -6.08475E-03     238.665E-03    -97.7958E-03    -140.869E-03    -140.385E-03     238.181E-03    -97.7958E-03     25.8743E-03     71.3165E+06     60.4344E+06    -45.7052E+06    -45.1448E+06     70.7561E+06     60.4344E+06     864.226E+03         52.2769
            1061     10.9293E-03     9.91795E-03     182.629E-03     181.791E-03    -627.165E-03     182.619E-03    -627.155E-03     181.791E-03    -5.55433E-03     230.810E-03    -94.3106E-03    -136.500E-03    -136.380E-03     230.690E-03    -94.3106E-03     12.0070E-03     55.8322E+06     40.9673E+06    -65.6104E+06    -65.2202E+06     55.4421E+06     40.9673E+06     469.971E+03         50.5734
            1062     10.0546E-03     9.90482E-03     182.734E-03     181.708E-03    -627.477E-03     182.726E-03    -627.470E-03     181.708E-03    -4.81165E-03     221.896E-03    -90.6796E-03    -131.216E-03    -131.172E-03     221.852E-03    -90.6796E-03    -1.33170E-03     38.7982E+06     21.4844E+06    -72.3785E+06    -71.6610E+06     26.9801E+06     32.5851E+06     5.88806E+06         48.9167
            1063     9.17815E-03     9.90753E-03     182.689E-03     181.612E-03    -627.588E-03     182.684E-03    -627.583E-03     181.612E-03    -3.98984E-03     211.110E-03    -86.9615E-03    -124.149E-03    -123.962E-03     210.923E-03    -86.9615E-03    -13.7996E-03     16.7835E+06    -29.3639E+06    -79.9551E+06    -77.5997E+06    -31.7193E+06     16.7835E+06     8.31375E+06         47.3306
            1064     8.29450E-03     9.91308E-03     182.528E-03     181.512E-03    -627.531E-03     182.525E-03    -627.528E-03     181.512E-03    -3.20462E-03     199.182E-03    -83.2904E-03    -115.891E-03    -115.427E-03     198.718E-03    -83.2904E-03    -22.1309E-03    -1.07936E+06    -74.7906E+06    -99.1253E+06    -86.5346E+06    -87.3814E+06    -1.07936E+06     8.62560E+06         45.8390
            1065     7.39837E-03     9.93005E-03     182.320E-03     181.415E-03    -627.387E-03     182.317E-03    -627.385E-03     181.415E-03    -2.52652E-03     187.294E-03    -79.7682E-03    -107.525E-03    -106.792E-03     186.560E-03    -79.7682E-03    -27.7962E-03    -17.8611E+06    -91.7817E+06    -132.719E+06    -94.2589E+06    -130.242E+06    -17.8611E+06     8.15209E+06         44.4649
            1066     6.49565E-03     9.95227E-03     182.074E-03     181.323E-03    -627.181E-03     182.073E-03    -627.179E-03     181.323E-03    -1.94400E-03     175.828E-03    -76.4558E-03    -99.3718E-03    -98.4977E-03     174.953E-03    -76.4558E-03    -29.9915E-03    -37.7026E+06    -104.640E+06    -177.462E+06    -106.031E+06    -176.070E+06    -37.7026E+06     9.32342E+06         43.2287
            1067     5.58411E-03     9.97284E-03     181.831E-03     181.240E-03    -626.953E-03     181.830E-03    -626.953E-03     181.240E-03    -1.46813E-03     164.792E-03    -73.3899E-03    -91.4022E-03    -90.4908E-03     163.881E-03    -73.3899E-03    -29.8409E-03    -59.2573E+06    -117.709E+06    -217.135E+06    -118.895E+06    -215.948E+06    -59.2573E+06     10.6538E+06         42.1458
            1068     4.66710E-03     9.99168E-03     181.613E-03     181.162E-03    -626.732E-03     181.612E-03    -626.732E-03     181.162E-03    -1.07912E-03     154.318E-03    -70.6849E-03    -83.6330E-03    -82.7650E-03     153.450E-03    -70.6849E-03    -28.2806E-03    -77.4107E+06    -125.290E+06    -250.103E+06    -126.249E+06    -249.144E+06    -77.4107E+06     10.5814E+06         41.2261
            1069     3.74075E-03     10.0054E-03     181.401E-03     181.094E-03    -626.521E-03     181.401E-03    -626.520E-03     181.094E-03    -781.830E-06     145.411E-03    -68.4050E-03    -77.0063E-03    -76.2736E-03     144.679E-03    -68.4050E-03    -25.2560E-03    -99.4449E+06    -135.903E+06    -285.169E+06    -136.494E+06    -284.578E+06    -99.4449E+06     7.86277E+06         40.4742
            1070     2.81082E-03     10.0187E-03     181.239E-03     181.033E-03    -626.353E-03     181.238E-03    -626.353E-03     181.033E-03    -530.032E-06     138.333E-03    -66.5248E-03    -71.8081E-03    -71.2823E-03     137.807E-03    -66.5248E-03    -20.7710E-03    -122.482E+06    -147.805E+06    -313.072E+06    -148.099E+06    -312.778E+06    -122.482E+06     6.14404E+06         39.8912
            1071     1.87728E-03     10.0269E-03     181.109E-03     180.973E-03    -626.218E-03     181.109E-03    -626.218E-03     180.973E-03    -310.876E-06     132.550E-03    -65.1299E-03    -67.4201E-03    -67.1341E-03     132.264E-03    -65.1299E-03    -14.8275E-03    -141.270E+06    -153.611E+06    -332.662E+06    -153.811E+06    -332.462E+06    -141.270E+06     5.09109E+06         39.4748
            1072     937.596E-06     10.0280E-03     181.014E-03     180.872E-03    -626.097E-03     180.996E-03    -626.097E-03     180.890E-03    -137.015E-06     129.206E-03    -64.2928E-03    -64.9134E-03    -64.8066E-03     129.099E-03    -64.2928E-03    -8.53428E-03    -160.908E+06    -164.046E+06    -359.077E+06    -163.583E+06    -359.052E+06    -161.396E+06     626.297E+03         39.2196
            1073     15.2652E-03     8.97521E-03     181.412E-03     180.145E-03    -622.302E-03     180.138E-03    -622.296E-03     181.412E-03    -4.13354E-03     257.461E-03    -108.617E-03    -148.843E-03    -142.693E-03     251.310E-03    -108.617E-03     97.9749E-03     147.010E+06     125.122E+06    -8.66306E+06    -8.30789E+06     124.767E+06     147.010E+06    -526.674E+03         59.3853
            1074     14.3995E-03     8.83789E-03     181.483E-03     180.772E-03    -623.278E-03     180.813E-03    -623.264E-03     181.428E-03    -6.42310E-03     253.818E-03    -106.487E-03    -147.331E-03    -142.075E-03     248.562E-03    -106.487E-03     87.8344E-03     131.807E+06     112.593E+06    -15.9712E+06    -15.6492E+06     112.271E+06     131.807E+06     1.56937E+06         57.6615
            1075     13.5261E-03     8.77003E-03     181.841E-03     181.296E-03    -624.695E-03     181.713E-03    -624.677E-03     181.406E-03    -7.56963E-03     249.289E-03    -103.983E-03    -145.306E-03    -143.046E-03     247.029E-03    -103.983E-03     59.4902E-03     107.518E+06     93.1761E+06    -26.6483E+06    -26.4369E+06     92.9647E+06     107.518E+06     1.10222E+06         55.9386
            1076     12.6684E-03     8.70410E-03     182.433E-03     181.335E-03    -625.891E-03     182.415E-03    -625.873E-03     181.335E-03    -7.50521E-03     245.352E-03    -101.070E-03    -144.282E-03    -142.839E-03     243.910E-03    -101.070E-03     46.1301E-03     86.8750E+06     79.8594E+06    -36.3349E+06    -35.8293E+06     80.2603E+06     85.9686E+06     3.22105E+06         54.2176
            1077     11.7995E-03     8.67087E-03     182.847E-03     181.222E-03    -626.737E-03     182.833E-03    -626.723E-03     181.222E-03    -6.69741E-03     238.054E-03    -97.8291E-03    -140.225E-03    -139.614E-03     237.443E-03    -97.8291E-03     29.4951E-03     72.2621E+06     62.2500E+06    -45.6894E+06    -45.0563E+06     70.9117E+06     62.9674E+06     6.72414E+06         52.5063
            1078     10.9291E-03     8.65465E-03     182.966E-03     181.079E-03    -627.181E-03     182.956E-03    -627.171E-03     181.079E-03    -5.57340E-03     230.219E-03    -94.4026E-03    -135.816E-03    -135.531E-03     229.933E-03    -94.4026E-03     19.0840E-03     58.3793E+06     46.5719E+06    -57.7409E+06    -57.1754E+06     57.8137E+06     46.5719E+06     5.65397E+06         50.8198
            1079     10.0591E-03     8.65304E-03     182.833E-03     180.921E-03    -627.278E-03     182.828E-03    -627.272E-03     180.921E-03    -4.33103E-03     221.261E-03    -90.8342E-03    -130.427E-03    -130.244E-03     221.079E-03    -90.8342E-03     10.6701E-03     36.8535E+06     20.7947E+06    -70.8782E+06    -70.4097E+06     23.7453E+06     33.4343E+06     4.69826E+06         49.1801
            1080     9.18073E-03     8.66864E-03     182.547E-03     180.762E-03    -627.135E-03     182.543E-03    -627.132E-03     180.762E-03    -3.22993E-03     210.549E-03    -87.1674E-03    -123.382E-03    -123.234E-03     210.402E-03    -87.1674E-03     3.94847E-03     14.1467E+06    -32.0218E+06    -84.7389E+06    -82.2122E+06    -34.5484E+06     14.1467E+06     8.06537E+06         47.6106
            1081     8.29264E-03     8.69611E-03     182.190E-03     180.610E-03    -626.847E-03     182.188E-03    -626.845E-03     180.610E-03    -2.35192E-03     198.415E-03    -83.5542E-03    -114.861E-03    -114.736E-03     198.290E-03    -83.5542E-03    -1.14930E-03     403.622E+03    -72.3968E+06    -98.5711E+06    -86.6923E+06    -84.2757E+06     403.622E+03     9.44733E+06         46.1349
            1082     7.39739E-03     8.72701E-03     181.781E-03     180.470E-03    -626.466E-03     181.780E-03    -626.465E-03     180.470E-03    -1.67760E-03     186.905E-03    -80.0618E-03    -106.843E-03    -106.671E-03     186.733E-03    -80.0618E-03    -6.50615E-03    -15.8667E+06    -91.7895E+06    -132.403E+06    -94.3926E+06    -129.799E+06    -15.8667E+06     8.89089E+06         44.7763
            1083     6.49506E-03     8.76280E-03     181.388E-03     180.346E-03    -626.071E-03     181.387E-03    -626.071E-03     180.346E-03    -1.16639E-03     176.465E-03    -76.6603E-03    -99.8050E-03    -99.5758E-03     176.236E-03    -76.6603E-03    -10.7881E-03    -34.5724E+06    -103.443E+06    -177.796E+06    -104.827E+06    -176.412E+06    -34.5724E+06     9.48483E+06         43.5552
            1084     5.58703E-03     8.79675E-03     181.036E-03     180.238E-03    -625.699E-03     181.035E-03    -625.699E-03     180.238E-03    -794.259E-06     165.783E-03    -73.3480E-03    -92.4345E-03    -92.1587E-03     165.507E-03    -73.3480E-03    -12.9678E-03    -51.9978E+06    -113.085E+06    -213.813E+06    -113.958E+06    -212.940E+06    -51.9978E+06     9.18404E+06         42.4866
            1085     4.67046E-03     8.82845E-03     180.731E-03     180.142E-03    -625.367E-03     180.731E-03    -625.367E-03     180.142E-03    -522.942E-06     155.017E-03    -70.2416E-03    -84.7756E-03    -84.4738E-03     154.715E-03    -70.2416E-03    -14.1024E-03    -70.9513E+06    -122.810E+06    -247.372E+06    -123.558E+06    -246.624E+06    -70.9513E+06     8.35486E+06         41.5789
            1086     3.74754E-03     8.85557E-03     180.473E-03     180.057E-03    -625.075E-03     180.473E-03    -625.075E-03     180.057E-03    -320.091E-06     144.918E-03    -67.4982E-03    -77.4200E-03    -77.1326E-03     144.631E-03    -67.4982E-03    -13.8005E-03    -89.2729E+06    -129.770E+06    -278.225E+06    -130.378E+06    -277.618E+06    -89.2729E+06     7.10857E+06         40.8366
            1087     2.81673E-03     8.87522E-03     180.236E-03     179.984E-03    -624.816E-03     180.236E-03    -624.816E-03     179.984E-03    -191.186E-06     136.618E-03    -65.1390E-03    -71.4789E-03    -71.2519E-03     136.391E-03    -65.1390E-03    -12.0073E-03    -114.656E+06    -144.103E+06    -309.068E+06    -144.474E+06    -308.697E+06    -114.656E+06     5.72022E+06         40.2605
            1088     1.88238E-03     8.89090E-03     180.073E-03     179.920E-03    -624.640E-03     180.073E-03    -624.640E-03     179.920E-03    -93.6891E-06     129.859E-03    -63.1137E-03    -66.7448E-03    -66.6120E-03     129.726E-03    -63.1137E-03    -8.78497E-03    -135.705E+06    -153.333E+06    -329.468E+06    -153.655E+06    -329.146E+06    -135.705E+06     6.00419E+06         39.8486
            1089     944.334E-06     8.90091E-03     180.072E-03     179.713E-03    -624.515E-03     180.072E-03    -624.515E-03     179.713E-03     2.85340E-06     124.327E-03    -61.3912E-03    -62.9359E-03    -62.8856E-03     124.277E-03    -61.3912E-03    -4.65089E-03    -149.448E+06    -155.975E+06    -347.982E+06    -155.919E+06    -347.480E+06    -150.005E+06     7.29649E+06         39.5958
            1090     15.2674E-03     7.69410E-03     181.045E-03     179.951E-03    -620.705E-03     179.976E-03    -620.688E-03     181.003E-03    -6.86652E-03     255.647E-03    -108.779E-03    -146.868E-03    -140.525E-03     249.305E-03    -108.779E-03     97.8071E-03     143.035E+06     122.175E+06    -11.1943E+06    -11.0375E+06     122.018E+06     143.035E+06    -2.62440E+06         59.6436
            1091     14.3910E-03     7.55876E-03     181.571E-03     180.754E-03    -622.896E-03     181.308E-03    -622.867E-03     180.988E-03    -9.50400E-03     253.260E-03    -106.780E-03    -146.481E-03    -140.647E-03     247.427E-03    -106.780E-03     91.8979E-03     130.501E+06     112.009E+06    -17.5071E+06    -17.2844E+06     111.787E+06     130.501E+06    -1.02199E+06         57.9337
            1092     13.5300E-03     7.48392E-03     182.534E-03     180.896E-03    -624.948E-03     182.505E-03    -624.919E-03     180.896E-03    -9.60576E-03     247.633E-03    -104.442E-03    -143.192E-03    -140.531E-03     244.972E-03    -104.442E-03     63.9890E-03     110.343E+06     94.4268E+06    -25.0562E+06    -24.8236E+06     94.1942E+06     110.343E+06     5.10283E+06         56.2273
            1093     12.6568E-03     7.42655E-03     183.283E-03     180.735E-03    -626.436E-03     183.260E-03    -626.414E-03     180.735E-03    -8.46546E-03     241.578E-03    -101.812E-03    -139.766E-03    -137.765E-03     239.577E-03    -101.812E-03     53.9500E-03     84.3521E+06     75.3906E+06    -37.6842E+06    -37.4981E+06     75.2045E+06     84.3521E+06     3.78455E+06         54.5209
            1094     11.7885E-03     7.40258E-03     183.578E-03     180.520E-03    -627.269E-03     183.564E-03    -627.255E-03     180.520E-03    -6.61103E-03     233.613E-03    -99.0496E-03    -134.564E-03    -133.256E-03     232.306E-03    -99.0496E-03     42.5096E-03     69.6440E+06     62.2778E+06    -46.9676E+06    -46.4670E+06     67.3168E+06     64.1045E+06     6.01810E+06         52.8220
            1095     10.9155E-03     7.39415E-03     183.407E-03     180.278E-03    -627.463E-03     183.400E-03    -627.456E-03     180.278E-03    -4.58238E-03     225.074E-03    -96.2758E-03    -128.798E-03    -127.609E-03     223.885E-03    -96.2758E-03     38.2753E-03     63.4533E+06     55.1456E+06    -51.4070E+06    -50.1473E+06     62.1936E+06     55.1456E+06     11.7840E+06         51.1469
            1096     10.0325E-03     7.40826E-03     182.889E-03     180.035E-03    -627.140E-03     182.886E-03    -627.137E-03     180.035E-03    -2.95543E-03     216.525E-03    -93.4996E-03    -123.025E-03    -121.999E-03     215.498E-03    -93.4996E-03     34.5023E-03     41.0598E+06     21.5983E+06    -62.7784E+06    -61.4777E+06     23.0657E+06     38.2917E+06     10.2216E+06         49.5189
            1097     9.14616E-03     7.43508E-03     182.263E-03     179.811E-03    -626.596E-03     182.262E-03    -626.595E-03     179.811E-03    -1.77627E-03     208.546E-03    -90.6969E-03    -117.849E-03    -116.981E-03     207.678E-03    -90.6969E-03     30.5398E-03     21.2123E+06    -35.9562E+06    -74.0539E+06    -72.5265E+06    -37.4836E+06     21.2123E+06     5.56299E+06         47.9641
            1098     8.25849E-03     7.47661E-03     181.646E-03     179.613E-03    -625.988E-03     181.646E-03    -625.988E-03     179.613E-03    -956.540E-06     200.531E-03    -87.7979E-03    -112.733E-03    -111.976E-03     199.774E-03    -87.7979E-03     26.5327E-03     7.50998E+06    -75.0599E+06    -94.5225E+06    -83.5584E+06    -86.0240E+06     7.50998E+06     6.49201E+06         46.5083
            1099     7.36430E-03     7.52142E-03     181.068E-03     179.441E-03    -625.376E-03     181.068E-03    -625.376E-03     179.441E-03    -433.707E-06     192.034E-03    -84.7987E-03    -107.235E-03    -106.546E-03     191.345E-03    -84.7987E-03     22.9731E-03    -7.56956E+06     -89.159E+06    -132.531E+06    -91.6573E+06    -130.032E+06    -7.56956E+06     7.74274E+06         45.1741
            1100     6.46515E-03     7.56795E-03     180.550E-03     179.296E-03    -624.801E-03     180.550E-03    -624.801E-03     179.296E-03    -125.723E-06     183.408E-03    -81.7414E-03    -101.667E-03    -101.111E-03     182.852E-03    -81.7414E-03     18.2385E-03    -23.1865E+06    -98.9655E+06    -177.290E+06    -99.5060E+06    -176.750E+06    -23.1865E+06     6.01262E+06         43.9791
            1101     5.55949E-03     7.61594E-03     180.115E-03     179.173E-03    -624.301E-03     180.115E-03    -624.301E-03     179.173E-03     57.4557E-06     174.294E-03    -78.6407E-03    -95.6528E-03    -95.2358E-03     173.877E-03    -78.6407E-03     13.9184E-03    -37.9425E+06    -106.871E+06    -211.274E+06    -107.264E+06    -210.881E+06    -37.9425E+06     5.75365E+06         42.9355
            1102     4.64817E-03     7.65927E-03     179.750E-03     179.069E-03    -623.873E-03     179.750E-03    -623.873E-03     179.069E-03     147.453E-06     164.795E-03    -75.5819E-03    -89.2130E-03    -88.9134E-03     164.495E-03    -75.5819E-03     9.76197E-03    -56.2693E+06    -115.945E+06    -244.901E+06    -116.155E+06    -244.691E+06    -56.2693E+06     3.90542E+06         42.0505
            1103     3.72997E-03     7.69914E-03     179.454E-03     178.980E-03    -623.516E-03     179.454E-03    -623.516E-03     178.980E-03     205.329E-06     155.242E-03    -72.7102E-03    -82.5320E-03    -82.3318E-03     155.042E-03    -72.7102E-03     6.45683E-03    -77.1175E+06    -124.119E+06    -277.311E+06    -124.430E+06    -277.000E+06    -77.1175E+06      5.6531E+06         41.3272
            1104     2.80516E-03     7.72998E-03     179.203E-03     178.902E-03    -623.213E-03     179.203E-03    -623.213E-03     178.902E-03     218.255E-06     146.374E-03    -70.2150E-03    -76.1589E-03    -76.0338E-03     146.249E-03    -70.2150E-03     4.19113E-03    -101.043E+06    -131.934E+06    -304.044E+06    -132.315E+06    -303.662E+06    -101.043E+06     6.68226E+06         40.7658
            1105     1.87307E-03     7.75313E-03     178.984E-03     178.839E-03    -622.977E-03     178.984E-03    -622.977E-03     178.839E-03     156.984E-06     139.472E-03    -68.2239E-03    -71.2481E-03    -71.1936E-03     139.418E-03    -68.2239E-03     2.22687E-03    -125.702E+06    -142.069E+06    -328.847E+06    -141.280E+06    -328.589E+06    -126.749E+06     4.71659E+06         40.3641
            1106     937.746E-06     7.76856E-03     178.965E-03     178.676E-03    -622.862E-03     178.965E-03    -622.862E-03     178.676E-03     111.141E-06     134.641E-03    -66.5733E-03    -68.0676E-03    -68.0549E-03     134.628E-03    -66.5733E-03     1.28376E-03    -129.817E+06    -139.867E+06    -336.464E+06    -138.826E+06    -335.899E+06    -131.422E+06     4.66477E+06         40.1173
            1107     15.2557E-03     6.42434E-03     181.018E-03     179.706E-03    -619.330E-03     180.085E-03    -619.287E-03     180.596E-03    -11.2683E-03     253.787E-03    -109.225E-03    -144.563E-03    -137.533E-03     246.757E-03    -109.225E-03     101.215E-03     143.529E+06     123.805E+06    -10.0269E+06    -9.78458E+06     123.562E+06     143.529E+06    -107.342E+03         60.0332
            1108     14.3883E-03     6.26806E-03     182.348E-03     180.517E-03    -623.244E-03     182.297E-03    -623.193E-03     180.517E-03    -12.7126E-03     251.017E-03    -107.485E-03    -143.532E-03    -136.503E-03     243.988E-03    -107.485E-03     100.676E-03     129.178E+06     110.292E+06    -17.9902E+06    -17.7459E+06     110.047E+06     129.178E+06     2.50063E+06         58.3402
            1109     13.5116E-03     6.21211E-03     183.900E-03     180.314E-03    -626.104E-03     183.859E-03    -626.063E-03     180.314E-03    -11.3895E-03     241.482E-03    -105.597E-03    -135.884E-03    -132.222E-03     237.819E-03    -105.597E-03     73.5999E-03     104.332E+06     88.6001E+06    -29.2845E+06    -29.1679E+06     88.4835E+06     104.332E+06     2.50876E+06         56.6477
            1110     12.6372E-03     6.15522E-03     184.661E-03     180.013E-03    -627.843E-03     184.639E-03    -627.820E-03     180.013E-03    -8.26189E-03     233.013E-03    -103.744E-03    -129.268E-03    -126.089E-03     229.833E-03    -103.744E-03     66.4963E-03     81.0762E+06     72.6445E+06    -39.1082E+06    -38.7403E+06     72.2766E+06     81.0762E+06     4.53233E+06         54.9482
            1111     11.7545E-03     6.14356E-03     184.397E-03     179.662E-03    -628.215E-03     184.389E-03    -628.206E-03     179.662E-03    -4.72125E-03     224.016E-03    -102.076E-03    -121.940E-03    -119.231E-03     221.307E-03    -102.076E-03     59.8039E-03     68.6794E+06     62.4462E+06    -46.1303E+06    -45.3377E+06     65.6877E+06     64.6453E+06     8.87624E+06         53.2527
            1112     10.8641E-03     6.14747E-03     183.525E-03     179.315E-03    -627.631E-03     183.522E-03    -627.629E-03     179.315E-03    -2.12994E-03     217.391E-03    -100.624E-03    -116.767E-03    -113.757E-03     214.381E-03    -100.624E-03     61.8828E-03     60.4553E+06     52.8503E+06    -58.2995E+06    -57.2700E+06     57.6082E+06     54.6680E+06     9.67816E+06         51.5817
            1113     9.97485E-03     6.16978E-03     182.560E-03     179.000E-03    -626.745E-03     182.559E-03    -626.744E-03     179.000E-03    -527.779E-06     212.702E-03    -99.2770E-03    -113.425E-03    -110.410E-03     209.687E-03    -99.2770E-03     60.7453E-03     50.0917E+06     26.3686E+06    -64.4718E+06    -63.2984E+06     26.9485E+06     48.3383E+06     8.81980E+06         49.9639
            1114     9.08230E-03     6.20559E-03     181.616E-03     178.729E-03    -625.755E-03     181.615E-03    -625.755E-03     178.729E-03     366.556E-06     208.858E-03    -97.8685E-03    -110.990E-03    -108.039E-03     205.907E-03    -97.8685E-03     59.0627E-03     32.7237E+06    -34.6920E+06    -70.5339E+06    -67.9344E+06    -37.2915E+06     32.7237E+06     4.69226E+06         48.4266
            1115     8.18680E-03     6.25299E-03     180.771E-03     178.504E-03    -624.817E-03     180.771E-03    -624.816E-03     178.504E-03     821.311E-06     205.665E-03    -96.3009E-03    -109.364E-03    -106.464E-03     202.765E-03    -96.3009E-03     57.9945E-03     18.0713E+06    -75.7530E+06    -94.0645E+06    -78.1411E+06    -91.6764E+06     18.0713E+06     1.12009E+06         46.9959
            1116     7.29230E-03     6.30730E-03     180.082E-03     178.320E-03    -624.005E-03     180.082E-03    -624.005E-03     178.320E-03     1.02335E-03     202.089E-03    -94.5027E-03    -107.586E-03    -104.814E-03     199.317E-03    -94.5027E-03     56.3279E-03     8.43476E+06    -82.8759E+06    -132.276E+06    -84.5543E+06    -130.598E+06     8.43476E+06     2.01349E+06         45.6930
            1117     6.39443E-03     6.36283E-03     179.506E-03     178.168E-03    -623.306E-03     179.506E-03    -623.305E-03     178.168E-03     1.03493E-03     197.451E-03    -92.4633E-03    -104.987E-03    -102.534E-03     194.998E-03    -92.4633E-03     52.1724E-03    -6.16207E+06    -90.0313E+06    -175.116E+06    -90.2450E+06    -174.903E+06    -6.16207E+06     582.270E+03         44.5327
            1118     5.49470E-03     6.41995E-03     179.035E-03     178.044E-03    -622.716E-03     179.035E-03    -622.716E-03     178.044E-03     964.965E-06     191.933E-03    -90.2172E-03    -101.716E-03    -99.7411E-03     189.958E-03    -90.2172E-03     45.9690E-03    -23.1620E+06    -95.9898E+06    -211.925E+06    -96.1926E+06    -211.722E+06    -23.1620E+06    -1.42314E+06         43.5240
            1119     4.59037E-03     6.47386E-03     178.652E-03     177.943E-03    -622.229E-03     178.652E-03    -622.229E-03     177.943E-03     864.851E-06     185.403E-03    -87.8684E-03    -97.5347E-03    -96.0699E-03     183.938E-03    -87.8684E-03     38.6943E-03    -40.5364E+06    -102.481E+06    -247.730E+06    -102.610E+06    -247.601E+06    -40.5364E+06    -1.38091E+06         42.6715
            1120     3.68159E-03     6.52372E-03     178.338E-03     177.860E-03    -621.828E-03     178.338E-03    -621.828E-03     177.860E-03     754.521E-06     178.446E-03    -85.5316E-03    -92.9144E-03    -91.9268E-03     177.458E-03    -85.5316E-03     31.0106E-03    -61.1862E+06    -109.619E+06    -279.878E+06    -109.749E+06    -279.748E+06    -61.1862E+06     1.98770E+06         41.9763
            1121     2.76721E-03     6.56510E-03     178.102E-03     177.789E-03    -621.515E-03     178.102E-03    -621.515E-03     177.789E-03     624.674E-06     171.465E-03    -83.3736E-03    -88.0916E-03    -87.5157E-03     170.889E-03    -83.3736E-03     23.0746E-03    -86.0836E+06    -114.985E+06    -304.682E+06    -115.152E+06    -304.515E+06    -86.0836E+06     4.35589E+06         41.4374
            1122     1.84847E-03     6.59615E-03     177.899E-03     177.725E-03    -621.262E-03     177.899E-03    -621.262E-03     177.725E-03     450.556E-06     165.406E-03    -81.7117E-03    -83.6945E-03    -83.4328E-03     165.145E-03    -81.7117E-03     14.8800E-03    -108.677E+06    -121.185E+06    -324.181E+06    -120.229E+06    -324.090E+06    -109.724E+06     2.08873E+06         41.0520
            1123     924.405E-06     6.61666E-03     177.765E-03     177.644E-03    -621.103E-03     177.765E-03    -621.102E-03     177.644E-03     233.568E-06     161.912E-03    -80.4880E-03    -81.4244E-03    -81.3437E-03     161.832E-03    -80.4880E-03     7.64808E-03    -118.885E+06    -131.227E+06    -335.264E+06    -125.767E+06    -335.183E+06    -124.425E+06    -1.92322E+06         40.8152
            1124     15.2485E-03     5.13668E-03     181.401E-03     179.331E-03    -619.032E-03     180.520E-03    -618.925E-03     180.105E-03    -18.0176E-03     250.252E-03    -110.145E-03    -140.107E-03    -131.791E-03     241.936E-03    -110.145E-03     108.652E-03     142.666E+06     124.019E+06    -9.50005E+06    -9.25170E+06     123.771E+06     142.666E+06     1.90658E+06         60.6059
            1125     14.3657E-03     5.00070E-03     184.306E-03     179.911E-03    -625.111E-03     184.215E-03    -625.020E-03     179.911E-03    -16.8570E-03     244.915E-03    -108.925E-03    -135.991E-03    -127.360E-03     236.284E-03    -108.925E-03     110.434E-03     122.326E+06     102.858E+06    -23.0035E+06    -22.8244E+06     102.678E+06     122.326E+06     2.38169E+06         58.9293
            1126     13.4849E-03     4.94066E-03     186.299E-03     179.515E-03    -629.037E-03     186.254E-03    -628.991E-03     179.515E-03    -11.2921E-03     232.220E-03    -107.866E-03    -124.355E-03    -119.443E-03     227.308E-03    -107.866E-03     82.7866E-03     102.559E+06     87.1921E+06    -29.8825E+06    -29.4001E+06     86.7097E+06     102.559E+06     3.79592E+06         57.2460
            1127     12.5935E-03     4.90354E-03     185.887E-03     179.025E-03    -629.826E-03     185.875E-03    -629.814E-03     179.025E-03    -4.66836E-03     221.358E-03    -104.781E-03    -116.577E-03    -109.641E-03     216.834E-03    -107.193E-03     76.9871E-03     79.8604E+06     70.2274E+06    -41.8673E+06    -41.1277E+06     69.4877E+06     79.8604E+06     6.32604E+06         55.5463
            1128     11.6937E-03     4.90199E-03     184.342E-03     178.551E-03    -628.698E-03     184.339E-03    -628.696E-03     178.551E-03    -550.401E-06     213.323E-03    -101.389E-03    -111.934E-03    -101.743E-03     208.793E-03    -107.051E-03     74.8030E-03     66.1184E+06     60.4419E+06    -50.8803E+06    -50.2806E+06     61.2286E+06     64.7320E+06     7.07533E+06         53.8478
            1129     10.7916E-03     4.91302E-03     182.824E-03     178.142E-03    -627.203E-03     182.822E-03    -627.201E-03     178.142E-03     1.51779E-03     211.100E-03    -100.486E-03    -110.614E-03    -98.5329E-03     205.859E-03    -107.326E-03     79.8850E-03     66.8197E+06     59.7825E+06    -52.4776E+06    -52.0812E+06     60.7725E+06     65.4333E+06     5.61622E+06         52.1797
            1130     9.88653E-03     4.93537E-03     181.485E-03     177.801E-03    -625.702E-03     181.482E-03    -625.699E-03     177.801E-03     2.44475E-03     211.081E-03    -100.542E-03    -110.538E-03    -98.0326E-03     205.779E-03    -107.746E-03     80.4999E-03     59.4115E+06     26.7194E+06    -59.6363E+06    -59.1266E+06     26.2098E+06     59.4115E+06     2.22990E+06         50.5742
            1131     8.98451E-03     4.97742E-03     180.393E-03     177.525E-03    -624.381E-03     180.391E-03    -624.379E-03     177.525E-03     2.68543E-03     212.090E-03    -101.454E-03    -110.636E-03    -98.6843E-03     206.813E-03    -108.129E-03     80.6817E-03     43.9544E+06    -33.4472E+06    -68.2744E+06    -65.3104E+06    -36.4112E+06     43.9544E+06    -190.429E+03         49.0584
            1132     8.08427E-03     5.02489E-03     179.505E-03     177.305E-03    -623.253E-03     179.503E-03    -623.250E-03     177.305E-03     2.58993E-03     214.084E-03    -102.864E-03    -111.220E-03    -100.425E-03     208.789E-03    -108.364E-03     81.3340E-03     28.7175E+06    -66.7828E+06    -94.8015E+06    -70.0429E+06    -91.5413E+06     28.7175E+06    -5.42304E+06         47.6578
            1133     7.18602E-03     5.07959E-03     178.803E-03     177.129E-03    -622.322E-03     178.801E-03    -622.320E-03     177.129E-03     2.34977E-03     216.223E-03    -104.332E-03    -111.891E-03    -102.848E-03     211.192E-03    -108.344E-03     79.9007E-03     17.2594E+06    -71.7654E+06    -137.091E+06    -73.7204E+06    -135.136E+06     17.2594E+06    -9.40701E+06         46.3923
            1134     6.29107E-03     5.13897E-03     178.258E-03     176.988E-03    -621.575E-03     178.257E-03    -621.574E-03     176.988E-03     2.06853E-03     217.324E-03    -105.430E-03    -111.893E-03    -104.801E-03     212.779E-03    -107.978E-03     76.3211E-03     2.80320E+06    -74.4814E+06    -178.086E+06    -76.0349E+06    -176.532E+06     2.80320E+06    -10.4914E+06         45.2735
            1135     5.39644E-03     5.19816E-03     177.810E-03     176.875E-03    -620.951E-03     177.809E-03    -620.950E-03     176.875E-03     1.76293E-03     217.061E-03    -105.833E-03    -111.228E-03    -105.978E-03     213.252E-03    -107.273E-03     69.8989E-03    -17.1586E+06    -79.0428E+06    -217.898E+06    -80.0316E+06    -216.909E+06    -17.1586E+06    -10.8461E+06         44.3073
            1136     4.50240E-03     5.25898E-03     177.441E-03     176.787E-03    -620.439E-03     177.440E-03    -620.438E-03     176.787E-03     1.48205E-03     215.632E-03    -105.826E-03    -109.806E-03    -106.379E-03     212.701E-03    -106.322E-03     61.1512E-03    -35.0527E+06    -86.3470E+06    -257.604E+06    -86.7551E+06    -257.196E+06    -35.0527E+06    -6.83916E+06         43.4949
            1137     3.60616E-03     5.31344E-03     177.148E-03     176.718E-03    -620.030E-03     177.147E-03    -620.029E-03     176.718E-03     1.21257E-03     213.182E-03    -105.136E-03    -108.045E-03    -105.963E-03     211.128E-03    -105.165E-03     50.8179E-03     -56.203E+06    -94.9705E+06    -288.679E+06    -95.0433E+06    -288.606E+06     -56.203E+06    -1.88053E+06         42.8350
            1138     2.70904E-03     5.36099E-03     176.929E-03     176.664E-03    -619.718E-03     176.929E-03    -619.718E-03     176.664E-03     936.092E-06     210.044E-03    -103.931E-03    -106.113E-03    -104.877E-03     208.809E-03    -103.931E-03     38.8804E-03    -77.9557E+06    -102.187E+06    -306.091E+06    -102.316E+06    -305.962E+06    -77.9557E+06     2.01260E+06         42.3248
            1139     1.80783E-03     5.39890E-03     176.769E-03     176.616E-03    -619.494E-03     176.769E-03    -619.494E-03     176.616E-03     660.922E-06     206.831E-03    -102.808E-03    -104.023E-03    -103.435E-03     206.243E-03    -102.808E-03     26.2314E-03    -97.9353E+06    -111.129E+06    -320.118E+06    -111.279E+06    -319.968E+06    -97.9353E+06     3.99930E+06         41.9602
            1140     905.184E-06     5.42194E-03     176.696E-03     176.511E-03    -619.324E-03     176.696E-03    -619.324E-03     176.511E-03     308.436E-06     204.279E-03    -101.669E-03    -102.610E-03    -102.058E-03     204.085E-03    -102.027E-03     14.3613E-03    -113.310E+06    -123.807E+06    -332.735E+06    -119.455E+06    -332.593E+06    -117.803E+06     3.97045E+06         41.7365
            1141     15.2217E-03     3.86965E-03     183.907E-03     179.032E-03    -621.843E-03     183.286E-03    -621.587E-03     179.397E-03    -27.9654E-03     247.819E-03    -111.887E-03    -135.933E-03    -124.703E-03     236.589E-03    -111.887E-03     126.920E-03     140.807E+06     122.939E+06    -9.59187E+06    -9.43575E+06     122.783E+06     140.807E+06     3.18836E+06         61.4203
            1142     14.3339E-03     3.73410E-03     188.289E-03     178.923E-03    -630.945E-03     188.163E-03    -630.818E-03     178.923E-03    -17.7877E-03     239.704E-03    -110.269E-03    -129.435E-03    -119.226E-03     230.490E-03    -111.264E-03     112.869E-03     120.117E+06     100.541E+06    -23.1635E+06    -22.9771E+06     100.354E+06     120.117E+06     2.70331E+06         59.7668
            1143     13.4380E-03     3.68890E-03     187.728E-03     178.265E-03    -632.805E-03     187.703E-03    -632.780E-03     178.265E-03    -4.64994E-03     220.619E-03    -105.277E-03    -115.342E-03    -104.300E-03     215.440E-03    -111.140E-03     82.0213E-03     100.305E+06     83.3615E+06    -33.8859E+06    -33.2837E+06     82.7593E+06     100.305E+06     6.34107E+06         58.0904
            1144     12.5316E-03     3.66865E-03     184.919E-03     177.662E-03    -630.417E-03     184.913E-03    -630.411E-03     177.662E-03     2.06859E-03     209.308E-03    -96.8976E-03    -112.410E-03    -92.6071E-03     204.468E-03    -111.861E-03     76.4328E-03     84.6748E+06     72.0850E+06    -40.1207E+06    -39.4660E+06     71.4303E+06     84.6748E+06     7.10708E+06         56.3846
            1145     11.6170E-03     3.67617E-03     182.621E-03     177.185E-03    -627.875E-03     182.613E-03    -627.867E-03     177.185E-03     4.37133E-03     205.551E-03    -92.2502E-03    -113.300E-03    -86.7907E-03     200.091E-03    -113.300E-03     79.6369E-03     71.0206E+06     63.1464E+06    -47.6465E+06    -47.2562E+06     65.1716E+06     68.6052E+06     1.13612E+06         54.6833
            1146     10.6992E-03     3.68433E-03     180.891E-03     176.809E-03    -625.683E-03     180.883E-03    -625.674E-03     176.809E-03     5.01390E-03     207.960E-03    -92.7334E-03    -115.227E-03    -86.6650E-03     201.892E-03    -115.227E-03     84.4573E-03     67.8030E+06     60.2883E+06    -51.4980E+06    -51.1221E+06     62.3279E+06     65.3876E+06    -1.63575E+06         53.0239
            1147     9.78576E-03     3.70746E-03     179.617E-03     176.513E-03    -623.911E-03     179.609E-03    -623.904E-03     176.513E-03     4.80518E-03     211.421E-03    -94.0392E-03    -117.382E-03    -88.4301E-03     205.812E-03    -117.382E-03     81.8662E-03     58.1386E+06     26.4617E+06    -53.8323E+06    -53.0665E+06     25.6960E+06     58.1386E+06    -4.04495E+06         51.4364
            1148     8.87461E-03     3.74299E-03     178.650E-03     176.281E-03    -622.492E-03     178.644E-03    -622.486E-03     176.281E-03     4.30098E-03     216.855E-03    -97.2531E-03    -119.602E-03    -91.7552E-03     211.357E-03    -119.602E-03     82.2337E-03     36.9178E+06    -29.9149E+06    -67.3654E+06    -58.8583E+06    -38.4219E+06     36.9178E+06    -9.98053E+06         49.9467
            1149     7.96902E-03     3.78644E-03     177.922E-03     176.097E-03    -621.363E-03     177.918E-03    -621.358E-03     176.097E-03     3.70058E-03     224.034E-03    -102.256E-03    -121.778E-03    -96.7400E-03     218.518E-03    -121.778E-03     83.9202E-03     20.3670E+06    -52.3470E+06    -97.6206E+06    -61.0143E+06    -88.9533E+06     20.3670E+06    -15.4331E+06         48.5813
            1150     7.06898E-03     3.83448E-03     177.346E-03     175.948E-03    -620.448E-03     177.343E-03    -620.445E-03     175.948E-03     3.12263E-03     231.446E-03    -107.682E-03    -123.764E-03    -102.428E-03     226.191E-03    -123.764E-03     83.5390E-03     1.72103E+06    -57.6608E+06    -145.894E+06    -63.0365E+06    -140.519E+06     1.72103E+06    -20.2307E+06         47.3576
            1151     6.17455E-03     3.88774E-03     176.881E-03     175.830E-03    -619.702E-03     176.878E-03    -619.700E-03     175.830E-03     2.61628E-03     238.497E-03    -113.013E-03    -125.484E-03    -108.243E-03     233.727E-03    -125.484E-03     81.0594E-03    -12.7930E+06    -63.1671E+06    -190.201E+06    -66.3801E+06    -186.988E+06    -12.7930E+06    -19.2469E+06         46.2844
            1152     5.28531E-03     3.94484E-03     176.503E-03     175.737E-03    -619.095E-03     176.501E-03    -619.093E-03     175.737E-03     2.16995E-03     244.548E-03    -117.689E-03    -126.859E-03    -113.622E-03     240.481E-03    -126.859E-03     75.9833E-03    -28.4919E+06    -70.4258E+06    -230.767E+06    -71.7589E+06    -229.434E+06    -28.4919E+06    -13.3438E+06         45.3644
            1153     4.39973E-03     4.00110E-03     176.184E-03     175.667E-03    -618.597E-03     176.183E-03    -618.596E-03     175.667E-03     1.77272E-03     249.609E-03    -121.751E-03    -127.858E-03    -118.518E-03     246.376E-03    -127.858E-03     68.6363E-03    -48.3974E+06    -80.6829E+06    -273.722E+06    -81.0484E+06    -273.357E+06    -48.3974E+06    -6.21886E+06         44.5962
            1154     3.51869E-03     4.05569E-03     175.940E-03     175.618E-03    -618.212E-03     175.939E-03    -618.212E-03     175.618E-03     1.40371E-03     253.352E-03    -124.820E-03    -128.532E-03    -122.542E-03     251.015E-03    -128.473E-03     58.7885E-03    -65.9874E+06    -90.5380E+06    -299.350E+06    -90.6054E+06    -299.283E+06    -65.9874E+06    -598.997E+03         43.9758
            1155     2.63739E-03     4.10304E-03     175.759E-03     175.587E-03    -617.930E-03     175.758E-03    -617.929E-03     175.587E-03     1.05627E-03     255.690E-03    -126.712E-03    -128.978E-03    -125.498E-03     254.245E-03    -128.747E-03     46.2634E-03    -81.6092E+06    -98.7496E+06    -310.041E+06    -98.9032E+06    -309.887E+06    -81.6092E+06     2.86501E+06         43.4979
            1156     1.75912E-03     4.14112E-03     175.647E-03     175.570E-03    -617.745E-03     175.647E-03    -617.745E-03     175.570E-03     725.111E-06     256.938E-03    -127.843E-03    -129.095E-03    -127.492E-03     256.228E-03    -128.736E-03     32.1035E-03    -95.6110E+06    -106.048E+06    -318.001E+06    -106.255E+06    -317.793E+06    -95.6110E+06     5.73565E+06         43.1573
            1157     879.904E-06     4.16673E-03     175.684E-03     175.465E-03    -617.622E-03     175.584E-03    -617.622E-03     175.564E-03     387.870E-06     257.001E-03    -127.894E-03    -129.107E-03    -127.845E-03     256.764E-03    -128.919E-03     17.6759E-03    -103.355E+06    -109.690E+06    -322.880E+06    -108.684E+06    -322.678E+06    -104.563E+06     5.29079E+06         42.9480
            1158     15.1692E-03     2.56719E-03     188.667E-03     178.018E-03    -633.126E-03     188.144E-03    -632.603E-03     178.018E-03    -34.9965E-03     249.947E-03    -114.372E-03    -135.575E-03    -123.228E-03     237.600E-03    -114.372E-03     133.900E-03     141.163E+06     122.325E+06    -8.67486E+06    -8.40917E+06     122.059E+06     141.163E+06     5.74348E+06         62.5649
            1159     14.2951E-03     2.48188E-03     189.089E-03     177.227E-03    -638.425E-03     189.013E-03    -638.349E-03     177.227E-03    -7.03144E-03     230.957E-03    -108.481E-03    -122.476E-03    -109.381E-03     223.650E-03    -114.269E-03     98.3988E-03     123.791E+06     102.055E+06    -17.6471E+06    -17.2693E+06     101.677E+06     123.791E+06     6.64982E+06         60.9411
            1160     13.3878E-03     2.45302E-03     184.180E-03     176.538E-03    -633.049E-03     184.164E-03    -633.034E-03     176.538E-03     5.09796E-03     211.426E-03    -96.3518E-03    -115.074E-03    -91.5122E-03     206.587E-03    -115.074E-03     76.4263E-03     102.181E+06     83.6403E+06    -29.6094E+06    -29.3215E+06     83.3525E+06     102.181E+06     5.39647E+06         59.2635
            1161     12.4671E-03     2.44918E-03     181.121E-03     176.079E-03    -628.624E-03     181.104E-03    -628.607E-03     176.079E-03     7.20861E-03     203.140E-03    -86.2382E-03    -116.902E-03    -82.1945E-03     199.097E-03    -116.902E-03     67.7984E-03     86.0817E+06     73.9164E+06    -36.2782E+06    -35.9441E+06     75.6745E+06     83.9895E+06     1.84166E+06         57.5537
            1162     11.5395E-03     2.45844E-03     179.301E-03     175.756E-03    -625.561E-03     179.284E-03    -625.545E-03     175.756E-03     7.18852E-03     202.915E-03    -83.4486E-03    -119.467E-03    -78.9868E-03     198.454E-03    -119.467E-03     70.3424E-03     76.2010E+06     62.2087E+06    -40.5397E+06    -40.0596E+06     73.4624E+06     64.4671E+06    -2.68307E+06         55.8587
            1163     10.6164E-03     2.45619E-03     178.120E-03     175.509E-03    -623.328E-03     178.108E-03    -623.316E-03     175.509E-03     6.29563E-03     207.443E-03    -84.9278E-03    -122.516E-03    -80.5079E-03     203.024E-03    -122.516E-03     70.3104E-03     64.4960E+06     37.4085E+06    -47.5854E+06    -47.0264E+06     62.6710E+06     38.6746E+06    -6.84124E+06         54.2176
            1164     9.69664E-03     2.47619E-03     177.335E-03     175.316E-03    -621.704E-03     177.326E-03    -621.695E-03     175.316E-03     5.35210E-03     213.161E-03    -87.2023E-03    -125.959E-03    -83.5374E-03     209.497E-03    -125.959E-03     64.9409E-03     37.5536E+06     4.93783E+06    -55.2195E+06    -53.5005E+06     24.0655E+06     16.7070E+06    -10.0013E+06         52.6542
            1165     8.77971E-03     2.50320E-03     176.760E-03     175.160E-03    -620.452E-03     176.753E-03    -620.446E-03     175.160E-03     4.40963E-03     221.612E-03    -91.9032E-03    -129.708E-03    -88.3411E-03     218.049E-03    -129.708E-03     65.3036E-03     4.33635E+06    -26.5180E+06    -71.1536E+06    -56.0440E+06    -35.2332E+06    -2.05810E+06    -17.1651E+06         51.1949
            1166     7.86886E-03     2.53341E-03     176.308E-03     175.028E-03    -619.458E-03     176.303E-03    -619.454E-03     175.028E-03     3.61200E-03     232.248E-03    -98.6459E-03    -133.602E-03    -95.1452E-03     228.747E-03    -133.602E-03     66.3488E-03    -18.9170E+06    -46.3007E+06    -105.630E+06    -57.9318E+06    -92.2716E+06    -20.6445E+06    -22.6863E+06         49.8673
            1167     6.96593E-03     2.57004E-03     175.918E-03     174.917E-03    -618.633E-03     175.915E-03    -618.630E-03     174.917E-03     2.95911E-03     244.011E-03    -106.482E-03    -137.528E-03    -103.135E-03     240.663E-03    -137.528E-03     66.6897E-03    -34.9614E+06    -56.9612E+06    -155.750E+06    -62.7275E+06    -149.983E+06    -34.9614E+06    -21.6064E+06         48.6867
            1168     6.07074E-03     2.61033E-03     175.571E-03     174.826E-03    -617.941E-03     175.569E-03    -617.939E-03     174.826E-03     2.41046E-03     256.310E-03    -114.967E-03    -141.343E-03    -111.900E-03     253.243E-03    -141.343E-03     65.6690E-03    -46.2741E+06    -68.2640E+06    -206.409E+06    -70.7471E+06    -203.926E+06    -46.2741E+06    -17.1546E+06         47.6600
            1169     5.18445E-03     2.65433E-03     175.282E-03     174.756E-03    -617.381E-03     175.281E-03    -617.380E-03     174.756E-03     1.96878E-03     268.568E-03    -123.656E-03    -144.912E-03    -121.001E-03     265.913E-03    -144.912E-03     62.8505E-03    -53.8679E+06    -77.5343E+06    -251.815E+06    -78.2668E+06    -251.082E+06    -53.8679E+06    -9.37621E+06         46.7873
            1170     4.30635E-03     2.70052E-03     175.050E-03     174.706E-03    -616.940E-03     175.049E-03    -616.939E-03     174.706E-03     1.59356E-03     280.157E-03    -132.064E-03    -148.093E-03    -129.882E-03     277.975E-03    -148.093E-03     58.4336E-03    -63.3472E+06    -83.7946E+06    -287.245E+06    -83.8946E+06    -287.145E+06    -63.3472E+06    -1.70387E+06         46.0649
            1171     3.43445E-03     2.74312E-03     174.862E-03     174.674E-03    -616.597E-03     174.862E-03    -616.596E-03     174.674E-03     1.24506E-03     290.645E-03    -139.878E-03    -150.767E-03    -138.252E-03     289.019E-03    -150.767E-03     51.4703E-03    -75.7077E+06    -90.9751E+06    -304.970E+06    -91.0498E+06    -304.895E+06    -75.7077E+06     2.07246E+06         45.4864
            1172     2.57148E-03     2.78380E-03     174.736E-03     174.662E-03    -616.354E-03     174.736E-03    -616.354E-03     174.662E-03     930.081E-06     299.330E-03    -146.460E-03    -152.870E-03    -145.428E-03     298.298E-03    -152.870E-03     41.6230E-03    -85.3236E+06    -95.2572E+06    -311.979E+06    -95.4013E+06    -311.835E+06    -85.3236E+06     3.88167E+06         45.0437
            1173     1.71075E-03     2.81503E-03     174.693E-03     174.647E-03    -616.199E-03     174.669E-03    -616.199E-03     174.670E-03     620.222E-06     305.686E-03    -151.271E-03    -154.415E-03    -150.749E-03     305.163E-03    -154.415E-03     29.5207E-03    -90.4615E+06    -95.6277E+06    -313.435E+06    -95.6587E+06    -313.254E+06    -90.6113E+06     3.36502E+06         44.7294
            1174     854.598E-06     2.83833E-03     174.768E-03     174.605E-03    -616.115E-03     174.612E-03    -616.115E-03     174.761E-03     438.710E-06     309.867E-03    -154.214E-03    -155.653E-03    -154.108E-03     309.694E-03    -155.586E-03     16.2506E-03    -94.4606E+06    -98.6873E+06    -315.617E+06    -97.4284E+06    -315.519E+06    -95.8183E+06     1.64560E+06         44.5366
            1175     15.1561E-03     1.28679E-03     190.375E-03     175.934E-03    -653.800E-03     189.882E-03    -653.307E-03     175.934E-03    -26.9204E-03     264.369E-03    -117.542E-03    -146.827E-03    -136.737E-03     254.279E-03    -117.542E-03     123.862E-03     142.520E+06     121.604E+06    -7.52439E+06    -6.66362E+06     120.743E+06     142.520E+06     5.50718E+06         64.1670
            1176     14.2422E-03     1.24441E-03     181.737E-03     175.232E-03    -639.332E-03     181.720E-03    -639.314E-03     175.232E-03     4.36173E-03     223.912E-03    -105.484E-03    -118.428E-03    -102.240E-03     219.659E-03    -117.419E-03     72.3878E-03     129.587E+06     106.610E+06    -12.9969E+06    -12.2202E+06     105.833E+06     129.587E+06     8.24045E+06         62.5564
            1177     13.3246E-03     1.22321E-03     177.674E-03     174.841E-03    -630.021E-03     177.598E-03    -630.004E-03     174.901E-03     6.85300E-03     207.979E-03    -89.1476E-03    -118.831E-03    -86.2398E-03     205.071E-03    -118.831E-03     53.9992E-03     108.985E+06     90.4986E+06    -18.5195E+06    -18.3573E+06     90.3364E+06     108.985E+06     2.94342E+06         60.8711
            1178     12.4049E-03     1.23142E-03     176.460E-03     174.683E-03    -625.621E-03     176.385E-03    -625.606E-03     174.743E-03     6.58801E-03     204.577E-03    -83.4527E-03    -121.125E-03    -81.3892E-03     202.514E-03    -121.125E-03     44.5556E-03     87.6465E+06     71.5982E+06    -25.7245E+06    -25.5715E+06     80.9681E+06     78.1236E+06    -1.60760E+06         59.1658
            1179     11.4836E-03     1.23391E-03     175.855E-03     174.636E-03    -622.883E-03     175.845E-03    -622.872E-03     174.636E-03     5.41429E-03     205.807E-03    -81.7747E-03    -124.033E-03    -79.7467E-03     203.779E-03    -124.033E-03     44.2376E-03     76.0091E+06     43.5039E+06    -33.7719E+06    -33.4733E+06     75.7105E+06     43.5039E+06    -4.53083E+06         57.4876
            1180     10.5582E-03     1.22869E-03     175.625E-03     174.542E-03    -621.142E-03     175.618E-03    -621.135E-03     174.542E-03     4.37217E-03     208.160E-03    -80.5866E-03    -127.573E-03    -78.8292E-03     206.403E-03    -127.573E-03     40.2216E-03     63.2773E+06     4.83062E+06    -39.5232E+06    -39.0165E+06     62.7706E+06     4.83062E+06    -3.77099E+06         55.8687
            1181     9.63358E-03     1.23968E-03     175.437E-03     174.453E-03    -619.844E-03     175.433E-03    -619.839E-03     174.453E-03     3.49086E-03     214.519E-03    -82.7465E-03    -131.772E-03    -81.4131E-03     213.186E-03    -131.772E-03     35.4142E-03     30.1469E+06    -25.8766E+06    -53.3152E+06    -46.6917E+06     28.3784E+06    -30.7317E+06    -7.71430E+06         54.3302
            1182     8.71543E-03     1.25389E-03     175.273E-03     174.367E-03    -618.845E-03     175.270E-03    -618.842E-03     174.367E-03     2.78573E-03     225.213E-03    -88.6910E-03    -136.522E-03    -87.4060E-03     223.928E-03    -136.522E-03     36.1069E-03    -17.7271E+06    -44.8293E+06    -72.7684E+06    -54.6369E+06    -31.0034E+06    -49.6843E+06    -15.1977E+06         52.9022
            1183     7.80270E-03     1.27079E-03     175.067E-03     174.283E-03    -617.996E-03     175.065E-03    -617.994E-03     174.283E-03     2.22788E-03     237.810E-03    -96.1982E-03    -141.612E-03    -94.9715E-03     236.583E-03    -141.612E-03     36.4975E-03    -54.5939E+06    -62.4834E+06    -110.803E+06    -63.5791E+06    -101.846E+06    -62.4554E+06    -16.1423E+06         51.6122
            1184     6.89696E-03     1.28926E-03     174.841E-03     174.205E-03    -617.274E-03     174.840E-03    -617.273E-03     174.205E-03     1.79449E-03     252.114E-03    -105.193E-03    -146.922E-03    -104.043E-03     250.965E-03    -146.922E-03     36.3543E-03    -66.6425E+06    -71.7161E+06    -165.475E+06    -72.7992E+06    -163.074E+06    -67.9609E+06    -12.8631E+06         50.4741
            1185     6.00120E-03     1.31107E-03     174.619E-03     174.138E-03    -616.665E-03     174.618E-03    -616.664E-03     174.138E-03     1.44774E-03     267.851E-03    -115.552E-03    -152.299E-03    -114.497E-03     266.797E-03    -152.299E-03     35.9397E-03    -70.5396E+06    -79.1697E+06    -218.371E+06    -80.0123E+06    -217.529E+06    -70.5396E+06    -8.92947E+06         49.4934
            1186     5.11503E-03     1.33535E-03     174.413E-03     174.084E-03    -616.162E-03     174.412E-03    -616.161E-03     174.084E-03     1.17000E-03     284.547E-03    -126.978E-03    -157.569E-03    -126.044E-03     283.613E-03    -157.569E-03     34.9653E-03    -72.0153E+06    -86.9410E+06    -267.902E+06    -87.1915E+06    -267.652E+06    -72.0153E+06    -4.90518E+06         48.6685
            1187     4.24008E-03     1.36083E-03     174.247E-03     174.046E-03    -615.767E-03     174.247E-03    -615.767E-03     174.046E-03     949.536E-06     301.252E-03    -138.757E-03    -162.495E-03    -137.971E-03     300.466E-03    -162.495E-03     33.1986E-03    -74.3367E+06    -91.3654E+06    -297.061E+06    -91.4170E+06    -297.010E+06    -74.3367E+06    -271.554E+03         47.9937
            1188     3.37657E-03     1.38569E-03     174.116E-03     174.023E-03    -615.464E-03     174.116E-03    -615.464E-03     174.023E-03     746.968E-06     316.899E-03    -150.028E-03    -166.871E-03    -149.423E-03     316.294E-03    -166.871E-03     30.0213E-03    -83.0044E+06    -93.3605E+06    -306.186E+06    -93.4388E+06    -306.107E+06    -83.0044E+06     2.77376E+06         47.4598
            1189     2.52097E-03     1.40732E-03     174.042E-03     174.003E-03    -615.243E-03     174.025E-03    -615.243E-03     174.020E-03     544.563E-06     330.750E-03    -160.155E-03    -170.595E-03    -159.756E-03     330.351E-03    -170.595E-03     24.7569E-03    -88.5371E+06    -94.2285E+06    -309.324E+06    -94.4519E+06    -309.101E+06    -88.5371E+06     2.02338E+06         47.0559
            1190     1.67623E-03     1.42797E-03     174.045E-03     173.975E-03    -615.099E-03     173.979E-03    -615.099E-03     174.042E-03     372.725E-06     341.832E-03    -168.318E-03    -173.513E-03    -168.113E-03     341.626E-03    -173.513E-03     17.9121E-03    -91.1116E+06    -94.2185E+06    -309.674E+06    -94.3150E+06    -309.428E+06    -91.2614E+06     1.26341E+06         46.7718
            1191     835.609E-06     1.44001E-03     174.191E-03     173.937E-03    -615.026E-03     173.937E-03    -615.026E-03     174.191E-03     220.295E-06     349.415E-03    -173.884E-03    -175.532E-03    -173.986E-03     349.346E-03    -175.359E-03     9.99642E-03    -94.7840E+06    -96.9057E+06    -312.883E+06    -96.5275E+06    -312.745E+06    -95.3007E+06     299.510E+03         46.5992
            1192     894.141E-06     69.4509E-03     154.328E-03     93.1322E-03    -432.036E-03     93.1838E-03    -432.035E-03     154.275E-03     297.481E-06     221.776E-03    -110.137E-03    -111.638E-03    -111.408E-03     221.773E-03    -110.366E-03     1.41910E-03    -148.322E+06    -153.477E+06    -363.599E+06    -152.962E+06    -363.597E+06    -148.839E+06     556.868E+03         39.2415
            1193     1.79092E-03     69.4525E-03     123.838E-03     123.775E-03    -432.076E-03     123.835E-03    -432.075E-03     123.778E-03    -291.076E-06     221.336E-03    -110.447E-03    -110.889E-03    -110.437E-03     221.326E-03    -110.889E-03     3.40819E-03    -132.117E+06    -147.226E+06    -354.266E+06    -147.232E+06    -354.259E+06    -132.117E+06     60.8707E+03         39.4045
            1194     2.68611E-03     69.4577E-03     123.900E-03     123.802E-03    -432.178E-03     123.898E-03    -432.177E-03     123.805E-03     48.9678E-06     221.311E-03    -110.469E-03    -110.842E-03    -110.442E-03     221.284E-03    -110.842E-03     5.86572E-03    -111.914E+06    -138.062E+06    -331.824E+06    -138.073E+06    -331.813E+06    -111.914E+06    -719.700E+03         39.6782
            1195     3.58185E-03     69.4644E-03     124.033E-03     123.839E-03    -432.300E-03     124.033E-03    -432.300E-03     123.839E-03    -182.652E-06     221.381E-03    -110.523E-03    -110.859E-03    -110.455E-03     221.314E-03    -110.859E-03     9.24307E-03    -90.7033E+06    -128.763E+06    -298.681E+06    -128.804E+06    -298.641E+06    -90.7033E+06    -445.443E+03         40.0781
            1196     4.47700E-03     69.4776E-03     124.150E-03     123.883E-03    -432.446E-03     124.150E-03    -432.446E-03     123.883E-03    -86.9779E-06     221.362E-03    -110.461E-03    -110.902E-03    -110.332E-03     221.233E-03    -110.902E-03     12.9646E-03    -69.7520E+06    -120.763E+06    -268.047E+06    -120.803E+06    -268.008E+06    -69.7520E+06    -291.196E+03         40.6226
            1197     5.37271E-03     69.4928E-03     124.323E-03     123.932E-03    -432.618E-03     124.323E-03    -432.618E-03     123.932E-03    -182.606E-06     221.136E-03    -110.224E-03    -110.911E-03    -109.984E-03     220.896E-03    -110.911E-03     17.5826E-03    -48.9427E+06    -110.331E+06    -230.293E+06    -110.336E+06    -230.287E+06    -48.9427E+06    -86.6757E+03         41.3327
            1198     6.26847E-03     69.5166E-03     124.507E-03     123.987E-03    -432.805E-03     124.507E-03    -432.805E-03     123.987E-03    -151.748E-06     221.146E-03    -110.257E-03    -110.890E-03    -109.826E-03     220.716E-03    -110.890E-03     23.6751E-03    -29.4422E+06    -100.234E+06    -185.708E+06    -100.243E+06    -185.699E+06    -29.4422E+06     95.5572E+03         42.2302
            1199     7.16534E-03     69.5468E-03     124.698E-03     124.045E-03    -432.989E-03     124.698E-03    -432.989E-03     124.045E-03    -192.023E-06     221.434E-03    -110.559E-03    -110.875E-03    -109.869E-03     220.744E-03    -110.875E-03     30.0686E-03    -13.2293E+06    -92.0622E+06    -144.935E+06    -92.0912E+06    -144.906E+06    -13.2293E+06    -251.945E+03         43.3340
            1200     8.05859E-03     69.5858E-03     124.906E-03     124.105E-03    -433.174E-03     124.906E-03    -433.174E-03     124.105E-03    -181.130E-06     221.460E-03    -110.600E-03    -110.860E-03    -109.535E-03     220.395E-03    -110.860E-03     37.3187E-03     5.53763E+06    -78.4549E+06     -99.511E+06    -80.7179E+06    -97.2480E+06     5.53763E+06    -345.895E+03         44.6560
            1201     8.95702E-03     69.6336E-03     125.112E-03     124.165E-03    -433.350E-03     125.112E-03    -433.350E-03     124.165E-03    -196.892E-06     221.542E-03    -110.633E-03    -110.908E-03    -109.175E-03     219.979E-03    -110.804E-03     45.2912E-03     23.1270E+06    -40.1876E+06    -71.1704E+06    -70.7225E+06    -40.6355E+06     23.1270E+06    -429.518E+03         46.1976
            1202     9.85245E-03     69.6900E-03     125.317E-03     124.223E-03    -433.508E-03     125.317E-03    -433.508E-03     124.223E-03    -195.427E-06     221.684E-03    -110.708E-03    -110.975E-03    -108.834E-03     219.560E-03    -110.726E-03     52.8476E-03     40.8159E+06     17.0542E+06    -61.1277E+06    -61.0942E+06     17.0206E+06     40.8159E+06    -879.022E+03         47.9447
            1203     10.7485E-03     69.7554E-03     125.516E-03     124.278E-03    -433.643E-03     125.516E-03    -433.643E-03     124.278E-03    -200.211E-06     221.877E-03    -110.624E-03    -111.252E-03    -108.452E-03     219.077E-03    -110.624E-03     60.6651E-03     62.0593E+06     49.9255E+06    -51.0627E+06    -50.9504E+06     58.4362E+06     53.4363E+06     136.266E+03         49.8661
            1204     11.6486E-03     69.8311E-03     125.692E-03     124.328E-03    -433.735E-03     125.692E-03    -433.735E-03     124.328E-03    -194.654E-06     222.121E-03    -110.518E-03    -111.602E-03    -108.197E-03     218.715E-03    -110.518E-03     67.0405E-03     70.6907E+06     58.8470E+06    -46.8982E+06    -46.7808E+06     70.5732E+06     58.8470E+06     1.16155E+06         51.9146
            1205     12.5449E-03     69.9134E-03     125.861E-03     124.370E-03    -433.784E-03     125.860E-03    -433.784E-03     124.370E-03    -195.446E-06     222.979E-03    -110.459E-03    -112.520E-03    -107.928E-03     218.388E-03    -110.459E-03     77.5133E-03     80.1149E+06     75.0781E+06    -37.8620E+06    -37.7287E+06     78.1655E+06     76.8941E+06    -1.14112E+06         54.0313
            1206     13.4424E-03     70.0130E-03     126.021E-03     124.406E-03    -433.782E-03     126.021E-03    -433.782E-03     124.406E-03    -258.732E-06     222.669E-03    -110.401E-03    -112.268E-03    -107.378E-03     217.779E-03    -110.401E-03     80.1226E-03     104.211E+06     95.6814E+06    -23.7683E+06    -23.6060E+06     95.5191E+06     104.211E+06    -1.28643E+06         56.1535
            1207     14.3466E-03     70.0986E-03     125.995E-03     124.422E-03    -433.508E-03     125.995E-03    -433.508E-03     124.422E-03    -252.072E-06     227.355E-03    -110.347E-03    -117.009E-03    -108.987E-03     219.333E-03    -110.347E-03     100.961E-03     128.364E+06     114.668E+06    -14.2975E+06    -14.1804E+06     114.551E+06     128.364E+06     2.34014E+06         58.2242
            1208     15.2396E-03     70.2559E-03     125.943E-03     124.415E-03    -433.288E-03     125.943E-03    -433.288E-03     124.415E-03    -179.510E-06     229.637E-03    -110.358E-03    -119.278E-03    -111.620E-03     221.979E-03    -110.358E-03     98.0978E-03     142.079E+06     128.560E+06    -9.20563E+06    -9.09275E+06     128.447E+06     142.079E+06     1.10385E+06         60.2020
            1209     895.801E-06     70.6967E-03     151.793E-03     94.3557E-03    -427.998E-03     94.4188E-03    -427.997E-03     151.729E-03     117.612E-06     221.823E-03    -110.398E-03    -111.424E-03    -110.835E-03     221.820E-03    -110.986E-03     826.105E-06    -148.514E+06    -151.802E+06    -364.096E+06    -151.466E+06    -364.092E+06    -148.854E+06    -67.2198E+03         39.2146
            1210     1.79025E-03     70.6992E-03     123.148E-03     123.078E-03    -428.081E-03     123.142E-03    -428.081E-03     123.084E-03    -310.117E-06     221.601E-03    -110.644E-03    -110.956E-03    -110.650E-03     221.592E-03    -110.942E-03     3.25536E-03    -132.654E+06    -146.128E+06    -353.540E+06    -146.141E+06    -353.527E+06    -132.654E+06    -80.5200E+03         39.3764
            1211     2.68638E-03     70.7033E-03     123.172E-03     123.100E-03    -428.140E-03     123.166E-03    -428.140E-03     123.106E-03     36.3018E-06     221.572E-03    -110.623E-03    -110.949E-03    -110.598E-03     221.547E-03    -110.949E-03     5.61452E-03    -112.015E+06    -139.500E+06    -332.299E+06    -139.516E+06    -332.283E+06    -112.015E+06    -755.980E+03         39.6483
            1212     3.58139E-03     70.7119E-03     123.271E-03     123.129E-03    -428.225E-03     123.271E-03    -428.225E-03     123.129E-03    -213.713E-06     221.379E-03    -110.424E-03    -110.956E-03    -110.361E-03     221.317E-03    -110.956E-03     8.89720E-03    -90.5404E+06    -130.362E+06    -299.293E+06    -130.392E+06    -299.263E+06    -90.5404E+06    -344.922E+03         40.0459
            1213     4.47720E-03     70.7235E-03     123.361E-03     123.160E-03    -428.329E-03     123.361E-03    -428.329E-03     123.160E-03    -118.778E-06     221.211E-03    -110.261E-03    -110.950E-03    -110.127E-03     221.077E-03    -110.950E-03     13.0881E-03    -68.7852E+06    -120.701E+06    -266.486E+06    -120.728E+06    -266.458E+06    -68.7852E+06     143.137E+03         40.5877
            1214     5.37259E-03     70.7403E-03     123.491E-03     123.195E-03    -428.442E-03     123.491E-03    -428.442E-03     123.195E-03    -223.358E-06     221.399E-03    -110.417E-03    -110.982E-03    -110.209E-03     221.157E-03    -110.948E-03     17.7735E-03    -48.7033E+06    -110.097E+06    -229.906E+06    -110.125E+06    -229.878E+06    -48.7033E+06    -915.043E+03         41.2952
            1215     6.26869E-03     70.7621E-03     123.617E-03     123.234E-03    -428.557E-03     123.617E-03    -428.557E-03     123.234E-03    -197.327E-06     221.282E-03    -110.309E-03    -110.973E-03    -109.918E-03     220.856E-03    -110.939E-03     23.4978E-03    -30.9838E+06    -100.605E+06    -186.993E+06    -100.633E+06    -186.965E+06    -30.9838E+06    -256.939E+03         42.1907
            1216     7.16315E-03     70.7950E-03     123.757E-03     123.273E-03    -428.669E-03     123.757E-03    -428.669E-03     123.273E-03    -245.701E-06     220.839E-03    -109.946E-03    -110.893E-03    -109.234E-03     220.127E-03    -110.893E-03     30.4449E-03    -11.8145E+06    -89.6709E+06    -143.514E+06    -89.6937E+06    -143.491E+06    -11.8145E+06    -227.110E+03         43.2941
            1217     8.06157E-03     70.8317E-03     123.902E-03     123.312E-03    -428.771E-03     123.902E-03    -428.771E-03     123.312E-03    -244.557E-06     220.878E-03    -110.077E-03    -110.801E-03    -108.939E-03     219.739E-03    -110.801E-03     38.4928E-03     5.07869E+06    -78.2340E+06    -99.7231E+06    -80.3643E+06    -97.5928E+06     5.07869E+06    -300.387E+03         44.6185
            1218     8.95634E-03     70.8797E-03     124.037E-03     123.350E-03    -428.854E-03     124.037E-03    -428.854E-03     123.350E-03    -269.475E-06     221.068E-03    -110.375E-03    -110.692E-03    -108.728E-03     219.420E-03    -110.692E-03     46.4751E-03     22.1894E+06    -40.2315E+06    -71.5431E+06    -71.3986E+06    -40.3759E+06     22.1894E+06    -5.14897E+03         46.1651
            1219     9.85426E-03     70.9365E-03     124.160E-03     123.383E-03    -428.908E-03     124.160E-03    -428.908E-03     123.383E-03    -278.107E-06     221.297E-03    -110.470E-03    -110.827E-03    -108.497E-03     219.086E-03    -110.590E-03     53.8622E-03     40.2242E+06     17.7939E+06    -63.2200E+06    -63.1588E+06     17.7327E+06     40.2242E+06     200.023E+03         47.9201
            1220     10.7522E-03     71.0008E-03     124.268E-03     123.410E-03    -428.926E-03     124.268E-03    -428.926E-03     123.410E-03    -302.244E-06     222.008E-03    -110.485E-03    -111.523E-03    -108.631E-03     219.116E-03    -110.485E-03     61.7246E-03     58.2761E+06     47.3771E+06    -55.9011E+06    -55.7638E+06     55.5205E+06     49.9954E+06     1.44856E+06         49.8518
            1221     11.6467E-03     71.0769E-03     124.370E-03     123.430E-03    -428.918E-03     124.370E-03    -428.918E-03     123.430E-03    -314.496E-06     222.187E-03    -110.418E-03    -111.770E-03    -108.363E-03     218.781E-03    -110.418E-03     67.0897E-03     73.4494E+06     62.7208E+06    -42.4407E+06    -42.3317E+06     73.3404E+06     62.7208E+06     1.56421E+06         51.9122
            1222     12.5466E-03     71.1561E-03     124.449E-03     123.442E-03    -428.854E-03     124.449E-03    -428.854E-03     123.442E-03    -337.602E-06     222.631E-03    -110.379E-03    -112.252E-03    -107.844E-03     218.223E-03    -110.379E-03     75.9340E-03     84.7608E+06      79.285E+06    -33.6477E+06    -33.5014E+06     81.5865E+06     82.3129E+06    -469.886E+03         54.0420
            1223     13.4477E-03     71.2564E-03     124.465E-03     123.443E-03    -428.684E-03     124.465E-03    -428.684E-03     123.443E-03    -315.739E-06     223.243E-03    -110.350E-03    -112.893E-03    -108.331E-03     218.681E-03    -110.350E-03     77.5048E-03     103.544E+06     93.5554E+06    -27.6813E+06    -27.4820E+06     93.3560E+06     103.544E+06    -3.03925E+06         56.1758
            1224     14.3399E-03     71.3435E-03     124.472E-03     123.424E-03    -428.448E-03     124.472E-03    -428.448E-03     123.424E-03    -46.3517E-06     229.247E-03    -110.378E-03    -118.868E-03    -110.926E-03     221.305E-03    -110.378E-03     100.486E-03     123.310E+06     109.752E+06    -19.8253E+06    -19.6867E+06     109.613E+06     123.310E+06    -2.55806E+06         58.2540
            1225     15.2369E-03     71.5070E-03     124.369E-03     123.387E-03    -427.912E-03     124.369E-03    -427.912E-03     123.387E-03     67.1838E-06     229.192E-03    -110.431E-03    -118.761E-03    -110.912E-03     221.343E-03    -110.431E-03     99.6019E-03     141.111E+06     128.090E+06    -8.79552E+06    -8.69042E+06     127.985E+06     141.111E+06     584.902E+03         60.2377
            1226     894.760E-06     71.9440E-03     148.296E-03     96.5699E-03    -424.125E-03     96.6031E-03    -424.124E-03     148.262E-03    -237.024E-06     221.810E-03    -110.314E-03    -111.496E-03    -111.042E-03     221.808E-03    -110.766E-03     1.31256E-03    -148.258E+06    -152.511E+06    -364.293E+06    -152.182E+06    -364.282E+06    -148.598E+06     105.400E+03         39.1872
            1227     1.79063E-03     71.9458E-03     122.489E-03     122.435E-03    -424.157E-03     122.478E-03    -424.156E-03     122.446E-03    -312.862E-06     221.996E-03    -110.932E-03    -111.065E-03    -110.984E-03     221.987E-03    -111.003E-03     3.27294E-03    -133.413E+06    -147.528E+06    -353.649E+06    -147.543E+06    -353.634E+06    -133.413E+06     763.148E+03         39.3478
            1228     2.68490E-03     71.9507E-03     122.501E-03     122.454E-03    -424.186E-03     122.497E-03    -424.186E-03     122.458E-03     13.6769E-06     221.796E-03    -110.713E-03    -111.084E-03    -110.685E-03     221.769E-03    -111.084E-03     5.85053E-03    -110.016E+06    -139.303E+06    -331.008E+06    -139.314E+06    -330.998E+06    -110.016E+06     582.808E+03         39.6179
            1229     3.58066E-03     71.9584E-03     122.556E-03     122.471E-03    -424.232E-03     122.556E-03    -424.232E-03     122.471E-03    -237.666E-06     221.289E-03    -110.241E-03    -111.048E-03    -110.178E-03     221.226E-03    -111.048E-03     8.93796E-03    -89.6579E+06    -130.559E+06    -299.651E+06    -130.571E+06    -299.639E+06    -89.6579E+06    -591.332E+03         40.0131
            1230     4.47679E-03     71.9694E-03     122.621E-03     122.489E-03    -424.285E-03     122.621E-03    -424.285E-03     122.489E-03    -148.447E-06     221.098E-03    -110.114E-03    -110.984E-03    -109.974E-03     220.958E-03    -110.984E-03     13.3169E-03    -68.1795E+06    -118.900E+06    -266.576E+06    -118.907E+06    -266.569E+06    -68.1795E+06    -604.459E+03         40.5524
            1231     5.37299E-03     71.9874E-03     122.694E-03     122.508E-03    -424.332E-03     122.694E-03    -424.332E-03     122.508E-03    -255.888E-06     221.196E-03    -110.220E-03    -110.976E-03    -109.991E-03     220.933E-03    -110.942E-03     18.4817E-03    -48.9817E+06    -109.679E+06    -230.281E+06    -109.711E+06    -230.250E+06    -48.9817E+06    -194.600E+03         41.2575
            1232     6.26681E-03     72.0106E-03     122.770E-03     122.528E-03    -424.372E-03     122.770E-03    -424.372E-03     122.528E-03    -241.062E-06     220.814E-03    -109.891E-03    -110.923E-03    -109.461E-03     220.349E-03    -110.889E-03     24.4735E-03    -30.1719E+06    -99.3928E+06    -187.378E+06    -99.4299E+06    -187.341E+06    -30.1719E+06    -412.267E+03         42.1514
            1233     7.16526E-03     72.0385E-03     122.847E-03     122.547E-03    -424.408E-03     122.847E-03    -424.408E-03     122.547E-03    -297.872E-06     220.280E-03    -109.498E-03    -110.782E-03    -108.738E-03     219.520E-03    -110.782E-03     31.4237E-03    -12.2834E+06    -89.0460E+06    -144.031E+06    -89.0662E+06    -144.010E+06    -12.2834E+06    -43.9738E+03         43.2549
            1234     8.06151E-03     72.0776E-03     122.921E-03     122.563E-03    -424.419E-03     122.921E-03    -424.419E-03     122.563E-03    -300.346E-06     220.251E-03    -109.604E-03    -110.647E-03    -108.440E-03     219.087E-03    -110.647E-03     38.9158E-03     5.41842E+06    -78.6735E+06    -98.2077E+06     -79.712E+06    -97.1692E+06     5.41842E+06     398.221E+03         44.5816
            1235     8.95981E-03     72.1259E-03     122.977E-03     122.575E-03    -424.396E-03     122.977E-03    -424.396E-03     122.575E-03    -334.266E-06     220.590E-03    -110.014E-03    -110.576E-03    -108.421E-03     218.934E-03    -110.513E-03     46.5460E-03     22.1537E+06    -41.0340E+06    -71.5504E+06    -71.3758E+06    -41.2085E+06     22.1537E+06     996.694E+03         46.1333
            1236     9.85648E-03     72.1806E-03     123.014E-03     122.579E-03    -424.339E-03     123.014E-03    -424.339E-03     122.579E-03    -340.234E-06     221.152E-03    -110.315E-03    -110.836E-03    -108.546E-03     218.963E-03    -110.417E-03     53.6070E-03     40.8102E+06     16.8132E+06    -62.8191E+06    -62.7617E+06     16.7558E+06     40.8102E+06     1.98469E+06         47.8959
            1237     10.7528E-03     72.2478E-03     123.031E-03     122.575E-03    -424.238E-03     123.031E-03    -424.238E-03     122.575E-03    -357.480E-06     221.910E-03    -110.339E-03    -111.571E-03    -108.734E-03     219.073E-03    -110.339E-03     61.1194E-03     62.0384E+06     48.4248E+06    -52.9343E+06    -52.8816E+06     57.3833E+06     53.0272E+06     579.677E+03         49.8377
            1238     11.6518E-03     72.3224E-03     123.022E-03     122.562E-03    -424.094E-03     123.022E-03    -424.094E-03     122.562E-03    -384.709E-06     222.360E-03    -110.294E-03    -112.065E-03    -108.762E-03     219.056E-03    -110.294E-03     66.1132E-03     72.7143E+06     61.3398E+06    -45.0327E+06    -44.8746E+06     72.5561E+06     61.3398E+06    -2.81921E+06         51.9101
            1239     12.5471E-03     72.4010E-03     122.987E-03     122.537E-03    -423.893E-03     122.987E-03    -423.893E-03     122.537E-03    -404.020E-06     223.675E-03    -110.327E-03    -113.348E-03    -109.046E-03     219.373E-03    -110.327E-03     75.2233E-03     84.7948E+06     79.4454E+06    -33.4808E+06    -33.3133E+06     81.6411E+06     82.4316E+06    -1.02670E+06         54.0515
            1240     13.4414E-03     72.5006E-03     122.930E-03     122.499E-03    -423.642E-03     122.930E-03    -423.642E-03     122.499E-03    -347.871E-06     224.506E-03    -110.381E-03    -114.125E-03    -109.471E-03     219.852E-03    -110.381E-03     78.6760E-03     105.237E+06     94.9577E+06    -24.1676E+06    -24.0335E+06     94.8236E+06     105.237E+06     1.17036E+06         56.1958
            1241     14.3417E-03     72.5928E-03     122.896E-03     122.425E-03    -423.328E-03     122.879E-03    -423.328E-03     122.441E-03    -355.979E-06     229.806E-03    -110.444E-03    -119.362E-03    -111.059E-03     221.504E-03    -110.444E-03     102.963E-03     124.905E+06     110.786E+06    -18.0292E+06    -17.8547E+06     110.612E+06     124.905E+06    -1.73879E+06         58.2837
            1242     15.2381E-03     72.7514E-03     122.737E-03     122.348E-03    -422.775E-03     122.719E-03    -422.774E-03     122.365E-03     141.752E-06     229.080E-03    -110.483E-03    -118.597E-03    -110.766E-03     221.249E-03    -110.483E-03     98.2971E-03     140.566E+06     127.572E+06    -9.38103E+06    -9.27499E+06     127.466E+06     140.566E+06    -1.44475E+06         60.2747
            1243     895.861E-06     73.1910E-03     144.171E-03     99.4694E-03    -420.292E-03     99.4690E-03    -420.292E-03     144.171E-03    -279.986E-06     221.463E-03    -110.313E-03    -111.150E-03    -111.147E-03     221.460E-03    -110.313E-03     2.05129E-03    -147.007E+06    -154.455E+06    -364.806E+06    -153.164E+06    -364.773E+06    -148.330E+06     727.531E+03         39.1595
            1244     1.78991E-03     73.1931E-03     121.862E-03     121.809E-03    -420.262E-03     121.833E-03    -420.262E-03     121.837E-03    -329.349E-06     221.781E-03    -110.785E-03    -110.995E-03    -110.912E-03     221.765E-03    -110.854E-03     4.20248E-03    -133.321E+06    -148.251E+06    -354.779E+06    -148.270E+06    -354.760E+06    -133.321E+06     209.273E+03         39.3191
            1245     2.68582E-03     73.1979E-03     121.872E-03     121.835E-03    -420.274E-03     121.868E-03    -420.274E-03     121.839E-03    -212.051E-09     221.521E-03    -110.582E-03    -110.939E-03    -110.546E-03     221.485E-03    -110.939E-03     6.78345E-03    -111.532E+06    -138.029E+06    -331.102E+06    -138.034E+06    -331.096E+06    -111.532E+06     754.389E+03         39.5875
            1246     3.58131E-03     73.2045E-03     121.882E-03     121.840E-03    -420.277E-03     121.878E-03    -420.277E-03     121.844E-03    -259.787E-06     221.267E-03    -110.335E-03    -110.932E-03    -110.259E-03     221.191E-03    -110.932E-03     9.81989E-03    -89.4065E+06    -129.156E+06    -298.623E+06    -129.173E+06    -298.606E+06    -89.4065E+06     843.669E+03         39.9806
            1247     4.47695E-03     73.2158E-03     121.903E-03     121.846E-03    -420.268E-03     121.902E-03    -420.268E-03     121.848E-03    -173.265E-06     220.901E-03    -110.009E-03    -110.892E-03    -109.848E-03     220.740E-03    -110.892E-03     14.3408E-03    -68.2863E+06    -119.738E+06    -267.297E+06    -119.752E+06    -267.283E+06    -68.2863E+06     371.093E+03         40.5174
            1248     5.37220E-03     73.2341E-03     121.921E-03     121.849E-03    -420.252E-03     121.920E-03    -420.252E-03     121.850E-03    -285.163E-06     220.181E-03    -109.395E-03    -110.786E-03    -109.097E-03     219.884E-03    -110.786E-03     19.6059E-03    -48.0674E+06    -109.204E+06    -230.176E+06    -109.213E+06    -230.168E+06    -48.0674E+06     444.679E+03         41.2205
            1249     6.27153E-03     73.2550E-03     121.949E-03     121.851E-03    -420.223E-03     121.949E-03    -420.223E-03     121.851E-03    -273.787E-06     220.078E-03    -109.429E-03    -110.649E-03    -108.934E-03     219.583E-03    -110.649E-03     25.3386E-03    -29.0102E+06    -98.7951E+06    -186.154E+06    -98.8077E+06    -186.141E+06    -29.0102E+06     179.048E+03         42.1133
            1250     7.16651E-03     73.2849E-03     121.954E-03     121.846E-03    -420.166E-03     121.952E-03    -420.166E-03     121.848E-03    -336.154E-06     220.434E-03    -109.877E-03    -110.557E-03    -109.111E-03     219.669E-03    -110.557E-03     31.5931E-03    -12.3982E+06    -89.7084E+06    -144.865E+06    -89.7223E+06    -144.851E+06    -12.3982E+06    -68.0679E+03         43.2165
            1251     8.06349E-03     73.3224E-03     121.956E-03     121.832E-03    -420.077E-03     121.949E-03    -420.077E-03     121.838E-03    -338.980E-06     220.329E-03    -109.844E-03    -110.485E-03    -108.714E-03     219.199E-03    -110.485E-03     38.3855E-03     5.20743E+06    -78.5877E+06    -100.130E+06    -80.0532E+06    -98.6650E+06     5.20743E+06     700.551E+03         44.5445
            1252     8.96049E-03     73.3695E-03     121.950E-03     121.799E-03    -419.950E-03     121.928E-03    -419.950E-03     121.822E-03    -366.472E-06     220.468E-03    -110.012E-03    -110.455E-03    -108.479E-03     218.872E-03    -110.393E-03     45.6704E-03     24.2352E+06    -41.1249E+06    -69.4558E+06    -69.2260E+06    -41.3548E+06     24.2352E+06     1.17237E+06         46.1001
            1253     9.85730E-03     73.4282E-03     121.924E-03     121.748E-03    -419.776E-03     121.877E-03    -419.776E-03     121.796E-03    -366.961E-06     221.164E-03    -110.303E-03    -110.862E-03    -108.724E-03     219.042E-03    -110.318E-03     52.8116E-03     42.8146E+06     15.8466E+06    -58.9392E+06    -58.9141E+06     15.8215E+06     42.8146E+06     1.14780E+06         47.8698
            1254     10.7544E-03     73.4920E-03     121.887E-03     121.673E-03    -419.554E-03     121.802E-03    -419.554E-03     121.759E-03    -380.648E-06     222.026E-03    -110.268E-03    -111.758E-03    -109.015E-03     219.283E-03    -110.268E-03     60.1538E-03     64.1741E+06     50.4312E+06    -49.2375E+06    -49.2299E+06     58.9963E+06     55.6013E+06     259.496E+03         49.8213
            1255     11.6497E-03     73.5689E-03     121.813E-03     121.574E-03    -419.269E-03     121.677E-03    -419.269E-03     121.710E-03    -379.271E-06     222.472E-03    -110.260E-03    -112.212E-03    -109.078E-03     219.339E-03    -110.260E-03     64.4616E-03     76.2898E+06     65.0482E+06    -42.7881E+06    -42.6323E+06     76.1341E+06     65.0482E+06    -1.77299E+06         51.9055
            1256     12.5478E-03     73.6464E-03     121.721E-03     121.440E-03    -418.917E-03     121.515E-03    -418.917E-03     121.645E-03    -366.705E-06     224.080E-03    -110.308E-03    -113.771E-03    -109.504E-03     219.813E-03    -110.308E-03     74.8439E-03     82.1789E+06     77.5074E+06    -37.2026E+06    -36.8884E+06     79.8622E+06     79.5100E+06    -3.41626E+06         54.0596
            1257     13.4461E-03     73.7493E-03     121.633E-03     121.275E-03    -418.529E-03     121.343E-03    -418.529E-03     121.565E-03    -362.933E-06     225.244E-03    -110.397E-03    -114.847E-03    -110.182E-03     220.579E-03    -110.397E-03     78.8431E-03     101.406E+06     92.8004E+06    -26.4152E+06    -26.1636E+06     92.5488E+06     101.406E+06    -1.46526E+06         56.2158
            1258     14.3403E-03     73.8358E-03     121.491E-03     121.038E-03    -417.998E-03     121.070E-03    -417.998E-03     121.460E-03    -336.348E-06     229.891E-03    -110.509E-03    -119.383E-03    -111.304E-03     221.813E-03    -110.509E-03     101.488E-03     127.742E+06     114.285E+06    -14.2285E+06    -14.0633E+06     114.120E+06     127.742E+06     1.40051E+06         58.3135
            1259     15.2359E-03     74.0029E-03     121.337E-03     120.920E-03    -417.729E-03     120.920E-03    -417.728E-03     121.337E-03     10.9467E-06     229.225E-03    -110.565E-03    -118.660E-03    -111.052E-03     221.617E-03    -110.565E-03     96.7983E-03     142.027E+06     128.693E+06    -8.54308E+06    -8.45829E+06     128.609E+06     142.027E+06     227.364E+03         60.3112
            1260     895.655E-06     74.4378E-03     139.748E-03     102.782E-03    -416.364E-03     102.782E-03    -416.363E-03     139.748E-03    -458.899E-06     220.743E-03    -109.839E-03    -110.904E-03    -109.955E-03     220.738E-03    -110.783E-03     2.55189E-03    -147.433E+06    -153.684E+06    -365.299E+06    -152.419E+06    -365.240E+06    -148.756E+06    -258.324E+03         39.1323
            1261     1.79187E-03     74.4393E-03     121.263E-03     121.182E-03    -416.380E-03     121.205E-03    -416.380E-03     121.239E-03    -319.032E-06     220.873E-03    -110.321E-03    -110.553E-03    -110.400E-03     220.858E-03    -110.458E-03     4.25212E-03    -132.654E+06    -146.024E+06    -354.216E+06    -146.048E+06    -354.191E+06    -132.654E+06    -146.670E+03         39.2909
            1262     2.68692E-03     74.4442E-03     121.254E-03     121.213E-03    -416.345E-03     121.237E-03    -416.345E-03     121.230E-03    -13.7164E-06     220.758E-03    -110.245E-03    -110.514E-03    -110.204E-03     220.718E-03    -110.514E-03     7.09994E-03    -114.612E+06    -139.597E+06    -332.956E+06    -139.606E+06    -332.948E+06    -114.612E+06     286.392E+03         39.5578
            1263     3.58272E-03     74.4505E-03     121.233E-03     121.200E-03    -416.307E-03     121.208E-03    -416.307E-03     121.225E-03    -277.060E-06     220.867E-03    -110.300E-03    -110.567E-03    -110.208E-03     220.775E-03    -110.567E-03     10.8322E-03    -89.9683E+06    -129.783E+06    -299.168E+06    -129.799E+06    -299.152E+06    -89.9683E+06     1.36823E+06         39.9488
            1264     4.47798E-03     74.4630E-03     121.223E-03     121.185E-03    -416.248E-03     121.193E-03    -416.248E-03     121.215E-03    -185.752E-06     220.594E-03    -109.992E-03    -110.601E-03    -109.830E-03     220.432E-03    -110.601E-03     14.4812E-03    -67.2104E+06    -120.212E+06    -266.831E+06    -120.231E+06    -266.812E+06    -67.2104E+06     1.38689E+06         40.4832
            1265     5.37627E-03     74.4767E-03     121.208E-03     121.151E-03    -416.166E-03     121.158E-03    -416.166E-03     121.200E-03    -305.892E-06     220.029E-03    -109.476E-03    -110.552E-03    -109.210E-03     219.762E-03    -110.552E-03     18.4932E-03    -47.5155E+06    -109.957E+06    -229.471E+06    -109.968E+06    -229.459E+06    -47.5155E+06     50.3929E+03         41.1839
            1266     6.27140E-03     74.5007E-03     121.193E-03     121.112E-03    -416.055E-03     121.124E-03    -416.055E-03     121.181E-03    -291.809E-06     219.950E-03    -109.483E-03    -110.467E-03    -109.040E-03     219.508E-03    -110.467E-03     23.9237E-03    -28.4808E+06    -99.0006E+06    -185.885E+06    -99.0062E+06    -185.879E+06    -28.4808E+06    -416.499E+03         42.0747
            1267     7.16862E-03     74.5309E-03     121.158E-03     121.056E-03    -415.906E-03     121.060E-03    -415.906E-03     121.154E-03    -352.152E-06     220.110E-03    -109.704E-03    -110.405E-03    -108.999E-03     219.405E-03    -110.405E-03     30.2695E-03    -10.8536E+06    -89.1332E+06    -144.696E+06    -89.1355E+06    -144.694E+06    -10.8536E+06    -227.367E+03         43.1773
            1268     8.06432E-03     74.5678E-03     121.119E-03     120.983E-03    -415.717E-03     120.983E-03    -415.717E-03     121.119E-03    -354.916E-06     220.466E-03    -110.039E-03    -110.427E-03    -108.997E-03     219.357E-03    -110.360E-03     37.9810E-03     6.36230E+06    -78.5885E+06    -100.175E+06    -79.2891E+06    -99.4748E+06     6.36230E+06    -133.836E+03         44.5065
            1269     8.96032E-03     74.6155E-03     121.073E-03     120.879E-03    -415.481E-03     120.879E-03    -415.481E-03     121.073E-03    -375.900E-06     220.911E-03    -110.275E-03    -110.636E-03    -108.984E-03     219.298E-03    -110.314E-03     45.9892E-03     24.1006E+06    -41.2216E+06    -70.1892E+06    -69.0353E+06    -42.3755E+06     24.1006E+06     379.531E+03         46.0656
            1270     9.85768E-03     74.6723E-03     121.015E-03     120.741E-03    -415.192E-03     120.741E-03    -415.192E-03     121.015E-03    -369.328E-06     221.541E-03    -110.275E-03    -111.266E-03    -109.134E-03     219.424E-03    -110.290E-03     52.8211E-03     43.6078E+06     16.9692E+06    -58.8000E+06    -58.7903E+06     16.9594E+06     43.6078E+06     52.2841E+03         47.8414
            1271     10.7539E-03     74.7394E-03     120.944E-03     120.565E-03    -414.838E-03     120.565E-03    -414.838E-03     120.944E-03    -366.911E-06     222.314E-03    -110.273E-03    -112.041E-03    -109.370E-03     219.643E-03    -110.273E-03     59.4242E-03     64.3808E+06     50.4943E+06    -49.3545E+06    -49.3457E+06     59.2691E+06     55.5973E+06    -80.3852E+03         49.8022
            1272     11.6509E-03     74.8152E-03     120.859E-03     120.350E-03    -414.430E-03     120.350E-03    -414.430E-03     120.859E-03    -333.438E-06     222.694E-03    -110.291E-03    -112.403E-03    -109.332E-03     219.623E-03    -110.291E-03     63.8464E-03     76.9626E+06     65.9328E+06    -40.6117E+06    -40.5985E+06     76.9494E+06     65.9328E+06     812.087E+03         51.8980
            1273     12.5466E-03     74.8918E-03     120.756E-03     120.093E-03    -413.951E-03     120.093E-03    -413.951E-03     120.756E-03    -283.421E-06     224.624E-03    -110.378E-03    -114.246E-03    -110.064E-03     220.442E-03    -110.378E-03     74.2969E-03     85.6524E+06     80.9178E+06    -33.8125E+06    -33.5951E+06     82.9467E+06     83.4062E+06    -306.360E+03         54.0649
            1274     13.4417E-03     74.9957E-03     120.635E-03     119.773E-03    -413.381E-03     119.773E-03    -413.381E-03     120.635E-03    -204.979E-06     225.897E-03    -110.498E-03    -115.399E-03    -110.873E-03     221.371E-03    -110.498E-03     77.8427E-03     100.868E+06     92.3383E+06    -28.8470E+06    -28.5183E+06     92.0096E+06     100.868E+06    -3.58693E+06         56.2329
            1275     14.3368E-03     75.0872E-03     120.489E-03     119.441E-03    -412.772E-03     119.441E-03    -412.772E-03     120.489E-03     4.13831E-06     229.448E-03    -110.603E-03    -118.846E-03    -110.950E-03     221.553E-03    -110.603E-03     100.107E-03     121.565E+06     109.236E+06    -19.5643E+06    -19.3365E+06     109.008E+06     121.565E+06    -2.31153E+06         58.3413
            1276     15.2355E-03     75.2434E-03     120.328E-03     119.221E-03    -412.278E-03     119.220E-03    -412.278E-03     120.328E-03    -196.405E-06     228.116E-03    -110.617E-03    -117.499E-03    -109.747E-03     220.364E-03    -110.617E-03     98.4594E-03     141.281E+06     128.372E+06    -6.99504E+06    -6.85672E+06     128.234E+06     141.281E+06     1.23137E+06         60.3480
            1277     895.991E-06     75.6812E-03     134.625E-03     106.700E-03    -412.431E-03     106.700E-03    -412.431E-03     134.625E-03    -817.716E-06     220.496E-03    -109.569E-03    -110.928E-03    -109.822E-03     220.491E-03    -110.669E-03     2.63873E-03    -149.101E+06    -153.561E+06    -366.069E+06    -153.599E+06    -366.030E+06    -149.101E+06    -637.527E+03         39.1059
            1278     1.79155E-03     75.6857E-03     120.640E-03     120.564E-03    -412.433E-03     120.573E-03    -412.432E-03     120.630E-03    -302.287E-06     220.180E-03    -109.919E-03    -110.261E-03    -109.911E-03     220.171E-03    -110.261E-03     3.32512E-03    -133.790E+06    -147.407E+06    -354.603E+06    -147.429E+06    -354.581E+06    -133.790E+06     319.381E+03         39.2635
            1279     2.68857E-03     75.6877E-03     120.619E-03     120.576E-03    -412.368E-03     120.585E-03    -412.368E-03     120.609E-03    -20.4201E-06     220.261E-03    -109.999E-03    -110.262E-03    -109.967E-03     220.229E-03    -110.262E-03     5.94406E-03    -113.055E+06    -140.446E+06    -333.027E+06    -140.460E+06    -333.013E+06    -113.055E+06     85.5634E+03         39.5288
            1280     3.58457E-03     75.6973E-03     120.593E-03     120.529E-03    -412.284E-03     120.528E-03    -412.284E-03     120.593E-03    -285.223E-06     220.433E-03    -110.109E-03    -110.325E-03    -110.036E-03     220.361E-03    -110.325E-03     9.47138E-03    -89.5502E+06    -129.870E+06    -300.417E+06    -129.879E+06    -300.408E+06    -89.5502E+06     3.45713E+03         39.9175
            1281     4.48090E-03     75.7075E-03     120.569E-03     120.468E-03    -412.171E-03     120.468E-03    -412.171E-03     120.569E-03    -193.146E-06     220.510E-03    -110.111E-03    -110.400E-03    -109.987E-03     220.387E-03    -110.400E-03     12.5351E-03    -67.1705E+06    -119.381E+06    -266.738E+06    -119.392E+06    -266.727E+06    -67.1705E+06     519.311E+03         40.4493
            1282     5.37433E-03     75.7236E-03     120.537E-03     120.384E-03    -412.022E-03     120.384E-03    -412.022E-03     120.537E-03    -319.998E-06     220.268E-03    -109.835E-03    -110.433E-03    -109.596E-03     220.029E-03    -110.433E-03     17.4264E-03    -46.4817E+06    -108.887E+06    -228.301E+06    -108.911E+06    -228.277E+06    -46.4817E+06     739.572E+03         41.1471
            1283     6.27114E-03     75.7454E-03     120.497E-03     120.286E-03    -411.828E-03     120.286E-03    -411.828E-03     120.497E-03    -302.832E-06     219.798E-03    -109.404E-03    -110.393E-03    -108.948E-03     219.341E-03    -110.393E-03     24.1920E-03    -27.4314E+06    -98.9131E+06    -185.833E+06    -98.9306E+06    -185.815E+06    -27.4314E+06     197.190E+03         42.0357
            1284     7.16766E-03     75.7754E-03     120.446E-03     120.157E-03    -411.592E-03     120.157E-03    -411.592E-03     120.446E-03    -359.151E-06     219.918E-03    -109.548E-03    -110.370E-03    -108.864E-03     219.189E-03    -110.325E-03     30.7868E-03    -10.2484E+06    -89.4853E+06    -144.429E+06    -89.4903E+06    -144.424E+06    -10.2484E+06     84.7183E+03         43.1374
            1285     8.06557E-03     75.8130E-03     120.384E-03     120.007E-03    -411.304E-03     120.007E-03    -411.304E-03     120.384E-03    -356.548E-06     220.744E-03    -110.088E-03    -110.657E-03    -109.364E-03     219.663E-03    -110.299E-03     37.5759E-03     6.86226E+06    -79.1756E+06    -99.3608E+06    -79.4073E+06    -99.1291E+06     6.86226E+06    -447.218E+03         44.4673
            1286     8.96244E-03     75.8616E-03     120.309E-03     119.819E-03    -410.956E-03     119.819E-03    -410.956E-03     120.309E-03    -376.795E-06     221.465E-03    -110.310E-03    -111.155E-03    -109.650E-03     219.960E-03    -110.310E-03     44.4898E-03     23.5719E+06    -41.5109E+06    -71.1036E+06    -69.6625E+06    -42.9519E+06     23.5719E+06    -872.458E+03         46.0291
            1287     9.85743E-03     75.9189E-03     120.219E-03     119.590E-03    -410.544E-03     119.590E-03    -410.544E-03     120.219E-03    -361.845E-06     221.804E-03    -110.331E-03    -111.473E-03    -109.433E-03     219.763E-03    -110.331E-03     51.8070E-03     42.2285E+06     17.2093E+06     -60.573E+06    -60.5500E+06     17.1864E+06     42.2285E+06    -581.519E+03         47.8106
            1288     10.7528E-03     75.9869E-03     120.113E-03     119.328E-03    -410.071E-03     119.328E-03    -410.071E-03     120.113E-03    -342.681E-06     222.233E-03    -110.321E-03    -111.911E-03    -109.258E-03     219.579E-03    -110.321E-03     59.2185E-03     63.3536E+06     49.1671E+06    -51.4132E+06    -51.4001E+06     58.5299E+06     53.9776E+06    -324.854E+03         49.7809
            1289     11.6492E-03     76.0597E-03     119.992E-03     119.029E-03    -409.542E-03     119.029E-03    -409.542E-03     119.992E-03    -291.556E-06     223.261E-03    -110.346E-03    -112.915E-03    -109.847E-03     220.193E-03    -110.346E-03     63.9151E-03     75.6432E+06     63.4102E+06    -42.2333E+06    -42.2233E+06     75.6332E+06     63.4102E+06    -268.607E+03         51.8886
            1290     12.5458E-03     76.1409E-03     119.852E-03     118.691E-03    -408.940E-03     118.691E-03    -408.940E-03     119.852E-03    -216.220E-06     225.638E-03    -110.483E-03    -115.155E-03    -110.930E-03     221.413E-03    -110.483E-03     74.8730E-03     86.1960E+06     80.6131E+06    -32.7972E+06    -32.7431E+06     83.4160E+06     83.3390E+06     932.490E+03         54.0677
            1291     13.4402E-03     76.2449E-03     119.695E-03     118.322E-03    -408.271E-03     118.322E-03    -408.270E-03     119.695E-03    -82.9823E-06     225.629E-03    -110.621E-03    -115.008E-03    -110.400E-03     221.021E-03    -110.621E-03     78.5203E-03     104.926E+06     95.4713E+06    -24.7166E+06    -24.4755E+06     95.2302E+06     104.926E+06     1.15368E+06         56.2488
            1292     14.3373E-03     76.3329E-03     119.515E-03     117.966E-03    -407.550E-03     117.966E-03    -407.550E-03     119.515E-03    -49.2136E-06     228.519E-03    -110.660E-03    -117.859E-03    -109.915E-03     220.575E-03    -110.660E-03     100.333E-03     120.588E+06     107.061E+06    -20.8640E+06    -20.6314E+06     106.828E+06     120.588E+06    -1.37206E+06         58.3702
            1293     15.2346E-03     76.4877E-03     119.315E-03     117.515E-03    -406.565E-03     117.515E-03    -406.565E-03     119.315E-03    -293.399E-06     227.069E-03    -110.487E-03    -116.582E-03    -108.711E-03     219.316E-03    -110.605E-03     98.2436E-03     139.223E+06     126.125E+06    -8.94243E+06    -8.80750E+06     125.991E+06     139.223E+06    -1.83745E+06         60.3864
            1294     895.043E-06     76.9277E-03     128.932E-03     111.033E-03    -408.440E-03     111.066E-03    -408.440E-03     128.899E-03    -949.444E-06     220.164E-03    -109.398E-03    -110.767E-03    -110.446E-03     220.158E-03    -109.712E-03     1.80794E-03    -148.920E+06    -154.346E+06    -365.477E+06    -153.839E+06    -365.471E+06    -149.433E+06    -98.0766E+03         39.0808
            1295     1.79202E-03     76.9288E-03     120.012E-03     119.913E-03    -408.378E-03     119.945E-03    -408.377E-03     119.979E-03    -317.164E-06     219.997E-03    -109.728E-03    -110.269E-03    -109.857E-03     219.981E-03    -110.124E-03     4.26427E-03    -132.665E+06    -147.292E+06    -354.905E+06    -147.305E+06    -354.892E+06    -132.665E+06    -497.671E+03         39.2373
            1296     2.68715E-03     76.9340E-03     119.956E-03     119.886E-03    -408.297E-03     119.886E-03    -408.296E-03     119.956E-03    -13.8311E-06     220.539E-03    -110.078E-03    -110.461E-03    -110.293E-03     220.504E-03    -110.212E-03     6.39664E-03    -110.995E+06    -138.303E+06    -332.921E+06    -138.317E+06    -332.907E+06    -110.995E+06     37.3355E+03         39.5007
            1297     3.58289E-03     76.9415E-03     119.926E-03     119.821E-03    -408.162E-03     119.820E-03    -408.162E-03     119.926E-03    -290.757E-06     220.509E-03    -110.069E-03    -110.440E-03    -110.106E-03     220.442E-03    -110.336E-03     9.17002E-03    -89.8700E+06    -129.545E+06    -301.387E+06    -129.552E+06    -301.380E+06    -89.8700E+06    -187.281E+03         39.8869
            1298     4.47822E-03     76.9542E-03     119.888E-03     119.700E-03    -407.988E-03     119.700E-03    -407.988E-03     119.888E-03    -200.804E-06     220.221E-03    -109.831E-03    -110.391E-03    -109.708E-03     220.099E-03    -110.391E-03     12.4796E-03    -67.2736E+06    -118.919E+06    -266.944E+06    -118.922E+06    -266.941E+06    -67.2736E+06     38.6387E+03         40.4158
            1299     5.37640E-03     76.9685E-03     119.838E-03     119.577E-03    -407.775E-03     119.577E-03    -407.775E-03     119.838E-03    -325.622E-06     219.966E-03    -109.582E-03    -110.384E-03    -109.352E-03     219.736E-03    -110.384E-03     17.1053E-03    -45.8430E+06    -108.391E+06    -228.622E+06    -108.404E+06    -228.609E+06    -45.8430E+06     759.348E+03         41.1108
            1300     6.27316E-03     76.9898E-03     119.778E-03     119.421E-03    -407.510E-03     119.421E-03    -407.510E-03     119.778E-03    -304.948E-06     219.937E-03    -109.592E-03    -110.345E-03    -109.170E-03     219.516E-03    -110.345E-03     23.1728E-03    -27.1962E+06    -98.7809E+06    -185.461E+06    -98.8073E+06    -185.435E+06    -27.1962E+06     1.07688E+06         41.9968
            1301     7.17040E-03     77.0201E-03     119.703E-03     119.224E-03    -407.181E-03     119.224E-03    -407.181E-03     119.703E-03    -361.619E-06     220.580E-03    -110.045E-03    -110.535E-03    -109.560E-03     219.900E-03    -110.340E-03     29.7085E-03    -9.86884E+06    -89.0884E+06    -143.518E+06    -89.1259E+06    -143.480E+06    -9.86884E+06     300.289E+03         43.0965
            1302     8.06461E-03     77.0600E-03     119.614E-03     118.998E-03    -406.788E-03     118.998E-03    -406.788E-03     119.614E-03    -358.598E-06     221.344E-03    -110.388E-03    -110.957E-03    -109.948E-03     220.336E-03    -110.388E-03     36.3505E-03     7.15409E+06    -78.6155E+06    -99.1157E+06    -79.1265E+06    -98.6046E+06     7.15409E+06    -361.887E+03         44.4259
            1303     8.95859E-03     77.1084E-03     119.509E-03     118.729E-03    -406.329E-03     118.728E-03    -406.329E-03     119.509E-03    -376.237E-06     221.511E-03    -110.421E-03    -111.090E-03    -109.621E-03     220.042E-03    -110.421E-03     43.8826E-03     23.5885E+06    -42.1518E+06    -70.4823E+06    -69.9365E+06    -42.6976E+06     23.5885E+06    -333.842E+03         45.9902
            1304     9.85483E-03     77.1659E-03     119.387E-03     118.417E-03    -405.806E-03     118.417E-03    -405.806E-03     119.387E-03    -360.170E-06     221.439E-03    -110.407E-03    -111.032E-03    -108.978E-03     219.384E-03    -110.407E-03     51.9162E-03     40.9471E+06     16.5077E+06    -61.5922E+06    -61.5632E+06     16.4787E+06     40.9471E+06    -562.431E+03         47.7785
            1305     10.7534E-03     77.2310E-03     119.247E-03     118.073E-03    -405.217E-03     118.073E-03    -405.217E-03     119.247E-03    -341.908E-06     222.209E-03    -110.366E-03    -111.843E-03    -109.117E-03     219.483E-03    -110.366E-03     59.9866E-03     62.4554E+06     50.1685E+06    -52.1714E+06    -52.1573E+06     59.0248E+06     53.5849E+06    -831.535E+03         49.7589
            1306     11.6494E-03     77.3092E-03     119.089E-03     117.688E-03    -404.560E-03     117.688E-03    -404.560E-03     119.089E-03    -294.205E-06     223.831E-03    -110.396E-03    -113.435E-03    -110.181E-03     220.576E-03    -110.396E-03     65.9063E-03     75.4324E+06     63.5833E+06    -43.6607E+06    -43.6530E+06     75.4247E+06     63.5833E+06    -797.601E+03         51.8787
            1307     12.5427E-03     77.3886E-03     118.912E-03     117.265E-03    -403.826E-03     117.265E-03    -403.826E-03     118.912E-03    -234.433E-06     225.668E-03    -110.519E-03    -115.150E-03    -110.693E-03     221.211E-03    -110.519E-03     76.8939E-03     83.4854E+06     78.2609E+06    -36.1711E+06    -36.1673E+06     81.2357E+06     80.5068E+06    -256.701E+03         54.0716
            1308     13.4395E-03     77.4928E-03     118.717E-03     116.838E-03    -403.049E-03     116.838E-03    -403.049E-03     118.717E-03    -187.648E-06     224.405E-03    -110.597E-03    -113.808E-03    -109.092E-03     219.689E-03    -110.597E-03     79.0653E-03     101.504E+06     92.3507E+06    -27.1054E+06    -26.9529E+06     92.1982E+06     101.504E+06     510.416E+03         56.2680
            1309     14.3377E-03     77.5760E-03     118.497E-03     116.339E-03    -402.096E-03     116.339E-03    -402.096E-03     118.497E-03    -228.175E-06     227.914E-03    -110.581E-03    -117.332E-03    -108.890E-03     219.471E-03    -110.581E-03     102.732E-03     127.337E+06     112.818E+06    -14.5661E+06    -14.4055E+06     112.657E+06     127.337E+06     706.006E+03         58.4034
            1310     15.2363E-03     77.7348E-03     118.250E-03     115.694E-03    -400.925E-03     115.694E-03    -400.925E-03     118.250E-03    -181.009E-06     228.430E-03    -110.396E-03    -118.034E-03    -109.719E-03     220.233E-03    -110.514E-03     100.546E-03     142.809E+06     129.003E+06    -7.79545E+06    -7.72008E+06     128.928E+06     142.809E+06    -787.224E+03         60.4274
            1311     896.724E-06     78.1691E-03     122.763E-03     115.784E-03    -404.267E-03     115.864E-03    -404.267E-03     122.683E-03    -982.426E-06     219.846E-03    -109.176E-03    -110.670E-03    -110.507E-03     219.841E-03    -109.334E-03     370.034E-06    -149.039E+06    -153.657E+06    -363.780E+06    -153.145E+06    -363.779E+06    -149.551E+06    -27.0908E+03         39.0573
            1312     1.79304E-03     78.1741E-03     119.354E-03     119.183E-03    -404.191E-03     119.262E-03    -404.190E-03     119.274E-03    -322.522E-06     220.140E-03    -109.819E-03    -110.321E-03    -110.085E-03     220.124E-03    -110.040E-03     4.00109E-03    -133.241E+06    -147.298E+06    -354.142E+06    -147.304E+06    -354.136E+06    -133.241E+06    -502.709E+03         39.2125
            1313     2.68884E-03     78.1794E-03     119.246E-03     119.120E-03    -404.064E-03     119.119E-03    -404.064E-03     119.246E-03    -13.3518E-06     220.425E-03    -109.986E-03    -110.440E-03    -110.199E-03     220.390E-03    -110.191E-03     6.55852E-03    -112.688E+06    -139.563E+06    -334.274E+06    -139.576E+06    -334.261E+06    -112.688E+06    -455.111E+03         39.4740
            1314     3.58376E-03     78.1881E-03     119.202E-03     119.057E-03    -403.891E-03     119.057E-03    -403.891E-03     119.202E-03    -294.170E-06     220.090E-03    -109.717E-03    -110.373E-03    -109.745E-03     220.014E-03    -110.269E-03     9.74528E-03    -90.2394E+06    -129.863E+06    -301.259E+06    -129.875E+06    -301.247E+06    -90.2394E+06     353.364E+03         39.8578
            1315     4.48067E-03     78.1980E-03     119.150E-03     118.884E-03    -403.668E-03     118.884E-03    -403.668E-03     119.150E-03    -200.431E-06     220.029E-03    -109.614E-03    -110.414E-03    -109.594E-03     219.882E-03    -110.288E-03     13.7586E-03     -66.961E+06    -119.121E+06    -266.979E+06    -119.127E+06    -266.973E+06     -66.961E+06     576.374E+03         40.3837
            1316     5.37558E-03     78.2140E-03     119.083E-03     118.718E-03    -403.386E-03     118.717E-03    -403.386E-03     119.083E-03    -320.983E-06     220.746E-03    -109.928E-03    -110.818E-03    -110.171E-03     220.521E-03    -110.349E-03     17.2027E-03    -46.2724E+06    -108.881E+06    -229.813E+06    -108.884E+06    -229.810E+06    -46.2724E+06     261.743E+03         41.0752
            1317     6.27116E-03     78.2348E-03     119.002E-03     118.502E-03    -403.041E-03     118.502E-03    -403.041E-03     119.002E-03    -301.588E-06     221.209E-03    -110.256E-03    -110.953E-03    -110.381E-03     220.840E-03    -110.459E-03     21.8709E-03    -27.4533E+06    -98.2440E+06    -185.956E+06    -98.2615E+06    -185.939E+06    -27.4533E+06     578.433E+03         41.9573
            1318     7.16561E-03     78.2670E-03     118.904E-03     118.236E-03    -402.623E-03     118.236E-03    -402.623E-03     118.904E-03    -358.587E-06     221.121E-03    -110.272E-03    -110.849E-03    -109.931E-03     220.478E-03    -110.547E-03     28.8627E-03    -8.71081E+06    -87.2529E+06    -142.667E+06    -87.3444E+06    -142.575E+06    -8.71081E+06     676.961E+03         43.0542
            1319     8.06194E-03     78.3071E-03     118.788E-03     117.938E-03    -402.129E-03     117.938E-03    -402.129E-03     118.788E-03    -357.789E-06     220.853E-03    -110.016E-03    -110.836E-03    -109.260E-03     219.818E-03    -110.558E-03     36.7087E-03     8.10291E+06    -77.8669E+06    -98.5057E+06    -78.4329E+06    -97.9396E+06     8.10291E+06     267.984E+03         44.3837
            1320     8.95952E-03     78.3548E-03     118.653E-03     117.594E-03    -401.569E-03     117.594E-03    -401.569E-03     118.653E-03    -378.844E-06     220.913E-03    -110.187E-03    -110.726E-03    -108.869E-03     219.369E-03    -110.499E-03     44.9307E-03     24.1378E+06    -42.6369E+06    -69.8437E+06    -69.5168E+06    -42.9638E+06     24.1378E+06     186.898E+03         45.9518
            1321     9.85703E-03     78.4107E-03     118.500E-03     117.203E-03    -400.936E-03     117.203E-03    -400.936E-03     118.500E-03    -366.095E-06     221.394E-03    -110.436E-03    -110.958E-03    -108.865E-03     219.301E-03    -110.436E-03     52.4722E-03     42.3479E+06     17.3585E+06    -59.9397E+06    -59.9271E+06     17.3460E+06     42.3479E+06    -163.220E+03         47.7470
            1322     10.7520E-03     78.4779E-03     118.325E-03     116.766E-03    -400.220E-03     116.766E-03    -400.219E-03     118.325E-03    -359.644E-06     221.977E-03    -110.372E-03    -111.605E-03    -108.788E-03     219.160E-03    -110.372E-03     60.8301E-03     62.1133E+06     51.2713E+06    -51.9786E+06    -51.9694E+06     59.2621E+06     54.1132E+06    -490.428E+03         49.7374
            1323     11.6487E-03     78.5553E-03     118.129E-03     116.285E-03    -399.426E-03     116.285E-03    -399.426E-03     118.129E-03    -338.552E-06     222.756E-03    -110.333E-03    -112.423E-03    -108.847E-03     219.180E-03    -110.333E-03     68.7766E-03     74.6464E+06     63.5414E+06    -44.3588E+06    -44.3568E+06     74.6444E+06     63.5414E+06     68.6706E+03         51.8716
            1324     12.5465E-03     78.6385E-03     117.912E-03     115.771E-03    -398.563E-03     115.771E-03    -398.563E-03     117.912E-03    -325.331E-06     224.143E-03    -110.335E-03    -113.808E-03    -108.869E-03     219.204E-03    -110.335E-03     80.6101E-03     83.6818E+06     78.9309E+06    -35.6689E+06    -35.6573E+06     82.0242E+06     80.5769E+06    -198.898E+03         54.0822
            1325     13.4426E-03     78.7374E-03     117.676E-03     115.220E-03    -397.621E-03     115.220E-03    -397.621E-03     117.676E-03    -326.580E-06     224.014E-03    -110.336E-03    -113.677E-03    -108.508E-03     218.844E-03    -110.336E-03     82.6349E-03     102.117E+06     92.8727E+06    -26.4317E+06    -26.3689E+06     92.8099E+06     102.117E+06    -1.63741E+06         56.2951
            1326     14.3428E-03     78.8183E-03     117.410E-03     114.595E-03    -396.535E-03     114.595E-03    -396.535E-03     117.410E-03    -236.885E-06     228.988E-03    -110.348E-03    -118.640E-03    -110.067E-03     220.414E-03    -110.348E-03     104.491E-03     126.997E+06     112.252E+06    -14.9592E+06    -14.8958E+06     112.189E+06     126.997E+06    -1.10327E+06         58.4412
            1327     15.2430E-03     78.9806E-03     117.115E-03     113.889E-03    -395.276E-03     113.889E-03    -395.276E-03     117.115E-03    -11.2706E-06     230.269E-03    -110.387E-03    -119.882E-03    -111.808E-03     222.195E-03    -110.387E-03     100.122E-03     142.134E+06     128.710E+06    -7.84864E+06    -7.82908E+06     128.690E+06     142.134E+06     239.927E+03         60.4693
            1328     895.911E-06     79.4171E-03     121.457E-03     115.551E-03    -399.900E-03     120.896E-03    -399.899E-03     116.111E-03    -1.00818E-03     220.731E-03    -109.895E-03    -110.836E-03    -110.834E-03     220.729E-03    -109.895E-03     416.282E-06    -148.200E+06    -153.581E+06    -362.953E+06    -152.589E+06    -362.953E+06    -149.192E+06    -118.169E+03         39.0353
            1329     1.79062E-03     79.4171E-03     118.589E-03     118.378E-03    -399.805E-03     118.471E-03    -399.804E-03     118.495E-03    -313.638E-06     220.785E-03    -110.155E-03    -110.630E-03    -110.330E-03     220.775E-03    -110.445E-03     2.93437E-03    -133.191E+06    -147.659E+06    -354.245E+06    -147.662E+06    -354.242E+06    -133.191E+06    -240.385E+03         39.1891
            1330     2.68685E-03     79.4259E-03     118.457E-03     118.288E-03    -399.644E-03     118.288E-03    -399.644E-03     118.457E-03    -13.9897E-06     220.044E-03    -109.620E-03    -110.423E-03    -109.599E-03     220.022E-03    -110.423E-03     5.26827E-03    -111.694E+06    -139.513E+06    -334.033E+06    -139.522E+06    -334.024E+06    -111.694E+06    -449.130E+03         39.4486
            1331     3.58444E-03     79.4310E-03     118.400E-03     118.216E-03    -399.434E-03     118.216E-03    -399.434E-03     118.400E-03    -286.696E-06     219.765E-03    -109.447E-03    -110.318E-03    -109.398E-03     219.716E-03    -110.318E-03     7.74055E-03    -88.6103E+06    -129.137E+06    -301.315E+06    -129.151E+06    -301.301E+06    -88.6103E+06    -295.861E+03         39.8298
            1332     4.48101E-03     79.4432E-03     118.335E-03     117.998E-03    -399.157E-03     117.998E-03    -399.157E-03     118.335E-03    -194.352E-06     220.301E-03    -109.867E-03    -110.434E-03    -109.873E-03     220.181E-03    -110.308E-03     12.2779E-03    -66.8346E+06    -118.587E+06    -267.693E+06    -118.597E+06    -267.683E+06    -66.8346E+06     194.615E+03         40.3524
            1333     5.37675E-03     79.4611E-03     118.250E-03     117.779E-03    -398.805E-03     117.779E-03    -398.805E-03     118.250E-03    -310.955E-06     221.233E-03    -110.339E-03    -110.895E-03    -110.580E-03     221.002E-03    -110.421E-03     17.3299E-03    -46.0947E+06    -108.165E+06    -229.710E+06    -108.170E+06    -229.706E+06    -46.0947E+06     302.586E+03         41.0402
            1334     6.26982E-03     79.4839E-03     118.148E-03     117.510E-03    -398.379E-03     117.510E-03    -398.379E-03     118.148E-03    -294.856E-06     221.654E-03    -110.574E-03    -111.081E-03    -110.655E-03     221.229E-03    -110.574E-03     23.4965E-03    -26.7034E+06    -97.8328E+06    -186.329E+06    -97.8452E+06    -186.316E+06    -26.7034E+06     415.688E+03         41.9188
            1335     7.16530E-03     79.5132E-03     118.027E-03     117.179E-03    -397.879E-03     117.179E-03    -397.878E-03     118.027E-03    -350.401E-06     221.189E-03    -110.375E-03    -110.813E-03    -109.803E-03     220.456E-03    -110.653E-03     30.9093E-03    -8.98417E+06    -87.8916E+06    -143.598E+06    -87.9635E+06    -143.527E+06    -8.98417E+06     788.967E+03         43.0134
            1336     8.06223E-03     79.5521E-03     117.885E-03     116.816E-03    -397.299E-03     116.816E-03    -397.299E-03     117.885E-03    -346.973E-06     220.595E-03    -109.972E-03    -110.624E-03    -108.895E-03     219.518E-03    -110.624E-03     37.5623E-03     8.73610E+06    -77.1868E+06    -98.3318E+06    -78.1938E+06    -97.3248E+06     8.73610E+06     810.037E+03         44.3431
            1337     8.95939E-03     79.5990E-03     117.722E-03     116.396E-03    -396.633E-03     116.396E-03    -396.633E-03     117.722E-03    -373.772E-06     220.655E-03    -110.048E-03    -110.607E-03    -108.593E-03     219.120E-03    -110.527E-03     44.7537E-03     25.2305E+06    -41.6796E+06    -69.4937E+06    -68.9222E+06    -42.2512E+06     25.2305E+06    -246.127E+03         45.9144
            1338     9.85485E-03     79.6584E-03     117.537E-03     115.918E-03    -395.882E-03     115.918E-03    -395.882E-03     117.537E-03    -369.840E-06     220.979E-03    -110.254E-03    -110.725E-03    -108.439E-03     218.869E-03    -110.429E-03     52.5938E-03     43.1020E+06     17.0003E+06    -59.3612E+06    -59.3232E+06     16.9622E+06     43.1020E+06     182.340E+03         47.7163
            1339     10.7531E-03     79.7226E-03     117.327E-03     115.393E-03    -395.044E-03     115.393E-03    -395.044E-03     117.327E-03    -370.690E-06     221.165E-03    -110.240E-03    -110.925E-03    -107.995E-03     218.305E-03    -110.310E-03     61.1522E-03     62.6659E+06     50.1674E+06    -51.2049E+06    -51.1737E+06     58.8458E+06     53.9563E+06     1.38599E+06         49.7176
            1340     11.6521E-03     79.7999E-03     117.094E-03     114.814E-03    -394.126E-03     114.814E-03    -394.126E-03     117.094E-03    -365.017E-06     221.072E-03    -110.140E-03    -110.932E-03    -107.304E-03     217.490E-03    -110.186E-03     68.5169E-03     75.9196E+06     64.0435E+06    -42.9384E+06    -42.8848E+06     75.8660E+06     64.0435E+06    -210.406E+03         51.8669
            1341     12.5513E-03     79.8818E-03     116.836E-03     114.187E-03    -393.119E-03     114.187E-03    -393.119E-03     116.836E-03    -372.222E-06     221.514E-03    -110.034E-03    -111.480E-03    -106.742E-03     216.822E-03    -110.080E-03     78.0613E-03     86.5346E+06     80.8441E+06    -33.3235E+06    -33.2626E+06     83.9497E+06     83.3680E+06    -1.97725E+06         54.0956
            1342     13.4536E-03     79.9809E-03     116.555E-03     113.519E-03    -392.031E-03     113.519E-03    -392.030E-03     116.555E-03    -343.459E-06     223.584E-03    -110.033E-03    -113.551E-03    -108.541E-03     218.574E-03    -110.033E-03     81.3571E-03     105.501E+06     95.4914E+06    -23.7457E+06    -23.7246E+06     95.4704E+06     105.501E+06    -1.05555E+06         56.3245
            1343     14.3465E-03     80.0687E-03     116.242E-03     112.805E-03    -390.835E-03     112.805E-03    -390.835E-03     116.242E-03    -266.706E-06     231.176E-03    -110.135E-03    -121.041E-03    -112.812E-03     222.946E-03    -110.135E-03     103.731E-03     123.545E+06     109.257E+06    -17.9575E+06    -17.9505E+06     109.250E+06     123.545E+06    -629.343E+03         58.4789
            1344     15.2361E-03     80.2272E-03     115.900E-03     112.067E-03    -389.541E-03     112.067E-03    -389.541E-03     115.900E-03     9.88591E-06     232.008E-03    -110.331E-03    -121.677E-03    -113.857E-03     224.188E-03    -110.331E-03     100.098E-03     138.426E+06     125.445E+06    -9.68077E+06    -9.65759E+06     125.422E+06     138.426E+06    -370.793E+03         60.5094
            1345     895.022E-06     80.6620E-03     125.949E-03     109.309E-03    -395.283E-03     125.948E-03    -395.282E-03     109.309E-03    -1.07346E-03     221.607E-03    -110.486E-03    -111.121E-03    -111.096E-03     221.604E-03    -110.508E-03     2.00450E-03    -147.081E+06    -153.340E+06    -362.490E+06    -152.348E+06    -362.490E+06    -148.074E+06    -184.627E+03         39.0145
            1346     1.79050E-03     80.6655E-03     117.678E-03     117.508E-03    -395.169E-03     117.574E-03    -395.169E-03     117.611E-03    -303.217E-06     221.392E-03    -110.501E-03    -110.890E-03    -110.539E-03     221.382E-03    -110.843E-03     3.29696E-03    -131.338E+06    -146.450E+06    -353.769E+06    -146.452E+06    -353.767E+06    -131.338E+06    -436.319E+03         39.1670
            1347     2.68653E-03     80.6685E-03     117.567E-03     117.383E-03    -394.995E-03     117.382E-03    -394.995E-03     117.567E-03    -12.2428E-06     220.671E-03    -109.906E-03    -110.764E-03    -109.887E-03     220.651E-03    -110.764E-03     4.93494E-03    -109.857E+06    -137.679E+06    -333.324E+06    -137.683E+06    -333.320E+06    -109.857E+06    -410.236E+03         39.4243
            1348     3.58256E-03     80.6765E-03     117.501E-03     117.270E-03    -394.744E-03     117.269E-03    -394.744E-03     117.501E-03    -276.368E-06     220.519E-03    -109.862E-03    -110.657E-03    -109.815E-03     220.472E-03    -110.657E-03     7.57171E-03    -87.7735E+06    -128.373E+06    -301.605E+06    -128.380E+06    -301.597E+06    -87.7735E+06    -181.559E+03         39.8024
            1349     4.47774E-03     80.6884E-03     117.422E-03     117.019E-03    -394.409E-03     117.019E-03    -394.409E-03     117.422E-03    -185.150E-06     220.649E-03    -110.021E-03    -110.628E-03    -109.903E-03     220.531E-03    -110.628E-03     12.1347E-03    -66.2753E+06    -118.214E+06    -268.621E+06    -118.223E+06    -268.612E+06    -66.2753E+06    -71.0901E+03         40.3215
            1350     5.37358E-03     80.7074E-03     117.319E-03     116.744E-03    -393.993E-03     116.744E-03    -393.993E-03     117.319E-03    -299.429E-06     220.509E-03    -109.888E-03    -110.622E-03    -109.655E-03     220.272E-03    -110.618E-03     17.4545E-03    -45.6637E+06    -107.852E+06    -229.896E+06    -107.862E+06    -229.886E+06    -45.6637E+06     335.171E+03         41.0058
            1351     6.27147E-03     80.7306E-03     117.198E-03     116.434E-03    -393.499E-03     116.434E-03    -393.499E-03     117.198E-03    -280.732E-06     220.628E-03    -110.014E-03    -110.613E-03    -109.608E-03     220.208E-03    -110.600E-03     23.3062E-03    -26.1639E+06    -97.6038E+06    -186.657E+06    -97.6209E+06    -186.640E+06    -26.1639E+06     521.026E+03         41.8819
            1352     7.16721E-03     80.7599E-03     117.055E-03     116.040E-03    -392.920E-03     116.040E-03    -392.920E-03     117.055E-03    -334.531E-06     220.843E-03    -110.244E-03    -110.599E-03    -109.543E-03     220.134E-03    -110.590E-03     30.3403E-03    -8.61655E+06    -87.6616E+06    -144.142E+06    -87.7226E+06    -144.082E+06    -8.61655E+06     649.075E+03         42.9751
            1353     8.06240E-03     80.7980E-03     116.888E-03     115.612E-03    -392.249E-03     115.612E-03    -392.249E-03     116.888E-03    -330.866E-06     221.014E-03    -110.372E-03    -110.642E-03    -109.338E-03     219.912E-03    -110.574E-03     37.9548E-03     8.70075E+06    -77.5571E+06    -98.3890E+06    -78.4268E+06    -97.5193E+06     8.70075E+06     833.634E+03         44.3046
            1354     8.95794E-03     80.8453E-03     116.697E-03     115.120E-03    -391.483E-03     115.120E-03    -391.483E-03     116.697E-03    -354.770E-06     220.851E-03    -110.267E-03    -110.584E-03    -108.761E-03     219.278E-03    -110.516E-03     45.3651E-03     26.0874E+06    -40.2527E+06    -69.6570E+06     -69.094E+06    -40.8157E+06     26.0874E+06     453.905E+03         45.8781
            1355     9.85707E-03     80.9021E-03     116.481E-03     114.555E-03    -390.622E-03     114.555E-03    -390.622E-03     116.481E-03    -349.579E-06     220.596E-03    -110.154E-03    -110.442E-03    -108.081E-03     218.493E-03    -110.412E-03     52.4479E-03     42.7326E+06     15.5620E+06    -60.6361E+06    -60.5708E+06     15.4967E+06     42.7326E+06     375.341E+03         47.6862
            1356     10.7546E-03     80.9677E-03     116.238E-03     113.953E-03    -389.675E-03     113.953E-03    -389.675E-03     116.238E-03    -351.655E-06     220.765E-03    -110.203E-03    -110.562E-03    -107.814E-03     218.087E-03    -110.273E-03     59.2016E-03     64.7862E+06     48.9550E+06    -49.4479E+06    -49.3969E+06     58.9040E+06     54.7863E+06     270.890E+03         49.6976
            1357     11.6518E-03     81.0427E-03     115.970E-03     113.283E-03    -388.638E-03     113.283E-03    -388.638E-03     115.970E-03    -342.077E-06     220.817E-03    -110.116E-03    -110.701E-03    -107.468E-03     217.631E-03    -110.163E-03     64.6194E-03     79.5219E+06     67.3152E+06    -39.3133E+06    -39.2413E+06     79.4499E+06     67.3152E+06    -791.617E+03         51.8593
            1358     12.5513E-03     81.1233E-03     115.673E-03     112.551E-03    -387.499E-03     112.551E-03    -387.499E-03     115.673E-03    -327.233E-06     221.521E-03    -110.063E-03    -111.458E-03    -107.476E-03     217.584E-03    -110.109E-03     71.7564E-03     88.0507E+06     82.2413E+06    -32.6091E+06    -32.5540E+06     84.3929E+06      85.844E+06    -1.48575E+06         54.1009
            1359     13.4491E-03     81.2210E-03     115.349E-03     111.777E-03    -386.268E-03     111.777E-03    -386.268E-03     115.349E-03    -290.095E-06     223.339E-03    -110.098E-03    -113.241E-03    -108.843E-03     218.942E-03    -110.098E-03     76.3965E-03     104.549E+06     94.2557E+06    -25.6406E+06    -25.6261E+06     94.2412E+06     104.549E+06    -460.581E+03         56.3424
            1360     14.3468E-03     81.3234E-03     114.987E-03     110.950E-03    -384.927E-03     110.950E-03    -384.927E-03     114.987E-03    -250.789E-06     230.140E-03    -110.198E-03    -119.942E-03    -112.234E-03     222.432E-03    -110.198E-03     100.299E-03     123.287E+06     109.969E+06    -17.9791E+06    -17.9719E+06     109.962E+06     123.287E+06    -289.500E+03         58.5089
            1361     15.2432E-03     81.4768E-03     114.599E-03     110.170E-03    -383.628E-03     110.170E-03    -383.628E-03     114.599E-03    -101.458E-06     231.344E-03    -110.376E-03    -120.968E-03    -113.550E-03     223.926E-03    -110.376E-03     97.8409E-03     138.255E+06     125.489E+06    -9.79543E+06    -9.77667E+06     125.470E+06     138.255E+06     250.164E+03         60.5483
            1362     895.490E-06     81.9093E-03     131.073E-03     102.175E-03    -390.390E-03     131.066E-03    -390.390E-03     102.182E-03    -1.11378E-03     221.672E-03    -110.599E-03    -111.073E-03    -110.807E-03     221.668E-03    -110.861E-03     1.91719E-03    -147.533E+06    -152.922E+06    -361.807E+06    -151.999E+06    -361.807E+06    -148.457E+06    -194.273E+03         38.9948
            1363     1.79060E-03     81.9116E-03     116.628E-03     116.532E-03    -390.269E-03     116.551E-03    -390.269E-03     116.608E-03    -292.618E-06     221.485E-03    -110.611E-03    -110.875E-03    -110.602E-03     221.476E-03    -110.875E-03     3.32785E-03    -132.573E+06    -146.501E+06    -352.849E+06    -146.502E+06    -352.848E+06    -132.573E+06    -329.679E+03         39.1461
            1364     2.68555E-03     81.9152E-03     116.558E-03     116.369E-03    -390.062E-03     116.369E-03    -390.062E-03     116.558E-03    -5.07192E-06     221.443E-03    -110.551E-03    -110.891E-03    -110.526E-03     221.418E-03    -110.891E-03     5.45709E-03    -110.769E+06    -138.325E+06    -333.731E+06    -138.326E+06    -333.729E+06    -110.769E+06    -379.080E+03         39.4012
            1365     3.58105E-03     81.9221E-03     116.484E-03     116.199E-03    -389.772E-03     116.199E-03    -389.772E-03     116.484E-03    -265.214E-06     221.252E-03    -110.349E-03    -110.903E-03    -110.284E-03     221.187E-03    -110.903E-03     9.03365E-03    -87.4497E+06    -128.237E+06    -302.060E+06    -128.240E+06    -302.057E+06    -87.4497E+06     72.9754E+03         39.7763
            1366     4.47737E-03     81.9353E-03     116.391E-03     115.931E-03    -389.392E-03     115.931E-03    -389.392E-03     116.391E-03    -170.562E-06     220.776E-03    -109.909E-03    -110.867E-03    -109.771E-03     220.638E-03    -110.867E-03     13.2792E-03    -65.4891E+06    -118.201E+06    -268.438E+06    -118.207E+06    -268.432E+06    -65.4891E+06     349.618E+03         40.2917
            1367     5.37397E-03     81.9519E-03     116.273E-03     115.605E-03    -388.923E-03     115.605E-03    -388.923E-03     116.273E-03    -282.412E-06     220.324E-03    -109.550E-03    -110.775E-03    -109.294E-03     220.069E-03    -110.775E-03     18.1409E-03    -45.3367E+06    -107.819E+06    -230.711E+06    -107.829E+06    -230.701E+06    -45.3367E+06     328.272E+03         40.9724
            1368     6.26961E-03     81.9760E-03     116.133E-03     115.253E-03    -388.362E-03     115.253E-03    -388.362E-03     116.133E-03    -260.847E-06     220.165E-03    -109.496E-03    -110.669E-03    -109.084E-03     219.753E-03    -110.669E-03     23.1623E-03    -26.3338E+06    -97.5725E+06    -187.418E+06    -97.5956E+06    -187.395E+06    -26.3338E+06     606.362E+03         41.8455
            1369     7.16644E-03     82.0058E-03     115.969E-03     114.803E-03    -387.706E-03     114.803E-03    -387.706E-03     115.969E-03    -312.570E-06     220.267E-03    -109.681E-03    -110.586E-03    -109.008E-03     219.595E-03    -110.586E-03     29.5029E-03    -8.18534E+06    -87.4534E+06    -144.455E+06    -87.5207E+06    -144.388E+06    -8.18534E+06     737.041E+03         42.9370
            1370     8.06371E-03     82.0440E-03     115.779E-03     114.314E-03    -386.951E-03     114.314E-03    -386.951E-03     115.779E-03    -307.101E-06     220.619E-03    -110.029E-03    -110.590E-03    -109.009E-03     219.531E-03    -110.522E-03     37.6305E-03     9.48930E+06    -76.6170E+06    -98.3799E+06    -77.5132E+06    -97.4836E+06     9.48930E+06     945.164E+03         44.2668
            1371     8.96054E-03     82.0919E-03     115.562E-03     113.756E-03    -386.094E-03     113.756E-03    -386.094E-03     115.562E-03    -322.249E-06     220.993E-03    -110.248E-03    -110.744E-03    -109.000E-03     219.464E-03    -110.464E-03     44.8151E-03     26.6902E+06    -40.2859E+06    -69.0363E+06    -68.3129E+06    -41.0093E+06     26.6902E+06     1.38589E+06         45.8430
            1372     9.85556E-03     82.1460E-03     115.317E-03     113.122E-03    -385.138E-03     113.122E-03    -385.138E-03     115.317E-03    -310.484E-06     221.245E-03    -110.329E-03    -110.916E-03    -108.800E-03     219.212E-03    -110.411E-03     51.6616E-03     44.6800E+06     17.1751E+06    -58.7112E+06    -58.6772E+06     17.1411E+06     44.6800E+06     377.876E+03         47.6563
            1373     10.7525E-03     82.2136E-03     115.043E-03     112.442E-03    -384.083E-03     112.442E-03    -384.083E-03     115.043E-03    -307.402E-06     221.537E-03    -110.344E-03    -111.193E-03    -108.639E-03     218.983E-03    -110.344E-03     58.0217E-03     65.8656E+06     51.4810E+06    -49.1279E+06    -49.0974E+06     60.4740E+06     56.8421E+06    -1.70080E+06         49.6756
            1374     11.6506E-03     82.2859E-03     114.741E-03     111.689E-03    -382.932E-03     111.689E-03    -382.932E-03     114.741E-03    -279.793E-06     222.117E-03    -110.312E-03    -111.805E-03    -108.823E-03     219.135E-03    -110.312E-03     62.7875E-03     78.9147E+06     67.2582E+06    -40.7579E+06    -40.7286E+06     78.8854E+06     67.2582E+06    -930.873E+03         51.8473
            1375     12.5464E-03     82.3690E-03     114.409E-03     110.879E-03    -381.677E-03     110.878E-03    -381.677E-03     114.409E-03    -246.510E-06     223.842E-03    -110.370E-03    -113.472E-03    -109.671E-03     220.041E-03    -110.370E-03     70.9833E-03     87.4205E+06     81.5437E+06    -32.9401E+06    -32.9194E+06     84.1560E+06     84.7875E+06     803.962E+03         54.0992
            1376     13.4418E-03     82.4665E-03     114.047E-03     110.022E-03    -380.329E-03     110.022E-03    -380.329E-03     114.047E-03    -197.947E-06     224.978E-03    -110.466E-03    -114.512E-03    -110.188E-03     220.654E-03    -110.466E-03     76.1188E-03     104.114E+06     93.9884E+06    -25.5296E+06    -25.5110E+06     93.9697E+06     104.114E+06     801.911E+03         56.3514
            1377     14.3390E-03     82.5666E-03     113.644E-03     109.113E-03    -378.860E-03     109.113E-03    -378.860E-03     113.644E-03    -137.645E-06     229.081E-03    -110.557E-03    -118.524E-03    -111.048E-03     221.605E-03    -110.557E-03     98.4766E-03     123.423E+06     109.916E+06    -18.0173E+06    -18.0107E+06     109.910E+06     123.423E+06     375.898E+03         58.5307
            1378     15.2335E-03     82.7269E-03     113.215E-03     108.242E-03    -377.402E-03     108.242E-03    -377.401E-03     113.215E-03    -236.276E-06     227.764E-03    -109.964E-03    -117.800E-03    -110.119E-03     220.706E-03    -110.587E-03     94.3048E-03     138.290E+06     125.465E+06    -10.2336E+06    -10.2275E+06     125.459E+06     138.290E+06     96.6365E+03         60.5836
            1379     894.786E-06     83.1553E-03     136.151E-03     94.8267E-03    -385.177E-03     136.124E-03    -385.176E-03     94.8524E-03    -1.17968E-03     221.463E-03    -110.559E-03    -110.904E-03    -110.613E-03     221.460E-03    -110.847E-03     1.89502E-03    -146.427E+06    -152.569E+06    -361.076E+06    -151.648E+06    -361.074E+06    -147.351E+06    -27.2258E+03         38.9757
            1380     1.79082E-03     83.1580E-03     115.469E-03     115.393E-03    -385.042E-03     115.393E-03    -385.042E-03     115.469E-03    -268.250E-06     221.269E-03    -110.499E-03    -110.770E-03    -110.489E-03     221.259E-03    -110.770E-03     3.58049E-03    -131.807E+06    -145.960E+06    -352.576E+06    -145.962E+06    -352.574E+06    -131.807E+06    -84.5124E+03         39.1257
            1381     2.68672E-03     83.1616E-03     115.412E-03     115.214E-03    -384.811E-03     115.214E-03    -384.811E-03     115.412E-03     5.54477E-06     221.424E-03    -110.615E-03    -110.809E-03    -110.583E-03     221.392E-03    -110.809E-03     6.24709E-03    -110.191E+06    -137.930E+06    -333.907E+06    -137.931E+06    -333.907E+06    -110.191E+06    -138.187E+03         39.3789
            1382     3.58165E-03     83.1695E-03     115.330E-03     115.000E-03    -384.489E-03     114.999E-03    -384.489E-03     115.330E-03    -246.608E-06     221.430E-03    -110.558E-03    -110.872E-03    -110.484E-03     221.356E-03    -110.872E-03     9.78682E-03    -87.5372E+06    -128.772E+06    -303.061E+06    -128.772E+06    -303.060E+06    -87.5372E+06     245.567E+03         39.7512
            1383     4.47694E-03     83.1805E-03     115.225E-03     114.716E-03    -384.071E-03     114.716E-03    -384.071E-03     115.225E-03    -154.252E-06     221.032E-03    -110.145E-03    -110.887E-03    -110.005E-03     220.892E-03    -110.887E-03     13.4530E-03    -65.1360E+06    -118.121E+06    -268.694E+06    -118.124E+06    -268.691E+06    -65.1360E+06     583.056E+03         40.2632
            1384     5.37301E-03     83.1978E-03     115.095E-03     114.346E-03    -383.553E-03     114.346E-03    -383.553E-03     115.095E-03    -259.764E-06     220.598E-03    -109.766E-03    -110.832E-03    -109.508E-03     220.340E-03    -110.832E-03     18.2420E-03    -44.4203E+06    -107.464E+06    -230.453E+06    -107.469E+06    -230.448E+06    -44.4203E+06     533.752E+03         40.9401
            1385     6.26984E-03     83.2216E-03     114.938E-03     113.953E-03    -382.931E-03     113.953E-03    -382.931E-03     114.938E-03    -235.596E-06     220.297E-03    -109.560E-03    -110.737E-03    -109.138E-03     219.875E-03    -110.737E-03     23.4432E-03    -26.1409E+06    -97.6969E+06    -188.040E+06    -97.7140E+06    -188.023E+06    -26.1409E+06     569.621E+03         41.8096
            1386     7.16647E-03     83.2506E-03     114.755E-03     113.454E-03    -382.208E-03     113.454E-03    -382.208E-03     114.755E-03    -283.633E-06     220.221E-03    -109.578E-03    -110.644E-03    -108.912E-03     219.555E-03    -110.644E-03     29.3949E-03    -7.77944E+06    -87.1136E+06    -144.439E+06    -87.1467E+06    -144.406E+06    -7.77944E+06     572.095E+03         42.8987
            1387     8.06287E-03     83.2894E-03     114.542E-03     112.910E-03    -381.377E-03     112.910E-03    -381.377E-03     114.542E-03    -274.141E-06     220.378E-03    -109.820E-03    -110.557E-03    -108.789E-03     219.346E-03    -110.557E-03     36.6544E-03     9.68878E+06    -76.4614E+06    -99.0741E+06    -77.2902E+06    -98.2454E+06     9.68878E+06     680.289E+03         44.2282
            1388     8.95957E-03     83.3372E-03     114.300E-03     112.298E-03    -380.438E-03     112.298E-03    -380.438E-03     114.300E-03    -285.036E-06     220.899E-03    -110.203E-03    -110.695E-03    -108.941E-03     219.423E-03    -110.482E-03     43.9852E-03     27.2031E+06    -39.8657E+06    -68.9777E+06    -67.2807E+06    -41.5627E+06     27.2031E+06     1.02599E+06         45.8071
            1389     9.85652E-03     83.3941E-03     114.029E-03     111.603E-03    -379.394E-03     111.603E-03    -379.394E-03     114.029E-03    -271.468E-06     221.658E-03    -110.441E-03    -111.217E-03    -109.207E-03     219.652E-03    -110.446E-03     51.3811E-03     46.5769E+06     19.8394E+06    -57.1730E+06    -57.1642E+06     19.8306E+06     46.5769E+06     232.781E+03         47.6259
            1390     10.7526E-03     83.4583E-03     113.726E-03     110.855E-03    -378.240E-03     110.855E-03    -378.240E-03     113.726E-03    -260.092E-06     222.585E-03    -110.429E-03    -112.156E-03    -109.553E-03     219.982E-03    -110.429E-03     58.6969E-03     65.5471E+06     52.9911E+06    -49.9035E+06    -49.8742E+06     61.1829E+06     57.3260E+06     8.61801E+03         49.6535
            1391     11.6472E-03     83.5342E-03     113.394E-03     110.031E-03    -376.984E-03     110.031E-03    -376.984E-03     113.394E-03    -223.116E-06     223.554E-03    -110.465E-03    -113.089E-03    -109.996E-03     220.461E-03    -110.465E-03     64.2007E-03     76.8646E+06     65.6133E+06    -43.3604E+06    -43.3270E+06     76.8312E+06     65.6133E+06     570.854E+03         51.8357
            1392     12.5434E-03     83.6147E-03     113.029E-03     109.159E-03    -375.629E-03     109.159E-03    -375.629E-03     113.029E-03    -179.591E-06     225.294E-03    -110.576E-03    -114.718E-03    -110.571E-03     221.147E-03    -110.576E-03     74.2199E-03     85.2538E+06     80.1349E+06    -35.2765E+06    -35.2547E+06     83.1432E+06     82.2236E+06     854.449E+03         54.1002
            1393     13.4387E-03     83.7170E-03     112.633E-03     108.250E-03    -374.181E-03     108.250E-03    -374.181E-03     112.633E-03    -128.718E-06     226.621E-03    -110.712E-03    -115.909E-03    -111.074E-03     221.786E-03    -110.712E-03     80.7321E-03     102.637E+06     93.4912E+06    -26.5889E+06    -26.5650E+06     93.4672E+06     102.637E+06     1.02718E+06         56.3658
            1394     14.3318E-03     83.8130E-03     112.198E-03     107.297E-03    -372.608E-03     107.297E-03    -372.608E-03     112.198E-03    -110.255E-06     229.805E-03    -110.797E-03    -119.008E-03    -110.659E-03     221.456E-03    -110.797E-03     103.865E-03     123.688E+06     109.487E+06    -18.0328E+06    -18.0218E+06     109.476E+06     123.688E+06     1.00548E+06         58.5582
            1395     15.2315E-03     83.9718E-03     111.734E-03     106.296E-03    -370.887E-03     106.296E-03    -370.887E-03     111.734E-03    -279.059E-06     226.086E-03    -109.673E-03    -116.413E-03    -107.553E-03     218.266E-03    -110.713E-03     98.4125E-03     139.580E+06     126.322E+06    -9.16889E+06    -9.16065E+06     126.314E+06     139.580E+06    -37.9207E+03         60.6236
            1396     896.019E-06     84.4017E-03     141.140E-03     87.2987E-03    -379.606E-03     141.095E-03    -379.605E-03     87.3426E-03    -1.21303E-03     221.077E-03    -110.355E-03    -110.722E-03    -110.670E-03     221.074E-03    -110.404E-03     1.67874E-03    -145.665E+06    -152.788E+06    -361.119E+06    -151.664E+06    -361.114E+06    -146.794E+06     296.712E+03         38.9567
            1397     1.79112E-03     84.4038E-03     114.179E-03     114.080E-03    -379.456E-03     114.079E-03    -379.456E-03     114.179E-03    -253.089E-06     221.078E-03    -110.465E-03    -110.613E-03    -110.454E-03     221.067E-03    -110.613E-03     3.51568E-03    -131.008E+06    -146.212E+06    -352.711E+06    -146.213E+06    -352.710E+06    -131.008E+06     156.893E+03         39.1056
            1398     2.68647E-03     84.4078E-03     114.114E-03     113.902E-03    -379.213E-03     113.902E-03    -379.213E-03     114.114E-03     9.81973E-06     221.185E-03    -110.501E-03    -110.684E-03    -110.469E-03     221.153E-03    -110.684E-03     6.30076E-03    -109.702E+06    -137.840E+06    -334.153E+06    -137.842E+06    -334.152E+06    -109.702E+06     282.285E+03         39.3568
            1399     3.58240E-03     84.4162E-03     114.024E-03     113.663E-03    -378.864E-03     113.663E-03    -378.864E-03     114.024E-03    -224.488E-06     221.284E-03    -110.524E-03    -110.760E-03    -110.453E-03     221.213E-03    -110.760E-03     9.57474E-03    -86.8336E+06    -128.277E+06    -303.236E+06    -128.279E+06    -303.234E+06    -86.8336E+06     516.888E+03         39.7264
            1400     4.47784E-03     84.4273E-03     113.910E-03     113.352E-03    -378.409E-03     113.352E-03    -378.409E-03     113.910E-03    -133.250E-06     221.205E-03    -110.389E-03    -110.815E-03    -110.248E-03     221.063E-03    -110.815E-03     13.4641E-03    -65.0613E+06    -118.013E+06    -269.487E+06    -118.015E+06    -269.485E+06    -65.0613E+06     539.815E+03         40.2351
            1401     5.37329E-03     84.4438E-03     113.767E-03     112.955E-03    -377.848E-03     112.955E-03    -377.848E-03     113.767E-03    -234.978E-06     220.869E-03    -110.053E-03    -110.817E-03    -109.792E-03     220.609E-03    -110.817E-03     18.3938E-03    -44.2843E+06    -107.427E+06    -230.742E+06    -107.433E+06    -230.735E+06    -44.2843E+06     818.986E+03         40.9083
            1402     6.26936E-03     84.4667E-03     113.596E-03     112.521E-03    -377.178E-03     112.521E-03    -377.178E-03     113.596E-03    -207.995E-06     220.570E-03    -109.805E-03    -110.765E-03    -109.380E-03     220.145E-03    -110.765E-03     23.5314E-03    -25.2463E+06    -97.0473E+06    -187.689E+06    -97.0549E+06    -187.681E+06    -25.2463E+06     692.545E+03         41.7742
            1403     7.16553E-03     84.4967E-03     113.396E-03     111.982E-03    -376.396E-03     111.982E-03    -376.396E-03     113.396E-03    -253.634E-06     220.593E-03    -109.892E-03    -110.701E-03    -109.221E-03     219.922E-03    -110.701E-03     29.5574E-03    -7.61565E+06    -87.2046E+06    -144.594E+06    -87.2287E+06    -144.570E+06    -7.61565E+06     827.154E+03         42.8605
            1404     8.06202E-03     84.5347E-03     113.163E-03     111.392E-03    -375.498E-03     111.392E-03    -375.498E-03     113.163E-03    -240.793E-06     220.751E-03    -110.109E-03    -110.642E-03    -109.071E-03     219.714E-03    -110.642E-03     36.8038E-03     9.92008E+06    -77.2865E+06    -98.6468E+06    -77.4613E+06     -98.472E+06     9.92008E+06     722.242E+03         44.1890
            1405     8.95875E-03     84.5828E-03     112.900E-03     110.728E-03    -374.485E-03     110.728E-03    -374.485E-03     112.900E-03    -255.131E-06     221.010E-03    -110.376E-03    -110.635E-03    -108.954E-03     219.527E-03    -110.573E-03     44.1087E-03     27.1569E+06    -40.3163E+06    -69.1082E+06    -67.8221E+06    -41.6024E+06     27.1569E+06     358.353E+03         45.7698
            1406     9.85526E-03     84.6399E-03     112.603E-03     109.979E-03    -373.358E-03     109.979E-03    -373.358E-03     112.603E-03    -238.509E-06     221.555E-03    -110.516E-03    -111.039E-03    -109.060E-03     219.580E-03    -110.520E-03     51.0004E-03     45.3407E+06     19.3491E+06    -59.4144E+06    -59.3854E+06     19.3201E+06     45.3407E+06     1.04447E+06         47.5946
            1407     10.7514E-03     84.7059E-03     112.274E-03     109.175E-03    -372.117E-03     109.175E-03    -372.117E-03     112.274E-03    -225.478E-06     222.704E-03    -110.491E-03    -112.213E-03    -109.562E-03     220.053E-03    -110.491E-03     59.1866E-03     64.4430E+06     52.0597E+06    -51.6470E+06    -51.5918E+06     60.3735E+06     56.0740E+06     2.07593E+06         49.6319
            1408     11.6479E-03     84.7822E-03     111.913E-03     108.300E-03    -370.778E-03     108.300E-03    -370.778E-03     111.913E-03    -194.157E-06     223.754E-03    -110.522E-03    -113.232E-03    -110.000E-03     220.522E-03    -110.522E-03     65.6662E-03     76.6779E+06     65.2890E+06    -43.4283E+06    -43.3718E+06     76.6214E+06     65.2890E+06     2.51839E+06         51.8273
            1409     12.5430E-03     84.8626E-03     111.519E-03     107.376E-03    -369.333E-03     107.376E-03    -369.333E-03     111.519E-03    -165.554E-06     225.461E-03    -110.621E-03    -114.840E-03    -110.394E-03     221.015E-03    -110.621E-03     76.7575E-03     85.5795E+06     80.5533E+06    -35.7232E+06    -35.6880E+06     83.5380E+06     82.5597E+06     1.48024E+06         54.1073
            1410     13.4391E-03     84.9652E-03     111.093E-03     106.410E-03    -367.786E-03     106.410E-03    -367.786E-03     111.093E-03    -140.725E-06     225.878E-03    -110.704E-03    -115.173E-03    -109.978E-03     220.682E-03    -110.704E-03     83.5082E-03     102.386E+06     93.8263E+06    -27.8768E+06    -27.8616E+06     93.8111E+06     102.386E+06     810.290E+03         56.3897
            1411     14.3375E-03     85.0620E-03     110.627E-03     105.388E-03    -366.091E-03     105.388E-03    -366.091E-03     110.627E-03    -173.753E-06     228.479E-03    -110.704E-03    -117.775E-03    -109.202E-03     219.906E-03    -110.704E-03     105.088E-03     123.048E+06     108.956E+06    -18.9495E+06    -18.9371E+06     108.943E+06     123.048E+06     310.018E+03         58.5979
            1412     15.2370E-03     85.2108E-03     110.131E-03     104.286E-03    -364.215E-03     104.286E-03    -364.215E-03     110.131E-03    -211.024E-06     226.619E-03    -110.184E-03    -116.435E-03    -108.153E-03     218.755E-03    -110.602E-03     98.4258E-03     140.537E+06     126.830E+06    -8.74434E+06    -8.73346E+06     126.819E+06     140.537E+06    -833.801E+03         60.6728
            1413     895.302E-06     85.6479E-03     145.747E-03     79.7497E-03    -373.667E-03     145.721E-03    -373.666E-03     79.7752E-03    -1.15637E-03     220.770E-03    -110.086E-03    -110.684E-03    -110.370E-03     220.767E-03    -110.397E-03     1.59017E-03    -147.506E+06    -152.445E+06    -361.683E+06    -151.322E+06    -361.677E+06    -148.635E+06    -91.5020E+03         38.9374
            1414     1.79133E-03     85.6492E-03     112.722E-03     112.613E-03    -373.513E-03     112.615E-03    -373.513E-03     112.720E-03    -242.213E-06     221.063E-03    -110.479E-03    -110.585E-03    -110.547E-03     221.052E-03    -110.506E-03     3.52353E-03    -131.845E+06    -146.105E+06    -353.243E+06    -146.106E+06    -353.242E+06    -131.845E+06     205.825E+03         39.0851
            1415     2.68707E-03     85.6542E-03     112.649E-03     112.422E-03    -373.240E-03     112.422E-03    -373.240E-03     112.649E-03     19.9114E-06     221.216E-03    -110.515E-03    -110.700E-03    -110.537E-03     221.185E-03    -110.648E-03     6.21595E-03    -109.582E+06    -138.180E+06    -334.444E+06    -138.182E+06    -334.442E+06    -109.582E+06     622.309E+03         39.3344
            1416     3.58216E-03     85.6622E-03     112.553E-03     112.174E-03    -372.865E-03     112.174E-03    -372.865E-03     112.553E-03    -204.035E-06     221.086E-03    -110.358E-03    -110.727E-03    -110.292E-03     221.020E-03    -110.727E-03     9.21822E-03    -86.4208E+06    -128.039E+06    -303.516E+06    -128.041E+06    -303.513E+06    -86.4208E+06     629.808E+03         39.7014
            1417     4.47797E-03     85.6738E-03     112.431E-03     111.828E-03    -372.383E-03     111.828E-03    -372.383E-03     112.431E-03    -113.360E-06     221.003E-03    -110.246E-03    -110.757E-03    -110.112E-03     220.869E-03    -110.757E-03     13.1566E-03    -65.1256E+06    -117.934E+06    -269.954E+06    -117.940E+06    -269.948E+06    -65.1256E+06     813.992E+03         40.2069
            1418     5.37381E-03     85.6902E-03     112.277E-03     111.417E-03    -371.786E-03     111.417E-03    -371.786E-03     112.277E-03    -208.229E-06     220.986E-03    -110.218E-03    -110.768E-03    -109.965E-03     220.734E-03    -110.768E-03     18.0964E-03    -44.5790E+06    -107.838E+06    -231.201E+06    -107.850E+06    -231.189E+06    -44.5790E+06     1.15858E+06         40.8764
            1419     6.26955E-03     85.7128E-03     112.094E-03     110.943E-03    -371.071E-03     110.943E-03    -371.071E-03     112.094E-03    -180.724E-06     220.872E-03    -110.113E-03    -110.759E-03    -109.683E-03     220.442E-03    -110.759E-03     23.6490E-03    -25.2016E+06    -97.7004E+06    -187.769E+06    -97.7163E+06    -187.753E+06    -25.2016E+06     1.17878E+06         41.7387
            1420     7.16576E-03     85.7427E-03     111.878E-03     110.373E-03    -370.238E-03     110.373E-03    -370.238E-03     111.878E-03    -224.068E-06     220.874E-03    -110.145E-03    -110.729E-03    -109.459E-03     220.189E-03    -110.729E-03     29.9105E-03    -7.80903E+06    -87.9535E+06    -144.954E+06    -87.9772E+06    -144.930E+06    -7.80903E+06     1.09464E+06         42.8221
            1421     8.06179E-03     85.7809E-03     111.629E-03     109.745E-03    -369.284E-03     109.745E-03    -369.284E-03     111.629E-03    -211.514E-06     221.112E-03    -110.406E-03    -110.707E-03    -109.362E-03     220.058E-03    -110.696E-03     37.1333E-03      9.7652E+06     -77.395E+06    -98.7477E+06    -78.1570E+06    -97.9857E+06      9.7652E+06     1.14279E+06         44.1496
            1422     8.95770E-03     85.8289E-03     111.346E-03     109.032E-03    -368.205E-03     109.032E-03    -368.205E-03     111.346E-03    -226.610E-06     221.315E-03    -110.594E-03    -110.721E-03    -109.151E-03     219.797E-03    -110.646E-03     44.6403E-03     26.3148E+06    -41.2457E+06    -70.0261E+06    -69.5421E+06    -41.7297E+06     26.3148E+06     1.19538E+06         45.7322
            1423     9.85393E-03     85.8862E-03     111.028E-03     108.240E-03    -367.007E-03     108.240E-03    -367.007E-03     111.028E-03    -213.408E-06     221.618E-03    -110.590E-03    -111.028E-03    -108.969E-03     219.558E-03    -110.590E-03     52.0460E-03     44.0259E+06     17.0590E+06    -60.4474E+06    -60.3828E+06     16.9944E+06     44.0259E+06     2.12806E+06         47.5627
            1424     10.7511E-03     85.9520E-03     110.674E-03     107.390E-03    -365.695E-03     107.390E-03    -365.695E-03     110.674E-03    -203.268E-06     222.388E-03    -110.529E-03    -111.858E-03    -109.103E-03     219.633E-03    -110.529E-03     60.2770E-03     64.4949E+06     50.7799E+06    -51.1391E+06    -51.0578E+06     59.5919E+06     55.6016E+06     2.94808E+06         49.6105
            1425     11.6471E-03     86.0299E-03     110.288E-03     106.468E-03    -364.280E-03     106.468E-03    -364.280E-03     110.288E-03    -189.139E-06     223.123E-03    -110.510E-03    -112.613E-03    -109.304E-03     219.814E-03    -110.510E-03     66.3131E-03     76.8426E+06     65.0689E+06    -42.7691E+06    -42.7106E+06     76.7842E+06     65.0689E+06     2.44862E+06         51.8205
            1426     12.5444E-03     86.1093E-03     109.867E-03     105.492E-03    -362.753E-03     105.492E-03    -362.753E-03     109.867E-03    -179.816E-06     224.765E-03    -110.560E-03    -114.205E-03    -109.626E-03     220.186E-03    -110.560E-03     77.6904E-03     86.5126E+06     81.0499E+06    -34.0251E+06    -33.9526E+06     83.8579E+06     83.6321E+06     2.58642E+06         54.1177
            1427     13.4405E-03     86.2138E-03     109.414E-03     104.465E-03    -361.117E-03     104.465E-03    -361.117E-03     109.414E-03    -181.837E-06     224.593E-03    -110.589E-03    -114.004E-03    -108.906E-03     219.495E-03    -110.589E-03     82.3340E-03     104.416E+06     95.6757E+06    -25.8835E+06    -25.8319E+06     95.6241E+06     104.416E+06     1.91448E+06         56.4177
            1428     14.3395E-03     86.3017E-03     108.918E-03     103.367E-03    -359.320E-03     103.367E-03    -359.320E-03     108.918E-03    -187.036E-06     227.689E-03    -110.557E-03    -117.132E-03    -108.963E-03     219.520E-03    -110.557E-03     102.248E-03     124.673E+06     110.867E+06    -17.3854E+06    -17.3672E+06     110.848E+06     124.673E+06    -634.971E+03         58.6401
            1429     15.2379E-03     86.4585E-03     108.390E-03     102.216E-03    -357.396E-03     102.216E-03    -357.396E-03     108.390E-03    -97.1118E-06     227.596E-03    -110.502E-03    -117.094E-03    -109.548E-03     220.050E-03    -110.502E-03     96.5266E-03     141.107E+06     126.731E+06    -7.85792E+06    -7.84043E+06     126.714E+06     141.107E+06    -1.31751E+06         60.7222
            1430     896.284E-06     86.8929E-03     150.029E-03     72.2253E-03    -367.331E-03     150.020E-03    -367.330E-03     72.2333E-03    -1.19757E-03     220.894E-03    -110.072E-03    -110.822E-03    -110.511E-03     220.891E-03    -110.380E-03     1.87945E-03    -147.196E+06    -151.581E+06    -362.237E+06    -151.587E+06    -362.231E+06    -147.196E+06    -40.8927E+03         38.9176
            1431     1.79145E-03     86.8953E-03     111.088E-03     110.963E-03    -367.156E-03     110.965E-03    -367.156E-03     111.085E-03    -192.486E-06     221.165E-03    -110.522E-03    -110.642E-03    -110.594E-03     221.154E-03    -110.560E-03     3.44696E-03    -132.287E+06    -146.001E+06    -353.678E+06    -146.003E+06    -353.676E+06    -132.287E+06     393.704E+03         39.0641
            1432     2.68625E-03     86.9008E-03     111.008E-03     110.766E-03    -366.869E-03     110.766E-03    -366.869E-03     111.008E-03     30.2330E-06     221.193E-03    -110.458E-03    -110.735E-03    -110.481E-03     221.164E-03    -110.683E-03     6.08439E-03    -110.131E+06    -138.128E+06    -334.504E+06    -138.131E+06    -334.501E+06    -110.131E+06     752.907E+03         39.3115
            1433     3.58223E-03     86.9082E-03     110.907E-03     110.518E-03    -366.477E-03     110.517E-03    -366.477E-03     110.907E-03    -181.098E-06     221.006E-03    -110.269E-03    -110.736E-03    -110.203E-03     220.940E-03    -110.736E-03     9.16115E-03    -86.8528E+06    -128.501E+06    -304.306E+06    -128.505E+06    -304.302E+06    -86.8528E+06     763.248E+03         39.6759
            1434     4.47809E-03     86.9198E-03     110.777E-03     110.137E-03    -365.968E-03     110.137E-03    -365.968E-03     110.777E-03    -92.4655E-06     220.950E-03    -110.198E-03    -110.752E-03    -110.065E-03     220.816E-03    -110.752E-03     13.1182E-03    -65.0878E+06    -118.103E+06    -270.735E+06    -118.113E+06    -270.726E+06    -65.0878E+06     1.12172E+06         40.1781
            1435     5.37381E-03     86.9365E-03     110.615E-03     109.721E-03    -365.340E-03     109.721E-03    -365.340E-03     110.615E-03    -181.328E-06     220.921E-03    -110.165E-03    -110.756E-03    -109.920E-03     220.676E-03    -110.756E-03     17.8130E-03    -44.4181E+06    -107.645E+06    -231.685E+06    -107.666E+06    -231.664E+06    -44.4181E+06     1.53342E+06         40.8439
            1436     6.26968E-03     86.9592E-03     110.421E-03     109.211E-03    -364.591E-03     109.211E-03    -364.591E-03     110.421E-03    -152.564E-06     220.871E-03    -110.126E-03    -110.745E-03    -109.701E-03     220.446E-03    -110.745E-03     23.5050E-03    -25.1963E+06    -97.3805E+06    -188.236E+06    -97.4085E+06    -188.208E+06    -25.1963E+06     1.57274E+06         41.7026
            1437     7.16538E-03     86.9889E-03     110.193E-03     108.617E-03    -363.716E-03     108.617E-03    -363.716E-03     110.193E-03    -195.153E-06     221.013E-03    -110.286E-03    -110.726E-03    -109.586E-03     220.312E-03    -110.726E-03     30.2290E-03    -7.53191E+06    -87.5349E+06    -145.113E+06    -87.6120E+06    -145.036E+06    -7.53191E+06     1.71841E+06         42.7834
            1438     8.06142E-03     87.0275E-03     109.929E-03     107.957E-03    -362.713E-03     107.957E-03    -362.713E-03     109.929E-03    -183.379E-06     221.201E-03    -110.489E-03    -110.711E-03    -109.415E-03     220.116E-03    -110.701E-03     37.6764E-03      9.1779E+06    -77.6935E+06    -99.9655E+06    -78.8056E+06    -98.8534E+06      9.1779E+06     2.15658E+06         44.1100
            1439     8.95766E-03     87.0755E-03     109.629E-03     107.207E-03    -361.582E-03     107.207E-03    -361.582E-03     109.629E-03    -194.368E-06     221.271E-03    -110.576E-03    -110.696E-03    -109.061E-03     219.709E-03    -110.648E-03     45.2794E-03     26.1416E+06    -40.7647E+06    -71.2499E+06    -69.7880E+06    -42.2266E+06     26.1416E+06     2.59791E+06         45.6949
            1440     9.85476E-03     87.1317E-03     109.292E-03     106.381E-03    -360.327E-03     106.381E-03    -360.327E-03     109.292E-03    -183.313E-06     221.606E-03    -110.584E-03    -111.022E-03    -108.883E-03     219.466E-03    -110.584E-03     53.0334E-03     43.8034E+06     16.2333E+06    -60.9992E+06    -60.8886E+06     16.1227E+06     43.8034E+06     2.57977E+06         47.5316
            1441     10.7508E-03     87.1991E-03     108.918E-03     105.488E-03    -358.955E-03     105.488E-03    -358.955E-03     108.918E-03    -184.909E-06     222.216E-03    -110.508E-03    -111.708E-03    -108.875E-03     219.383E-03    -110.508E-03     61.1196E-03     64.5487E+06     49.4669E+06    -51.5173E+06    -51.4631E+06     58.7859E+06     55.1755E+06     2.23509E+06         49.5897
            1442     11.6485E-03     87.2751E-03     108.510E-03     104.524E-03    -357.472E-03     104.524E-03    -357.472E-03     108.510E-03    -178.140E-06     222.675E-03    -110.464E-03    -112.211E-03    -108.843E-03     219.307E-03    -110.464E-03     66.8171E-03     77.3251E+06     65.5061E+06    -42.2148E+06    -42.1542E+06     77.2644E+06     65.5061E+06     2.29814E+06         51.8140
            1443     12.5451E-03     87.3563E-03     108.065E-03     103.499E-03    -355.873E-03     103.499E-03    -355.873E-03     108.065E-03    -179.281E-06     224.022E-03    -110.475E-03    -113.547E-03    -108.988E-03     219.463E-03    -110.475E-03     77.4356E-03     85.4449E+06     80.8249E+06    -34.0692E+06    -33.9911E+06     83.1927E+06     82.9992E+06     2.07544E+06         54.1282
            1444     13.4436E-03     87.4584E-03     107.587E-03     102.422E-03    -354.169E-03     102.422E-03    -354.169E-03     107.587E-03    -170.384E-06     224.104E-03    -110.487E-03    -113.617E-03    -108.725E-03     219.212E-03    -110.487E-03     80.5003E-03     105.508E+06     97.1017E+06    -24.1996E+06    -24.1511E+06     97.0532E+06     105.508E+06     1.43468E+06         56.4448
            1445     14.3404E-03     87.5474E-03     107.065E-03     101.282E-03    -352.320E-03     101.282E-03    -352.320E-03     107.065E-03    -134.590E-06     228.283E-03    -110.485E-03    -117.798E-03    -109.665E-03     220.150E-03    -110.485E-03     101.773E-03     127.494E+06     113.794E+06    -15.1453E+06    -15.1217E+06     113.770E+06     127.494E+06     457.977E+03         58.6800
            1446     15.2376E-03     87.7030E-03     106.508E-03     100.117E-03    -350.376E-03     100.117E-03    -350.376E-03     106.508E-03    -34.0197E-06     228.507E-03    -110.474E-03    -118.033E-03    -110.384E-03     220.859E-03    -110.474E-03     97.2796E-03     141.705E+06     127.119E+06     -7.9468E+06    -7.92772E+06     127.100E+06     141.705E+06    -264.002E+03         60.7695
            1447     894.849E-06     88.1386E-03     154.061E-03     64.6837E-03    -360.561E-03     154.034E-03    -360.561E-03     64.7101E-03    -1.08691E-03     221.488E-03    -110.068E-03    -111.420E-03    -111.311E-03     221.486E-03    -110.175E-03     1.46834E-03    -145.674E+06    -152.613E+06    -363.180E+06    -151.260E+06    -363.171E+06    -147.035E+06     728.801E+03         38.8971
            1448     1.79056E-03     88.1417E-03     109.272E-03     109.107E-03    -360.363E-03     109.107E-03    -360.363E-03     109.272E-03    -179.296E-06     221.258E-03    -110.474E-03    -110.784E-03    -110.468E-03     221.248E-03    -110.780E-03     3.41886E-03    -130.449E+06    -145.693E+06    -354.001E+06    -145.700E+06    -353.995E+06    -130.449E+06     793.513E+03         39.0425
            1449     2.68678E-03     88.1467E-03     109.181E-03     108.931E-03    -360.081E-03     108.931E-03    -360.081E-03     109.181E-03     39.9295E-06     221.101E-03    -110.333E-03    -110.768E-03    -110.306E-03     221.073E-03    -110.768E-03     5.91949E-03    -109.682E+06    -137.298E+06    -335.153E+06    -137.300E+06    -335.150E+06    -109.682E+06     596.001E+03         39.2880
            1450     3.58228E-03     88.1542E-03     109.077E-03     108.683E-03    -359.675E-03     108.683E-03    -359.675E-03     109.077E-03    -154.366E-06     221.040E-03    -110.268E-03    -110.771E-03    -110.206E-03     220.977E-03    -110.771E-03     8.97080E-03    -86.7089E+06    -127.683E+06    -304.926E+06    -127.689E+06    -304.920E+06    -86.7089E+06     913.362E+03         39.6497
            1451     4.47784E-03     88.1661E-03     108.942E-03     108.272E-03    -359.147E-03     108.272E-03    -359.146E-03     108.942E-03    -67.5992E-06     220.955E-03    -110.177E-03    -110.778E-03    -110.044E-03     220.822E-03    -110.778E-03     13.0264E-03    -64.7288E+06    -117.524E+06    -271.209E+06    -117.534E+06    -271.198E+06    -64.7288E+06     1.25857E+06         40.1486
            1452     5.37359E-03     88.1828E-03     108.771E-03     107.854E-03    -358.496E-03     107.854E-03    -358.496E-03     108.771E-03    -151.132E-06     220.758E-03    -109.998E-03    -110.761E-03    -109.753E-03     220.513E-03    -110.761E-03     17.8280E-03    -44.6145E+06    -107.097E+06    -232.936E+06    -107.119E+06    -232.913E+06    -44.6145E+06     1.57642E+06         40.8107
            1453     6.26967E-03     88.2052E-03     108.569E-03     107.319E-03    -357.719E-03     107.319E-03    -357.719E-03     108.569E-03    -123.954E-06     220.714E-03    -109.989E-03    -110.725E-03    -109.553E-03     220.278E-03    -110.725E-03     23.7481E-03    -25.1741E+06    -96.8199E+06    -188.762E+06    -96.8846E+06    -188.697E+06    -25.1741E+06     2.19319E+06         41.6659
            1454     7.16610E-03     88.2353E-03     108.331E-03     106.705E-03    -356.812E-03     106.705E-03    -356.812E-03     108.331E-03    -160.900E-06     220.905E-03    -110.210E-03    -110.694E-03    -109.492E-03     220.186E-03    -110.694E-03     30.6186E-03    -7.35851E+06    -87.2278E+06    -146.066E+06    -87.3573E+06    -145.937E+06    -7.35851E+06     2.52331E+06         42.7441
            1455     8.06197E-03     88.2741E-03     108.055E-03     106.023E-03    -355.772E-03     106.023E-03    -355.772E-03     108.055E-03    -150.946E-06     220.986E-03    -110.328E-03    -110.658E-03    -109.232E-03     219.890E-03    -110.658E-03     37.8478E-03     9.80193E+06    -76.3048E+06    -101.277E+06    -77.6581E+06    -99.9234E+06     9.80193E+06     2.97394E+06         44.0702
            1456     8.95864E-03     88.3210E-03     107.741E-03     105.248E-03    -354.605E-03     105.248E-03    -354.605E-03     107.741E-03    -162.713E-06     221.148E-03    -110.442E-03    -110.706E-03    -108.973E-03     219.568E-03    -110.595E-03     45.5184E-03     26.8707E+06    -41.0315E+06    -70.6794E+06    -68.2526E+06    -43.4582E+06     26.8707E+06     3.74855E+06         45.6575
            1457     9.85475E-03     88.3784E-03     107.389E-03     104.398E-03    -353.310E-03     104.398E-03    -353.310E-03     107.389E-03    -152.648E-06     221.569E-03    -110.530E-03    -111.039E-03    -108.881E-03     219.411E-03    -110.530E-03     53.2677E-03     44.8641E+06     16.7434E+06    -59.8177E+06    -59.5845E+06     16.5102E+06     44.8641E+06     3.70518E+06         47.5003
            1458     10.7523E-03     88.4446E-03     106.999E-03     103.470E-03    -351.885E-03     103.470E-03    -351.885E-03     106.999E-03    -152.265E-06     222.149E-03    -110.460E-03    -111.689E-03    -108.872E-03     219.332E-03    -110.460E-03     60.9625E-03     64.7630E+06     51.4440E+06    -51.6594E+06    -51.5764E+06     59.9278E+06     56.1962E+06     2.56482E+06         49.5686
            1459     11.6486E-03     88.5213E-03     106.573E-03     102.471E-03    -350.350E-03     102.471E-03    -350.350E-03     106.573E-03    -146.296E-06     222.540E-03    -110.417E-03    -112.123E-03    -108.820E-03     219.237E-03    -110.417E-03     66.1539E-03     76.8659E+06     65.1459E+06    -43.4991E+06    -43.4489E+06     76.8156E+06     65.1459E+06     1.78675E+06         51.8066
            1460     12.5464E-03     88.6014E-03     106.108E-03     101.412E-03    -348.700E-03     101.412E-03    -348.700E-03     106.108E-03    -141.686E-06     223.782E-03    -110.431E-03    -113.351E-03    -108.906E-03     219.336E-03    -110.431E-03     76.4355E-03     86.6465E+06     81.7104E+06    -34.3461E+06    -34.3025E+06     84.8201E+06     83.4933E+06     1.15170E+06         54.1369
            1461     13.4426E-03     88.7042E-03     105.610E-03     100.304E-03    -346.952E-03     100.304E-03    -346.952E-03     105.610E-03    -125.054E-06     223.850E-03    -110.445E-03    -113.406E-03    -108.681E-03     219.125E-03    -110.445E-03     79.0575E-03     105.091E+06     96.8851E+06    -25.7715E+06    -25.7573E+06     96.8709E+06     105.091E+06     325.996E+03         56.4696
            1462     14.3415E-03     88.7913E-03     105.066E-03     99.1488E-03    -345.070E-03     99.1488E-03    -345.070E-03     105.066E-03    -80.0199E-06     228.409E-03    -110.451E-03    -117.957E-03    -109.848E-03     220.300E-03    -110.451E-03     101.365E-03     126.821E+06     113.384E+06    -16.8600E+06    -16.8408E+06     113.364E+06     126.821E+06     1.05983E+06         58.7185
            1463     15.2389E-03     88.9509E-03     104.486E-03     97.9749E-03    -343.101E-03     97.9749E-03    -343.101E-03     104.486E-03    -7.85530E-06     229.016E-03    -110.463E-03    -118.554E-03    -110.830E-03     221.292E-03    -110.463E-03     97.8347E-03     142.720E+06     128.604E+06    -7.93840E+06    -7.92143E+06     128.587E+06     142.720E+06     1.15290E+06         60.8167
            1464     895.235E-06     89.3853E-03     157.223E-03     57.4455E-03    -353.338E-03     157.205E-03    -353.337E-03     57.4638E-03    -901.473E-06     221.646E-03    -110.322E-03    -111.324E-03    -111.160E-03     221.643E-03    -110.483E-03     1.51397E-03    -145.893E+06    -153.071E+06    -364.127E+06    -151.720E+06    -364.117E+06    -147.255E+06     631.602E+03         38.8761
            1465     1.79056E-03     89.3879E-03     107.268E-03     107.087E-03    -353.157E-03     107.100E-03    -353.156E-03     107.254E-03    -191.197E-06     221.418E-03    -110.551E-03    -110.868E-03    -110.550E-03     221.407E-03    -110.857E-03     3.75954E-03    -130.735E+06    -145.272E+06    -354.084E+06    -145.279E+06    -354.078E+06    -130.735E+06     473.114E+03         39.0204
            1466     2.68594E-03     89.3923E-03     107.164E-03     106.905E-03    -352.863E-03     106.905E-03    -352.863E-03     107.164E-03     54.8148E-06     221.201E-03    -110.360E-03    -110.841E-03    -110.332E-03     221.172E-03    -110.841E-03     5.99540E-03    -109.519E+06    -137.129E+06    -335.841E+06    -137.132E+06    -335.837E+06    -109.519E+06     648.973E+03         39.2640
            1467     3.58173E-03     89.4008E-03     107.057E-03     106.659E-03    -352.448E-03     106.659E-03    -352.448E-03     107.057E-03    -129.365E-06     221.021E-03    -110.202E-03    -110.819E-03    -110.137E-03     220.956E-03    -110.819E-03     9.12337E-03    -87.1311E+06    -127.546E+06    -306.155E+06    -127.556E+06    -306.145E+06    -87.1311E+06     1.19735E+06         39.6231
            1468     4.47764E-03     89.4118E-03     106.918E-03     106.234E-03    -351.910E-03     106.234E-03    -351.910E-03     106.918E-03    -44.0988E-06     220.777E-03    -109.987E-03    -110.789E-03    -109.852E-03     220.641E-03    -110.789E-03     13.1618E-03    -65.0385E+06    -117.270E+06    -272.115E+06    -117.294E+06    -272.090E+06    -65.0385E+06     1.79599E+06         40.1186
            1469     5.37383E-03     89.4290E-03     106.743E-03     105.812E-03    -351.245E-03     105.812E-03    -351.245E-03     106.743E-03    -116.794E-06     220.581E-03    -109.839E-03    -110.742E-03    -109.590E-03     220.332E-03    -110.742E-03     17.9808E-03    -44.4819E+06    -107.385E+06    -233.662E+06    -107.421E+06    -233.626E+06    -44.4819E+06     2.05026E+06         40.7770
            1470     6.27021E-03     89.4505E-03     106.535E-03     105.264E-03    -350.449E-03     105.264E-03    -350.449E-03     106.535E-03    -89.5578E-06     220.650E-03    -109.957E-03    -110.693E-03    -109.515E-03     220.209E-03    -110.693E-03     23.9079E-03    -25.4833E+06    -97.3778E+06    -190.181E+06    -97.4570E+06    -190.102E+06    -25.4833E+06     2.48072E+06         41.6285
            1471     7.16595E-03     89.4821E-03     106.288E-03     104.636E-03    -349.519E-03     104.636E-03    -349.519E-03     106.288E-03    -119.370E-06     220.660E-03    -110.007E-03    -110.653E-03    -109.298E-03     219.951E-03    -110.653E-03     30.4408E-03    -7.34146E+06    -87.3090E+06    -146.935E+06    -87.4758E+06    -146.768E+06    -7.34146E+06     2.93706E+06         42.7040
            1472     8.06262E-03     89.5193E-03     106.003E-03     103.941E-03    -348.457E-03     103.941E-03    -348.457E-03     106.003E-03    -110.745E-06     220.749E-03    -110.147E-03    -110.603E-03    -109.062E-03     219.664E-03    -110.603E-03     37.6112E-03     10.2090E+06    -76.5137E+06    -101.959E+06    -77.7690E+06    -100.704E+06     10.2090E+06     3.16319E+06         44.0294
            1473     8.95901E-03     89.5674E-03     105.679E-03     103.148E-03    -347.263E-03     103.148E-03    -347.263E-03     105.679E-03    -123.188E-06     221.157E-03    -110.429E-03    -110.727E-03    -109.050E-03     219.589E-03    -110.539E-03     45.3621E-03     27.1548E+06    -41.8470E+06    -70.5099E+06    -67.5806E+06    -44.7763E+06     27.1548E+06     3.27653E+06         45.6189
            1474     9.85605E-03     89.6240E-03     105.316E-03     102.283E-03    -345.938E-03     102.283E-03    -345.938E-03     105.316E-03    -115.101E-06     221.651E-03    -110.491E-03    -111.160E-03    -109.042E-03     219.532E-03    -110.491E-03     52.8008E-03     45.9223E+06     16.0271E+06    -57.3558E+06    -57.1033E+06     15.7746E+06     45.9223E+06     4.09669E+06         47.4674
            1475     10.7519E-03     89.6911E-03     104.912E-03     101.341E-03    -344.485E-03     101.341E-03    -344.485E-03     104.912E-03    -110.783E-06     222.164E-03    -110.438E-03    -111.726E-03    -108.968E-03     219.406E-03    -110.438E-03     60.3211E-03     66.9022E+06     52.9272E+06    -48.4029E+06    -48.1656E+06     60.9506E+06     58.6414E+06     4.85422E+06         49.5456
            1476     11.6490E-03     89.7672E-03     104.473E-03     100.320E-03    -342.916E-03     100.320E-03    -342.916E-03     104.473E-03    -100.377E-06     222.574E-03    -110.413E-03    -112.161E-03    -108.906E-03     219.319E-03    -110.413E-03     65.6757E-03     78.9777E+06     68.8219E+06    -41.3145E+06    -41.1884E+06     78.7524E+06     68.9211E+06     3.02174E+06         51.7974
            1477     12.5454E-03     89.8469E-03     103.994E-03     99.2424E-03    -341.236E-03     99.2424E-03    -341.236E-03     103.994E-03    -91.3066E-06     223.742E-03    -110.430E-03    -113.311E-03    -108.913E-03     219.344E-03    -110.430E-03     76.0239E-03     87.6824E+06     83.9284E+06    -34.5337E+06    -34.4996E+06     85.6900E+06     85.8867E+06     1.44140E+06         54.1438
            1478     13.4438E-03     89.9497E-03     103.481E-03     98.1199E-03    -339.459E-03     98.1199E-03    -339.459E-03     103.481E-03    -69.8628E-06     223.963E-03    -110.445E-03    -113.518E-03    -108.839E-03     219.284E-03    -110.445E-03     78.7036E-03     106.244E+06     98.3708E+06    -26.3820E+06    -26.3648E+06     98.3536E+06     106.244E+06     920.086E+03         56.4929
            1479     14.3406E-03     90.0357E-03     102.920E-03     96.9544E-03    -337.556E-03     96.9544E-03    -337.556E-03     102.920E-03    -50.1584E-06     228.766E-03    -110.465E-03    -118.301E-03    -110.218E-03     220.683E-03    -110.465E-03     101.275E-03     126.671E+06     113.405E+06    -17.6289E+06    -17.6141E+06     113.390E+06     126.671E+06     708.851E+03         58.7556
            1480     15.2376E-03     90.1977E-03     102.322E-03     95.7785E-03    -335.556E-03     95.7785E-03    -335.556E-03     102.322E-03    -12.5538E-06     228.914E-03    -110.481E-03    -118.433E-03    -110.717E-03     221.198E-03    -110.481E-03     97.8174E-03     141.596E+06     127.851E+06    -9.13671E+06    -9.12577E+06     127.840E+06     141.596E+06     983.067E+03         60.8632
            1481     895.621E-06     90.6321E-03     159.643E-03     50.5287E-03    -345.682E-03     159.643E-03    -345.682E-03     50.5287E-03    -844.408E-06     221.350E-03    -110.542E-03    -110.808E-03    -110.746E-03     221.347E-03    -110.601E-03     1.73711E-03    -145.440E+06    -152.348E+06    -364.325E+06    -150.493E+06    -364.307E+06    -147.313E+06    -365.049E+03         38.8547
            1482     1.79088E-03     90.6342E-03     105.052E-03     104.898E-03    -345.507E-03     104.912E-03    -345.507E-03     105.038E-03    -159.407E-06     221.393E-03    -110.636E-03    -110.756E-03    -110.635E-03     221.381E-03    -110.745E-03     3.77618E-03    -132.349E+06    -145.212E+06    -354.899E+06    -145.214E+06    -354.896E+06    -132.349E+06     287.814E+03         38.9979
            1483     2.68624E-03     90.6390E-03     104.953E-03     104.692E-03    -345.209E-03     104.692E-03    -345.209E-03     104.953E-03     61.2861E-06     221.218E-03    -110.422E-03    -110.796E-03    -110.390E-03     221.186E-03    -110.796E-03     6.36580E-03    -110.513E+06    -137.501E+06    -336.639E+06    -137.505E+06    -336.634E+06    -110.513E+06     846.808E+03         39.2397
            1484     3.58204E-03     90.6462E-03     104.844E-03     104.442E-03    -344.793E-03     104.442E-03    -344.793E-03     104.844E-03    -100.980E-06     220.917E-03    -110.126E-03    -110.791E-03    -110.056E-03     220.846E-03    -110.791E-03     9.50209E-03    -87.0279E+06    -127.967E+06    -307.574E+06    -127.981E+06    -307.561E+06    -87.0279E+06     1.44138E+06         39.5961
            1485     4.47795E-03     90.6583E-03     104.704E-03     104.024E-03    -344.251E-03     104.024E-03    -344.251E-03     104.704E-03    -17.5592E-06     220.655E-03    -109.905E-03    -110.750E-03    -109.769E-03     220.519E-03    -110.750E-03     13.2372E-03    -65.1651E+06    -117.741E+06    -273.558E+06    -117.773E+06    -273.526E+06    -65.1651E+06     2.12856E+06         40.0883
            1486     5.37424E-03     90.6737E-03     104.526E-03     103.591E-03    -343.581E-03     103.591E-03    -343.581E-03     104.526E-03    -79.5548E-06     220.600E-03    -109.893E-03    -110.707E-03    -109.640E-03     220.348E-03    -110.707E-03     18.0402E-03    -44.0074E+06    -107.182E+06    -234.460E+06    -107.240E+06    -234.402E+06    -44.0074E+06     2.62079E+06         40.7428
            1487     6.26997E-03     90.6976E-03     104.314E-03     103.044E-03    -342.776E-03     103.044E-03    -342.776E-03     104.314E-03    -52.6120E-06     220.571E-03    -109.906E-03    -110.665E-03    -109.464E-03     220.129E-03    -110.665E-03     23.9374E-03    -24.9570E+06    -97.1286E+06    -191.247E+06    -97.2252E+06    -191.151E+06    -24.9570E+06     2.89871E+06         41.5905
            1488     7.16647E-03     90.7271E-03     104.063E-03     102.409E-03    -341.839E-03     102.409E-03    -341.839E-03     104.063E-03    -75.9851E-06     220.511E-03    -109.894E-03    -110.617E-03    -109.189E-03     219.806E-03    -110.617E-03     30.3188E-03    -6.99506E+06    -87.2086E+06    -147.926E+06    -87.4332E+06    -147.701E+06    -6.99506E+06     3.39799E+06         42.6631
            1489     8.06299E-03     90.7653E-03     103.772E-03     101.712E-03    -340.765E-03     101.712E-03    -340.765E-03     103.772E-03    -64.6434E-06     220.808E-03    -110.210E-03    -110.598E-03    -109.159E-03     219.728E-03    -110.570E-03     37.5447E-03     10.5661E+06    -76.7660E+06    -102.154E+06    -77.6626E+06    -101.257E+06     10.5661E+06     3.33540E+06         43.9874
            1490     8.95944E-03     90.8133E-03     103.441E-03     100.912E-03    -339.553E-03     100.912E-03    -339.553E-03     103.441E-03    -72.9249E-06     221.321E-03    -110.494E-03    -110.827E-03    -109.253E-03     219.777E-03    -110.524E-03     45.0490E-03     27.1806E+06    -41.7066E+06    -71.4021E+06    -68.4096E+06    -44.6991E+06     27.1806E+06     2.86368E+06         45.5785
            1491     9.85515E-03     90.8706E-03     103.069E-03     100.035E-03    -338.208E-03     100.035E-03    -338.208E-03     103.069E-03    -65.1714E-06     221.705E-03    -110.491E-03    -111.214E-03    -109.130E-03     219.621E-03    -110.491E-03     52.3768E-03     44.6877E+06     13.8625E+06    -59.5220E+06    -59.3484E+06     13.6890E+06     44.6877E+06     3.26177E+06         47.4325
            1492     10.7521E-03     90.9373E-03     102.658E-03     99.0917E-03    -336.743E-03     99.0917E-03    -336.743E-03     102.658E-03    -62.9622E-06     222.014E-03    -110.436E-03    -111.578E-03    -108.853E-03     219.289E-03    -110.436E-03     59.9362E-03     66.6335E+06     50.0635E+06    -49.3706E+06    -49.1689E+06     59.2118E+06     57.2834E+06     4.39149E+06         49.5209
            1493     11.6490E-03     91.0127E-03     102.209E-03     98.0725E-03    -335.169E-03     98.0725E-03    -335.169E-03     102.209E-03    -50.1061E-06     222.422E-03    -110.403E-03    -112.019E-03    -108.760E-03     219.162E-03    -110.403E-03     65.6832E-03     81.0821E+06     69.4971E+06    -40.2651E+06    -40.0164E+06     80.7342E+06     69.5963E+06     5.20541E+06         51.7872
            1494     12.5463E-03     91.0936E-03     101.721E-03     96.9929E-03    -333.475E-03     96.9929E-03    -333.475E-03     101.721E-03    -41.9501E-06     223.842E-03    -110.427E-03    -113.415E-03    -109.060E-03     219.487E-03    -110.427E-03     75.7603E-03     89.9280E+06     85.4375E+06    -33.1281E+06    -32.9579E+06     87.4030E+06     87.7923E+06     3.89075E+06         54.1503
            1495     13.4431E-03     91.1932E-03     101.199E-03     95.8723E-03    -331.691E-03     95.8723E-03    -331.691E-03     101.199E-03    -23.4097E-06     224.356E-03    -110.459E-03    -113.896E-03    -109.256E-03     219.716E-03    -110.459E-03     78.5164E-03     107.337E+06     99.6327E+06    -25.7250E+06    -25.6807E+06     99.5884E+06     107.337E+06     1.97179E+06         56.5158
            1496     14.3404E-03     91.2843E-03     100.626E-03     94.6991E-03    -329.759E-03     94.6991E-03    -329.759E-03     100.626E-03    -10.2881E-06     229.146E-03    -110.500E-03    -118.646E-03    -110.551E-03     221.050E-03    -110.500E-03     101.521E-03     126.651E+06     113.585E+06    -17.9479E+06    -17.9258E+06     113.563E+06     126.651E+06     1.41654E+06         58.7924
            1497     15.2370E-03     91.4419E-03     100.016E-03     93.5169E-03    -327.748E-03     93.5169E-03    -327.748E-03     100.016E-03    -22.1663E-06     228.712E-03    -110.517E-03    -118.195E-03    -110.449E-03     220.966E-03    -110.517E-03     98.1368E-03     141.935E+06     128.338E+06    -9.15525E+06    -9.13948E+06     128.322E+06     141.935E+06     774.007E+03         60.9101
            1498     895.348E-06     91.8780E-03     161.284E-03     44.0765E-03    -337.596E-03     161.275E-03    -337.596E-03     44.0853E-03    -609.809E-06     221.251E-03    -110.489E-03    -110.762E-03    -110.683E-03     221.248E-03    -110.566E-03     1.61691E-03    -145.302E+06    -152.777E+06    -364.274E+06    -150.926E+06    -364.252E+06    -147.176E+06    -312.940E+03         38.8331
            1499     1.79097E-03     91.8805E-03     102.632E-03     102.508E-03    -337.417E-03     102.508E-03    -337.417E-03     102.632E-03    -133.629E-06     221.132E-03    -110.458E-03    -110.673E-03    -110.448E-03     221.121E-03    -110.673E-03     3.52389E-03    -132.152E+06    -145.951E+06    -356.044E+06    -145.954E+06    -356.041E+06    -132.152E+06     150.935E+03         38.9752
            1500     2.68679E-03     91.8848E-03     102.548E-03     102.294E-03    -337.123E-03     102.294E-03    -337.123E-03     102.548E-03     71.5880E-06     220.985E-03    -110.292E-03    -110.693E-03    -110.262E-03     220.955E-03    -110.693E-03     6.16187E-03    -110.176E+06    -137.644E+06    -337.915E+06    -137.651E+06    -337.908E+06    -110.176E+06     943.302E+03         39.2151
            1501     3.58229E-03     91.8925E-03     102.440E-03     102.038E-03    -336.708E-03     102.038E-03    -336.708E-03     102.440E-03    -69.8683E-06     220.800E-03    -110.105E-03    -110.694E-03    -110.037E-03     220.731E-03    -110.694E-03     9.37428E-03    -86.7537E+06    -128.123E+06    -308.990E+06    -128.140E+06    -308.973E+06    -86.7537E+06     1.65526E+06         39.5689
            1502     4.47842E-03     91.9033E-03     102.299E-03     101.635E-03    -336.170E-03     101.635E-03    -336.170E-03     102.299E-03     9.07026E-06     220.695E-03    -110.013E-03    -110.682E-03    -109.876E-03     220.558E-03    -110.682E-03     13.3014E-03    -64.7593E+06    -117.735E+06    -274.854E+06    -117.771E+06    -274.819E+06    -64.7593E+06     2.25602E+06         40.0577
            1503     5.37408E-03     91.9202E-03     102.121E-03     101.192E-03    -335.503E-03     101.192E-03    -335.503E-03     102.121E-03    -42.0153E-06     220.630E-03    -109.966E-03    -110.664E-03    -109.709E-03     220.373E-03    -110.664E-03     18.1994E-03    -44.1890E+06    -107.453E+06    -236.112E+06    -107.531E+06    -236.035E+06    -44.1890E+06     3.02546E+06         40.7083
            1504     6.27044E-03     91.9428E-03     101.908E-03     100.661E-03    -334.702E-03     100.661E-03    -334.702E-03     101.908E-03    -15.5830E-06     220.475E-03    -109.845E-03    -110.631E-03    -109.406E-03     220.037E-03    -110.631E-03     23.8753E-03    -24.5475E+06    -97.1574E+06    -192.002E+06    -97.3027E+06    -191.856E+06    -24.5475E+06     3.61117E+06         41.5520
            1505     7.16685E-03     91.9728E-03     101.655E-03     100.026E-03    -333.767E-03     100.026E-03    -333.767E-03     101.655E-03    -32.7404E-06     220.608E-03    -110.017E-03    -110.590E-03    -109.316E-03     219.906E-03    -110.590E-03     30.2312E-03    -6.93409E+06    -87.2178E+06    -149.077E+06    -87.4979E+06    -148.796E+06    -6.93409E+06     3.94671E+06         42.6213
            1506     8.06291E-03     92.0114E-03     101.362E-03     99.3334E-03    -332.692E-03     99.3334E-03    -332.692E-03     101.362E-03    -20.5299E-06     221.054E-03    -110.401E-03    -110.653E-03    -109.412E-03     219.977E-03    -110.565E-03     37.5472E-03     10.1636E+06    -76.4191E+06    -103.798E+06    -78.3797E+06    -101.837E+06     10.1636E+06     4.23435E+06         43.9441
            1507     8.95877E-03     92.0597E-03     101.028E-03     98.5397E-03    -331.478E-03     98.5397E-03    -331.478E-03     101.028E-03    -24.0282E-06     221.396E-03    -110.538E-03    -110.858E-03    -109.311E-03     219.849E-03    -110.538E-03     45.0859E-03     26.8768E+06    -41.6787E+06    -73.0714E+06    -69.9999E+06    -44.7503E+06     26.8768E+06     4.42876E+06         45.5366
            1508     9.85541E-03     92.1171E-03     100.652E-03     97.6652E-03    -330.134E-03     97.6652E-03    -330.134E-03     100.652E-03    -13.8338E-06     221.576E-03    -110.500E-03    -111.076E-03    -108.989E-03     219.489E-03    -110.500E-03     52.4093E-03     44.0750E+06     13.7850E+06    -61.8131E+06    -61.5669E+06     13.5389E+06     44.0750E+06     3.77232E+06         47.3965
            1509     10.7519E-03     92.1827E-03     100.237E-03     96.7295E-03    -328.669E-03     96.7295E-03    -328.669E-03     100.237E-03    -10.6683E-06     221.956E-03    -110.433E-03    -111.522E-03    -108.801E-03     219.235E-03    -110.433E-03     59.8802E-03     64.3586E+06     48.4397E+06    -53.1446E+06    -53.0517E+06     57.7011E+06     55.0043E+06     3.09636E+06         49.4953
            1510     11.6491E-03     92.2586E-03     99.7837E-03     95.7175E-03    -327.098E-03     95.7175E-03    -327.098E-03     99.7837E-03     688.890E-09     222.409E-03    -110.390E-03    -112.019E-03    -108.797E-03     219.188E-03    -110.390E-03     65.3084E-03     79.5240E+06     65.4622E+06    -43.5386E+06    -43.3843E+06     79.3697E+06     65.4622E+06     3.66830E+06         51.7759
            1511     12.5463E-03     92.3386E-03     99.2909E-03     94.6565E-03    -325.414E-03     94.6565E-03    -325.414E-03     99.2909E-03     8.99105E-06     223.945E-03    -110.422E-03    -113.523E-03    -109.202E-03     219.624E-03    -110.422E-03     75.4385E-03     90.1216E+06     84.1396E+06    -33.3878E+06    -33.1898E+06     88.6989E+06     85.3643E+06     4.36172E+06         54.1558
            1512     13.4427E-03     92.4413E-03     98.7635E-03     93.5473E-03    -323.629E-03     93.5473E-03    -323.629E-03     98.7635E-03     10.8622E-06     224.615E-03    -110.480E-03    -114.136E-03    -109.489E-03     219.969E-03    -110.480E-03     78.6300E-03     107.704E+06     100.837E+06    -24.9575E+06    -24.8126E+06     100.742E+06     107.654E+06     3.94683E+06         56.5384
            1513     14.3395E-03     92.5282E-03     98.1861E-03     92.3932E-03    -321.711E-03     92.3932E-03    -321.711E-03     98.1861E-03     15.0161E-06     229.075E-03    -110.524E-03    -118.551E-03    -110.370E-03     220.894E-03    -110.524E-03     101.929E-03     128.062E+06     115.378E+06    -16.9531E+06    -16.8738E+06     115.298E+06     128.062E+06     2.79008E+06         58.8302
            1514     15.2367E-03     92.6906E-03     97.5712E-03     91.2234E-03    -319.672E-03     91.2234E-03    -319.672E-03     97.5712E-03    -9.41090E-06     228.454E-03    -110.523E-03    -117.931E-03    -110.102E-03     220.625E-03    -110.523E-03     98.4769E-03     143.179E+06     129.867E+06    -8.23539E+06    -8.21562E+06     129.847E+06     143.179E+06     1.04220E+06         60.9588
            1515     895.472E-06     93.1247E-03     162.051E-03     38.1533E-03    -329.087E-03     162.012E-03    -329.087E-03     38.1928E-03    -530.419E-06     221.118E-03    -110.288E-03    -110.829E-03    -110.753E-03     221.114E-03    -110.361E-03     1.95114E-03    -146.328E+06    -153.993E+06    -364.193E+06    -152.696E+06    -364.182E+06    -147.637E+06     174.932E+03         38.8113
            1516     1.79103E-03     93.1259E-03     100.038E-03     99.9076E-03    -328.896E-03     99.9074E-03    -328.895E-03     100.038E-03    -95.2461E-06     221.013E-03    -110.395E-03    -110.619E-03    -110.386E-03     221.004E-03    -110.617E-03     3.45611E-03    -131.489E+06    -146.797E+06    -356.510E+06    -146.801E+06    -356.506E+06    -131.489E+06     222.437E+03         38.9523
            1517     2.68668E-03     93.1309E-03     99.9539E-03     99.7084E-03    -328.608E-03     99.7083E-03    -328.608E-03     99.9539E-03     83.8166E-06     220.758E-03    -110.134E-03    -110.625E-03    -110.106E-03     220.730E-03    -110.625E-03     5.92782E-03    -110.073E+06    -138.721E+06    -339.839E+06    -138.729E+06    -339.831E+06    -110.073E+06     1.01117E+06         39.1904
            1518     3.58296E-03     93.1377E-03     99.8464E-03     99.4502E-03    -328.204E-03     99.4502E-03    -328.204E-03     99.8464E-03    -39.4659E-06     220.639E-03    -110.028E-03    -110.611E-03    -109.960E-03     220.571E-03    -110.611E-03     9.28302E-03    -86.9189E+06    -128.724E+06    -310.763E+06    -128.748E+06    -310.740E+06    -86.9189E+06     1.85246E+06         39.5416
            1519     4.47860E-03     93.1496E-03     99.7071E-03     99.0695E-03    -327.674E-03     99.0695E-03    -327.674E-03     99.7071E-03     34.3223E-06     220.684E-03    -110.072E-03    -110.611E-03    -109.934E-03     220.545E-03    -110.611E-03     13.3688E-03    -65.3312E+06    -118.663E+06    -276.828E+06    -118.716E+06    -276.775E+06    -65.3312E+06     2.78591E+06         40.0269
            1520     5.37470E-03     93.1658E-03     99.5308E-03     98.6229E-03    -327.017E-03     98.6229E-03    -327.017E-03     99.5308E-03    -5.27802E-06     220.621E-03    -110.006E-03    -110.616E-03    -109.753E-03     220.368E-03    -110.616E-03     18.1046E-03    -44.3264E+06    -107.992E+06    -237.531E+06    -108.090E+06    -237.433E+06    -44.3264E+06     3.49563E+06         40.6734
            1521     6.27069E-03     93.1886E-03     99.3188E-03     98.1134E-03    -326.230E-03     98.1134E-03    -326.230E-03     99.3188E-03     21.9801E-06     220.617E-03    -110.013E-03    -110.603E-03    -109.583E-03     220.186E-03    -110.603E-03     23.6649E-03    -24.7719E+06    -97.1326E+06    -193.424E+06    -97.3117E+06    -193.245E+06    -24.7719E+06     4.03195E+06         41.5130
            1522     7.16669E-03     93.2186E-03     99.0676E-03     97.4860E-03    -325.306E-03     97.4860E-03    -325.306E-03     99.0676E-03     7.76507E-06     220.824E-03    -110.233E-03    -110.591E-03    -109.533E-03     220.125E-03    -110.591E-03     30.1945E-03    -7.19474E+06    -87.4205E+06    -150.360E+06    -87.8379E+06    -149.943E+06    -7.19474E+06     4.72634E+06         42.5787
            1523     8.06272E-03     93.2579E-03     98.7748E-03     96.8069E-03    -324.242E-03     96.8069E-03    -324.242E-03     98.7748E-03     21.6935E-06     221.066E-03    -110.427E-03    -110.640E-03    -109.403E-03     219.982E-03    -110.580E-03     37.6471E-03     10.1526E+06    -76.3497E+06    -105.446E+06    -78.7355E+06    -103.061E+06     10.1526E+06     5.41746E+06         43.8998
            1524     8.95895E-03     93.3061E-03     98.4412E-03     96.0337E-03    -323.045E-03     96.0337E-03    -323.045E-03     98.4412E-03     21.8182E-06     221.247E-03    -110.492E-03    -110.756E-03    -109.146E-03     219.688E-03    -110.542E-03     45.2508E-03     27.2859E+06    -40.9343E+06    -73.8120E+06    -69.2312E+06    -45.5151E+06     27.2859E+06     5.62526E+06         45.4940
            1525     9.85534E-03     93.3629E-03     98.0665E-03     95.1756E-03    -321.720E-03     95.1756E-03    -321.720E-03     98.0665E-03     32.7970E-06     221.515E-03    -110.492E-03    -111.023E-03    -108.937E-03     219.429E-03    -110.492E-03     52.3955E-03     44.8736E+06     14.7491E+06    -60.7913E+06    -60.3534E+06     14.3112E+06     44.8736E+06     5.33870E+06         47.3598
            1526     10.7524E-03     93.4289E-03     97.6515E-03     94.2608E-03    -320.272E-03     94.2608E-03    -320.272E-03     97.6515E-03     34.4191E-06     222.089E-03    -110.433E-03    -111.655E-03    -108.940E-03     219.373E-03    -110.433E-03     59.8352E-03     65.3990E+06     50.0948E+06    -52.3481E+06    -52.1582E+06     58.8027E+06     56.5012E+06     4.26221E+06         49.4688
            1527     11.6487E-03     93.5045E-03     97.1993E-03     93.2655E-03    -318.716E-03     93.2655E-03    -318.716E-03     97.1993E-03     43.0984E-06     222.667E-03    -110.411E-03    -112.256E-03    -109.031E-03     219.442E-03    -110.411E-03     65.3971E-03     79.1820E+06     67.2450E+06    -44.3822E+06    -44.3137E+06     79.1135E+06     67.2450E+06      2.6942E+06         51.7635
            1528     12.5452E-03     93.5847E-03     96.7065E-03     92.2249E-03    -317.049E-03     92.2249E-03    -317.049E-03     96.7065E-03     45.7940E-06     224.022E-03    -110.445E-03    -113.576E-03    -109.212E-03     219.657E-03    -110.445E-03     75.7938E-03     88.0738E+06     84.0896E+06    -35.8242E+06    -35.7492E+06     87.1035E+06     84.9849E+06     2.63078E+06         54.1606
            1529     13.4430E-03     93.6868E-03     96.1791E-03     91.1427E-03    -315.285E-03     91.1427E-03    -315.285E-03     96.1791E-03     54.2514E-06     224.412E-03    -110.484E-03    -113.928E-03    -109.216E-03     219.699E-03    -110.484E-03     79.1230E-03     106.308E+06     100.324E+06    -26.2800E+06    -26.1322E+06     100.226E+06     106.258E+06     4.06676E+06         56.5615
            1530     14.3395E-03     93.7760E-03     95.6015E-03     90.0098E-03    -313.382E-03     90.0098E-03    -313.382E-03     95.6015E-03     15.7629E-06     228.864E-03    -110.516E-03    -118.347E-03    -110.148E-03     220.664E-03    -110.516E-03     102.047E-03     128.846E+06     117.929E+06    -16.7534E+06    -16.6344E+06     117.810E+06     128.846E+06     3.73270E+06         58.8694
            1531     15.2381E-03     93.9334E-03     94.9862E-03     88.8654E-03    -311.374E-03     88.8654E-03    -311.374E-03     94.9862E-03    -11.9146E-06     228.485E-03    -110.515E-03    -117.970E-03    -110.173E-03     220.688E-03    -110.515E-03     98.1829E-03     144.506E+06     132.466E+06    -8.12332E+06    -8.09530E+06     132.438E+06     144.506E+06     1.58959E+06         61.0087
            1532     895.760E-06     94.3695E-03     162.071E-03     32.6085E-03    -320.118E-03     162.020E-03    -320.118E-03     32.6596E-03    -338.968E-06     220.835E-03    -110.052E-03    -110.783E-03    -110.733E-03     220.831E-03    -110.098E-03     1.61655E-03    -148.729E+06    -155.125E+06    -365.257E+06    -153.821E+06    -365.251E+06    -150.038E+06     367.688E+03         38.7893
            1533     1.79123E-03     94.3727E-03     97.2573E-03     97.1309E-03    -319.949E-03     97.1308E-03    -319.948E-03     97.2573E-03    -88.6545E-06     220.784E-03    -110.300E-03    -110.484E-03    -110.291E-03     220.774E-03    -110.483E-03     3.54096E-03    -133.460E+06    -148.439E+06    -357.069E+06    -148.444E+06    -357.065E+06    -133.460E+06     923.644E+03         38.9293
            1534     2.68702E-03     94.3756E-03     97.1757E-03     96.9404E-03    -319.681E-03     96.9403E-03    -319.680E-03     97.1757E-03     92.4417E-06     220.730E-03    -110.195E-03    -110.536E-03    -110.166E-03     220.702E-03    -110.536E-03     5.97130E-03    -110.227E+06    -140.004E+06    -341.291E+06    -140.011E+06    -341.284E+06    -110.227E+06     1.09890E+06         39.1656
            1535     3.58287E-03     94.3834E-03     97.0702E-03     96.6864E-03    -319.289E-03     96.6864E-03    -319.289E-03     97.0702E-03    -8.00698E-06     220.668E-03    -110.102E-03    -110.566E-03    -110.035E-03     220.601E-03    -110.566E-03     9.22434E-03    -87.0046E+06    -130.027E+06    -313.021E+06    -130.056E+06    -312.993E+06    -87.0046E+06     2.05171E+06         39.5141
            1536     4.47898E-03     94.3951E-03     96.9337E-03     96.3289E-03    -318.774E-03     96.3289E-03    -318.774E-03     96.9337E-03     62.3492E-06     220.657E-03    -110.074E-03    -110.584E-03    -109.939E-03     220.523E-03    -110.584E-03     13.1529E-03    -65.4255E+06    -118.958E+06    -278.508E+06    -119.011E+06    -278.454E+06    -65.4255E+06     2.88368E+06         39.9959
            1537     5.37470E-03     94.4118E-03     96.7611E-03     95.8911E-03    -318.137E-03     95.8911E-03    -318.137E-03     96.7611E-03     30.8922E-06     220.691E-03    -110.092E-03    -110.599E-03    -109.848E-03     220.447E-03    -110.599E-03     17.7920E-03    -44.6859E+06    -107.847E+06    -239.529E+06    -107.965E+06    -239.411E+06    -44.6859E+06     3.72382E+06         40.6382
            1538     6.27061E-03     94.4345E-03     96.5527E-03     95.4030E-03    -317.368E-03     95.4030E-03    -317.368E-03     96.5527E-03     58.7144E-06     220.769E-03    -110.164E-03    -110.605E-03    -109.734E-03     220.340E-03    -110.605E-03     23.6029E-03    -25.6548E+06    -98.2390E+06    -195.038E+06    -98.4780E+06    -194.799E+06    -25.6548E+06     4.65901E+06         41.4734
            1539     7.16644E-03     94.4650E-03     96.3054E-03     94.7952E-03    -316.466E-03     94.7952E-03    -316.466E-03     96.3054E-03     49.6951E-06     220.880E-03    -110.272E-03    -110.608E-03    -109.568E-03     220.176E-03    -110.608E-03     30.3201E-03    -7.30552E+06    -87.7129E+06    -151.954E+06    -88.1487E+06    -151.518E+06    -7.30552E+06     4.99482E+06         42.5354
            1540     8.06249E-03     94.5039E-03     96.0169E-03     94.1397E-03    -315.430E-03     94.1397E-03    -315.430E-03     96.0169E-03     65.3005E-06     220.918E-03    -110.331E-03    -110.587E-03    -109.245E-03     219.832E-03    -110.587E-03     37.6609E-03     10.1711E+06    -75.6227E+06    -106.831E+06    -77.5809E+06    -104.873E+06     10.1711E+06     5.45374E+06         43.8548
            1541     8.95916E-03     94.5518E-03     95.6877E-03     93.3946E-03    -314.262E-03     93.3946E-03    -314.262E-03     95.6877E-03     64.9771E-06     221.112E-03    -110.428E-03    -110.683E-03    -109.018E-03     219.550E-03    -110.533E-03     45.2585E-03     27.3026E+06    -41.3134E+06    -73.8143E+06    -68.2609E+06    -46.8669E+06     27.3026E+06     6.24201E+06         45.4506
            1542     9.85578E-03     94.6093E-03     95.3174E-03     92.5636E-03    -312.967E-03     92.5636E-03    -312.967E-03     95.3174E-03     72.9001E-06     221.557E-03    -110.482E-03    -111.075E-03    -108.989E-03     219.471E-03    -110.482E-03     52.4105E-03     45.7660E+06     14.9745E+06    -59.8485E+06    -59.2199E+06     14.3459E+06     45.7660E+06     6.30247E+06         47.3221
            1543     10.7520E-03     94.6747E-03     94.9071E-03     91.6815E-03    -311.553E-03     91.6815E-03    -311.553E-03     94.9071E-03     71.9950E-06     222.134E-03    -110.428E-03    -111.706E-03    -108.983E-03     219.411E-03    -110.428E-03     59.9167E-03     67.1408E+06     51.9473E+06    -50.6090E+06    -50.3107E+06     60.5179E+06     58.2718E+06     5.61293E+06         49.4414
            1544     11.6490E-03     94.7511E-03     94.4599E-03     90.7177E-03    -310.030E-03     90.7177E-03    -310.030E-03     94.4599E-03     72.5403E-06     222.671E-03    -110.414E-03    -112.257E-03    -109.000E-03     219.414E-03    -110.414E-03     65.7097E-03     80.3300E+06     70.0377E+06    -42.7857E+06    -42.5803E+06     80.1246E+06     70.0377E+06     4.82957E+06         51.7509
            1545     12.5461E-03     94.8306E-03     93.9723E-03     89.7068E-03    -308.396E-03     89.7068E-03    -308.396E-03     93.9723E-03     68.3117E-06     224.048E-03    -110.448E-03    -113.600E-03    -109.194E-03     219.642E-03    -110.448E-03     76.1709E-03     88.7117E+06     85.4555E+06    -36.0514E+06    -35.9044E+06     86.7319E+06     87.2884E+06     3.87732E+06         54.1659
            1546     13.4424E-03     94.9328E-03     93.4506E-03     88.6671E-03    -306.677E-03     88.6671E-03    -306.677E-03     93.4506E-03     63.6045E-06     224.381E-03    -110.474E-03    -113.906E-03    -109.169E-03     219.643E-03    -110.474E-03     79.3271E-03     105.856E+06     99.2800E+06    -28.2333E+06    -28.1382E+06     99.1848E+06     105.856E+06     2.87732E+06         56.5851
            1547     14.3410E-03     95.0205E-03     92.8780E-03     87.5643E-03    -304.797E-03     87.5643E-03    -304.797E-03     92.8780E-03     69.5095E-06     228.879E-03    -110.506E-03    -118.373E-03    -110.273E-03     220.779E-03    -110.506E-03     101.593E-03     127.992E+06     118.804E+06    -18.3978E+06    -18.3182E+06     118.724E+06     127.992E+06     2.95803E+06         58.9088
            1548     15.2366E-03     95.1811E-03     92.2676E-03     86.4461E-03    -302.824E-03     86.4460E-03    -302.824E-03     92.2676E-03     22.4957E-06     228.445E-03    -110.515E-03    -117.930E-03    -110.223E-03     220.738E-03    -110.515E-03     97.8071E-03     145.065E+06     135.288E+06    -8.44905E+06    -8.40332E+06     135.242E+06     145.065E+06     2.12224E+06         61.0587
            1549     895.554E-06     95.6159E-03     160.976E-03     27.6139E-03    -310.777E-03     160.955E-03    -310.777E-03     27.6344E-03    -151.889E-06     220.579E-03    -109.882E-03    -110.696E-03    -110.096E-03     220.575E-03    -110.480E-03     1.40111E-03    -149.943E+06    -156.181E+06    -366.735E+06    -155.578E+06    -366.725E+06    -150.556E+06     1.35893E+06         38.7673
            1550     1.79174E-03     95.6170E-03     94.3219E-03     94.1883E-03    -310.623E-03     94.2219E-03    -310.623E-03     94.2882E-03    -77.1824E-06     220.550E-03    -110.194E-03    -110.357E-03    -110.184E-03     220.541E-03    -110.357E-03     3.35105E-03    -135.044E+06    -149.895E+06    -357.887E+06    -149.900E+06    -357.882E+06    -135.044E+06     1.04314E+06         38.9062
            1551     2.68759E-03     95.6219E-03     94.2218E-03     93.9941E-03    -310.356E-03     93.9941E-03    -310.356E-03     94.2218E-03     102.900E-06     220.806E-03    -110.350E-03    -110.456E-03    -110.322E-03     220.778E-03    -110.456E-03     5.95438E-03    -111.496E+06    -141.165E+06    -342.838E+06    -141.177E+06    -342.826E+06    -111.496E+06     1.42100E+06         39.1407
            1552     3.58288E-03     95.6289E-03     94.1193E-03     93.7599E-03    -309.981E-03     93.7599E-03    -309.981E-03     94.1193E-03     25.2320E-06     220.890E-03    -110.329E-03    -110.561E-03    -110.265E-03     220.825E-03    -110.561E-03     9.04943E-03    -87.0092E+06    -130.538E+06    -314.282E+06    -130.558E+06    -314.262E+06    -87.0092E+06     1.88915E+06         39.4864
            1553     4.47861E-03     95.6408E-03     93.9876E-03     93.4178E-03    -309.488E-03     93.4178E-03    -309.488E-03     93.9876E-03     88.4029E-06     220.716E-03    -110.108E-03    -110.607E-03    -109.976E-03     220.583E-03    -110.607E-03     13.0367E-03    -65.9377E+06    -119.452E+06    -280.422E+06    -119.506E+06    -280.367E+06    -65.9377E+06     2.70481E+06         39.9645
            1554     5.37454E-03     95.6579E-03     93.8203E-03     93.0029E-03    -308.875E-03     93.0029E-03    -308.875E-03     93.8203E-03     66.2157E-06     220.700E-03    -110.080E-03    -110.620E-03    -109.834E-03     220.454E-03    -110.620E-03     17.8624E-03    -45.6341E+06    -108.899E+06    -242.091E+06    -109.020E+06    -241.970E+06    -45.6341E+06     3.84472E+06         40.6025
            1555     6.27042E-03     95.6804E-03     93.6179E-03     92.5399E-03    -308.137E-03     92.5399E-03    -308.137E-03     93.6179E-03     96.4642E-06     220.756E-03    -110.137E-03    -110.619E-03    -109.702E-03     220.321E-03    -110.619E-03     23.7450E-03    -26.1629E+06    -98.1304E+06    -196.678E+06    -98.3731E+06    -196.435E+06    -26.1629E+06     4.67170E+06         41.4332
            1556     7.16645E-03     95.7115E-03     93.3776E-03     91.9627E-03    -307.269E-03     91.9627E-03    -307.269E-03     93.3776E-03     91.7120E-06     220.752E-03    -110.144E-03    -110.608E-03    -109.435E-03     220.043E-03    -110.608E-03     30.4000E-03    -8.13161E+06    -87.7754E+06    -153.646E+06    -88.2043E+06    -153.217E+06    -8.13161E+06     5.09302E+06         42.4916
            1557     8.06281E-03     95.7494E-03     93.0968E-03     91.3370E-03    -306.271E-03     91.3369E-03    -306.271E-03     93.0968E-03     104.814E-06     220.870E-03    -110.293E-03    -110.577E-03    -109.207E-03     219.783E-03    -110.577E-03     37.6764E-03     9.03002E+06    -76.7838E+06    -108.683E+06    -78.8089E+06    -106.657E+06     9.03002E+06     5.51435E+06         43.8091
            1558     8.95912E-03     95.7979E-03     92.7754E-03     90.6274E-03    -305.144E-03     90.6273E-03    -305.144E-03     92.7754E-03     104.590E-06     221.119E-03    -110.466E-03    -110.653E-03    -109.031E-03     219.556E-03    -110.525E-03     45.2874E-03     26.7303E+06    -43.0417E+06    -74.8201E+06    -69.1968E+06    -48.6650E+06     26.7303E+06     6.26253E+06         45.4062
            1559     9.85561E-03     95.8551E-03     92.4131E-03     89.8345E-03    -303.890E-03     89.8345E-03    -303.890E-03     92.4131E-03     112.628E-06     221.474E-03    -110.472E-03    -111.001E-03    -108.904E-03     219.376E-03    -110.472E-03     52.5307E-03     46.0124E+06     14.3644E+06    -59.8776E+06    -59.2006E+06     13.6874E+06     46.0124E+06     6.61489E+06         47.2832
            1560     10.7525E-03     95.9214E-03     92.0112E-03     88.9888E-03    -302.519E-03     88.9888E-03    -302.519E-03     92.0112E-03     105.806E-06     222.035E-03    -110.412E-03    -111.623E-03    -108.896E-03     219.307E-03    -110.412E-03     59.9623E-03     67.0438E+06     52.4235E+06    -50.8879E+06    -50.4670E+06     60.4992E+06     58.5472E+06     6.74617E+06         49.4131
            1561     11.6492E-03     95.9963E-03     91.5730E-03     88.0689E-03    -301.047E-03     88.0689E-03    -301.047E-03     91.5730E-03     97.6144E-06     222.605E-03    -110.390E-03    -112.215E-03    -108.960E-03     219.350E-03    -110.390E-03     65.6767E-03     80.6447E+06     69.6914E+06    -43.0278E+06    -42.6458E+06     80.2627E+06     69.6914E+06     6.82310E+06         51.7377
            1562     12.5460E-03     96.0773E-03     91.0949E-03     87.1057E-03    -299.469E-03     87.1057E-03    -299.469E-03     91.0949E-03     81.2076E-06     224.052E-03    -110.430E-03    -113.621E-03    -109.268E-03     219.698E-03    -110.430E-03     75.7694E-03     90.8349E+06     86.5155E+06    -35.0212E+06    -34.7301E+06     88.6812E+06     88.3782E+06     5.85176E+06         54.1707
            1563     13.4439E-03     96.1779E-03     90.5831E-03     86.1080E-03    -297.800E-03     86.1080E-03    -297.800E-03     90.5831E-03     53.7704E-06     224.597E-03    -110.479E-03    -114.118E-03    -109.442E-03     219.921E-03    -110.479E-03     78.8830E-03     108.703E+06     101.680E+06    -26.6451E+06    -26.5038E+06     101.538E+06     108.703E+06     3.76808E+06         56.6081
            1564     14.3389E-03     96.2681E-03     90.0212E-03     85.0838E-03    -296.010E-03     85.0838E-03    -296.010E-03     90.0212E-03     60.3265E-06     228.842E-03    -110.513E-03    -118.330E-03    -110.216E-03     220.729E-03    -110.513E-03     101.590E-03     128.752E+06     119.568E+06    -18.2706E+06    -18.1985E+06     119.496E+06     128.752E+06      2.5048E+06         58.9479
            1565     15.2376E-03     96.4257E-03     89.4231E-03     84.0243E-03    -294.054E-03     84.0242E-03    -294.054E-03     89.4231E-03     72.5484E-06     228.207E-03    -110.507E-03    -117.700E-03    -109.954E-03     220.460E-03    -110.507E-03     98.0187E-03     144.615E+06     136.167E+06    -9.11255E+06    -9.08583E+06     136.141E+06     144.615E+06     1.53283E+06         61.1092
            1566     895.985E-06     96.8608E-03     159.210E-03     23.1205E-03    -301.079E-03     159.210E-03    -301.079E-03     23.1205E-03    -93.2910E-06     220.405E-03    -109.724E-03    -110.681E-03    -110.125E-03     220.402E-03    -110.276E-03     1.99763E-03    -152.541E+06    -157.351E+06    -368.573E+06    -156.761E+06    -368.550E+06    -153.154E+06     455.498E+03         38.7449
            1567     1.79156E-03     96.8623E-03     91.2096E-03     91.0712E-03    -300.909E-03     91.1179E-03    -300.909E-03     91.1628E-03    -14.8926E-06     220.738E-03    -110.274E-03    -110.463E-03    -110.395E-03     220.728E-03    -110.333E-03     3.34604E-03    -135.281E+06    -149.972E+06    -359.035E+06    -149.979E+06    -359.027E+06    -135.281E+06     1.23694E+06         38.8827
            1568     2.68715E-03     96.8673E-03     91.1023E-03     90.8868E-03    -300.656E-03     90.8867E-03    -300.656E-03     91.1023E-03     110.338E-06     220.901E-03    -110.360E-03    -110.540E-03    -110.383E-03     220.874E-03    -110.491E-03     5.80731E-03    -112.397E+06    -141.422E+06    -343.814E+06    -141.432E+06    -343.804E+06    -112.397E+06     1.38363E+06         39.1153
            1569     3.58286E-03     96.8753E-03     91.0044E-03     90.6776E-03    -300.302E-03     90.6776E-03    -300.302E-03     91.0044E-03     58.3713E-06     220.884E-03    -110.294E-03    -110.590E-03    -110.231E-03     220.821E-03    -110.590E-03     8.97557E-03    -88.2711E+06    -130.954E+06    -315.856E+06    -130.986E+06    -315.824E+06    -88.2711E+06     2.11790E+06         39.4583
            1570     4.47836E-03     96.8865E-03     90.8794E-03     90.3504E-03    -299.836E-03     90.3504E-03    -299.836E-03     90.8794E-03     115.055E-06     220.798E-03    -110.163E-03    -110.636E-03    -110.029E-03     220.665E-03    -110.636E-03     13.0910E-03    -66.6194E+06    -120.722E+06    -282.307E+06    -120.780E+06    -282.249E+06    -66.6194E+06     2.66300E+06         39.9328
            1571     5.37451E-03     96.9033E-03     90.7195E-03     89.9695E-03    -299.257E-03     89.9695E-03    -299.257E-03     90.7195E-03     103.002E-06     220.683E-03    -110.040E-03    -110.642E-03    -109.788E-03     220.431E-03    -110.642E-03     18.0473E-03    -46.7691E+06    -109.817E+06    -243.608E+06    -109.901E+06    -243.524E+06    -46.7691E+06     3.05543E+06         40.5665
            1572     6.27037E-03     96.9270E-03     90.5256E-03     89.5305E-03    -298.558E-03     89.5305E-03    -298.558E-03     90.5256E-03     130.068E-06     220.615E-03    -109.992E-03    -110.624E-03    -109.556E-03     220.180E-03    -110.624E-03     23.7876E-03    -27.5060E+06    -98.5099E+06    -199.385E+06    -98.7003E+06    -199.194E+06    -27.5060E+06     4.15897E+06         41.3927
            1573     7.16660E-03     96.9567E-03     90.2949E-03     88.9964E-03    -297.737E-03     88.9964E-03    -297.737E-03     90.2949E-03     127.246E-06     220.650E-03    -110.051E-03    -110.598E-03    -109.343E-03     219.941E-03    -110.598E-03     30.3736E-03    -8.74851E+06    -87.9699E+06    -155.702E+06    -88.4623E+06    -155.210E+06    -8.74851E+06     5.38069E+06         42.4472
            1574     8.06288E-03     96.9959E-03     90.0246E-03     88.4089E-03    -296.786E-03     88.4089E-03    -296.786E-03     90.0246E-03     143.626E-06     220.913E-03    -110.339E-03    -110.574E-03    -109.257E-03     219.826E-03    -110.569E-03     37.7083E-03     9.79161E+06    -76.6994E+06    -109.105E+06    -78.3334E+06    -107.471E+06     9.79161E+06     5.71969E+06         43.7626
            1575     8.95918E-03     97.0436E-03     89.7143E-03     87.7401E-03    -295.708E-03     87.7401E-03    -295.708E-03     89.7143E-03     142.535E-06     221.158E-03    -110.516E-03    -110.642E-03    -109.082E-03     219.603E-03    -110.521E-03     45.1694E-03     26.8488E+06    -43.9428E+06    -75.0829E+06    -68.4585E+06    -50.5672E+06     26.8488E+06     6.01633E+06         45.3605
            1576     9.85589E-03     97.1012E-03     89.3638E-03     86.9948E-03    -294.509E-03     86.9948E-03    -294.509E-03     89.3638E-03     147.981E-06     221.370E-03    -110.465E-03    -110.905E-03    -108.814E-03     219.279E-03    -110.465E-03     52.4367E-03     45.1627E+06     12.5205E+06    -60.6979E+06    -59.8651E+06     11.6878E+06     45.1627E+06     7.47909E+06         47.2429
            1577     10.7526E-03     97.1669E-03     88.9740E-03     86.1936E-03    -293.195E-03     86.1936E-03    -293.195E-03     88.9740E-03     142.167E-06     221.953E-03    -110.400E-03    -111.553E-03    -108.842E-03     219.242E-03    -110.400E-03     59.7783E-03     66.5224E+06     51.3087E+06    -52.5036E+06    -51.8920E+06     59.3125E+06     57.9068E+06     8.13985E+06         49.3833
            1578     11.6495E-03     97.2429E-03     88.5487E-03     85.3271E-03    -291.784E-03     85.3271E-03    -291.784E-03     88.5487E-03     125.350E-06     222.631E-03    -110.378E-03    -112.253E-03    -109.025E-03     219.403E-03    -110.378E-03     65.4146E-03     81.0509E+06     69.1111E+06    -43.8726E+06    -43.4481E+06     80.6264E+06     69.1111E+06     7.15894E+06         51.7229
            1579     12.5464E-03     97.3229E-03     88.0840E-03     84.4165E-03    -290.270E-03     84.4165E-03    -290.270E-03     88.0840E-03     98.1285E-06     224.137E-03    -110.426E-03    -113.710E-03    -109.354E-03     219.780E-03    -110.426E-03     75.7893E-03     92.3149E+06     87.5857E+06    -34.1425E+06    -33.8277E+06     90.5953E+06     88.9905E+06     6.10324E+06         54.1740
            1580     13.4418E-03     97.4251E-03     87.5863E-03     83.4711E-03    -288.669E-03     83.4711E-03    -288.669E-03     87.5863E-03     68.6486E-06     224.497E-03    -110.474E-03    -114.023E-03    -109.303E-03     219.778E-03    -110.474E-03     79.2349E-03     109.617E+06     103.981E+06    -26.1067E+06    -25.8846E+06     103.759E+06     109.617E+06     5.25621E+06         56.6306
            1581     14.3407E-03     97.5134E-03     87.0385E-03     82.4937E-03    -286.949E-03     82.4937E-03    -286.949E-03     87.0385E-03    -19.2875E-06     228.711E-03    -110.502E-03    -118.209E-03    -110.096E-03     220.597E-03    -110.502E-03     101.675E-03     129.635E+06     121.063E+06    -18.2006E+06    -18.0942E+06     120.957E+06     129.635E+06     3.45447E+06         58.9874
            1582     15.2379E-03     97.6706E-03     86.4548E-03     81.5239E-03    -285.151E-03     81.5239E-03    -285.151E-03     86.4548E-03     42.4729E-06     228.545E-03    -110.506E-03    -118.039E-03    -110.351E-03     220.858E-03    -110.506E-03     97.6396E-03     145.831E+06     137.939E+06    -8.87775E+06    -8.85593E+06     137.917E+06     145.831E+06     1.43245E+06         61.1598
            1583     896.054E-06     98.1050E-03     156.815E-03     19.1074E-03    -290.972E-03     156.808E-03    -290.972E-03     19.1147E-03     206.072E-06     220.667E-03    -110.059E-03    -110.607E-03    -110.593E-03     220.664E-03    -110.071E-03     1.44827E-03    -152.764E+06    -157.372E+06    -369.137E+06    -156.830E+06    -369.114E+06    -153.330E+06    -463.495E+03         38.7218
            1584     1.79157E-03     98.1086E-03     87.9106E-03     87.7986E-03    -290.833E-03     87.8116E-03    -290.833E-03     87.8975E-03    -2.59938E-06     220.935E-03    -110.359E-03    -110.576E-03    -110.480E-03     220.925E-03    -110.446E-03     3.42036E-03    -137.970E+06    -150.851E+06    -361.180E+06    -150.863E+06    -361.168E+06    -137.970E+06     521.735E+03         38.8586
            1585     2.68668E-03     98.1131E-03     87.8302E-03     87.6403E-03    -290.607E-03     87.6403E-03    -290.607E-03     87.8302E-03     121.600E-06     220.870E-03    -110.258E-03    -110.612E-03    -110.280E-03     220.842E-03    -110.562E-03     5.91380E-03    -114.908E+06    -142.503E+06    -345.235E+06    -142.514E+06    -345.224E+06    -114.908E+06     1.49529E+06         39.0894
            1586     3.58261E-03     98.1207E-03     87.7398E-03     87.4472E-03    -290.280E-03     87.4472E-03    -290.280E-03     87.7398E-03     90.5334E-06     220.745E-03    -110.134E-03    -110.611E-03    -110.066E-03     220.677E-03    -110.611E-03     9.26673E-03    -90.3437E+06    -132.797E+06    -317.507E+06    -132.829E+06    -317.475E+06    -90.3437E+06     2.04621E+06         39.4297
            1587     4.47870E-03     98.1327E-03     87.6223E-03     87.1424E-03    -289.850E-03     87.1424E-03    -289.850E-03     87.6223E-03     140.378E-06     220.799E-03    -110.165E-03    -110.634E-03    -110.028E-03     220.663E-03    -110.634E-03     13.2875E-03    -67.8299E+06    -121.342E+06    -283.139E+06    -121.392E+06    -283.089E+06    -67.8299E+06     2.41016E+06         39.9006
            1588     5.37406E-03     98.1493E-03     87.4721E-03     86.8020E-03    -289.311E-03     86.8020E-03    -289.311E-03     87.4721E-03     135.379E-06     220.698E-03    -110.055E-03    -110.643E-03    -109.800E-03     220.444E-03    -110.643E-03     18.1406E-03    -47.9532E+06    -111.308E+06    -244.724E+06    -111.378E+06    -244.654E+06    -47.9532E+06     2.81286E+06         40.5299
            1589     6.27047E-03     98.1724E-03     87.2892E-03     86.3892E-03    -288.658E-03     86.3892E-03    -288.658E-03     87.2892E-03     162.523E-06     220.544E-03    -109.921E-03    -110.623E-03    -109.484E-03     220.107E-03    -110.623E-03     23.8262E-03    -28.8800E+06    -100.938E+06    -201.405E+06    -101.053E+06    -201.290E+06    -28.8800E+06     3.14146E+06         41.3515
            1590     7.16670E-03     98.2027E-03     87.0701E-03     85.9057E-03    -287.889E-03     85.9057E-03    -287.888E-03     87.0701E-03     163.272E-06     220.675E-03    -110.080E-03    -110.595E-03    -109.374E-03     219.969E-03    -110.595E-03     30.3364E-03    -9.69751E+06    -88.6385E+06    -157.865E+06    -88.9361E+06    -157.568E+06    -9.69751E+06     3.86611E+06         42.4019
            1591     8.06292E-03     98.2416E-03     86.8129E-03     85.3625E-03    -286.996E-03     85.3625E-03    -286.996E-03     86.8129E-03     179.500E-06     220.908E-03    -110.339E-03    -110.569E-03    -109.259E-03     219.823E-03    -110.564E-03     37.6722E-03     8.40356E+06     -76.435E+06    -111.564E+06    -78.3603E+06    -109.639E+06     8.40356E+06     5.67292E+06         43.7148
            1592     8.95916E-03     98.2900E-03     86.5167E-03     84.7421E-03    -285.979E-03     84.7421E-03    -285.979E-03     86.5167E-03     178.267E-06     221.130E-03    -110.471E-03    -110.658E-03    -109.067E-03     219.585E-03    -110.517E-03     45.0375E-03     25.6242E+06    -44.9596E+06    -77.0648E+06    -69.6122E+06    -52.4122E+06     25.6242E+06     7.05689E+06         45.3135
            1593     9.85567E-03     98.3464E-03     86.1815E-03     84.0541E-03    -284.847E-03     84.0541E-03    -284.847E-03     86.1815E-03     180.809E-06     221.408E-03    -110.464E-03    -110.944E-03    -108.864E-03     219.328E-03    -110.464E-03     52.2871E-03     43.6498E+06     9.14630E+06    -61.8679E+06    -60.7979E+06     8.07636E+06     43.6498E+06     8.39030E+06         47.2010
            1594     10.7526E-03     98.4132E-03     85.8077E-03     83.3097E-03    -283.606E-03     83.3097E-03    -283.606E-03     85.8077E-03     174.905E-06     221.953E-03    -110.401E-03    -111.552E-03    -108.835E-03     219.237E-03    -110.401E-03     59.8325E-03     67.5222E+06     49.7986E+06    -52.2378E+06    -51.4359E+06     58.8134E+06     57.7055E+06     9.29383E+06         49.3516
            1595     11.6492E-03     98.4887E-03     85.3992E-03     82.5066E-03    -282.269E-03     82.5066E-03    -282.269E-03     85.3992E-03     156.339E-06     222.579E-03    -110.375E-03    -112.205E-03    -108.964E-03     219.339E-03    -110.375E-03     65.5284E-03     83.3813E+06     69.4329E+06    -43.8738E+06    -43.3877E+06     82.8953E+06     69.4329E+06     7.66603E+06         51.7066
            1596     12.5458E-03     98.5694E-03     84.9524E-03     81.6542E-03    -280.831E-03     81.6542E-03    -280.831E-03     84.9524E-03     128.555E-06     223.993E-03    -110.407E-03    -113.586E-03    -109.197E-03     219.604E-03    -110.407E-03     76.0263E-03     91.0871E+06     85.7208E+06    -36.6416E+06    -36.3393E+06     90.3050E+06     86.2006E+06     6.12664E+06         54.1766
            1597     13.4443E-03     98.6708E-03     84.4738E-03     80.7786E-03    -279.319E-03     80.7786E-03    -279.319E-03     84.4738E-03     95.8897E-06     224.417E-03    -110.455E-03    -113.961E-03    -109.267E-03     219.723E-03    -110.455E-03     78.9518E-03     109.762E+06     105.000E+06    -26.7033E+06    -26.4890E+06     105.541E+06     109.007E+06     5.13792E+06         56.6529
            1598     14.3406E-03     98.7586E-03     83.9447E-03     79.8388E-03    -277.649E-03     79.8388E-03    -277.649E-03     83.9447E-03     65.0452E-06     228.939E-03    -110.503E-03    -118.436E-03    -110.442E-03     220.945E-03    -110.503E-03     100.931E-03     131.485E+06     124.188E+06    -17.0317E+06    -16.9356E+06     124.092E+06     131.485E+06     3.60606E+06         59.0265
            1599     15.2370E-03     98.9181E-03     83.3798E-03     78.9454E-03    -276.007E-03     78.9453E-03    -276.007E-03     83.3798E-03    -22.3590E-06     228.698E-03    -110.523E-03    -118.175E-03    -110.528E-03     221.051E-03    -110.523E-03     97.6147E-03     146.417E+06     139.807E+06    -9.14659E+06    -9.10245E+06     139.763E+06     146.417E+06     2.32729E+06         61.2099
            1600     895.119E-06     99.3513E-03     153.409E-03     15.6711E-03    -280.604E-03     153.382E-03    -280.604E-03     15.6977E-03     374.864E-06     221.099E-03    -110.394E-03    -110.705E-03    -110.584E-03     221.095E-03    -110.511E-03     1.78385E-03    -151.106E+06    -155.820E+06    -369.168E+06    -155.284E+06    -369.139E+06    -151.672E+06     668.025E+03         38.6978
            1601     1.79068E-03     99.3541E-03     84.4908E-03     84.3816E-03    -280.460E-03     84.3816E-03    -280.460E-03     84.4908E-03     10.3891E-06     220.838E-03    -110.269E-03    -110.569E-03    -110.257E-03     220.826E-03    -110.569E-03     3.73809E-03    -138.954E+06    -152.310E+06    -362.838E+06    -152.338E+06    -362.810E+06    -138.954E+06     1.11619E+06         38.8336
            1602     2.68710E-03     99.3587E-03     84.4227E-03     84.2661E-03    -280.248E-03     84.2661E-03    -280.248E-03     84.4227E-03     135.275E-06     220.770E-03    -110.198E-03    -110.571E-03    -110.169E-03     220.740E-03    -110.571E-03     6.08163E-03    -117.931E+06    -145.070E+06    -347.177E+06    -145.081E+06    -347.166E+06    -117.931E+06     1.43854E+06         39.0627
            1603     3.58282E-03     99.3663E-03     84.3414E-03     84.0843E-03    -279.953E-03     84.0842E-03    -279.953E-03     84.3414E-03     118.832E-06     220.746E-03    -110.147E-03    -110.600E-03    -110.078E-03     220.678E-03    -110.600E-03     9.34972E-03    -93.1938E+06    -134.795E+06    -318.241E+06    -134.811E+06    -318.226E+06    -93.1938E+06     1.56311E+06         39.4004
            1604     4.47846E-03     99.3785E-03     84.2320E-03     83.8052E-03    -279.559E-03     83.8052E-03    -279.559E-03     84.2320E-03     163.588E-06     220.673E-03    -110.055E-03    -110.618E-03    -109.915E-03     220.533E-03    -110.618E-03     13.4203E-03    -70.5051E+06    -124.125E+06    -284.154E+06    -124.157E+06    -284.122E+06    -70.5051E+06     1.70255E+06         39.8677
            1605     5.37469E-03     99.3954E-03     84.0928E-03     83.5131E-03    -279.068E-03     83.5131E-03    -279.067E-03     84.0928E-03     166.473E-06     220.659E-03    -110.035E-03    -110.623E-03    -109.780E-03     220.404E-03    -110.623E-03     18.1727E-03    -48.8609E+06    -112.299E+06    -245.331E+06    -112.343E+06    -245.287E+06    -48.8609E+06     1.88401E+06         40.4927
            1606     6.27040E-03     99.4179E-03     83.9231E-03     83.1354E-03    -278.470E-03     83.1354E-03    -278.469E-03     83.9231E-03     194.235E-06     220.704E-03    -110.089E-03    -110.615E-03    -109.649E-03     220.265E-03    -110.615E-03     23.8960E-03    -29.2962E+06    -100.544E+06    -202.184E+06    -100.607E+06    -202.121E+06    -29.2962E+06     2.19043E+06         41.3095
            1607     7.16652E-03     99.4488E-03     83.7181E-03     82.7003E-03    -277.756E-03     82.7003E-03    -277.756E-03     83.7181E-03     198.511E-06     220.768E-03    -110.169E-03    -110.599E-03    -109.465E-03     220.064E-03    -110.599E-03     30.3197E-03    -12.2133E+06    -90.7604E+06    -159.788E+06    -90.8910E+06    -159.658E+06    -12.2133E+06     2.75808E+06         42.3554
            1608     8.06264E-03     99.4875E-03     83.4765E-03     82.2068E-03    -276.927E-03     82.2067E-03    -276.927E-03     83.4765E-03     210.681E-06     220.826E-03    -110.257E-03    -110.569E-03    -109.180E-03     219.749E-03    -110.569E-03     37.4998E-03     5.12211E+06    -79.4805E+06    -115.657E+06    -81.0488E+06    -114.089E+06     5.12211E+06     4.78178E+06         43.6657
            1609     8.95932E-03     99.5357E-03     83.1970E-03     81.6456E-03    -275.984E-03     81.6456E-03    -275.984E-03     83.1970E-03     212.450E-06     221.042E-03    -110.394E-03    -110.647E-03    -108.978E-03     219.493E-03    -110.515E-03     45.0664E-03     23.6348E+06    -45.3676E+06    -80.5144E+06    -70.7468E+06    -55.1352E+06     23.6348E+06     7.48179E+06         45.2650
            1610     9.85578E-03     99.5928E-03     82.8801E-03     81.0245E-03    -274.931E-03     81.0245E-03    -274.931E-03     82.8801E-03     211.432E-06     221.442E-03    -110.460E-03    -110.982E-03    -108.899E-03     219.360E-03    -110.460E-03     52.3338E-03     42.2641E+06     6.98047E+06    -62.6956E+06    -61.4643E+06     5.74918E+06     42.2641E+06     8.85303E+06         47.1575
            1611     10.7524E-03     99.6585E-03     82.5260E-03     80.3450E-03    -273.775E-03     80.3450E-03    -273.775E-03     82.5260E-03     200.593E-06     221.998E-03    -110.393E-03    -111.605E-03    -108.874E-03     219.267E-03    -110.393E-03     59.9803E-03     67.6288E+06     45.1191E+06    -53.4078E+06    -52.5961E+06     56.9823E+06     54.9539E+06     9.26297E+06         49.3184
            1612     11.6495E-03     99.7352E-03     82.1384E-03     79.6160E-03    -272.529E-03     79.6160E-03    -272.529E-03     82.1384E-03     180.545E-06     222.548E-03    -110.367E-03    -112.181E-03    -108.953E-03     219.321E-03    -110.367E-03     65.4023E-03     86.3260E+06     68.0169E+06    -44.6472E+06    -44.0714E+06     85.7503E+06     68.0169E+06     8.60933E+06         51.6886
            1613     12.5469E-03     99.8147E-03     81.7141E-03     78.8416E-03    -271.188E-03     78.8416E-03    -271.188E-03     81.7141E-03     153.106E-06     223.932E-03    -110.409E-03    -113.523E-03    -109.215E-03     219.625E-03    -110.409E-03     75.3095E-03     93.7913E+06     86.5424E+06    -36.9624E+06    -36.5903E+06     93.4192E+06     86.5424E+06     6.83238E+06         54.1775
            1614     13.4426E-03     99.9168E-03     81.2592E-03     78.0405E-03    -269.766E-03     78.0404E-03    -269.766E-03     81.2592E-03     118.915E-06     224.467E-03    -110.459E-03    -114.008E-03    -109.360E-03     219.818E-03    -110.459E-03     78.6128E-03     108.788E+06     104.237E+06    -28.4058E+06    -28.2086E+06     105.654E+06     107.174E+06     5.05438E+06         56.6736
            1615     14.3394E-03     100.006E-03     80.7559E-03     77.2322E-03    -268.243E-03     77.2322E-03    -268.243E-03     80.7559E-03     125.564E-06     228.921E-03    -110.507E-03    -118.415E-03    -110.332E-03     220.838E-03    -110.507E-03     101.391E-03     129.725E+06     123.838E+06    -18.8895E+06    -18.7615E+06     123.711E+06     129.725E+06     4.15930E+06         59.0648
            1616     15.2369E-03     100.163E-03     80.2198E-03     76.4025E-03    -266.575E-03     76.4024E-03    -266.575E-03     80.2198E-03    -40.8328E-06     228.143E-03    -110.510E-03    -117.633E-03    -109.853E-03     220.363E-03    -110.510E-03     98.4093E-03     147.997E+06     142.781E+06    -8.60673E+06    -8.54261E+06     142.717E+06     147.997E+06     2.63702E+06         61.2613
            1617     895.506E-06     100.597E-03     149.183E-03     12.9085E-03    -269.915E-03     149.126E-03    -269.915E-03     12.9653E-03     537.682E-06     220.876E-03    -110.066E-03    -110.811E-03    -110.701E-03     220.872E-03    -110.171E-03     2.32363E-03    -155.478E+06    -161.049E+06    -373.452E+06    -161.125E+06    -373.377E+06    -155.478E+06     2.41963E+06         38.6724
            1618     1.79160E-03     100.599E-03     80.9648E-03     80.8402E-03    -269.799E-03     80.8402E-03    -269.799E-03     80.9648E-03     37.2353E-06     220.798E-03    -110.256E-03    -110.542E-03    -110.286E-03     220.786E-03    -110.500E-03     3.91023E-03    -139.224E+06    -154.658E+06    -363.210E+06    -154.688E+06    -363.179E+06    -139.224E+06     1.98039E+06         38.8073
            1619     2.68688E-03     100.604E-03     80.8977E-03     80.7738E-03    -269.617E-03     80.7738E-03    -269.617E-03     80.8977E-03     147.311E-06     220.839E-03    -110.289E-03    -110.550E-03    -110.258E-03     220.808E-03    -110.550E-03     6.26156E-03    -117.523E+06    -145.988E+06    -346.588E+06    -146.002E+06    -346.574E+06    -117.523E+06     1.35297E+06         39.0347
            1620     3.58257E-03     100.612E-03     80.8256E-03     80.6068E-03    -269.352E-03     80.6068E-03    -269.352E-03     80.8256E-03     144.007E-06     220.808E-03    -110.211E-03    -110.597E-03    -110.143E-03     220.740E-03    -110.597E-03     9.29932E-03    -94.7786E+06    -135.935E+06    -318.283E+06    -135.945E+06    -318.273E+06    -94.7786E+06     909.941E+03         39.3699
            1621     4.47864E-03     100.624E-03     80.7264E-03     80.3632E-03    -269.002E-03     80.3631E-03    -269.002E-03     80.7264E-03     189.874E-06     220.596E-03    -109.981E-03    -110.615E-03    -109.844E-03     220.459E-03    -110.615E-03     13.2743E-03    -71.7956E+06    -124.349E+06    -283.767E+06    -124.359E+06    -283.757E+06    -71.7956E+06     232.419E+03         39.8338
            1622     5.37452E-03     100.641E-03     80.5995E-03     80.1131E-03    -268.560E-03     80.1131E-03    -268.560E-03     80.5995E-03     199.382E-06     220.616E-03    -110.008E-03    -110.608E-03    -109.752E-03     220.359E-03    -110.608E-03     18.2139E-03    -51.0515E+06    -112.278E+06    -246.431E+06    -112.283E+06    -246.426E+06    -51.0515E+06    -250.523E+03         40.4545
            1623     6.27059E-03     100.664E-03     80.4437E-03     79.7763E-03    -268.018E-03     79.7763E-03    -268.018E-03     80.4437E-03     220.928E-06     220.790E-03    -110.186E-03    -110.603E-03    -109.746E-03     220.350E-03    -110.603E-03     23.9321E-03    -32.1539E+06    -101.297E+06    -204.392E+06    -101.336E+06    -204.353E+06    -32.1539E+06     1.15354E+06         41.2664
            1624     7.16627E-03     100.695E-03     80.2548E-03     79.3971E-03    -267.372E-03     79.3971E-03    -267.372E-03     80.2548E-03     229.365E-06     220.776E-03    -110.177E-03    -110.599E-03    -109.469E-03     220.068E-03    -110.599E-03     30.3886E-03    -13.8449E+06    -91.1177E+06    -161.810E+06    -91.3286E+06    -161.599E+06    -13.8449E+06     3.15793E+06         42.3078
            1625     8.06262E-03     100.733E-03     80.0315E-03     78.9607E-03    -266.617E-03     78.9607E-03    -266.617E-03     80.0315E-03     240.877E-06     220.806E-03    -110.237E-03    -110.569E-03    -109.152E-03     219.721E-03    -110.569E-03     37.6422E-03     3.52864E+06    -80.7929E+06    -118.229E+06    -81.4801E+06    -117.542E+06     3.52864E+06     4.37864E+06         43.6153
            1626     8.95904E-03     100.781E-03     79.7714E-03     78.4633E-03    -265.755E-03     78.4632E-03    -265.755E-03     79.7714E-03     240.647E-06     221.063E-03    -110.408E-03    -110.654E-03    -108.994E-03     219.501E-03    -110.507E-03     45.2494E-03     20.4449E+06    -48.5201E+06    -82.8607E+06     -71.791E+06    -59.5898E+06     20.4449E+06     6.24432E+06         45.2149
            1627     9.85591E-03     100.839E-03     79.4753E-03     77.9140E-03    -264.790E-03     77.9140E-03    -264.790E-03     79.4753E-03     236.509E-06     221.493E-03    -110.455E-03    -111.038E-03    -108.965E-03     219.420E-03    -110.455E-03     52.2491E-03     39.9676E+06     4.42542E+06    -62.4661E+06    -61.3242E+06     3.28354E+06     39.9676E+06     8.34498E+06         47.1122
            1628     10.7526E-03     100.904E-03     79.1438E-03     77.3069E-03    -263.726E-03     77.3069E-03    -263.726E-03     79.1438E-03     216.371E-06     222.018E-03    -110.393E-03    -111.624E-03    -108.920E-03     219.313E-03    -110.393E-03     59.6927E-03     67.2177E+06     42.7172E+06    -53.4021E+06    -52.5963E+06     55.9911E+06     53.1380E+06     9.21900E+06         49.2830
            1629     11.6491E-03     100.981E-03     78.7805E-03     76.6576E-03    -262.580E-03     76.6575E-03    -262.580E-03     78.7805E-03     188.152E-06     222.449E-03    -110.367E-03    -112.082E-03    -108.838E-03     219.205E-03    -110.367E-03     65.5343E-03     86.8836E+06     66.7095E+06    -45.7800E+06    -45.0965E+06     86.2001E+06     66.7095E+06     9.45758E+06         51.6688
            1630     12.5451E-03     101.061E-03     78.3820E-03     75.9723E-03    -261.348E-03     75.9723E-03    -261.348E-03     78.3820E-03     143.834E-06     224.021E-03    -110.412E-03    -113.609E-03    -109.199E-03     219.611E-03    -110.412E-03     76.1704E-03     96.4153E+06     88.0881E+06    -36.6063E+06    -36.0526E+06     95.8616E+06     88.0881E+06     8.43908E+06         54.1772
            1631     13.4430E-03     101.163E-03     77.9547E-03     75.2664E-03    -260.045E-03     75.2664E-03    -260.045E-03     77.9547E-03     101.950E-06     224.504E-03    -110.451E-03    -114.054E-03    -109.286E-03     219.736E-03    -110.451E-03     79.6073E-03     109.298E+06     105.206E+06    -29.4523E+06    -29.1186E+06     107.105E+06     107.065E+06     6.55858E+06         56.6940
            1632     14.3407E-03     101.252E-03     77.4811E-03     74.5555E-03    -258.634E-03     74.5554E-03    -258.634E-03     77.4811E-03    -17.1180E-06     228.352E-03    -110.477E-03    -117.875E-03    -109.722E-03     220.199E-03    -110.477E-03     101.726E-03     129.626E+06     125.252E+06    -19.9471E+06    -19.7970E+06     125.102E+06     129.626E+06     3.71977E+06         59.1041
            1633     15.2386E-03     101.409E-03     76.9749E-03     73.8021E-03    -257.053E-03     73.8021E-03    -257.053E-03     76.9749E-03    -60.2502E-06     228.022E-03    -110.467E-03    -117.555E-03    -109.772E-03     220.239E-03    -110.467E-03     98.2066E-03     149.643E+06     145.537E+06    -8.55799E+06    -8.50857E+06     145.487E+06     149.643E+06     1.61975E+06         61.3136
            1634     896.232E-06     101.843E-03     143.978E-03     10.8554E-03    -258.989E-03     143.918E-03    -258.988E-03     10.9144E-03     787.573E-06     220.549E-03    -109.931E-03    -110.617E-03    -110.614E-03     220.545E-03    -109.931E-03     1.85866E-03    -158.235E+06    -166.455E+06    -376.513E+06    -163.758E+06    -376.393E+06    -161.052E+06     289.314E+03         38.6450
            1635     1.79115E-03     101.845E-03     77.3343E-03     77.2246E-03    -258.903E-03     77.2246E-03    -258.903E-03     77.3343E-03     31.9824E-06     220.804E-03    -110.347E-03    -110.458E-03    -110.400E-03     220.793E-03    -110.393E-03     3.73011E-03    -141.815E+06    -156.909E+06    -364.457E+06    -156.923E+06    -364.443E+06    -141.815E+06     1.05096E+06         38.7791
            1636     2.68718E-03     101.850E-03     77.2748E-03     77.1781E-03    -258.748E-03     77.1781E-03    -258.748E-03     77.2748E-03     165.585E-06     220.806E-03    -110.300E-03    -110.506E-03    -110.266E-03     220.772E-03    -110.506E-03     6.45115E-03    -119.250E+06    -147.690E+06    -345.135E+06    -147.702E+06    -345.123E+06    -119.250E+06     442.060E+03         39.0051
            1637     3.58270E-03     101.858E-03     77.2118E-03     77.0355E-03    -258.520E-03     77.0355E-03    -258.520E-03     77.2118E-03     171.514E-06     220.743E-03    -110.185E-03    -110.559E-03    -110.113E-03     220.671E-03    -110.559E-03     9.63994E-03    -96.4356E+06    -135.954E+06    -316.520E+06    -135.989E+06    -316.485E+06    -96.4356E+06    -1.39924E+06         39.3379
            1638     4.47830E-03     101.869E-03     77.1242E-03     76.8326E-03    -258.217E-03     76.8325E-03    -258.217E-03     77.1242E-03     214.675E-06     220.723E-03    -110.138E-03    -110.585E-03    -109.996E-03     220.581E-03    -110.585E-03     13.5289E-03    -75.3588E+06    -124.511E+06    -283.690E+06    -124.548E+06    -283.654E+06    -75.3588E+06    -1.53247E+06         39.7984
            1639     5.37456E-03     101.887E-03     77.0107E-03     76.6173E-03    -257.826E-03     76.6172E-03    -257.826E-03     77.0107E-03     230.456E-06     220.697E-03    -110.094E-03    -110.603E-03    -109.833E-03     220.436E-03    -110.603E-03     18.4015E-03    -54.6016E+06    -114.255E+06    -246.871E+06    -114.266E+06    -246.859E+06    -54.6016E+06    -920.613E+03         40.4147
            1640     6.27030E-03     101.910E-03     76.8698E-03     76.3296E-03    -257.344E-03     76.3295E-03    -257.344E-03     76.8698E-03     250.033E-06     220.609E-03    -110.014E-03    -110.595E-03    -109.571E-03     220.166E-03    -110.595E-03     23.9886E-03    -35.5082E+06    -103.193E+06    -206.152E+06    -103.217E+06    -206.128E+06    -35.5082E+06    -948.738E+03         41.2219
            1641     7.16662E-03     101.941E-03     76.6986E-03     76.0088E-03    -256.772E-03     76.0087E-03    -256.772E-03     76.6986E-03     258.643E-06     220.607E-03    -110.038E-03    -110.569E-03    -109.326E-03     219.895E-03    -110.569E-03     30.4640E-03    -17.4621E+06    -91.1382E+06    -166.185E+06    -91.3072E+06    -166.016E+06    -17.4621E+06     1.57524E+06         42.2590
            1642     8.06295E-03     101.979E-03     76.4952E-03     75.6386E-03    -256.101E-03     75.6385E-03    -256.101E-03     76.4952E-03     264.742E-06     220.843E-03    -110.285E-03    -110.558E-03    -109.211E-03     219.746E-03    -110.535E-03     37.8516E-03     444.634E+03    -80.7062E+06    -120.823E+06    -81.7278E+06    -119.801E+06     444.634E+03     4.52302E+06         43.5636
            1643     8.95936E-03     102.027E-03     76.2569E-03     75.2090E-03    -255.326E-03     75.2090E-03    -255.325E-03     76.2569E-03     260.064E-06     221.133E-03    -110.461E-03    -110.671E-03    -109.069E-03     219.555E-03    -110.485E-03     45.5040E-03     17.7173E+06    -54.4267E+06    -81.5634E+06    -72.4748E+06    -63.5153E+06     17.7173E+06     5.72388E+06         45.1631
            1644     9.85550E-03     102.085E-03     75.9839E-03     74.7327E-03    -254.452E-03     74.7327E-03    -254.452E-03     75.9839E-03     253.304E-06     221.532E-03    -110.433E-03    -111.099E-03    -108.968E-03     219.401E-03    -110.433E-03     52.9429E-03     35.7641E+06    -690.870E+03    -64.4721E+06    -63.3124E+06    -1.85058E+06     35.7641E+06     8.18586E+06         47.0650
            1645     10.7519E-03     102.151E-03     75.6774E-03     74.2040E-03    -253.487E-03     74.2039E-03    -253.487E-03     75.6774E-03     228.456E-06     222.115E-03    -110.378E-03    -111.736E-03    -108.986E-03     219.364E-03    -110.378E-03     60.2431E-03     63.8611E+06     43.4818E+06    -56.9712E+06    -56.0345E+06     55.5821E+06     50.8241E+06     10.0282E+06         49.2459
            1646     11.6493E-03     102.226E-03     75.3415E-03     73.6377E-03    -252.452E-03     73.6377E-03    -252.452E-03     75.3415E-03     178.171E-06     222.358E-03    -110.357E-03    -112.001E-03    -108.762E-03     219.119E-03    -110.357E-03     65.4673E-03     86.0880E+06     65.6669E+06    -47.1606E+06    -46.5232E+06     85.4506E+06     65.6669E+06     9.07941E+06         51.6473
            1647     12.5479E-03     102.307E-03     74.9711E-03     73.0406E-03    -251.331E-03     73.0406E-03    -251.331E-03     74.9711E-03     117.722E-06     223.841E-03    -110.392E-03    -113.449E-03    -109.036E-03     219.428E-03    -110.392E-03     76.1688E-03     96.0660E+06     86.9161E+06    -37.2501E+06    -36.7115E+06     95.5274E+06     86.9161E+06     8.38051E+06         54.1756
            1648     13.4439E-03     102.409E-03     74.5737E-03     72.4289E-03    -250.152E-03     72.4289E-03    -250.152E-03     74.5737E-03     33.7414E-06     224.234E-03    -110.437E-03    -113.796E-03    -109.112E-03     219.549E-03    -110.437E-03     78.7955E-03     112.400E+06     109.527E+06    -27.9700E+06    -27.6137E+06     110.936E+06     110.635E+06     6.66541E+06         56.7135
            1649     14.3404E-03     102.497E-03     74.1309E-03     71.7647E-03    -248.817E-03     71.7647E-03    -248.817E-03     74.1309E-03    -61.7895E-06     228.289E-03    -110.468E-03    -117.821E-03    -109.893E-03     220.362E-03    -110.468E-03     100.249E-03     133.391E+06     130.675E+06    -18.4344E+06    -18.3038E+06     130.544E+06     133.391E+06     3.47919E+06         59.1420
            1650     15.2397E-03     102.652E-03     73.6544E-03     71.1112E-03    -247.458E-03     71.1112E-03    -247.458E-03     73.6544E-03    -79.7835E-06     228.203E-03    -110.471E-03    -117.732E-03    -110.130E-03     220.601E-03    -110.471E-03     97.1471E-03     149.824E+06     147.408E+06    -10.1202E+06    -10.0643E+06     147.352E+06     149.824E+06     1.63552E+06         61.3634
            1651     895.400E-06     103.088E-03     137.866E-03     9.42575E-03    -247.925E-03     137.837E-03    -247.924E-03     9.45355E-03     967.975E-06     220.665E-03    -110.191E-03    -110.474E-03    -110.296E-03     220.661E-03    -110.365E-03     2.01284E-03    -156.954E+06    -166.031E+06    -375.098E+06    -163.299E+06    -375.014E+06    -159.771E+06    -1.50588E+06         38.6152
            1652     1.79176E-03     103.091E-03     73.6212E-03     73.5584E-03    -247.827E-03     73.5584E-03    -247.827E-03     73.6212E-03     55.8159E-06     220.641E-03    -110.229E-03    -110.412E-03    -110.239E-03     220.629E-03    -110.390E-03     3.79389E-03    -145.475E+06    -157.899E+06    -365.417E+06    -157.916E+06    -365.399E+06    -145.475E+06    -813.004E+03         38.7486
            1653     2.68696E-03     103.095E-03     73.5765E-03     73.5011E-03    -247.692E-03     73.5010E-03    -247.692E-03     73.5765E-03     185.090E-06     220.583E-03    -110.151E-03    -110.432E-03    -110.117E-03     220.549E-03    -110.432E-03     6.50189E-03    -123.695E+06    -148.604E+06    -342.483E+06    -148.638E+06    -342.449E+06    -123.695E+06    -1.88303E+06         38.9732
            1654     3.58319E-03     103.104E-03     73.5217E-03     73.3891E-03    -247.501E-03     73.3890E-03    -247.501E-03     73.5217E-03     199.863E-06     220.583E-03    -110.119E-03    -110.465E-03    -110.044E-03     220.508E-03    -110.465E-03     9.80730E-03    -102.280E+06    -138.604E+06    -314.476E+06    -138.689E+06    -314.391E+06    -102.280E+06    -3.51017E+06         39.3040
            1655     4.47917E-03     103.115E-03     73.4454E-03     73.2251E-03    -247.240E-03     73.2251E-03    -247.240E-03     73.4454E-03     243.292E-06     220.793E-03    -110.274E-03    -110.518E-03    -110.125E-03     220.643E-03    -110.518E-03     13.8597E-03    -80.2397E+06    -127.618E+06    -283.594E+06    -127.746E+06    -283.466E+06    -80.2397E+06    -3.75736E+06         39.7613
            1656     5.37411E-03     103.133E-03     73.3459E-03     73.0464E-03    -246.906E-03     73.0464E-03    -246.906E-03     73.3459E-03     264.378E-06     220.693E-03    -110.131E-03    -110.561E-03    -109.863E-03     220.425E-03    -110.561E-03     18.6478E-03    -58.6339E+06    -115.780E+06    -246.820E+06    -115.888E+06    -246.711E+06    -58.6339E+06    -3.00733E+06         40.3734
            1657     6.27045E-03     103.156E-03     73.2220E-03     72.8186E-03    -246.493E-03     72.8185E-03    -246.493E-03     73.2220E-03     281.743E-06     220.378E-03    -109.830E-03    -110.548E-03    -109.375E-03     219.923E-03    -110.548E-03     24.2968E-03    -39.4914E+06    -105.216E+06    -206.649E+06    -105.277E+06    -206.589E+06    -39.4914E+06    -2.41599E+06         41.1758
            1658     7.16688E-03     103.186E-03     73.0696E-03     72.5498E-03    -245.995E-03     72.5497E-03    -245.995E-03     73.0696E-03     286.058E-06     220.510E-03    -109.999E-03    -110.511E-03    -109.268E-03     219.779E-03    -110.511E-03     30.8532E-03    -22.5618E+06    -94.7575E+06    -170.306E+06    -94.8682E+06    -170.196E+06    -22.5618E+06    -1.56623E+06         42.2084
            1659     8.06319E-03     103.225E-03     72.8866E-03     72.2498E-03    -245.408E-03     72.2498E-03    -245.408E-03     72.8866E-03     286.987E-06     220.884E-03    -110.350E-03    -110.534E-03    -109.292E-03     219.773E-03    -110.481E-03     38.1133E-03    -3.99740E+06    -81.5914E+06    -125.148E+06    -82.3339E+06    -124.406E+06    -3.99740E+06     1.50908E+06         43.5099
            1660     8.95934E-03     103.273E-03     72.6716E-03     71.8955E-03    -244.727E-03     71.8955E-03    -244.727E-03     72.6716E-03     278.903E-06     221.151E-03    -110.449E-03    -110.703E-03    -109.126E-03     219.575E-03    -110.449E-03     45.5030E-03     15.3490E+06    -55.9321E+06    -83.0160E+06    -71.5915E+06    -67.3565E+06     15.3490E+06     4.91275E+06         45.1092
            1661     9.85659E-03     103.330E-03     72.4239E-03     71.4937E-03    -243.953E-03     71.4937E-03    -243.953E-03     72.4239E-03     262.173E-06     221.519E-03    -110.408E-03    -111.111E-03    -108.989E-03     219.397E-03    -110.408E-03     52.8259E-03     34.0682E+06    -6.49877E+06    -63.5762E+06    -62.1401E+06    -7.93479E+06     34.0682E+06     8.67347E+06         47.0154
            1662     10.7536E-03     103.398E-03     72.1443E-03     71.0506E-03    -243.095E-03     71.0506E-03    -243.095E-03     72.1443E-03     232.376E-06     222.048E-03    -110.352E-03    -111.696E-03    -108.964E-03     219.317E-03    -110.352E-03     60.0319E-03     64.8075E+06     40.9135E+06    -54.9147E+06    -53.5913E+06     53.9450E+06     50.4528E+06     11.3116E+06         49.2064
            1663     11.6493E-03     103.472E-03     71.8376E-03     70.5659E-03    -242.169E-03     70.5659E-03    -242.169E-03     71.8376E-03     172.286E-06     222.659E-03    -110.340E-03    -112.319E-03    -109.123E-03     219.463E-03    -110.340E-03     65.1036E-03     88.3043E+06     64.6631E+06    -47.2190E+06    -46.5352E+06     87.6205E+06     64.6631E+06     9.35909E+06         51.6230
            1664     12.5451E-03     103.552E-03     71.4983E-03     70.0561E-03    -241.168E-03     70.0561E-03    -241.168E-03     71.4983E-03     88.7515E-06     223.812E-03    -110.391E-03    -113.421E-03    -109.053E-03     219.444E-03    -110.391E-03     75.7432E-03     97.8981E+06     85.6485E+06    -37.2582E+06    -36.8874E+06     97.5273E+06     85.6485E+06     6.85796E+06         54.1705
            1665     13.4429E-03     103.657E-03     71.1325E-03     69.5257E-03    -240.100E-03     69.5257E-03    -240.099E-03     71.1325E-03    -5.71835E-06     224.041E-03    -110.441E-03    -113.600E-03    -108.932E-03     219.373E-03    -110.441E-03     78.6140E-03     113.778E+06     109.614E+06    -28.1935E+06    -27.9582E+06     112.342E+06     110.815E+06     5.47552E+06         56.7298
            1666     14.3417E-03     103.740E-03     70.7228E-03     68.9866E-03    -238.940E-03     68.9866E-03    -238.940E-03     70.7228E-03    -45.2493E-06     228.767E-03    -110.483E-03    -118.284E-03    -110.335E-03     220.818E-03    -110.483E-03     100.516E-03     134.344E+06     132.334E+06    -18.7921E+06    -18.6535E+06     132.196E+06     134.344E+06     4.28290E+06         59.1769
            1667     15.2349E-03     103.903E-03     70.2842E-03     68.4634E-03    -237.699E-03     68.4634E-03    -237.699E-03     70.2842E-03    -133.213E-06     227.818E-03    -110.485E-03    -117.332E-03    -109.663E-03     220.148E-03    -110.485E-03     97.6913E-03     151.878E+06     150.817E+06    -8.98967E+06    -8.92282E+06     150.751E+06     151.878E+06     2.56952E+06         61.4114
            1668     895.669E-06     104.333E-03     131.120E-03     8.67867E-03    -236.670E-03     131.107E-03    -236.668E-03     8.69043E-03     1.15188E-03     220.691E-03    -110.039E-03    -110.651E-03    -110.457E-03     220.686E-03    -110.229E-03     2.34823E-03    -157.278E+06    -168.978E+06    -373.412E+06    -165.520E+06    -373.384E+06    -160.763E+06     533.678E+03         38.5823
            1669     1.79105E-03     104.336E-03     69.8610E-03     69.8236E-03    -236.599E-03     69.8235E-03    -236.599E-03     69.8610E-03     90.3339E-06     220.527E-03    -110.151E-03    -110.376E-03    -110.138E-03     220.515E-03    -110.376E-03     3.92792E-03    -146.948E+06    -159.079E+06    -362.153E+06    -159.148E+06    -362.084E+06    -146.948E+06    -2.82171E+06         38.7152
            1670     2.68760E-03     104.341E-03     69.8247E-03     69.7638E-03    -236.497E-03     69.7638E-03    -236.497E-03     69.8247E-03     202.670E-06     220.475E-03    -110.097E-03    -110.377E-03    -110.065E-03     220.442E-03    -110.377E-03     6.40193E-03    -128.559E+06    -150.399E+06    -339.586E+06    -150.511E+06    -339.473E+06    -128.559E+06    -4.23037E+06         38.9387
            1671     3.58318E-03     104.348E-03     69.7771E-03     69.6886E-03    -236.340E-03     69.6885E-03    -236.339E-03     69.7771E-03     234.475E-06     220.478E-03    -110.069E-03    -110.409E-03    -109.994E-03     220.403E-03    -110.409E-03     9.74489E-03    -106.942E+06    -141.435E+06    -311.271E+06    -141.643E+06    -311.063E+06    -106.942E+06    -5.41799E+06         39.2674
            1672     4.47870E-03     104.362E-03     69.7124E-03     69.5632E-03    -236.122E-03     69.5632E-03    -236.122E-03     69.7124E-03     277.230E-06     220.392E-03    -109.955E-03    -110.437E-03    -109.800E-03     220.237E-03    -110.437E-03     14.1214E-03    -85.3019E+06    -130.553E+06    -282.175E+06    -130.896E+06    -281.831E+06    -85.3019E+06    -6.86707E+06         39.7218
            1673     5.37510E-03     104.379E-03     69.6273E-03     69.4214E-03    -235.848E-03     69.4213E-03    -235.848E-03     69.6273E-03     301.154E-06     220.318E-03    -109.878E-03    -110.440E-03    -109.597E-03     220.037E-03    -110.440E-03     19.0595E-03    -64.6015E+06    -119.569E+06    -247.643E+06    -119.902E+06    -247.309E+06    -64.6015E+06    -6.32784E+06         40.3301
            1674     6.27114E-03     104.401E-03     69.5207E-03     69.2580E-03    -235.506E-03     69.2579E-03    -235.506E-03     69.5207E-03     317.475E-06     220.379E-03    -109.944E-03    -110.434E-03    -109.474E-03     219.909E-03    -110.434E-03     24.7111E-03    -43.7492E+06    -108.130E+06    -206.754E+06    -108.454E+06    -206.430E+06    -43.7492E+06    -5.04542E+06         41.1279
            1675     7.16753E-03     104.431E-03     69.3881E-03     69.0433E-03    -235.084E-03     69.0432E-03    -235.084E-03     69.3881E-03     319.442E-06     220.575E-03    -110.144E-03    -110.431E-03    -109.394E-03     219.825E-03    -110.431E-03     31.2656E-03    -25.0819E+06    -95.5260E+06    -171.127E+06    -95.9847E+06    -170.669E+06    -25.0819E+06    -5.31395E+06         42.1558
            1676     8.06351E-03     104.471E-03     69.2262E-03     68.8100E-03    -234.580E-03     68.8099E-03    -234.579E-03     69.2262E-03     311.787E-06     220.979E-03    -110.348E-03    -110.632E-03    -109.432E-03     219.851E-03    -110.418E-03     38.4530E-03    -9.21323E+06     -83.755E+06    -131.405E+06    -84.2027E+06    -130.957E+06    -9.21323E+06    -3.36430E+06         43.4536
            1677     8.96011E-03     104.519E-03     69.0349E-03     68.5312E-03    -233.994E-03     68.5311E-03    -233.994E-03     69.0349E-03     298.782E-06     221.486E-03    -110.417E-03    -111.069E-03    -109.506E-03     219.923E-03    -110.417E-03     45.3810E-03     11.0699E+06    -58.1044E+06    -87.0448E+06    -72.3117E+06    -72.8375E+06     11.0699E+06     2.12983E+06         45.0521
            1678     9.85562E-03     104.577E-03     68.8139E-03     68.2089E-03    -233.325E-03     68.2088E-03    -233.325E-03     68.8139E-03     273.152E-06     221.710E-03    -110.417E-03    -111.294E-03    -109.232E-03     219.649E-03    -110.417E-03     52.1196E-03     31.1569E+06    -14.9482E+06    -63.1721E+06    -62.0233E+06    -16.0970E+06     31.1569E+06     7.06457E+06         46.9616
            1679     10.7519E-03     104.643E-03     68.5636E-03     67.8562E-03    -232.580E-03     67.8562E-03    -232.580E-03     68.5636E-03     231.820E-06     221.778E-03    -110.356E-03    -111.422E-03    -108.737E-03     219.093E-03    -110.356E-03     59.4522E-03     67.3609E+06     32.9703E+06    -51.7664E+06    -50.5187E+06     50.5144E+06     48.5691E+06     10.7940E+06         49.1623
            1680     11.6501E-03     104.719E-03     68.2873E-03     67.4612E-03    -231.771E-03     67.4612E-03    -231.771E-03     68.2873E-03     166.346E-06     222.424E-03    -110.325E-03    -112.099E-03    -108.829E-03     219.154E-03    -110.325E-03     65.7865E-03     95.2299E+06     66.8953E+06    -43.1687E+06    -42.2851E+06     94.3463E+06     66.8953E+06     10.8910E+06         51.5950
            1681     12.5461E-03     104.800E-03     67.9809E-03     67.0368E-03    -230.890E-03     67.0368E-03    -230.890E-03     67.9809E-03     71.6546E-06     223.960E-03    -110.373E-03    -113.587E-03    -109.202E-03     219.575E-03    -110.373E-03     76.0515E-03     99.3784E+06     84.9019E+06    -40.2149E+06     -39.758E+06     98.9214E+06     84.9019E+06     7.68201E+06         54.1627
            1682     13.4447E-03     104.897E-03     67.6501E-03     66.6060E-03    -229.960E-03     66.6060E-03    -229.960E-03     67.6501E-03    -21.8221E-06     224.102E-03    -110.422E-03    -113.680E-03    -108.931E-03     219.352E-03    -110.422E-03     79.4047E-03     113.502E+06     107.146E+06    -31.6233E+06    -31.4153E+06     112.409E+06     108.032E+06     4.37646E+06         56.7433
            1683     14.3389E-03     104.993E-03     67.2759E-03     66.1853E-03    -228.947E-03     66.1853E-03    -228.947E-03     67.2759E-03    -161.249E-06     228.322E-03    -110.451E-03    -117.872E-03    -109.692E-03     220.142E-03    -110.451E-03     102.080E-03     134.975E+06     133.222E+06    -19.2547E+06    -19.1369E+06     133.641E+06     134.439E+06     3.20226E+06         59.2104
            1684     15.2410E-03     105.142E-03     66.8770E-03     65.7764E-03    -227.860E-03     65.7763E-03    -227.860E-03     66.8770E-03    -258.226E-06     227.655E-03    -110.436E-03    -117.219E-03    -109.516E-03     219.952E-03    -110.436E-03     97.4931E-03     153.792E+06     153.213E+06    -9.00692E+06    -8.91632E+06     153.210E+06     153.704E+06      3.6175E+06         61.4589
            1685     895.798E-06     105.579E-03     123.632E-03     8.59215E-03    -225.328E-03     123.624E-03    -225.326E-03     8.59775E-03     1.37052E-03     220.543E-03    -109.955E-03    -110.588E-03    -110.540E-03     220.540E-03    -110.000E-03     1.95607E-03    -160.984E+06    -170.748E+06    -370.820E+06    -166.906E+06    -370.715E+06    -164.931E+06    -2.38924E+06         38.5458
            1686     1.79180E-03     105.581E-03     66.0871E-03     66.0400E-03    -225.277E-03     66.0602E-03    -225.277E-03     66.0669E-03     84.7758E-06     220.478E-03    -110.162E-03    -110.316E-03    -110.149E-03     220.465E-03    -110.316E-03     3.88971E-03    -149.061E+06    -161.558E+06    -356.401E+06    -161.189E+06    -356.309E+06    -149.522E+06    -3.50428E+06         38.6781
            1687     2.68703E-03     105.586E-03     66.0402E-03     65.9907E-03    -225.203E-03     65.9907E-03    -225.203E-03     66.0402E-03     226.362E-06     220.313E-03    -109.987E-03    -110.326E-03    -109.951E-03     220.277E-03    -110.326E-03     6.65379E-03    -131.789E+06    -154.732E+06    -334.812E+06    -154.988E+06    -334.556E+06    -131.789E+06    -5.95384E+06         38.9007
            1688     3.58297E-03     105.595E-03     66.0011E-03     65.9551E-03    -225.084E-03     65.9560E-03    -225.084E-03     66.0001E-03     270.767E-06     220.059E-03    -109.744E-03    -110.316E-03    -109.659E-03     219.974E-03    -110.316E-03     10.3368E-03    -110.116E+06    -143.851E+06    -307.071E+06    -144.273E+06    -306.650E+06    -110.116E+06    -7.88560E+06         39.2278
            1689     4.47951E-03     105.606E-03     65.9493E-03     65.8706E-03    -224.919E-03     65.8715E-03    -224.919E-03     65.9483E-03     314.286E-06     219.838E-03    -109.553E-03    -110.285E-03    -109.386E-03     219.671E-03    -110.285E-03     14.6837E-03    -89.2447E+06    -134.077E+06    -278.958E+06    -134.635E+06    -278.400E+06    -89.2447E+06    -8.82996E+06         39.6796
            1690     5.37608E-03     105.623E-03     65.8777E-03     65.7678E-03    -224.701E-03     65.7676E-03    -224.700E-03     65.8777E-03     344.362E-06     219.967E-03    -109.705E-03    -110.261E-03    -109.409E-03     219.670E-03    -110.261E-03     19.5764E-03    -68.8650E+06    -122.923E+06    -246.164E+06    -123.921E+06    -245.166E+06    -68.8650E+06    -10.3433E+06         40.2842
            1691     6.27221E-03     105.647E-03     65.7874E-03     65.6631E-03    -224.423E-03     65.6630E-03    -224.423E-03     65.7874E-03     360.026E-06     220.498E-03    -110.086E-03    -110.413E-03    -109.730E-03     220.011E-03    -110.281E-03     25.2130E-03    -48.2531E+06    -109.469E+06    -207.620E+06    -110.695E+06    -206.394E+06    -48.2531E+06    -10.4253E+06         41.0773
            1692     7.16771E-03     105.677E-03     65.6741E-03     65.5050E-03    -224.079E-03     65.5049E-03    -224.078E-03     65.6741E-03     359.841E-06     221.009E-03    -110.271E-03    -110.739E-03    -109.921E-03     220.265E-03    -110.344E-03     31.2277E-03    -29.0403E+06    -96.9851E+06    -170.798E+06    -98.3409E+06    -169.443E+06    -29.0403E+06    -9.45637E+06         42.0999
            1693     8.06435E-03     105.716E-03     65.5342E-03     65.3369E-03    -223.657E-03     65.3368E-03    -223.656E-03     65.5342E-03     341.172E-06     221.298E-03    -110.360E-03    -110.938E-03    -109.805E-03     220.207E-03    -110.403E-03     37.8485E-03    -12.3848E+06    -86.1508E+06    -134.342E+06    -87.4929E+06    -133.000E+06    -12.3848E+06    -7.61955E+06         43.3935
            1694     8.95942E-03     105.766E-03     65.3674E-03     65.1309E-03    -223.161E-03     65.1308E-03    -223.161E-03     65.3674E-03     316.820E-06     221.385E-03    -110.400E-03    -110.985E-03    -109.419E-03     219.830E-03    -110.410E-03     45.1943E-03     4.18957E+06    -65.3165E+06    -92.4655E+06    -75.7201E+06    -82.0619E+06     4.18957E+06    -3.45428E+06         44.9907
            1695     9.85550E-03     105.823E-03     65.1742E-03     64.8933E-03    -222.602E-03     64.8932E-03    -222.602E-03     65.1742E-03     283.424E-06     221.529E-03    -110.384E-03    -111.146E-03    -109.013E-03     219.407E-03    -110.394E-03     52.8347E-03     24.7602E+06    -24.2247E+06    -65.0916E+06    -63.5244E+06    -25.7919E+06     24.7602E+06     3.35336E+06         46.9041
            1696     10.7527E-03     105.888E-03     64.9546E-03     64.6317E-03    -221.979E-03     64.6317E-03    -221.979E-03     64.9546E-03     230.782E-06     221.817E-03    -110.316E-03    -111.502E-03    -108.719E-03     219.035E-03    -110.316E-03     60.5221E-03     62.7229E+06     23.6675E+06    -55.8745E+06    -54.9285E+06     44.0941E+06     41.3503E+06     8.77563E+06         49.1144
            1697     11.6492E-03     105.964E-03     64.7104E-03     64.3303E-03    -221.295E-03     64.3303E-03    -221.295E-03     64.7104E-03     152.185E-06     222.107E-03    -110.274E-03    -111.833E-03    -108.517E-03     218.791E-03    -110.274E-03     66.1970E-03     95.0476E+06     62.1123E+06    -46.1694E+06    -45.2259E+06     94.1041E+06     62.1123E+06     11.1134E+06         51.5629
            1698     12.5483E-03     106.045E-03     64.4376E-03     64.0070E-03    -220.541E-03     64.0070E-03    -220.541E-03     64.4376E-03     56.7546E-06     223.703E-03    -110.324E-03    -113.379E-03    -108.967E-03     219.291E-03    -110.324E-03     76.1987E-03     105.948E+06      87.632E+06    -37.4485E+06    -36.4785E+06     104.978E+06      87.632E+06     11.4295E+06         54.1512
            1699     13.4416E-03     106.147E-03     64.1443E-03     63.6787E-03    -219.748E-03     63.6787E-03    -219.748E-03     64.1443E-03    -74.6111E-06     223.920E-03    -110.365E-03    -113.555E-03    -108.796E-03     219.161E-03    -110.365E-03     79.4088E-03     117.639E+06     110.211E+06    -30.5845E+06    -30.0800E+06     117.135E+06     110.211E+06     7.11167E+06         56.7539
            1700     14.3448E-03     106.231E-03     63.8079E-03     63.3249E-03    -218.840E-03     63.3249E-03    -218.840E-03     63.8079E-03    -234.336E-06     228.162E-03    -110.387E-03    -117.776E-03    -109.580E-03     219.967E-03    -110.387E-03     102.046E-03     134.274E+06     133.411E+06    -22.4423E+06    -22.2667E+06     134.062E+06     133.449E+06     3.04979E+06         59.2406
            1701     15.2384E-03     106.394E-03     63.4489E-03     63.0191E-03    -217.938E-03     63.0209E-03    -217.938E-03     63.4469E-03    -390.425E-06     227.592E-03    -110.343E-03    -117.249E-03    -109.608E-03     219.989E-03    -110.382E-03     96.3034E-03     154.494E+06     153.902E+06    -10.9023E+06    -10.8269E+06     154.064E+06     154.256E+06     1.59318E+06         61.5022
            1702     895.604E-06     106.824E-03     115.367E-03     9.07777E-03    -213.955E-03     115.364E-03    -213.952E-03     9.07777E-03     1.56410E-03     220.062E-03    -109.522E-03    -110.540E-03    -109.740E-03     220.057E-03    -110.317E-03     2.30950E-03    -163.919E+06    -171.779E+06    -365.012E+06    -170.265E+06    -364.887E+06    -165.558E+06    -2.79028E+06         38.5045
            1703     1.79131E-03     106.826E-03     62.3256E-03     62.2334E-03    -213.917E-03     62.3059E-03    -213.917E-03     62.2531E-03     93.5520E-06     219.996E-03    -109.866E-03    -110.130E-03    -109.907E-03     219.979E-03    -110.072E-03     4.52417E-03    -152.606E+06    -165.952E+06    -351.704E+06    -165.618E+06    -351.577E+06    -153.067E+06    -4.40199E+06         38.6366
            1704     2.68766E-03     106.831E-03     62.2450E-03     62.2131E-03    -213.866E-03     62.2132E-03    -213.866E-03     62.2449E-03     251.425E-06     219.684E-03    -109.614E-03    -110.070E-03    -109.568E-03     219.638E-03    -110.070E-03     7.53827E-03    -132.471E+06    -156.883E+06    -326.303E+06    -157.235E+06    -325.951E+06    -132.471E+06    -7.05290E+06         38.8586
            1705     3.58432E-03     106.838E-03     62.2274E-03     62.2017E-03    -213.788E-03     62.2153E-03    -213.788E-03     62.2137E-03     310.600E-06     219.615E-03    -109.560E-03    -110.055E-03    -109.468E-03     219.518E-03    -110.050E-03     11.1142E-03    -111.993E+06    -147.126E+06    -301.312E+06    -148.002E+06    -300.436E+06    -111.993E+06    -10.7926E+06         39.1842
            1706     4.48080E-03     106.851E-03     62.1896E-03     62.1536E-03    -213.671E-03     62.1688E-03    -213.671E-03     62.1744E-03     357.813E-06     219.862E-03    -109.712E-03    -110.150E-03    -109.618E-03     219.693E-03    -110.075E-03     14.8004E-03    -90.7471E+06    -134.541E+06    -274.764E+06    -135.755E+06    -273.550E+06    -90.7471E+06    -12.4258E+06         39.6335
            1707     5.37690E-03     106.868E-03     62.1376E-03     62.0876E-03    -213.507E-03     62.1070E-03    -213.507E-03     62.1181E-03     394.328E-06     220.164E-03    -109.913E-03    -110.251E-03    -109.750E-03     219.879E-03    -110.128E-03     19.2031E-03    -71.2726E+06    -123.028E+06    -241.957E+06    -124.687E+06    -240.298E+06    -71.2726E+06    -13.6333E+06         40.2343
            1708     6.27308E-03     106.893E-03     62.0792E-03     62.0155E-03    -213.288E-03     62.0510E-03    -213.288E-03     62.0436E-03     404.922E-06     220.581E-03    -110.140E-03    -110.441E-03    -109.905E-03     220.110E-03    -110.205E-03     24.7645E-03    -51.7348E+06    -110.089E+06    -206.698E+06    -112.751E+06    -204.037E+06    -51.7348E+06    -15.3036E+06         41.0224
            1709     7.16864E-03     106.924E-03     61.9888E-03     61.9074E-03    -213.011E-03     61.9475E-03    -213.011E-03     61.9485E-03     402.798E-06     221.164E-03    -110.299E-03    -110.865E-03    -110.119E-03     220.418E-03    -110.299E-03     31.2446E-03    -33.9552E+06    -99.4037E+06    -172.314E+06    -102.303E+06    -169.415E+06    -33.9552E+06    -13.9450E+06         42.0397
            1710     8.06217E-03     106.964E-03     61.8912E-03     61.7868E-03    -212.675E-03     61.8467E-03    -212.675E-03     61.8312E-03     379.067E-06     221.204E-03    -110.361E-03    -110.843E-03    -109.701E-03     220.073E-03    -110.371E-03     38.4738E-03    -16.8694E+06    -87.1944E+06    -138.322E+06    -90.6240E+06    -134.892E+06    -16.8694E+06    -12.1732E+06         43.3291
            1711     8.95912E-03     107.011E-03     61.7698E-03     61.6388E-03    -212.282E-03     61.7176E-03    -212.282E-03     61.6910E-03     336.143E-06     220.858E-03    -110.320E-03    -110.537E-03    -108.880E-03     219.221E-03    -110.341E-03     46.2604E-03    -3.01452E+06    -68.5256E+06    -99.2658E+06    -79.3870E+06    -88.4043E+06    -3.01452E+06    -9.08935E+06         44.9254
            1712     9.85716E-03     107.068E-03     61.6220E-03     61.4658E-03    -211.832E-03     61.5622E-03    -211.832E-03     61.5255E-03     286.099E-06     221.374E-03    -110.280E-03    -111.094E-03    -108.893E-03     219.183E-03    -110.290E-03     53.6985E-03     14.6716E+06    -34.9136E+06    -70.7708E+06    -69.2352E+06    -36.4492E+06     14.6716E+06    -1.09215E+06         46.8426
            1713     10.7537E-03     107.134E-03     61.4561E-03     61.2703E-03    -211.323E-03     61.3905E-03    -211.323E-03     61.3358E-03     218.993E-06     221.992E-03    -110.235E-03    -111.756E-03    -109.010E-03     219.246E-03    -110.235E-03     60.2009E-03     56.2304E+06     15.8620E+06    -58.2605E+06    -57.6081E+06     36.2160E+06     35.2240E+06     5.68893E+06         49.0617
            1714     11.6510E-03     107.210E-03     61.2624E-03     61.0445E-03    -210.762E-03     61.1819E-03    -210.762E-03     61.1250E-03     131.992E-06     222.188E-03    -110.206E-03    -111.982E-03    -108.692E-03     218.898E-03    -110.206E-03     65.9183E-03     91.0874E+06     54.4846E+06    -50.3468E+06    -49.3923E+06     90.1329E+06     54.4846E+06     11.0607E+06         51.5246
            1715     12.5462E-03     107.290E-03     61.0508E-03     60.8024E-03    -210.147E-03     60.9655E-03    -210.147E-03     60.8877E-03     10.7788E-06     223.055E-03    -110.237E-03    -112.817E-03    -108.385E-03     218.623E-03    -110.237E-03     76.2503E-03     107.464E+06     80.7126E+06    -38.8307E+06    -37.8066E+06     106.440E+06     80.7126E+06     10.9785E+06         54.1332
            1716     13.4487E-03     107.391E-03     60.8307E-03     60.5438E-03    -209.489E-03     60.7425E-03    -209.489E-03     60.6320E-03    -127.065E-06     223.501E-03    -110.275E-03    -113.226E-03    -108.493E-03     218.768E-03    -110.275E-03     79.0970E-03     122.282E+06     109.697E+06    -27.9559E+06    -27.3512E+06     121.677E+06     109.697E+06     8.63382E+06         56.7585
            1717     14.3401E-03     107.478E-03     60.5878E-03     60.2460E-03    -208.725E-03     60.4979E-03    -208.725E-03     60.3358E-03    -258.153E-06     228.215E-03    -110.314E-03    -117.902E-03    -109.530E-03     219.844E-03    -110.314E-03     102.869E-03     139.230E+06     137.030E+06    -19.7355E+06    -19.3833E+06     138.258E+06     137.650E+06     5.55093E+06         59.2651
            1718     15.2410E-03     107.638E-03     60.3304E-03     59.9741E-03    -207.911E-03     60.2873E-03    -207.911E-03     60.0169E-03    -521.706E-06     227.284E-03    -110.255E-03    -117.028E-03    -109.074E-03     219.367E-03    -110.294E-03     98.3890E-03     157.808E+06     156.395E+06    -9.89403E+06    -9.86573E+06     156.517E+06     157.658E+06    -119.609E+03         61.5408
            1719     896.937E-06     108.068E-03     106.690E-03     10.1398E-03    -202.594E-03     106.687E-03    -202.591E-03     10.1398E-03     1.64981E-03     218.448E-03    -108.794E-03    -109.654E-03    -108.858E-03     218.435E-03    -109.578E-03     3.80844E-03    -166.533E+06    -173.434E+06    -358.660E+06    -172.300E+06    -358.617E+06    -167.711E+06    -944.258E+03         38.4571
            1720     1.79289E-03     108.071E-03     58.5386E-03     58.4489E-03    -202.568E-03     58.5272E-03    -202.568E-03     58.4603E-03     150.087E-06     218.919E-03    -109.207E-03    -109.712E-03    -109.534E-03     218.893E-03    -109.359E-03     5.83581E-03    -153.721E+06    -168.892E+06    -344.338E+06    -169.061E+06    -344.170E+06    -153.721E+06    -4.80526E+06         38.5892
            1721     2.68960E-03     108.074E-03     58.4731E-03     58.4490E-03    -202.541E-03     58.4616E-03    -202.541E-03     58.4604E-03     277.454E-06     219.432E-03    -109.323E-03    -110.110E-03    -109.821E-03     219.383E-03    -109.562E-03     7.95709E-03    -134.798E+06    -159.071E+06    -318.661E+06    -159.660E+06    -318.073E+06    -134.798E+06    -9.01953E+06         38.8107
            1722     3.58575E-03     108.083E-03     58.4859E-03     58.4395E-03    -202.494E-03     58.4858E-03    -202.494E-03     58.4395E-03     358.889E-06     219.791E-03    -109.662E-03    -110.129E-03    -109.936E-03     219.702E-03    -109.766E-03     10.7045E-03    -112.587E+06    -147.406E+06    -291.528E+06    -148.625E+06    -290.309E+06    -112.587E+06    -12.7117E+06         39.1350
            1723     4.48124E-03     108.096E-03     58.4686E-03     58.4110E-03    -202.415E-03     58.4685E-03    -202.414E-03     58.4110E-03     402.913E-06     220.123E-03    -109.938E-03    -110.186E-03    -110.021E-03     219.959E-03    -109.938E-03     14.5425E-03    -93.6229E+06    -136.902E+06    -270.206E+06    -138.983E+06    -268.126E+06    -93.6229E+06    -16.0458E+06         39.5818
            1724     5.37647E-03     108.114E-03     58.4535E-03     58.3679E-03    -202.303E-03     58.4533E-03    -202.303E-03     58.3679E-03     445.458E-06     220.473E-03    -110.078E-03    -110.395E-03    -110.103E-03     220.181E-03    -110.078E-03     19.4347E-03    -73.7912E+06    -123.442E+06    -237.716E+06    -126.057E+06    -235.101E+06    -73.7912E+06    -16.7694E+06         40.1786
            1725     6.27156E-03     108.138E-03     58.4412E-03     58.3101E-03    -202.146E-03     58.4410E-03    -202.146E-03     58.3101E-03     456.856E-06     220.421E-03    -110.014E-03    -110.407E-03    -109.754E-03     219.929E-03    -110.175E-03     25.2530E-03    -55.3039E+06    -111.785E+06    -202.969E+06    -115.636E+06    -199.118E+06    -55.3039E+06    -17.7907E+06         40.9618
            1726     7.16742E-03     108.171E-03     58.3976E-03     58.2346E-03    -201.939E-03     58.3974E-03    -201.939E-03     58.2346E-03     451.080E-06     220.090E-03    -109.719E-03    -110.371E-03    -109.068E-03     219.267E-03    -110.200E-03     32.6075E-03    -38.7654E+06    -100.245E+06    -174.881E+06    -104.989E+06    -170.137E+06    -38.7654E+06    -18.0886E+06         41.9746
            1727     8.06545E-03     108.209E-03     58.3630E-03     58.1396E-03    -201.691E-03     58.3628E-03    -201.691E-03     58.1396E-03     421.951E-06     220.560E-03    -109.850E-03    -110.710E-03    -109.140E-03     219.320E-03    -110.180E-03     40.2720E-03    -23.9047E+06    -89.4226E+06    -142.948E+06    -95.4318E+06    -136.939E+06    -23.9047E+06    -15.8446E+06         43.2606
            1728     8.96198E-03     108.256E-03     58.3057E-03     58.0240E-03    -201.395E-03     58.3056E-03    -201.395E-03     58.0240E-03     364.555E-06     221.643E-03    -110.175E-03    -111.469E-03    -109.812E-03     219.997E-03    -110.185E-03     46.6215E-03    -9.48872E+06    -70.7281E+06    -104.928E+06    -86.0138E+06    -89.6419E+06    -9.48872E+06    -13.4190E+06         44.8548
            1729     9.85779E-03     108.313E-03     58.2252E-03     57.8860E-03    -201.040E-03     58.2251E-03    -201.040E-03     57.8860E-03     288.498E-06     221.879E-03    -110.226E-03    -111.653E-03    -109.568E-03     219.794E-03    -110.226E-03     52.4530E-03     6.87149E+06    -41.6758E+06     -78.319E+06    -73.6930E+06    -46.3018E+06     6.87149E+06    -9.23961E+06         46.7729
            1730     10.7535E-03     108.381E-03     58.1388E-03     57.7263E-03    -200.639E-03     58.1388E-03    -200.639E-03     57.7263E-03     205.499E-06     221.743E-03    -110.199E-03    -111.544E-03    -108.875E-03     219.074E-03    -110.199E-03     59.2676E-03     44.5432E+06     5.33186E+06    -61.2452E+06    -59.7355E+06     21.8593E+06     26.5061E+06     672.799E+03         48.9995
            1731     11.6499E-03     108.454E-03     58.0287E-03     57.5489E-03    -200.209E-03     58.0287E-03    -200.209E-03     57.5489E-03     91.4956E-06     221.756E-03    -110.142E-03    -111.613E-03    -108.377E-03     218.520E-03    -110.142E-03     65.3038E-03     86.1806E+06     47.0031E+06    -49.7427E+06    -49.1029E+06     85.5408E+06     47.0031E+06     8.75846E+06         51.4774
            1732     12.5495E-03     108.537E-03     57.9097E-03     57.3481E-03    -199.729E-03     57.9097E-03    -199.729E-03     57.3481E-03    -61.6116E-06     222.650E-03    -110.150E-03    -112.500E-03    -108.108E-03     218.258E-03    -110.150E-03     75.7709E-03     106.816E+06      72.352E+06    -41.6494E+06    -41.1292E+06     106.296E+06      72.352E+06     7.53591E+06         54.1062
            1733     13.4436E-03     108.633E-03     57.8020E-03     57.1301E-03    -199.219E-03     57.8019E-03    -199.219E-03     57.1301E-03    -222.768E-06     222.863E-03    -110.187E-03    -112.676E-03    -107.873E-03     218.060E-03    -110.187E-03     79.5853E-03     124.757E+06     107.811E+06    -28.2263E+06    -27.8518E+06     124.383E+06     107.811E+06     6.61836E+06         56.7543
            1734     14.3471E-03     108.727E-03     57.6921E-03     56.8754E-03    -198.615E-03     57.6919E-03    -198.614E-03     56.8754E-03    -398.183E-06     226.760E-03    -110.188E-03    -116.572E-03    -108.199E-03     218.387E-03    -110.188E-03     102.693E-03     144.190E+06     139.177E+06    -17.1097E+06    -16.7956E+06     142.486E+06     140.567E+06     6.31522E+06         59.2827
            1735     15.2451E-03     108.876E-03     57.5558E-03     56.5981E-03    -197.868E-03     57.5554E-03    -197.868E-03     56.5981E-03    -616.218E-06     226.971E-03    -110.139E-03    -116.832E-03    -108.825E-03     218.964E-03    -110.139E-03     99.4185E-03     161.431E+06     159.146E+06    -9.34497E+06    -9.25687E+06     159.058E+06     161.431E+06     1.80561E+06         61.5733
            1736     897.386E-06     109.308E-03     98.1381E-03     11.4164E-03    -191.279E-03     98.1000E-03    -191.275E-03     11.4504E-03     1.69808E-03     217.750E-03    -108.245E-03    -109.504E-03    -109.425E-03     217.740E-03    -108.316E-03     2.10313E-03    -168.456E+06    -173.834E+06    -352.395E+06    -172.242E+06    -352.278E+06    -170.165E+06    -4.00976E+06         38.4012
            1737     1.79583E-03     109.313E-03     54.7554E-03     54.6841E-03    -191.261E-03     54.7198E-03    -191.261E-03     54.7196E-03     180.088E-06     218.082E-03    -108.804E-03    -109.278E-03    -109.082E-03     218.064E-03    -108.982E-03     4.31789E-03    -153.776E+06    -165.579E+06    -334.541E+06    -165.916E+06    -334.204E+06    -153.776E+06    -6.78049E+06         38.5333
            1738     2.69048E-03     109.320E-03     54.7527E-03     54.7056E-03    -191.257E-03     54.7511E-03    -191.257E-03     54.7072E-03     305.262E-06     219.038E-03    -109.102E-03    -109.936E-03    -109.777E-03     218.987E-03    -109.210E-03     7.77428E-03    -136.011E+06    -158.121E+06    -309.837E+06    -158.934E+06    -309.024E+06    -136.011E+06    -10.6412E+06         38.7544
            1739     3.58519E-03     109.328E-03     54.7808E-03     54.6961E-03    -191.239E-03     54.7806E-03    -191.239E-03     54.6961E-03     403.407E-06     219.813E-03    -109.523E-03    -110.289E-03    -110.184E-03     219.707E-03    -109.523E-03     11.5749E-03    -114.064E+06    -147.878E+06    -282.555E+06    -149.388E+06    -281.045E+06    -114.064E+06    -13.7738E+06         39.0776
            1740     4.48097E-03     109.341E-03     54.7969E-03     54.6778E-03    -191.202E-03     54.7967E-03    -191.201E-03     54.6778E-03     452.577E-06     220.041E-03    -109.786E-03    -110.255E-03    -110.062E-03     219.847E-03    -109.786E-03     15.7158E-03    -92.9829E+06    -137.155E+06    -261.298E+06    -139.644E+06    -258.809E+06    -92.9829E+06    -16.9844E+06         39.5221
            1741     5.37712E-03     109.359E-03     54.8270E-03     54.6485E-03    -191.136E-03     54.8267E-03    -191.136E-03     54.6485E-03     501.226E-06     219.982E-03    -109.800E-03    -110.182E-03    -109.714E-03     219.634E-03    -109.920E-03     21.1863E-03    -76.0856E+06    -125.147E+06    -234.292E+06    -129.177E+06    -230.261E+06    -76.0856E+06    -20.0091E+06         40.1155
            1742     6.27302E-03     109.385E-03     54.8579E-03     54.6081E-03    -191.045E-03     54.8576E-03    -191.045E-03     54.6081E-03     517.809E-06     219.862E-03    -109.687E-03    -110.175E-03    -109.337E-03     219.306E-03    -109.969E-03     26.9051E-03    -59.6008E+06    -112.609E+06    -199.929E+06    -118.071E+06    -194.468E+06    -59.6008E+06    -20.7634E+06         40.8943
            1743     7.17052E-03     109.413E-03     54.8803E-03     54.5531E-03    -190.923E-03     54.8800E-03    -190.923E-03     54.5531E-03     510.397E-06     220.077E-03    -109.522E-03    -110.555E-03    -109.259E-03     219.262E-03    -110.003E-03     32.5802E-03    -43.5823E+06    -102.379E+06    -174.302E+06    -108.849E+06    -167.832E+06    -43.5823E+06    -20.4167E+06         41.9017
            1744     8.06804E-03     109.454E-03     54.9008E-03     54.4789E-03    -190.745E-03     54.9005E-03    -190.745E-03     54.4789E-03     474.115E-06     220.912E-03    -109.736E-03    -111.175E-03    -109.725E-03     219.781E-03    -110.056E-03     38.4770E-03    -26.9993E+06    -87.7947E+06    -145.056E+06    -97.3566E+06    -135.494E+06    -26.9993E+06    -20.4763E+06         43.1823
            1745     8.96236E-03     109.504E-03     54.9028E-03     54.3851E-03    -190.513E-03     54.9026E-03    -190.512E-03     54.3851E-03     407.570E-06     221.759E-03    -110.117E-03    -111.642E-03    -110.071E-03     220.188E-03    -110.117E-03     45.4441E-03    -13.1771E+06    -66.7030E+06    -110.568E+06    -86.1903E+06    -91.0810E+06    -13.1771E+06    -19.8968E+06         44.7731
            1746     9.85501E-03     109.562E-03     54.8964E-03     54.2747E-03    -190.256E-03     54.8963E-03    -190.255E-03     54.2747E-03     307.963E-06     221.647E-03    -110.166E-03    -111.481E-03    -109.367E-03     219.533E-03    -110.166E-03     52.7501E-03     1.13023E+06    -44.3697E+06    -84.0683E+06    -73.5793E+06    -54.8588E+06     1.13023E+06    -17.0445E+06         46.6928
            1747     10.7536E-03     109.623E-03     54.8890E-03     54.1459E-03    -189.971E-03     54.8890E-03    -189.971E-03     54.1459E-03     193.882E-06     221.563E-03    -110.114E-03    -111.448E-03    -108.578E-03     218.692E-03    -110.114E-03     61.3125E-03     28.7343E+06    -5.24871E+06    -64.9200E+06    -61.2273E+06     3.07525E+06     16.7177E+06    -5.93963E+06         48.9279
            1748     11.6513E-03     109.703E-03     54.8669E-03     54.0000E-03    -189.657E-03     54.8669E-03    -189.657E-03     54.0000E-03     46.1414E-06     221.787E-03    -110.037E-03    -111.750E-03    -108.408E-03     218.445E-03    -110.037E-03     66.4312E-03     76.4337E+06     38.6203E+06    -49.8320E+06    -49.5559E+06     76.1577E+06     38.6203E+06     4.34681E+06         51.4203
            1749     12.5479E-03     109.776E-03     54.8414E-03     53.8341E-03    -189.308E-03     54.8413E-03    -189.308E-03     53.8341E-03    -155.446E-06     222.496E-03    -110.054E-03    -112.442E-03    -108.018E-03     218.072E-03    -110.054E-03     75.8817E-03     112.226E+06     70.9780E+06    -38.5763E+06    -38.2584E+06     111.908E+06     70.9780E+06     6.77676E+06         54.0687
            1750     13.4496E-03     109.883E-03     54.8312E-03     53.6533E-03    -188.938E-03     54.8311E-03    -188.938E-03     53.6533E-03    -388.878E-06     222.126E-03    -110.081E-03    -112.045E-03    -107.215E-03     217.296E-03    -110.081E-03     79.5772E-03     125.797E+06     105.415E+06    -30.8841E+06    -30.6459E+06     125.559E+06     105.415E+06     5.46971E+06         56.7395
            1751     14.3453E-03     109.962E-03     54.8225E-03     53.4369E-03    -188.483E-03     54.8221E-03    -188.482E-03     53.4369E-03    -618.123E-06     226.321E-03    -110.076E-03    -116.245E-03    -108.086E-03     218.162E-03    -110.076E-03     101.293E-03     144.163E+06     137.869E+06    -20.7021E+06    -20.6063E+06     142.704E+06     139.232E+06     3.23022E+06         59.2885
            1752     15.2466E-03     110.126E-03     54.8036E-03     53.1970E-03    -187.911E-03     54.8030E-03    -187.910E-03     53.1970E-03    -718.865E-06     226.632E-03    -110.047E-03    -116.584E-03    -108.744E-03     218.791E-03    -110.047E-03     98.4343E-03     164.642E+06     162.012E+06    -9.48875E+06    -9.41276E+06     161.936E+06     164.642E+06     1.90993E+06         61.5924
            1753     895.916E-06     110.551E-03     89.4283E-03     12.7292E-03    -180.046E-03     89.3674E-03    -180.041E-03     12.7848E-03     1.82675E-03     218.761E-03    -108.454E-03    -110.307E-03    -109.619E-03     218.756E-03    -109.137E-03     600.043E-06    -167.839E+06    -172.939E+06    -341.447E+06    -171.344E+06    -341.204E+06    -169.676E+06    -6.03560E+06         38.3327
            1754     1.79118E-03     110.555E-03     51.0461E-03     50.9679E-03    -180.057E-03     50.9905E-03    -180.057E-03     51.0235E-03     160.906E-06     217.996E-03    -108.702E-03    -109.294E-03    -108.684E-03     217.977E-03    -109.294E-03     4.20681E-03    -155.622E+06    -164.277E+06    -324.520E+06    -164.769E+06    -323.899E+06    -155.751E+06    -9.66967E+06         38.4648
            1755     2.69078E-03     110.561E-03     51.0884E-03     51.0074E-03    -180.070E-03     51.0882E-03    -180.070E-03     51.0074E-03     339.775E-06     217.757E-03    -108.426E-03    -109.331E-03    -108.548E-03     217.701E-03    -109.153E-03     8.16708E-03    -135.132E+06    -155.356E+06    -299.070E+06    -156.587E+06    -297.839E+06    -135.132E+06    -12.7790E+06         38.6857
            1756     3.58796E-03     110.574E-03     51.1258E-03     51.0045E-03    -180.075E-03     51.1256E-03    -180.074E-03     51.0045E-03     443.954E-06     218.469E-03    -108.817E-03    -109.652E-03    -109.151E-03     218.333E-03    -109.183E-03     13.0842E-03    -114.007E+06    -146.217E+06    -274.967E+06    -148.173E+06    -273.010E+06    -114.007E+06    -15.4253E+06         39.0082
            1757     4.48319E-03     110.586E-03     51.1752E-03     50.9952E-03    -180.076E-03     51.1749E-03    -180.076E-03     50.9952E-03     505.500E-06     219.447E-03    -109.376E-03    -110.071E-03    -109.830E-03     219.206E-03    -109.376E-03     17.6706E-03    -91.5297E+06    -134.193E+06    -252.808E+06    -137.085E+06    -249.916E+06    -91.5297E+06    -18.0273E+06         39.4509
            1758     5.37894E-03     110.605E-03     51.2544E-03     50.9805E-03    -180.068E-03     51.2541E-03    -180.067E-03     50.9805E-03     559.478E-06     219.674E-03    -109.440E-03    -110.234E-03    -109.746E-03     219.306E-03    -109.560E-03     21.8925E-03    -74.7845E+06    -123.167E+06    -225.974E+06    -128.124E+06    -221.018E+06    -74.7845E+06    -21.3678E+06         40.0409
            1759     6.27649E-03     110.628E-03     51.3234E-03     50.9565E-03    -180.035E-03     51.3230E-03    -180.034E-03     50.9565E-03     583.957E-06     220.279E-03    -109.584E-03    -110.694E-03    -110.040E-03     219.745E-03    -109.705E-03     26.4408E-03    -61.3917E+06    -112.249E+06    -196.786E+06    -119.653E+06    -189.383E+06    -61.3917E+06    -23.6727E+06         40.8145
            1760     7.17125E-03     110.660E-03     51.3978E-03     50.9189E-03    -179.964E-03     51.3974E-03    -179.964E-03     50.9189E-03     581.060E-06     221.354E-03    -109.899E-03    -111.456E-03    -110.700E-03     220.599E-03    -109.899E-03     31.5419E-03    -46.3798E+06    -99.4156E+06    -172.865E+06    -109.331E+06    -162.949E+06    -46.3798E+06    -24.7022E+06         41.8149
            1761     8.06293E-03     110.701E-03     51.4711E-03     50.8660E-03    -179.854E-03     51.4708E-03    -179.853E-03     50.8660E-03     539.667E-06     221.168E-03    -110.035E-03    -111.133E-03    -109.951E-03     220.011E-03    -110.060E-03     38.7562E-03    -29.7640E+06    -82.7568E+06    -146.332E+06    -97.3133E+06    -131.776E+06    -29.7640E+06    -26.0538E+06         43.0889
            1762     8.95993E-03     110.750E-03     51.5400E-03     50.7971E-03    -179.712E-03     51.5397E-03    -179.712E-03     50.7971E-03     466.061E-06     220.287E-03    -109.874E-03    -110.413E-03    -108.533E-03     218.599E-03    -110.066E-03     46.8773E-03    -14.2962E+06    -60.8262E+06    -114.191E+06    -83.8238E+06    -91.1930E+06    -14.2962E+06    -25.1049E+06         44.6775
            1763     9.86127E-03     110.806E-03     51.6021E-03     50.7138E-03    -179.545E-03     51.6019E-03    -179.545E-03     50.7138E-03     353.621E-06     220.616E-03    -109.831E-03    -110.785E-03    -108.400E-03     218.399E-03    -109.998E-03     53.9217E-03    -2.24475E+06    -43.5602E+06    -90.4571E+06    -74.2423E+06    -59.7750E+06    -2.24475E+06    -21.9397E+06         46.6010
            1764     10.7563E-03     110.869E-03     51.6571E-03     50.6131E-03    -179.349E-03     51.6570E-03    -179.349E-03     50.6131E-03     208.275E-06     221.704E-03    -109.930E-03    -111.774E-03    -108.851E-03     218.782E-03    -109.930E-03     61.9762E-03     14.2621E+06    -11.6332E+06    -71.3035E+06    -64.1096E+06    -14.5369E+06     9.97182E+06    -14.1183E+06         48.8444
            1765     11.6538E-03     110.945E-03     51.7055E-03     50.4959E-03    -179.130E-03     51.7055E-03    -179.130E-03     50.4959E-03     25.2565E-06     222.052E-03    -109.879E-03    -112.173E-03    -108.775E-03     218.655E-03    -109.879E-03     67.0370E-03     63.5330E+06     30.8826E+06    -51.9993E+06    -51.2942E+06     62.1624E+06     31.5481E+06    -1.93247E+06         51.3504
            1766     12.5508E-03     111.025E-03     51.7544E-03     50.3619E-03    -178.891E-03     51.7544E-03    -178.891E-03     50.3619E-03    -223.161E-06     222.713E-03    -109.918E-03    -112.795E-03    -108.519E-03     218.437E-03    -109.918E-03     74.8834E-03     110.648E+06     63.4651E+06    -40.7358E+06    -40.5649E+06     110.477E+06     63.4651E+06     4.60553E+06         54.0175
            1767     13.4476E-03     111.119E-03     51.8189E-03     50.2164E-03    -178.649E-03     51.8185E-03    -178.649E-03     50.2164E-03    -529.242E-06     221.898E-03    -109.864E-03    -112.034E-03    -107.369E-03     217.358E-03    -109.988E-03     77.1774E-03     127.827E+06     101.169E+06    -30.8357E+06    -30.7270E+06     127.718E+06     101.169E+06     3.61073E+06         56.7098
            1768     14.3495E-03     111.213E-03     51.8964E-03     50.0339E-03    -178.339E-03     51.8956E-03    -178.338E-03     50.0339E-03    -818.581E-06     226.400E-03    -109.899E-03    -116.501E-03    -108.128E-03     218.152E-03    -110.024E-03     101.488E-03     147.795E+06     139.234E+06    -20.2554E+06    -20.2441E+06     146.392E+06     140.626E+06     947.966E+03         59.2793
            1769     15.2444E-03     111.364E-03     52.0327E-03     49.8300E-03    -178.032E-03     52.0317E-03    -178.031E-03     49.8300E-03    -940.686E-06     226.188E-03    -109.912E-03    -116.276E-03    -108.177E-03     218.170E-03    -109.993E-03     99.3213E-03     167.310E+06     163.903E+06    -10.1210E+06    -10.1043E+06     163.887E+06     167.310E+06     1.21751E+06         61.5983
            1770     895.922E-06     111.796E-03     80.5158E-03     14.2564E-03    -168.944E-03     80.4751E-03    -168.940E-03     14.2923E-03     1.70214E-03     217.665E-03    -108.306E-03    -109.359E-03    -108.581E-03     217.643E-03    -109.062E-03     4.10161E-03    -159.407E+06    -165.227E+06    -328.088E+06    -164.200E+06    -327.895E+06    -160.626E+06    -5.16262E+06         38.2458
            1771     1.79439E-03     111.797E-03     47.4097E-03     47.3492E-03    -168.993E-03     47.3738E-03    -168.993E-03     47.3851E-03     194.833E-06     217.753E-03    -108.444E-03    -109.309E-03    -108.841E-03     217.716E-03    -108.875E-03     6.65226E-03    -150.285E+06    -160.207E+06    -311.280E+06    -160.858E+06    -310.500E+06    -150.414E+06    -9.99090E+06         38.3780
            1772     2.68962E-03     111.804E-03     47.4854E-03     47.3796E-03    -169.022E-03     47.4852E-03    -169.022E-03     47.3796E-03     369.444E-06     217.392E-03    -108.271E-03    -109.121E-03    -108.431E-03     217.322E-03    -108.891E-03     9.49460E-03    -133.107E+06    -152.159E+06    -288.400E+06    -153.826E+06    -286.734E+06    -133.107E+06    -14.7703E+06         38.5986
            1773     3.58863E-03     111.813E-03     47.5453E-03     47.3847E-03    -169.056E-03     47.5450E-03    -169.056E-03     47.3847E-03     481.585E-06     217.374E-03    -108.338E-03    -109.035E-03    -108.362E-03     217.241E-03    -108.878E-03     12.9115E-03    -113.527E+06    -143.426E+06    -267.356E+06    -145.817E+06    -264.966E+06    -113.527E+06    -16.8466E+06         38.9201
            1774     4.48676E-03     111.832E-03     47.6205E-03     47.3833E-03    -169.086E-03     47.6202E-03    -169.086E-03     47.3833E-03     554.168E-06     218.281E-03    -108.792E-03    -109.489E-03    -109.084E-03     218.051E-03    -108.966E-03     17.2257E-03    -92.3504E+06    -131.867E+06    -243.834E+06    -135.823E+06    -239.878E+06    -92.3504E+06    -20.1144E+06         39.3608
            1775     5.38199E-03     111.848E-03     47.7443E-03     47.3799E-03    -169.118E-03     47.7439E-03    -169.117E-03     47.3799E-03     614.573E-06     219.738E-03    -109.193E-03    -110.546E-03    -110.182E-03     219.375E-03    -109.193E-03     21.7340E-03    -72.7752E+06    -118.276E+06    -217.327E+06    -124.523E+06    -211.080E+06    -72.7752E+06    -23.7781E+06         39.9471
            1776     6.27553E-03     111.874E-03     47.8477E-03     47.3700E-03    -169.129E-03     47.8472E-03    -169.128E-03     47.3700E-03     646.618E-06     220.840E-03    -109.477E-03    -111.363E-03    -110.743E-03     220.220E-03    -109.477E-03     28.2463E-03    -58.1798E+06    -106.705E+06    -191.244E+06    -115.120E+06    -182.830E+06    -58.1798E+06    -25.1121E+06         40.7151
            1777     7.16887E-03     111.909E-03     47.9736E-03     47.3493E-03    -169.115E-03     47.9731E-03    -169.114E-03     47.3493E-03     650.869E-06     221.128E-03    -109.722E-03    -111.405E-03    -110.479E-03     220.201E-03    -109.722E-03     34.7934E-03    -43.8479E+06    -92.0484E+06    -167.776E+06    -105.072E+06    -154.752E+06    -43.8479E+06    -28.0583E+06         41.7093
            1778     8.06749E-03     111.946E-03     48.1076E-03     47.3199E-03    -169.089E-03     48.1072E-03    -169.089E-03     47.3199E-03     613.680E-06     220.733E-03    -109.840E-03    -110.894E-03    -109.582E-03     219.446E-03    -109.865E-03     41.0010E-03    -28.2862E+06    -75.3517E+06    -144.569E+06    -94.7590E+06    -125.162E+06    -28.2862E+06    -30.7114E+06         42.9781
            1779     8.96498E-03     111.993E-03     48.2367E-03     47.2782E-03    -169.036E-03     48.2364E-03    -169.036E-03     47.2782E-03     543.071E-06     220.360E-03    -109.696E-03    -110.664E-03    -108.779E-03     218.668E-03    -109.888E-03     47.0889E-03    -13.7842E+06    -56.2931E+06    -118.692E+06    -83.7476E+06    -91.2377E+06    -13.7842E+06    -30.2848E+06         44.5637
            1780     9.85987E-03     112.049E-03     48.3586E-03     47.2204E-03    -168.942E-03     48.3584E-03    -168.942E-03     47.2204E-03     428.221E-06     220.738E-03    -109.704E-03    -111.034E-03    -108.750E-03     218.622E-03    -109.872E-03     52.7250E-03    -510.961E+03    -38.6381E+06    -95.3086E+06    -72.5902E+06    -61.3566E+06    -510.961E+03    -27.5523E+06         46.4879
            1781     10.7586E-03     112.116E-03     48.4683E-03     47.1452E-03    -168.813E-03     48.4682E-03    -168.813E-03     47.1452E-03     267.771E-06     221.616E-03    -109.847E-03    -111.769E-03    -109.062E-03     218.910E-03    -109.847E-03     59.7070E-03     10.0660E+06    -13.5641E+06    -74.4892E+06    -61.9307E+06    -26.1227E+06     10.0660E+06    -22.0928E+06         48.7384
            1782     11.6540E-03     112.190E-03     48.5725E-03     47.0560E-03    -168.672E-03     48.5725E-03    -168.672E-03     47.0560E-03     60.1935E-06     221.723E-03    -109.802E-03    -111.921E-03    -108.724E-03     218.526E-03    -109.802E-03     64.9777E-03     48.4952E+06     22.2368E+06    -52.6773E+06    -49.1439E+06     40.6248E+06     26.5738E+06    -10.8409E+06         51.2594
            1783     12.5521E-03     112.269E-03     48.6775E-03     46.9510E-03    -168.516E-03     48.6774E-03    -168.516E-03     46.9510E-03    -211.303E-06     222.659E-03    -109.813E-03    -112.846E-03    -108.650E-03     218.463E-03    -109.813E-03     74.1813E-03     103.082E+06     55.8006E+06    -37.7080E+06    -37.5247E+06     102.899E+06     55.8006E+06     729.128E+03         53.9479
            1784     13.4481E-03     112.367E-03     48.8026E-03     46.8369E-03    -168.380E-03     48.8022E-03    -168.379E-03     46.8369E-03    -574.310E-06     222.772E-03    -109.793E-03    -112.979E-03    -108.471E-03     218.389E-03    -109.918E-03     75.9800E-03     132.011E+06     94.5493E+06    -28.3434E+06    -28.2727E+06      131.94E+06     94.5493E+06     3.05841E+06         56.6635
            1785     14.3464E-03     112.447E-03     48.9630E-03     46.6887E-03    -168.220E-03     48.9618E-03    -168.219E-03     46.6887E-03    -976.328E-06     225.915E-03    -109.893E-03    -116.023E-03    -107.896E-03     217.913E-03    -110.017E-03     99.4308E-03     150.369E+06     136.667E+06    -20.0154E+06    -19.9964E+06     148.749E+06     138.267E+06     1.46602E+06         59.2554
            1786     15.2497E-03     112.615E-03     49.2475E-03     46.5239E-03    -168.149E-03     49.2454E-03    -168.146E-03     46.5239E-03    -1.31924E-03     223.338E-03    -108.344E-03    -114.994E-03    -105.614E-03     215.554E-03    -109.941E-03     96.8138E-03     169.697E+06     164.776E+06    -10.9428E+06    -10.9247E+06     164.758E+06     169.697E+06     1.41395E+06         61.5944
            1787     900.679E-06     113.036E-03     71.9630E-03     15.8076E-03    -158.032E-03     71.9244E-03    -158.027E-03     15.8416E-03     1.61634E-03     215.101E-03    -106.598E-03    -108.502E-03    -108.354E-03     215.079E-03    -106.726E-03     4.69503E-03    -152.803E+06    -157.169E+06    -313.960E+06    -156.467E+06    -313.571E+06    -153.894E+06    -6.22598E+06         38.1315
            1788     1.79540E-03     113.039E-03     43.8628E-03     43.8024E-03    -158.076E-03     43.8287E-03    -158.076E-03     43.8365E-03     224.813E-06     216.463E-03    -107.810E-03    -108.653E-03    -108.614E-03     216.424E-03    -107.810E-03     6.78361E-03    -141.435E+06    -151.100E+06    -297.244E+06    -152.064E+06    -296.280E+06    -141.435E+06    -11.0830E+06         38.2636
            1789     2.69377E-03     113.045E-03     43.9594E-03     43.8344E-03    -158.133E-03     43.9592E-03    -158.133E-03     43.8344E-03     387.122E-06     217.403E-03    -108.252E-03    -109.151E-03    -109.062E-03     217.314E-03    -108.252E-03     10.6083E-03    -124.206E+06    -144.004E+06    -277.489E+06    -145.538E+06    -275.954E+06    -124.206E+06    -14.0705E+06         38.4837
            1790     3.58811E-03     113.056E-03     44.0483E-03     43.8479E-03    -158.199E-03     44.0480E-03    -158.199E-03     43.8479E-03     505.028E-06     217.683E-03    -108.383E-03    -109.300E-03    -108.971E-03     217.528E-03    -108.558E-03     14.0282E-03    -106.793E+06    -135.607E+06    -257.616E+06    -138.486E+06    -254.736E+06    -106.793E+06    -18.0860E+06         38.8038
            1791     4.48518E-03     113.071E-03     44.1502E-03     43.8562E-03    -158.267E-03     44.1498E-03    -158.266E-03     43.8562E-03     588.075E-06     217.793E-03    -108.558E-03    -109.236E-03    -108.802E-03     217.534E-03    -108.733E-03     18.1311E-03    -88.7296E+06    -123.778E+06    -232.080E+06    -128.825E+06    -227.033E+06    -88.7296E+06    -22.5414E+06         39.2418
            1792     5.38296E-03     113.095E-03     44.3093E-03     43.8622E-03    -158.326E-03     44.3088E-03    -158.326E-03     43.8622E-03     658.432E-06     218.854E-03    -108.920E-03    -109.934E-03    -109.521E-03     218.441E-03    -108.920E-03     23.0835E-03    -70.4997E+06    -112.900E+06    -210.434E+06    -120.591E+06    -202.743E+06    -70.4997E+06    -26.0446E+06         39.8243
            1793     6.27865E-03     113.120E-03     44.4545E-03     43.8660E-03    -158.386E-03     44.4539E-03    -158.385E-03     43.8660E-03     696.420E-06     219.678E-03    -109.148E-03    -110.530E-03    -109.860E-03     219.007E-03    -109.148E-03     29.4020E-03    -51.6877E+06    -97.9811E+06    -185.741E+06    -108.956E+06    -174.767E+06    -51.6877E+06    -28.5995E+06         40.5874
            1794     7.17698E-03     113.153E-03     44.6331E-03     43.8640E-03    -158.440E-03     44.6325E-03    -158.439E-03     43.8640E-03     709.717E-06     219.963E-03    -109.325E-03    -110.638E-03    -109.666E-03     218.991E-03    -109.325E-03     35.6304E-03    -36.6121E+06    -82.4569E+06    -160.216E+06    -98.2023E+06    -144.471E+06    -36.6121E+06    -30.7340E+06         41.5767
            1795     8.07012E-03     113.192E-03     44.8225E-03     43.8561E-03    -158.477E-03     44.8219E-03    -158.477E-03     43.8561E-03     683.000E-06     220.888E-03    -109.486E-03    -111.401E-03    -110.115E-03     219.601E-03    -109.486E-03     41.1407E-03    -23.2696E+06    -66.9662E+06    -140.305E+06    -89.3405E+06    -117.931E+06    -23.2696E+06    -33.4999E+06         42.8407
            1796     8.96432E-03     113.238E-03     45.0026E-03     43.8380E-03    -158.489E-03     45.0022E-03    -158.488E-03     43.8380E-03     622.713E-06     221.751E-03    -109.656E-03    -112.095E-03    -110.407E-03     220.063E-03    -109.656E-03     47.2323E-03    -10.6194E+06    -50.4130E+06    -120.043E+06    -80.3825E+06    -90.0739E+06    -10.6194E+06    -34.0177E+06         44.4224
            1797     9.86126E-03     113.295E-03     45.1834E-03     43.8053E-03    -158.467E-03     45.1830E-03    -158.467E-03     43.8053E-03     517.904E-06     222.162E-03    -109.799E-03    -112.363E-03    -110.202E-03     220.001E-03    -109.799E-03     53.5004E-03     1.26698E+06    -32.6139E+06    -99.6007E+06    -71.1166E+06    -61.0980E+06     1.26698E+06    -32.8212E+06         46.3464
            1798     10.7557E-03     113.360E-03     45.3512E-03     43.7574E-03    -158.412E-03     45.3510E-03    -158.412E-03     43.7574E-03     361.637E-06     222.079E-03    -109.870E-03    -112.210E-03    -109.540E-03     219.410E-03    -109.870E-03     59.4283E-03     11.7499E+06    -11.9485E+06    -79.2608E+06    -59.4957E+06    -31.7136E+06     11.7499E+06    -30.0412E+06         48.6045
            1799     11.6541E-03     113.436E-03     45.5088E-03     43.6979E-03    -158.343E-03     45.5087E-03    -158.343E-03     43.6979E-03     155.530E-06     221.442E-03    -109.835E-03    -111.606E-03    -108.515E-03     218.350E-03    -109.835E-03     63.8484E-03     36.8185E+06     15.2080E+06    -55.9975E+06    -47.8394E+06     20.2120E+06     23.6564E+06    -19.3312E+06         51.1433
            1800     12.5511E-03     113.513E-03     45.6674E-03     43.6227E-03    -158.256E-03     45.6673E-03    -158.256E-03     43.6227E-03    -123.036E-06     221.726E-03    -109.770E-03    -111.956E-03    -107.799E-03     217.569E-03    -109.770E-03     73.5897E-03     88.7713E+06     47.2771E+06    -37.6410E+06    -36.8910E+06     88.0213E+06     47.2771E+06    -4.69818E+06         53.8590
            1801     13.4512E-03     113.612E-03     45.8383E-03     43.5371E-03    -158.177E-03     45.8379E-03    -158.176E-03     43.5371E-03    -515.904E-06     222.518E-03    -109.787E-03    -112.730E-03    -108.159E-03     217.946E-03    -109.787E-03     77.5581E-03     130.148E+06     80.6537E+06    -28.8070E+06    -28.6978E+06     130.039E+06     80.6537E+06     3.02186E+06         56.6062
            1802     14.3447E-03     113.696E-03     46.0520E-03     43.4243E-03    -158.106E-03     46.0505E-03    -158.104E-03     43.4243E-03    -1.06912E-03     225.293E-03    -109.883E-03    -115.411E-03    -107.306E-03     217.189E-03    -109.883E-03     100.328E-03     151.857E+06     128.676E+06    -21.4095E+06    -21.3262E+06     150.972E+06     129.477E+06     3.04131E+06         59.2280
            1803     15.2445E-03     113.844E-03     46.4319E-03     43.3030E-03    -158.198E-03     46.4277E-03    -158.194E-03     43.3030E-03    -1.78684E-03     220.330E-03    -106.547E-03    -113.782E-03    -102.514E-03     212.275E-03    -109.761E-03     98.5799E-03     172.862E+06     165.550E+06    -11.6075E+06    -11.5952E+06     166.756E+06     171.644E+06     1.18448E+06         61.5923
            1804     896.804E-06     114.272E-03     63.7213E-03     17.1140E-03    -147.365E-03     63.6964E-03    -147.360E-03     17.1338E-03     1.58940E-03     213.592E-03    -105.878E-03    -107.714E-03    -107.340E-03     213.575E-03    -106.235E-03     3.53190E-03    -148.738E+06    -151.999E+06    -297.058E+06    -152.183E+06    -296.611E+06    -149.002E+06    -6.68389E+06         37.9767
            1805     1.79838E-03     114.279E-03     40.4250E-03     40.3604E-03    -147.377E-03     40.4051E-03    -147.377E-03     40.3803E-03     208.469E-06     214.299E-03    -106.700E-03    -107.599E-03    -107.289E-03     214.240E-03    -106.951E-03     8.25308E-03    -135.393E+06    -146.035E+06    -283.456E+06    -147.183E+06    -282.308E+06    -135.393E+06    -12.0636E+06         38.1086
            1806     2.69398E-03     114.287E-03     40.5210E-03     40.3842E-03    -147.444E-03     40.5208E-03    -147.443E-03     40.3842E-03     400.256E-06     216.050E-03    -107.352E-03    -108.698E-03    -108.567E-03     215.919E-03    -107.352E-03     12.6931E-03    -117.234E+06    -137.328E+06    -267.613E+06    -139.251E+06    -265.690E+06    -117.234E+06    -15.3452E+06         38.3280
            1807     3.59227E-03     114.299E-03     40.6462E-03     40.4032E-03    -147.529E-03     40.6459E-03    -147.529E-03     40.4032E-03     510.339E-06     217.317E-03    -107.847E-03    -109.469E-03    -109.256E-03     217.103E-03    -107.847E-03     16.5702E-03    -97.7994E+06    -125.786E+06    -244.267E+06    -129.297E+06    -240.757E+06    -97.7994E+06    -19.5893E+06         38.6465
            1808     4.48786E-03     114.314E-03     40.7718E-03     40.4225E-03    -147.632E-03     40.7713E-03    -147.632E-03     40.4225E-03     597.511E-06     217.858E-03    -108.239E-03    -109.619E-03    -109.269E-03     217.508E-03    -108.239E-03     21.1408E-03    -80.9045E+06    -115.354E+06    -221.406E+06    -121.225E+06    -215.535E+06    -80.9045E+06    -23.9950E+06         39.0818
            1809     5.38395E-03     114.337E-03     40.9671E-03     40.4397E-03    -147.737E-03     40.9665E-03    -147.737E-03     40.4397E-03     674.351E-06     218.348E-03    -108.533E-03    -109.815E-03    -109.296E-03     217.829E-03    -108.533E-03     25.9859E-03    -61.8545E+06    -102.272E+06    -199.988E+06    -110.837E+06    -191.423E+06    -61.8545E+06    -27.4256E+06         39.6603
            1810     6.28137E-03     114.364E-03     41.1597E-03     40.4578E-03    -147.845E-03     41.1590E-03    -147.844E-03     40.4578E-03     719.515E-06     219.106E-03    -108.779E-03    -110.327E-03    -109.671E-03     218.450E-03    -108.779E-03     29.2915E-03    -45.1405E+06    -88.8707E+06    -178.194E+06    -101.747E+06    -165.318E+06    -45.1405E+06    -30.9714E+06         40.4187
            1811     7.17562E-03     114.397E-03     41.3789E-03     40.4739E-03    -147.950E-03     41.3782E-03    -147.949E-03     40.4739E-03     739.694E-06     219.631E-03    -108.997E-03    -110.634E-03    -109.747E-03     218.744E-03    -108.997E-03     34.0394E-03    -30.5015E+06    -74.2086E+06    -154.718E+06    -92.1994E+06    -136.727E+06    -30.5015E+06    -33.3043E+06         41.4030
            1812     8.07430E-03     114.438E-03     41.6225E-03     40.4842E-03    -148.040E-03     41.6218E-03    -148.039E-03     40.4842E-03     723.884E-06     220.744E-03    -109.207E-03    -111.537E-03    -110.275E-03     219.483E-03    -109.207E-03     40.7049E-03    -17.5403E+06    -59.7111E+06    -134.077E+06    -84.1618E+06    -109.626E+06    -17.5403E+06    -34.5494E+06         42.6633
            1813     8.96931E-03     114.486E-03     41.8561E-03     40.4865E-03    -148.111E-03     41.8555E-03    -148.110E-03     40.4865E-03     676.420E-06     222.319E-03    -109.452E-03    -112.867E-03    -111.203E-03     220.656E-03    -109.452E-03     46.9860E-03    -6.47445E+06    -45.2431E+06    -117.433E+06    -76.6536E+06    -86.0225E+06    -6.47445E+06    -35.6326E+06         44.2441
            1814     9.86222E-03     114.541E-03     42.0955E-03     40.4790E-03    -148.157E-03     42.0950E-03    -148.156E-03     40.4790E-03     585.756E-06     222.854E-03    -109.683E-03    -113.171E-03    -111.022E-03     220.706E-03    -109.683E-03     53.4159E-03     4.42842E+06    -25.5935E+06    -99.7193E+06    -68.1453E+06    -57.1675E+06     4.42842E+06    -35.8025E+06         46.1730
            1815     10.7576E-03     114.608E-03     42.3251E-03     40.4608E-03    -148.177E-03     42.3248E-03    -148.176E-03     40.4608E-03     448.459E-06     222.381E-03    -109.819E-03    -112.562E-03    -109.846E-03     219.665E-03    -109.819E-03     59.9955E-03     12.8470E+06    -11.0146E+06    -85.0948E+06    -61.4842E+06    -34.6252E+06     12.8470E+06    -34.3226E+06         48.4450
            1816     11.6527E-03     114.677E-03     42.5437E-03     40.4338E-03    -148.184E-03     42.5435E-03    -148.184E-03     40.4338E-03     256.839E-06     221.277E-03    -109.784E-03    -111.492E-03    -108.255E-03     218.039E-03    -109.784E-03     65.2598E-03     28.9401E+06     6.45657E+06    -66.7417E+06    -53.3296E+06     3.38262E+06     18.6020E+06    -26.6342E+06         51.0088
            1817     12.5517E-03     114.758E-03     42.7627E-03     40.3917E-03    -148.165E-03     42.7626E-03    -148.164E-03     40.3917E-03    -8.03685E-06     221.075E-03    -109.667E-03    -111.407E-03    -106.977E-03     216.644E-03    -109.667E-03     75.7476E-03     70.5780E+06     38.9740E+06    -44.6714E+06    -41.8645E+06     67.7711E+06     38.9740E+06    -13.2285E+06         53.7597
            1818     13.4498E-03     114.851E-03     42.9828E-03     40.3381E-03    -148.127E-03     42.9825E-03    -148.127E-03     40.3381E-03    -406.184E-06     220.094E-03    -108.841E-03    -111.253E-03    -105.520E-03     215.038E-03    -109.518E-03     81.0652E-03     119.518E+06     66.8400E+06    -29.5902E+06    -29.2732E+06     119.201E+06     66.8400E+06    -620.284E+03         56.5501
            1819     14.3540E-03     114.943E-03     43.2219E-03     40.2624E-03    -148.063E-03     43.2203E-03    -148.061E-03     40.2624E-03    -1.05380E-03     221.507E-03    -108.729E-03    -112.778E-03    -103.564E-03     212.970E-03    -109.406E-03     102.637E-03     153.384E+06     118.125E+06    -18.9485E+06    -18.8319E+06     153.268E+06     118.125E+06     3.89326E+06         59.2167
            1820     15.2591E-03     115.076E-03     43.5895E-03     40.1821E-03    -148.131E-03     43.5827E-03    -148.124E-03     40.1821E-03    -2.15180E-03     218.273E-03    -106.257E-03    -112.017E-03    -100.554E-03     209.752E-03    -109.198E-03     101.730E-03     177.346E+06     166.726E+06    -9.04029E+06    -9.00074E+06     170.534E+06     173.499E+06     1.89046E+06         61.6144
            1821     900.450E-06     115.507E-03     55.9917E-03     18.0292E-03    -136.862E-03     55.9873E-03    -136.858E-03     18.0292E-03     1.42186E-03     212.595E-03    -105.463E-03    -107.131E-03    -105.708E-03     212.578E-03    -106.869E-03     3.62857E-03    -137.934E+06    -141.706E+06    -281.000E+06    -141.745E+06    -280.697E+06    -138.198E+06    -6.06933E+06         37.7646
            1822     1.79878E-03     115.514E-03     37.1096E-03     37.0280E-03    -136.916E-03     37.1095E-03    -136.916E-03     37.0280E-03     205.144E-06     212.793E-03    -105.924E-03    -106.869E-03    -106.365E-03     212.734E-03    -106.369E-03     8.23699E-03    -124.450E+06    -135.252E+06    -267.988E+06    -136.346E+06    -266.894E+06    -124.450E+06    -11.3016E+06         37.8961
            1823     2.69958E-03     115.526E-03     37.1834E-03     37.0428E-03    -136.979E-03     37.1831E-03    -136.979E-03     37.0428E-03     389.314E-06     213.703E-03    -106.356E-03    -107.347E-03    -107.012E-03     213.563E-03    -106.550E-03     13.0586E-03    -108.621E+06    -127.432E+06    -254.625E+06    -129.912E+06    -252.145E+06    -108.621E+06    -17.3300E+06         38.1147
            1824     3.59550E-03     115.540E-03     37.3446E-03     37.0632E-03    -137.082E-03     37.3443E-03    -137.081E-03     37.0632E-03     493.807E-06     215.419E-03    -106.911E-03    -108.508E-03    -108.256E-03     215.167E-03    -106.911E-03     17.9158E-03    -89.3220E+06    -116.819E+06    -232.333E+06    -120.949E+06    -228.204E+06    -89.3220E+06    -21.1851E+06         38.4319
            1825     4.49238E-03     115.557E-03     37.4973E-03     37.0906E-03    -137.211E-03     37.4968E-03    -137.210E-03     37.0906E-03     580.640E-06     217.266E-03    -107.404E-03    -109.862E-03    -109.458E-03     216.862E-03    -107.404E-03     22.7951E-03    -70.0558E+06    -104.760E+06    -209.113E+06    -111.710E+06    -202.163E+06    -70.0558E+06    -25.6454E+06         38.8651
            1826     5.38888E-03     115.579E-03     37.7184E-03     37.1186E-03    -137.351E-03     37.7178E-03    -137.350E-03     37.1186E-03     653.664E-06     218.557E-03    -107.902E-03    -110.655E-03    -110.065E-03     217.967E-03    -107.902E-03     27.7623E-03    -54.2653E+06    -92.2510E+06    -190.938E+06    -102.326E+06    -180.863E+06    -54.2653E+06    -29.7180E+06         39.4404
            1827     6.28305E-03     115.610E-03     37.9567E-03     37.1498E-03    -137.498E-03     37.9560E-03    -137.497E-03     37.1498E-03     698.884E-06     219.361E-03    -108.328E-03    -111.033E-03    -110.277E-03     218.605E-03    -108.328E-03     31.5070E-03    -39.0534E+06    -79.8474E+06    -168.859E+06    -93.2306E+06    -155.476E+06    -39.0534E+06    -31.4724E+06         40.1953
            1828     7.17954E-03     115.641E-03     38.2176E-03     37.1820E-03    -137.657E-03     38.2169E-03    -137.656E-03     37.1820E-03     721.964E-06     220.372E-03    -108.702E-03    -111.669E-03    -110.688E-03     219.391E-03    -108.702E-03     35.9256E-03    -23.5331E+06    -66.6858E+06    -146.883E+06    -84.7534E+06    -128.816E+06    -23.5331E+06    -33.2967E+06         41.1765
            1829     8.07294E-03     115.682E-03     38.5139E-03     37.2105E-03    -137.804E-03     38.5132E-03    -137.803E-03     37.2105E-03     711.423E-06     221.120E-03    -109.025E-03    -112.095E-03    -110.786E-03     219.811E-03    -109.025E-03     41.5480E-03    -10.4487E+06    -51.3705E+06    -127.242E+06    -76.3569E+06    -102.255E+06    -10.4487E+06    -35.2205E+06         42.4362
            1830     8.96822E-03     115.734E-03     38.8007E-03     37.2332E-03    -137.927E-03     38.8001E-03    -137.926E-03     37.2332E-03     671.498E-06     221.735E-03    -109.290E-03    -112.445E-03    -110.710E-03     220.000E-03    -109.290E-03     47.8199E-03     301.076E+03    -38.1321E+06    -111.379E+06    -69.8995E+06    -79.6113E+06     301.076E+03    -36.1988E+06         44.0225
            1831     9.86287E-03     115.790E-03     39.1006E-03     37.2509E-03    -138.041E-03     39.1001E-03    -138.041E-03     37.2509E-03     591.887E-06     221.943E-03    -109.475E-03    -112.468E-03    -110.209E-03     219.684E-03    -109.475E-03     54.5959E-03     9.66571E+06    -22.2681E+06    -95.9999E+06    -64.0473E+06    -54.2207E+06     9.66571E+06    -35.6449E+06         45.9666
            1832     10.7590E-03     115.852E-03     39.3990E-03     37.2636E-03    -138.142E-03     39.3987E-03    -138.142E-03     37.2636E-03     469.395E-06     221.248E-03    -109.552E-03    -111.696E-03    -108.748E-03     218.299E-03    -109.552E-03     62.1672E-03     18.6004E+06    -9.84567E+06    -82.1330E+06    -58.1262E+06    -33.8525E+06     18.6004E+06    -33.9032E+06         48.2659
            1833     11.6573E-03     115.925E-03     39.6845E-03     37.2705E-03    -138.229E-03     39.6844E-03    -138.228E-03     37.2705E-03     291.006E-06     220.090E-03    -109.443E-03    -110.647E-03    -107.000E-03     216.443E-03    -109.443E-03     68.9534E-03     26.5945E+06     5.38409E+06    -68.6279E+06    -51.8991E+06    -6.09614E+06     21.3459E+06    -30.5402E+06         50.8695
            1834     12.5561E-03     115.996E-03     39.9690E-03     37.2636E-03    -138.275E-03     39.9690E-03    -138.275E-03     37.2636E-03     41.0257E-06     219.733E-03    -109.226E-03    -110.506E-03    -105.290E-03     214.516E-03    -109.226E-03     81.6210E-03     54.4176E+06     36.6553E+06    -49.8013E+06    -43.8656E+06     48.4818E+06     36.6553E+06    -20.5593E+06         53.6709
            1835     13.4580E-03     116.096E-03     40.2491E-03     37.2473E-03    -138.288E-03     40.2489E-03    -138.287E-03     37.2473E-03    -343.229E-06     217.549E-03    -107.727E-03    -109.822E-03    -102.791E-03     211.704E-03    -108.914E-03     86.3495E-03     107.944E+06     60.1447E+06    -33.7571E+06    -32.8434E+06     107.030E+06     60.1447E+06    -8.27721E+06         56.5178
            1836     14.3621E-03     116.170E-03     40.5158E-03     37.2101E-03    -138.206E-03     40.5142E-03    -138.204E-03     37.2101E-03    -982.048E-06     218.618E-03    -107.426E-03    -111.193E-03    -101.034E-03     209.646E-03    -108.612E-03     104.674E-03     150.575E+06     105.098E+06    -20.4271E+06    -20.2310E+06     150.379E+06     105.098E+06    -136.777E+03         59.2372
            1837     15.2715E-03     116.314E-03     40.7669E-03     37.1630E-03    -138.014E-03     40.7591E-03    -138.007E-03     37.1630E-03    -2.20839E-03     216.008E-03    -105.063E-03    -110.945E-03    -99.2105E-03     207.575E-03    -108.364E-03     99.7187E-03     177.929E+06     159.803E+06    -9.57843E+06    -9.50834E+06     169.925E+06     167.737E+06     3.10967E+06         61.6725
            1838     899.434E-06     116.745E-03     48.8916E-03     18.6330E-03    -126.609E-03     48.8876E-03    -126.605E-03     18.6330E-03     1.28551E-03     211.535E-03    -104.871E-03    -106.664E-03    -105.109E-03     211.511E-03    -106.402E-03     4.98642E-03    -129.299E+06    -132.001E+06    -264.870E+06    -132.542E+06    -264.329E+06    -129.299E+06    -7.33555E+06         37.4753
            1839     1.79812E-03     116.750E-03     33.9014E-03     33.7900E-03    -126.681E-03     33.9013E-03    -126.681E-03     33.7900E-03     194.385E-06     211.990E-03    -105.673E-03    -106.317E-03    -106.050E-03     211.920E-03    -105.870E-03     8.73660E-03    -116.855E+06    -125.190E+06    -253.692E+06    -126.604E+06    -252.279E+06    -116.855E+06    -12.8671E+06         37.6064
            1840     2.69732E-03     116.760E-03     33.9673E-03     33.8136E-03    -126.766E-03     33.9672E-03    -126.765E-03     33.8136E-03     347.448E-06     212.091E-03    -105.778E-03    -106.313E-03    -105.929E-03     211.938E-03    -106.009E-03     13.5518E-03    -98.3811E+06    -115.916E+06    -238.301E+06    -118.846E+06    -235.372E+06    -98.3811E+06    -18.2513E+06         37.8247
            1841     3.59930E-03     116.778E-03     34.1498E-03     33.8363E-03    -126.879E-03     34.1495E-03    -126.879E-03     33.8363E-03     450.231E-06     213.423E-03    -106.163E-03    -107.260E-03    -106.955E-03     213.155E-03    -106.200E-03     18.3657E-03    -80.3693E+06    -105.480E+06    -219.910E+06    -110.617E+06    -214.773E+06    -80.3693E+06    -23.3571E+06         38.1414
            1842     4.49715E-03     116.797E-03     34.3268E-03     33.8679E-03    -127.018E-03     34.3264E-03    -127.017E-03     33.8679E-03     526.573E-06     215.749E-03    -106.609E-03    -109.140E-03    -108.705E-03     215.314E-03    -106.609E-03     23.6142E-03    -62.8906E+06    -93.8364E+06    -197.466E+06    -101.579E+06    -189.724E+06    -62.8906E+06    -26.9502E+06         38.5741
            1843     5.39128E-03     116.824E-03     34.5688E-03     33.9043E-03    -127.182E-03     34.5683E-03    -127.181E-03     33.9043E-03     591.150E-06     217.401E-03    -107.139E-03    -110.263E-03    -109.604E-03     216.742E-03    -107.139E-03     29.1974E-03    -45.8123E+06    -82.3538E+06    -179.871E+06    -93.1621E+06    -169.063E+06    -45.8123E+06    -30.5013E+06         39.1495
            1844     6.28820E-03     116.851E-03     34.8494E-03     33.9469E-03    -127.370E-03     34.8487E-03    -127.369E-03     33.9469E-03     628.346E-06     218.748E-03    -107.630E-03    -111.118E-03    -110.182E-03     217.812E-03    -107.630E-03     34.8814E-03    -30.6422E+06    -69.5834E+06    -161.438E+06    -84.0596E+06    -146.962E+06    -30.6422E+06    -33.2151E+06         39.9057
            1845     7.18232E-03     116.888E-03     35.1470E-03     33.9922E-03    -127.566E-03     35.1464E-03    -127.566E-03     33.9922E-03     646.711E-06     220.478E-03    -108.098E-03    -112.380E-03    -111.116E-03     219.214E-03    -108.098E-03     40.6980E-03    -15.9176E+06    -56.6811E+06    -139.054E+06    -75.1742E+06    -120.561E+06    -15.9176E+06    -34.2046E+06         40.8905
            1846     8.07628E-03     116.930E-03     35.4907E-03     34.0385E-03    -127.764E-03     35.4901E-03    -127.764E-03     34.0385E-03     630.988E-06     221.136E-03    -108.515E-03    -112.621E-03    -110.936E-03     219.451E-03    -108.515E-03     47.0043E-03    -2.59052E+06    -43.7313E+06    -119.511E+06    -67.4463E+06    -95.7958E+06    -2.59052E+06    -34.8243E+06         42.1585
            1847     8.97131E-03     116.978E-03     35.8353E-03     34.0838E-03    -127.959E-03     35.8347E-03    -127.959E-03     34.0838E-03     587.537E-06     220.525E-03    -108.777E-03    -111.748E-03    -109.488E-03     218.265E-03    -108.777E-03     54.3220E-03     10.2399E+06    -30.5524E+06    -102.788E+06    -59.5693E+06    -73.7712E+06     10.2399E+06    -35.2240E+06         43.7624
            1848     9.86930E-03     117.036E-03     36.1946E-03     34.1274E-03    -128.145E-03     36.1942E-03    -128.145E-03     34.1274E-03     509.374E-06     219.832E-03    -108.849E-03    -110.982E-03    -108.119E-03     216.969E-03    -108.849E-03     61.0495E-03     19.2295E+06    -19.0611E+06    -87.3247E+06    -53.1276E+06    -53.2582E+06     19.2295E+06    -33.6451E+06         45.7372
            1849     10.7664E-03     117.096E-03     36.5598E-03     34.1699E-03    -128.326E-03     36.5596E-03    -128.326E-03     34.1699E-03     386.900E-06     219.135E-03    -108.789E-03    -110.347E-03    -106.715E-03     215.504E-03    -108.789E-03     68.4759E-03     27.8356E+06    -6.69678E+06    -72.7852E+06    -48.2841E+06    -31.1979E+06     27.8356E+06    -31.6465E+06         48.0819
            1850     11.6667E-03     117.163E-03     36.9110E-03     34.2093E-03    -128.492E-03     36.9109E-03    -128.492E-03     34.2093E-03     208.404E-06     218.027E-03    -108.589E-03    -109.438E-03    -105.016E-03     213.604E-03    -108.589E-03     75.4151E-03     32.4134E+06     8.17690E+06    -61.3709E+06    -44.0124E+06    -8.89797E+06     32.1298E+06    -29.5781E+06         50.7443
            1851     12.5689E-03     117.237E-03     37.2561E-03     34.2369E-03    -128.606E-03     37.2561E-03    -128.606E-03     34.2369E-03    -40.4676E-06     217.244E-03    -108.257E-03    -108.987E-03    -102.974E-03     211.231E-03    -108.257E-03     87.1508E-03     49.8599E+06     34.3450E+06    -47.8211E+06    -39.8391E+06     34.9537E+06     41.2692E+06    -22.1962E+06         53.6143
            1852     13.4742E-03     117.328E-03     37.5862E-03     34.2568E-03    -128.656E-03     37.5858E-03    -128.656E-03     34.2568E-03    -408.060E-06     214.871E-03    -106.548E-03    -108.323E-03    -100.440E-03     208.264E-03    -107.825E-03     91.1464E-03     98.4468E+06     61.1585E+06    -34.8998E+06    -33.3295E+06     96.8765E+06     61.1585E+06    -12.7281E+06         56.5319
            1853     14.3801E-03     117.407E-03     37.8667E-03     34.2513E-03    -128.532E-03     37.8651E-03    -128.531E-03     34.2513E-03    -970.264E-06     218.535E-03    -106.152E-03    -112.383E-03    -100.494E-03     207.922E-03    -107.428E-03     113.433E-03     142.439E+06     95.2497E+06    -25.7839E+06    -25.5220E+06     142.177E+06     95.2497E+06    -4.79255E+06         59.3121
            1854     15.2823E-03     117.543E-03     37.9979E-03     34.2266E-03    -128.081E-03     37.9919E-03    -128.075E-03     34.2266E-03    -1.88836E-03     218.634E-03    -105.211E-03    -113.422E-03    -101.685E-03     208.954E-03    -107.269E-03     106.193E-03     175.153E+06     148.297E+06    -14.1567E+06    -14.1130E+06     166.461E+06     156.946E+06     671.097E+03         61.7854
            1855     900.632E-06     117.978E-03     42.2938E-03     19.0044E-03    -116.640E-03     42.2904E-03    -116.637E-03     19.0044E-03     1.13167E-03     208.874E-03    -104.033E-03    -104.841E-03    -104.070E-03     208.827E-03    -104.757E-03     7.21747E-03    -117.430E+06    -120.965E+06    -246.765E+06    -120.994E+06    -246.247E+06    -117.919E+06    -6.71413E+06         37.0886
            1856     1.80205E-03     117.985E-03     30.7814E-03     30.6689E-03    -116.694E-03     30.7814E-03    -116.694E-03     30.6689E-03     167.534E-06     209.847E-03    -104.599E-03    -105.248E-03    -105.122E-03     209.725E-03    -104.603E-03     12.1328E-03    -106.510E+06    -114.743E+06    -235.197E+06    -116.798E+06    -233.142E+06    -106.510E+06    -14.7494E+06         37.2203
            1857     2.70143E-03     117.996E-03     30.8741E-03     30.6959E-03    -116.793E-03     30.8739E-03    -116.793E-03     30.6959E-03     289.863E-06     211.174E-03    -104.945E-03    -106.230E-03    -105.955E-03     210.937E-03    -104.982E-03     17.0773E-03    -91.0629E+06    -105.259E+06    -223.094E+06    -109.253E+06    -219.100E+06    -91.0629E+06    -21.0510E+06         37.4397
            1858     3.59941E-03     118.012E-03     31.0608E-03     30.7234E-03    -116.918E-03     31.0606E-03    -116.918E-03     30.7234E-03     375.086E-06     212.331E-03    -105.349E-03    -106.982E-03    -106.541E-03     211.929E-03    -105.387E-03     22.2141E-03    -73.0746E+06    -94.2970E+06    -206.447E+06    -100.603E+06    -200.141E+06    -73.0746E+06    -25.5710E+06         37.7583
            1859     4.49786E-03     118.038E-03     31.2629E-03     30.7590E-03    -117.070E-03     31.2626E-03    -117.069E-03     30.7590E-03     433.784E-06     213.466E-03    -105.767E-03    -107.699E-03    -107.116E-03     212.883E-03    -105.767E-03     27.0185E-03    -54.9148E+06    -82.7450E+06    -186.758E+06    -91.6127E+06    -177.890E+06    -54.9148E+06    -28.8957E+06         38.1944
            1860     5.39819E-03     118.063E-03     31.5279E-03     30.8031E-03    -117.260E-03     31.5275E-03    -117.260E-03     30.8031E-03     482.807E-06     214.740E-03    -106.146E-03    -108.594E-03    -107.771E-03     213.917E-03    -106.146E-03     32.3707E-03    -36.4550E+06    -70.5910E+06    -168.862E+06    -81.9035E+06    -157.549E+06    -36.4550E+06    -31.2575E+06         38.7761
            1861     6.29460E-03     118.095E-03     31.8401E-03     30.8554E-03    -117.476E-03     31.8397E-03    -117.475E-03     30.8554E-03     503.703E-06     216.362E-03    -106.527E-03    -109.835E-03    -108.596E-03     215.123E-03    -106.527E-03     39.8120E-03    -21.1095E+06    -59.0533E+06    -152.639E+06    -73.4082E+06    -138.284E+06    -21.1095E+06    -33.5630E+06         39.5424
            1862     7.19070E-03     118.133E-03     32.1719E-03     30.9123E-03    -117.706E-03     32.1715E-03    -117.705E-03     30.9123E-03     507.981E-06     217.735E-03    -106.888E-03    -110.847E-03    -109.060E-03     215.948E-03    -106.888E-03     47.9800E-03    -7.65499E+06    -46.9471E+06    -131.829E+06    -65.4999E+06    -113.276E+06    -7.65499E+06    -34.8032E+06         40.5433
            1863     8.08700E-03     118.175E-03     32.5588E-03     30.9748E-03    -117.956E-03     32.5584E-03    -117.956E-03     30.9748E-03     481.896E-06     218.570E-03    -107.206E-03    -111.365E-03    -109.011E-03     216.217E-03    -107.206E-03     55.2070E-03     5.82511E+06    -35.6592E+06    -112.988E+06    -58.2385E+06    -90.4083E+06     5.82511E+06    -35.0315E+06         41.8361
            1864     8.98387E-03     118.222E-03     32.9538E-03     31.0426E-03    -118.217E-03     32.9535E-03    -118.217E-03     31.0426E-03     425.999E-06     218.140E-03    -107.399E-03    -110.741E-03    -107.721E-03     215.120E-03    -107.399E-03     62.4086E-03     17.7585E+06    -25.7095E+06    -96.3749E+06    -52.1581E+06    -69.9263E+06     17.7585E+06    -33.8191E+06         43.4764
            1865     9.88187E-03     118.276E-03     33.3655E-03     31.1119E-03    -118.479E-03     33.3653E-03    -118.479E-03     31.1119E-03     335.307E-06     216.753E-03    -107.392E-03    -109.361E-03    -105.524E-03     212.916E-03    -107.392E-03     69.9757E-03     26.8917E+06    -17.5519E+06    -81.4702E+06    -46.7148E+06    -52.3073E+06     26.8917E+06    -31.6295E+06         45.5025
            1866     10.7844E-03     118.335E-03     33.7857E-03     31.1806E-03    -118.731E-03     33.7856E-03    -118.731E-03     31.1806E-03     203.073E-06     216.189E-03    -107.220E-03    -108.969E-03    -104.174E-03     211.394E-03    -107.220E-03     78.0199E-03     35.4260E+06    -4.53831E+06    -66.3773E+06    -41.6382E+06    -29.2774E+06     35.4260E+06    -29.2976E+06         47.9145
            1867     11.6854E-03     118.402E-03     34.1849E-03     31.2472E-03    -118.962E-03     34.1848E-03    -118.962E-03     31.2472E-03     18.7856E-06     215.958E-03    -106.975E-03    -108.983E-03    -103.342E-03     210.317E-03    -106.975E-03     84.6540E-03     41.1436E+06     4.64606E+06    -53.5243E+06    -37.9848E+06    -10.8934E+06     41.1436E+06    -25.6633E+06         50.6561
            1868     12.5890E-03     118.470E-03     34.5700E-03     31.3039E-03    -119.134E-03     34.5699E-03    -119.134E-03     31.3039E-03    -230.547E-06     215.431E-03    -106.643E-03    -108.788E-03    -101.677E-03     208.320E-03    -106.643E-03     94.5002E-03     54.9683E+06     30.4860E+06    -42.4601E+06    -34.4802E+06     28.0518E+06     49.4226E+06    -19.7619E+06         53.6111
            1869     13.4943E-03     118.560E-03     34.9269E-03     31.3519E-03    -119.223E-03     34.9263E-03    -119.222E-03     31.3519E-03    -564.932E-06     213.972E-03    -105.494E-03    -108.478E-03    -100.270E-03     206.530E-03    -106.261E-03     96.5142E-03     89.1335E+06     68.4156E+06    -31.6625E+06    -30.0929E+06     87.5638E+06     68.4156E+06    -12.1404E+06         56.6091
            1870     14.4045E-03     118.632E-03     35.1948E-03     31.3646E-03    -119.076E-03     35.1931E-03    -119.074E-03     31.3646E-03    -982.926E-06     219.658E-03    -105.241E-03    -114.416E-03    -102.761E-03     208.769E-03    -106.008E-03     116.217E-03     133.678E+06     100.415E+06    -23.9809E+06    -23.7082E+06     133.405E+06     100.415E+06    -5.84075E+06         59.4527
            1871     15.3160E-03     118.784E-03     35.2834E-03     31.3455E-03    -118.549E-03     35.2803E-03    -118.546E-03     31.3455E-03    -1.33985E-03     224.284E-03    -106.167E-03    -118.117E-03    -108.780E-03     214.947E-03    -106.167E-03     104.731E-03     175.665E+06     146.450E+06    -13.2120E+06    -13.1622E+06     164.491E+06     157.575E+06    -2.54770E+06         61.9601
            1872     903.419E-06     119.205E-03     36.3428E-03     19.0140E-03    -106.899E-03     36.3351E-03    -106.896E-03     19.0190E-03     949.178E-06     205.075E-03    -101.995E-03    -103.080E-03    -102.786E-03     205.023E-03    -102.236E-03     7.33145E-03    -103.473E+06    -106.653E+06    -228.323E+06    -105.362E+06    -227.655E+06    -105.432E+06    -8.09223E+06         36.5882
            1873     1.80534E-03     119.216E-03     27.7650E-03     27.6686E-03    -106.969E-03     27.7600E-03    -106.969E-03     27.6736E-03     120.101E-06     206.131E-03    -102.694E-03    -103.436E-03    -103.279E-03     205.973E-03    -102.694E-03     13.6190E-03    -92.3266E+06    -101.092E+06    -213.183E+06    -101.846E+06    -211.083E+06    -93.6732E+06    -14.4977E+06         36.7224
            1874     2.70643E-03     119.228E-03     27.8955E-03     27.6948E-03    -107.064E-03     27.8954E-03    -107.064E-03     27.6948E-03     209.613E-06     207.808E-03    -103.122E-03    -104.686E-03    -104.324E-03     207.446E-03    -103.122E-03     20.7191E-03    -79.4728E+06    -93.7563E+06    -205.657E+06    -98.1043E+06    -201.309E+06    -79.4728E+06    -21.3168E+06         36.9463
            1875     3.60591E-03     119.248E-03     28.0799E-03     27.7263E-03    -107.202E-03     28.0797E-03    -107.202E-03     27.7263E-03     266.950E-06     209.286E-03    -103.577E-03    -105.709E-03    -105.016E-03     208.594E-03    -103.577E-03     28.9931E-03    -64.8455E+06    -83.7422E+06    -192.918E+06    -90.8866E+06    -185.774E+06    -64.8455E+06    -26.7065E+06         37.2723
            1876     4.50597E-03     119.271E-03     28.3115E-03     27.7670E-03    -107.380E-03     28.3114E-03    -107.380E-03     27.7670E-03     301.954E-06     210.485E-03    -103.989E-03    -106.497E-03    -105.480E-03     209.468E-03    -103.989E-03     35.3619E-03    -47.6600E+06    -72.6589E+06    -175.642E+06    -82.8583E+06    -165.443E+06    -47.6600E+06    -30.6061E+06         37.7196
            1877     5.40436E-03     119.299E-03     28.5969E-03     27.8189E-03    -107.595E-03     28.5967E-03    -107.595E-03     27.8189E-03     328.650E-06     211.567E-03    -104.348E-03    -107.218E-03    -105.896E-03     210.245E-03    -104.348E-03     40.3811E-03    -32.8792E+06    -63.4052E+06    -161.134E+06    -76.3933E+06    -148.146E+06    -32.8792E+06    -33.0371E+06         38.3174
            1878     6.30468E-03     119.332E-03     28.9344E-03     27.8812E-03    -107.842E-03     28.9341E-03    -107.842E-03     27.8812E-03     328.430E-06     212.007E-03    -104.630E-03    -107.377E-03    -105.571E-03     210.201E-03    -104.630E-03     47.3590E-03    -17.0309E+06    -53.0093E+06    -144.523E+06    -68.4541E+06    -129.078E+06    -17.0309E+06    -34.1495E+06         39.1071
            1879     7.20576E-03     119.371E-03     29.3032E-03     27.9507E-03    -108.114E-03     29.3030E-03    -108.114E-03     27.9507E-03     311.444E-06     212.431E-03    -104.791E-03    -107.640E-03    -105.124E-03     209.915E-03    -104.791E-03     56.1059E-03    -2.44392E+06    -42.7094E+06    -125.216E+06    -61.1835E+06    -106.742E+06    -2.44392E+06    -34.1412E+06         40.1412
            1880     8.10612E-03     119.415E-03     29.7199E-03     28.0278E-03    -108.406E-03     29.7198E-03    -108.405E-03     28.0278E-03     268.695E-06     213.205E-03    -104.884E-03    -108.322E-03    -104.996E-03     209.880E-03    -104.884E-03     64.6396E-03     10.1995E+06    -34.3754E+06    -107.453E+06    -55.6817E+06    -86.1464E+06     10.1995E+06    -33.1132E+06         41.4798
            1881     9.00531E-03     119.462E-03     30.1572E-03     28.1142E-03    -108.724E-03     30.1571E-03    -108.724E-03     28.1142E-03     197.001E-06     213.402E-03    -104.925E-03    -108.477E-03    -104.302E-03     209.227E-03    -104.925E-03     72.4082E-03     22.0677E+06    -25.9204E+06    -91.8111E+06    -50.7534E+06    -66.9781E+06     22.0677E+06    -31.5450E+06         43.1806
            1882     9.90810E-03     119.510E-03     30.6103E-03     28.2057E-03    -109.055E-03     30.6102E-03    -109.055E-03     28.2057E-03     93.6857E-06     213.177E-03    -104.869E-03    -108.308E-03    -103.122E-03     207.991E-03    -104.869E-03     80.6212E-03     32.2528E+06    -16.8152E+06    -77.9561E+06    -44.7914E+06    -49.9800E+06     32.2528E+06    -30.3312E+06         45.2821
            1883     10.8108E-03     119.569E-03     31.0637E-03     28.2959E-03    -109.366E-03     31.0637E-03    -109.366E-03     28.2959E-03    -45.1761E-06     213.002E-03    -104.705E-03    -108.296E-03    -102.061E-03     206.766E-03    -104.705E-03     88.3988E-03     39.6541E+06    -7.79857E+06    -62.8901E+06    -39.1720E+06    -31.5167E+06     39.6541E+06    -26.4445E+06         47.7835
            1884     11.7164E-03     119.635E-03     31.4900E-03     28.3816E-03    -109.641E-03     31.4899E-03    -109.641E-03     28.3816E-03    -222.914E-06     213.702E-03    -104.514E-03    -109.188E-03    -102.046E-03     206.560E-03    -104.514E-03     94.7830E-03     46.7096E+06    -1.01982E+06    -48.3318E+06    -35.7558E+06    -13.5958E+06     46.7096E+06    -20.4583E+06         50.6244
            1885     12.6196E-03     119.704E-03     31.8896E-03     28.4572E-03    -109.855E-03     31.8892E-03    -109.854E-03     28.4572E-03    -443.964E-06     215.168E-03    -104.339E-03    -110.830E-03    -102.629E-03     206.967E-03    -104.339E-03     101.936E-03     58.3490E+06     28.6193E+06    -38.5918E+06    -32.6716E+06     24.7522E+06     56.2958E+06    -16.2626E+06         53.6775
            1886     13.5268E-03     119.787E-03     32.2419E-03     28.5177E-03    -109.963E-03     32.2410E-03    -109.962E-03     28.5177E-03    -690.672E-06     218.255E-03    -104.329E-03    -113.926E-03    -105.747E-03     210.076E-03    -104.329E-03     102.819E-03     85.5238E+06     76.4240E+06    -28.9817E+06    -27.6559E+06     81.8269E+06     78.7951E+06    -10.5959E+06         56.7565
            1887     14.4240E-03     119.871E-03     32.4852E-03     28.5319E-03    -109.816E-03     32.4838E-03    -109.815E-03     28.5319E-03    -886.942E-06     227.712E-03    -104.659E-03    -123.053E-03    -112.651E-03     217.310E-03    -104.659E-03     118.079E-03     129.792E+06     110.121E+06    -21.1824E+06    -20.9200E+06     129.529E+06     110.121E+06    -5.95808E+06         59.6531
            1888     15.3116E-03     120.020E-03     32.6299E-03     28.5089E-03    -109.419E-03     32.6287E-03    -109.418E-03     28.5089E-03    -810.965E-06     232.340E-03    -105.434E-03    -126.906E-03    -118.318E-03     223.753E-03    -105.434E-03     104.883E-03     175.527E+06     144.790E+06    -12.1099E+06    -12.0053E+06     159.680E+06     160.532E+06    -4.04652E+06         62.1876
            1889     903.908E-06     120.431E-03     31.0224E-03     18.6175E-03    -97.4457E-03     31.0055E-03    -97.4438E-03     18.6325E-03     736.335E-06     199.941E-03    -98.8048E-03    -101.136E-03    -101.037E-03     199.842E-03    -98.8048E-03     9.79876E-03    -95.7154E+06    -98.6835E+06    -207.356E+06    -97.8017E+06    -206.394E+06    -97.5591E+06    -9.47098E+06         35.9667
            1890     1.80838E-03     120.440E-03     24.8788E-03     24.7838E-03    -97.5121E-03     24.8639E-03    -97.5121E-03     24.7987E-03     48.0350E-06     200.645E-03    -100.016E-03    -100.629E-03    -100.345E-03     200.361E-03    -100.016E-03     17.6527E-03    -87.9809E+06    -94.3149E+06    -195.738E+06    -95.2581E+06    -193.448E+06    -89.3275E+06    -14.8656E+06         36.1067
            1891     2.71311E-03     120.456E-03     25.0381E-03     24.8162E-03    -97.6178E-03     25.0381E-03    -97.6178E-03     24.8162E-03     102.184E-06     201.537E-03    -100.242E-03    -101.294E-03    -100.729E-03     200.971E-03    -100.242E-03     25.6391E-03    -75.2547E+06    -86.7967E+06    -188.005E+06    -91.2492E+06    -183.552E+06    -75.2547E+06    -20.3384E+06         36.3410
            1892     3.61839E-03     120.475E-03     25.2238E-03     24.8523E-03    -97.7687E-03     25.2238E-03    -97.7687E-03     24.8523E-03     127.342E-06     202.678E-03    -100.478E-03    -102.200E-03    -101.211E-03     201.689E-03    -100.478E-03     34.2629E-03    -61.2208E+06    -79.2040E+06    -177.584E+06    -86.5825E+06    -170.206E+06    -61.2208E+06    -25.7059E+06         36.6832
            1893     4.52132E-03     120.502E-03     25.4722E-03     24.8977E-03    -97.9589E-03     25.4722E-03    -97.9589E-03     24.8977E-03     131.089E-06     204.061E-03    -100.734E-03    -103.328E-03    -101.744E-03     202.478E-03    -100.734E-03     43.5556E-03    -46.2146E+06    -70.1740E+06    -163.750E+06    -80.6426E+06    -153.281E+06    -46.2146E+06    -29.3383E+06         37.1534
            1894     5.42313E-03     120.532E-03     25.7806E-03     24.9563E-03    -98.1985E-03     25.7805E-03    -98.1984E-03     24.9563E-03     129.754E-06     205.528E-03    -101.009E-03    -104.518E-03    -102.238E-03     203.248E-03    -101.009E-03     52.3308E-03    -30.3512E+06    -60.9722E+06    -150.458E+06    -74.3313E+06    -137.099E+06    -30.3512E+06    -31.7991E+06         37.7826
            1895     6.32454E-03     120.563E-03     26.1401E-03     25.0286E-03    -98.4877E-03     26.1401E-03    -98.4876E-03     25.0286E-03     106.309E-06     206.598E-03    -101.262E-03    -105.336E-03    -102.334E-03     203.596E-03    -101.262E-03     60.1890E-03    -15.4900E+06    -52.7721E+06    -137.144E+06    -68.8370E+06    -121.080E+06    -15.4900E+06    -33.0210E+06         38.6134
            1896     7.22780E-03     120.600E-03     26.5421E-03     25.1114E-03    -98.8052E-03     26.5420E-03    -98.8052E-03     25.1114E-03     65.4173E-06     206.568E-03    -101.406E-03    -105.162E-03    -101.357E-03     202.763E-03    -101.406E-03     67.8145E-03    -765.673E+03    -44.5300E+06    -120.750E+06    -62.9200E+06    -102.360E+06    -765.673E+03    -32.5031E+06         39.7007
            1897     8.13296E-03     120.644E-03     26.9850E-03     25.2031E-03    -99.1456E-03     26.9849E-03    -99.1456E-03     25.2031E-03     5.02574E-06     206.164E-03    -101.388E-03    -104.777E-03    -100.042E-03     201.430E-03    -101.388E-03     75.6664E-03     12.5806E+06    -36.9049E+06    -102.934E+06    -57.8704E+06    -81.9682E+06     12.5806E+06    -30.5216E+06         41.1078
            1898     9.04051E-03     120.691E-03     27.4541E-03     25.3039E-03    -99.5118E-03     27.4541E-03    -99.5118E-03     25.3039E-03    -79.0328E-06     207.118E-03    -101.307E-03    -105.811E-03    -100.123E-03     201.430E-03    -101.307E-03     83.2815E-03     24.1723E+06    -28.2991E+06    -88.2976E+06    -52.3965E+06    -64.2003E+06     24.1723E+06    -29.2702E+06         42.8935
            1899     9.94448E-03     120.741E-03     27.9306E-03     25.4099E-03    -99.8851E-03     27.9305E-03    -99.8850E-03     25.4099E-03    -186.230E-06     208.961E-03    -101.275E-03    -107.686E-03    -100.974E-03     202.249E-03    -101.275E-03     90.9648E-03     33.1601E+06    -21.6605E+06    -75.8990E+06    -48.6228E+06    -48.9366E+06     33.1601E+06    -26.6856E+06         45.0938
            1900     10.8492E-03     120.798E-03     28.4012E-03     25.5144E-03    -100.240E-03     28.4009E-03    -100.240E-03     25.5144E-03    -315.001E-06     210.735E-03    -101.301E-03    -109.434E-03    -101.756E-03     203.058E-03    -101.301E-03     97.8249E-03     39.7787E+06    -16.8542E+06    -63.7906E+06    -45.7875E+06    -34.8572E+06     39.7787E+06    -22.4971E+06         47.7031
            1901     11.7540E-03     120.861E-03     28.8395E-03     25.6110E-03    -100.551E-03     28.8390E-03    -100.551E-03     25.6110E-03    -460.726E-06     213.168E-03    -101.403E-03    -111.765E-03    -103.507E-03     204.910E-03    -101.403E-03     102.237E-03     47.7255E+06    -6.03290E+06    -51.1979E+06    -40.3483E+06    -16.8824E+06     47.7255E+06    -18.5979E+06         50.6542
            1902     12.6587E-03     120.938E-03     29.2355E-03     25.6920E-03    -100.779E-03     29.2347E-03    -100.779E-03     25.6920E-03    -608.216E-06     217.982E-03    -101.668E-03    -116.313E-03    -107.745E-03     209.413E-03    -101.668E-03     105.656E-03     59.2682E+06     27.4658E+06    -38.4006E+06    -34.1268E+06     23.1920E+06     59.2682E+06    -13.7089E+06         53.8071
            1903     13.5545E-03     121.020E-03     29.5664E-03     25.7478E-03    -100.874E-03     29.5654E-03    -100.873E-03     25.7478E-03    -719.628E-06     226.164E-03    -102.311E-03    -123.853E-03    -115.326E-03     217.637E-03    -102.311E-03     107.891E-03     84.2933E+06     76.6039E+06    -28.7696E+06    -27.7326E+06     76.9660E+06     82.8942E+06    -9.33056E+06         56.9630
            1904     14.4433E-03     121.128E-03     29.8124E-03     25.7525E-03    -100.751E-03     29.8114E-03    -100.750E-03     25.7525E-03    -703.705E-06     238.009E-03    -103.385E-03    -134.624E-03    -123.954E-03     227.339E-03    -103.385E-03     123.700E-03     128.154E+06     114.111E+06    -20.1112E+06    -19.7763E+06     127.819E+06     114.111E+06    -6.27807E+06         59.9102
            1905     15.3294E-03     121.275E-03     30.0577E-03     25.7282E-03    -100.542E-03     30.0572E-03    -100.541E-03     25.7282E-03    -467.191E-06     242.263E-03    -104.843E-03    -137.420E-03    -128.652E-03     233.495E-03    -104.843E-03     110.408E-03     175.585E+06     143.163E+06    -10.9685E+06    -10.8603E+06     155.699E+06     162.941E+06    -4.15839E+06         62.4715
            1906     909.351E-06     121.646E-03     26.2608E-03     17.8568E-03    -88.2750E-03     26.2495E-03    -88.2736E-03     17.8667E-03     550.178E-06     191.199E-03    -94.7390E-03    -96.4605E-03    -96.1761E-03     191.057E-03    -94.8807E-03     11.2917E-03    -91.1748E+06    -93.5728E+06    -187.007E+06    -93.9619E+06    -186.244E+06    -91.5488E+06    -7.98446E+06         35.2316
            1907     1.81784E-03     121.658E-03     22.1250E-03     22.0347E-03    -88.3449E-03     22.1150E-03    -88.3449E-03     22.0447E-03    -41.9059E-06     191.799E-03    -95.5818E-03    -96.2173E-03    -95.7547E-03     191.337E-03    -95.5818E-03     22.3607E-03    -84.8001E+06    -89.1641E+06    -178.880E+06    -91.3599E+06    -176.684E+06    -84.8001E+06    -13.3433E+06         35.3826
            1908     2.72526E-03     121.673E-03     22.3016E-03     22.0653E-03    -88.4628E-03     22.3016E-03    -88.4628E-03     22.0653E-03    -26.2381E-06     192.950E-03    -95.7452E-03    -97.2049E-03    -96.2781E-03     192.023E-03    -95.7452E-03     32.1078E-03    -74.5240E+06    -83.2612E+06    -171.950E+06    -87.8319E+06    -167.379E+06    -74.5240E+06    -19.3413E+06         35.6352
            1909     3.63195E-03     121.694E-03     22.4963E-03     22.1065E-03    -88.6302E-03     22.4963E-03    -88.6302E-03     22.1065E-03    -43.0163E-06     193.694E-03    -95.9273E-03    -97.7671E-03    -96.2209E-03     192.148E-03    -95.9273E-03     41.5520E-03    -60.3745E+06    -77.9313E+06    -163.614E+06    -84.9475E+06    -156.598E+06    -60.3745E+06    -23.3644E+06         36.0045
            1910     4.54081E-03     121.720E-03     22.7602E-03     22.1583E-03    -88.8480E-03     22.7601E-03    -88.8480E-03     22.1583E-03    -72.2556E-06     193.954E-03    -95.9891E-03    -97.9652E-03    -95.6171E-03     191.606E-03    -95.9891E-03     51.5101E-03    -44.5683E+06    -71.0846E+06    -150.671E+06    -80.9873E+06    -140.768E+06    -44.5683E+06    -26.0180E+06         36.5126
            1911     5.45193E-03     121.750E-03     23.0911E-03     22.2237E-03    -89.1142E-03     23.0910E-03    -89.1141E-03     22.2237E-03    -109.213E-06     195.307E-03    -96.0132E-03    -99.2940E-03    -95.9278E-03     191.941E-03    -96.0132E-03     62.1205E-03    -29.0008E+06    -65.0505E+06    -139.780E+06    -77.1685E+06    -127.662E+06    -29.0008E+06    -27.5096E+06         37.1913
            1912     6.36008E-03     121.786E-03     23.4628E-03     22.3031E-03    -89.4262E-03     23.4627E-03    -89.4261E-03     22.3031E-03    -160.808E-06     197.676E-03    -96.1324E-03    -101.543E-03    -97.0443E-03     193.177E-03    -96.1324E-03     72.3791E-03    -16.3543E+06    -60.7799E+06    -129.179E+06    -75.5808E+06    -114.378E+06    -16.3543E+06    -27.7295E+06         38.0842
            1913     7.26510E-03     121.822E-03     23.8933E-03     22.3965E-03    -89.7882E-03     23.8931E-03    -89.7880E-03     22.3965E-03    -225.140E-06     199.147E-03    -96.3123E-03    -102.834E-03    -97.1836E-03     193.496E-03    -96.3123E-03     81.3276E-03    -4.12835E+06    -54.8905E+06    -115.965E+06    -73.2483E+06    -97.6075E+06    -4.12835E+06    -27.5957E+06         39.2476
            1914     8.17331E-03     121.862E-03     24.3617E-03     22.5012E-03    -90.1856E-03     24.3614E-03    -90.1853E-03     22.5012E-03    -300.461E-06     200.086E-03    -96.4490E-03    -103.637E-03    -96.8756E-03     193.325E-03    -96.4490E-03     89.1629E-03     8.19817E+06    -46.9830E+06    -102.436E+06    -69.8599E+06    -79.5591E+06     8.19817E+06    -26.2392E+06         40.7449
            1915     9.08174E-03     121.909E-03     24.8499E-03     22.6117E-03    -90.5888E-03     24.8495E-03    -90.5884E-03     22.6117E-03    -388.604E-06     202.114E-03    -96.5834E-03    -105.531E-03    -97.8636E-03     194.447E-03    -96.5834E-03     95.5787E-03     19.4075E+06    -38.9916E+06    -90.0095E+06    -67.6678E+06    -61.3333E+06     19.4075E+06    -24.1028E+06         42.6340
            1916     9.98999E-03     121.964E-03     25.3398E-03     22.7245E-03    -90.9878E-03     25.3392E-03    -90.9872E-03     22.7245E-03    -485.133E-06     205.483E-03    -96.8390E-03    -108.644E-03    -100.362E-03     197.201E-03    -96.8390E-03     100.510E-03     28.2813E+06    -32.3323E+06    -80.5880E+06    -64.1250E+06    -48.7953E+06     28.2813E+06    -22.0960E+06         44.9485
            1917     10.8957E-03     122.021E-03     25.8153E-03     22.8332E-03    -91.3629E-03     25.8145E-03    -91.3621E-03     22.8332E-03    -583.050E-06     210.480E-03    -97.2975E-03    -113.182E-03    -104.366E-03     201.664E-03    -97.2975E-03     105.338E-03     36.2567E+06    -21.6077E+06    -70.4133E+06    -57.6277E+06    -34.3933E+06     36.2567E+06    -21.2146E+06         47.6750
            1918     11.7958E-03     122.094E-03     26.2518E-03     22.9305E-03    -91.6821E-03     26.2508E-03    -91.6811E-03     22.9305E-03    -673.220E-06     216.335E-03    -98.0073E-03    -118.327E-03    -109.491E-03     207.498E-03    -98.0073E-03     107.278E-03     43.4793E+06    -8.45545E+06    -59.5118E+06    -49.4653E+06    -18.5020E+06     43.4793E+06    -20.1025E+06         50.7354
            1919     12.6908E-03     122.169E-03     26.6363E-03     23.0050E-03    -91.9014E-03     26.6352E-03    -91.9002E-03     23.0050E-03    -725.429E-06     224.879E-03    -99.0199E-03    -125.859E-03    -116.787E-03     215.807E-03    -99.0199E-03     111.317E-03     55.8546E+06     24.8729E+06    -45.0472E+06    -39.7353E+06     19.5610E+06     55.8546E+06    -15.9177E+06         53.9809
            1920     13.5794E-03     122.276E-03     26.9627E-03     23.0469E-03    -91.9879E-03     26.9617E-03    -91.9868E-03     23.0469E-03    -705.593E-06     235.474E-03    -100.460E-03    -135.014E-03    -125.996E-03     226.455E-03    -100.460E-03     114.039E-03     82.2534E+06     74.6107E+06    -30.6359E+06    -29.1164E+06     73.5107E+06     81.8338E+06    -11.3101E+06         57.2084
            1921     14.4600E-03     122.383E-03     27.2414E-03     23.0422E-03    -91.9117E-03     27.2407E-03    -91.9110E-03     23.0422E-03    -568.534E-06     246.480E-03    -102.258E-03    -144.221E-03    -133.764E-03     236.022E-03    -102.258E-03     125.646E-03     125.825E+06     113.755E+06    -19.8302E+06    -19.3675E+06     124.772E+06     114.345E+06    -7.38322E+06         60.2063
            1922     15.3331E-03     122.549E-03     27.5470E-03     23.0197E-03    -91.7918E-03     27.5468E-03    -91.7915E-03     23.0197E-03    -320.545E-06     250.430E-03    -104.318E-03    -146.111E-03    -137.744E-03     242.062E-03    -104.318E-03     110.299E-03     174.957E+06     140.927E+06    -8.93398E+06    -8.82276E+06     151.876E+06     163.896E+06    -3.86992E+06         62.7957
            1923     913.320E-06     122.851E-03     22.0879E-03     16.7544E-03    -79.3964E-03     22.0870E-03    -79.3955E-03     16.7544E-03     348.168E-06     179.393E-03    -89.2400E-03    -90.1526E-03    -89.2026E-03     179.195E-03    -89.9927E-03     12.9383E-03    -89.2750E+06    -90.3045E+06    -170.305E+06    -90.7712E+06    -169.755E+06    -89.3586E+06    -6.12897E+06         34.4094
            1924     1.82817E-03     122.860E-03     19.5106E-03     19.4206E-03    -79.4868E-03     19.5106E-03    -79.4868E-03     19.4206E-03    -139.978E-06     179.693E-03    -89.5791E-03    -90.1139E-03    -89.4914E-03     179.071E-03    -89.5791E-03     24.9934E-03    -83.2659E+06    -88.0506E+06    -163.146E+06    -89.6793E+06    -161.517E+06    -83.2659E+06    -10.4920E+06         34.5769
            1925     2.74295E-03     122.879E-03     19.6878E-03     19.4472E-03    -79.6104E-03     19.6877E-03    -79.6103E-03     19.4472E-03    -177.484E-06     180.237E-03    -89.5526E-03    -90.6842E-03    -89.3557E-03     178.908E-03    -89.5526E-03     37.2494E-03    -73.5352E+06    -85.4215E+06    -156.412E+06    -88.9685E+06    -152.865E+06    -73.5352E+06    -15.2072E+06         34.8570
            1926     3.65707E-03     122.899E-03     19.9015E-03     19.4931E-03    -79.8017E-03     19.9013E-03    -79.8016E-03     19.4931E-03    -242.866E-06     181.004E-03    -89.5247E-03    -91.4788E-03    -89.1902E-03     178.715E-03    -89.5247E-03     49.1704E-03    -62.7356E+06    -83.4780E+06    -151.866E+06    -88.8914E+06    -146.453E+06    -62.7356E+06    -18.3660E+06         35.2665
            1927     4.57146E-03     122.924E-03     20.1801E-03     19.5523E-03    -80.0562E-03     20.1798E-03    -80.0559E-03     19.5523E-03    -313.299E-06     182.051E-03    -89.4939E-03    -92.5566E-03    -89.0919E-03     178.586E-03    -89.4939E-03     60.7011E-03    -50.8798E+06    -83.2465E+06    -140.245E+06    -90.0935E+06    -133.398E+06    -50.8798E+06    -18.2716E+06         35.8278
            1928     5.48490E-03     122.954E-03     20.5305E-03     19.6248E-03    -80.3555E-03     20.5301E-03    -80.3550E-03     19.6248E-03    -388.611E-06     183.394E-03    -89.4822E-03    -93.9121E-03    -89.0423E-03     178.525E-03    -89.4822E-03     72.1104E-03    -37.4824E+06    -83.8306E+06    -129.929E+06    -92.4404E+06    -121.319E+06    -37.4824E+06    -17.6542E+06         36.5734
            1929     6.40041E-03     122.992E-03     20.9170E-03     19.7103E-03    -80.6979E-03     20.9164E-03    -80.6973E-03     19.7103E-03    -469.858E-06     185.422E-03    -89.5112E-03    -95.9107E-03    -89.5512E-03     179.062E-03    -89.5112E-03     83.0055E-03    -24.4991E+06    -80.1360E+06    -121.946E+06    -93.7521E+06    -108.329E+06    -24.4991E+06    -18.1126E+06         37.5483
            1930     7.31660E-03     123.030E-03     21.3696E-03     19.8095E-03    -81.0904E-03     21.3687E-03    -81.0896E-03     19.8095E-03    -556.652E-06     189.252E-03    -89.7015E-03    -99.5501E-03    -91.8253E-03     181.527E-03    -89.7015E-03     92.7831E-03    -12.2083E+06    -71.3725E+06    -112.815E+06    -93.2322E+06    -90.9550E+06    -12.2083E+06    -19.1822E+06         38.8084
            1931     8.22726E-03     123.072E-03     21.8508E-03     19.9191E-03    -81.5150E-03     21.8497E-03    -81.5139E-03     19.9191E-03    -643.119E-06     194.461E-03    -90.1762E-03    -104.284E-03    -95.3393E-03     185.516E-03    -90.1762E-03     101.599E-03     639.467E+03    -61.6889E+06    -104.772E+06    -89.3618E+06    -77.0986E+06     639.467E+03    -19.6855E+06         40.4136
            1932     9.13542E-03     123.123E-03     22.3499E-03     20.0324E-03    -81.9434E-03     22.3485E-03    -81.9420E-03     20.0324E-03    -725.114E-06     199.692E-03    -90.9054E-03    -108.787E-03    -99.1212E-03     190.027E-03    -90.9054E-03     107.386E-03     14.3654E+06    -46.9419E+06    -93.2581E+06    -82.3505E+06    -57.8495E+06     14.3654E+06    -19.1800E+06         42.4174
            1933     10.0414E-03     123.180E-03     22.8468E-03     20.1442E-03    -82.3541E-03     22.8451E-03    -82.3525E-03     20.1442E-03    -799.827E-06     205.725E-03    -91.8723E-03    -113.853E-03    -104.125E-03     195.997E-03    -91.8723E-03     109.757E-03     25.0596E+06    -32.3734E+06    -84.7359E+06    -73.2130E+06    -43.8963E+06     25.0596E+06    -21.4289E+06         44.8490
            1934     10.9412E-03     123.248E-03     23.3143E-03     20.2476E-03    -82.7208E-03     23.3125E-03    -82.7189E-03     20.2476E-03    -857.393E-06     213.401E-03    -93.1168E-03    -120.284E-03    -110.649E-03     203.766E-03    -93.1168E-03     111.731E-03     32.5058E+06    -19.2468E+06    -75.6717E+06    -63.3083E+06    -31.6103E+06     32.5058E+06    -23.1837E+06         47.6883
            1935     11.8364E-03     123.327E-03     23.7425E-03     20.3357E-03    -83.0230E-03     23.7406E-03    -83.0212E-03     20.3357E-03    -882.991E-06     222.384E-03    -94.6878E-03    -127.696E-03    -118.476E-03     213.164E-03    -94.6878E-03     112.046E-03     39.9960E+06    -5.54153E+06    -64.4504E+06    -52.9281E+06    -17.0639E+06     39.9960E+06    -23.3059E+06         50.8491
            1936     12.7234E-03     123.416E-03     24.1181E-03     20.3963E-03    -83.2221E-03     24.1164E-03    -83.2204E-03     20.3963E-03    -851.866E-06     233.943E-03    -96.6054E-03    -137.338E-03    -127.889E-03     224.495E-03    -96.6054E-03     116.890E-03     51.6996E+06     24.5324E+06    -51.0383E+06    -42.5192E+06     16.0133E+06     51.6996E+06    -22.0567E+06         54.1765
            1937     13.6021E-03     123.535E-03     24.4452E-03     20.4235E-03    -83.2956E-03     24.4439E-03    -83.2942E-03     20.4235E-03    -745.346E-06     244.516E-03    -98.8755E-03    -145.640E-03    -136.425E-03     235.301E-03    -98.8755E-03     118.275E-03     76.7337E+06     69.7592E+06    -35.9199E+06    -32.7282E+06     66.5675E+06     76.7337E+06    -16.7464E+06         57.4676
            1938     14.4711E-03     123.659E-03     24.7481E-03     20.4130E-03    -83.2429E-03     24.7474E-03    -83.2421E-03     20.4130E-03    -556.201E-06     254.477E-03    -101.338E-03    -153.139E-03    -142.611E-03     243.949E-03    -101.338E-03     128.750E-03     120.899E+06     108.439E+06    -22.7122E+06    -21.6462E+06     118.078E+06     110.195E+06    -10.8306E+06         60.5119
            1939     15.3405E-03     123.823E-03     25.0746E-03     20.3932E-03    -83.1563E-03     25.0743E-03    -83.1561E-03     20.3932E-03    -301.476E-06     257.838E-03    -103.900E-03    -153.938E-03    -145.345E-03     249.246E-03    -103.900E-03     114.148E-03     170.529E+06     136.296E+06    -10.3938E+06    -10.1658E+06     146.773E+06     159.824E+06    -4.75020E+06         63.1274
            1940     921.557E-06     124.038E-03     18.5481E-03     15.3113E-03    -70.8339E-03     18.5478E-03    -70.8335E-03     15.3113E-03     118.243E-06     164.798E-03    -81.3645E-03    -83.4338E-03    -82.5407E-03     164.516E-03    -81.9755E-03     15.7072E-03    -91.1832E+06    -92.6204E+06    -157.523E+06    -91.8488E+06    -157.197E+06    -92.2813E+06    -3.98524E+06         33.5447
            1941     1.84106E-03     124.049E-03     17.0309E-03     16.9323E-03    -70.9301E-03     17.0307E-03    -70.9299E-03     16.9323E-03    -247.897E-06     164.638E-03    -82.1209E-03    -82.5174E-03    -81.6785E-03     163.799E-03    -82.1209E-03     27.7964E-03    -92.9046E+06    -96.3332E+06    -153.202E+06    -97.1671E+06    -152.368E+06    -92.9046E+06    -6.18939E+06         33.7344
            1942     2.76265E-03     124.064E-03     17.2098E-03     16.9649E-03    -71.0843E-03     17.2094E-03    -71.0839E-03     16.9649E-03    -357.892E-06     164.035E-03    -81.7978E-03    -82.2370E-03    -80.4448E-03     162.243E-03    -81.7978E-03     41.0519E-03    -88.1645E+06    -100.829E+06    -147.742E+06    -102.417E+06    -146.155E+06    -88.1645E+06    -5.90836E+06         34.0514
            1943     3.68673E-03     124.085E-03     17.4441E-03     17.0160E-03    -71.3061E-03     17.4434E-03    -71.3054E-03     17.0160E-03    -475.556E-06     164.735E-03    -81.4615E-03    -83.2739E-03    -80.1458E-03     161.607E-03    -81.4615E-03     54.6078E-03    -78.5419E+06    -106.323E+06    -143.661E+06    -109.126E+06    -140.858E+06    -78.5419E+06    -4.94713E+06         34.5126
            1944     4.60907E-03     124.112E-03     17.7329E-03     17.0807E-03    -71.5863E-03     17.7318E-03    -71.5852E-03     17.0807E-03    -592.773E-06     167.098E-03    -81.3202E-03    -85.7775E-03    -80.9062E-03     162.226E-03    -81.3202E-03     68.7852E-03    -67.2273E+06    -109.816E+06    -136.703E+06    -115.538E+06    -130.980E+06    -67.2273E+06    -4.32156E+06         35.1404
            1945     5.53104E-03     124.143E-03     18.1040E-03     17.1592E-03    -71.9232E-03     18.1025E-03    -71.9217E-03     17.1592E-03    -707.496E-06     170.045E-03    -81.3950E-03    -88.6496E-03    -81.8719E-03     163.267E-03    -81.3950E-03     82.1180E-03    -51.4073E+06    -106.196E+06    -127.152E+06    -116.738E+06    -116.610E+06    -51.4073E+06    -4.63854E+06         35.9673
            1946     6.45277E-03     124.178E-03     18.5094E-03     17.2499E-03    -72.3073E-03     18.5074E-03    -72.3053E-03     17.2499E-03    -817.906E-06     173.967E-03    -81.6649E-03    -92.3021E-03    -83.7677E-03     165.433E-03    -81.6649E-03     93.4680E-03    -32.0686E+06    -94.2163E+06    -119.668E+06    -113.247E+06    -100.637E+06    -32.0686E+06    -8.01532E+06         37.0376
            1947     7.37200E-03     124.223E-03     18.9734E-03     17.3492E-03    -72.7163E-03     18.9709E-03    -72.7138E-03     17.3492E-03    -922.671E-06     180.344E-03    -82.2349E-03    -98.1096E-03    -88.2298E-03     170.465E-03    -82.2349E-03     102.814E-03    -15.0102E+06    -77.1257E+06    -112.934E+06    -106.952E+06    -83.1078E+06    -15.0102E+06    -12.6346E+06         38.4045
            1948     8.28697E-03     124.274E-03     19.4577E-03     17.4541E-03    -73.1362E-03     19.4547E-03    -73.1332E-03     17.4541E-03    -1.01604E-03     189.057E-03    -83.2710E-03    -105.786E-03    -95.0731E-03     178.344E-03    -83.2710E-03     110.244E-03    -1.04994E+06    -60.7621E+06    -105.917E+06    -97.1254E+06    -69.5538E+06    -1.04994E+06    -17.5387E+06         40.1244
            1949     9.19449E-03     124.332E-03     19.9536E-03     17.5600E-03    -73.5542E-03     19.9503E-03    -73.5508E-03     17.5600E-03    -1.09129E-03     198.866E-03    -84.8014E-03    -114.064E-03    -103.034E-03     187.836E-03    -84.8014E-03     115.371E-03     11.8241E+06    -42.3659E+06    -95.5365E+06    -84.7720E+06    -53.1305E+06     11.8241E+06    -21.1815E+06         42.2449
            1950     10.0935E-03     124.400E-03     20.4444E-03     17.6616E-03    -73.9462E-03     20.4408E-03    -73.9426E-03     17.6616E-03    -1.14319E-03     209.027E-03    -86.7624E-03    -122.264E-03    -111.446E-03     198.209E-03    -86.7624E-03     117.717E-03     23.7360E+06    -24.5706E+06    -84.7064E+06    -72.9928E+06    -36.2841E+06     23.7360E+06    -23.4871E+06         44.7874
            1951     10.9867E-03     124.477E-03     20.8992E-03     17.7518E-03    -74.2880E-03     20.8955E-03    -74.2843E-03     17.7518E-03    -1.16076E-03     219.666E-03    -89.0699E-03    -130.596E-03    -120.259E-03     209.329E-03    -89.0699E-03     118.506E-03     31.6065E+06    -11.4841E+06    -76.7824E+06    -62.2746E+06    -25.9919E+06     31.6065E+06    -26.7417E+06         47.7259
            1952     11.8717E-03     124.569E-03     21.3152E-03     17.8240E-03    -74.5591E-03     21.3117E-03    -74.5556E-03     17.8240E-03    -1.13200E-03     231.108E-03    -91.6872E-03    -139.420E-03    -129.838E-03     221.525E-03    -91.6872E-03     117.523E-03     38.7235E+06     1.07482E+06    -66.8916E+06    -51.8851E+06    -13.9317E+06     38.7235E+06    -27.9390E+06         50.9698
            1953     12.7481E-03     124.674E-03     21.6782E-03     17.8677E-03    -74.7208E-03     21.6753E-03    -74.7179E-03     17.8677E-03    -1.04077E-03     243.568E-03    -94.5643E-03    -149.003E-03    -139.343E-03     233.907E-03    -94.5643E-03     121.623E-03     48.4252E+06     24.7457E+06    -53.7528E+06    -42.6513E+06     13.6442E+06     48.4252E+06    -26.3302E+06         54.3635
            1954     13.6150E-03     124.808E-03     22.0025E-03     17.8842E-03    -74.7839E-03     22.0004E-03    -74.7818E-03     17.8842E-03    -881.724E-06     252.144E-03    -97.5933E-03    -154.550E-03    -145.316E-03     242.909E-03    -97.5933E-03     120.954E-03     70.9571E+06     62.8156E+06    -38.9436E+06    -33.3003E+06     57.1723E+06     70.9571E+06    -21.8422E+06         57.7079
            1955     14.4838E-03     124.935E-03     22.3117E-03     17.8713E-03    -74.7449E-03     22.3105E-03    -74.7437E-03     17.8713E-03    -651.876E-06     260.627E-03    -100.596E-03    -160.032E-03    -149.421E-03     250.016E-03    -100.596E-03     131.240E-03     113.167E+06     103.210E+06    -25.4226E+06    -23.3807E+06     108.650E+06     105.685E+06    -15.3645E+06         60.7926
            1956     15.3455E-03     125.113E-03     22.6357E-03     17.8537E-03    -74.6709E-03     22.6353E-03    -74.6705E-03     17.8537E-03    -354.002E-06     263.834E-03    -103.565E-03    -160.269E-03    -151.632E-03     255.197E-03    -103.565E-03     115.813E-03     164.381E+06     131.174E+06    -13.1654E+06    -12.6285E+06     138.119E+06     156.900E+06    -7.52356E+06         63.4291
            1957     928.128E-06     125.207E-03     15.5047E-03     13.6428E-03    -62.5768E-03     15.5044E-03    -62.5765E-03     13.6428E-03    -26.2867E-06     146.448E-03    -72.2316E-03    -74.2161E-03    -73.7376E-03     146.078E-03    -72.3406E-03     16.4657E-03    -112.360E+06    -116.837E+06    -158.650E+06    -116.055E+06    -156.717E+06    -115.076E+06     2.29622E+06         32.6982
            1958     1.85842E-03     125.217E-03     14.6803E-03     14.5787E-03    -62.6899E-03     14.6797E-03    -62.6893E-03     14.5787E-03    -390.766E-06     145.823E-03    -72.6800E-03    -73.1435E-03    -71.8978E-03     144.687E-03    -72.7889E-03     30.4326E-03    -118.882E+06    -122.241E+06    -157.221E+06    -125.966E+06    -151.795E+06    -120.583E+06     5.06682E+06         32.9146
            1959     2.78957E-03     125.230E-03     14.8718E-03     14.6176E-03    -62.8842E-03     14.8707E-03    -62.8831E-03     14.6176E-03    -563.387E-06     145.889E-03    -72.3879E-03    -73.5007E-03    -71.0755E-03     143.463E-03    -72.3879E-03     45.0157E-03    -116.789E+06    -125.911E+06    -159.547E+06    -135.390E+06    -150.068E+06    -116.789E+06     9.09694E+06         33.2747
            1960     3.72073E-03     125.250E-03     15.1245E-03     14.6749E-03    -63.1421E-03     15.1226E-03    -63.1402E-03     14.6749E-03    -738.279E-06     147.189E-03    -72.1041E-03    -75.0850E-03    -70.8690E-03     142.973E-03    -72.1041E-03     59.9322E-03    -101.595E+06    -126.323E+06    -154.950E+06    -140.221E+06    -141.053E+06    -101.595E+06     11.3258E+06         33.7946
            1961     4.65314E-03     125.277E-03     15.4297E-03     14.7445E-03    -63.4576E-03     15.4269E-03    -63.4548E-03     14.7445E-03    -903.291E-06     150.361E-03    -72.0465E-03    -78.3146E-03    -71.9464E-03     143.993E-03    -72.0465E-03     74.7172E-03    -79.9855E+06    -121.821E+06    -145.593E+06    -139.743E+06    -127.671E+06    -79.9855E+06     8.65252E+06         34.4963
            1962     5.58387E-03     125.311E-03     15.8157E-03     14.8258E-03    -63.8243E-03     15.8119E-03    -63.8205E-03     14.8258E-03    -1.05959E-03     156.003E-03    -72.3559E-03    -83.6466E-03    -75.1284E-03     147.484E-03    -72.3559E-03     88.4371E-03    -56.3854E+06    -109.045E+06    -133.796E+06    -132.772E+06    -110.069E+06    -56.3854E+06     2.82900E+06         35.4110
            1963     6.50988E-03     125.352E-03     16.2321E-03     14.9159E-03    -64.2232E-03     16.2273E-03    -64.2185E-03     14.9159E-03    -1.20014E-03     164.200E-03    -73.1637E-03    -91.0361E-03    -80.5932E-03     153.757E-03    -73.1637E-03     100.927E-03    -33.4591E+06    -89.0548E+06    -122.563E+06    -121.629E+06    -89.9890E+06    -33.4591E+06    -4.24755E+06         36.5796
            1964     7.43066E-03     125.404E-03     16.6961E-03     15.0086E-03    -64.6294E-03     16.6904E-03    -64.6237E-03     15.0086E-03    -1.32313E-03     174.342E-03    -74.5154E-03    -99.8266E-03    -87.9863E-03     162.502E-03    -74.5154E-03     111.366E-03    -15.2193E+06    -68.9315E+06    -113.124E+06    -109.381E+06    -72.6746E+06    -15.2193E+06    -11.7947E+06         38.0515
            1965     8.34417E-03     125.466E-03     17.1760E-03     15.1011E-03    -65.0256E-03     17.1695E-03    -65.0192E-03     15.1011E-03    -1.42453E-03     186.186E-03    -76.4293E-03    -109.757E-03    -97.3426E-03     173.772E-03    -76.4293E-03     118.567E-03    -967.809E+03    -48.5114E+06    -104.813E+06    -96.5230E+06    -56.8010E+06    -967.809E+03    -19.7074E+06         39.8796
            1966     9.24873E-03     125.540E-03     17.6558E-03     15.1901E-03    -65.4009E-03     17.6488E-03    -65.3939E-03     15.1901E-03    -1.49630E-03     199.575E-03    -78.9183E-03    -120.657E-03    -108.321E-03     187.240E-03    -78.9183E-03     123.168E-03     10.0864E+06    -32.0777E+06    -97.5857E+06    -84.2029E+06    -45.4606E+06     10.0864E+06    -26.2031E+06         42.1062
            1967     10.1440E-03     125.622E-03     18.1299E-03     15.2724E-03    -65.7454E-03     18.1227E-03    -65.7382E-03     15.2724E-03    -1.52823E-03     213.593E-03    -81.9331E-03    -131.660E-03    -119.913E-03     201.847E-03    -81.9331E-03     125.087E-03     21.5882E+06    -17.0410E+06    -86.0387E+06     -71.448E+06    -31.6317E+06     21.5882E+06    -28.0112E+06         44.7453
            1968     11.0280E-03     125.715E-03     18.5653E-03     15.3424E-03    -66.0383E-03     18.5583E-03    -66.0313E-03     15.3424E-03    -1.51199E-03     227.719E-03    -85.3610E-03    -142.358E-03    -131.372E-03     216.733E-03    -85.3610E-03     125.550E-03     32.6171E+06    -438.063E+03    -75.6032E+06    -59.7864E+06    -16.2548E+06     32.6171E+06    -30.2856E+06         47.7641
            1969     11.9023E-03     125.824E-03     18.9589E-03     15.3947E-03    -66.2586E-03     18.9526E-03    -66.2523E-03     15.3947E-03    -1.44284E-03     241.040E-03    -89.0518E-03    -151.988E-03    -141.769E-03     230.821E-03    -89.0518E-03     125.007E-03     37.3429E+06     7.98491E+06    -69.6762E+06    -50.3049E+06    -11.3864E+06     37.3429E+06    -32.9508E+06         51.0703
            1970     12.7677E-03     125.944E-03     19.3079E-03     15.4227E-03    -66.3898E-03     19.3028E-03    -66.3847E-03     15.4227E-03    -1.30663E-03     252.609E-03    -92.8260E-03    -159.783E-03    -149.556E-03     242.382E-03    -92.8260E-03     128.249E-03     45.7184E+06     25.4369E+06    -55.7408E+06    -40.1496E+06     9.84573E+06     45.7184E+06    -30.6624E+06         54.5128
            1971     13.6318E-03     126.087E-03     19.6264E-03     15.4327E-03    -66.4546E-03     19.6228E-03    -66.4510E-03     15.4327E-03    -1.09969E-03     259.501E-03    -96.5320E-03    -162.969E-03    -153.609E-03     250.141E-03    -96.5320E-03     124.031E-03     68.6842E+06     58.8433E+06    -38.2409E+06    -30.3959E+06     50.9983E+06     68.6842E+06    -25.3933E+06         57.8957
            1972     14.4892E-03     126.219E-03     19.9272E-03     15.4202E-03    -66.4264E-03     19.9252E-03    -66.4244E-03     15.4202E-03    -815.498E-06     266.770E-03    -100.030E-03    -166.740E-03    -156.150E-03     256.180E-03    -100.030E-03     133.005E-03     106.318E+06     98.3071E+06    -24.4843E+06    -21.3018E+06     99.1774E+06     102.265E+06    -18.1937E+06         61.0063
            1973     15.3483E-03     126.407E-03     20.2402E-03     15.4056E-03    -66.3629E-03     20.2394E-03    -66.3622E-03     15.4056E-03    -455.446E-06     268.161E-03    -103.348E-03    -164.814E-03    -156.130E-03     259.478E-03    -103.348E-03     117.285E-03     158.994E+06     123.079E+06    -12.1902E+06    -11.3399E+06     126.281E+06     154.941E+06    -10.1853E+06         63.6542
            1974     939.225E-06     126.354E-03     12.8254E-03     11.8674E-03    -54.6334E-03     12.8250E-03    -54.6330E-03     11.8674E-03    -174.250E-06     124.134E-03    -61.2848E-03    -62.8492E-03    -61.6617E-03     123.641E-03    -61.9788E-03     17.7778E-03    -154.372E+06    -176.328E+06    -195.217E+06    -179.028E+06    -171.083E+06    -175.806E+06     10.6531E+06         31.9387
            1975     1.87962E-03     126.360E-03     12.4755E-03     12.3592E-03    -54.7821E-03     12.4743E-03    -54.7809E-03     12.3592E-03    -547.613E-06     124.538E-03    -61.6597E-03    -62.8782E-03    -61.2917E-03     123.060E-03    -61.7687E-03     32.1007E-03    -149.938E+06    -166.994E+06    -192.701E+06    -180.300E+06    -162.812E+06    -166.522E+06     16.8830E+06         32.1831
            1976     2.81992E-03     126.373E-03     12.6745E-03     12.4055E-03    -55.0061E-03     12.6720E-03    -55.0036E-03     12.4055E-03    -784.550E-06     126.373E-03    -61.7399E-03    -64.6334E-03    -61.5252E-03     123.265E-03    -61.7399E-03     47.5417E-03    -141.779E+06    -150.945E+06    -190.052E+06    -177.291E+06    -157.725E+06    -147.760E+06     18.9420E+06         32.5869
            1977     3.76017E-03     126.393E-03     12.9436E-03     12.4679E-03    -55.3018E-03     12.9395E-03    -55.2977E-03     12.4679E-03    -1.02159E-03     129.851E-03    -61.9290E-03    -67.9219E-03    -62.6619E-03     124.591E-03    -61.9290E-03     63.0947E-03    -120.548E+06    -132.806E+06    -176.899E+06    -167.336E+06    -142.368E+06    -120.548E+06     16.9786E+06         33.1655
            1978     4.69920E-03     126.422E-03     13.2662E-03     12.5407E-03    -55.6511E-03     13.2604E-03    -55.6452E-03     12.5407E-03    -1.24022E-03     135.404E-03    -62.4249E-03    -72.9793E-03    -65.3308E-03     127.756E-03    -62.4249E-03     78.0533E-03    -87.9794E+06    -116.120E+06    -156.446E+06    -152.035E+06    -120.531E+06    -87.9794E+06     10.5295E+06         33.9390
            1979     5.63538E-03     126.461E-03     13.6569E-03     12.6202E-03    -56.0302E-03     13.6491E-03    -56.0224E-03     12.6202E-03    -1.43981E-03     144.005E-03    -63.3763E-03    -80.6287E-03    -70.6740E-03     134.050E-03    -63.3763E-03     92.2949E-03    -58.2903E+06    -99.3428E+06    -136.478E+06    -135.504E+06    -100.316E+06    -58.2903E+06     1.88958E+06         34.9360
            1980     6.56579E-03     126.513E-03     14.0747E-03     12.7019E-03    -56.4179E-03     14.0651E-03    -56.4083E-03     12.7019E-03    -1.61422E-03     155.775E-03    -64.9380E-03    -90.8370E-03    -78.8856E-03     143.824E-03    -64.9380E-03     105.839E-03    -34.6722E+06    -77.0993E+06    -120.850E+06    -119.730E+06    -78.2188E+06    -34.6722E+06    -5.93759E+06         36.1939
            1981     7.48690E-03     126.578E-03     14.5286E-03     12.7810E-03    -56.7958E-03     14.5173E-03    -56.7845E-03     12.7810E-03    -1.76100E-03     169.841E-03    -67.1823E-03    -102.659E-03    -89.2446E-03     156.427E-03    -67.1823E-03     117.858E-03    -15.5541E+06    -54.1865E+06    -109.586E+06    -104.979E+06    -58.7935E+06    -15.5541E+06    -14.6758E+06         37.7585
            1982     8.39839E-03     126.656E-03     14.9950E-03     12.8546E-03    -57.1479E-03     14.9824E-03    -57.1352E-03     12.8546E-03    -1.87280E-03     185.442E-03    -70.0824E-03    -115.359E-03    -101.254E-03     171.337E-03    -70.0824E-03     127.118E-03    -405.430E+03    -34.5041E+06    -101.381E+06    -92.3257E+06    -43.5594E+06    -405.430E+03    -22.8013E+06         39.6778
            1983     9.29911E-03     126.747E-03     15.4527E-03     12.9203E-03    -57.4631E-03     15.4394E-03    -57.4498E-03     12.9203E-03    -1.93966E-03     202.157E-03    -73.5925E-03    -128.564E-03    -114.653E-03     188.246E-03    -73.5925E-03     132.656E-03     11.9627E+06    -18.3980E+06    -94.7746E+06    -79.9349E+06    -33.2377E+06     11.9627E+06    -29.9332E+06         41.9888
            1984     10.1872E-03     126.849E-03     15.8997E-03     12.9765E-03    -57.7357E-03     15.8862E-03    -57.7223E-03     12.9765E-03    -1.95778E-03     219.457E-03    -77.6427E-03    -141.814E-03    -128.755E-03     206.397E-03    -77.6427E-03     134.715E-03     21.6163E+06    -6.45223E+06    -87.4544E+06    -67.1452E+06    -26.7614E+06     21.6163E+06    -34.9728E+06         44.7000
            1985     11.0634E-03     126.964E-03     16.3070E-03     13.0210E-03    -57.9582E-03     16.2943E-03    -57.9455E-03     13.0210E-03    -1.91498E-03     235.925E-03    -82.0951E-03    -153.830E-03    -141.785E-03     223.880E-03    -82.0951E-03     134.783E-03     32.7077E+06     8.27591E+06    -74.1887E+06    -54.8278E+06    -11.0849E+06     32.7077E+06    -34.6601E+06         47.7746
            1986     11.9291E-03     127.089E-03     16.6740E-03     13.0521E-03    -58.1264E-03     16.6627E-03    -58.1151E-03     13.0521E-03    -1.80921E-03     249.807E-03    -86.7257E-03    -163.081E-03    -151.997E-03     238.722E-03    -86.7257E-03     133.384E-03     39.7679E+06     16.5140E+06    -66.7888E+06    -45.1478E+06      -5.127E+06     39.7679E+06    -36.0212E+06         51.1211
            1987     12.7888E-03     127.224E-03     17.0043E-03     13.0668E-03    -58.2325E-03     16.9951E-03    -58.2234E-03     13.0668E-03    -1.63215E-03     260.766E-03    -91.2768E-03    -169.489E-03    -158.801E-03     250.077E-03    -91.2768E-03     133.933E-03     45.6721E+06     27.3128E+06    -58.1128E+06    -37.2954E+06     6.49543E+06     45.6721E+06    -35.6237E+06         54.5916
            1988     13.6419E-03     127.374E-03     17.3071E-03     13.0719E-03    -58.2953E-03     17.3006E-03    -58.2887E-03     13.0719E-03    -1.37295E-03     266.823E-03    -95.6010E-03    -171.222E-03    -161.726E-03     257.327E-03    -95.6010E-03     127.274E-03     66.7253E+06     53.4375E+06    -39.9622E+06    -29.1095E+06     42.5848E+06     66.7253E+06    -28.5489E+06         57.9920
            1989     14.4957E-03     127.515E-03     17.5971E-03     13.0616E-03    -58.2900E-03     17.5934E-03    -58.2863E-03     13.0616E-03    -1.02444E-03     272.608E-03    -99.5516E-03    -173.056E-03    -162.432E-03     261.984E-03    -99.5516E-03     135.166E-03     101.187E+06      90.548E+06    -24.9403E+06    -20.4033E+06     89.7551E+06     97.4428E+06    -21.3726E+06         61.1103
            1990     15.3497E-03     127.701E-03     17.8997E-03     13.0536E-03    -58.2573E-03     17.8984E-03    -58.2559E-03     13.0536E-03    -581.949E-06     271.526E-03    -103.166E-03    -168.360E-03    -159.670E-03     262.836E-03    -103.166E-03     118.574E-03     153.547E+06     109.838E+06    -11.3592E+06    -9.88799E+06     112.111E+06     149.803E+06    -12.4906E+06         63.7572
            1991     952.003E-06     127.471E-03     10.5052E-03     10.0267E-03    -47.0281E-03     10.5045E-03    -47.0274E-03     10.0267E-03    -325.475E-06     100.404E-03    -49.4407E-03    -50.9628E-03    -49.7719E-03     99.7977E-03    -50.0257E-03     18.0247E-03    -184.598E+06    -274.078E+06    -282.582E+06    -278.167E+06    -187.030E+06    -276.060E+06     5.25417E+06         31.3308
            1992     1.90166E-03     127.478E-03     10.4113E-03     10.2813E-03    -47.1938E-03     10.4090E-03    -47.1915E-03     10.2813E-03    -695.339E-06     103.033E-03    -50.2419E-03    -52.7907E-03    -51.0006E-03     101.243E-03    -50.2419E-03     32.2024E-03    -169.846E+06    -240.529E+06    -259.998E+06    -255.392E+06    -174.452E+06    -240.529E+06     7.91239E+06         31.5998
            1993     2.85153E-03     127.492E-03     10.6168E-03     10.3311E-03    -47.4426E-03     10.6121E-03    -47.4380E-03     10.3311E-03    -1.01051E-03     107.469E-03    -50.9318E-03    -56.5369E-03    -52.7995E-03     103.731E-03    -50.9318E-03     48.3175E-03    -154.408E+06    -195.499E+06    -228.664E+06    -223.574E+06    -159.679E+06    -195.318E+06     5.95387E+06         32.0421
            1994     3.79931E-03     127.516E-03     10.8956E-03     10.3938E-03    -47.7611E-03     10.8879E-03    -47.7534E-03     10.3938E-03    -1.31448E-03     114.247E-03    -51.9357E-03    -62.3118E-03    -56.2149E-03     108.151E-03    -51.9357E-03     64.1371E-03    -131.156E+06    -150.905E+06    -193.811E+06    -189.237E+06    -139.254E+06    -147.381E+06     976.504E+03         32.6711
            1995     4.74315E-03     127.550E-03     11.2260E-03     10.4639E-03    -48.1219E-03     11.2148E-03    -48.1107E-03     10.4639E-03    -1.59274E-03     123.436E-03    -53.3586E-03    -70.0774E-03    -61.4933E-03     114.852E-03    -53.3586E-03     79.5187E-03    -99.0540E+06    -115.816E+06    -160.626E+06    -157.747E+06    -113.596E+06    -104.154E+06    -3.11753E+06         33.5044
            1996     5.68180E-03     127.598E-03     11.6141E-03     10.5355E-03    -48.4967E-03     11.5994E-03    -48.4820E-03     10.5355E-03    -1.84180E-03     135.207E-03    -55.2850E-03    -79.9216E-03    -68.9133E-03     124.198E-03    -55.2850E-03     94.7331E-03    -68.5880E+06    -90.0734E+06    -135.204E+06    -133.376E+06    -91.9010E+06    -68.5880E+06    -6.68094E+06         34.5672
            1997     6.61283E-03     127.663E-03     12.0271E-03     10.6035E-03    -48.8603E-03     12.0091E-03    -48.8423E-03     10.6035E-03    -2.05433E-03     149.581E-03    -57.7820E-03    -91.7991E-03    -78.7414E-03     136.523E-03    -57.7820E-03     109.173E-03    -39.0941E+06    -63.1692E+06    -117.782E+06    -114.454E+06    -66.4976E+06    -39.0941E+06    -12.4003E+06         35.8943
            1998     7.53505E-03     127.744E-03     12.4648E-03     10.6637E-03    -49.1939E-03     12.4440E-03    -49.1731E-03     10.6637E-03    -2.22475E-03     166.375E-03    -60.9139E-03    -105.462E-03    -90.9068E-03     151.821E-03    -60.9139E-03     122.365E-03    -14.7688E+06    -37.6197E+06    -104.715E+06    -97.6973E+06    -44.6376E+06    -14.7688E+06    -20.0813E+06         37.5277
            1999     8.44531E-03     127.842E-03     12.9110E-03     10.7138E-03    -49.4836E-03     12.8882E-03    -49.4608E-03     10.7138E-03    -2.34699E-03     185.156E-03    -64.6962E-03    -120.460E-03    -105.095E-03     169.792E-03    -64.6962E-03     133.513E-03     4.27021E+06    -18.5613E+06    -93.9410E+06    -81.6190E+06    -30.8833E+06     4.27021E+06    -27.5990E+06         39.5110
            2000     9.34215E-03     127.955E-03     13.3401E-03     10.7520E-03    -49.7217E-03     13.3163E-03    -49.6979E-03     10.7520E-03    -2.41157E-03     205.030E-03    -69.0928E-03    -135.938E-03    -120.584E-03     189.676E-03    -69.0928E-03     141.314E-03     18.6563E+06    -3.49554E+06    -85.2389E+06    -67.9212E+06    -20.8132E+06     18.6563E+06    -33.2466E+06         41.8764
            2001     10.2253E-03     128.082E-03     13.7509E-03     10.7785E-03    -49.9077E-03     13.7272E-03    -49.8840E-03     10.7785E-03    -2.41695E-03     224.900E-03    -74.0085E-03    -150.892E-03    -136.184E-03     210.192E-03    -74.0085E-03     145.608E-03     27.8584E+06     7.15581E+06    -80.9441E+06    -57.4784E+06    -16.3099E+06     27.8584E+06    -38.8168E+06         44.6288
            2002     11.0946E-03     128.219E-03     14.1248E-03     10.7951E-03    -50.0519E-03     14.1026E-03    -50.0297E-03     10.7951E-03    -2.35140E-03     243.019E-03    -79.2716E-03    -163.747E-03    -150.135E-03     229.407E-03    -79.2716E-03     146.138E-03     35.4254E+06     16.8092E+06    -74.0809E+06    -46.9729E+06    -10.2988E+06     35.4254E+06    -41.3269E+06         47.7300
            2003     11.9541E-03     128.363E-03     14.4603E-03     10.8046E-03    -50.1660E-03     14.4408E-03    -50.1466E-03     10.8046E-03    -2.20764E-03     257.532E-03    -84.6527E-03    -172.880E-03    -160.659E-03     245.312E-03    -84.6527E-03     142.821E-03     44.5209E+06     21.6554E+06    -60.8917E+06    -36.5250E+06    -2.71129E+06     44.5209E+06    -37.3971E+06         51.0893
            2004     12.8051E-03     128.511E-03     14.7626E-03     10.8064E-03    -50.2440E-03     14.7470E-03    -50.2283E-03     10.8064E-03    -1.98479E-03     268.353E-03    -89.8673E-03    -178.485E-03    -167.101E-03     256.969E-03    -89.8673E-03     140.791E-03     51.4821E+06     29.1137E+06    -51.3036E+06    -30.3363E+06     8.14635E+06     51.4821E+06    -35.2245E+06         54.5611
            2005     13.6543E-03     128.671E-03     15.0445E-03     10.8069E-03    -50.3106E-03     15.0333E-03    -50.2994E-03     10.8069E-03    -1.67142E-03     273.850E-03    -94.7417E-03    -179.108E-03    -169.278E-03     264.020E-03    -94.7417E-03     131.623E-03     68.1276E+06     46.3374E+06    -39.2198E+06    -24.3153E+06     31.4329E+06     68.1276E+06    -31.2761E+06         57.9549
            2006     14.5021E-03     128.813E-03     15.3175E-03     10.8002E-03    -50.3380E-03     15.3111E-03    -50.3316E-03     10.8002E-03    -1.25520E-03     277.726E-03    -99.1168E-03    -178.610E-03    -168.198E-03     267.315E-03    -99.1168E-03     135.623E-03     100.782E+06     84.4597E+06    -23.4235E+06    -17.3305E+06     80.8010E+06     98.3478E+06    -22.0890E+06         61.0605
            2007     15.3522E-03     129.004E-03     15.6114E-03     10.8021E-03    -50.3636E-03     15.6091E-03    -50.3612E-03     10.8021E-03    -713.641E-06     274.201E-03    -103.004E-03    -171.197E-03    -162.860E-03     265.864E-03    -103.004E-03     117.084E-03     150.425E+06     97.4631E+06    -12.7153E+06    -10.9482E+06     98.1304E+06     147.990E+06    -13.4006E+06         63.6916
            2008     960.814E-06     128.563E-03     8.46681E-03     8.21134E-03    -39.7483E-03     8.46556E-03    -39.7471E-03     8.21134E-03    -435.000E-06     80.1604E-03    -39.3316E-03    -40.8287E-03    -40.1634E-03     79.4950E-03    -39.3316E-03     16.7055E-03    -181.804E+06    -325.709E+06    -331.808E+06    -329.637E+06    -182.940E+06    -326.744E+06    -9.99088E+06         30.9211
            2009     1.92211E-03     128.573E-03     8.48741E-03     8.35077E-03    -39.9165E-03     8.48343E-03    -39.9126E-03     8.35077E-03    -840.693E-06     84.3920E-03    -40.3015E-03    -44.0906E-03    -42.1320E-03     82.4335E-03    -40.3015E-03     30.7720E-03    -163.981E+06    -295.109E+06    -309.562E+06    -306.318E+06    -167.225E+06    -295.109E+06    -18.2383E+06         31.2084
            2010     2.87934E-03     128.591E-03     8.69406E-03     8.39660E-03    -40.1706E-03     8.68591E-03    -40.1624E-03     8.39660E-03    -1.22851E-03     91.6635E-03    -41.6192E-03    -50.0443E-03    -46.0506E-03     87.6697E-03    -41.6192E-03     46.5015E-03    -142.277E+06    -251.050E+06    -279.318E+06    -272.948E+06    -148.646E+06    -251.050E+06    -26.4480E+06         31.6788
            2011     3.83245E-03     128.621E-03     8.96981E-03     8.45228E-03    -40.4833E-03     8.95632E-03    -40.4698E-03     8.45228E-03    -1.59934E-03     101.541E-03    -43.4740E-03    -58.0673E-03    -51.6170E-03     95.0910E-03    -43.4740E-03     62.6910E-03    -118.083E+06    -200.274E+06    -244.676E+06    -234.480E+06    -128.279E+06    -200.274E+06    -33.5801E+06         32.3435
            2012     4.77976E-03     128.665E-03     9.29695E-03     8.51183E-03    -40.8308E-03     9.27748E-03    -40.8113E-03     8.51183E-03    -1.93955E-03     114.082E-03    -45.8605E-03    -68.2220E-03    -59.2093E-03     105.070E-03    -45.8605E-03     78.9656E-03    -94.2018E+06    -149.373E+06    -206.629E+06    -193.086E+06    -108.985E+06    -148.133E+06    -35.6223E+06         33.2174
            2013     5.71921E-03     128.725E-03     9.67451E-03     8.56923E-03    -41.1837E-03     9.64895E-03    -41.1581E-03     8.56923E-03    -2.24133E-03     129.033E-03    -48.7877E-03    -80.2457E-03    -68.7230E-03     117.511E-03    -48.7877E-03     95.4473E-03    -67.5168E+06    -102.254E+06    -166.264E+06    -150.766E+06    -87.5927E+06    -97.6769E+06    -33.8706E+06         34.3225
            2014     6.65032E-03     128.805E-03     10.0791E-03     8.61933E-03    -41.5132E-03     10.0479E-03    -41.4820E-03     8.61933E-03    -2.49552E-03     145.952E-03    -52.2468E-03    -93.7051E-03    -80.0497E-03     132.297E-03    -52.2468E-03     111.105E-03    -36.5460E+06    -57.0420E+06    -129.397E+06    -112.873E+06    -59.6490E+06    -50.4624E+06    -32.3873E+06         35.6898
            2015     7.57063E-03     128.905E-03     10.4981E-03     8.65786E-03    -41.7972E-03     10.4624E-03    -41.7615E-03     8.65786E-03    -2.69127E-03     164.802E-03    -56.2381E-03    -108.564E-03    -93.3851E-03     149.623E-03    -56.2381E-03     125.192E-03    -10.2149E+06    -23.0930E+06    -101.243E+06    -84.6241E+06    -36.5368E+06    -13.3896E+06    -31.6289E+06         37.3582
            2016     8.47915E-03     129.024E-03     10.9192E-03     8.68235E-03    -42.0191E-03     10.8804E-03    -41.9803E-03     8.68235E-03    -2.82391E-03     185.330E-03    -60.7697E-03    -124.561E-03    -108.481E-03     169.251E-03    -60.7697E-03     137.433E-03     11.1525E+06    -5.78261E+06    -84.3083E+06    -68.0944E+06    -21.9966E+06     11.1525E+06    -31.6110E+06         39.3679
            2017     9.37393E-03     129.163E-03     11.3162E-03     8.69211E-03    -42.1742E-03     11.2762E-03    -42.1341E-03     8.69211E-03    -2.88503E-03     206.705E-03    -65.8130E-03    -140.892E-03    -124.568E-03     190.381E-03    -65.8130E-03     147.004E-03     26.8262E+06     7.18419E+06    -76.7872E+06    -59.4277E+06    -10.1754E+06     26.8262E+06    -33.9023E+06         41.7491
            2018     10.2544E-03     129.315E-03     11.6873E-03     8.68909E-03    -42.2717E-03     11.6480E-03    -42.2324E-03     8.68909E-03    -2.87144E-03     227.733E-03    -71.2831E-03    -156.450E-03    -140.508E-03     211.791E-03    -71.2831E-03     153.137E-03     37.6556E+06     22.0145E+06    -74.0775E+06    -51.3572E+06    -705.842E+03     37.6556E+06    -40.5795E+06         44.5060
            2019     11.1219E-03     129.478E-03     12.0200E-03     8.67798E-03    -42.3302E-03     11.9836E-03    -42.2937E-03     8.67798E-03    -2.77687E-03     246.992E-03    -77.0387E-03    -169.953E-03    -154.992E-03     232.031E-03    -77.0387E-03     154.950E-03     42.9348E+06     26.7561E+06    -73.8367E+06    -41.8827E+06    -5.19790E+06     42.9348E+06    -46.3536E+06         47.6008
            2020     11.9762E-03     129.644E-03     12.3131E-03     8.66484E-03    -42.3783E-03     12.2815E-03    -42.3467E-03     8.66484E-03    -2.59272E-03     262.970E-03    -82.8909E-03    -180.079E-03    -166.651E-03     249.542E-03    -82.8909E-03     151.720E-03     47.5154E+06     22.8537E+06    -65.5373E+06    -31.6985E+06    -10.9851E+06     47.5154E+06    -42.6430E+06         50.9424
            2021     12.8236E-03     129.807E-03     12.5806E-03     8.65240E-03    -42.4273E-03     12.5554E-03    -42.4021E-03     8.65240E-03    -2.31803E-03     274.444E-03    -88.6034E-03    -185.841E-03    -173.811E-03     262.414E-03    -88.6034E-03     146.794E-03     59.2361E+06     27.8457E+06    -45.8732E+06    -22.9907E+06     4.96323E+06     59.2361E+06    -33.0510E+06         54.3865
            2022     13.6663E-03     129.975E-03     12.8317E-03     8.64702E-03    -42.4926E-03     12.8139E-03    -42.4748E-03     8.64702E-03    -1.94700E-03     279.881E-03    -93.9448E-03    -185.936E-03    -175.880E-03     269.825E-03    -93.9448E-03     135.021E-03     76.1210E+06     41.0622E+06    -32.6237E+06    -19.6172E+06     28.0557E+06     76.1210E+06    -27.6847E+06         57.7471
            2023     14.5066E-03     130.125E-03     13.0823E-03     8.64444E-03    -42.5606E-03     13.0721E-03    -42.5505E-03     8.64444E-03    -1.46076E-03     281.962E-03    -98.6954E-03    -183.266E-03    -173.206E-03     271.901E-03    -98.6954E-03     134.944E-03     103.415E+06     77.6263E+06    -22.1713E+06    -14.9527E+06     70.4077E+06     103.415E+06    -22.9986E+06         60.8191
            2024     15.3542E-03     130.303E-03     13.3737E-03     8.65789E-03    -42.6749E-03     13.3700E-03    -42.6712E-03     8.65789E-03    -827.789E-06     276.743E-03    -102.835E-03    -173.908E-03    -166.019E-03     268.854E-03    -102.835E-03     115.150E-03     152.111E+06     84.1529E+06    -8.12257E+06    -5.94540E+06     81.9758E+06     152.111E+06    -12.1905E+06         63.4202
            2025     968.872E-06     129.635E-03     6.62986E-03     6.49166E-03    -32.7542E-03     6.62774E-03    -32.7521E-03     6.49166E-03    -517.315E-06     67.7909E-03    -33.1497E-03    -34.6412E-03    -34.1028E-03     67.2541E-03    -33.1513E-03     13.6692E-03    -152.700E+06    -276.278E+06    -284.691E+06    -281.939E+06    -155.452E+06    -276.278E+06    -17.2209E+06         30.7297
            2026     1.93484E-03     129.649E-03     6.70364E-03     6.56542E-03    -32.9134E-03     6.69709E-03    -32.9069E-03     6.56542E-03    -979.205E-06     73.0317E-03    -34.3413E-03    -38.6904E-03    -37.0420E-03     71.3833E-03    -34.3413E-03     26.2738E-03    -130.471E+06    -258.709E+06    -280.842E+06    -272.400E+06    -138.913E+06    -258.709E+06    -33.1626E+06         31.0273
            2027     2.89718E-03     129.675E-03     6.90213E-03     6.60163E-03    -33.1478E-03     6.88873E-03    -33.1344E-03     6.60163E-03    -1.42741E-03     81.5730E-03    -36.0668E-03    -45.5062E-03    -42.0871E-03     78.1539E-03    -36.0668E-03     40.7360E-03    -106.209E+06    -232.148E+06    -273.660E+06    -257.661E+06    -122.208E+06    -232.148E+06    -48.0256E+06         31.5128
            2028     3.85357E-03     129.714E-03     7.16367E-03     6.64451E-03    -33.4368E-03     7.14150E-03    -33.4146E-03     6.64451E-03    -1.85872E-03     93.1320E-03    -38.4179E-03    -54.7141E-03    -49.0019E-03     87.4198E-03    -38.4179E-03     56.7516E-03    -82.4817E+06    -198.585E+06    -261.326E+06    -237.310E+06    -106.497E+06    -198.585E+06    -59.7389E+06         32.1955
            2029     4.80290E-03     129.770E-03     7.47845E-03     6.68800E-03    -33.7522E-03     7.44650E-03    -33.7203E-03     6.68800E-03    -2.25486E-03     107.578E-03    -41.3644E-03    -66.2131E-03    -57.9312E-03     99.2956E-03    -41.3644E-03     73.9255E-03    -63.6333E+06    -161.265E+06    -242.727E+06    -210.748E+06    -95.6130E+06    -161.265E+06    -67.7258E+06         33.0874
            2030     5.74334E-03     129.846E-03     7.83677E-03     6.72665E-03    -34.0657E-03     7.79499E-03    -34.0239E-03     6.72665E-03    -2.60347E-03     124.605E-03    -44.8811E-03    -79.7239E-03    -68.8786E-03     113.760E-03    -44.8811E-03     91.5557E-03    -43.4314E+06    -122.956E+06    -216.291E+06    -178.861E+06    -80.8618E+06    -122.956E+06    -71.0385E+06         34.2070
            2031     6.67313E-03     129.943E-03     8.22274E-03     6.75557E-03    -34.3489E-03     8.17199E-03    -34.2981E-03     6.75557E-03    -2.89490E-03     143.687E-03    -48.9736E-03    -94.7131E-03    -81.5997E-03     130.573E-03    -48.9736E-03     108.675E-03    -19.4186E+06    -78.9703E+06    -181.445E+06    -143.103E+06    -57.7604E+06    -78.9703E+06    -68.7406E+06         35.5815
            2032     7.59168E-03     130.063E-03     8.61769E-03     6.77068E-03    -34.5770E-03     8.55978E-03    -34.5191E-03     6.77068E-03    -3.11662E-03     164.323E-03    -53.6169E-03    -110.706E-03    -95.8772E-03     149.494E-03    -53.6169E-03     124.203E-03    -2.38729E+06    -35.6999E+06    -142.901E+06    -107.036E+06    -40.4854E+06    -33.4673E+06    -60.3853E+06         37.2464
            2033     8.49725E-03     130.205E-03     9.01032E-03     6.76987E-03    -34.7341E-03     8.94789E-03    -34.6716E-03     6.76987E-03    -3.25813E-03     185.817E-03    -58.7197E-03    -127.097E-03    -111.180E-03     169.900E-03    -58.7197E-03     137.472E-03     11.5682E+06    -4.33878E+06    -104.887E+06    -74.8923E+06    -27.2479E+06     4.48221E+06    -47.9183E+06         39.2398
            2034     9.39016E-03     130.368E-03     9.37617E-03     6.75338E-03    -34.8163E-03     9.31237E-03    -34.7525E-03     6.75338E-03    -3.31173E-03     207.309E-03    -64.1836E-03    -143.126E-03    -126.763E-03     190.947E-03    -64.1836E-03     147.811E-03     33.5081E+06     19.1724E+06    -74.4084E+06    -49.8312E+06    -5.40483E+06     33.5081E+06    -40.4388E+06         41.5925
            2035     10.2700E-03     130.547E-03     9.70644E-03     6.72416E-03    -34.8340E-03     9.64468E-03    -34.7722E-03     6.72416E-03    -3.27221E-03     228.020E-03    -69.9295E-03    -158.091E-03    -141.921E-03     211.850E-03    -69.9295E-03     154.609E-03     51.9563E+06     31.9460E+06    -57.7750E+06    -35.5313E+06     9.70234E+06     51.9563E+06    -38.3228E+06         44.3113
            2036     11.1365E-03     130.735E-03     9.99290E-03     6.68798E-03    -34.8117E-03     9.93655E-03    -34.7553E-03     6.68798E-03    -3.13610E-03     247.114E-03    -75.8591E-03    -171.254E-03    -155.936E-03     231.795E-03    -75.8591E-03     157.029E-03     58.4445E+06     30.2418E+06    -58.2587E+06    -33.4410E+06     5.42407E+06     58.4445E+06    -39.1629E+06         47.3615
            2037     11.9931E-03     130.925E-03     10.2336E-03     6.65217E-03    -34.7830E-03     10.1856E-03    -34.7351E-03     6.65217E-03    -2.90104E-03     263.809E-03    -81.8465E-03    -181.962E-03    -168.119E-03     249.966E-03    -81.8465E-03     154.479E-03     56.2566E+06     19.8092E+06    -67.8836E+06    -35.7511E+06    -12.3233E+06     56.2566E+06    -41.4350E+06         50.6542
            2038     12.8367E-03     131.109E-03     10.4492E-03     6.62301E-03    -34.7794E-03     10.4117E-03    -34.7419E-03     6.62301E-03    -2.56802E-03     276.603E-03    -87.7256E-03    -188.878E-03    -176.618E-03     264.344E-03    -87.7256E-03     148.972E-03     60.9070E+06     21.8196E+06    -59.3592E+06    -31.6757E+06    -5.86394E+06     60.9070E+06    -37.5287E+06         54.0455
            2039     13.6751E-03     131.285E-03     10.6610E-03     6.60904E-03    -34.8373E-03     10.6352E-03    -34.8114E-03     6.60904E-03    -2.13405E-03     283.029E-03    -93.3056E-03    -189.723E-03    -179.566E-03     272.872E-03    -93.3056E-03     136.751E-03     82.7710E+06     40.4136E+06    -35.9570E+06    -20.0919E+06     24.5484E+06     82.7710E+06    -30.2688E+06         57.3525
            2040     14.5154E-03     131.440E-03     10.8877E-03     6.60880E-03    -34.9520E-03     10.8732E-03    -34.9375E-03     6.60880E-03    -1.58797E-03     284.447E-03    -98.3039E-03    -186.143E-03    -176.743E-03     275.047E-03    -98.3039E-03     131.496E-03     109.632E+06     65.5197E+06    -18.4073E+06    -10.8190E+06     57.9315E+06     109.632E+06    -20.9739E+06         60.3756
            2041     15.3592E-03     131.609E-03     11.1742E-03     6.63226E-03    -35.1601E-03     11.1690E-03    -35.1548E-03     6.63226E-03    -898.153E-06     278.734E-03    -102.640E-03    -176.094E-03    -168.989E-03     271.628E-03    -102.640E-03     110.432E-03     152.188E+06     64.7929E+06    -8.42454E+06    -6.80181E+06     63.1702E+06     152.188E+06    -8.58302E+06         62.9371
            2042     969.226E-06     130.701E-03     4.96760E-03     4.88797E-03    -25.9833E-03     4.96432E-03    -25.9800E-03     4.88797E-03    -581.919E-06     67.1842E-03    -33.0411E-03    -34.1432E-03    -33.8789E-03     66.9216E-03    -33.0427E-03     9.22059E-03    -113.003E+06    -194.797E+06    -204.585E+06    -199.634E+06    -117.954E+06    -194.797E+06    -19.0709E+06         30.7463
            2043     1.93599E-03     130.719E-03     5.05877E-03     4.92411E-03    -26.1220E-03     5.04880E-03    -26.1120E-03     4.92411E-03    -1.07292E-03     72.2768E-03    -34.2715E-03    -38.0052E-03    -37.1310E-03     71.4026E-03    -34.2715E-03     18.2649E-03    -87.9599E+06    -174.395E+06    -203.951E+06    -190.728E+06    -101.183E+06    -174.395E+06    -35.5859E+06         31.0460
            2044     2.89895E-03     130.752E-03     5.23943E-03     4.94824E-03    -26.3281E-03     5.21886E-03    -26.3075E-03     4.94824E-03    -1.57157E-03     80.2157E-03    -36.1181E-03    -44.0976E-03    -42.1303E-03     78.2484E-03    -36.1181E-03     29.7480E-03    -65.3567E+06    -148.108E+06    -202.927E+06    -179.588E+06    -88.6959E+06    -148.108E+06    -50.8681E+06         31.5333
            2045     3.85613E-03     130.802E-03     5.48070E-03     4.97576E-03    -26.5832E-03     5.44659E-03    -26.5491E-03     4.97576E-03    -2.05052E-03     91.2677E-03    -38.5391E-03    -52.7287E-03    -49.1661E-03     87.7052E-03    -38.5391E-03     43.5153E-03    -44.7783E+06    -124.403E+06    -201.259E+06    -168.715E+06    -77.3216E+06    -124.403E+06    -63.0235E+06         32.2156
            2046     4.80545E-03     130.871E-03     5.77320E-03     5.00139E-03    -26.8586E-03     5.72395E-03    -26.8094E-03     5.00139E-03    -2.49168E-03     105.398E-03    -41.5496E-03    -63.8484E-03    -58.2412E-03     99.7908E-03    -41.5496E-03     59.5407E-03    -27.9078E+06    -106.068E+06    -201.340E+06    -159.517E+06    -69.7305E+06    -106.068E+06    -73.8413E+06         33.1021
            2047     5.74554E-03     130.963E-03     6.10428E-03     5.01998E-03    -27.1247E-03     6.03978E-03    -27.0602E-03     5.01998E-03    -2.88040E-03     122.362E-03    -45.1540E-03    -77.2082E-03    -69.3122E-03     114.466E-03    -45.1540E-03     76.9805E-03    -11.7941E+06    -89.0943E+06    -200.198E+06    -150.053E+06    -61.9389E+06    -89.0943E+06    -82.7656E+06         34.2081
            2048     6.67468E-03     131.078E-03     6.45964E-03     5.02701E-03    -27.3533E-03     6.38149E-03    -27.2752E-03     5.02701E-03    -3.20056E-03     141.776E-03    -49.3487E-03    -92.4273E-03    -82.2316E-03     131.580E-03    -49.3487E-03     94.9743E-03     4.99114E+06    -67.6836E+06    -191.824E+06    -138.072E+06    -48.7612E+06    -67.6836E+06    -86.9955E+06         35.5572
            2049     7.59123E-03     131.219E-03     6.82031E-03     5.01915E-03    -27.5209E-03     6.73172E-03    -27.4323E-03     5.01915E-03    -3.43638E-03     162.823E-03    -54.0985E-03    -108.725E-03    -96.5204E-03     150.619E-03    -54.0985E-03     112.112E-03     11.0919E+06    -42.2191E+06    -176.326E+06    -121.474E+06    -43.7596E+06    -42.2191E+06    -84.6906E+06         37.1821
            2050     8.49531E-03     131.384E-03     7.17524E-03     4.99516E-03    -27.6142E-03     7.08056E-03    -27.5195E-03     4.99516E-03    -3.57745E-03     184.495E-03    -59.2856E-03    -125.210E-03    -111.461E-03     170.747E-03    -59.2856E-03     127.328E-03     15.8767E+06    -16.0511E+06    -151.694E+06    -98.4197E+06    -38.1203E+06    -15.3284E+06    -77.7346E+06         39.1202
            2051     9.38633E-03     131.571E-03     7.50249E-03     4.95603E-03    -27.6315E-03     7.40681E-03    -27.5358E-03     4.95603E-03    -3.61586E-03     205.681E-03    -64.7971E-03    -140.884E-03    -126.204E-03     191.001E-03    -64.7971E-03     139.451E-03     33.8429E+06     12.7168E+06    -116.109E+06    -71.9384E+06    -14.9504E+06     17.3397E+06    -66.6657E+06         41.4040
            2052     10.2655E-03     131.773E-03     7.78806E-03     4.90501E-03    -27.5831E-03     7.69689E-03    -27.4920E-03     4.90501E-03    -3.54333E-03     225.637E-03    -70.5345E-03    -155.103E-03    -140.240E-03     210.774E-03    -70.5345E-03     147.360E-03     53.9468E+06     27.1202E+06    -81.1281E+06    -47.8602E+06    -1.77029E+06     49.5693E+06    -51.1493E+06         44.0453
            2053     11.1345E-03     131.986E-03     8.02493E-03     4.84778E-03    -27.4915E-03     7.94341E-03    -27.4100E-03     4.84778E-03    -3.35871E-03     243.789E-03    -76.3488E-03    -167.441E-03    -153.113E-03     229.462E-03    -76.3488E-03     150.692E-03     72.4864E+06     27.1953E+06    -53.0449E+06    -29.3563E+06     3.50678E+06     72.4864E+06    -36.2617E+06         47.0162
            2054     11.9906E-03     132.200E-03     8.21065E-03     4.79177E-03    -27.3915E-03     8.14301E-03    -27.3239E-03     4.79177E-03    -3.06365E-03     259.700E-03    -82.1115E-03    -177.588E-03    -164.300E-03     246.411E-03    -82.1115E-03     150.010E-03     79.1423E+06     22.4394E+06    -45.1233E+06    -18.3318E+06    -4.35217E+06     79.1423E+06    -30.5196E+06         50.2343
            2055     12.8401E-03     132.406E-03     8.36565E-03     4.74478E-03    -27.3269E-03     8.31454E-03    -27.2758E-03     4.74478E-03    -2.66538E-03     272.940E-03    -87.7261E-03    -185.214E-03    -173.263E-03     260.989E-03    -87.7261E-03     145.916E-03     77.5311E+06     25.0365E+06    -44.2266E+06    -14.0607E+06    -5.12944E+06     77.5311E+06    -32.3062E+06         53.5587
            2056     13.6824E-03     132.596E-03     8.52324E-03     4.71788E-03    -27.3527E-03     8.48926E-03    -27.3187E-03     4.71788E-03    -2.17279E-03     281.085E-03    -93.1441E-03    -187.941E-03    -178.182E-03     271.326E-03    -93.1441E-03     133.468E-03     89.9233E+06     34.8000E+06    -31.6716E+06    -13.5385E+06     16.6669E+06     89.9233E+06    -28.4420E+06         56.8053
            2057     14.5184E-03     132.758E-03     8.71523E-03     4.71422E-03    -27.4882E-03     8.69690E-03    -27.4699E-03     4.71422E-03    -1.58540E-03     283.698E-03    -98.1447E-03    -185.553E-03    -177.118E-03     275.263E-03    -98.1447E-03     124.662E-03     113.048E+06     45.0558E+06    -19.1848E+06    -12.7438E+06     38.6148E+06     113.048E+06    -16.3166E+06         59.7760
            2058     15.3597E-03     132.919E-03     8.99301E-03     4.74235E-03    -27.7795E-03     8.98656E-03    -27.7731E-03     4.74235E-03    -888.631E-06     278.632E-03    -102.531E-03    -176.101E-03    -169.876E-03     272.407E-03    -102.531E-03     103.938E-03     155.621E+06     49.3074E+06    -7.43146E+06    -6.10435E+06     47.9803E+06     155.621E+06    -4.54719E+06         62.2998
            2059     962.647E-06     131.772E-03     3.48121E-03     3.42781E-03    -19.3750E-03     3.47675E-03    -19.3706E-03     3.42781E-03    -585.040E-06     81.0270E-03    -40.0596E-03    -40.9674E-03    -40.7419E-03     80.9638E-03    -40.2218E-03     3.79941E-03    -68.7452E+06    -110.098E+06    -125.049E+06    -115.234E+06    -78.5606E+06    -110.098E+06    -19.5245E+06         30.9280
            2060     1.92341E-03     131.795E-03     3.56447E-03     3.44308E-03    -19.4887E-03     3.55085E-03    -19.4751E-03     3.44308E-03    -1.07895E-03     85.1186E-03    -41.2848E-03    -43.8338E-03    -43.6141E-03     84.8989E-03    -41.2848E-03     7.47387E-03    -45.8159E+06    -92.9119E+06    -129.185E+06    -110.175E+06    -64.8261E+06    -92.9119E+06    -33.7990E+06         31.2227
            2061     2.88019E-03     131.835E-03     3.71676E-03     3.45413E-03    -19.6623E-03     3.68839E-03    -19.6339E-03     3.45413E-03    -1.59025E-03     91.5709E-03    -43.0101E-03    -48.5608E-03    -48.0122E-03     91.0223E-03    -43.0101E-03     13.4321E-03    -28.3464E+06    -72.0642E+06    -132.592E+06    -104.247E+06    -56.6912E+06    -72.0642E+06    -45.6726E+06         31.7002
            2062     3.83209E-03     131.894E-03     3.92605E-03     3.46558E-03    -19.8759E-03     3.87845E-03    -19.8283E-03     3.46558E-03    -2.08838E-03     100.471E-03    -45.2847E-03    -55.1868E-03    -54.0485E-03     99.3332E-03    -45.2847E-03     21.8178E-03    -11.2177E+06    -52.6911E+06    -134.027E+06    -96.8135E+06    -48.4314E+06    -52.6911E+06    -55.7733E+06         32.3659
            2063     4.77714E-03     131.975E-03     4.18197E-03     3.47325E-03    -20.1065E-03     4.11244E-03    -20.0369E-03     3.47325E-03    -2.55433E-03     111.961E-03    -48.1063E-03    -63.8544E-03    -61.7909E-03     109.897E-03    -48.1063E-03     33.0226E-03     3.96099E+06    -35.5876E+06    -134.923E+06    -88.7497E+06    -42.2119E+06    -35.5876E+06    -64.6249E+06         33.2263
            2064     5.71347E-03     132.080E-03     4.47266E-03     3.47259E-03    -20.3253E-03     4.38091E-03    -20.2335E-03     3.47259E-03    -2.96714E-03     125.996E-03    -51.4660E-03    -74.5299E-03    -71.1964E-03     122.662E-03    -51.4660E-03     46.7601E-03     14.6678E+06    -20.4683E+06    -135.208E+06    -82.3840E+06    -38.1567E+06    -20.4683E+06    -71.2002E+06         34.2938
            2065     6.63997E-03     132.213E-03     4.78465E-03     3.45978E-03    -20.5026E-03     4.67311E-03    -20.3910E-03     3.45978E-03    -3.30467E-03     142.290E-03    -55.3121E-03    -86.9778E-03    -82.0780E-03     137.390E-03    -55.3121E-03     62.4330E-03     22.7231E+06    -9.44681E+06    -134.141E+06    -79.9229E+06    -31.4945E+06    -9.44681E+06    -74.5038E+06         35.5899
            2066     7.55565E-03     132.373E-03     5.09920E-03     3.43227E-03    -20.6161E-03     4.97293E-03    -20.4898E-03     3.43227E-03    -3.54628E-03     160.396E-03    -59.5926E-03    -100.804E-03    -94.1939E-03     153.786E-03    -59.5926E-03     78.9433E-03     23.4627E+06    -4.01912E+06    -136.768E+06    -81.2275E+06    -32.0780E+06    -4.01912E+06    -76.1924E+06         37.1458
            2067     8.45944E-03     132.559E-03     5.40130E-03     3.38930E-03    -20.6532E-03     5.26719E-03    -20.5191E-03     3.38930E-03    -3.67942E-03     179.499E-03    -64.2382E-03    -115.260E-03    -106.973E-03     171.211E-03    -64.2382E-03     95.0982E-03     26.6915E+06     2.11311E+06    -140.008E+06     -82.711E+06    -30.7517E+06     2.25958E+06    -79.0235E+06         39.0000
            2068     9.35217E-03     132.768E-03     5.67272E-03     3.33205E-03    -20.6117E-03     5.53879E-03    -20.4777E-03     3.33205E-03    -3.69452E-03     198.596E-03    -69.1657E-03    -129.430E-03    -119.730E-03     188.896E-03    -69.1657E-03     109.440E-03     33.3664E+06     14.7845E+06    -134.149E+06    -80.6049E+06    -22.2561E+06     16.8632E+06    -76.9874E+06         41.1889
            2069     10.2339E-03     132.993E-03     5.89851E-03     3.26364E-03    -20.5023E-03     5.77304E-03    -20.3769E-03     3.26364E-03    -3.58546E-03     216.836E-03    -74.2557E-03    -142.580E-03    -131.893E-03     206.149E-03    -74.2557E-03     121.079E-03     41.5168E+06     23.4637E+06    -118.763E+06    -72.7065E+06    -18.2152E+06     37.1393E+06    -67.6653E+06         43.7321
            2070     11.1040E-03     133.228E-03     6.07394E-03     3.18931E-03    -20.3523E-03     5.96429E-03    -20.2426E-03     3.18931E-03    -3.35505E-03     233.367E-03    -79.3432E-03    -154.024E-03    -142.776E-03     222.119E-03    -79.3432E-03     129.652E-03     56.6519E+06     23.5769E+06    -96.0950E+06    -57.5463E+06    -14.9718E+06     56.6519E+06    -55.8677E+06         46.6119
            2071     11.9689E-03     133.463E-03     6.20223E-03     3.11571E-03    -20.1986E-03     6.11415E-03    -20.1105E-03     3.11571E-03    -3.00639E-03     248.397E-03    -84.3538E-03    -164.043E-03    -152.702E-03     237.056E-03    -84.3538E-03     134.716E-03     76.0792E+06     21.2206E+06    -73.9559E+06    -40.1166E+06    -12.6188E+06     76.0792E+06    -42.7254E+06         49.7546
            2072     12.8246E-03     133.689E-03     6.29650E-03     3.04999E-03    -20.0765E-03     6.23293E-03    -20.0130E-03     3.04999E-03    -2.55160E-03     261.962E-03    -89.2335E-03    -172.728E-03    -161.873E-03     251.107E-03    -89.2335E-03     135.551E-03     89.6832E+06     23.4802E+06    -55.1215E+06    -27.9112E+06    -3.73007E+06     89.6832E+06    -33.6843E+06         53.0203
            2073     13.6717E-03     133.901E-03     6.39325E-03     3.00374E-03    -20.0459E-03     6.35370E-03    -20.0063E-03     3.00374E-03    -2.00862E-03     272.712E-03    -93.9978E-03    -178.714E-03    -169.533E-03     263.531E-03    -93.9978E-03     127.049E-03     99.9835E+06     20.6877E+06    -37.0020E+06    -19.5771E+06     3.26278E+06     99.9835E+06    -24.2385E+06         56.2195
            2074     14.5168E-03     134.072E-03     6.54133E-03     2.98670E-03    -20.1665E-03     6.52164E-03    -20.1468E-03     2.98670E-03    -1.40951E-03     277.867E-03    -98.5655E-03    -179.302E-03    -171.914E-03     270.480E-03    -98.5655E-03     115.011E-03     119.776E+06     25.5554E+06    -21.4606E+06    -13.3322E+06     17.4270E+06     119.776E+06    -9.66505E+06         59.1519
            2075     15.3617E-03     134.230E-03     6.80301E-03     3.01066E-03    -20.5044E-03     6.79648E-03    -20.4979E-03     3.01066E-03    -768.712E-06     273.346E-03    -102.678E-03    -170.668E-03    -165.563E-03     268.241E-03    -102.678E-03     93.1395E-03     161.174E+06     40.7712E+06    -10.8407E+06    -8.90138E+06     38.8319E+06     161.174E+06    -2.00401E+06         61.6544
            2076     948.833E-06     132.868E-03     2.20529E-03     2.17173E-03    -12.9098E-03     2.20039E-03    -12.9048E-03     2.17173E-03    -500.110E-06     110.581E-03    -54.7879E-03    -55.7934E-03    -55.2438E-03     110.544E-03    -55.3005E-03    -3.09442E-03    -14.8563E+06    -26.6905E+06    -58.0449E+06    -30.9897E+06    -42.2537E+06    -26.3482E+06    -15.5695E+06         31.1979
            2077     1.89541E-03     132.894E-03     2.26142E-03     2.17090E-03    -12.9909E-03     2.24607E-03    -12.9756E-03     2.17090E-03    -933.722E-06     114.143E-03    -56.1402E-03    -58.0027E-03    -57.8870E-03     114.027E-03    -56.1402E-03    -5.89071E-03    -383.479E+03    -15.9386E+06    -62.0177E+06    -29.9930E+06    -34.3913E+06    -13.9554E+06    -26.3065E+06         31.4833
            2078     2.83911E-03     132.940E-03     2.37227E-03     2.16785E-03    -13.1166E-03     2.33972E-03    -13.0840E-03     2.16785E-03    -1.38928E-03     119.523E-03    -57.8095E-03    -61.7135E-03    -61.4824E-03     119.292E-03    -57.8095E-03    -7.39217E-03     14.8201E+06    -3.04811E+06    -66.4782E+06    -27.0375E+06    -29.4268E+06     1.75803E+06    -35.1783E+06         31.9440
            2079     3.77733E-03     133.006E-03     2.52382E-03     2.16293E-03    -13.2754E-03     2.46795E-03    -13.2196E-03     2.16293E-03    -1.84547E-03     126.343E-03    -59.9744E-03    -66.3685E-03    -66.0058E-03     125.980E-03    -59.9744E-03    -6.88417E-03     29.7628E+06     10.4911E+06    -69.2725E+06    -23.8920E+06    -22.9046E+06     17.7780E+06    -43.9396E+06         32.5832
            2080     4.70984E-03     133.095E-03     2.71614E-03     2.15252E-03    -13.4484E-03     2.63255E-03    -13.3648E-03     2.15252E-03    -2.28570E-03     134.382E-03    -62.5651E-03    -71.8164E-03    -71.2962E-03     133.861E-03    -62.5651E-03    -3.71990E-03     40.6486E+06     17.9199E+06    -72.2393E+06    -22.9886E+06    -21.1411E+06     30.4589E+06    -49.0338E+06         33.4049
            2081     5.63564E-03     133.211E-03     2.93767E-03     2.13348E-03    -13.6117E-03     2.82501E-03    -13.4990E-03     2.13348E-03    -2.68410E-03     143.667E-03    -65.5268E-03    -78.1400E-03    -77.3893E-03     142.916E-03    -65.5268E-03     2.36986E-03     46.4270E+06     22.2888E+06    -74.8744E+06    -25.9842E+06    -19.4011E+06     39.2268E+06    -51.1908E+06         34.4195
            2082     6.55375E-03     133.356E-03     3.17697E-03     2.10293E-03    -13.7401E-03     3.03782E-03    -13.6010E-03     2.10293E-03    -3.01381E-03     154.085E-03    -68.8130E-03    -85.2718E-03    -84.1497E-03     152.963E-03    -68.8130E-03     10.8547E-03     50.3762E+06     24.3418E+06    -76.2994E+06    -30.0172E+06    -16.8098E+06     45.2457E+06    -51.5547E+06         35.6467
            2083     7.46404E-03     133.529E-03     3.41770E-03     2.05895E-03    -13.8097E-03     3.25857E-03    -13.6506E-03     2.05895E-03    -3.25026E-03     165.426E-03    -72.3739E-03    -93.0516E-03    -91.3926E-03     163.766E-03    -72.3739E-03     21.2257E-03     54.4343E+06     26.6354E+06    -76.8951E+06    -32.4235E+06    -15.7598E+06     52.3580E+06    -51.3554E+06         37.1179
            2084     8.36643E-03     133.730E-03     3.64082E-03     2.00079E-03    -13.8043E-03     3.47115E-03    -13.6346E-03     2.00079E-03    -3.37537E-03     177.325E-03    -76.1079E-03    -101.217E-03    -98.8853E-03     174.993E-03    -76.1079E-03     32.6842E-03     58.8488E+06     29.3590E+06    -77.4822E+06    -35.0465E+06    -12.7640E+06     58.5360E+06    -52.2521E+06         38.8745
            2085     9.26062E-03     133.954E-03     3.83114E-03     1.92927E-03    -13.7202E-03     3.66195E-03    -13.5511E-03     1.92927E-03    -3.37940E-03     189.058E-03    -79.8879E-03    -109.170E-03    -106.099E-03     185.987E-03    -79.8879E-03     44.9616E-03     59.7759E+06     25.9045E+06    -80.9098E+06    -41.0304E+06    -13.9749E+06     59.7759E+06    -51.4863E+06         40.9603
            2086     10.1476E-03     134.197E-03     3.97652E-03     1.84682E-03    -13.5708E-03     3.81889E-03    -13.4132E-03     1.84682E-03    -3.26027E-03     200.099E-03    -83.5695E-03    -116.529E-03    -112.592E-03     196.161E-03    -83.5695E-03     58.4104E-03     58.4340E+06     20.5437E+06    -85.3393E+06    -49.8948E+06    -14.9007E+06     58.4340E+06    -49.8266E+06         43.4075
            2087     11.0314E-03     134.449E-03     4.07513E-03     1.75727E-03    -13.3849E-03     3.93878E-03    -13.2485E-03     1.75727E-03    -3.02324E-03     210.950E-03    -87.0677E-03    -123.883E-03    -118.955E-03     206.023E-03    -87.0677E-03     72.3845E-03     59.4123E+06     17.0531E+06    -90.9101E+06    -58.3834E+06    -15.4736E+06     59.4123E+06    -49.2898E+06         46.2127
            2088     11.9081E-03     134.702E-03     4.13392E-03     1.66533E-03    -13.1913E-03     4.02632E-03    -13.0837E-03     1.66533E-03    -2.67241E-03     222.297E-03    -90.3842E-03    -131.913E-03    -125.919E-03     216.303E-03    -90.3842E-03     86.8527E-03     66.2452E+06     10.1306E+06    -93.3882E+06    -61.9154E+06    -21.3422E+06     66.2452E+06    -46.5943E+06         49.3116
            2089     12.7794E-03     134.951E-03     4.16844E-03     1.57731E-03    -13.0258E-03     4.09380E-03    -12.9512E-03     1.57731E-03    -2.21344E-03     234.030E-03    -93.5103E-03    -140.520E-03    -133.270E-03     226.780E-03    -93.5103E-03     101.682E-03     80.3162E+06     12.9465E+06    -81.9248E+06    -57.2807E+06    -11.6976E+06     80.3162E+06    -40.2177E+06         52.5662
            2090     13.6472E-03     135.180E-03     4.21567E-03     1.50308E-03    -12.9369E-03     4.17327E-03    -12.8945E-03     1.50308E-03    -1.65642E-03     247.728E-03    -96.5317E-03    -151.196E-03    -142.798E-03     239.330E-03    -96.5317E-03     114.018E-03     91.6321E+06     13.5918E+06    -68.5930E+06    -45.9348E+06    -9.06646E+06     91.6321E+06    -35.1511E+06         55.7741
            2091     14.4988E-03     135.381E-03     4.32562E-03     1.45666E-03    -12.9973E-03     4.30787E-03    -12.9796E-03     1.45666E-03    -1.05859E-03     261.082E-03    -99.6676E-03    -161.415E-03    -153.031E-03     252.698E-03    -99.6676E-03     116.610E-03     113.257E+06     13.6343E+06    -47.2958E+06    -25.9230E+06    -7.73840E+06     113.257E+06    -22.0216E+06         58.7144
            2092     15.3498E-03     135.526E-03     4.56954E-03     1.45750E-03    -13.3262E-03     4.56484E-03    -13.3215E-03     1.45750E-03    -520.476E-06     265.657E-03    -102.917E-03    -162.740E-03    -156.964E-03     259.881E-03    -102.917E-03     96.0426E-03     160.289E+06     35.2761E+06    -16.4790E+06    -5.65268E+06     24.4498E+06     160.289E+06    -4.12485E+06         61.2192
            2093     927.320E-06     134.004E-03     1.23389E-03     1.21989E-03    -6.63175E-03     1.23033E-03    -6.62848E-03     1.22019E-03    -296.176E-06     157.160E-03    -78.0967E-03    -79.0633E-03    -78.4739E-03     156.974E-03    -78.5001E-03    -12.1458E-03     55.9212E+06     52.0267E+06    -16.8343E+06     51.0889E+06    -14.3310E+06     54.3556E+06    -9.29553E+06         31.4455
            2094     1.85285E-03     134.035E-03     1.24947E-03     1.20843E-03    -6.66641E-03     1.23928E-03    -6.65622E-03     1.20843E-03    -551.920E-06     160.106E-03    -79.3615E-03    -80.7449E-03    -80.1805E-03     159.595E-03    -79.4145E-03    -21.2061E-03     63.3837E+06     54.7096E+06    -17.9681E+06     48.8684E+06    -12.1270E+06     63.3837E+06    -14.9020E+06         31.7217
            2095     2.77390E-03     134.085E-03     1.29354E-03     1.19326E-03    -6.72179E-03     1.27117E-03    -6.69942E-03     1.19326E-03    -833.565E-06     165.115E-03    -81.0096E-03    -84.1052E-03    -83.1070E-03     164.117E-03    -81.0096E-03    -30.4534E-03     74.5709E+06     55.8393E+06    -19.4764E+06     46.5877E+06    -10.2248E+06     74.5709E+06    -19.4203E+06         32.1663
            2096     3.69099E-03     134.157E-03     1.35201E-03     1.17348E-03    -6.79394E-03     1.31212E-03    -6.75405E-03     1.17348E-03    -1.12863E-03     171.042E-03    -83.1430E-03    -87.8993E-03    -86.3123E-03     169.455E-03    -83.1430E-03    -38.8922E-03     84.2526E+06     55.0351E+06    -18.8335E+06     41.3484E+06    -5.14679E+06     84.2526E+06    -22.1846E+06         32.7806
            2097     4.60261E-03     134.252E-03     1.42702E-03     1.14604E-03    -6.87104E-03     1.36471E-03    -6.80873E-03     1.14604E-03    -1.42505E-03     177.401E-03    -85.6817E-03    -91.7193E-03    -89.4719E-03     175.154E-03    -85.6817E-03    -46.2619E-03     92.7793E+06     49.2554E+06    -23.3491E+06     33.7980E+06    -7.89169E+06     92.7793E+06    -22.5505E+06         33.5667
            2098     5.50878E-03     134.373E-03     1.51341E-03     1.10870E-03    -6.93838E-03     1.42468E-03    -6.84965E-03     1.10870E-03    -1.71330E-03     183.362E-03    -88.4775E-03    -94.8843E-03    -91.9453E-03     180.423E-03    -88.4775E-03    -52.0221E-03     99.9899E+06     44.4463E+06    -24.1468E+06     27.3663E+06    -7.06679E+06     99.9899E+06    -22.8174E+06         34.5330
            2099     6.40936E-03     134.523E-03     1.60526E-03     1.05926E-03    -6.98032E-03     1.48874E-03    -6.86380E-03     1.05926E-03    -1.97058E-03     188.532E-03    -91.4073E-03    -97.1242E-03    -93.5460E-03     184.953E-03    -91.4073E-03    -55.5964E-03     106.562E+06     39.7779E+06    -24.2374E+06     22.0047E+06    -6.46420E+06     106.562E+06    -22.6019E+06         35.6983
            2100     7.30427E-03     134.701E-03     1.69743E-03     996.263E-06    -6.98035E-03     1.55522E-03    -6.83814E-03     996.263E-06    -2.17383E-03     192.497E-03    -93.0350E-03    -99.4623E-03    -94.0640E-03     188.406E-03    -94.3423E-03    -56.5612E-03     112.907E+06     35.9130E+06    -24.0441E+06     16.7054E+06    -4.83652E+06     112.907E+06    -21.9299E+06         37.0940
            2101     8.19465E-03     134.906E-03     1.77813E-03     918.994E-06    -6.92684E-03     1.61533E-03    -6.76404E-03     918.994E-06    -2.30705E-03     194.569E-03    -92.2608E-03    -102.308E-03    -93.1360E-03     190.233E-03    -97.0967E-03    -54.1994E-03     115.236E+06     32.2138E+06    -23.0464E+06     10.6351E+06    -1.46769E+06     115.236E+06    -20.3662E+06         38.7651
            2102     9.08265E-03     135.134E-03     1.84286E-03     827.872E-06    -6.82150E-03     1.66791E-03    -6.64655E-03     827.872E-06    -2.35817E-03     194.701E-03    -89.9817E-03    -104.719E-03    -90.9195E-03     190.408E-03    -99.4888E-03    -48.0403E-03     112.074E+06     26.5835E+06    -26.6440E+06     4.32125E+06    -4.38180E+06     112.074E+06    -17.0321E+06         40.7639
            2103     9.97248E-03     135.380E-03     1.88527E-03     724.534E-06    -6.67702E-03     1.70921E-03    -6.50096E-03     724.534E-06    -2.32038E-03     193.413E-03    -86.9766E-03    -106.436E-03    -87.9394E-03     189.332E-03    -101.393E-03    -38.5676E-03     110.380E+06     23.4027E+06    -25.6839E+06     812.586E+03    -3.09379E+06     110.380E+06    -15.3339E+06         43.1349
            2104     10.8643E-03     135.636E-03     1.89982E-03     611.100E-06    -6.50699E-03     1.73512E-03    -6.34229E-03     611.100E-06    -2.19141E-03     191.664E-03    -83.2474E-03    -108.416E-03    -85.2036E-03     187.957E-03    -102.754E-03    -25.4412E-03     109.775E+06     21.7965E+06    -26.5601E+06    -1.55299E+06    -3.21056E+06     109.775E+06    -13.1476E+06         45.8899
            2105     11.7608E-03     135.900E-03     1.89302E-03     490.836E-06    -6.33384E-03     1.75334E-03    -6.19416E-03     490.836E-06    -1.96748E-03     190.371E-03    -79.3824E-03    -110.988E-03    -83.3363E-03     186.886E-03    -103.550E-03    -8.32210E-03     105.384E+06     18.8123E+06    -31.0465E+06    -4.56718E+06    -7.66700E+06     105.384E+06    -15.0770E+06         48.9790
            2106     12.6646E-03     136.158E-03     1.88293E-03     369.149E-06    -6.19147E-03     1.77981E-03    -6.08835E-03     369.149E-06    -1.64718E-03     190.946E-03    -76.7657E-03    -114.180E-03    -83.3777E-03     187.237E-03    -103.859E-03     11.6059E-03     101.603E+06     19.2518E+06    -36.5635E+06    -8.48357E+06    -8.82810E+06     101.603E+06    -17.1970E+06         52.2691
            2107     13.5714E-03     136.408E-03     1.90471E-03     253.171E-06    -6.10257E-03     1.84447E-03    -6.04233E-03     253.171E-06    -1.22474E-03     196.887E-03    -76.9839E-03    -119.903E-03    -88.2648E-03     192.200E-03    -103.936E-03     33.3010E-03     102.716E+06     21.3077E+06    -39.9148E+06    -15.7092E+06    -2.89793E+06     102.716E+06    -19.5512E+06         55.5424
            2108     14.4830E-03     136.637E-03     2.00314E-03     155.775E-06    -6.09116E-03     1.98053E-03    -6.06856E-03     155.775E-06    -716.994E-06     210.780E-03    -82.5767E-03    -128.203E-03    -101.141E-03     205.365E-03    -104.224E-03     48.9073E-03     106.131E+06     10.8769E+06    -44.8549E+06    -17.0918E+06    -16.8862E+06     106.131E+06    -20.8565E+06         58.5403
            2109     15.3664E-03     136.824E-03     2.22852E-03     105.517E-06    -6.24980E-03     2.22472E-03    -6.24600E-03     105.517E-06    -273.348E-06     222.167E-03    -88.9213E-03    -133.246E-03    -113.477E-03     218.379E-03    -104.902E-03     48.0634E-03     126.275E+06     23.6298E+06    -28.5630E+06    -5.37345E+06     440.312E+03     126.275E+06    -10.6390E+06         61.0784


