********************************************************************************
Field Output Report, written Mon May  5 22:03:21 2025

Source 1
---------

   ODB: D:/AISI_1020/Vel_10/1020_2a_16_rd_500_cal_75_v_10_fric_050.odb
   Step: Step-1
   Frame: Increment   9807890: Step Time =    1.253

Loc 1 : Nodal values from source 1

Output sorted by column "Node Label".

Field Output reported at nodes for region: DIE_2A_16_D0_36-1.Region_1
   Computation algorithm: EXTRAPOLATE_COMPUTE_AVERAGE
   Averaged at nodes
   Averaging regions: ODB_REGIONS

      Node Label     COORD.COOR1     COORD.COOR2
                          @Loc 1          @Loc 1
-------------------------------------------------
               1     19.4799E-03     145.904E-03


Field Output reported at nodes for region: DIE_2A_16_D0_36-1.Region_2
   Computation algorithm: EXTRAPOLATE_COMPUTE_AVERAGE
   Averaged at nodes
   Averaging regions: ODB_REGIONS

      Node Label     COORD.COOR1     COORD.COOR2
                          @Loc 1          @Loc 1
-------------------------------------------------
               1     19.4799E-03     145.904E-03


Field Output reported at nodes for part: WIRE_1-1
   Computation algorithm: EXTRAPOLATE_COMPUTE_AVERAGE
   Averaged at nodes
   Averaging regions: ODB_REGIONS

      Node Label     COORD.COOR1     COORD.COOR2    ER.Max. Prin    ER.Mid. Prin    ER.Min. Prin         ER.ER11         ER.ER22         ER.ER33         ER.ER12    PE.Max. Prin    PE.Mid. Prin    PE.Min. Prin         PE.PE11         PE.PE22         PE.PE33         PE.PE12     S.Max. Prin     S.Mid. Prin     S.Min. Prin           S.S11           S.S22           S.S33           S.S12            TEMP
                          @Loc 1          @Loc 1          @Loc 1          @Loc 1          @Loc 1          @Loc 1          @Loc 1          @Loc 1          @Loc 1          @Loc 1          @Loc 1          @Loc 1          @Loc 1          @Loc 1          @Loc 1          @Loc 1          @Loc 1          @Loc 1          @Loc 1          @Loc 1          @Loc 1          @Loc 1          @Loc 1          @Loc 1
-----------------------------------------------------------------------------------------------------------------------------------------------------------------------------------------------------------------------------------------------------------------------------------------------------------------------------------------------------------------------------------------------------------------
               1     17.0424E-03     61.7141E-03     16.3665E-03    -1.78811E-03    -14.2172E-03     3.84578E-03    -1.69649E-03    -1.78811E-03    -24.3463E-03     108.602E-03    -53.6596E-03    -55.2955E-03    -53.3271E-03     108.270E-03    -55.2955E-03     14.6749E-03     163.656E+06     125.427E+06    -3.73953E+06    -3.73341E+06     163.650E+06     125.427E+06     456.650E+03         46.4673
               2     574.277E-09     61.2986E-03         5.56720     432.198E-03        -5.99197    -393.939E-03    -30.8292E-03     432.198E-03        -11.5534     111.057E-03    -55.2901E-03    -55.7593E-03    -55.7571E-03     111.055E-03    -55.2901E-03     1.14713E-03    -92.8722E+06    -93.4427E+06    -289.765E+06    -93.2805E+06    -289.764E+06    -93.0348E+06     181.359E+03         28.2704
               3     2.98306E-06    -14.9012E-09     83.0591E-03    -4.14703E-03    -71.6318E-03     11.4499E-03    -22.6070E-06    -4.14703E-03    -154.265E-03     226.153E-03    -112.712E-03    -113.440E-03    -113.436E-03     226.148E-03    -112.712E-03     2.41723E-03    -70.8740E+06     -71.838E+06    -265.908E+06    -72.0901E+06    -265.656E+06    -70.8740E+06     6.99029E+06         37.4659
               4     16.7118E-03    -14.9012E-09     55.3378E-03    -3.70276E-03    -43.9217E-03    -15.8614E-03     27.2775E-03    -3.70276E-03     89.3950E-03     173.520E-03    -70.6459E-03    -103.453E-03    -91.5814E-03     161.649E-03    -70.6459E-03     112.198E-03     160.315E+06     133.011E+06    -17.1201E+06    -15.3849E+06     158.580E+06     133.011E+06     17.4606E+06         44.9812
               5     17.1069E-03     123.765E-03     33.0955E-03     2.51886E-03    -35.3038E-03     26.9043E-03    -29.1125E-03     2.51886E-03    -39.2502E-03     46.9491E-03     5.35403E-03    -52.8762E-03     5.98118E-03     46.3220E-03    -52.8762E-03     10.1377E-03     85.4616E+06     69.8328E+06    -56.6222E+06    -55.1225E+06     68.3331E+06     85.4616E+06    -13.6890E+06         57.7383
               6     2.61693E-06     121.655E-03     107.865E-03     62.4051E-03    -128.764E-03     58.6474E-03    -125.007E-03     107.865E-03     53.0746E-03     57.9121E-03    -28.2706E-03    -29.6391E-03    -29.6094E-03     57.8823E-03    -28.2706E-03    -3.22577E-03     65.2965E+06     62.3604E+06    -11.9698E+06     61.8398E+06    -11.4492E+06     65.2965E+06    -6.19868E+06         23.4520
               7     16.0943E-03     61.6985E-03     16.0122E-03    -2.03421E-03    -12.7664E-03     6.09274E-03    -2.84690E-03    -2.03421E-03    -7.46716E-03     112.822E-03    -54.4673E-03    -58.6002E-03    -53.6022E-03     108.642E-03    -55.2852E-03     44.3783E-03     164.140E+06     124.116E+06    -7.51533E+06    -7.50715E+06     164.132E+06     124.116E+06     96.6763E+03         45.1915
               8     15.1466E-03     61.6167E-03     17.6353E-03    -2.55743E-03    -13.8079E-03     5.86102E-03    -2.03360E-03    -2.55743E-03     20.0125E-03     114.114E-03    -55.2538E-03    -59.0083E-03    -53.6416E-03     108.747E-03    -55.2538E-03     58.1442E-03     163.016E+06     109.284E+06    -15.1442E+06    -15.1343E+06     163.006E+06     109.284E+06    -254.878E+03         42.3262
               9     14.1990E-03     61.5708E-03     15.9271E-03    -3.04507E-03    -12.8105E-03     2.66898E-03     447.590E-06    -3.04507E-03     7.25010E-03     112.231E-03    -55.1688E-03    -57.2083E-03    -53.6247E-03     108.647E-03    -55.1688E-03     48.4076E-03     159.021E+06     68.8434E+06    -21.5309E+06    -21.5247E+06     159.015E+06     68.8434E+06    -474.461E+03         39.2601
              10     13.2512E-03     61.5108E-03     21.2462E-03    -3.48770E-03    -18.5720E-03     2.74045E-03    -66.2811E-06    -3.48770E-03     17.9563E-03     112.248E-03    -55.0952E-03    -57.2397E-03    -53.9049E-03     108.913E-03    -55.0952E-03     46.4023E-03     131.342E+06     26.4060E+06    -25.8871E+06    -25.8823E+06     131.337E+06     26.4060E+06    -702.397E+03         36.6549
              11     12.3045E-03     61.4698E-03     29.0066E-03    -3.85794E-03    -26.0611E-03    -83.4111E-06     3.02898E-03    -3.85794E-03     2.60478E-03     110.994E-03    -55.1406E-03    -55.9579E-03    -54.1490E-03     109.186E-03    -55.1406E-03     34.3500E-03     58.6110E+06     8.54561E+06    -28.9506E+06    -28.9442E+06     58.6046E+06     8.54561E+06    -535.512E+03         34.7736
              12     11.3574E-03     61.4364E-03     30.8303E-03    -3.57593E-03    -28.3253E-03    -13.7184E-03     16.2233E-03    -3.57593E-03    -3.62385E-03     110.697E-03    -55.2203E-03    -55.5737E-03    -54.4522E-03     109.608E-03    -55.2525E-03     26.5235E-03     6.51929E+06    -13.6227E+06    -41.2584E+06    -31.8233E+06    -20.5718E+06     4.03337E+06     52.4420E+03         33.4844
              13     10.4107E-03     61.4121E-03     32.3747E-03    -2.34721E-03    -31.2851E-03    -20.5386E-03     21.6282E-03    -2.34721E-03    -536.784E-06     110.595E-03    -55.1682E-03    -55.3690E-03    -54.5512E-03     109.929E-03    -55.3205E-03     20.9041E-03     892.460E+03    -35.1568E+06    -75.4719E+06    -35.1643E+06    -75.4643E+06     892.460E+03     344.085E+03         32.4760
              14     9.46352E-03     61.3916E-03     55.7591E-03    -1.63007E-03    -54.1526E-03    -354.499E-06     1.96106E-03    -1.63007E-03     57.1136E-03     110.641E-03    -55.1595E-03    -55.3890E-03    -54.6535E-03     110.135E-03    -55.3890E-03     18.2619E-03    -955.273E+03    -38.6978E+06    -115.912E+06    -38.6983E+06    -115.911E+06    -955.273E+03     141.164E+03         31.6017
              15     8.51723E-03     61.3730E-03     86.4297E-03    -2.99802E-03    -83.0642E-03     19.7402E-03    -16.3747E-03    -2.99802E-03    -4.40229E-03     110.645E-03    -55.1333E-03    -55.4918E-03    -54.7540E-03     110.265E-03    -55.4918E-03     15.7723E-03    -3.67249E+06    -42.5672E+06    -147.607E+06    -42.5674E+06    -147.607E+06    -3.67249E+06     52.8698E+03         30.8533
              16     7.57015E-03     61.3577E-03     106.500E-03    -5.49931E-03    -100.945E-03     14.4522E-03    -8.89695E-03    -5.49931E-03     35.3613E-03     110.651E-03    -55.1137E-03    -55.5831E-03    -54.8437E-03     110.381E-03    -55.5831E-03     13.3333E-03    -6.50744E+06    -47.5989E+06    -178.026E+06    -47.6115E+06    -178.013E+06    -6.50744E+06     687.153E+03         30.2215
              17     6.62362E-03     61.3444E-03     166.721E-03    -6.61510E-03    -159.811E-03    -7.70868E-03     14.6185E-03    -6.61510E-03    -86.6299E-03     110.846E-03    -55.2538E-03    -55.6653E-03    -55.0507E-03     110.643E-03    -55.6653E-03     11.5806E-03    -10.6579E+06    -54.4273E+06    -208.374E+06    -54.4414E+06    -208.360E+06    -10.6579E+06     1.04461E+06         29.7037
              18     5.67728E-03     61.3329E-03     260.031E-03    -4.66362E-03    -254.827E-03    -26.7285E-03     31.9320E-03    -4.66362E-03     99.9407E-03     110.977E-03    -55.3190E-03    -55.7042E-03    -55.1652E-03     110.823E-03    -55.7042E-03     10.0868E-03    -19.6727E+06    -61.9505E+06    -229.997E+06    -61.9530E+06    -229.994E+06    -19.6727E+06     153.327E+03         29.2855
              19     4.73088E-03     61.3224E-03     404.178E-03    -1.40363E-03    -401.774E-03    -15.7062E-03     18.1105E-03    -1.40363E-03    -196.421E-03     111.104E-03    -55.3848E-03    -55.7290E-03    -55.2740E-03     110.994E-03    -55.7290E-03     8.54758E-03    -32.3958E+06    -68.6559E+06    -247.113E+06    -68.6621E+06    -247.107E+06    -32.3958E+06    -51.5531E+03         28.9504
              20     3.78472E-03     61.3140E-03     658.500E-03    -920.668E-06    -655.726E-03     6.49054E-03    -3.71586E-03    -920.668E-06     313.662E-03     111.198E-03    -55.4882E-03    -55.6826E-03    -55.4155E-03     111.126E-03    -55.6826E-03     6.91332E-03    -47.3505E+06    -75.0130E+06    -262.932E+06    -75.0204E+06    -262.925E+06    -47.3505E+06     424.245E+03         28.6845
              21     2.83848E-03     61.3074E-03         1.08465    -169.823E-06        -1.07995    -10.3342E-03     15.0292E-03    -169.823E-06    -536.340E-03     111.148E-03    -55.5420E-03    -55.6012E-03    -55.4993E-03     111.105E-03    -55.6012E-03     5.26834E-03    -63.6481E+06    -81.7891E+06    -274.731E+06    -81.7912E+06    -274.729E+06    -63.6481E+06     262.983E+03         28.4871
              22     1.89227E-03     61.3026E-03         1.90975     7.34035E-03        -1.91392    -16.0031E-03     11.8399E-03     7.34035E-03         1.12276     111.059E-03    -55.5130E-03    -55.5633E-03    -55.4926E-03     111.039E-03    -55.5633E-03     3.59496E-03    -77.9742E+06    -87.5831E+06    -284.822E+06     -87.584E+06    -284.821E+06    -77.9742E+06     228.491E+03         28.3594
              23     946.081E-06     61.2994E-03         4.01674     222.681E-03        -4.23584    -196.438E-03    -22.6607E-03     222.681E-03        -3.30378     111.031E-03    -55.3786E-03    -55.6486E-03    -55.6063E-03     111.024E-03    -55.4140E-03     1.96231E-03    -88.4819E+06    -91.6920E+06    -289.435E+06    -91.6115E+06    -289.434E+06    -88.5631E+06     308.852E+03         28.2915
              24    -119.957E-09     60.1816E-03         5.45505     429.981E-03        -5.88557    -436.873E-03     6.35481E-03     429.981E-03        -11.3315     111.002E-03    -55.3693E-03    -55.6280E-03    -55.6252E-03     110.999E-03    -55.3693E-03     1.34759E-03    -91.3167E+06    -92.0634E+06    -289.173E+06    -91.7258E+06    -289.172E+06    -91.6554E+06    -146.136E+03         28.2691
              25     171.004E-09     59.0659E-03         5.39044     395.438E-03        -5.77831    -483.814E-03     95.9461E-03     395.438E-03        -11.1536     111.006E-03    -55.2941E-03    -55.7101E-03    -55.7079E-03     111.004E-03    -55.2941E-03     1.20354E-03    -90.6538E+06    -91.3340E+06    -289.195E+06    -90.9972E+06    -289.193E+06    -90.9926E+06    -627.724E+03         28.2688
              26     575.260E-09     57.9497E-03         5.32658     428.073E-03        -5.75014    -501.258E-03     77.7023E-03     428.073E-03        -11.0615     111.069E-03    -55.2035E-03    -55.8596E-03    -55.8579E-03     111.067E-03    -55.2035E-03     1.06096E-03    -90.4580E+06    -91.5417E+06    -290.053E+06    -90.8006E+06    -290.051E+06    -91.2003E+06    -483.415E+03         28.2669
              27    -68.6573E-09     56.8332E-03         5.27777     505.391E-03        -5.78579    -463.905E-03    -44.1127E-03     505.391E-03        -11.0549     110.817E-03    -55.2601E-03    -55.5528E-03    -55.5276E-03     110.816E-03    -55.2836E-03     1.05905E-03    -92.2731E+06    -93.3381E+06    -290.390E+06    -92.2881E+06    -290.375E+06    -93.3381E+06     1.03843E+06         28.2635
              28     28.8386E-09     55.7175E-03         5.24923     511.610E-03        -5.75263    -409.675E-03    -93.7205E-03     511.610E-03        -10.9973     110.936E-03    -55.2893E-03    -55.6463E-03    -55.6210E-03     110.934E-03    -55.3128E-03     1.11560E-03    -92.1426E+06    -94.0096E+06    -289.250E+06    -93.7016E+06    -289.236E+06    -92.4654E+06     1.23822E+06         28.2623
              29     624.035E-09     54.6012E-03         5.15957     450.488E-03        -5.59378    -449.367E-03     15.1538E-03     450.488E-03        -10.7424     111.127E-03    -55.2552E-03    -55.8758E-03    -55.8739E-03     111.126E-03    -55.2552E-03     1.11230E-03    -90.3058E+06    -92.8334E+06    -288.119E+06    -91.8611E+06    -288.108E+06    -91.2892E+06    -1.00452E+06         28.2644
              30    -82.9729E-09     53.4845E-03         5.16031     427.069E-03        -5.56957    -511.847E-03     102.579E-03     427.069E-03        -10.7123     110.854E-03    -55.2541E-03    -55.6038E-03    -55.6014E-03     110.851E-03    -55.2541E-03     1.26131E-03    -91.0256E+06    -92.3652E+06    -289.458E+06    -91.3928E+06    -289.447E+06    -92.0090E+06    -1.00972E+06         28.2666
              31     214.994E-09     52.3690E-03         5.16278     486.851E-03        -5.64698    -469.847E-03    -14.3541E-03     486.851E-03        -10.7987     110.914E-03    -55.2380E-03    -55.6773E-03    -55.6752E-03     110.912E-03    -55.2380E-03     1.18083E-03    -91.5437E+06    -92.4168E+06    -289.664E+06    -91.9000E+06    -289.664E+06    -92.0607E+06     102.822E+03         28.2675
              32     500.982E-09     51.2528E-03         5.13431     480.028E-03        -5.60994    -366.306E-03    -109.323E-03     480.028E-03        -10.7412     111.170E-03    -55.3349E-03    -55.8364E-03    -55.8350E-03     111.168E-03    -55.3349E-03     982.067E-06    -91.6360E+06    -92.8246E+06    -290.602E+06    -92.3077E+06    -290.602E+06    -92.1529E+06     16.9653E+03         28.2677
              33    -243.740E-09     50.1363E-03         5.06665     428.489E-03        -5.48009    -387.094E-03    -26.3491E-03     428.489E-03        -10.5398     111.159E-03    -55.4354E-03    -55.7265E-03    -55.7248E-03     111.157E-03    -55.4354E-03     1.04726E-03    -91.0870E+06    -92.0968E+06    -291.867E+06    -91.7652E+06    -291.861E+06    -91.4250E+06    -859.122E+03         28.2675
              34     553.996E-09     49.0192E-03         4.99357     395.913E-03        -5.37901    -437.056E-03     51.6146E-03     395.913E-03        -10.3611     111.020E-03    -55.2206E-03    -55.7997E-03    -55.7974E-03     111.018E-03    -55.2206E-03     1.25223E-03    -90.1458E+06    -91.0736E+06    -290.910E+06    -90.1586E+06    -290.897E+06    -91.0736E+06    -8.03525E+03         28.2666
              35     227.340E-09     47.9035E-03         4.93848     365.702E-03        -5.30327    -405.894E-03     41.0994E-03     365.702E-03        -10.2319     110.816E-03    -55.1141E-03    -55.6970E-03    -55.6948E-03     110.814E-03    -55.1141E-03     1.22225E-03    -90.2023E+06    -91.4949E+06    -289.894E+06    -90.9117E+06    -289.887E+06    -90.7920E+06     664.343E+03         28.2640
              36     115.869E-09     46.7880E-03         4.80306     355.736E-03        -5.16257    -341.282E-03    -18.2214E-03     355.736E-03        -9.96012     110.860E-03    -55.2434E-03    -55.6121E-03    -55.6102E-03     110.858E-03    -55.2434E-03     1.10750E-03    -90.8701E+06      -92.13E+06    -290.902E+06    -91.5732E+06    -290.901E+06    -91.4271E+06    -123.975E+03         28.2619
              37     263.816E-09     45.6712E-03         4.60388     379.965E-03        -4.99744    -314.207E-03    -79.3537E-03     379.965E-03        -9.59844     111.015E-03    -55.2548E-03    -55.7522E-03    -55.7502E-03     111.013E-03    -55.2548E-03     1.16136E-03    -90.6683E+06    -91.7197E+06    -292.627E+06    -91.1629E+06    -292.627E+06    -91.2253E+06     114.226E+03         28.2634
              38     320.222E-09     44.5552E-03         4.42877     336.129E-03        -4.77059    -339.241E-03    -2.57302E-03     336.129E-03        -9.19244     110.989E-03    -55.2509E-03    -55.7285E-03    -55.7261E-03     110.986E-03    -55.2509E-03     1.26047E-03    -91.0840E+06    -92.1721E+06    -291.097E+06    -91.5792E+06    -291.097E+06    -91.6776E+06     350.202E+03         28.2671
              39     14.8261E-09     43.4390E-03         4.27534     294.151E-03        -4.56839    -364.499E-03     71.4513E-03     294.151E-03        -8.83298     111.019E-03    -55.3344E-03    -55.6851E-03    -55.6829E-03     111.017E-03    -55.3344E-03     1.19539E-03    -91.7704E+06    -93.1456E+06    -290.837E+06    -92.5548E+06    -290.834E+06    -92.3641E+06     -223.49E+03         28.2701
              40     332.295E-09     42.3226E-03         4.07222     322.198E-03        -4.41635    -359.591E-03     15.4599E-03     322.198E-03        -8.48018     111.094E-03    -55.3383E-03    -55.7541E-03    -55.7514E-03     111.091E-03    -55.3383E-03     1.32514E-03    -91.2273E+06    -92.7719E+06    -291.236E+06    -92.0113E+06    -291.233E+06    -91.9903E+06    -613.224E+03         28.2714
              41     130.263E-09     41.2061E-03         3.95481     333.889E-03        -4.30248    -339.765E-03    -7.90198E-03     333.889E-03        -8.25062     111.111E-03    -55.2990E-03    -55.8019E-03    -55.7986E-03     111.108E-03    -55.2990E-03     1.49066E-03    -91.1274E+06    -92.3144E+06    -291.391E+06    -91.5520E+06    -291.391E+06    -91.8905E+06     57.0154E+03         28.2725
              42     360.037E-09     40.0899E-03         3.79019     326.174E-03        -4.12203    -268.148E-03    -63.6864E-03     326.174E-03        -7.90860     111.129E-03    -55.2546E-03    -55.8670E-03    -55.8638E-03     111.125E-03    -55.2546E-03     1.46696E-03    -91.6248E+06    -92.4189E+06    -293.617E+06    -92.4222E+06    -293.614E+06    -91.6248E+06    -341.401E+03         28.2742
              43     314.805E-09     38.9737E-03         3.56400     272.088E-03        -3.83750    -241.573E-03    -31.9195E-03     272.088E-03        -7.39713     111.087E-03    -55.2479E-03    -55.8393E-03    -55.8361E-03     111.084E-03    -55.2479E-03     1.45242E-03    -91.5348E+06    -93.2839E+06    -294.296E+06    -91.9102E+06    -294.291E+06    -92.9137E+06    -51.8805E+03         28.2746
              44     120.176E-09     37.8577E-03         3.35506     237.235E-03        -3.58822    -306.457E-03     73.3036E-03     237.235E-03        -6.93275     111.004E-03    -55.3139E-03    -55.6888E-03    -55.6864E-03     111.002E-03    -55.3139E-03     1.25758E-03    -90.0392E+06    -92.7516E+06    -290.952E+06    -91.3824E+06    -290.942E+06    -91.4182E+06     1.34241E+06         28.2740
              45     157.690E-09     36.7413E-03         3.16764     269.085E-03        -3.44508    -264.971E-03    -12.4725E-03     269.085E-03        -6.60606     110.946E-03    -55.3353E-03    -55.6090E-03    -55.6072E-03     110.944E-03    -55.3353E-03     1.08931E-03    -90.6637E+06    -92.7653E+06    -287.141E+06    -92.0191E+06    -287.119E+06    -91.4319E+06    -335.501E+03         28.2743
              46     95.5965E-09     35.6253E-03         2.97040     244.634E-03        -3.21697    -225.212E-03    -21.3624E-03     244.634E-03        -6.18281     111.001E-03    -55.2491E-03    -55.7501E-03    -55.7482E-03     110.999E-03    -55.2491E-03     1.12752E-03    -91.6475E+06    -92.8531E+06    -289.012E+06    -91.6665E+06    -288.993E+06    -92.8531E+06    -522.361E+03         28.2755
              47     596.828E-09     34.5089E-03         2.72913     166.617E-03        -2.88462    -266.304E-03     110.816E-03     166.617E-03        -5.60047     111.087E-03    -55.3006E-03    -55.7788E-03    -55.7757E-03     111.084E-03    -55.3006E-03     1.40803E-03    -92.5662E+06    -93.3746E+06    -289.973E+06    -92.9416E+06    -289.969E+06    -93.0037E+06     575.476E+03         28.2791
              48    -369.140E-09     33.3924E-03         2.46265     193.001E-03        -2.66168    -237.348E-03     38.3149E-03     193.001E-03        -5.11464     111.310E-03    -55.4852E-03    -55.8183E-03    -55.8149E-03     111.307E-03    -55.4852E-03     1.50706E-03    -92.0082E+06    -93.1888E+06    -288.294E+06    -93.1891E+06    -288.294E+06    -92.0082E+06    -256.681E+03         28.2832
              49     811.728E-09     32.2759E-03         2.16406     198.432E-03        -2.36525    -135.134E-03    -66.0560E-03     198.432E-03        -4.52862     111.414E-03    -55.3853E-03    -56.0220E-03    -56.0199E-03     111.412E-03    -55.3853E-03     1.17559E-03    -90.2378E+06    -92.5892E+06    -289.485E+06    -91.0480E+06    -289.484E+06    -91.7795E+06    -302.277E+03         28.2822
              50    -30.0159E-09     31.1595E-03         1.85716     135.656E-03        -1.98714    -102.223E-03    -27.7543E-03     135.656E-03        -3.84317     111.065E-03    -55.2475E-03    -55.8110E-03    -55.8090E-03     111.063E-03    -55.2475E-03     1.13928E-03    -91.6649E+06    -94.6246E+06    -289.290E+06    -93.0864E+06    -289.286E+06    -93.2066E+06     433.503E+03         28.2758
              51     331.736E-09     30.0427E-03         1.53203     101.313E-03        -1.62725    -113.739E-03     18.5110E-03     101.313E-03        -3.15641     110.995E-03    -55.3348E-03    -55.6583E-03    -55.6553E-03     110.992E-03    -55.3348E-03     1.40152E-03    -91.0789E+06    -93.2376E+06    -288.939E+06    -92.5067E+06    -288.929E+06    -91.8196E+06    -237.101E+03         28.2692
              52     6.05022E-09     28.9270E-03         1.27351     67.6045E-03        -1.33828    -101.721E-03     36.9519E-03     67.6045E-03        -2.60810     111.156E-03    -55.3866E-03    -55.7722E-03    -55.7694E-03     111.153E-03    -55.3866E-03     1.35427E-03    -89.5092E+06    -90.2938E+06    -290.560E+06    -89.5174E+06    -290.552E+06    -90.2938E+06    -387.685E+03         28.2658
              53     390.384E-09     27.8102E-03         1.04968     91.6818E-03        -1.15905    -83.2587E-03    -26.1036E-03     91.6818E-03        -2.20674     111.189E-03    -55.3318E-03    -55.8578E-03    -55.8547E-03     111.186E-03    -55.3318E-03     1.41424E-03    -91.2575E+06    -91.4648E+06    -291.362E+06    -91.4244E+06    -291.358E+06    -91.3014E+06    -10.2687E+03         28.2629
              54     222.923E-09     26.6937E-03     818.205E-03     74.6521E-03    -908.971E-03    -27.5387E-03    -63.2265E-03     74.6521E-03        -1.72673     111.101E-03    -55.2606E-03    -55.8415E-03    -55.8379E-03     111.097E-03    -55.2606E-03     1.56723E-03    -91.2091E+06    -91.9329E+06    -290.771E+06    -91.3759E+06    -290.768E+06    -91.7695E+06    -30.9732E+03         28.2578
              55     274.975E-09     25.5774E-03     590.381E-03    -1.88153E-03    -602.557E-03    -62.2059E-03     50.0305E-03    -1.88153E-03        -1.17048     110.849E-03    -55.1591E-03    -55.6905E-03    -55.6874E-03     110.846E-03    -55.1591E-03     1.45229E-03    -90.3706E+06    -92.0536E+06    -290.920E+06    -91.4979E+06    -290.915E+06    -90.9311E+06    -159.089E+03         28.2504
              56     251.577E-09     24.4627E-03     366.409E-03     10.1994E-03    -392.855E-03    -103.931E-03     77.4849E-03     10.1994E-03    -734.035E-03     110.662E-03    -55.0916E-03    -55.5676E-03    -55.5652E-03     110.659E-03    -55.0916E-03     1.24044E-03    -91.7357E+06    -94.1659E+06    -291.596E+06    -92.8659E+06    -291.588E+06    -93.0434E+06    -1.23117E+06         28.2396
              57     137.649E-09     23.3458E-03     175.221E-03     35.3554E-03    -213.510E-03    -21.0718E-03    -17.2170E-03     35.3554E-03    -368.569E-03     110.420E-03    -54.9544E-03    -55.4615E-03    -55.4598E-03     110.418E-03    -54.9544E-03     1.06613E-03    -93.9125E+06    -95.3241E+06    -291.763E+06    -94.0396E+06    -291.739E+06    -95.2201E+06     675.610E+03         28.2252
              58     436.838E-09     22.2309E-03     58.8519E-03     40.5909E-03    -98.7855E-03    -18.6667E-03    -21.2669E-03     40.5909E-03     48.0788E-03     110.181E-03    -54.7569E-03    -55.4192E-03    -55.4164E-03     110.178E-03    -54.7569E-03     1.31367E-03    -92.0755E+06    -92.7764E+06    -289.292E+06    -92.7951E+06    -289.274E+06    -92.0755E+06     1.37296E+06         28.2082
              59     254.091E-09     21.1148E-03     135.447E-03     69.4827E-03    -212.498E-03    -83.7318E-03     6.68144E-03     69.4827E-03     334.539E-03     109.932E-03    -54.7455E-03    -55.1864E-03    -55.1834E-03     109.929E-03    -54.7455E-03     1.38293E-03    -91.0708E+06    -92.0656E+06    -288.013E+06    -91.6712E+06    -288.010E+06    -91.4687E+06    -557.523E+03         28.1837
              60    -107.470E-09     20.0006E-03     212.441E-03     55.6864E-03    -262.462E-03    -112.408E-03     62.3874E-03     55.6864E-03     432.785E-03     109.534E-03    -54.5765E-03    -54.9672E-03    -54.9658E-03     109.533E-03    -54.5765E-03     951.947E-06    -95.7374E+06    -96.4838E+06    -288.350E+06    -96.0904E+06    -288.345E+06    -96.1353E+06    -272.474E+03         28.1364
              61     706.247E-09     18.8868E-03     230.647E-03     66.7369E-03    -291.342E-03    -121.284E-03     60.5886E-03     66.7369E-03     479.402E-03     108.893E-03    -54.2199E-03    -54.6763E-03    -54.6752E-03     108.892E-03    -54.2199E-03     859.016E-06    -96.6593E+06    -97.2191E+06    -287.221E+06    -97.0142E+06    -287.215E+06    -96.8706E+06    -407.527E+03         28.0486
              62    -437.372E-09     17.7725E-03     227.753E-03     133.490E-03    -362.020E-03    -66.1644E-03    -95.2101E-03     160.598E-03     542.006E-03     107.596E-03    -53.6822E-03    -53.9124E-03    -53.9115E-03     107.595E-03    -53.6822E-03     748.527E-06    -92.8491E+06    -93.5692E+06    -288.344E+06    -92.8568E+06    -288.336E+06    -93.5692E+06    -233.026E+03         27.9045
              63     593.714E-09     16.6609E-03     210.047E-03     89.1194E-03    -310.812E-03    -66.4785E-03    -155.214E-03     210.047E-03     385.098E-03     105.286E-03    -52.4121E-03    -52.8799E-03    -52.8797E-03     105.286E-03    -52.4121E-03     246.233E-06    -91.6179E+06    -93.1587E+06    -288.683E+06    -92.6527E+06    -288.681E+06    -92.1267E+06     298.984E+03         27.6814
              64     142.407E-09     15.5530E-03     186.550E-03     13.0580E-03    -209.594E-03    -135.592E-03     18.7273E-03     106.878E-03     198.601E-03     101.303E-03    -50.4093E-03    -50.9005E-03    -50.9002E-03     101.303E-03    -50.4093E-03    -330.256E-06     -91.961E+06    -94.3412E+06    -287.076E+06    -92.9983E+06    -287.071E+06    -93.3091E+06     510.556E+03         27.3528
              65     51.9386E-09     14.4503E-03     126.436E-03     21.4583E-03    -142.498E-03    -103.976E-03     87.9139E-03     21.4583E-03     158.393E-03     95.4872E-03    -47.6220E-03    -47.8709E-03    -47.8692E-03     95.4855E-03    -47.6220E-03    -921.796E-06    -91.5036E+06    -94.0827E+06    -285.785E+06    -92.7395E+06    -285.780E+06    -92.8518E+06     766.062E+03         26.9062
              66     234.977E-09     13.3550E-03     97.3351E-03     47.4089E-03    -147.715E-03    -74.3269E-03     23.9469E-03     47.4089E-03     224.314E-03     87.8114E-03    -43.7868E-03    -44.0252E-03    -44.0190E-03     87.8052E-03    -43.7868E-03    -1.71049E-03    -87.6497E+06    -92.5773E+06    -282.649E+06    -88.9309E+06    -282.598E+06    -91.3464E+06     2.30041E+06         26.3542
              67    -81.7322E-09     12.2696E-03     82.3788E-03     30.0738E-03    -109.143E-03    -61.8274E-03     35.0634E-03     30.0738E-03     161.954E-03     78.5007E-03    -39.1212E-03    -39.3829E-03    -39.3684E-03     78.4861E-03    -39.1212E-03    -2.56387E-03    -79.1612E+06    -86.9916E+06    -274.895E+06    -83.3462E+06    -274.843E+06    -82.8579E+06     2.54573E+06         25.7499
              68     448.935E-09     11.1950E-03     65.8092E-03     23.1734E-03    -90.3814E-03     9.60913E-03    -49.1322E-03     38.1244E-03     40.7189E-03     68.7788E-03    -34.1752E-03    -34.6015E-03    -34.5811E-03     68.7584E-03    -34.1752E-03    -2.89662E-03    -72.3549E+06    -80.1949E+06    -269.193E+06    -76.4915E+06    -269.190E+06    -76.0612E+06     747.850E+03         25.2347
              69     3.14674E-09     10.1297E-03     53.7389E-03     32.6394E-03    -95.9729E-03     2.03773E-03    -65.3712E-03     53.7389E-03    -12.7063E-03     59.9122E-03    -29.7296E-03    -30.1736E-03    -30.1522E-03     59.8908E-03    -29.7296E-03    -2.77333E-03    -65.0551E+06    -72.5997E+06    -263.738E+06    -68.9224E+06    -263.709E+06    -68.7615E+06     2.04022E+06         24.9869
              70     385.767E-09     9.07427E-03     60.4722E-03     10.2234E-03    -71.2868E-03    -17.6272E-03     47.7947E-03    -30.7587E-03    -42.5375E-03     53.8490E-03    -26.7934E-03    -27.0533E-03    -27.0386E-03     53.8343E-03    -26.7934E-03    -2.12455E-03    -58.7793E+06    -64.8531E+06    -257.849E+06    -62.6455E+06    -257.821E+06    -61.0150E+06     1.34032E+06         25.0828
              71    -258.573E-09     8.02317E-03     74.5816E-03    -6.80339E-03    -73.2871E-03    -22.1343E-03     70.5594E-03    -53.9341E-03    -2.24906E-03     53.6709E-03    -26.7518E-03    -26.9200E-03    -26.9161E-03     53.6670E-03    -26.7518E-03    -724.023E-06    -59.4869E+06    -64.0002E+06    -257.082E+06    -61.7657E+06    -257.081E+06    -61.7225E+06    -56.7645E+03         25.5247
              72     475.216E-09     6.96775E-03     55.4771E-03     31.7674E-06    -62.5922E-03    -16.3377E-03     9.22262E-03     31.7674E-06     72.8589E-03     62.2716E-03    -31.0361E-03    -31.2344E-03    -31.2262E-03     62.2634E-03    -31.0361E-03     1.36212E-03    -60.3012E+06    -63.2764E+06    -258.713E+06    -62.5846E+06    -258.707E+06    -60.9988E+06    -516.676E+03         26.3284
              73    -269.781E-09     5.89851E-03     46.1524E-03     24.7283E-03    -73.3221E-03     2.54604E-03    -32.9793E-03     27.9919E-03     374.570E-06     81.5843E-03    -40.2635E-03    -41.3202E-03    -41.2874E-03     81.5515E-03    -40.2635E-03     3.94708E-03    -61.1969E+06    -65.2188E+06    -261.113E+06    -64.5273E+06    -261.107E+06    -61.8944E+06    -466.769E+03         27.5413
              74     2.12300E-06     4.80164E-03     46.1550E-03     6.16613E-03    -50.4629E-03    -12.8741E-03     5.30265E-03     9.42969E-03    -83.0956E-03     110.867E-03    -54.6291E-03    -56.2342E-03    -55.5096E-03     110.801E-03    -55.2875E-03     6.62838E-03    -61.5784E+06    -69.6654E+06    -264.659E+06    -64.9464E+06    -264.616E+06     -66.341E+06    -1.85039E+06         29.2494
              75    -3.41729E-06     3.66824E-03     62.9460E-03    -4.34009E-03    -61.4752E-03     18.6141E-03    -17.1432E-03    -4.34009E-03    -88.8323E-03     148.365E-03    -73.6885E-03    -74.6677E-03    -73.6133E-03     148.290E-03    -74.6677E-03     8.10656E-03    -67.4195E+06    -73.4630E+06    -268.716E+06    -68.7705E+06    -268.646E+06    -72.1822E+06    -496.868E+03         31.4892
              76     2.88172E-06     2.48376E-03     66.2467E-03     6.38295E-03    -77.2770E-03    -474.934E-06    -10.5554E-03     6.38295E-03    -33.6640E-03     187.426E-03    -93.3922E-03    -94.0362E-03    -93.6609E-03     187.371E-03    -93.7130E-03     7.71536E-03    -72.7957E+06    -75.0447E+06    -271.125E+06    -74.1423E+06    -271.059E+06    -73.7639E+06    -357.930E+03         34.0253
              77    -2.33923E-06     1.25381E-03     70.9690E-03    -1.93702E-03    -64.0538E-03    -19.3295E-03     26.2447E-03    -1.93702E-03    -50.7901E-03     215.948E-03    -107.633E-03    -108.321E-03    -108.298E-03     215.925E-03    -107.633E-03     4.80216E-03    -70.3882E+06    -71.8384E+06    -269.129E+06    -71.0348E+06    -268.964E+06    -71.3564E+06     1.52069E+06         36.3893
              78     889.757E-06    -14.9012E-09     59.9604E-03    -273.247E-06    -55.1770E-03     7.14207E-03    -2.35863E-03    -273.247E-06    -114.736E-03     224.333E-03    -111.498E-03    -112.813E-03    -111.849E-03     224.320E-03    -112.449E-03     3.93310E-03    -70.6399E+06    -72.0736E+06    -269.729E+06    -72.2451E+06    -269.557E+06    -70.6399E+06     1.35727E+06         37.3488
              79     1.78538E-03    -14.9012E-09     32.5613E-03     791.882E-06    -35.6727E-03    -10.4509E-03     7.33958E-03     791.882E-06    -16.1075E-03     218.839E-03    -107.572E-03    -111.252E-03    -107.537E-03     218.804E-03    -111.252E-03     6.61500E-03    -69.1307E+06    -70.6788E+06    -272.792E+06    -70.7396E+06    -272.731E+06    -69.1307E+06    -887.754E+03         37.0175
              80     2.68306E-03    -14.9012E-09     24.0892E-03    -4.65440E-03    -24.6647E-03    -20.2200E-03     19.6446E-03    -4.65440E-03     21.7860E-03     210.083E-03    -101.137E-03    -108.987E-03    -101.061E-03     210.007E-03    -108.987E-03     9.51040E-03    -67.9456E+06    -68.5557E+06    -273.583E+06    -68.6244E+06    -273.514E+06    -67.9456E+06    -1.09985E+06         36.5065
              81     3.58903E-03    -14.9012E-09     20.0406E-03    -7.96895E-03    -18.8730E-03    -13.1202E-03     14.2877E-03    -7.96895E-03     18.7733E-03     199.356E-03    -93.3075E-03    -106.057E-03    -93.1737E-03     199.222E-03    -106.057E-03     12.4102E-03    -67.8138E+06    -69.6703E+06    -272.734E+06    -67.9044E+06    -272.658E+06    -69.6566E+06     -807.37E+03         35.8636
              82     4.50319E-03    -14.9012E-09     14.7263E-03    -7.95700E-03    -14.6017E-03    -5.82353E-03     6.39577E-03    -8.40470E-03     26.1515E-03     187.901E-03    -85.1850E-03    -102.658E-03    -85.0044E-03     187.720E-03    -102.658E-03     14.0100E-03    -66.7606E+06    -73.1359E+06    -274.317E+06    -66.9073E+06    -274.170E+06    -73.1359E+06    -2.07183E+06         35.1733
              83     5.42544E-03    -14.9012E-09     10.0011E-03    -6.74584E-03    -9.60191E-03     4.29436E-03    -3.44745E-03    -7.19354E-03     7.11585E-03     176.214E-03    -77.1651E-03    -98.9853E-03    -76.9448E-03     175.993E-03    -98.9853E-03     14.9003E-03    -62.7900E+06    -79.3653E+06    -274.880E+06    -62.9704E+06    -274.699E+06    -79.3653E+06    -6.07427E+06         34.5121
              84     6.35471E-03    -14.9012E-09     14.5563E-03    -5.36851E-03    -14.9974E-03     6.13945E-03    -6.58054E-03    -5.36851E-03    -19.1361E-03     164.951E-03    -69.6791E-03    -95.1447E-03    -69.4145E-03     164.687E-03    -95.1447E-03     15.7222E-03    -55.4290E+06    -91.6001E+06    -259.329E+06    -55.8768E+06    -258.881E+06    -91.6001E+06    -8.63450E+06         33.9338
              85     7.29147E-03    -14.9012E-09     30.9581E-03    -4.45190E-03    -31.1719E-03    -3.88412E-03     3.67031E-03    -4.45190E-03    -61.0060E-03     154.341E-03    -63.0907E-03    -91.2919E-03    -62.7860E-03     154.036E-03    -91.2919E-03     16.2475E-03    -47.2628E+06    -106.397E+06    -225.702E+06    -47.8533E+06    -225.111E+06    -106.397E+06    -10.1789E+06         33.5373
              86     8.23387E-03    -14.9012E-09     30.6802E-03    -4.70636E-03    -30.0512E-03    -10.5017E-03     11.1307E-03    -4.70636E-03    -54.6362E-03     145.255E-03    -57.9419E-03    -87.5972E-03    -57.5867E-03     144.899E-03    -87.5972E-03     16.9457E-03    -37.8841E+06    -118.063E+06    -180.501E+06    -38.8686E+06    -179.517E+06    -118.063E+06    -10.9445E+06         33.4216
              87     9.18022E-03    -14.9012E-09     12.5022E-03    -2.94726E-03    -10.7342E-03    -2.35202E-03     6.06162E-03    -4.88886E-03    -13.4944E-03     139.314E-03    -55.3773E-03    -84.2463E-03    -54.8634E-03     138.800E-03    -84.2463E-03     19.8074E-03    -27.5680E+06    -111.711E+06    -141.291E+06    -28.9051E+06    -127.372E+06    -124.292E+06    -11.5474E+06         33.6166
              88     10.1253E-03    -14.9012E-09     21.8092E-03    -2.69131E-03    -16.7118E-03    -1.99100E-03     9.03007E-03    -4.63290E-03     27.7109E-03     135.974E-03    -54.8529E-03    -81.3468E-03    -54.0008E-03     135.122E-03    -81.3468E-03     25.2327E-03    -12.9788E+06    -72.9656E+06    -120.587E+06    -17.7922E+06    -68.1523E+06    -120.587E+06    -13.0565E+06         34.1296
              89     11.0689E-03    -14.9012E-09     42.6322E-03    -5.28374E-03    -33.3752E-03    -22.9635E-03     32.2205E-03    -5.28374E-03     45.0793E-03     128.642E-03    -50.0807E-03    -78.7598E-03    -49.2987E-03     127.860E-03    -78.7598E-03     23.3100E-03     29.6237E+06    -27.5893E+06    -103.608E+06    -10.8235E+06     12.8579E+06    -103.608E+06    -7.84258E+06         34.9851
              90     12.0309E-03    -14.9012E-09     31.2117E-03    -4.88649E-03    -22.3124E-03    -12.3619E-03     22.6745E-03    -6.29975E-03     22.9300E-03     121.082E-03    -44.9436E-03    -76.3548E-03    -44.3128E-03     120.452E-03    -76.3548E-03     20.3028E-03     93.7980E+06    -14.4083E+06    -60.6405E+06    -14.3397E+06     93.7294E+06    -60.6405E+06     2.65723E+06         36.2018
              91     12.9932E-03    -14.9012E-09     16.7841E-03    -4.35721E-03    -12.0976E-03     15.0352E-03    -8.93544E-03    -5.77048E-03     9.22047E-03     120.942E-03    -46.8990E-03    -74.1399E-03    -46.2686E-03     120.312E-03    -74.1399E-03     20.3959E-03     140.271E+06     6.51386E+06    -19.2644E+06    -13.9487E+06     140.208E+06      1.2607E+06     2.63174E+06         37.7724
              92     13.9355E-03    -14.9012E-09     21.1785E-03    -4.48438E-03    -18.4148E-03     10.3978E-03    -7.63409E-03    -4.48438E-03    -18.4029E-03     118.935E-03    -46.4406E-03    -72.4054E-03    -45.2967E-03     117.791E-03    -72.4054E-03     26.0199E-03     157.909E+06     65.8693E+06    -6.61634E+06    -6.26585E+06     157.559E+06     65.8693E+06    -4.74503E+06         39.6752
              93     14.8866E-03    -14.9012E-09     12.6204E-03    -748.827E-06    -11.3882E-03     1.84983E-03     2.41853E-03    -3.78501E-03    -20.6075E-03     120.497E-03    -49.3427E-03    -71.1938E-03    -46.3329E-03     117.487E-03    -71.1938E-03     44.0858E-03     166.888E+06     122.358E+06    -737.294E+03    -312.411E+03     166.463E+06     122.358E+06    -7.91399E+06         41.8207
              94     15.8420E-03    -14.9012E-09     29.0867E-03    -615.054E-06    -23.7607E-03    -6.57836E-03     14.9406E-03    -3.65123E-03     44.8718E-03     149.467E-03    -62.8356E-03    -87.0643E-03    -71.1880E-03     141.416E-03    -70.6609E-03     83.4028E-03     166.868E+06     138.979E+06    -7.22110E+06    -6.27501E+06     165.922E+06     138.979E+06     6.14273E+06         43.9580
              95     16.8300E-03     1.21492E-03     44.3376E-03    -3.24855E-03    -36.0851E-03     8.69803E-03    -445.466E-06    -3.24855E-03     46.9157E-03     151.447E-03    -67.0031E-03    -84.9038E-03    -68.0767E-03     136.118E-03    -68.5005E-03     113.267E-03     161.068E+06     135.508E+06    -777.727E+03     311.322E+03     159.979E+06     135.508E+06     12.7484E+06         44.5878
              96     16.8985E-03     2.31962E-03     30.7235E-03    -3.99653E-03    -29.7718E-03     24.3169E-03    -23.3652E-03    -3.99653E-03    -22.1596E-03     129.335E-03    -62.8474E-03    -66.8352E-03    -49.6312E-03     113.628E-03    -64.3448E-03     105.364E-03     163.147E+06     132.478E+06    -3.38739E+06    -2.73842E+06     162.498E+06     132.478E+06     10.3230E+06         44.0887
              97     16.9543E-03     3.43765E-03     38.4505E-03    -5.63211E-03    -38.0714E-03    -11.9717E-03     12.3507E-03    -5.63211E-03    -2.30797E-03     134.571E-03    -60.5847E-03    -74.2712E-03    -65.7454E-03     126.045E-03    -60.5847E-03     79.1630E-03     164.364E+06     132.110E+06    -4.15112E+06    -3.70942E+06     163.923E+06     132.110E+06     7.33680E+06         44.0167
              98     16.9922E-03     4.58648E-03     47.5555E-03    -5.01717E-03    -42.7365E-03    -18.9958E-03     23.8147E-03    -5.01717E-03     65.5157E-03     141.008E-03    -57.7368E-03    -83.5751E-03    -80.1933E-03     137.626E-03    -57.7368E-03     53.9379E-03     164.242E+06     134.086E+06    -1.23002E+06    -1.12977E+06     164.141E+06     134.086E+06     3.81953E+06         44.1653
              99     17.0187E-03     5.74048E-03     38.8710E-03    -3.15248E-03    -37.2147E-03     15.8938E-03    -14.2375E-03    -3.15248E-03     35.5790E-03     141.639E-03    -56.0365E-03    -85.9646E-03    -83.9378E-03     139.612E-03    -56.0365E-03     42.6389E-03     162.322E+06     132.197E+06    -5.97358E+06    -5.86528E+06     162.213E+06     132.197E+06     1.47172E+06         44.4322
             100     17.0324E-03     6.89825E-03     29.2765E-03    -1.97829E-03    -30.6880E-03     3.91253E-03    -5.32402E-03    -1.97829E-03    -23.5424E-03     139.353E-03    -55.1557E-03    -84.4468E-03    -82.9034E-03     137.810E-03    -55.1557E-03     36.9976E-03     163.517E+06     133.515E+06    -1.18181E+06    -1.15899E+06     163.494E+06     133.515E+06    -1.54383E+06         44.7279
             101     17.0395E-03     8.04837E-03     25.6572E-03    -1.24237E-03    -19.1635E-03    -12.1489E-03     18.6426E-03    -1.24237E-03    -345.942E-06     135.474E-03    -54.8003E-03    -80.9342E-03    -79.5384E-03     134.078E-03    -54.8003E-03     34.6417E-03     164.932E+06     132.998E+06    -3.08873E+06    -3.06568E+06     164.909E+06     132.998E+06    -1.57830E+06         44.9857
             102     17.0408E-03     9.19337E-03     28.1303E-03    -1.34818E-03    -20.1491E-03     13.8339E-03    -5.85263E-03    -1.34818E-03     28.0435E-03     131.979E-03    -54.7349E-03    -77.5700E-03    -76.1508E-03     130.560E-03    -54.7349E-03     34.3733E-03     161.092E+06     130.468E+06    -2.57307E+06    -2.54620E+06     161.066E+06     130.468E+06    -1.95438E+06         45.1812
             103     17.0410E-03     10.3331E-03     21.7507E-03    -2.03641E-03    -25.0079E-03     4.63277E-03    -7.89001E-03    -2.03641E-03     16.2946E-03     128.133E-03    -54.8088E-03    -73.3621E-03    -71.9130E-03     126.684E-03    -54.8088E-03     34.0426E-03     159.814E+06     128.906E+06    -2.55175E+06    -2.54429E+06     159.806E+06     128.906E+06    -111.479E+03         45.3166
             104     17.0423E-03     11.4646E-03     14.3822E-03    -1.65575E-03    -16.9082E-03    -16.4491E-03     13.9230E-03    -1.65575E-03    -346.329E-06     123.844E-03    -54.9244E-03    -68.7592E-03    -67.3980E-03     122.483E-03    -54.9244E-03     32.2503E-03     160.494E+06     126.568E+06    -3.51512E+06    -3.51131E+06     160.490E+06     126.568E+06     749.436E+03         45.4062
             105     17.0397E-03     12.5937E-03     18.0577E-03    -641.578E-06    -14.7278E-03     1.79024E-03     1.53962E-03    -641.578E-06     4.83922E-03     119.785E-03    -55.0451E-03    -64.6491E-03    -63.4838E-03     118.619E-03    -55.0451E-03     29.2213E-03     160.747E+06     124.502E+06    -5.94026E+06    -5.93606E+06     160.743E+06     124.502E+06    -274.426E+03         45.4672
             106     17.0420E-03     13.7147E-03     13.4544E-03     265.871E-06    -14.8153E-03     9.02845E-03    -10.3893E-03     265.871E-06     18.6855E-03     115.643E-03    -55.1656E-03    -60.4334E-03    -59.4956E-03     114.705E-03    -55.1656E-03     25.5679E-03     159.837E+06     125.087E+06    -2.70934E+06    -2.70580E+06     159.834E+06     125.087E+06    -630.244E+03         45.5174
             107     17.0403E-03     14.8330E-03     7.31143E-03     487.433E-06    -10.4514E-03     4.02676E-03    -7.16671E-03     487.433E-06     8.86816E-03     112.711E-03    -55.2451E-03    -57.5581E-03    -56.8783E-03     112.031E-03    -55.2451E-03     21.4166E-03     159.474E+06     124.191E+06    -3.76849E+06    -3.74318E+06     159.449E+06     124.191E+06     1.34947E+06         45.5700
             108     17.0414E-03     15.9512E-03     4.84884E-03    -412.242E-06    -11.0500E-03     3.62521E-03    -9.82633E-03    -412.242E-06    -7.11951E-03     110.593E-03    -54.7888E-03    -55.9457E-03    -54.9200E-03     110.063E-03    -55.2844E-03     18.7230E-03     162.564E+06     124.771E+06    -4.24142E+06    -4.21364E+06     162.537E+06     124.771E+06     983.597E+03         45.6307
             109     17.0414E-03     17.0647E-03     14.2830E-03     266.532E-06    -19.7453E-03    -6.94245E-03     1.48019E-03     266.532E-06     14.0017E-03     109.759E-03    -54.4607E-03    -55.3036E-03    -54.0383E-03     109.337E-03    -55.3036E-03     16.5834E-03     162.095E+06     125.092E+06    -3.18796E+06    -3.18524E+06     162.092E+06     125.092E+06    -569.591E+03         45.6971
             110     17.0408E-03     18.1833E-03     18.6535E-03     3.09497E-03    -13.7756E-03    -7.40443E-03     12.2824E-03     3.09497E-03     25.7626E-03     109.616E-03    -54.4045E-03    -55.3183E-03    -54.0437E-03     109.255E-03    -55.3183E-03     15.3681E-03     162.165E+06     124.583E+06    -3.84255E+06    -3.82264E+06     162.145E+06     124.583E+06     1.18566E+06         45.7626
             111     17.0414E-03     19.2980E-03     13.3076E-03     4.40609E-03    -16.4383E-03     7.28842E-03    -10.4191E-03     4.40609E-03     6.22123E-03     108.868E-03    -53.8227E-03    -55.3208E-03    -53.4859E-03     108.531E-03    -55.3208E-03     14.7787E-03     165.381E+06     124.710E+06    -4.19896E+06    -4.17813E+06     165.360E+06     124.710E+06     1.58937E+06         45.8223
             112     17.0414E-03     20.4146E-03     13.0405E-03     3.96475E-03    -28.0626E-03     12.9822E-03    -28.0043E-03     3.96475E-03     2.55815E-03     108.830E-03    -53.7189E-03    -55.3204E-03    -53.4124E-03     108.523E-03    -55.3204E-03     14.1024E-03     166.656E+06     124.978E+06    -4.73006E+06    -4.72901E+06     166.655E+06     124.978E+06     311.939E+03         45.8733
             113     17.0408E-03     21.5302E-03     10.5380E-03     3.20265E-03    -22.8112E-03     4.30285E-03    -16.5760E-03     3.20265E-03    -12.4229E-03     109.194E-03    -54.0006E-03    -55.3249E-03    -53.6997E-03     108.893E-03    -55.3249E-03     14.0029E-03     166.802E+06     125.724E+06    -3.45592E+06    -3.45502E+06     166.801E+06     125.724E+06     -262.44E+03         45.9161
             114     17.0417E-03     22.6462E-03     6.18977E-03     998.435E-06    -14.0467E-03    -5.56121E-03    -3.99953E-03     2.70230E-03    -15.1988E-03     108.928E-03    -53.7256E-03    -55.3119E-03    -53.4279E-03     108.630E-03    -55.3119E-03     13.9049E-03     166.078E+06     125.040E+06    -3.19527E+06    -3.18811E+06     166.071E+06     125.040E+06     454.452E+03         45.9514
             115     17.0419E-03     23.7633E-03     3.63556E-03     584.671E-06    -6.90740E-03    -3.71731E-03    -2.60543E-03     3.63556E-03    -3.08876E-03     108.802E-03    -53.6134E-03    -55.3048E-03    -53.3054E-03     108.494E-03    -55.3048E-03     14.1285E-03     167.176E+06     125.095E+06    -3.68040E+06    -3.67262E+06     167.168E+06     125.095E+06     369.473E+03         45.9795
             116     17.0412E-03     24.8797E-03     10.3503E-03     3.23520E-03    -17.4809E-03     7.53300E-03    -16.0106E-03     4.58222E-03    -11.8571E-03     109.012E-03    -53.7462E-03    -55.3100E-03    -53.4351E-03     108.701E-03    -55.3100E-03     14.2161E-03     168.577E+06     126.064E+06    -3.34831E+06    -3.34218E+06     168.571E+06     126.064E+06     269.926E+03         46.0018
             117     17.0417E-03     25.9955E-03     13.9822E-03     4.56676E-03    -24.4535E-03     8.26391E-03    -18.7352E-03     4.56676E-03    -23.7760E-03     108.889E-03    -53.6626E-03    -55.3085E-03    -53.3704E-03     108.597E-03    -55.3085E-03     13.7699E-03     168.012E+06     125.777E+06    -4.26222E+06    -4.24897E+06     167.998E+06     125.777E+06    -231.904E+03         46.0207
             118     17.0416E-03     27.1111E-03     15.3397E-03     4.89939E-03    -16.8760E-03    -4.86786E-03     3.33147E-03     4.89939E-03    -22.7139E-03     108.814E-03    -53.7052E-03    -55.3048E-03    -53.4254E-03     108.534E-03    -55.3048E-03     13.4761E-03     166.203E+06     125.798E+06    -3.77663E+06    -3.76792E+06     166.194E+06     125.798E+06    -777.926E+03         46.0380
             119     17.0419E-03     28.2281E-03     19.1543E-03     5.43620E-03    -22.2684E-03    -6.33707E-03     3.22295E-03     5.43620E-03     15.8222E-03     109.012E-03    -53.8488E-03    -55.3070E-03    -53.5712E-03     108.735E-03    -55.3070E-03     13.4367E-03     164.735E+06     126.230E+06    -3.08811E+06    -3.08715E+06     164.735E+06     126.230E+06    -185.857E+03         46.0542
             120     17.0413E-03     29.3443E-03     15.4802E-03     6.38300E-03    -31.4446E-03     4.32740E-03    -20.2918E-03     6.38300E-03     34.2543E-03     108.939E-03    -53.7306E-03    -55.3118E-03    -53.4532E-03     108.662E-03    -55.3118E-03     13.4233E-03     165.034E+06     126.300E+06    -3.43418E+06    -3.42938E+06     165.029E+06     126.300E+06     306.061E+03         46.0698
             121     17.0421E-03     30.4597E-03     19.5164E-03     7.81716E-03    -33.2626E-03     8.54358E-03    -22.2899E-03     7.81716E-03    -18.5660E-03     108.583E-03    -53.3352E-03    -55.3083E-03    -53.0556E-03     108.304E-03    -55.3083E-03     13.4436E-03     164.792E+06     125.409E+06    -4.16935E+06    -4.16261E+06     164.785E+06     125.409E+06     89.9345E+03         46.0849
             122     17.0419E-03     31.5769E-03     22.3682E-03     7.31974E-03    -27.0565E-03     3.38541E-03    -8.07370E-03     7.31974E-03    -47.3635E-03     108.562E-03    -53.4464E-03    -55.3099E-03    -53.1495E-03     108.265E-03    -55.3099E-03     13.8558E-03     164.832E+06     125.916E+06    -3.84405E+06    -3.84063E+06     164.829E+06     125.916E+06    -257.932E+03         46.0995
             123     17.0418E-03     32.6925E-03     15.2222E-03     5.46003E-03    -29.0369E-03     1.10383E-03    -14.9186E-03     5.46003E-03     1.27892E-03     108.711E-03    -53.7662E-03    -55.3106E-03    -53.4663E-03     108.411E-03    -55.3106E-03     13.9442E-03     165.586E+06     127.137E+06    -2.74672E+06    -2.74593E+06     165.585E+06     127.137E+06     109.678E+03         46.1138
             124     17.0420E-03     33.8084E-03     12.7738E-03     6.29992E-03    -33.7250E-03     4.74361E-03    -25.6948E-03     6.29992E-03     35.0373E-03     108.827E-03    -53.8426E-03    -55.3054E-03    -53.5698E-03     108.555E-03    -55.3054E-03     13.3062E-03     165.418E+06     126.221E+06    -4.00793E+06    -4.00739E+06     165.418E+06     126.221E+06     61.4879E+03         46.1279
             125     17.0413E-03     34.9248E-03     32.8089E-03     8.52558E-03    -40.7652E-03     3.65170E-03    -11.6081E-03     8.52558E-03    -37.5694E-03     108.877E-03    -53.8897E-03    -55.3079E-03    -53.6222E-03     108.610E-03    -55.3079E-03     13.1838E-03     165.574E+06     126.312E+06    -3.58997E+06    -3.58797E+06     165.572E+06     126.312E+06    -189.064E+03         46.1418
             126     17.0423E-03     36.0405E-03     48.5218E-03     7.17795E-03    -47.3410E-03    -668.662E-06     1.84950E-03     7.17795E-03    -95.7620E-03     108.715E-03    -53.7234E-03    -55.3004E-03    -53.4416E-03     108.433E-03    -55.3004E-03     13.5205E-03     164.984E+06     126.056E+06    -3.65440E+06    -3.64797E+06     164.978E+06     126.056E+06     268.281E+03         46.1561
             127     17.0420E-03     37.1584E-03     27.6970E-03     4.05133E-03    -47.2743E-03    -4.10840E-03    -15.4689E-03     4.05133E-03    -15.0466E-03     108.762E-03    -53.6890E-03    -55.2994E-03    -53.3915E-03     108.464E-03    -55.2994E-03     13.8882E-03     165.215E+06     126.039E+06    -3.57540E+06    -3.56678E+06     165.206E+06     126.039E+06     70.9822E+03         46.1705
             128     17.0416E-03     38.2737E-03     22.0673E-03     4.80015E-03    -50.6285E-03     13.3777E-03    -41.9388E-03     4.80015E-03     30.2522E-03     108.869E-03    -53.7516E-03    -55.3049E-03    -53.4538E-03     108.571E-03    -55.3049E-03     13.9023E-03     166.198E+06     126.326E+06    -3.59359E+06    -3.58436E+06     166.189E+06     126.326E+06     114.319E+03         46.1852
             129     17.0422E-03     39.3897E-03     48.7919E-03     7.53900E-03    -58.6763E-03     15.5443E-03    -25.4287E-03     7.53900E-03    -64.3458E-03     108.863E-03    -53.8279E-03    -55.3002E-03    -53.5514E-03     108.587E-03    -55.3002E-03     13.3992E-03     166.276E+06     126.548E+06    -2.93934E+06    -2.93193E+06     166.269E+06     126.548E+06     272.201E+03         46.2007
             130     17.0417E-03     40.5063E-03     43.9697E-03     7.79466E-03    -50.1071E-03    -15.7782E-03     9.64081E-03     7.79466E-03    -77.4803E-03     108.795E-03    -53.8084E-03    -55.3015E-03    -53.5431E-03     108.530E-03    -55.3015E-03     13.1256E-03     166.405E+06     126.074E+06    -4.00383E+06    -4.00081E+06     166.402E+06     126.074E+06    -110.233E+03         46.2161
             131     17.0421E-03     41.6219E-03     28.2065E-03     7.06184E-03    -31.7318E-03     1.63895E-03    -5.16427E-03     7.06184E-03    -13.4058E-03     108.742E-03    -53.6847E-03    -55.3038E-03    -53.4160E-03     108.473E-03    -55.3038E-03     13.2013E-03     166.557E+06     126.288E+06    -4.00106E+06    -3.99852E+06     166.555E+06     126.288E+06    -57.3426E+03         46.2313
             132     17.0420E-03     42.7384E-03     29.7577E-03     6.17754E-03    -33.2302E-03     23.7899E-03    -27.2625E-03     6.17754E-03    -26.5676E-03     108.871E-03    -53.8415E-03    -55.2957E-03    -53.5603E-03     108.590E-03    -55.2957E-03     13.5154E-03     166.089E+06     126.601E+06    -3.85609E+06    -3.85121E+06     166.084E+06     126.601E+06    -894.690E+03         46.2467
             133     17.0419E-03     43.8558E-03     28.8483E-03     4.47864E-03    -44.5369E-03    -13.1870E-03    -2.50158E-03     4.47864E-03    -54.9884E-03     108.902E-03    -53.8529E-03    -55.2929E-03    -53.5634E-03     108.613E-03    -55.2929E-03     13.7170E-03     164.860E+06     126.521E+06    -3.05346E+06    -3.04963E+06     164.856E+06     126.521E+06    -345.340E+03         46.2619
             134     17.0420E-03     44.9714E-03     22.4580E-03     4.14255E-03    -33.8638E-03    -19.3583E-03     7.95256E-03     4.14255E-03    -44.2219E-03     108.837E-03    -53.7730E-03    -55.3036E-03    -53.4927E-03     108.557E-03    -55.3036E-03     13.4883E-03     164.616E+06     126.704E+06    -2.84730E+06    -2.84668E+06     164.616E+06     126.704E+06     312.700E+03         46.2766
             135     17.0414E-03     46.0876E-03     35.7785E-03     4.82938E-03    -35.2096E-03     15.7030E-03    -15.1341E-03     4.82938E-03    -63.1665E-03     108.949E-03    -53.9609E-03    -55.3148E-03    -53.6849E-03     108.673E-03    -55.3148E-03     13.3998E-03     165.489E+06     126.512E+06    -4.46841E+06    -4.46753E+06     165.488E+06     126.512E+06     363.870E+03         46.2904
             136     17.0417E-03     47.2039E-03     39.1690E-03     4.27186E-03    -43.5154E-03     8.57314E-03    -12.9196E-03     4.27186E-03    -74.0400E-03     108.897E-03    -53.8842E-03    -55.3151E-03    -53.6007E-03     108.613E-03    -55.3151E-03     13.5745E-03     165.417E+06     126.403E+06    -3.93074E+06    -3.92840E+06     165.414E+06     126.403E+06    -127.169E+03         46.3034
             137     17.0419E-03     48.3208E-03     19.3813E-03     3.49314E-03    -28.5238E-03    -10.8658E-03     1.72326E-03     3.49314E-03    -46.2131E-03     108.638E-03    -53.6440E-03    -55.3042E-03    -53.3363E-03     108.330E-03    -55.3042E-03     14.1098E-03     165.273E+06     125.881E+06    -4.07927E+06    -4.07609E+06     165.270E+06     125.881E+06    -9.62341E+03         46.3158
             138     17.0418E-03     49.4371E-03     27.7478E-03     2.86381E-03    -37.4631E-03     11.6189E-03    -21.3343E-03     2.86381E-03    -40.3559E-03     108.540E-03    -53.5424E-03    -55.2965E-03    -53.2167E-03     108.215E-03    -55.2965E-03     14.5174E-03     166.005E+06     126.537E+06    -3.14124E+06    -3.13950E+06     166.003E+06     126.537E+06     241.166E+03         46.3285
             139     17.0423E-03     50.5522E-03     33.8936E-03     1.86543E-03    -44.9832E-03     18.0431E-03    -29.1327E-03     1.86543E-03    -53.6374E-03     108.543E-03    -53.4940E-03    -55.2979E-03    -53.1773E-03     108.226E-03    -55.2979E-03     14.3110E-03     166.951E+06     126.765E+06    -3.48644E+06    -3.47557E+06     166.940E+06     126.765E+06     834.471E+03         46.3416
             140     17.0415E-03     51.6693E-03     29.6782E-03     1.50980E-03    -36.6821E-03    -11.1704E-03     4.16647E-03     1.50980E-03    -53.3207E-03     108.819E-03    -53.8038E-03    -55.3060E-03    -53.4887E-03     108.504E-03    -55.3060E-03     14.3028E-03     168.736E+06     126.973E+06    -3.36441E+06    -3.35243E+06     168.724E+06     126.973E+06     622.584E+03         46.3546
             141     17.0413E-03     52.7847E-03     30.8157E-03     1.56192E-03    -29.6057E-03    -2.53213E-03     3.74211E-03     1.56192E-03    -42.6718E-03     108.737E-03    -53.7615E-03    -55.3084E-03    -53.4529E-03     108.428E-03    -55.3084E-03     14.1462E-03     169.770E+06     127.233E+06    -3.18674E+06      -3.181E+06     169.764E+06     127.233E+06     287.608E+03         46.3672
             142     17.0426E-03     53.9005E-03     24.7535E-03     1.03428E-03    -22.5296E-03     16.4253E-03    -14.2013E-03     1.03428E-03    -35.6550E-03     108.490E-03    -53.4759E-03    -55.2940E-03    -53.1762E-03     108.190E-03    -55.2940E-03     13.9211E-03     168.638E+06     126.299E+06    -4.04302E+06    -4.03133E+06     168.626E+06     126.299E+06    -169.788E+03         46.3791
             143     17.0415E-03     55.0173E-03     17.2183E-03     69.2790E-06    -22.8395E-03    -3.15190E-03    -2.46938E-03     69.2790E-06    -29.8180E-03     108.826E-03    -53.7166E-03    -55.2866E-03    -53.4005E-03     108.510E-03    -55.2866E-03     14.3181E-03     168.271E+06     126.505E+06    -4.13227E+06    -4.12484E+06     168.264E+06     126.505E+06    -920.901E+03         46.3900
             144     17.0421E-03     56.1332E-03     13.8660E-03    -368.547E-06    -16.7075E-03    -5.06220E-03     2.22067E-03    -368.547E-06    -22.8700E-03     108.934E-03    -53.7490E-03    -55.2917E-03    -53.4357E-03     108.621E-03    -55.2917E-03     14.2595E-03     166.588E+06     126.522E+06    -3.57364E+06    -3.56777E+06     166.582E+06     126.522E+06    -821.305E+03         46.4007
             145     17.0416E-03     57.2496E-03     22.7619E-03    -483.203E-06    -17.7607E-03     7.89357E-03    -2.89238E-03    -483.203E-06    -36.8923E-03     108.877E-03    -53.7001E-03    -55.2946E-03    -53.3992E-03     108.576E-03    -55.2946E-03     13.9753E-03     164.718E+06     126.337E+06    -3.91037E+06    -3.90434E+06     164.712E+06     126.337E+06    -517.849E+03         46.4122
             146     17.0420E-03     58.3652E-03     23.2743E-03    -1.43959E-03    -22.9312E-03    -3.15254E-03     3.49563E-03    -1.43959E-03    -39.7049E-03     108.799E-03    -53.6363E-03    -55.2993E-03    -53.3412E-03     108.504E-03    -55.2993E-03     13.8327E-03     163.913E+06     126.565E+06    -3.52401E+06    -3.51892E+06     163.908E+06     126.565E+06    -453.834E+03         46.4249
             147     17.0418E-03     59.4820E-03     13.0350E-03    -2.19439E-03    -15.5783E-03    -2.57734E-03     34.1190E-06    -2.19439E-03    -19.8146E-03     108.669E-03    -53.4811E-03    -55.3032E-03    -53.1750E-03     108.363E-03    -55.3032E-03     14.0694E-03     162.774E+06     125.560E+06    -3.74568E+06    -3.73810E+06     162.767E+06     125.560E+06    -139.792E+03         46.4382
             148     17.0419E-03     60.5981E-03     16.1991E-03    -2.01720E-03    -14.8227E-03     10.7127E-03    -9.33640E-03    -2.01720E-03    -23.3961E-03     108.647E-03    -53.5663E-03    -55.2999E-03    -53.2372E-03     108.318E-03    -55.2999E-03     14.5969E-03     163.281E+06     125.453E+06    -3.43269E+06    -3.42924E+06     163.277E+06     125.453E+06     262.209E+03         46.4523
             149     17.0421E-03     62.8306E-03     14.0672E-03    -1.84181E-03    -8.82338E-03    -3.89123E-03     9.13503E-03    -1.84181E-03    -10.1966E-03     108.731E-03    -53.7543E-03    -55.2926E-03    -53.4362E-03     108.413E-03    -55.2926E-03     14.3615E-03     165.113E+06     126.188E+06    -2.39321E+06    -2.38723E+06     165.107E+06     126.188E+06     878.808E+03         46.4823
             150     17.0419E-03     63.9456E-03     12.8151E-03    -2.45641E-03    -6.88168E-03    -1.07031E-03     7.00377E-03    -2.45641E-03    -8.18665E-03     108.906E-03    -53.8616E-03    -55.2869E-03    -53.5707E-03     108.615E-03    -55.2869E-03     13.7465E-03     167.165E+06     126.385E+06    -3.61931E+06    -3.61687E+06     167.162E+06     126.385E+06     612.746E+03         46.4969
             151     17.0419E-03     65.0624E-03     16.0195E-03    -3.00215E-03    -16.8507E-03    -8.05734E-03     7.22618E-03    -3.00215E-03    -27.2385E-03     108.957E-03    -53.8992E-03    -55.2818E-03    -53.6168E-03     108.674E-03    -55.2818E-03     13.5518E-03     168.711E+06     127.164E+06    -4.37450E+06    -4.37221E+06     168.708E+06     127.164E+06     581.349E+03         46.5107
             152     17.0419E-03     66.1787E-03     21.2195E-03    -2.21948E-03    -19.0870E-03    -9.95822E-03     12.0908E-03    -2.21948E-03    -33.0862E-03     109.021E-03    -53.9284E-03    -55.2825E-03    -53.6434E-03     108.737E-03    -55.2825E-03     13.6159E-03     169.443E+06     127.657E+06    -3.65293E+06    -3.65205E+06     169.442E+06     127.657E+06    -56.1755E+03         46.5234
             153     17.0415E-03     67.2954E-03     32.5742E-03    -1.60738E-03    -25.6920E-03     5.09222E-03     1.78998E-03    -1.60738E-03    -55.0441E-03     109.055E-03    -53.9288E-03    -55.2896E-03    -53.6460E-03     108.772E-03    -55.2896E-03     13.5671E-03     169.279E+06     127.576E+06    -3.37112E+06    -3.37056E+06     169.278E+06     127.576E+06    -222.259E+03         46.5366
             154     17.0420E-03     68.4116E-03     34.9146E-03    -2.73766E-03    -32.4965E-03     7.87877E-03    -5.46064E-03    -2.73766E-03    -65.7248E-03     108.927E-03    -53.8519E-03    -55.2965E-03    -53.5615E-03     108.637E-03    -55.2965E-03     13.7387E-03     168.653E+06     127.211E+06    -3.69330E+06    -3.69301E+06     168.653E+06     127.211E+06    -159.266E+03         46.5518
             155     17.0417E-03     69.5288E-03     25.0190E-03    -4.30377E-03    -25.3773E-03    -918.102E-06     559.773E-06    -4.30377E-03    -49.9775E-03     108.787E-03    -53.6426E-03    -55.3005E-03    -53.3346E-03     108.479E-03    -55.3005E-03     14.1304E-03     168.024E+06     127.048E+06    -3.74494E+06    -3.74464E+06     168.023E+06     127.048E+06    -168.131E+03         46.5686
             156     17.0423E-03     70.6443E-03     15.3666E-03    -4.82794E-03    -15.4467E-03    -2.54895E-03     2.46878E-03    -4.82794E-03    -30.3992E-03     108.727E-03    -53.5388E-03    -55.2972E-03    -53.2192E-03     108.407E-03    -55.2972E-03     14.3882E-03     167.687E+06     127.454E+06    -3.13366E+06    -3.13306E+06     167.686E+06     127.454E+06    -237.392E+03         46.5864
             157     17.0419E-03     71.7605E-03     26.0954E-03    -4.30448E-03    -21.4772E-03    -1.85659E-03     6.47479E-03    -4.30448E-03    -46.8312E-03     108.768E-03    -53.6474E-03    -55.2910E-03    -53.3306E-03     108.452E-03    -55.2910E-03     14.3314E-03     166.615E+06     126.620E+06    -4.39353E+06    -4.39084E+06     166.612E+06     126.620E+06    -650.003E+03         46.6045
             158     17.0422E-03     72.8770E-03     37.0523E-03    -4.33952E-03    -25.3230E-03     277.415E-06     11.4519E-03    -4.33952E-03    -61.3655E-03     108.781E-03    -53.6378E-03    -55.2863E-03    -53.3193E-03     108.463E-03    -55.2863E-03     14.3687E-03     166.479E+06     127.074E+06    -2.80802E+06    -2.80299E+06     166.474E+06     127.074E+06     76.4048E+03         46.6223
             159     17.0421E-03     73.9929E-03     17.2504E-03    -4.90720E-03    -11.6828E-03    -1.90347E-03     7.47105E-03    -4.90720E-03    -24.1251E-03     108.775E-03    -53.7255E-03    -55.2773E-03    -53.3993E-03     108.449E-03    -55.2773E-03     14.5456E-03     168.331E+06     127.095E+06    -3.38914E+06    -3.37882E+06     168.321E+06     127.095E+06     1.30067E+06         46.6395
             160     17.0420E-03     75.1095E-03     6.14073E-03    -4.19393E-03    -9.39118E-03    -5.94722E-03     2.69676E-03    -4.19393E-03    -10.5110E-03     108.785E-03    -53.7241E-03    -55.2767E-03    -53.3936E-03     108.455E-03    -55.2767E-03     14.6406E-03     170.478E+06     127.201E+06    -4.41007E+06    -4.40267E+06     170.471E+06     127.201E+06     836.268E+03         46.6559
             161     17.0423E-03     76.2251E-03     21.9052E-03    -2.41500E-03    -19.5377E-03     8.47515E-03    -6.10761E-03    -2.41500E-03    -35.2185E-03     108.795E-03    -53.6893E-03    -55.2798E-03    -53.3637E-03     108.469E-03    -55.2798E-03     14.5296E-03     171.712E+06     128.030E+06    -3.67171E+06    -3.67167E+06     171.712E+06     128.030E+06    -21.9790E+03         46.6709
             162     17.0417E-03     77.3420E-03     26.1659E-03    -1.15261E-03    -15.9354E-03     9.89039E-03     340.133E-06    -1.15261E-03    -32.4635E-03     108.754E-03    -53.6494E-03    -55.2860E-03    -53.3159E-03     108.421E-03    -55.2860E-03     14.7003E-03     172.181E+06     128.309E+06    -3.50565E+06    -3.50497E+06     172.181E+06     128.309E+06     182.093E+03         46.6851
             163     17.0423E-03     78.4578E-03     18.7434E-03    -1.43473E-03    -8.27124E-03    -6.48795E-03     16.9601E-03    -1.43473E-03    -12.7861E-03     108.822E-03    -53.6496E-03    -55.2936E-03    -53.3059E-03     108.478E-03    -55.2936E-03     14.9290E-03     171.054E+06     127.741E+06    -3.81673E+06    -3.81041E+06     171.048E+06     127.741E+06    -464.595E+03         46.6996
             164     17.0416E-03     79.5744E-03     16.1619E-03    -2.22733E-03    -13.0348E-03    -4.37209E-03     7.49923E-03    -2.22733E-03     6.66110E-03     109.053E-03    -53.8841E-03    -55.2907E-03    -53.5531E-03     108.722E-03    -55.2907E-03     14.6723E-03     169.919E+06     127.342E+06    -3.57335E+06    -3.56731E+06     169.913E+06     127.342E+06    -524.660E+03         46.7139
             165     17.0421E-03     80.6905E-03     8.98979E-03    -682.527E-06    -7.56203E-03     4.04925E-03    -1.40061E-03    -1.90341E-03     13.1554E-03     108.925E-03    -53.7385E-03    -55.2972E-03    -53.4151E-03     108.602E-03    -55.2972E-03     14.4929E-03     170.373E+06     127.747E+06    -3.58755E+06    -3.58613E+06     170.371E+06     127.747E+06     482.672E+03         46.7278
             166     17.0420E-03     81.8064E-03     6.21436E-03    -344.205E-06    -6.01165E-03    -801.212E-06     2.22480E-03    -1.56508E-03    -6.33529E-03     108.684E-03    -53.4463E-03    -55.2974E-03    -53.1193E-03     108.357E-03    -55.2974E-03     14.5465E-03     170.388E+06     127.189E+06    -4.18414E+06    -4.18121E+06     170.385E+06     127.189E+06    -97.5815E+03         46.7414
             167     17.0419E-03     82.9233E-03     8.75360E-03    -1.80218E-03    -12.3561E-03    -9.82383E-03     6.22133E-03    -1.80218E-03    -13.1102E-03     108.787E-03    -53.5448E-03    -55.2918E-03    -53.2059E-03     108.448E-03    -55.2918E-03     14.8172E-03     169.515E+06     127.003E+06    -3.53339E+06    -3.53135E+06     169.513E+06     127.003E+06    -527.000E+03         46.7553
             168     17.0420E-03     84.0387E-03     16.5067E-03    -1.20679E-03    -21.6054E-03     4.20061E-03    -9.29934E-03    -1.20679E-03     2.20300E-03     108.829E-03    -53.7288E-03    -55.2830E-03    -53.3941E-03     108.494E-03    -55.2830E-03     14.7336E-03     169.786E+06     127.263E+06    -3.03951E+06    -3.03878E+06     169.785E+06     127.263E+06     95.8879E+03         46.7699
             169     17.0421E-03     85.1551E-03     26.4609E-03    -193.554E-06    -28.7690E-03     22.3402E-03    -24.6483E-03    -193.554E-06    -10.4496E-03     108.811E-03    -53.6943E-03    -55.2758E-03    -53.3637E-03     108.480E-03    -55.2758E-03     14.6447E-03     170.943E+06     126.939E+06    -3.84774E+06    -3.84710E+06     170.943E+06     126.939E+06     303.673E+03         46.7850
             170     17.0419E-03     86.2715E-03     28.0073E-03     196.932E-06    -30.5011E-03    -3.87794E-03     1.38410E-03     196.932E-06    -26.3041E-03     108.748E-03    -53.6044E-03    -55.2799E-03    -53.2627E-03     108.406E-03    -55.2799E-03     14.8822E-03     172.207E+06     127.527E+06    -3.19489E+06    -3.19050E+06     172.203E+06     127.527E+06     697.873E+03         46.8018
             171     17.0425E-03     87.3871E-03     19.5314E-03     732.953E-06    -19.9058E-03    -19.2522E-03     18.8777E-03     732.953E-06    -4.77864E-03     108.533E-03    -53.4920E-03    -55.2715E-03    -53.1403E-03     108.181E-03    -55.2715E-03     15.0804E-03     174.152E+06     128.496E+06    -2.63401E+06    -2.62750E+06     174.146E+06     128.496E+06     1.05751E+06         46.8218
             172     17.0425E-03     88.5031E-03     18.2107E-03     1.62364E-03    -16.5118E-03     6.47716E-03    -4.77817E-03     1.62364E-03    -8.76358E-03     108.651E-03    -53.5919E-03    -55.2573E-03    -53.2366E-03     108.296E-03    -55.2573E-03     15.1665E-03     175.872E+06     128.581E+06    -3.55148E+06    -3.54827E+06     175.869E+06     128.581E+06     745.625E+03         46.8438
             173     17.0425E-03     89.6198E-03     32.6999E-03     1.72921E-03    -44.0012E-03     5.71015E-03    -17.0115E-03     1.72921E-03    -63.8482E-03     108.777E-03    -53.6737E-03    -55.2532E-03    -53.3259E-03     108.429E-03    -55.2532E-03     15.0162E-03     177.535E+06     128.825E+06    -3.77006E+06    -3.76425E+06     177.530E+06     128.825E+06     963.787E+03         46.8648
             174     17.0425E-03     90.7360E-03     28.4544E-03     2.10241E-03    -37.5649E-03     1.29751E-03    -10.4080E-03     2.10241E-03    -43.7049E-03     108.643E-03    -53.4858E-03    -55.2539E-03    -53.1411E-03     108.298E-03    -55.2539E-03     14.9345E-03     179.142E+06     129.233E+06    -5.24333E+06    -5.23834E+06     179.137E+06     129.233E+06     527.917E+03         46.8826
             175     17.0428E-03     91.8509E-03     20.3014E-03     3.41414E-03    -20.2223E-03     15.7948E-03    -15.7156E-03     3.41414E-03    -8.00611E-03     108.574E-03    -53.3615E-03    -55.2527E-03    -53.0286E-03     108.241E-03    -55.2527E-03     14.6655E-03     179.889E+06     130.886E+06    -3.46122E+06    -3.46089E+06     179.888E+06     130.886E+06    -246.703E+03         46.8949
             176     17.0428E-03     92.9678E-03     18.4516E-03     3.54089E-03    -24.8981E-03     4.67962E-03    -11.1261E-03     3.54089E-03    -32.2395E-03     108.503E-03    -53.2946E-03    -55.2496E-03    -52.9567E-03     108.165E-03    -55.2496E-03     14.7660E-03     179.899E+06     131.716E+06    -3.54267E+06    -3.54187E+06     179.898E+06     131.716E+06     134.496E+03         46.9011
             177     17.0431E-03     94.0829E-03     19.7705E-03     3.16575E-03    -26.1117E-03    -15.2138E-03     8.87259E-03     3.16575E-03    -38.2576E-03     108.308E-03    -53.0984E-03    -55.2385E-03    -52.7586E-03     107.968E-03    -55.2385E-03     14.7929E-03     180.278E+06     132.486E+06    -4.13033E+06    -4.12899E+06     180.277E+06     132.486E+06     496.631E+03         46.9031
             178     17.0436E-03     95.1982E-03     23.2689E-03     3.88592E-03    -25.9991E-03    -13.4618E-03     10.7316E-03     3.88592E-03    -41.7720E-03     108.162E-03    -52.9343E-03    -55.2373E-03    -52.5960E-03     107.824E-03    -55.2373E-03     14.7442E-03     181.631E+06     134.902E+06    -3.78698E+06    -3.78316E+06     181.627E+06     134.902E+06     792.247E+03         46.9022
             179     17.0439E-03     96.3139E-03     23.6093E-03     4.98473E-03    -27.6347E-03     8.40697E-03    -12.4324E-03     4.98473E-03    -36.3329E-03     108.125E-03    -52.8625E-03    -55.2308E-03    -52.5044E-03     107.767E-03    -55.2308E-03     15.1677E-03     183.292E+06     137.501E+06    -3.84354E+06    -3.83719E+06     183.285E+06     137.501E+06     1.09001E+06         46.8988
             180     17.0449E-03     97.4282E-03     23.9761E-03     5.48655E-03    -30.4235E-03     20.8253E-03    -27.2727E-03     5.48655E-03    -24.3577E-03     107.531E-03    -52.2425E-03    -55.2184E-03    -51.8838E-03     107.172E-03    -55.2184E-03     15.1230E-03     184.009E+06     138.762E+06    -5.02574E+06    -5.01939E+06     184.003E+06     138.762E+06    -2.70306E+03         46.8914
             181     17.0457E-03     98.5425E-03     11.0917E-03     3.62671E-03    -25.0277E-03     6.13288E-03    -21.1512E-03     4.70906E-03    -17.8434E-03     106.786E-03    -51.5890E-03    -55.2136E-03    -51.2284E-03     106.425E-03    -55.2136E-03     15.0968E-03     181.367E+06     138.135E+06    -3.83001E+06    -3.81390E+06     181.350E+06     138.135E+06    -1.62271E+06         46.8781
             182     17.0469E-03     99.6549E-03     5.42945E-03     3.03054E-03    -15.4572E-03    -6.35292E-03    -4.75714E-03     4.11290E-03    -13.8827E-03     106.624E-03    -51.5297E-03    -55.1717E-03    -51.1798E-03     106.274E-03    -55.1717E-03     14.8583E-03     177.550E+06     136.372E+06    -3.35540E+06    -3.34157E+06     177.536E+06     136.372E+06    -791.845E+03         46.8580
             183     17.0491E-03     100.768E-03     8.58511E-03     5.08929E-03    -9.24133E-03    -5.54227E-03     4.88605E-03     5.08929E-03    -12.6282E-03     105.887E-03    -50.9706E-03    -55.0929E-03    -50.6194E-03     105.536E-03    -55.0929E-03     14.8206E-03     176.721E+06     137.154E+06    -3.84395E+06    -3.84047E+06     176.717E+06     137.154E+06     763.027E+03         46.8301
             184     17.0528E-03     101.881E-03     10.4306E-03     5.93592E-03    -19.8893E-03     2.68885E-03    -12.1476E-03     5.93592E-03    -18.2760E-03     104.510E-03    -49.8095E-03    -54.9063E-03    -49.4176E-03     104.118E-03    -54.9063E-03     15.5251E-03     175.582E+06     138.271E+06    -5.76864E+06    -5.74292E+06     175.556E+06     138.271E+06    -982.774E+03         46.7967
             185     17.0577E-03     102.990E-03     12.8919E-03     6.53678E-03    -26.7717E-03     6.95407E-03    -20.8339E-03     6.53678E-03    -25.6785E-03     103.545E-03    -49.1167E-03    -54.6237E-03    -48.6867E-03     103.115E-03    -54.6237E-03     16.1775E-03     169.936E+06     138.063E+06    -3.18358E+06    -3.15392E+06     169.907E+06     138.063E+06    -2.19050E+06         46.7756
             186     17.0644E-03     104.100E-03     17.0093E-03     7.16129E-03    -26.8358E-03     8.48933E-03    -18.3159E-03     7.16129E-03    -34.1955E-03     102.767E-03    -48.7914E-03    -54.2093E-03    -48.3270E-03     102.302E-03    -54.2093E-03     16.7491E-03     162.467E+06     135.537E+06    -5.19318E+06    -5.14029E+06     162.414E+06     135.537E+06    -2.73750E+06         46.8109
             187     17.0748E-03     105.205E-03     13.3419E-03     6.63574E-03    -24.0319E-03     8.92555E-03    -19.6156E-03     6.63574E-03    -23.6449E-03     102.674E-03    -49.1614E-03    -53.5501E-03    -48.7021E-03     102.215E-03    -53.5501E-03     16.6677E-03     153.904E+06     133.023E+06    -2.67908E+06    -2.63018E+06     153.855E+06     133.023E+06    -2.43373E+06         46.9945
             188     17.0882E-03     106.312E-03     21.5189E-03     5.75558E-03    -29.5523E-03    -6.32803E-03    -1.70537E-03     5.75558E-03    -40.9759E-03     105.047E-03    -51.0230E-03    -53.9332E-03    -51.8647E-03     104.699E-03    -52.7440E-03     14.6232E-03     146.533E+06     130.675E+06    -4.06160E+06    -4.05806E+06     146.530E+06     130.675E+06    -700.792E+03         47.4319
             189     17.0990E-03     107.424E-03     25.2158E-03     5.25834E-03    -30.1910E-03    -3.49473E-03    -1.48045E-03     5.25834E-03    -24.2443E-03     111.605E-03    -51.9607E-03    -59.5712E-03    -59.3797E-03     111.413E-03    -51.9607E-03     11.1899E-03     140.030E+06     131.344E+06    -5.19663E+06    -5.08684E+06     139.920E+06     131.344E+06    -2.91199E+06         48.1742
             190     17.1043E-03     108.551E-03     16.1960E-03     4.51049E-03    -28.8898E-03     13.7118E-03    -26.4055E-03     4.51049E-03     1.16934E-03     122.043E-03    -51.3765E-03    -70.8864E-03    -70.7656E-03     121.922E-03    -51.3765E-03     9.64478E-03      128.49E+06     125.917E+06    -4.25419E+06    -3.87707E+06     125.659E+06     128.370E+06    -6.84735E+06         49.1437
             191     17.1040E-03     109.694E-03     10.6674E-03     3.06146E-03    -30.6144E-03     3.12704E-03    -24.0865E-03     4.07396E-03    -21.6384E-03     132.451E-03    -51.0084E-03    -81.6893E-03    -81.5434E-03     132.305E-03    -51.0084E-03     11.1452E-03     127.027E+06     111.679E+06    -2.24472E+06    -1.96989E+06     111.404E+06     127.027E+06    -4.77140E+06         50.1501
             192     17.1060E-03     110.844E-03     16.5066E-03     4.40270E-03    -18.1719E-03    -5.72834E-03     3.05054E-03     5.41519E-03    -31.2173E-03     139.744E-03    -50.7433E-03    -89.1092E-03    -88.8790E-03     139.514E-03    -50.7433E-03     14.4153E-03     123.947E+06     102.804E+06    -2.96731E+06    -2.78892E+06     102.626E+06     123.947E+06    -3.71821E+06         51.0555
             193     17.1052E-03     112.001E-03     24.8464E-03     7.29569E-03    -15.5784E-03    -3.00883E-03     12.2768E-03     7.29569E-03    -257.367E-06     146.223E-03    -50.5358E-03    -96.0681E-03    -95.6891E-03     145.844E-03    -50.5358E-03     19.0446E-03     120.983E+06     92.6036E+06     3.21354E+06     3.39777E+06     92.4194E+06     120.983E+06    -2.53996E+06         51.8187
             194     17.1071E-03     113.166E-03     21.2464E-03     7.28601E-03    -22.1577E-03     8.42401E-03    -9.33525E-03     7.28601E-03     24.9344E-03     153.972E-03    -50.3517E-03    -103.908E-03    -103.406E-03     153.470E-03    -50.3517E-03     22.7337E-03     111.170E+06     75.8181E+06    -17.6268E+06    -15.6221E+06     73.8135E+06     111.170E+06    -10.3455E+06         52.4394
             195     17.1055E-03     114.337E-03     16.6204E-03     4.89925E-03    -22.1256E-03     9.68424E-03    -15.1894E-03     4.89925E-03    -8.07683E-03     162.264E-03    -50.1675E-03    -112.191E-03    -111.515E-03     161.588E-03    -50.1675E-03     27.0881E-03     120.819E+06     88.5861E+06    -7.84482E+06     19.3567E+06     61.3846E+06     120.819E+06     3.98887E+06         52.9520
             196     17.1080E-03     115.527E-03     18.8187E-03     2.34379E-03    -23.5937E-03    -15.4117E-03     10.6368E-03     2.34379E-03    -17.0649E-03     170.509E-03    -49.9133E-03    -120.831E-03    -119.873E-03     169.551E-03    -49.9133E-03     33.3014E-03     97.8356E+06     51.8349E+06    -48.0543E+06    -21.5722E+06     25.3528E+06     97.8356E+06     5.89123E+06         53.4107
             197     17.1058E-03     116.714E-03     22.0080E-03     2.19196E-03    -26.0811E-03    -8.14786E-03     4.07476E-03     2.19196E-03     10.6248E-03     178.932E-03    -49.6550E-03    -129.458E-03    -128.084E-03     177.558E-03    -49.6550E-03     40.9256E-03     96.0650E+06     26.7062E+06    -51.1095E+06    -37.8524E+06     13.4492E+06     96.0650E+06    -9.58936E+06         53.8810
             198     17.1112E-03     117.928E-03     20.8956E-03     3.64151E-03    -26.4081E-03     14.8857E-03    -20.3982E-03     3.64151E-03     31.4925E-03     184.905E-03    -49.5502E-03    -135.404E-03    -133.272E-03     182.774E-03    -49.5502E-03     51.7687E-03     128.761E+06     42.0473E+06    -20.6980E+06    -7.27841E+06     28.6277E+06     128.761E+06    -8.93825E+06         54.4211
             199     17.1090E-03     119.137E-03     31.5819E-03     2.47116E-03    -41.3744E-03     6.89009E-03    -16.6826E-03     2.47116E-03    -27.4647E-03     188.603E-03    -49.4323E-03    -139.283E-03    -136.223E-03     185.543E-03    -49.4323E-03     62.9124E-03     143.103E+06     70.2242E+06    -21.3924E+06     16.1886E+06     32.6431E+06     143.103E+06     4.66723E+06         55.0536
             200     17.1151E-03     120.338E-03     28.0930E-03    -200.618E-06    -41.1255E-03    -9.50004E-03    -3.53244E-03    -200.618E-06    -24.6514E-03     194.555E-03    -49.1878E-03    -145.381E-03    -141.310E-03     190.484E-03    -49.1878E-03     73.8219E-03     132.734E+06     78.8484E+06    -40.7862E+06    -3.15919E+06     41.2214E+06     132.734E+06     2.38041E+06         55.8086
             201     17.1095E-03     121.579E-03     18.7582E-03     747.454E-06    -23.8261E-03     233.836E-06    -5.30173E-03     747.454E-06     9.28517E-03     189.210E-03    -49.1983E-03    -140.113E-03    -133.147E-03     182.243E-03    -49.1983E-03     92.8392E-03     113.404E+06     83.8060E+06    -53.1485E+06     6.51897E+06     24.1385E+06     113.404E+06    -11.5486E+06         56.7052
             202     17.1174E-03     122.788E-03     26.8959E-03     2.47272E-03    -26.6194E-03     21.7650E-03    -21.4886E-03     2.47272E-03    -31.4859E-03     113.492E-03    -21.9970E-03    -91.9414E-03    -57.8630E-03     108.528E-03    -51.1121E-03     58.0409E-03     109.092E+06     99.0302E+06    -22.3958E+06     36.5402E+06     40.0943E+06     109.092E+06    -7.69394E+06         57.4624
             203     16.0194E-03     123.721E-03     22.5217E-03     2.04690E-03    -21.7306E-03     18.9126E-03    -18.1215E-03     2.04690E-03    -24.0516E-03     83.0826E-03    -24.0940E-03    -59.2539E-03    -29.7068E-03     82.6505E-03    -53.2091E-03     11.6817E-03     61.4523E+06     35.3852E+06    -87.9025E+06    -27.1676E+06    -25.3497E+06     61.4523E+06    -8.96784E+06         56.2335
             204     15.0975E-03     123.473E-03     14.5780E-03     1.12530E-03    -7.51426E-03     13.1309E-03    -6.06723E-03     1.12530E-03    -10.8663E-03     105.013E-03    -46.0616E-03    -58.9863E-03    -51.8362E-03     104.743E-03    -52.9415E-03     12.8738E-03     73.7341E+06     37.7906E+06    -59.4837E+06     1.03171E+06    -22.7248E+06     73.7341E+06    -6.53382E+06         52.6995
             205     14.1467E-03     123.212E-03     21.0943E-03    -13.1171E-06    -11.8871E-03     15.8345E-03    -6.62726E-03    -13.1171E-06     10.5173E-03     83.1628E-03    -31.0835E-03    -52.2121E-03    -30.8878E-03     82.9670E-03    -52.2121E-03     3.31296E-03     89.4558E+06     41.6661E+06    -25.3633E+06     4.97736E+06     11.3254E+06     89.4558E+06    -4.02360E+06         48.3089
             206     13.1872E-03     122.990E-03     22.4755E-03    -764.701E-06    -16.2446E-03     1.81381E-03     4.41708E-03    -764.701E-06     26.6666E-03     81.9289E-03    -30.0651E-03    -51.9257E-03    -29.6994E-03     81.5633E-03    -51.9257E-03    -11.8892E-03     91.2014E+06     23.8752E+06    -17.6347E+06     12.1792E+06    -5.93871E+06     91.2014E+06     183.529E+03         43.7047
             207     12.2470E-03     122.766E-03     28.0853E-03    -92.3625E-06    -31.3452E-03    -22.5547E-03     19.2948E-03    -92.3625E-06     41.4625E-03     93.8868E-03    -42.8333E-03    -51.1299E-03    -41.8815E-03     92.9350E-03    -51.1299E-03    -22.5655E-03      103.63E+06     30.0380E+06    -6.92987E+06     18.3469E+06     4.76129E+06      103.63E+06    -135.148E+03         39.5369
             208     11.3265E-03     122.556E-03     25.1365E-03     660.520E-06    -28.6192E-03    -14.4302E-03     10.9474E-03     660.520E-06     43.7527E-03     100.695E-03    -48.7517E-03    -52.0584E-03    -49.9012E-03     99.2227E-03    -49.4363E-03    -29.7273E-03     102.577E+06     20.1523E+06    -7.35303E+06     19.7513E+06    -6.95196E+06     102.577E+06     925.007E+03         35.9927
             209     10.4086E-03     122.369E-03     20.9413E-03     62.9527E-06    -8.38372E-03     3.88572E-03     8.67187E-03     62.9527E-06     28.0020E-03     102.235E-03    -47.3328E-03    -55.0149E-03    -53.3612E-03     100.581E-03    -47.3328E-03    -32.0781E-03     106.394E+06     16.7290E+06     1.67032E+06     16.3141E+06     2.08518E+06     106.394E+06     1.27976E+06         33.0866
             210     9.48822E-03     122.212E-03     20.6594E-03    -569.010E-06    -10.1233E-03     146.006E-06     10.3901E-03    -569.010E-06     3.00769E-03     101.654E-03    -44.9902E-03    -56.8418E-03    -55.3368E-03     100.149E-03    -44.9902E-03    -30.7198E-03     102.793E+06     16.6450E+06    -1.88638E+06     13.5766E+06     1.18203E+06     102.793E+06    -2.42223E+06         30.7589
             211     8.56670E-03     122.076E-03     12.4051E-03    -444.562E-06    -7.46228E-03    -440.528E-06     5.38333E-03    -444.562E-06    -18.9934E-03     98.4954E-03    -42.4653E-03    -56.0253E-03    -54.8000E-03     97.2701E-03    -42.4653E-03    -27.3681E-03     99.6834E+06     18.8210E+06    -2.89046E+06     15.1502E+06     780.355E+03     99.6834E+06    -5.92516E+06         28.8225
             212     7.63808E-03     121.968E-03     13.2329E-03    -212.651E-06    -3.30222E-03     2.36638E-03     7.56434E-03    -212.651E-06    -15.6967E-03     93.5700E-03    -40.0614E-03    -53.4898E-03    -52.5544E-03     92.6346E-03    -40.0614E-03    -23.3462E-03     98.7067E+06     25.4676E+06    -4.67218E+06     22.0388E+06    -1.24340E+06     98.7067E+06     -8.7225E+06         27.1934
             213     6.70292E-03     121.878E-03     15.8613E-03    -163.610E-06    -14.9062E-03     5.73256E-03    -4.77739E-03    -163.610E-06    -24.9434E-03     87.7226E-03    -37.7043E-03    -50.1445E-03    -49.4587E-03     87.0368E-03    -37.7043E-03    -19.3510E-03     96.4025E+06     31.4052E+06    -6.06789E+06     28.0623E+06    -2.72493E+06     96.4025E+06    -9.12126E+06         25.9302
             214     5.76220E-03     121.809E-03     34.9049E-03    -916.888E-06    -42.4772E-03     11.3997E-03    -18.9720E-03    -916.888E-06    -69.6084E-03     81.0146E-03    -35.4614E-03    -45.6224E-03    -45.1481E-03     80.5403E-03    -35.4614E-03    -15.4317E-03     90.0367E+06     33.1862E+06    -4.42082E+06     32.1697E+06    -3.40434E+06     90.0367E+06    -6.06653E+06         25.0839
             215     4.81302E-03     121.755E-03     35.7910E-03    -1.45007E-03    -43.4892E-03    -679.550E-06    -7.01866E-03    -1.45007E-03    -74.3111E-03     74.4946E-03    -33.4661E-03    -41.0268E-03    -40.7110E-03     74.1787E-03    -33.4661E-03    -12.0185E-03     81.0701E+06     36.5011E+06    -279.899E+03     35.6565E+06     564.773E+03     81.0701E+06    -5.40700E+06         24.5640
             216     3.85867E-03     121.715E-03     23.8038E-03     2.62273E-03    -41.1147E-03    -26.4419E-03     9.13108E-03     2.62273E-03    -54.0724E-03     68.6779E-03    -31.7393E-03    -36.9521E-03    -36.7510E-03     68.4768E-03    -31.7393E-03    -9.16894E-03     68.2790E+06     39.7010E+06    -1.98828E+06     38.8532E+06    -1.14047E+06     68.2790E+06    -5.84227E+06         24.1921
             217     2.89809E-03     121.685E-03     32.5245E-03     18.4483E-03    -61.0912E-03    -52.4806E-03     23.9139E-03     18.4483E-03    -32.0375E-03     63.7551E-03    -30.3557E-03    -33.4361E-03    -33.3105E-03     63.6294E-03    -30.3557E-03    -6.95028E-03     59.0799E+06     45.2446E+06    -1.11522E+06     44.3424E+06    -213.108E+03     59.0799E+06    -6.34838E+06         23.8870
             218     1.93416E-03     121.666E-03     49.8925E-03     30.5052E-03    -60.8778E-03    -20.4474E-03    -7.22900E-03     47.1963E-03    -18.1599E-03     60.0935E-03    -29.4451E-03    -30.6546E-03    -30.5901E-03     60.0290E-03    -29.4451E-03    -4.69810E-03     56.3465E+06     52.1832E+06    -1.42714E+06     51.3614E+06    -605.316E+03     56.3465E+06    -6.58649E+06         23.6519
             219     967.683E-06     121.652E-03     85.9390E-03     46.5181E-03    -92.0118E-03     42.1032E-03    -87.5969E-03     85.9390E-03     6.29090E-03     58.2429E-03    -28.6989E-03    -29.5452E-03    -29.5138E-03     58.2116E-03    -28.6989E-03    -3.31455E-03     61.8857E+06     59.3075E+06    -4.28336E+06     58.6384E+06    -3.61428E+06     61.8857E+06    -6.36055E+06         23.5025
             220    -1.29440E-06     120.591E-03     131.541E-03     86.9935E-03    -174.606E-03    -19.4018E-03    -68.2106E-03     131.541E-03     186.882E-03     49.5817E-03    -24.1733E-03    -25.4093E-03    -24.8332E-03     49.5574E-03    -24.7251E-03    -2.68900E-03     42.9977E+06     40.4324E+06    -20.2595E+06     40.6750E+06    -19.4049E+06     41.9004E+06    -6.87830E+06         23.1707
             221     200.589E-09     119.550E-03     140.147E-03     90.5003E-03    -199.026E-03    -95.6976E-03     15.0016E-03     112.318E-03     24.9809E-03     34.1420E-03    -16.7840E-03    -17.3605E-03    -16.7723E-03     34.1303E-03    -17.3605E-03    -1.50132E-03     -81.416E+03    -5.96984E+06    -38.9110E+06    -1.62505E+06    -37.3673E+06    -5.96984E+06    -7.32646E+06         22.5294
             222    -301.010E-09     118.523E-03     86.1108E-03     40.7972E-03    -111.115E-03    -53.0068E-03     28.0029E-03     40.7972E-03    -179.270E-03     22.6457E-03    -11.2759E-03    -11.3704E-03    -11.3423E-03     22.6423E-03    -11.3007E-03    -680.595E-06    -39.3130E+06    -46.3201E+06    -61.4191E+06    -47.5933E+06    -53.1388E+06    -46.3201E+06    -5.59084E+06         21.8796
             223     511.408E-09     117.506E-03     62.1531E-03     31.0297E-03    -80.8408E-03     844.710E-09    -18.6886E-03     31.0297E-03    -135.585E-03     15.7572E-03    -7.76473E-03    -7.99337E-03    -7.82995E-03     15.7526E-03    -7.92361E-03     108.436E-06    -73.5301E+06    -96.3108E+06    -103.717E+06    -99.9074E+06    -75.6181E+06    -98.0323E+06    -7.42106E+06         21.4171
             224    -875.235E-09     116.491E-03     69.7461E-03     41.7435E-03    -115.489E-03    -16.8440E-03    -28.8988E-03     41.7435E-03    -5.84377E-03     12.5428E-03    -6.16522E-03    -6.37865E-03    -6.14262E-03     12.5202E-03    -6.37865E-03     1.18817E-03    -100.926E+06    -157.974E+06    -162.219E+06    -158.874E+06    -102.549E+06    -159.696E+06    -7.40372E+06         21.1839
             225     761.173E-09     115.480E-03     61.4585E-03     5.99977E-03    -80.2306E-03    -12.0850E-03    -6.68715E-03     5.99977E-03     34.2903E-03     12.8605E-03    -6.36549E-03    -6.49547E-03    -6.29514E-03     12.7902E-03    -6.49547E-03     2.27750E-03    -120.630E+06    -206.968E+06    -210.559E+06    -209.118E+06    -121.003E+06    -208.036E+06    -5.66856E+06         21.1918
             226    -1.02992E-06     114.465E-03     70.7902E-03     2.30926E-03    -97.1622E-03     22.7214E-03    -76.4791E-03     29.6950E-03    -31.3820E-03     17.3613E-03    -8.57322E-03    -8.78556E-03    -8.59563E-03     17.2468E-03    -8.64865E-03     3.44381E-03    -113.170E+06    -226.141E+06    -231.636E+06    -224.136E+06    -115.176E+06    -231.636E+06     6.68527E+06         21.4867
             227     1.09742E-06     113.446E-03     74.2901E-03    -1.48471E-03    -91.3087E-03    -2.68119E-03    -41.7231E-03     25.9010E-03    -3.15445E-03     27.0937E-03    -13.3447E-03    -13.7450E-03    -13.6299E-03     26.9786E-03    -13.3447E-03     4.26865E-03    -76.0560E+06    -144.418E+06    -161.121E+06    -153.666E+06    -79.0846E+06    -148.844E+06     14.9051E+06         22.1046
             228    -528.307E-09     112.412E-03     107.508E-03    -28.2583E-03    -76.4139E-03    -20.4241E-03     96.8531E-03    -73.5935E-03     26.6439E-03     40.1435E-03    -19.8982E-03    -20.2438E-03    -20.1414E-03     40.0411E-03    -19.8982E-03     4.95032E-03    -38.7512E+06    -50.7541E+06    -69.9146E+06    -55.0099E+06    -53.6558E+06    -50.7541E+06     5.18820E+06         22.9859
             229     508.667E-09     111.364E-03     89.2541E-03    -4.42080E-03    -66.8230E-03    -5.19446E-03     72.9608E-03    -49.7560E-03     27.5099E-03     53.8198E-03    -26.7259E-03    -27.0951E-03    -27.0033E-03     53.7280E-03    -26.7259E-03     5.41051E-03    -8.83033E+06    -22.2513E+06    -44.3260E+06    -15.5220E+06    -44.2981E+06    -15.5875E+06     695.531E+03         23.9701
             230     63.6173E-09     110.301E-03     61.3134E-03     3.86882E-03    -72.7153E-03     30.3911E-03    -41.7930E-03     3.86882E-03     55.3936E-03     67.2537E-03    -33.2889E-03    -33.9669E-03    -33.8969E-03     67.1837E-03    -33.2889E-03     5.27299E-03     18.4760E+06     6.60406E+06    -38.1885E+06     11.8107E+06    -38.1871E+06     13.2679E+06     266.114E+03         24.9292
             231     585.359E-09     109.226E-03     79.8501E-03     7.81772E-03    -94.7805E-03     43.0244E-03    -14.8738E-03    -35.2634E-03     80.1608E-03     79.4654E-03    -39.4141E-03    -40.0498E-03    -40.0026E-03     79.4182E-03    -39.4141E-03     4.69659E-03     25.0176E+06     17.7817E+06    -44.9336E+06     22.7385E+06    -44.6823E+06     19.8095E+06    -2.68673E+06         25.8105
             232    -121.701E-09     108.136E-03     64.5747E-03     23.6672E-03    -89.9615E-03     10.7965E-03     6.89777E-03    -19.4139E-03     89.4647E-03     89.6474E-03    -44.5412E-03    -45.1034E-03    -45.0701E-03     89.6140E-03    -44.5412E-03     4.22754E-03     21.6176E+06     16.8776E+06    -61.8291E+06     19.0431E+06    -61.2825E+06     18.9055E+06    -6.63976E+06         26.5647
             233     667.878E-09     107.037E-03     103.656E-03     23.7749E-03    -133.313E-03     29.8733E-03    -59.5305E-03     23.7749E-03    -44.1547E-03     97.3364E-03    -48.4014E-03    -48.9333E-03    -48.9114E-03     97.3145E-03    -48.4014E-03     3.50125E-03     15.4114E+06     11.2853E+06    -81.2518E+06     13.5132E+06    -80.7676E+06     12.6993E+06    -6.73586E+06         27.1526
             234    -245.164E-09     105.933E-03     112.457E-03     24.1539E-03    -120.016E-03     38.1305E-03    -45.6892E-03     24.1539E-03    -215.237E-03     102.795E-03    -51.1924E-03    -51.6046E-03    -51.5945E-03     102.785E-03    -51.1924E-03     2.45460E-03     4.87207E+06     892.362E+03    -103.404E+06     3.24971E+06    -103.196E+06     2.30635E+06    -4.07046E+06         27.5738
             235     571.800E-09     104.822E-03     131.027E-03     25.1180E-03    -150.701E-03    -12.4210E-03    -7.25242E-03     25.1180E-03    -278.081E-03     106.394E-03    -53.0988E-03    -53.3012E-03    -53.2949E-03     106.388E-03    -53.0988E-03     2.00600E-03    -6.37553E+06    -12.4862E+06    -124.276E+06    -10.2110E+06    -123.986E+06    -8.94126E+06    -4.93111E+06         27.8403
             236    -516.446E-09     103.708E-03     246.377E-03     90.3971E-03    -339.237E-03    -55.6358E-03    -37.2239E-03     90.3971E-03    -584.064E-03     108.241E-03    -53.9697E-03    -54.2726E-03    -54.2681E-03     108.237E-03    -53.9697E-03     1.66778E-03    -26.0508E+06    -33.8593E+06    -142.559E+06    -29.9577E+06    -142.197E+06    -30.3144E+06    -6.14161E+06         27.9892
             237     1.02337E-06     102.594E-03     399.361E-03     93.7464E-03    -485.723E-03    -50.3728E-03    -35.9890E-03     93.7464E-03    -884.627E-03     109.302E-03    -54.2895E-03    -55.0085E-03    -55.0051E-03     109.299E-03    -54.2895E-03     1.47654E-03    -40.3157E+06    -48.5666E+06    -160.620E+06    -44.5237E+06    -160.400E+06    -44.5792E+06    -5.04184E+06         28.0784
             238    -178.572E-09     101.479E-03     567.977E-03     93.9985E-03    -653.989E-03    -45.4302E-03    -40.5814E-03     93.9985E-03        -1.22139     109.908E-03    -54.7054E-03    -55.1947E-03    -55.1917E-03     109.905E-03    -54.7054E-03     1.39677E-03    -56.2277E+06    -63.7041E+06    -178.421E+06    -60.6112E+06    -178.025E+06    -59.7168E+06    -6.73565E+06         28.1300
             239     268.667E-09     100.363E-03     739.341E-03     188.136E-03    -937.374E-03    -72.8174E-03    -125.216E-03     188.136E-03        -1.67583     109.997E-03    -54.8088E-03    -55.1782E-03    -55.1764E-03     109.995E-03    -54.8088E-03     1.06894E-03    -76.6177E+06    -81.1715E+06    -195.199E+06    -77.9662E+06    -194.915E+06    -80.1068E+06    -4.97951E+06         28.1552
             240     325.280E-09     99.2490E-03         1.05829     143.752E-03        -1.21298    -108.477E-03    -46.2079E-03     143.752E-03        -2.26681     110.294E-03    -54.8298E-03    -55.4559E-03    -55.4545E-03     110.292E-03    -54.8298E-03     976.112E-06    -88.9798E+06    -90.9612E+06    -211.579E+06    -90.0651E+06    -211.558E+06    -89.8966E+06    -1.48669E+06         28.1720
             241     286.480E-09     98.1321E-03         1.28996     71.1311E-03        -1.36547    -170.100E-03     94.5889E-03     71.1311E-03        -2.64140     110.718E-03    -55.1317E-03    -55.5809E-03    -55.5790E-03     110.717E-03    -55.1317E-03     1.10783E-03    -94.1794E+06    -97.1299E+06    -226.522E+06    -96.3772E+06    -226.358E+06    -95.0962E+06    -3.75907E+06         28.1855
             242    -23.2376E-09     97.0155E-03         1.40828     207.102E-03        -1.62279    -176.979E-03    -37.5300E-03     207.102E-03        -3.02058     110.661E-03    -55.2138E-03    -55.4491E-03    -55.4465E-03     110.658E-03    -55.2138E-03     1.30244E-03    -99.4411E+06    -103.836E+06    -241.646E+06    -101.720E+06    -241.401E+06    -101.802E+06    -5.75521E+06         28.1955
             243     199.078E-09     95.8990E-03         1.61349     336.942E-03        -1.96459    -191.358E-03    -159.745E-03     336.942E-03        -3.57700     110.594E-03    -55.1108E-03    -55.4859E-03    -55.4837E-03     110.591E-03    -55.1108E-03     1.19403E-03    -105.734E+06    -109.703E+06    -258.425E+06    -107.460E+06    -258.306E+06    -108.095E+06    -4.11712E+06         28.2015
             244     326.064E-09     94.7845E-03         1.90764     281.640E-03        -2.18234    -247.648E-03    -27.0479E-03     281.640E-03        -4.08308     111.036E-03    -55.2768E-03    -55.7561E-03    -55.7546E-03     111.034E-03    -55.2768E-03     997.944E-06    -107.773E+06    -111.604E+06    -270.140E+06    -109.436E+06    -270.086E+06    -109.996E+06    -2.92598E+06         28.2032
             245     54.1650E-09     93.6662E-03         2.04364     295.330E-03        -2.32083    -274.859E-03    -2.32470E-03     295.330E-03        -4.35566     111.214E-03    -55.3786E-03    -55.8334E-03    -55.8311E-03     111.212E-03    -55.3786E-03     1.21870E-03    -107.933E+06    -111.970E+06    -280.360E+06    -109.792E+06    -280.315E+06    -110.156E+06    -2.75842E+06         28.2043
             246     428.478E-09     92.5494E-03         2.10223     389.825E-03        -2.49017    -364.165E-03    -23.7772E-03     389.825E-03        -4.57865     110.880E-03    -55.1508E-03    -55.7235E-03    -55.7191E-03     110.876E-03    -55.1508E-03     1.68446E-03    -107.415E+06    -111.101E+06    -289.765E+06    -109.263E+06    -289.731E+06    -109.287E+06    -2.39485E+06         28.2083
             247     178.337E-09     91.4340E-03         2.33091     415.741E-03        -2.73391    -438.128E-03     35.1364E-03     415.741E-03        -5.04266     110.599E-03    -55.0265E-03    -55.5704E-03    -55.5669E-03     110.596E-03    -55.0265E-03     1.44905E-03    -105.329E+06    -108.393E+06    -294.750E+06    -106.532E+06    -294.740E+06    -107.201E+06    -706.195E+03         28.2150
             248     233.644E-09     90.3189E-03         2.47735     444.571E-03        -2.92104    -405.011E-03    -38.6734E-03     444.571E-03        -5.38441     110.600E-03    -55.0847E-03    -55.5190E-03    -55.5175E-03     110.599E-03    -55.0847E-03     993.188E-06    -102.997E+06    -105.036E+06    -297.887E+06    -104.199E+06    -297.877E+06    -103.843E+06    -715.841E+03         28.2215
             249     181.369E-09     89.2027E-03         2.57711     495.635E-03        -3.09912    -415.490E-03    -106.523E-03     495.635E-03        -5.66757     110.895E-03    -55.2716E-03    -55.6218E-03    -55.6190E-03     110.892E-03    -55.2716E-03     1.32583E-03    -102.684E+06    -103.871E+06    -300.359E+06    -103.037E+06    -300.347E+06    -103.530E+06    -446.447E+03         28.2289
             250     59.6271E-09     88.0855E-03         2.78814     448.753E-03        -3.25285    -456.099E-03    -8.61405E-03     448.753E-03        -6.02408     111.187E-03    -55.4945E-03    -55.6860E-03    -55.6807E-03     111.182E-03    -55.4945E-03     1.85846E-03    -100.509E+06    -101.280E+06    -299.398E+06    -100.857E+06    -299.391E+06    -100.939E+06    -139.786E+03         28.2384
             251     56.2563E-09     86.9691E-03         3.03215     416.147E-03        -3.45325    -477.312E-03     56.2048E-03     416.147E-03        -6.46341     110.994E-03    -55.2739E-03    -55.7181E-03    -55.7141E-03     110.990E-03    -55.2739E-03     1.52430E-03    -98.5336E+06    -99.1179E+06    -297.809E+06    -98.6932E+06    -297.804E+06    -98.9636E+06    -350.687E+03         28.2459
             252     678.661E-09     85.8541E-03         3.19430     451.203E-03        -3.65069    -437.012E-03    -19.3794E-03     451.203E-03        -6.83093     110.677E-03    -54.8947E-03    -55.7865E-03    -55.7856E-03     110.676E-03    -54.8947E-03     751.114E-06    -100.479E+06    -100.788E+06    -299.988E+06    -100.790E+06    -299.986E+06    -100.479E+06    -8.74666E+03         28.2496
             253     303.119E-09     84.7392E-03         3.41626     438.066E-03        -3.86963    -381.029E-03    -72.3388E-03     438.066E-03        -7.27935     110.952E-03    -55.1894E-03    -55.7619E-03    -55.7608E-03     110.951E-03    -55.1894E-03     835.365E-06    -98.3542E+06    -98.6704E+06    -299.592E+06    -98.5099E+06    -299.591E+06    -98.5157E+06    -384.077E+03         28.2522
             254    -178.990E-09     83.6213E-03         3.64495     415.176E-03        -4.07280    -408.170E-03    -19.6739E-03     415.176E-03        -7.70775     111.193E-03    -55.4454E-03    -55.7438E-03    -55.7418E-03     111.191E-03    -55.4454E-03     1.15948E-03    -96.0197E+06    -96.6139E+06    -297.736E+06    -96.4536E+06    -297.735E+06    -96.1812E+06    -407.007E+03         28.2562
             255     644.718E-09     82.5048E-03         3.92643     386.832E-03        -4.31824    -390.757E-03    -1.05244E-03     386.832E-03        -8.23504     110.820E-03    -55.1119E-03    -55.7028E-03    -55.7007E-03     110.818E-03    -55.1119E-03     1.18986E-03    -95.0827E+06    -96.3132E+06    -296.743E+06    -95.5168E+06    -296.741E+06    -95.8806E+06    -521.655E+03         28.2606
             256     23.9997E-09     81.3904E-03         4.26046     379.170E-03        -4.64871    -405.268E-03     17.0253E-03     379.170E-03        -8.89877     110.697E-03    -55.0679E-03    -55.6247E-03    -55.6234E-03     110.696E-03    -55.0679E-03     907.929E-06    -95.7643E+06    -96.7775E+06    -295.725E+06    -95.9851E+06    -295.720E+06    -96.5622E+06     536.286E+03         28.2633
             257     373.551E-09     80.2739E-03         4.59987     386.655E-03        -4.98517    -415.252E-03     29.9509E-03     386.655E-03        -9.57426     110.866E-03    -55.1814E-03    -55.6760E-03    -55.6754E-03     110.866E-03    -55.1814E-03     595.630E-06    -95.1856E+06    -96.2552E+06    -294.683E+06    -96.2644E+06    -294.674E+06    -95.1856E+06     75.9518E+03         28.2650
             258     192.025E-09     79.1580E-03         4.92338     437.006E-03        -5.35756    -340.233E-03    -93.9521E-03     437.006E-03        -10.2771     110.874E-03    -55.2079E-03    -55.6602E-03    -55.6589E-03     110.873E-03    -55.2079E-03     868.805E-06    -92.1585E+06    -94.7289E+06    -294.142E+06    -93.0205E+06    -294.135E+06    -93.8746E+06    -46.2885E+03         28.2649
             259     95.7072E-09     78.0416E-03         5.22253     450.153E-03        -5.67589    -359.398E-03    -93.9565E-03     450.153E-03        -10.8943     110.989E-03    -55.3316E-03    -55.6594E-03    -55.6578E-03     110.987E-03    -55.3316E-03     1.04739E-03    -92.2897E+06    -95.8184E+06    -293.381E+06    -94.1076E+06    -293.376E+06    -94.0058E+06     1.01140E+06         28.2643
             260     250.307E-09     76.9250E-03         5.56017     369.451E-03        -5.92476    -405.643E-03     41.0523E-03     369.451E-03        -11.4762     111.015E-03    -55.2328E-03    -55.7806E-03    -55.7791E-03     111.013E-03    -55.2328E-03     1.01598E-03    -92.0225E+06    -95.4208E+06    -291.153E+06    -93.8373E+06    -291.151E+06    -93.6082E+06     236.051E+03         28.2664
             261     457.819E-09     75.8091E-03         5.81768     390.270E-03        -6.21291    -388.221E-03    -7.01089E-03     390.270E-03        -12.0240     110.850E-03    -55.1089E-03    -55.7387E-03    -55.7370E-03     110.848E-03    -55.1089E-03     1.06274E-03    -93.5386E+06    -95.1466E+06    -290.030E+06    -93.5479E+06    -290.020E+06    -95.1466E+06     745.601E+03         28.2684
             262     20.0193E-09     74.6929E-03         6.01340     421.552E-03        -6.43711    -341.797E-03    -81.9117E-03     421.552E-03        -12.4478     110.791E-03    -55.2372E-03    -55.5490E-03    -55.5472E-03     110.789E-03    -55.2372E-03     1.07650E-03    -92.5020E+06    -93.5257E+06    -289.568E+06    -93.5128E+06    -289.559E+06    -92.5245E+06     675.798E+03         28.2684
             263     121.206E-09     73.5769E-03         6.23167     358.181E-03        -6.57303    -342.378E-03     1.01861E-03     358.181E-03        -12.7997     110.794E-03    -55.2210E-03    -55.5661E-03    -55.5646E-03     110.793E-03    -55.2210E-03     957.815E-06    -89.7476E+06    -91.2519E+06    -288.548E+06    -90.7495E+06    -288.547E+06    -90.2507E+06    -290.139E+03         28.2697
             264     399.559E-09     72.4609E-03         6.36122     328.296E-03        -6.67493    -392.343E-03     78.6374E-03     328.296E-03        -13.0276     110.738E-03    -55.0944E-03    -55.6417E-03    -55.6400E-03     110.736E-03    -55.0944E-03     1.01942E-03    -92.3897E+06    -93.2007E+06    -288.030E+06    -92.6984E+06    -288.030E+06    -92.8927E+06     235.088E+03         28.2702
             265     113.418E-09     71.3451E-03         6.44970     317.882E-03        -6.75060    -399.296E-03     98.3988E-03     317.882E-03        -13.1909     110.829E-03    -55.1723E-03    -55.6611E-03    -55.6592E-03     110.827E-03    -55.1723E-03     1.11381E-03    -92.5284E+06    -93.8205E+06    -288.504E+06    -92.8488E+06    -288.491E+06    -93.5125E+06     1.34567E+06         28.2687
             266     305.413E-09     70.2290E-03         6.44447     355.394E-03        -6.79282    -387.385E-03     39.0262E-03     355.394E-03        -13.2302     111.019E-03    -55.2828E-03    -55.7286E-03    -55.7270E-03     111.017E-03    -55.2828E-03     1.01196E-03    -91.0765E+06    -93.1421E+06    -288.594E+06    -92.1703E+06    -288.582E+06    -92.0606E+06     1.31916E+06         28.2693
             267     133.107E-09     69.1128E-03         6.34928     435.547E-03        -6.79706    -346.961E-03    -100.817E-03     435.547E-03        -13.1436     111.044E-03    -55.3292E-03    -55.7058E-03    -55.7044E-03     111.042E-03    -55.3292E-03     975.851E-06    -90.3490E+06    -91.4437E+06    -289.559E+06    -91.4692E+06    -289.520E+06    -90.3622E+06    -1.70891E+06         28.2700
             268     159.407E-09     67.9963E-03         6.28214     442.433E-03        -6.72619    -382.084E-03    -61.9677E-03     442.433E-03        -13.0031     110.995E-03    -55.2067E-03    -55.7877E-03    -55.7867E-03     110.994E-03    -55.2067E-03     804.018E-06    -89.5857E+06    -90.9590E+06    -289.869E+06    -89.6242E+06    -289.831E+06    -90.9590E+06    -1.76173E+06         28.2678
             269     637.068E-09     66.8805E-03         6.18162     424.348E-03        -6.61267    -466.506E-03     35.4592E-03     424.348E-03        -12.7844     111.037E-03    -55.2417E-03    -55.7903E-03    -55.7890E-03     111.036E-03    -55.2417E-03     908.832E-06    -91.4733E+06    -94.4273E+06    -291.148E+06    -93.0765E+06    -291.139E+06    -92.8334E+06     1.13035E+06         28.2671
             270    -376.942E-09     65.7639E-03         6.05704     437.691E-03        -6.51183    -503.584E-03     48.7915E-03     437.691E-03        -12.5566     111.136E-03    -55.4952E-03    -55.6349E-03    -55.6143E-03     111.134E-03    -55.5139E-03     1.10874E-03    -91.0862E+06    -93.7844E+06    -290.820E+06    -92.6911E+06    -290.809E+06    -92.1905E+06     488.947E+03         28.2711
             271     332.067E-09     64.6469E-03         5.97838     419.340E-03        -6.40269    -523.921E-03     99.6062E-03     419.340E-03        -12.3653     111.215E-03    -55.3345E-03    -55.8784E-03    -55.8576E-03     111.213E-03    -55.3532E-03     1.15182E-03    -90.0695E+06    -91.7032E+06    -289.485E+06     -90.602E+06    -289.482E+06    -91.1738E+06    -135.698E+03         28.2760
             272     674.025E-09     63.5311E-03         5.86192     425.020E-03        -6.29483    -474.094E-03     41.1875E-03     425.020E-03        -12.1452     111.139E-03    -55.1633E-03    -55.9766E-03    -55.9747E-03     111.137E-03    -55.1633E-03     1.13877E-03    -91.6139E+06    -92.3077E+06    -289.425E+06    -92.1459E+06    -289.423E+06    -91.7782E+06    -76.0908E+03         28.2770
             273    -119.609E-09     62.4146E-03         5.69572     444.468E-03        -6.14236    -415.986E-03    -30.6538E-03     444.468E-03        -11.8318     111.008E-03    -55.2394E-03    -55.7671E-03    -55.7658E-03     111.007E-03    -55.2394E-03     948.935E-06    -92.7419E+06    -93.0688E+06    -289.543E+06    -92.7434E+06    -289.541E+06    -93.0688E+06    -367.066E+03         28.2738
             274     16.0941E-03     60.5822E-03     12.9777E-03    -2.28587E-03    -11.9579E-03     6.67733E-03    -5.65753E-03    -2.28587E-03    -3.83066E-03     112.908E-03    -54.4238E-03    -58.6662E-03    -53.5615E-03     108.670E-03    -55.2906E-03     44.6281E-03     164.502E+06     124.311E+06    -7.33760E+06    -7.33008E+06     164.494E+06     124.311E+06    -38.6067E+03         45.1785
             275     15.1463E-03     60.5003E-03     17.1891E-03    -2.79095E-03    -15.0401E-03     4.75333E-03    -2.60431E-03    -2.79095E-03     13.6012E-03     114.206E-03    -55.2560E-03    -59.1387E-03    -53.7334E-03     108.801E-03    -55.2560E-03     58.2838E-03     163.480E+06     109.337E+06    -14.7855E+06    -14.7763E+06     163.471E+06     109.337E+06    -644.493E+03         42.3169
             276     14.1987E-03     60.4549E-03     18.6441E-03    -3.21267E-03    -15.0852E-03     2.70442E-03     854.522E-06    -3.21267E-03    -4.10272E-03     112.271E-03    -55.1664E-03    -57.2915E-03    -53.7098E-03     108.689E-03    -55.1664E-03     48.3769E-03     159.006E+06     68.1784E+06    -21.2898E+06    -21.2846E+06     159.001E+06     68.1784E+06    -844.880E+03         39.2536
             277     13.2516E-03     60.3944E-03     17.8480E-03    -3.50488E-03    -14.1131E-03    -309.195E-06     4.04416E-03    -3.50488E-03     8.87913E-03     112.242E-03    -55.0869E-03    -57.2491E-03    -53.9007E-03     108.893E-03    -55.0869E-03     46.4723E-03     131.395E+06     25.0288E+06    -26.3417E+06    -26.3365E+06     131.390E+06     25.0288E+06    -771.635E+03         36.6502
             278     12.3040E-03     60.3535E-03     17.6564E-03    -3.87051E-03    -13.7399E-03     2.67010E-03     1.24633E-03    -3.87051E-03     15.2129E-03     111.011E-03    -55.1284E-03    -55.9950E-03    -54.1801E-03     109.196E-03    -55.1284E-03     34.4332E-03     57.8767E+06     6.88696E+06    -29.9908E+06    -29.9871E+06     57.8730E+06     6.88696E+06    -353.908E+03         34.7704
             279     11.3575E-03     60.3199E-03     22.2103E-03    -4.07347E-03    -18.8246E-03    -5.61008E-03     8.99572E-03    -4.07347E-03     21.8997E-03     110.646E-03    -55.1664E-03    -55.5696E-03    -54.3869E-03     109.544E-03    -55.2474E-03     26.6564E-03     5.51488E+06    -15.1146E+06    -41.7620E+06    -33.1794E+06    -21.1124E+06     2.93008E+06     230.185E+03         33.4826
             280     10.4103E-03     60.2964E-03     40.8296E-03    -3.71525E-03    -37.7022E-03    -10.5313E-03     13.6587E-03    -3.71525E-03    -21.7635E-03     110.553E-03    -55.1636E-03    -55.3246E-03    -54.4919E-03     109.882E-03    -55.3246E-03     20.9989E-03     246.126E+03    -36.3279E+06    -75.3451E+06    -36.3360E+06    -75.3371E+06     246.126E+03     372.312E+03         32.4757
             281     9.46374E-03     60.2752E-03     55.4340E-03    -3.52748E-03    -52.0363E-03    -1.34574E-03     4.74339E-03    -3.52748E-03     12.0198E-03     110.658E-03    -55.1784E-03    -55.3942E-03    -54.6694E-03     110.149E-03    -55.3942E-03     18.3117E-03    -1.35890E+06    -39.9445E+06    -115.390E+06    -39.9470E+06    -115.387E+06    -1.35890E+06     74.0674E+03         31.6029
             282     8.51672E-03     60.2570E-03     67.2409E-03    -3.45337E-03    -64.6713E-03    -6.81102E-03     9.38068E-03    -3.45337E-03    -11.0566E-03     110.673E-03    -55.1540E-03    -55.4961E-03    -54.7779E-03     110.297E-03    -55.4961E-03     15.7087E-03    -4.13012E+06    -44.3423E+06    -148.154E+06    -44.3457E+06    -148.151E+06    -4.13012E+06     121.837E+03         30.8553
             283     7.57037E-03     60.2415E-03     99.6927E-03    -2.76064E-03    -98.0939E-03    -10.6760E-03     12.2749E-03    -2.76064E-03     55.0689E-03     110.726E-03    -55.1820E-03    -55.5844E-03    -54.9126E-03     110.457E-03    -55.5844E-03     13.3286E-03    -7.04530E+06    -49.1534E+06    -179.040E+06    -49.1686E+06    -179.025E+06    -7.04530E+06     912.758E+03         30.2239
             284     6.62378E-03     60.2281E-03     158.072E-03    -2.75048E-03    -156.618E-03     4.35089E-03    -2.89632E-03    -2.75048E-03    -63.4371E-03     110.867E-03    -55.2865E-03    -55.6608E-03    -55.0833E-03     110.664E-03    -55.6608E-03     11.5839E-03    -9.95818E+06    -54.1743E+06    -207.475E+06    -54.1884E+06    -207.461E+06    -9.95818E+06     1.04693E+06         29.7062
             285     5.67740E-03     60.2163E-03     246.298E-03    -4.03014E-03    -243.678E-03     5.48518E-03    -2.86515E-03    -4.03014E-03     110.873E-03     110.996E-03    -55.3536E-03    -55.6902E-03    -55.1999E-03     110.843E-03    -55.6902E-03     10.0845E-03    -18.5392E+06    -60.2265E+06    -228.679E+06    -60.2288E+06    -228.677E+06    -18.5392E+06     440.861E+03         29.2872
             286     4.73117E-03     60.2063E-03     408.464E-03    -4.61290E-03    -403.224E-03    -6.76302E-03     12.0025E-03    -4.61290E-03    -211.090E-03     111.086E-03    -55.3835E-03    -55.7097E-03    -55.2717E-03     110.974E-03    -55.7097E-03     8.58429E-03    -31.6521E+06    -67.9986E+06    -247.532E+06    -68.0007E+06    -247.530E+06    -31.6521E+06    -129.661E+03         28.9506
             287     3.78458E-03     60.1977E-03     668.452E-03    -4.39278E-03    -662.916E-03    -4.66911E-03     10.2057E-03    -4.39278E-03     309.592E-03     111.117E-03    -55.4292E-03    -55.6660E-03    -55.3561E-03     111.044E-03    -55.6660E-03     6.92748E-03    -47.6029E+06    -75.5560E+06    -263.599E+06    -75.5595E+06    -263.596E+06    -47.6029E+06     162.534E+03         28.6839
             288     2.83846E-03     60.1910E-03         1.07244    -4.67696E-03        -1.06692    -2.93891E-03     8.45957E-03    -4.67696E-03    -498.395E-03     111.097E-03    -55.5028E-03    -55.5895E-03    -55.4602E-03     111.055E-03    -55.5895E-03     5.26253E-03    -64.4307E+06    -81.6219E+06    -274.156E+06    -81.6255E+06    -274.152E+06    -64.4307E+06     720.489E+03         28.4865
             289     1.89237E-03     60.1863E-03         1.87027    -4.52869E-03        -1.86295    -6.41497E-03     13.7314E-03    -4.52869E-03         1.09560     111.065E-03    -55.5082E-03    -55.5690E-03    -55.5005E-03     111.045E-03    -55.5568E-03     3.53073E-03    -77.8289E+06    -86.9582E+06    -284.354E+06    -86.9609E+06    -284.351E+06    -77.8289E+06     390.654E+03         28.3588
             290     946.112E-06     60.1835E-03         3.93670     212.951E-03        -4.14793    -221.225E-03     9.98648E-03     212.951E-03        -3.25143     111.013E-03    -55.4193E-03    -55.5917E-03    -55.5542E-03     111.007E-03    -55.4502E-03     1.99131E-03    -87.4628E+06    -90.8041E+06    -288.973E+06    -90.6364E+06    -288.971E+06    -87.6321E+06    -41.5461E+03         28.2905
             291     16.0939E-03     59.4663E-03     10.0218E-03    -2.18195E-03    -10.9274E-03    -2.02118E-03     1.11555E-03    -2.18195E-03    -9.03991E-03     112.917E-03    -54.3770E-03    -58.6823E-03    -53.5266E-03     108.672E-03    -55.2880E-03     44.4469E-03     165.234E+06     124.600E+06    -7.51624E+06    -7.50577E+06     165.223E+06     124.600E+06    -169.320E+03         45.1659
             292     15.1460E-03     59.3841E-03     9.76392E-03    -2.23399E-03    -9.37096E-03     773.267E-06    -380.305E-06    -2.23399E-03    -3.83147E-03     114.157E-03    -55.2492E-03    -59.1549E-03    -53.7582E-03     108.760E-03    -55.2492E-03     58.1521E-03     164.154E+06     109.526E+06    -15.1102E+06    -15.0959E+06     164.140E+06     109.526E+06    -771.893E+03         42.3073
             293     14.1990E-03     59.3379E-03     14.2527E-03    -2.56515E-03    -12.7673E-03     5.96867E-03    -4.48333E-03    -2.56515E-03    -4.61018E-03     112.206E-03    -55.1595E-03    -57.2843E-03    -53.7390E-03     108.661E-03    -55.1595E-03     48.1012E-03     158.403E+06     67.7237E+06    -22.1293E+06    -22.1201E+06     158.393E+06     67.7237E+06    -976.848E+03         39.2464
             294     13.2512E-03     59.2789E-03     15.0498E-03    -3.09669E-03    -12.2125E-03     4.67298E-03    -1.83567E-03    -3.09669E-03     8.88449E-03     112.242E-03    -55.0846E-03    -57.2443E-03    -53.8840E-03     108.881E-03    -55.0846E-03     46.5970E-03     131.131E+06     25.6041E+06    -27.3480E+06    -27.3450E+06     131.128E+06     25.6041E+06    -162.567E+03         36.6451
             295     12.3045E-03     59.2365E-03     18.3856E-03    -3.29259E-03    -16.2252E-03    -4.45003E-03     6.61044E-03    -3.29259E-03    -4.15782E-03     110.921E-03    -55.1321E-03    -55.8963E-03    -54.0752E-03     109.100E-03    -55.1321E-03     34.4363E-03     57.6026E+06     7.34674E+06    -31.2548E+06    -31.2531E+06     57.6009E+06     7.34674E+06     199.114E+03         34.7677
             296     11.3571E-03     59.2044E-03     23.8152E-03    -3.17571E-03    -21.9615E-03    -3.56946E-03     5.42309E-03    -3.17571E-03    -4.55897E-03     110.592E-03    -55.2051E-03    -55.4873E-03    -54.3449E-03     109.499E-03    -55.2539E-03     26.5868E-03     5.11230E+06    -16.1831E+06    -42.7680E+06    -34.5128E+06    -21.6315E+06     2.30554E+06     143.076E+03         33.4819
             297     10.4102E-03     59.1796E-03     41.1598E-03    -3.14162E-03    -39.3181E-03    -2.39491E-03     4.23660E-03    -3.14162E-03    -47.5555E-03     110.625E-03    -55.2140E-03    -55.3489E-03    -54.5570E-03     109.952E-03    -55.3331E-03     21.0095E-03    -51.8455E+03    -37.5458E+06    -75.1680E+06    -37.5495E+06    -75.1643E+06    -51.8455E+03     159.045E+03         32.4764
             298     9.46359E-03     59.1594E-03     54.2421E-03    -2.51998E-03    -53.6094E-03    -14.7918E-03     15.4245E-03    -2.51998E-03    -11.3076E-03     110.663E-03    -55.1831E-03    -55.3980E-03    -54.6786E-03     110.158E-03    -55.3980E-03     18.2382E-03    -1.66182E+06    -41.2034E+06    -115.142E+06    -41.2095E+06    -115.136E+06    -1.66182E+06     212.139E+03         31.6047
             299     8.51693E-03     59.1406E-03     68.6955E-03    -1.04207E-03    -70.6077E-03    -15.6082E-03     13.6960E-03    -1.04207E-03    -42.2216E-03     110.704E-03    -55.1840E-03    -55.4975E-03    -54.8070E-03     110.327E-03    -55.4975E-03     15.7263E-03    -4.49695E+06    -45.6773E+06    -148.759E+06    -45.6836E+06    -148.753E+06    -4.49695E+06     442.916E+03         30.8576
             300     7.57028E-03     59.1254E-03     98.8306E-03    -81.3921E-06    -101.499E-03    -1.55314E-03    -1.11515E-03    -81.3921E-06     23.9051E-03     110.790E-03    -55.2577E-03    -55.5731E-03    -54.9868E-03     110.519E-03    -55.5731E-03     13.3759E-03    -8.58872E+06    -50.3333E+06    -178.681E+06    -50.3374E+06    -178.676E+06    -8.58872E+06     88.2071E+03         30.2257
             301     6.62392E-03     59.1119E-03     147.305E-03    -356.925E-06    -149.076E-03     5.34094E-03    -7.11203E-03    -356.925E-06    -73.1159E-03     110.869E-03    -55.3171E-03    -55.6391E-03    -55.1097E-03     110.662E-03    -55.6391E-03     11.7036E-03    -11.9736E+06    -55.0263E+06    -207.329E+06    -55.0298E+06    -207.325E+06    -11.9736E+06    -302.481E+03         29.7073
             302     5.67741E-03     59.1001E-03     237.737E-03    -1.88191E-03    -238.279E-03     11.8651E-03    -12.4072E-03    -1.88191E-03     107.470E-03     110.964E-03    -55.3408E-03    -55.6725E-03    -55.1861E-03     110.810E-03    -55.6725E-03     10.1100E-03    -19.2033E+06    -60.7286E+06    -228.778E+06    -60.7323E+06    -228.774E+06    -19.2033E+06     273.159E+03         29.2877
             303     4.73095E-03     59.0898E-03     402.316E-03    -3.81246E-03    -399.133E-03     4.38314E-03    -1.20013E-03    -3.81246E-03    -217.981E-03     111.070E-03    -55.3850E-03    -55.6916E-03    -55.2747E-03     110.960E-03    -55.6916E-03     8.52539E-03    -31.2817E+06    -67.5751E+06    -246.788E+06    -67.5768E+06    -246.786E+06    -31.2817E+06     473.599E+03         28.9501
             304     3.78494E-03     59.0815E-03     640.391E-03    -3.97363E-03    -637.060E-03    -8.92393E-03     12.2542E-03    -3.97363E-03     258.520E-03     111.087E-03    -55.4183E-03    -55.6542E-03    -55.3452E-03     111.014E-03    -55.6542E-03     6.93380E-03    -46.6349E+06    -75.1163E+06    -264.284E+06    -75.1169E+06    -264.283E+06    -46.6349E+06     311.634E+03         28.6821
             305     2.83845E-03     59.0748E-03         1.03230    -6.03433E-03        -1.02719     10.2131E-03    -5.09985E-03    -6.03433E-03    -523.408E-03     111.038E-03    -55.4508E-03    -55.5849E-03    -55.4080E-03     110.995E-03    -55.5849E-03     5.25821E-03    -63.7652E+06    -81.6090E+06    -274.099E+06    -81.6112E+06    -274.097E+06    -63.7652E+06     561.027E+03         28.4839
             306     1.89221E-03     59.0699E-03         1.85098    -17.7261E-03        -1.83244     18.2114E-03     322.763E-06    -17.7261E-03         1.10058     111.050E-03    -55.4887E-03    -55.5682E-03    -55.4810E-03     111.030E-03    -55.5560E-03     3.54306E-03    -77.7815E+06    -86.2904E+06    -283.309E+06    -86.2926E+06    -283.307E+06    -77.7815E+06     218.739E+03         28.3563
             307     946.309E-06     59.0672E-03         3.89810     184.359E-03        -4.07813    -237.943E-03     57.9131E-03     184.359E-03        -3.18497     111.032E-03    -55.3955E-03    -55.6345E-03    -55.6090E-03     111.025E-03    -55.4143E-03     1.96611E-03    -87.0817E+06    -89.8480E+06    -288.848E+06    -89.6800E+06    -288.846E+06    -87.2511E+06    -458.318E+03         28.2892
             308     16.0942E-03     58.3510E-03     17.8743E-03    -1.48405E-03    -16.9217E-03     403.909E-06     548.764E-06    -1.48405E-03    -18.0994E-03     113.052E-03    -54.4535E-03    -58.7694E-03    -53.6459E-03     108.760E-03    -55.2850E-03     44.5923E-03     166.039E+06     125.428E+06    -7.66886E+06    -7.66373E+06     166.034E+06     125.428E+06     24.0350E+03         45.1545
             309     15.1468E-03     58.2670E-03     9.94717E-03    -1.73060E-03    -9.28440E-03     4.80355E-03    -4.14078E-03    -1.73060E-03     5.87967E-03     114.150E-03    -55.2161E-03    -59.1394E-03    -53.7023E-03     108.713E-03    -55.2161E-03     58.2954E-03     164.118E+06     109.817E+06    -16.2008E+06    -16.1904E+06     164.108E+06     109.817E+06    -194.469E+03         42.2984
             310     14.1987E-03     58.2227E-03     11.3745E-03    -2.14144E-03    -11.6322E-03     4.18396E-03    -4.44164E-03    -2.14144E-03     5.16384E-03     112.198E-03    -55.1317E-03    -57.2469E-03    -53.6965E-03     108.648E-03    -55.1317E-03     48.1078E-03     157.754E+06     68.1428E+06    -23.6226E+06    -23.6105E+06     157.742E+06     68.1428E+06    -922.452E+03         39.2390
             311     13.2517E-03     58.1619E-03     18.6484E-03    -2.14698E-03    -19.4077E-03    -7.11329E-03     6.35393E-03    -2.14698E-03     16.5195E-03     112.250E-03    -55.0883E-03    -57.2570E-03    -53.8874E-03     108.880E-03    -55.0883E-03     46.6398E-03     130.237E+06     25.5717E+06    -28.2887E+06    -28.2833E+06     130.231E+06     25.5717E+06    -268.886E+03         36.6402
             312     12.3039E-03     58.1210E-03     25.4455E-03    -1.54307E-03    -26.3583E-03    -11.1215E-03     10.2086E-03    -1.54307E-03    -9.91174E-03     110.870E-03    -55.1338E-03    -55.8486E-03    -54.0350E-03     109.057E-03    -55.1338E-03     34.3630E-03     57.2707E+06     6.81087E+06    -31.5180E+06    -31.5123E+06     57.2650E+06     6.81087E+06     432.506E+03         34.7661
             313     11.3570E-03     58.0877E-03     28.9179E-03    -1.35426E-03    -29.6451E-03     4.13178E-03    -4.85898E-03    -1.35426E-03    -9.54616E-03     110.633E-03    -55.2448E-03    -55.4956E-03    -54.3928E-03     109.543E-03    -55.2573E-03     26.5414E-03     5.18135E+06    -16.3003E+06    -42.6811E+06    -34.5695E+06    -21.3702E+06     2.13965E+06     176.369E+03         33.4829
             314     10.4104E-03     58.0636E-03     32.0136E-03    -1.79214E-03    -33.0260E-03     3.35180E-03    -4.36424E-03    -1.79214E-03    -19.2613E-03     110.627E-03    -55.2223E-03    -55.3538E-03    -54.5735E-03     109.962E-03    -55.3379E-03     20.8822E-03    -218.110E+03    -37.6603E+06    -75.1052E+06    -37.6664E+06    -75.0991E+06    -218.110E+03    -30.8818E+03         32.4783
             315     9.46350E-03     58.0430E-03     51.5548E-03    -1.29536E-03    -53.8079E-03    -15.7537E-03     13.5006E-03    -1.29536E-03     28.0078E-03     110.663E-03    -55.1850E-03    -55.3993E-03    -54.6845E-03     110.162E-03    -55.3993E-03     18.1701E-03    -1.99041E+06    -41.2183E+06    -115.401E+06    -41.2228E+06    -115.397E+06    -1.99041E+06     240.114E+03         31.6065
             316     8.51681E-03     58.0244E-03     73.9241E-03     497.687E-06    -78.6318E-03    -18.9433E-03     14.2357E-03     497.687E-06    -17.3485E-03     110.727E-03    -55.2208E-03    -55.4946E-03    -54.8428E-03     110.349E-03    -55.4946E-03     15.7499E-03    -4.71788E+06    -44.9643E+06    -148.504E+06    -44.9684E+06    -148.500E+06    -4.71788E+06     67.2154E+03         30.8590
             317     7.57037E-03     58.0090E-03     95.6976E-03     1.68628E-03    -101.302E-03    -260.454E-06    -5.34370E-03     1.68628E-03     32.1533E-03     110.793E-03    -55.2779E-03    -55.5697E-03    -55.0064E-03     110.522E-03    -55.5697E-03     13.3874E-03    -8.46716E+06    -49.2545E+06    -177.811E+06    -49.2575E+06    -177.808E+06    -8.46716E+06    -503.470E+03         30.2266
             318     6.62389E-03     57.9957E-03     143.045E-03     759.129E-06    -146.879E-03     15.4031E-03    -19.2371E-03     759.129E-06    -60.7672E-03     110.904E-03    -55.3581E-03    -55.6284E-03    -55.1509E-03     110.697E-03    -55.6284E-03     11.7024E-03    -12.5787E+06    -55.0650E+06    -207.742E+06    -55.0684E+06    -207.739E+06    -12.5787E+06    -617.509E+03         29.7078
             319     5.67753E-03     57.9837E-03     241.917E-03    -1.26173E-03    -243.373E-03     10.3409E-03    -11.7971E-03    -1.26173E-03     135.821E-03     110.967E-03    -55.3513E-03    -55.6534E-03    -55.1964E-03     110.813E-03    -55.6534E-03     10.1155E-03    -20.4637E+06    -61.6860E+06    -229.685E+06    -61.6891E+06    -229.682E+06    -20.4637E+06    -194.356E+03         29.2880
             320     4.73136E-03     57.9736E-03     390.139E-03    -2.11975E-03    -390.780E-03    -3.37244E-03     2.73067E-03    -2.11975E-03    -162.145E-03     111.026E-03    -55.3550E-03    -55.6740E-03    -55.2454E-03     110.917E-03    -55.6740E-03     8.49185E-03    -31.8350E+06    -68.2690E+06    -246.414E+06    -68.2708E+06    -246.412E+06    -31.8350E+06     198.577E+03         28.9499
             321     3.78464E-03     57.9653E-03     604.104E-03    -1.72989E-03    -605.654E-03    -3.93443E-03     2.38458E-03    -1.72989E-03     266.957E-03     111.071E-03    -55.4087E-03    -55.6435E-03    -55.3360E-03     110.998E-03    -55.6435E-03     6.91499E-03    -45.7591E+06    -75.0449E+06    -264.189E+06    -75.0459E+06    -264.188E+06    -45.7591E+06     105.938E+03         28.6808
             322     2.83863E-03     57.9585E-03         1.00895    -4.45667E-03        -1.00514     13.5378E-03    -9.72589E-03    -4.45667E-03    -537.180E-03     111.021E-03    -55.4367E-03    -55.5721E-03    -55.3936E-03     110.978E-03    -55.5721E-03     5.27570E-03    -62.6112E+06    -81.3909E+06    -274.247E+06    -81.3921E+06    -274.246E+06    -62.6112E+06    -46.4483E+03         28.4813
             323     1.89237E-03     57.9538E-03         1.84060    -15.0470E-03        -1.82544     15.3787E-03    -215.929E-06    -15.0470E-03         1.11476     111.000E-03    -55.4603E-03    -55.5456E-03    -55.4404E-03     110.980E-03    -55.5456E-03     3.53984E-03    -77.5409E+06    -86.2816E+06    -282.723E+06    -86.2825E+06    -282.722E+06    -77.5409E+06     122.233E+03         28.3536
             324     945.900E-06     57.9507E-03         3.86355     202.717E-03        -4.06508    -248.056E-03     46.5267E-03     202.717E-03        -3.14051     111.036E-03    -55.3405E-03    -55.6952E-03    -55.6622E-03     111.029E-03    -55.3671E-03     1.88627E-03    -87.0607E+06    -89.9180E+06    -288.946E+06    -89.5480E+06    -288.945E+06    -87.4319E+06    -90.1947E+03         28.2871
             325     16.0941E-03     57.2338E-03     16.4445E-03    -682.382E-06    -14.7352E-03     6.71768E-03    -5.00844E-03    -682.382E-06    -19.8420E-03     113.056E-03    -54.4959E-03    -58.7171E-03    -53.6300E-03     108.766E-03    -55.2931E-03     44.6230E-03     165.425E+06     125.371E+06    -7.11989E+06    -7.11644E+06     165.421E+06     125.371E+06    -228.892E+03         45.1437
             326     15.1461E-03     57.1515E-03     13.1693E-03    -975.808E-06    -14.2636E-03     3.29843E-03    -4.39265E-03    -975.808E-06    -13.9140E-03     114.154E-03    -55.2330E-03    -59.0899E-03    -53.6477E-03     108.712E-03    -55.2330E-03     58.3392E-03     164.240E+06     110.438E+06    -14.2080E+06    -14.2056E+06     164.237E+06     110.438E+06     428.987E+03         42.2907
             327     14.1988E-03     57.1058E-03     12.4599E-03    -908.854E-06    -14.1116E-03    -4.02003E-03     2.36828E-03    -908.854E-06    -18.8165E-03     112.237E-03    -55.1339E-03    -57.2417E-03    -53.6834E-03     108.679E-03    -55.1339E-03     48.1775E-03     158.548E+06     67.3713E+06    -21.9424E+06    -21.9327E+06     158.539E+06     67.3713E+06     365.893E+03         39.2330
             328     13.2511E-03     57.0462E-03     20.4692E-03    -597.889E-06    -23.1702E-03    -3.50767E-03     806.620E-06    -597.889E-06     14.2533E-03     112.282E-03    -55.0829E-03    -57.2858E-03    -53.9284E-03     108.925E-03    -55.0829E-03     46.5491E-03     129.249E+06     23.3389E+06    -28.4026E+06    -28.3949E+06     129.241E+06     23.3389E+06    -43.1949E+03         36.6363
             329     12.3042E-03     57.0047E-03     26.3987E-03    -724.772E-06    -28.7693E-03     6.43516E-03    -8.80572E-03    -724.772E-06     2.64833E-03     110.956E-03    -55.1322E-03    -55.9325E-03    -54.1309E-03     109.155E-03    -55.1322E-03     34.2724E-03     57.3894E+06     6.08839E+06    -32.0028E+06    -31.9941E+06     57.3807E+06     6.08839E+06    -9.43415E+03         34.7648
             330     11.3573E-03     56.9716E-03     26.2348E-03    -1.24392E-03    -27.2755E-03     4.24125E-03    -5.28193E-03    -1.24392E-03     11.2513E-03     110.626E-03    -55.2037E-03    -55.5259E-03    -54.3919E-03     109.542E-03    -55.2537E-03     26.4599E-03     5.91312E+06    -15.9155E+06    -42.7867E+06    -34.2948E+06    -20.7776E+06     2.28332E+06    -135.092E+03         33.4837
             331     10.4103E-03     56.9474E-03     30.7324E-03    -1.53474E-03    -32.1966E-03    -540.324E-06    -923.956E-06    -1.53474E-03    -1.40666E-03     110.586E-03    -55.2067E-03    -55.3318E-03    -54.5450E-03     109.925E-03    -55.3318E-03     20.8368E-03    -349.303E+03    -37.1895E+06    -75.4257E+06    -37.1946E+06    -75.4207E+06    -349.303E+03    -120.527E+03         32.4800
             332     9.46360E-03     56.9268E-03     51.3143E-03    -1.81452E-03    -53.9367E-03     2.67675E-03    -5.29917E-03    -1.81452E-03     42.4770E-03     110.689E-03    -55.2153E-03    -55.3918E-03    -54.7152E-03     110.188E-03    -55.3918E-03     18.1644E-03    -2.04929E+06    -40.5479E+06    -115.398E+06    -40.5498E+06    -115.396E+06    -2.04929E+06    -106.396E+03         31.6080
             333     8.51698E-03     56.9080E-03     74.1431E-03    -2.07229E-03    -75.9386E-03    -2.07594E-03     280.394E-06    -2.07229E-03    -115.406E-06     110.723E-03    -55.2138E-03    -55.4903E-03    -54.8373E-03     110.346E-03    -55.4903E-03     15.7226E-03    -4.67155E+06    -44.5526E+06    -148.065E+06    -44.5541E+06    -148.064E+06    -4.67155E+06    -321.365E+03         30.8598
             334     7.57033E-03     56.8927E-03     103.217E-03    -1.81637E-03    -104.293E-03    -7.01107E-03     5.93475E-03    -1.81637E-03     57.6770E-03     110.791E-03    -55.2714E-03    -55.5681E-03    -54.9995E-03     110.519E-03    -55.5681E-03     13.4003E-03    -8.62156E+06    -49.5054E+06    -177.787E+06    -49.5071E+06    -177.785E+06    -8.62156E+06    -388.850E+03         30.2269
             335     6.62393E-03     56.8792E-03     151.735E-03    -1.72532E-03    -152.337E-03     523.191E-06    -1.12586E-03    -1.72532E-03    -38.3817E-03     110.913E-03    -55.3697E-03    -55.6220E-03    -55.1626E-03     110.706E-03    -55.6220E-03     11.6991E-03    -12.7634E+06    -55.1640E+06    -207.941E+06    -55.1653E+06    -207.940E+06    -12.7634E+06    -384.638E+03         29.7081
             336     5.67756E-03     56.8676E-03     243.892E-03    -2.80448E-03    -242.727E-03     7.76524E-03    -6.59998E-03    -2.80448E-03     144.430E-03     110.959E-03    -55.3472E-03    -55.6431E-03    -55.1931E-03     110.805E-03    -55.6431E-03     10.0888E-03    -20.6797E+06    -61.4857E+06    -229.960E+06    -61.4872E+06    -229.959E+06    -20.6797E+06    -436.334E+03         29.2883
             337     4.73107E-03     56.8575E-03     389.333E-03    -5.24024E-03    -385.991E-03     10.0823E-03    -6.74061E-03    -5.24024E-03    -146.964E-03     111.013E-03    -55.3458E-03    -55.6662E-03    -55.2354E-03     110.903E-03    -55.6662E-03     8.53293E-03    -32.1169E+06    -68.5009E+06    -246.821E+06    -68.5020E+06    -246.820E+06    -32.1169E+06    -277.461E+03         28.9501
             338     3.78507E-03     56.8491E-03     618.605E-03    -8.06679E-03    -612.508E-03     1.86133E-03     4.23545E-03    -8.06679E-03     309.118E-03     111.042E-03    -55.3847E-03    -55.6348E-03    -55.3114E-03     110.969E-03    -55.6348E-03     6.93338E-03    -46.2272E+06    -75.5021E+06    -263.665E+06    -75.5032E+06    -263.664E+06    -46.2272E+06    -309.851E+03         28.6805
             339     2.83851E-03     56.8424E-03         1.02900    -7.08246E-03        -1.02293    -20.8074E-03     26.8834E-03    -7.08246E-03    -511.091E-03     111.021E-03    -55.4391E-03    -55.5592E-03    -55.3955E-03     110.977E-03    -55.5589E-03     5.34735E-03    -63.3596E+06    -82.2548E+06    -274.446E+06    -82.2559E+06    -274.445E+06    -63.3596E+06    -410.643E+03         28.4804
             340     1.89230E-03     56.8376E-03         1.83643     1.87337E-03        -1.83742    -24.8216E-03     23.8301E-03     1.87337E-03         1.11109     111.027E-03    -55.4789E-03    -55.5499E-03    -55.4965E-03     111.006E-03    -55.5118E-03     3.54709E-03    -78.3954E+06    -87.7752E+06    -283.146E+06    -87.7760E+06    -283.146E+06    -78.3954E+06    -45.8428E+03         28.3519
             341     946.421E-06     56.8346E-03         3.83335     256.979E-03        -4.09037    -239.818E-03    -17.1968E-03     256.979E-03        -3.13555     110.912E-03    -55.3602E-03    -55.5522E-03    -55.5270E-03     110.907E-03    -55.3798E-03     1.78787E-03    -88.4508E+06    -91.6243E+06    -288.740E+06    -91.0998E+06    -288.732E+06    -88.9833E+06     610.782E+03         28.2843
             342     16.0941E-03     56.1180E-03     12.0300E-03    -115.092E-06    -15.1908E-03    -8.09764E-03     4.93685E-03    -115.092E-06    -16.3110E-03     112.966E-03    -54.5153E-03    -58.5502E-03    -53.5638E-03     108.751E-03    -55.2866E-03     44.3511E-03     164.783E+06     124.601E+06    -7.34514E+06    -7.33284E+06     164.771E+06     124.601E+06    -926.345E+03         45.1336
             343     15.1465E-03     56.0351E-03     14.2524E-03     438.564E-06    -17.7149E-03    -8.04215E-03     4.57964E-03     438.564E-06    -11.5210E-03     113.999E-03    -55.2593E-03    -58.8878E-03    -53.5041E-03     108.615E-03    -55.2593E-03     58.0904E-03     162.700E+06     108.745E+06    -14.5108E+06    -14.4968E+06     162.686E+06     108.745E+06     123.117E+03         42.2835
             344     14.1985E-03     55.9898E-03     14.8530E-03     858.376E-06    -18.3027E-03    -1.96092E-03    -1.48873E-03     858.376E-06    -1.32874E-03     112.185E-03    -55.1678E-03    -57.1936E-03    -53.6445E-03     108.636E-03    -55.1678E-03     48.1501E-03     158.664E+06     67.1427E+06    -21.4822E+06    -21.4646E+06     158.646E+06     67.1427E+06     1.68957E+06         39.2287
             345     13.2513E-03     55.9298E-03     17.0445E-03     640.569E-06    -19.4659E-03     10.5319E-03    -12.9533E-03     640.569E-06     11.8382E-03     112.307E-03    -55.0879E-03    -57.3083E-03    -53.9767E-03     108.976E-03    -55.0879E-03     46.4138E-03     130.443E+06     24.9166E+06    -26.9933E+06    -26.9799E+06     130.429E+06     24.9166E+06     1.16122E+06         36.6339
             346     12.3042E-03     55.8881E-03     20.3292E-03    -186.686E-06    -21.9594E-03     13.0665E-03    -14.6967E-03    -186.686E-06    -9.81240E-03     110.975E-03    -55.1355E-03    -55.9461E-03    -54.1391E-03     109.168E-03    -55.1355E-03     34.3227E-03     58.1701E+06     7.08342E+06    -30.5161E+06    -30.5083E+06     58.1624E+06     7.08342E+06    -284.547E+03         34.7637
             347     11.3573E-03     55.8554E-03     15.8085E-03    -683.970E-06    -18.0679E-03     140.819E-06    -2.40020E-03    -683.970E-06    -5.47166E-03     110.618E-03    -55.2194E-03    -55.5087E-03    -54.3792E-03     109.526E-03    -55.2568E-03     26.5757E-03     5.72818E+06    -15.5249E+06      -42.39E+06    -33.4749E+06    -21.1638E+06     2.45199E+06    -445.193E+03         33.4840
             348     10.4104E-03     55.8311E-03     29.0161E-03    -806.458E-06    -31.2442E-03     2.12278E-03    -4.35088E-03    -806.458E-06    -33.0166E-03     110.623E-03    -55.2457E-03    -55.3342E-03    -54.5746E-03     109.952E-03    -55.3334E-03     20.9921E-03    -204.371E+03    -36.5877E+06    -75.5260E+06    -36.5894E+06    -75.5242E+06    -204.371E+03    -255.242E+03         32.4810
             349     9.46365E-03     55.8104E-03     54.7040E-03    -1.60508E-03    -56.8252E-03     12.2906E-03    -14.4118E-03    -1.60508E-03     20.4690E-03     110.714E-03    -55.2435E-03    -55.3896E-03    -54.7422E-03     110.213E-03    -55.3896E-03     18.1844E-03    -1.83191E+06    -40.1820E+06    -115.329E+06    -40.1838E+06    -115.327E+06    -1.83191E+06    -328.416E+03         31.6088
             350     8.51699E-03     55.7919E-03     79.6413E-03    -3.25889E-03    -81.0482E-03     14.3940E-03    -15.8009E-03    -3.25889E-03    -28.9626E-03     110.726E-03    -55.2238E-03    -55.4868E-03    -54.8467E-03     110.349E-03    -55.4868E-03     15.7400E-03    -4.36844E+06    -44.3255E+06    -147.956E+06    -44.3260E+06    -147.955E+06    -4.36844E+06    -193.605E+03         30.8600
             351     7.57045E-03     55.7764E-03     105.041E-03    -4.61625E-03    -104.117E-03     1.69363E-03    -769.423E-06    -4.61625E-03     20.6258E-03     110.779E-03    -55.2659E-03    -55.5661E-03    -54.9927E-03     110.506E-03    -55.5661E-03     13.4291E-03    -8.37992E+06    -49.2044E+06    -178.012E+06    -49.2046E+06    -178.012E+06    -8.37992E+06    -125.361E+03         30.2268
             352     6.62396E-03     55.7628E-03     151.936E-03    -4.17616E-03    -150.681E-03    -15.7485E-03     17.0036E-03    -4.17616E-03    -72.7940E-03     110.880E-03    -55.3429E-03    -55.6181E-03    -55.1359E-03     110.673E-03    -55.6181E-03     11.6944E-03    -12.4402E+06    -55.0248E+06    -207.778E+06    -55.0257E+06    -207.777E+06    -12.4402E+06    -272.063E+03         29.7078
             353     5.67760E-03     55.7511E-03     246.737E-03    -3.38387E-03    -246.297E-03    -2.96869E-03     3.40825E-03    -3.38387E-03     117.877E-03     110.940E-03    -55.3374E-03    -55.6392E-03    -55.1850E-03     110.788E-03    -55.6392E-03     10.0311E-03    -20.4321E+06    -61.7048E+06    -230.079E+06    -61.7064E+06    -230.078E+06    -20.4321E+06    -477.725E+03         29.2884
             354     4.73131E-03     55.7413E-03     395.573E-03    -5.50862E-03    -393.457E-03     15.5296E-03    -13.4136E-03    -5.50862E-03    -178.853E-03     110.986E-03    -55.3280E-03    -55.6625E-03    -55.2180E-03     110.876E-03    -55.6625E-03     8.52550E-03    -33.4841E+06    -68.7076E+06    -247.217E+06    -68.7088E+06    -247.216E+06    -33.4841E+06    -301.024E+03         28.9507
             355     3.78469E-03     55.7328E-03     623.910E-03    -8.24345E-03    -618.354E-03    -2.80094E-03     8.35699E-03    -8.24345E-03     274.463E-03     111.047E-03    -55.3968E-03    -55.6266E-03    -55.3230E-03     110.973E-03    -55.6262E-03     6.97205E-03    -48.5119E+06    -75.8339E+06    -263.245E+06    -75.8348E+06    -263.244E+06    -48.5119E+06    -255.690E+03         28.6817
             356     2.83856E-03     55.7264E-03         1.03157    -1.96784E-03        -1.03017    -43.2321E-03     44.6325E-03    -1.96784E-03    -543.891E-03     111.044E-03    -55.4796E-03    -55.5484E-03    -55.4368E-03     111.000E-03    -55.5477E-03     5.32820E-03    -63.9834E+06    -82.4173E+06    -274.842E+06    -82.4182E+06    -274.841E+06    -63.9834E+06    -373.946E+03         28.4816
             357     1.89246E-03     55.7210E-03         1.81103     18.4392E-03        -1.82931    -35.3903E-03     17.1005E-03     18.4392E-03         1.03501     110.962E-03    -55.4284E-03    -55.5454E-03    -55.4458E-03     110.941E-03    -55.5074E-03     3.57872E-03    -78.2555E+06    -87.9466E+06    -283.843E+06    -87.9472E+06    -283.842E+06    -78.2555E+06    -148.705E+03         28.3520
             358     946.207E-06     55.7187E-03         3.78513     271.768E-03        -4.05278    -207.988E-03    -59.6613E-03     271.768E-03        -3.16183     110.917E-03    -55.3190E-03    -55.6008E-03    -55.5175E-03     110.911E-03    -55.3962E-03     1.85862E-03    -88.4547E+06    -92.2430E+06    -288.152E+06    -92.0892E+06    -288.144E+06    -88.6161E+06     628.908E+03         28.2833
             359     16.0945E-03     55.0009E-03     17.9125E-03     218.692E-06    -21.5866E-03    -5.08925E-03     1.41513E-03     218.692E-06    -5.88924E-03     112.991E-03    -54.4949E-03    -58.5180E-03    -53.4860E-03     108.744E-03    -55.2799E-03     44.5239E-03     164.938E+06     124.239E+06    -7.84759E+06    -7.83298E+06     164.924E+06     124.239E+06    -808.161E+03         45.1244
             360     15.1465E-03     54.9201E-03     15.7235E-03     663.260E-06    -18.7936E-03    -9.47310E-03     6.40296E-03     663.260E-06     14.4158E-03     114.161E-03    -55.2524E-03    -58.9524E-03    -53.5150E-03     108.724E-03    -55.2524E-03     58.4355E-03     160.430E+06     107.556E+06    -16.2870E+06    -16.2727E+06     160.416E+06     107.556E+06     150.253E+03         42.2780
             361     14.1988E-03     54.8730E-03     12.6252E-03     1.16265E-03    -16.3282E-03    -5.28896E-03     1.58592E-03     1.16265E-03     9.34481E-03     112.259E-03    -55.1722E-03    -57.2620E-03    -53.6817E-03     108.678E-03    -55.1722E-03     48.3941E-03     158.141E+06     68.0460E+06    -22.7734E+06    -22.7603E+06     158.128E+06     68.0460E+06     1.03947E+06         39.2264
             362     13.2515E-03     54.8136E-03     12.2525E-03     1.45024E-03    -14.9168E-03    -414.710E-06    -2.24952E-03     1.45024E-03     1.47038E-03     112.271E-03    -55.0961E-03    -57.2598E-03    -53.9146E-03     108.926E-03    -55.0961E-03     46.4971E-03     132.088E+06     26.7424E+06    -25.9210E+06    -25.9108E+06     132.078E+06     26.7424E+06     728.564E+03         36.6328
             363     12.3041E-03     54.7720E-03     12.2095E-03     1.65473E-03    -14.0669E-03    -508.375E-06    -1.34910E-03     1.65473E-03    -15.1285E-03     110.923E-03    -55.1388E-03    -55.8936E-03    -54.0852E-03     109.114E-03    -55.1388E-03     34.3153E-03     58.6890E+06     7.48073E+06    -29.0478E+06    -29.0331E+06     58.6742E+06     7.48073E+06     351.617E+03         34.7628
             364     11.3570E-03     54.7393E-03     12.4353E-03     1.59503E-03    -14.4003E-03     6.71537E-03    -8.68038E-03     1.59503E-03    -9.97557E-03     110.644E-03    -55.2638E-03    -55.4867E-03    -54.3962E-03     109.553E-03    -55.2638E-03     26.5692E-03     5.76795E+06    -15.1309E+06    -41.7399E+06    -32.7350E+06    -21.2359E+06     2.86806E+06    -70.4493E+03         33.4834
             365     10.4102E-03     54.7148E-03     28.5593E-03     934.285E-06    -31.3429E-03     11.8899E-03    -14.6735E-03     934.285E-06    -41.5300E-03     110.679E-03    -55.2944E-03    -55.3418E-03    -54.6223E-03     110.003E-03    -55.3380E-03     21.0629E-03     94.9075E+03    -36.2102E+06    -75.5572E+06    -36.2202E+06    -75.5472E+06     94.9075E+03    -304.103E+03         32.4807
             366     9.46363E-03     54.6940E-03     51.4854E-03    -80.2755E-06    -54.4972E-03     10.9116E-03    -13.9233E-03    -80.2755E-06     14.4614E-03     110.733E-03    -55.2674E-03    -55.3889E-03    -54.7655E-03     110.231E-03    -55.3889E-03     18.1965E-03    -1.57238E+06    -39.8383E+06    -115.314E+06    -39.8392E+06    -115.313E+06    -1.57238E+06    -128.261E+03         31.6087
             367     8.51708E-03     54.6756E-03     76.1041E-03    -1.10984E-03    -79.3675E-03     8.17510E-03    -11.4385E-03    -1.10984E-03    -36.0735E-03     110.764E-03    -55.2628E-03    -55.4846E-03    -54.8852E-03     110.386E-03    -55.4846E-03     15.7566E-03    -3.99481E+06    -44.2407E+06    -147.973E+06    -44.2408E+06    -147.973E+06    -3.99481E+06    -102.561E+03         30.8601
             368     7.57051E-03     54.6601E-03     103.688E-03    -1.98217E-03    -106.323E-03     4.48650E-03    -7.12091E-03    -1.98217E-03     19.3221E-03     110.788E-03    -55.2753E-03    -55.5652E-03    -55.0018E-03     110.515E-03    -55.5652E-03     13.4333E-03    -7.97312E+06    -49.0533E+06    -178.098E+06    -49.0538E+06    -178.097E+06    -7.97312E+06    -164.509E+03         30.2265
             369     6.62405E-03     54.6467E-03     155.839E-03    -2.47728E-03    -156.975E-03    -545.795E-06    -590.517E-06    -2.47728E-03    -83.7874E-03     110.829E-03    -55.2990E-03    -55.6217E-03    -55.0929E-03     110.623E-03    -55.6217E-03     11.6692E-03    -12.3601E+06    -54.5053E+06    -207.748E+06    -54.5058E+06    -207.748E+06    -12.3601E+06    -138.911E+03         29.7069
             370     5.67757E-03     54.6348E-03     241.012E-03    -2.01780E-03    -243.079E-03    -8.79010E-03     6.72279E-03    -2.01780E-03     87.1078E-03     110.899E-03    -55.3016E-03    -55.6446E-03    -55.1482E-03     110.745E-03    -55.6446E-03     10.0632E-03    -20.4493E+06    -61.1154E+06    -230.152E+06    -61.1168E+06    -230.150E+06    -20.4493E+06    -13.9556E+03         29.2877
             371     4.73113E-03     54.6252E-03     377.934E-03     278.796E-06    -384.747E-03    -16.6393E-03     9.82621E-03     278.796E-06    -191.529E-03     111.019E-03    -55.3626E-03    -55.6671E-03    -55.2526E-03     110.909E-03    -55.6671E-03     8.52079E-03    -33.1129E+06    -68.5869E+06    -247.492E+06    -68.5884E+06    -247.490E+06    -33.1129E+06     29.8636E+03         28.9510
             372     3.78490E-03     54.6168E-03     610.883E-03     4.43886E-03    -622.839E-03    -14.7148E-03     2.75909E-03     4.43886E-03     280.018E-03     111.086E-03    -55.4511E-03    -55.6136E-03    -55.3776E-03     111.013E-03    -55.6132E-03     6.96399E-03    -49.2346E+06    -75.7237E+06    -262.844E+06    -75.7241E+06    -262.844E+06    -49.2346E+06     11.1677E+03         28.6830
             373     2.83872E-03     54.6098E-03         1.00579     8.81107E-03        -1.01738    -2.62290E-03    -8.96859E-03     8.81107E-03    -508.536E-03     111.004E-03    -55.4631E-03    -55.5324E-03    -55.4207E-03     110.961E-03    -55.5320E-03     5.26361E-03    -64.7736E+06    -81.7595E+06    -274.801E+06    -81.7619E+06    -274.799E+06    -64.7736E+06    -445.620E+03         28.4831
             374     1.89237E-03     54.6054E-03         1.78067     9.59682E-03        -1.78537     14.0467E-03    -18.7409E-03     9.59682E-03         1.03445     110.904E-03    -55.3938E-03    -55.5282E-03    -55.3739E-03     110.884E-03    -55.5282E-03     3.54257E-03    -76.8925E+06    -86.8157E+06    -284.626E+06    -86.8179E+06    -284.623E+06    -76.8925E+06    -401.118E+03         28.3535
             375     945.886E-06     54.6022E-03         3.72958     229.470E-03        -3.94673    -212.863E-03    -4.29505E-03     229.470E-03        -3.07173     110.995E-03    -55.2997E-03    -55.6993E-03    -55.6036E-03     110.989E-03    -55.3890E-03     1.91008E-03    -86.4750E+06    -91.0060E+06    -287.867E+06    -90.5200E+06    -287.861E+06    -86.9667E+06    -472.620E+03         28.2852
             376     16.0935E-03     53.8861E-03     20.4394E-03     729.943E-06    -19.6300E-03     11.6163E-03    -10.8068E-03     729.943E-06    -4.55291E-03     112.951E-03    -54.3809E-03    -58.6495E-03    -53.4427E-03     108.653E-03    -55.2900E-03     44.6381E-03     164.247E+06     123.284E+06    -8.32769E+06    -8.31498E+06     164.234E+06     123.284E+06    -271.090E+03         45.1160
             377     15.1458E-03     53.8026E-03     14.7348E-03     458.973E-06    -15.9138E-03    -120.595E-06    -1.05840E-03     458.973E-06     6.60475E-03     114.313E-03    -55.2659E-03    -59.1571E-03    -53.6898E-03     108.846E-03    -55.2659E-03     58.5344E-03     160.285E+06     108.556E+06    -15.4330E+06    -15.4248E+06     160.276E+06     108.556E+06    -265.002E+03         42.2739
             378     14.1989E-03     53.7575E-03     14.9020E-03     859.648E-06    -16.9751E-03    -10.2365E-03     8.16334E-03     859.648E-06    -432.868E-06     112.283E-03    -55.1769E-03    -57.3363E-03    -53.7383E-03     108.685E-03    -55.1769E-03     48.4577E-03     158.320E+06     68.6849E+06    -21.4320E+06    -21.4303E+06     158.318E+06     68.6849E+06    -117.710E+03         39.2244
             379     13.2512E-03     53.6971E-03     17.2980E-03     1.70387E-03    -19.2961E-03    -11.8968E-03     9.89874E-03     1.70387E-03     17.5038E-03     112.293E-03    -55.1001E-03    -57.2709E-03    -53.8884E-03     108.911E-03    -55.1001E-03     46.6975E-03     131.690E+06     25.4738E+06    -26.6011E+06    -26.5971E+06     131.686E+06     25.4738E+06     374.375E+03         36.6312
             380     12.3041E-03     53.6560E-03     15.7505E-03     2.29205E-03    -15.9024E-03    -1.02574E-03     873.870E-06     2.29205E-03     11.1707E-03     110.968E-03    -55.1434E-03    -55.9355E-03    -54.1361E-03     109.169E-03    -55.1434E-03     34.2473E-03     59.3051E+06     7.49469E+06    -29.9326E+06    -29.9121E+06     59.2845E+06     7.49469E+06     504.134E+03         34.7617
             381     11.3572E-03     53.6229E-03     22.6033E-03     1.98684E-03    -21.1604E-03     11.4658E-03    -10.0229E-03     1.98684E-03     21.5315E-03     110.663E-03    -55.2544E-03    -55.5186E-03    -54.4168E-03     109.573E-03    -55.2664E-03     26.5612E-03     6.43478E+06    -14.5998E+06    -41.9190E+06    -32.5273E+06    -20.6971E+06     3.14042E+06     152.467E+03         33.4826
             382     10.4102E-03     53.5985E-03     31.1311E-03     1.23342E-03    -30.8887E-03     8.36538E-03    -8.12293E-03     1.23342E-03    -7.93141E-03     110.669E-03    -55.2817E-03    -55.3478E-03    -54.6102E-03     109.995E-03    -55.3448E-03     21.0415E-03     308.002E+03    -35.7945E+06    -75.6089E+06    -35.8189E+06    -75.5844E+06     308.002E+03     16.2790E+03         32.4802
             383     9.46353E-03     53.5778E-03     44.4745E-03     983.708E-06    -46.4302E-03    -714.632E-06    -1.24104E-03     983.708E-06     29.1219E-03     110.751E-03    -55.2847E-03    -55.3898E-03    -54.7814E-03     110.248E-03    -55.3898E-03     18.2253E-03    -1.72375E+06    -39.7456E+06    -115.679E+06    -39.7473E+06    -115.677E+06    -1.72375E+06     86.7026E+03         31.6086
             384     8.51702E-03     53.5594E-03     71.9780E-03     1.32547E-03    -76.0935E-03    -2.99529E-03    -1.12027E-03     1.32547E-03    -29.3938E-03     110.790E-03    -55.2896E-03    -55.4785E-03    -54.9116E-03     110.412E-03    -55.4785E-03     15.7649E-03    -4.07571E+06    -44.0145E+06    -147.704E+06    -44.0156E+06    -147.703E+06    -4.07571E+06     128.182E+03         30.8602
             385     7.57045E-03     53.5438E-03     98.5607E-03     1.68151E-03    -103.984E-03     374.893E-06    -5.79863E-03     1.68151E-03     26.0117E-03     110.782E-03    -55.2728E-03    -55.5591E-03    -54.9997E-03     110.509E-03    -55.5591E-03     13.4267E-03    -8.12892E+06    -48.9577E+06    -177.853E+06    -48.9587E+06    -177.852E+06    -8.12892E+06    -269.033E+03         30.2262
             386     6.62407E-03     53.5304E-03     154.898E-03     1.70987E-03    -160.298E-03     3.11154E-03    -8.51143E-03     1.70987E-03    -86.5863E-03     110.810E-03    -55.2786E-03    -55.6240E-03    -55.0725E-03     110.603E-03    -55.6240E-03     11.6625E-03    -12.8819E+06    -54.5828E+06    -208.259E+06    -54.5846E+06    -208.257E+06    -12.8819E+06    -49.2875E+03         29.7057
             387     5.67747E-03     53.5189E-03     239.148E-03     2.36418E-03    -245.650E-03    -6.00706E-03    -495.070E-06     2.36418E-03     82.5669E-03     110.891E-03    -55.2866E-03    -55.6518E-03    -55.1340E-03     110.738E-03    -55.6518E-03     10.0360E-03    -20.3583E+06    -61.0149E+06    -229.959E+06    -61.0169E+06    -229.957E+06    -20.3583E+06     245.621E+03         29.2861
             388     4.73109E-03     53.5087E-03     367.011E-03     5.37591E-03    -378.835E-03    -17.3267E-03     5.50262E-03     5.37591E-03    -178.097E-03     111.055E-03    -55.3959E-03    -55.6740E-03    -55.2868E-03     110.946E-03    -55.6740E-03     8.48522E-03    -31.4537E+06    -67.5153E+06    -247.332E+06    -67.5172E+06    -247.330E+06    -31.4537E+06    -190.641E+03         28.9501
             389     3.78497E-03     53.5004E-03     607.477E-03     9.53498E-03    -625.851E-03    -5.54277E-03    -12.8309E-03     9.53498E-03     309.921E-03     111.078E-03    -55.4339E-03    -55.6258E-03    -55.3599E-03     111.004E-03    -55.6258E-03     6.97822E-03    -45.9416E+06    -73.8724E+06    -262.814E+06    -73.8733E+06    -262.813E+06    -45.9416E+06    -196.625E+03         28.6828
             390     2.83857E-03     53.4938E-03         1.01132     7.13697E-03        -1.02283     32.6523E-03    -44.1676E-03     7.13697E-03    -490.029E-03     110.991E-03    -55.4303E-03    -55.5522E-03    -55.3862E-03     110.947E-03    -55.5522E-03     5.33443E-03    -62.7237E+06    -80.6718E+06    -274.392E+06    -80.6745E+06    -274.389E+06    -62.7237E+06    -61.3523E+03         28.4835
             391     1.89235E-03     53.4890E-03         1.79250    -9.16656E-03        -1.77881     38.8895E-03    -25.1961E-03    -9.16656E-03         1.04735     111.012E-03    -55.4607E-03    -55.5667E-03    -55.4860E-03     110.992E-03    -55.5214E-03     3.54253E-03    -77.2259E+06    -86.5340E+06    -284.856E+06    -86.5379E+06    -284.852E+06    -77.2259E+06    -380.218E+03         28.3550
             392     946.402E-06     53.4861E-03         3.74190     202.936E-03        -3.93169    -245.424E-03     55.6340E-03     202.936E-03        -3.04750     110.937E-03    -55.3469E-03    -55.5908E-03    -55.5605E-03     110.931E-03    -55.3706E-03     1.96147E-03    -87.2078E+06    -90.6120E+06    -288.876E+06    -90.1272E+06    -288.869E+06    -87.6995E+06    -799.981E+03         28.2874
             393     16.0941E-03     52.7700E-03     22.7758E-03     1.55428E-03    -23.5663E-03     2.76087E-03    -3.55135E-03     1.55428E-03    -9.16426E-03     113.059E-03    -54.5187E-03    -58.7483E-03    -53.7059E-03     108.790E-03    -55.2921E-03     44.6230E-03     165.407E+06     124.048E+06    -7.35933E+06    -7.34735E+06     165.395E+06     124.048E+06     96.5258E+03         45.1064
             394     15.1465E-03     52.6863E-03     14.7979E-03     1.35976E-03    -17.7484E-03     8.66602E-03    -11.6165E-03     1.35976E-03     818.915E-06     114.166E-03    -55.2575E-03    -59.1264E-03    -53.6918E-03     108.731E-03    -55.2575E-03     58.3784E-03     159.654E+06     107.229E+06    -15.5177E+06    -15.4990E+06     159.636E+06     107.229E+06    -867.131E+03         42.2677
             395     14.1983E-03     52.6413E-03     17.9097E-03     1.10853E-03    -20.3220E-03     3.40869E-03    -5.82098E-03     1.10853E-03     2.59849E-03     112.204E-03    -55.1833E-03    -57.2834E-03    -53.7139E-03     108.634E-03    -55.1833E-03     48.2754E-03     156.643E+06     68.0970E+06    -22.0712E+06    -22.0610E+06     156.632E+06     68.0970E+06    -588.018E+03         39.2202
             396     13.2513E-03     52.5808E-03     19.8202E-03     1.10857E-03    -20.4990E-03    -1.07918E-03     400.455E-06     1.10857E-03     19.7059E-03     112.281E-03    -55.1101E-03    -57.2881E-03    -53.9318E-03     108.925E-03    -55.1101E-03     46.5551E-03     131.586E+06     26.2461E+06    -26.3332E+06    -26.3288E+06     131.581E+06     26.2461E+06     497.514E+03         36.6287
             397     12.3039E-03     52.5394E-03     17.4068E-03     1.01727E-03    -15.5961E-03     4.42732E-03    -2.61664E-03     1.01727E-03     3.60794E-03     110.931E-03    -55.1446E-03    -55.9103E-03    -54.1060E-03     109.127E-03    -55.1446E-03     34.2854E-03     59.6710E+06     7.32368E+06    -29.5943E+06    -29.5780E+06     59.6547E+06     7.32368E+06     281.696E+03         34.7608
             398     11.3571E-03     52.5069E-03     21.6994E-03     748.678E-06    -19.0997E-03     3.16425E-03    -564.537E-06     748.678E-06     15.1019E-03     110.716E-03    -55.2564E-03    -55.5689E-03    -54.4583E-03     109.617E-03    -55.2684E-03     26.6881E-03     6.05602E+06    -14.9290E+06    -41.8836E+06    -32.8899E+06    -20.7034E+06     2.83668E+06     204.381E+03         33.4829
             399     10.4103E-03     52.4823E-03     30.7140E-03     926.317E-06    -29.4227E-03    -5.36367E-03     6.65498E-03     926.317E-06    -15.3716E-03     110.710E-03    -55.2972E-03    -55.3733E-03    -54.6449E-03     110.032E-03    -55.3480E-03     21.0793E-03     119.349E+03    -36.0653E+06    -75.4173E+06    -36.0840E+06    -75.3987E+06     119.349E+03     268.414E+03         32.4811
             400     9.46356E-03     52.4617E-03     43.4751E-03     1.72507E-03    -45.1503E-03    -8.24075E-03     6.56555E-03     1.72507E-03     21.2773E-03     110.759E-03    -55.2928E-03    -55.3888E-03    -54.7925E-03     110.258E-03    -55.3888E-03     18.1758E-03    -1.65209E+06    -39.3802E+06    -115.755E+06    -39.3842E+06    -115.751E+06    -1.65209E+06     108.422E+03         31.6092
             401     8.51701E-03     52.4431E-03     65.1253E-03     2.75161E-03    -69.6509E-03    -6.45322E-03     1.92759E-03     2.75161E-03    -25.7863E-03     110.780E-03    -55.2778E-03    -55.4732E-03    -54.9021E-03     110.404E-03    -55.4732E-03     15.7069E-03    -4.21315E+06    -43.1689E+06     -147.49E+06    -43.1708E+06    -147.488E+06    -4.21315E+06    -42.3164E+03         30.8602
             402     7.57056E-03     52.4276E-03     94.7355E-03     3.68171E-03    -99.8849E-03    -2.81524E-03    -2.33420E-03     3.68171E-03     34.9027E-03     110.773E-03    -55.2625E-03    -55.5614E-03    -54.9937E-03     110.504E-03    -55.5614E-03     13.3205E-03    -7.11160E+06    -48.1934E+06    -178.161E+06    -48.2069E+06    -178.148E+06    -7.11160E+06     471.307E+03         30.2261
             403     6.62388E-03     52.4144E-03     142.405E-03     4.46412E-03    -148.990E-03    -676.554E-06    -5.90783E-03     4.46412E-03    -62.1359E-03     110.814E-03    -55.2828E-03    -55.6215E-03    -55.0796E-03     110.611E-03    -55.6215E-03     11.5800E-03    -12.0550E+06    -54.8307E+06    -208.038E+06    -54.8459E+06    -208.023E+06    -12.0550E+06     531.423E+03         29.7053
             404     5.67757E-03     52.4027E-03     233.282E-03     5.60048E-03    -242.860E-03    -3.56710E-03    -6.01089E-03     5.60048E-03     122.592E-03     110.899E-03    -55.2954E-03    -55.6401E-03    -55.1427E-03     110.747E-03    -55.6401E-03     10.0491E-03    -20.7558E+06    -61.3496E+06    -229.269E+06    -61.3530E+06    -229.265E+06    -20.7558E+06    -377.644E+03         29.2849
             405     4.73130E-03     52.3925E-03     383.591E-03     6.76163E-03    -394.751E-03     2.81631E-03    -13.9761E-03     6.76163E-03    -179.207E-03     110.991E-03    -55.3284E-03    -55.6692E-03    -55.2171E-03     110.880E-03    -55.6692E-03     8.56602E-03    -32.3728E+06    -67.8031E+06    -247.249E+06    -67.8057E+06    -247.246E+06    -32.3728E+06    -674.484E+03         28.9488
             406     3.78477E-03     52.3841E-03     617.085E-03     6.43070E-03    -627.880E-03     12.1917E-03    -22.9869E-03     6.43070E-03     287.273E-03     111.042E-03    -55.3756E-03    -55.6389E-03    -55.3023E-03     110.969E-03    -55.6389E-03     6.93497E-03    -46.8887E+06    -74.9522E+06    -263.566E+06    -74.9533E+06    -263.565E+06    -46.8887E+06    -375.610E+03         28.6823
             407     2.83845E-03     52.3778E-03         1.02642     5.54124E-03        -1.03528     6.55403E-03    -15.4117E-03     5.54124E-03    -529.134E-03     111.031E-03    -55.4503E-03    -55.5704E-03    -55.4066E-03     110.988E-03    -55.5704E-03     5.33260E-03    -63.1648E+06    -81.4418E+06    -274.494E+06    -81.4427E+06    -274.493E+06    -63.1648E+06     114.898E+03         28.4840
             408     1.89235E-03     52.3726E-03         1.81095     6.30188E-03        -1.81271     2.79728E-03    -4.55682E-03     6.30188E-03         1.03303     111.044E-03    -55.4797E-03    -55.5838E-03    -55.5039E-03     111.023E-03    -55.5385E-03     3.63310E-03    -77.6896E+06    -86.6168E+06    -284.386E+06    -86.6190E+06    -284.383E+06    -77.6896E+06    -77.3561E+03         28.3559
             409     946.231E-06     52.3700E-03         3.74629     247.038E-03        -3.98655    -232.546E-03    -7.70777E-03     247.038E-03        -3.07141     110.985E-03    -55.3466E-03    -55.6397E-03    -55.6049E-03     110.978E-03    -55.3748E-03     1.94998E-03    -87.7230E+06    -90.6962E+06    -289.584E+06    -90.4391E+06    -289.582E+06    -87.9815E+06    -209.041E+03         28.2883
             410     16.0939E-03     51.6521E-03     24.8019E-03     1.74779E-03    -31.7286E-03    -6.76426E-03    -162.486E-06     1.74779E-03    -4.84250E-03     113.023E-03    -54.5407E-03    -58.6484E-03    -53.6725E-03     108.798E-03    -55.2917E-03     44.4568E-03     166.295E+06     124.506E+06    -7.54759E+06    -7.52692E+06     166.274E+06     124.506E+06      42.167E+03         45.0948
             411     15.1462E-03     51.5715E-03     15.0704E-03     892.446E-06    -20.8396E-03     1.01079E-03    -7.89702E-03     2.00942E-03     15.8965E-03     114.176E-03    -55.2579E-03    -59.0966E-03    -53.6761E-03     108.756E-03    -55.2579E-03     58.4125E-03     160.823E+06     107.408E+06    -15.9241E+06    -15.8958E+06     160.795E+06     107.408E+06    -413.279E+03         42.2586
             412     14.1987E-03     51.5242E-03     13.1251E-03     708.332E-06    -18.0167E-03     8.67184E-03    -14.6804E-03     1.82530E-03     4.28396E-03     112.230E-03    -55.1820E-03    -57.2753E-03    -53.6928E-03     108.647E-03    -55.1820E-03     48.4120E-03     155.558E+06     67.1659E+06    -23.1779E+06    -23.1569E+06     155.537E+06     67.1659E+06    -534.250E+03         39.2142
             413     13.2514E-03     51.4650E-03     14.7273E-03     1.29099E-03    -18.0163E-03     11.1592E-03    -14.4482E-03     1.29099E-03     2.25379E-03     112.229E-03    -55.1069E-03    -57.2153E-03    -53.8685E-03     108.882E-03    -55.1069E-03     46.5064E-03     130.853E+06     25.5666E+06    -27.7109E+06    -27.7032E+06     130.846E+06     25.5666E+06    -402.650E+03         36.6258
             414     12.3039E-03     51.4231E-03     14.1961E-03     915.687E-06    -14.7305E-03     2.71713E-03    -3.25153E-03     915.687E-06    -20.5242E-03     110.943E-03    -55.1442E-03    -55.9009E-03    -54.0929E-03     109.135E-03    -55.1442E-03     34.3026E-03     59.6096E+06     6.83169E+06    -30.6447E+06    -30.6370E+06     59.6019E+06     6.83169E+06     173.699E+03         34.7602
             415     11.3568E-03     51.3903E-03     16.5495E-03     1.19430E-03    -16.5465E-03    -6.14444E-03     6.14738E-03     1.19430E-03    -3.29519E-03     110.745E-03    -55.2646E-03    -55.5728E-03    -54.4886E-03     109.661E-03    -55.2646E-03     26.5092E-03     6.04580E+06    -15.2565E+06    -42.1210E+06    -33.3456E+06    -20.6559E+06     2.66974E+06     132.278E+03         33.4840
             416     10.4103E-03     51.3657E-03     25.8385E-03     1.94572E-03    -27.5173E-03    -7.03340E-03     5.35463E-03     1.94572E-03    -25.0168E-03     110.741E-03    -55.3103E-03    -55.3820E-03    -54.6912E-03     110.073E-03    -55.3334E-03     20.9353E-03    -25.8654E+03    -36.3010E+06    -75.3436E+06    -36.3043E+06    -75.3402E+06    -25.8654E+03     81.2953E+03         32.4825
             417     9.46373E-03     51.3451E-03     41.3701E-03     2.71972E-03    -45.2098E-03    -4.11936E-03     279.627E-06     2.71972E-03     17.2111E-03     110.752E-03    -55.2786E-03    -55.3781E-03    -54.7830E-03     110.256E-03    -55.3781E-03     18.0903E-03    -1.59232E+06    -39.7982E+06    -115.288E+06    -39.8008E+06    -115.285E+06    -1.59232E+06    -45.0214E+03         31.6099
             418     8.51714E-03     51.3266E-03     62.3724E-03     3.28590E-03    -66.8986E-03    -566.839E-06    -3.95934E-03     3.28590E-03    -25.2638E-03     110.742E-03    -55.2207E-03    -55.4712E-03    -54.8479E-03     110.369E-03    -55.4712E-03     15.6438E-03    -4.32798E+06    -44.0989E+06    -148.092E+06    -44.1031E+06    -148.088E+06    -4.32798E+06     63.1020E+03         30.8601
             419     7.57049E-03     51.3112E-03     97.6830E-03     3.27257E-03    -101.275E-03     6.79194E-03    -10.3840E-03     3.27257E-03     43.3262E-03     110.761E-03    -55.2402E-03    -55.5612E-03    -54.9721E-03     110.493E-03    -55.5612E-03     13.3038E-03    -7.39511E+06    -48.9233E+06    -179.031E+06    -48.9397E+06    -179.015E+06    -7.39511E+06     829.238E+03         30.2258
             420     6.62413E-03     51.2980E-03     133.906E-03     3.09457E-03    -136.787E-03     2.12080E-03    -5.00214E-03     3.09457E-03    -28.7114E-03     110.823E-03    -55.2968E-03    -55.6198E-03    -55.0926E-03     110.619E-03    -55.6198E-03     11.6107E-03    -11.1782E+06    -53.9257E+06    -206.572E+06    -53.9403E+06    -206.557E+06    -11.1782E+06     536.494E+03         29.7055
             421     5.67756E-03     51.2864E-03     217.447E-03     4.24069E-03    -221.629E-03    -9.07833E-03     4.89677E-03     4.24069E-03     140.721E-03     110.865E-03    -55.2630E-03    -55.6376E-03    -55.1094E-03     110.711E-03    -55.6376E-03     10.0737E-03    -20.5929E+06    -60.4490E+06    -228.851E+06    -60.4520E+06    -228.848E+06    -20.5929E+06    -165.533E+03         29.2851
             422     4.73109E-03     51.2763E-03     383.678E-03     5.98217E-03    -390.655E-03    -564.702E-06    -6.41192E-03     5.98217E-03    -194.760E-03     110.959E-03    -55.2867E-03    -55.6704E-03    -55.1751E-03     110.848E-03    -55.6704E-03     8.57170E-03    -33.3950E+06    -68.2642E+06    -247.471E+06    -68.2662E+06    -247.469E+06    -33.3950E+06    -157.403E+03         28.9488
             423     3.78474E-03     51.2682E-03     618.575E-03     6.85805E-03    -627.482E-03     5.08455E-03    -13.9922E-03     6.85805E-03     276.995E-03     111.073E-03    -55.4026E-03    -55.6419E-03    -55.3293E-03     111.000E-03    -55.6419E-03     6.93080E-03    -48.3762E+06    -75.9217E+06    -263.983E+06    -75.9222E+06    -263.982E+06    -48.3762E+06    -86.9692E+03         28.6827
             424     2.83859E-03     51.2613E-03         1.01213     11.7835E-03        -1.02522    -16.2809E-03     3.19676E-03     11.7835E-03    -514.383E-03     111.031E-03    -55.4542E-03    -55.5675E-03    -55.4117E-03     110.988E-03    -55.5675E-03     5.25685E-03    -65.3986E+06    -82.5018E+06    -274.587E+06    -82.5021E+06    -274.586E+06    -65.3986E+06     34.4461E+03         28.4848
             425     1.89223E-03     51.2566E-03         1.78496     27.4142E-03        -1.81054    -16.2742E-03    -9.30480E-03     27.4142E-03         1.04373     110.990E-03    -55.4463E-03    -55.5648E-03    -55.4259E-03     110.970E-03    -55.5648E-03     3.59384E-03    -78.9614E+06    -87.4074E+06    -283.920E+06    -87.4079E+06    -283.919E+06    -78.9614E+06    -42.5186E+03         28.3564
             426     945.945E-06     51.2537E-03         3.71832     259.188E-03        -3.97330    -182.608E-03    -72.3643E-03     259.188E-03        -3.05118     111.093E-03    -55.3939E-03    -55.7037E-03    -55.6382E-03     111.087E-03    -55.4530E-03     1.87314E-03    -87.7825E+06    -91.1186E+06    -290.375E+06    -90.8604E+06    -290.375E+06    -88.0410E+06    -114.231E+03         28.2884
             427     16.0939E-03     50.5374E-03     24.4463E-03     1.75135E-03    -34.7014E-03     5.71933E-03    -15.9744E-03     1.75135E-03    -7.79344E-03     112.875E-03    -54.3927E-03    -58.5956E-03    -53.4490E-03     108.630E-03    -55.2947E-03     44.5307E-03     166.037E+06     124.688E+06    -7.56580E+06    -7.54134E+06     166.013E+06     124.688E+06     335.920E+03         45.0828
             428     15.1461E-03     50.4539E-03     10.3144E-03     774.222E-06    -19.2483E-03    -6.33302E-03    -3.71785E-03     1.89119E-03     11.1290E-03     114.208E-03    -55.2689E-03    -59.0996E-03    -53.6575E-03     108.766E-03    -55.2689E-03     58.5146E-03     162.550E+06     108.909E+06    -15.6221E+06    -15.5947E+06     162.523E+06     108.909E+06     3.47631E+03         42.2491
             429     14.1987E-03     50.4087E-03     9.74604E-03     1.08313E-03    -18.2673E-03     494.954E-06    -10.1332E-03     2.20010E-03     5.43118E-03     112.321E-03    -55.1835E-03    -57.3700E-03    -53.7530E-03     108.704E-03    -55.1835E-03     48.6495E-03     156.243E+06     67.5110E+06    -22.9257E+06    -22.9083E+06     156.225E+06     67.5110E+06    -146.465E+03         39.2081
             430     13.2509E-03     50.3481E-03     12.3301E-03     2.13720E-03    -19.2783E-03     5.72354E-03    -12.6718E-03     2.13720E-03     17.1133E-03     112.359E-03    -55.1025E-03    -57.3366E-03    -53.9805E-03     109.003E-03    -55.1025E-03     46.5367E-03     129.998E+06     24.5794E+06    -28.4676E+06    -28.4531E+06     129.984E+06     24.5794E+06    -590.263E+03         36.6225
             431     12.3041E-03     50.3070E-03     10.8424E-03     2.08805E-03    -15.3250E-03     768.807E-06    -5.25147E-03     2.08805E-03    -4.41778E-03     111.036E-03    -55.1366E-03    -55.9940E-03    -54.2082E-03     109.250E-03    -55.1366E-03     34.1335E-03     59.3150E+06     6.71862E+06    -31.4204E+06    -31.4125E+06     59.3070E+06     6.71862E+06    -581.438E+03         34.7591
             432     11.3572E-03     50.2738E-03     14.9785E-03     2.24352E-03    -18.3783E-03     330.131E-06    -3.72987E-03     2.24352E-03     8.36883E-03     110.702E-03    -55.2350E-03    -55.5553E-03    -54.4602E-03     109.624E-03    -55.2520E-03     26.4161E-03     6.02973E+06    -15.4364E+06    -42.2686E+06    -33.5604E+06    -20.6204E+06     2.50545E+06    -203.015E+03         33.4839
             433     10.4105E-03     50.2496E-03     19.8401E-03     2.32862E-03    -22.9497E-03     2.21492E-03    -5.32453E-03     2.32862E-03    -5.44153E-03     110.656E-03    -55.2560E-03    -55.3452E-03    -54.6137E-03     109.990E-03    -55.3219E-03     20.9072E-03    -423.728E+03    -36.6457E+06    -75.5060E+06    -36.6461E+06    -75.5056E+06    -423.728E+03    -67.3347E+03         32.4820
             434     9.46382E-03     50.2287E-03     37.7198E-03     2.58507E-03    -41.6468E-03    -2.77923E-03    -1.14778E-03     2.58507E-03     35.0412E-03     110.701E-03    -55.2224E-03    -55.3740E-03    -54.7226E-03     110.202E-03    -55.3740E-03     18.1550E-03    -2.10262E+06    -40.5576E+06    -115.401E+06    -40.5632E+06    -115.395E+06    -2.10262E+06     202.966E+03         31.6091
             435     8.51714E-03     50.2104E-03     68.5307E-03     3.07102E-03    -73.6220E-03    -1.12715E-03    -3.96415E-03     3.07102E-03    -27.1976E-03     110.718E-03    -55.1939E-03    -55.4697E-03    -54.8189E-03     110.343E-03    -55.4697E-03     15.6926E-03    -4.53329E+06    -44.9773E+06    -148.523E+06    -44.9862E+06    -148.514E+06    -4.53329E+06     494.986E+03         30.8597
             436     7.57050E-03     50.1952E-03     93.7899E-03     3.52130E-03    -98.1967E-03     156.400E-06    -4.56319E-03     3.52130E-03     19.8037E-03     110.732E-03    -55.2258E-03    -55.5531E-03    -54.9538E-03     110.460E-03    -55.5531E-03     13.3977E-03    -8.40879E+06    -49.1688E+06    -178.464E+06    -49.1758E+06    -178.457E+06    -8.40879E+06    -227.759E+03         30.2258
             437     6.62395E-03     50.1817E-03     139.538E-03     4.28405E-03    -143.028E-03    -2.84900E-03    -641.908E-06     4.28405E-03    -70.4843E-03     110.812E-03    -55.2904E-03    -55.6234E-03    -55.0842E-03     110.606E-03    -55.6234E-03     11.6643E-03    -11.9814E+06    -53.9165E+06    -206.627E+06    -53.9206E+06    -206.623E+06    -11.9814E+06    -256.976E+03         29.7061
             438     5.67760E-03     50.1703E-03     220.776E-03     4.56362E-03    -223.822E-03     7.94345E-03    -10.9897E-03     4.56362E-03     92.3349E-03     110.895E-03    -55.2851E-03    -55.6503E-03    -55.1327E-03     110.743E-03    -55.6503E-03     10.0304E-03    -20.1190E+06    -60.1160E+06    -229.013E+06    -60.1215E+06    -229.008E+06    -20.1190E+06     733.695E+03         29.2862
             439     4.73113E-03     50.1602E-03     363.120E-03     4.30415E-03    -365.984E-03     4.24092E-03    -7.10567E-03     4.30415E-03    -193.051E-03     110.991E-03    -55.3271E-03    -55.6696E-03    -55.2170E-03     110.880E-03    -55.6696E-03     8.52502E-03    -33.2217E+06    -67.3028E+06    -246.925E+06    -67.3079E+06    -246.920E+06    -33.2217E+06     588.227E+03         28.9496
             440     3.78479E-03     50.1517E-03     606.912E-03     6.83873E-03    -613.802E-03    -13.5193E-03     6.62865E-03     6.83873E-03     300.593E-03     111.073E-03    -55.4083E-03    -55.6446E-03    -55.3349E-03     111.000E-03    -55.6446E-03     6.93922E-03    -46.7557E+06    -74.2861E+06    -264.127E+06    -74.2864E+06    -264.127E+06    -46.7557E+06     43.5772E+03         28.6830
             441     2.83852E-03     50.1452E-03     994.024E-03     13.3484E-03        -1.00581    -10.5598E-03    -1.23072E-03     13.3484E-03    -478.548E-03     111.038E-03    -55.4504E-03    -55.5828E-03    -55.4083E-03     110.996E-03    -55.5828E-03     5.22258E-03    -62.5108E+06    -80.5388E+06    -274.543E+06    -80.5391E+06    -274.543E+06    -62.5108E+06     53.9842E+03         28.4848
             442     1.89232E-03     50.1406E-03         1.73833     19.6100E-03        -1.75625     10.3729E-03    -28.2850E-03     19.6100E-03         1.01608     111.014E-03    -55.4647E-03    -55.5706E-03    -55.4443E-03     110.994E-03    -55.5706E-03     3.60698E-03    -77.2808E+06    -85.8125E+06    -283.668E+06    -85.8177E+06    -283.663E+06    -77.2808E+06     407.442E+03         28.3560
             443     946.198E-06     50.1372E-03         3.65534     225.192E-03        -3.87346    -181.534E-03    -36.5914E-03     225.192E-03        -3.01474     111.089E-03    -55.4467E-03    -55.6460E-03    -55.5853E-03     111.082E-03    -55.5005E-03     1.95024E-03    -87.0814E+06    -90.0919E+06    -290.672E+06    -89.9310E+06    -290.664E+06    -87.2504E+06    -63.1110E+03         28.2881
             444     16.0940E-03     49.4210E-03     23.6841E-03     2.64282E-03    -33.4391E-03     11.2650E-03    -21.0199E-03     2.64282E-03    -3.07500E-03     112.915E-03    -54.4196E-03    -58.6379E-03    -53.4661E-03     108.620E-03    -55.2966E-03     44.8507E-03     166.037E+06     124.775E+06    -6.92261E+06    -6.91277E+06     166.027E+06     124.775E+06     566.907E+03         45.0712
             445     15.1462E-03     49.3386E-03     16.5991E-03     2.34632E-03    -25.7929E-03     5.92206E-03    -15.1158E-03     2.34632E-03     583.319E-06     114.248E-03    -55.2666E-03    -59.1484E-03    -53.6796E-03     108.779E-03    -55.2666E-03     58.5852E-03     162.816E+06     108.714E+06    -15.0280E+06    -15.0097E+06     162.798E+06     108.714E+06     576.686E+03         42.2405
             446     14.1980E-03     49.2922E-03     10.4595E-03     2.12274E-03    -18.6978E-03    -552.705E-06    -7.94214E-03     2.37927E-03    -6.42654E-03     112.396E-03    -55.1843E-03    -57.4674E-03    -53.8875E-03     108.817E-03    -55.1843E-03     48.4226E-03     156.929E+06     68.3845E+06    -22.4542E+06    -22.4376E+06     156.913E+06     68.3845E+06    -23.3599E+03         39.2023
             447     13.2516E-03     49.2320E-03     7.24884E-03     2.39155E-03    -15.7229E-03    -1.55570E-03    -7.17489E-03     2.64808E-03     20.4022E-03     112.406E-03    -55.1073E-03    -57.4098E-03    -54.0796E-03     109.076E-03    -55.1073E-03     46.3852E-03     130.746E+06     26.2719E+06    -27.1498E+06    -27.1367E+06     130.733E+06     26.2719E+06    -706.348E+03         36.6189
             448     12.3044E-03     49.1906E-03     8.60015E-03     2.76607E-03    -15.8572E-03     4.00406E-03    -11.2611E-03     2.76607E-03     5.77090E-03     110.975E-03    -55.1300E-03    -55.9671E-03    -54.1734E-03     109.182E-03    -55.1300E-03     34.2258E-03     58.7331E+06     6.96413E+06    -30.2681E+06    -30.2604E+06     58.7253E+06     6.96413E+06    -726.560E+03         34.7566
             449     11.3574E-03     49.1580E-03     13.0905E-03     2.48899E-03    -18.4144E-03     8.14492E-03    -13.4688E-03     2.48899E-03     10.0039E-03     110.666E-03    -55.2309E-03    -55.5335E-03    -54.4134E-03     109.563E-03    -55.2479E-03     26.7151E-03     5.42809E+06    -15.5596E+06    -42.0698E+06    -33.3241E+06    -21.0392E+06     2.16201E+06    -240.007E+03         33.4817
             450     10.4105E-03     49.1332E-03     18.9192E-03     2.29148E-03    -23.8664E-03     1.60234E-03    -6.54946E-03     2.29148E-03    -9.14645E-03     110.629E-03    -55.2382E-03    -55.3319E-03    -54.5692E-03     109.951E-03    -55.3234E-03     21.0785E-03    -808.626E+03    -36.6349E+06    -75.8515E+06    -36.6384E+06    -75.8480E+06    -808.626E+03     69.3011E+03         32.4805
             451     9.46368E-03     49.1128E-03     30.3675E-03     2.61965E-03    -34.9510E-03    -2.98344E-03    -1.60007E-03     2.61965E-03     16.9187E-03     110.664E-03    -55.1934E-03    -55.3735E-03    -54.6905E-03     110.161E-03    -55.3735E-03     18.2074E-03    -2.64146E+06    -40.1084E+06    -116.032E+06    -40.1162E+06    -116.024E+06    -2.64146E+06     505.235E+03         31.6083
             452     8.51694E-03     49.0942E-03     61.3019E-03     3.53159E-03    -65.6613E-03    -7.43461E-03     3.07522E-03     3.53159E-03    -43.9851E-03     110.717E-03    -55.1975E-03    -55.4675E-03    -54.8209E-03     110.341E-03    -55.4675E-03     15.7268E-03    -4.49822E+06    -44.0070E+06    -147.737E+06    -44.0126E+06    -147.732E+06    -4.49822E+06     268.376E+03         30.8600
             453     7.57056E-03     49.0791E-03     97.9303E-03     5.66623E-03    -103.860E-03    -18.3307E-03     12.4009E-03     5.66623E-03     29.3018E-03     110.745E-03    -55.2377E-03    -55.5508E-03    -54.9653E-03     110.473E-03    -55.5508E-03     13.4054E-03    -8.22207E+06    -48.8920E+06    -177.449E+06    -48.8957E+06    -177.446E+06    -8.22207E+06    -532.399E+03         30.2273
             454     6.62400E-03     49.0656E-03     148.715E-03     8.16233E-03    -156.671E-03    -5.41805E-03    -2.53882E-03     8.16233E-03    -74.6159E-03     110.808E-03    -55.2906E-03    -55.6245E-03    -55.0856E-03     110.603E-03    -55.6245E-03     11.6300E-03    -13.5194E+06    -55.0386E+06    -208.259E+06    -55.0439E+06    -208.254E+06    -13.5194E+06    -126.629E+03         29.7078
             455     5.67746E-03     49.0540E-03     226.983E-03     8.06273E-03    -233.541E-03     21.2146E-03    -27.7723E-03     8.06273E-03     80.3022E-03     110.923E-03    -55.3212E-03    -55.6506E-03    -55.1699E-03     110.772E-03    -55.6506E-03     9.99809E-03    -21.6082E+06    -61.7207E+06    -229.282E+06    -61.7274E+06    -229.276E+06    -21.6082E+06     843.379E+03         29.2877
             456     4.73116E-03     49.0440E-03     361.828E-03     6.09122E-03    -366.213E-03     15.1971E-03    -19.5821E-03     6.09122E-03    -187.711E-03     111.014E-03    -55.3569E-03    -55.6631E-03    -55.2470E-03     110.904E-03    -55.6631E-03     8.51691E-03    -33.2414E+06    -68.4347E+06    -245.722E+06     -68.441E+06    -245.715E+06    -33.2414E+06     727.204E+03         28.9505
             457     3.78482E-03     49.0355E-03     595.932E-03     5.75596E-03    -599.426E-03     1.38771E-03    -4.88122E-03     5.75596E-03     281.557E-03     111.028E-03    -55.3783E-03    -55.6297E-03    -55.3044E-03     110.955E-03    -55.6297E-03     6.96042E-03    -48.1286E+06    -75.3072E+06    -263.712E+06    -75.3100E+06    -263.709E+06    -48.1286E+06    -25.4655E+03         28.6830
             458     2.83849E-03     49.0290E-03     977.355E-03     5.36270E-03    -979.911E-03     10.9088E-03    -13.4642E-03     5.36270E-03    -480.447E-03     111.030E-03    -55.4509E-03    -55.5749E-03    -55.4083E-03     110.987E-03    -55.5749E-03     5.25664E-03    -63.6986E+06    -81.4463E+06    -275.313E+06    -81.4477E+06    -275.312E+06    -63.6986E+06    -269.725E+03         28.4841
             459     1.89229E-03     49.0242E-03         1.72938    -1.04250E-03        -1.72093     20.6329E-03    -12.1858E-03    -1.04250E-03         1.01284     111.043E-03    -55.5018E-03    -55.5586E-03    -55.4871E-03     111.023E-03    -55.5532E-03     3.56781E-03    -77.3307E+06    -86.3280E+06    -284.005E+06    -86.3328E+06    -284.000E+06    -77.3307E+06     492.721E+03         28.3552
             460     946.025E-06     49.0214E-03         3.61732     194.706E-03        -3.80056    -207.858E-03     24.6246E-03     194.706E-03        -2.94916     111.020E-03    -55.3507E-03    -55.6686E-03    -55.6388E-03     111.013E-03    -55.3736E-03     2.00148E-03    -86.9449E+06    -89.7601E+06    -289.226E+06    -89.3073E+06    -289.215E+06    -87.4087E+06     544.853E+03         28.2873
             461     16.0938E-03     48.3055E-03     20.2025E-03     3.60513E-03    -28.9253E-03     423.990E-06    -9.14680E-03     3.60513E-03    -5.34188E-03     113.064E-03    -54.4715E-03    -58.7295E-03    -53.5779E-03     108.742E-03    -55.3017E-03     44.8423E-03     165.445E+06     124.094E+06    -7.82864E+06    -7.81558E+06     165.432E+06     124.094E+06     527.491E+03         45.0607
             462     15.1460E-03     48.2221E-03     18.7437E-03     3.50204E-03    -26.1765E-03     11.4524E-03    -18.8853E-03     3.50204E-03     6.85923E-03     114.412E-03    -55.2633E-03    -59.3176E-03    -53.8376E-03     108.932E-03    -55.2633E-03     58.6107E-03     163.423E+06     108.920E+06    -15.4455E+06    -15.4262E+06     163.404E+06     108.920E+06     764.738E+03         42.2332
             463     14.1993E-03     48.1761E-03     9.86057E-03     2.73126E-03    -17.1271E-03     4.64885E-03    -12.4563E-03     3.27222E-03    -9.56369E-03     112.376E-03    -55.1686E-03    -57.4738E-03    -53.8902E-03     108.792E-03    -55.1686E-03     48.3917E-03     158.110E+06     68.5042E+06    -22.1611E+06    -22.1483E+06     158.097E+06     68.5042E+06    -257.550E+03         39.1965
             464     13.2514E-03     48.1153E-03     5.71330E-03     2.80858E-03    -14.1376E-03     1.41076E-03    -10.3760E-03     3.34954E-03     9.89274E-03     112.282E-03    -55.1015E-03    -57.2791E-03    -53.9093E-03     108.913E-03    -55.1015E-03     46.6113E-03     130.878E+06     26.1102E+06    -26.8958E+06    -26.8883E+06     130.871E+06     26.1102E+06    -882.258E+03         36.6145
             465     12.3042E-03     48.0748E-03     11.9894E-03     3.42131E-03    -21.7109E-03     4.37599E-03    -14.0975E-03     3.42131E-03    -6.61117E-03     110.934E-03    -55.1360E-03    -55.9149E-03    -54.1047E-03     109.124E-03    -55.1360E-03     34.3687E-03     58.2548E+06     7.00379E+06    -30.2676E+06    -30.2645E+06     58.2516E+06     7.00379E+06    -497.919E+03         34.7539
             466     11.3570E-03     48.0414E-03     13.5341E-03     1.79548E-03    -21.7651E-03     601.580E-06    -10.5854E-03     3.54821E-03    -3.13228E-03     110.684E-03    -55.2488E-03    -55.5430E-03    -54.4311E-03     109.578E-03    -55.2546E-03     26.7410E-03     5.10732E+06    -15.7166E+06    -42.4386E+06    -33.2252E+06    -21.6895E+06     1.86688E+06    -87.8979E+03         33.4805
             467     10.4104E-03     48.0172E-03     21.1284E-03     2.28857E-03    -28.4876E-03    -2.93804E-03    -6.17395E-03     4.04130E-03    -22.6922E-03     110.663E-03    -55.2702E-03    -55.3417E-03    -54.6054E-03     109.990E-03    -55.3332E-03     21.0164E-03    -562.414E+03    -36.2335E+06    -75.9489E+06    -36.2388E+06    -75.9436E+06    -562.414E+03     110.620E+03         32.4806
             468     9.46361E-03     47.9966E-03     31.1237E-03     4.59254E-03    -39.3257E-03     969.895E-06    -9.17196E-03     4.59254E-03    -842.586E-06     110.682E-03    -55.2187E-03    -55.3759E-03    -54.7197E-03     110.183E-03    -55.3759E-03     18.1378E-03    -2.57472E+06    -39.3838E+06    -116.255E+06    -39.3869E+06    -116.252E+06    -2.57472E+06     85.9887E+03         31.6088
             469     8.51707E-03     47.9782E-03     49.1252E-03     4.95868E-03    -55.7188E-03     2.26894E-03    -8.86254E-03     4.95868E-03    -31.4577E-03     110.699E-03    -55.1881E-03    -55.4648E-03    -54.8148E-03     110.325E-03    -55.4648E-03     15.6564E-03    -4.57865E+06    -42.9069E+06    -147.010E+06    -42.9070E+06    -147.010E+06    -4.57865E+06    -20.5127E+03         30.8609
             470     7.57037E-03     47.9627E-03     96.9278E-03     5.26701E-03    -102.420E-03     2.65571E-03    -8.14796E-03     5.26701E-03     62.0828E-03     110.752E-03    -55.2310E-03    -55.5547E-03    -54.9623E-03     110.483E-03    -55.5547E-03     13.3143E-03    -7.28954E+06    -48.0939E+06    -177.720E+06    -48.1049E+06    -177.709E+06    -7.28954E+06     524.821E+03         30.2293
             471     6.62394E-03     47.9495E-03     144.554E-03     5.88038E-03    -150.422E-03    -1.15782E-03    -4.71054E-03     5.88038E-03    -36.6036E-03     110.849E-03    -55.3145E-03    -55.6248E-03    -55.1117E-03     110.646E-03    -55.6248E-03     11.5733E-03    -12.7299E+06    -54.9402E+06    -209.100E+06    -54.9547E+06    -209.085E+06    -12.7299E+06     1.06524E+06         29.7102
             472     5.67757E-03     47.9378E-03     217.922E-03     7.81301E-03    -224.263E-03    -10.0452E-03     3.70467E-03     7.81301E-03     111.218E-03     110.914E-03    -55.3165E-03    -55.6436E-03    -55.1649E-03     110.763E-03    -55.6436E-03     10.0076E-03    -21.3558E+06    -61.8910E+06    -228.971E+06    -61.8946E+06    -228.967E+06    -21.3558E+06     672.433E+03         29.2893
             473     4.73117E-03     47.9276E-03     360.057E-03     10.3332E-03    -368.395E-03    -95.7819E-06    -8.24199E-03     10.3332E-03    -176.135E-03     111.004E-03    -55.3487E-03    -55.6652E-03    -55.2396E-03     110.894E-03    -55.6652E-03     8.48268E-03    -32.6534E+06    -68.5046E+06    -245.043E+06    -68.5062E+06    -245.041E+06    -32.6534E+06     358.690E+03         28.9515
             474     3.78478E-03     47.9196E-03     573.111E-03     9.61054E-03    -582.379E-03     23.9992E-03    -33.2671E-03     9.61054E-03     251.167E-03     111.053E-03    -55.4075E-03    -55.6309E-03    -55.3342E-03     110.980E-03    -55.6309E-03     6.94350E-03    -47.7675E+06    -75.3263E+06    -262.750E+06    -75.3293E+06    -262.747E+06    -47.7675E+06     74.6821E+03         28.6836
             475     2.83853E-03     47.9126E-03     962.069E-03     3.12724E-03    -964.194E-03     31.4870E-03    -33.6121E-03     3.12724E-03    -519.676E-03     111.033E-03    -55.4722E-03    -55.5584E-03    -55.4292E-03     110.990E-03    -55.5584E-03     5.27168E-03    -64.5550E+06    -82.0325E+06    -276.093E+06    -82.0341E+06    -276.091E+06    -64.5550E+06    -128.829E+03         28.4841
             476     1.89237E-03     47.9080E-03         1.72253    -7.00556E-03        -1.71357     14.7606E-03    -5.79818E-03    -7.00556E-03     991.363E-03     111.023E-03    -55.4945E-03    -55.5448E-03    -55.5096E-03     111.004E-03    -55.5101E-03     3.51744E-03    -78.7078E+06    -87.3745E+06    -284.285E+06    -87.3746E+06    -284.285E+06    -78.7078E+06     33.6823E+03         28.3544
             477     946.371E-06     47.9049E-03         3.57955     176.635E-03        -3.75495    -201.588E-03     26.1859E-03     176.635E-03        -2.90237     110.910E-03    -55.2909E-03    -55.6172E-03    -55.6107E-03     110.903E-03    -55.2909E-03     1.94650E-03    -87.4809E+06    -90.5463E+06    -288.295E+06    -90.2549E+06    -288.291E+06    -87.7758E+06     356.320E+03         28.2854
             478     16.0940E-03     47.1895E-03     29.0361E-03     4.19573E-03    -33.8024E-03     6.83280E-03    -11.5991E-03     4.19573E-03    -17.0799E-03     113.323E-03    -54.5883E-03    -58.8677E-03    -53.7871E-03     108.957E-03    -55.3038E-03     44.8721E-03     165.334E+06     124.663E+06    -7.87457E+06    -7.86120E+06     165.321E+06     124.663E+06     870.018E+03         45.0508
             479     15.1465E-03     47.1049E-03     14.3227E-03     4.10937E-03    -22.0573E-03     4.36699E-03    -12.1016E-03     4.10937E-03     22.8909E-03     114.474E-03    -55.2588E-03    -59.3706E-03    -53.8412E-03     108.945E-03    -55.2588E-03     58.8400E-03     163.627E+06     108.994E+06    -15.5274E+06    -15.5132E+06     163.613E+06     108.994E+06     753.305E+03         42.2270
             480     14.1986E-03     47.0598E-03     9.83932E-03     3.80301E-03    -19.4382E-03     4.66500E-03    -14.5483E-03     4.08744E-03     9.46227E-03     112.248E-03    -55.1619E-03    -57.3385E-03    -53.7539E-03     108.664E-03    -55.1619E-03     48.3486E-03     158.969E+06     68.0448E+06    -22.1866E+06    -22.1804E+06     158.962E+06     68.0448E+06    -636.652E+03         39.1911
             481     13.2513E-03     46.9992E-03     8.59931E-03     2.14279E-03    -16.9889E-03     1.90431E-03    -12.3229E-03     4.17173E-03     12.7636E-03     112.226E-03    -55.0971E-03    -57.2238E-03    -53.8467E-03     108.849E-03    -55.0971E-03     46.6364E-03     130.539E+06     25.8782E+06    -27.1256E+06    -27.1192E+06     130.533E+06     25.8782E+06    -775.938E+03         36.6103
             482     12.3039E-03     46.9581E-03     9.82333E-03     1.40912E-03    -18.2820E-03    -3.07082E-03    -8.56156E-03     4.58283E-03    -9.10760E-03     110.983E-03    -55.1397E-03    -55.9498E-03    -54.1560E-03     109.189E-03    -55.1397E-03     34.1999E-03     57.5028E+06     7.15459E+06    -30.7198E+06    -30.7170E+06     57.5000E+06     7.15459E+06    -356.842E+03         34.7527
             483     11.3573E-03     46.9250E-03     15.1494E-03     2.13130E-03    -24.5870E-03    -4.17004E-03    -8.44949E-03     5.31325E-03     5.32989E-03     110.698E-03    -55.2407E-03    -55.5597E-03    -54.4686E-03     109.614E-03    -55.2476E-03     26.4915E-03     4.99942E+06    -15.7632E+06    -42.8411E+06    -33.7240E+06    -21.7384E+06     1.85752E+06    -154.046E+03         33.4812
             484     10.4103E-03     46.9006E-03     25.3819E-03     4.08693E-03    -36.1023E-03     3.58065E-03    -16.0538E-03     5.83967E-03    -11.0264E-03     110.632E-03    -55.2562E-03    -55.3229E-03    -54.5913E-03     109.967E-03    -55.3229E-03     20.8849E-03    -493.536E+03    -36.4092E+06    -75.9484E+06    -36.4202E+06    -75.9375E+06    -493.536E+03    -264.889E+03         32.4812
             485     9.46378E-03     46.8802E-03     43.0265E-03     5.64210E-03    -54.0379E-03     11.7206E-03    -22.7320E-03     5.64210E-03     23.8830E-03     110.681E-03    -55.2172E-03    -55.3751E-03    -54.7212E-03     110.185E-03    -55.3751E-03     18.0850E-03    -2.02986E+06    -39.5095E+06    -115.717E+06    -39.5152E+06    -115.711E+06    -2.02986E+06    -510.930E+03         31.6093
             486     8.51707E-03     46.8617E-03     56.4704E-03     4.89418E-03    -65.6921E-03     12.6013E-03    -21.8229E-03     4.89418E-03    -4.50157E-03     110.718E-03    -55.2036E-03    -55.4639E-03    -54.8309E-03     110.345E-03    -55.4639E-03     15.6426E-03    -4.81525E+06    -43.3667E+06    -147.538E+06    -43.3718E+06    -147.533E+06    -4.81525E+06    -296.061E+03         30.8612
             487     7.57055E-03     46.8463E-03     81.6906E-03     3.75961E-03    -87.1746E-03     14.8475E-03    -20.3315E-03     3.75961E-03     43.0741E-03     110.765E-03    -55.2323E-03    -55.5586E-03    -54.9666E-03     110.499E-03    -55.5586E-03     13.2345E-03    -6.44700E+06    -47.9101E+06    -179.611E+06    -47.9296E+06    -179.591E+06    -6.44700E+06     1.25501E+06         30.2298
             488     6.62394E-03     46.8332E-03     132.017E-03     3.19407E-03    -135.918E-03     1.47780E-03    -5.37836E-03     3.19407E-03    -58.6350E-03     110.831E-03    -55.2851E-03    -55.6276E-03    -55.0853E-03     110.631E-03    -55.6276E-03     11.4903E-03    -9.67436E+06    -53.5176E+06    -208.021E+06    -53.5407E+06    -207.997E+06    -9.67436E+06     1.74136E+06         29.7112
             489     5.67753E-03     46.8215E-03     209.847E-03     5.29006E-03    -216.064E-03    -18.3496E-03     12.1333E-03     5.29006E-03     100.029E-03     110.893E-03    -55.2978E-03    -55.6440E-03    -55.1464E-03     110.742E-03    -55.6440E-03     9.99921E-03    -19.3673E+06    -59.8955E+06    -227.696E+06    -59.9002E+06    -227.692E+06    -19.3673E+06     420.811E+03         29.2902
             490     4.73107E-03     46.8114E-03     345.078E-03     9.44518E-03    -355.068E-03    -12.6377E-03     2.64731E-03     9.44518E-03    -175.057E-03     111.010E-03    -55.3664E-03    -55.6689E-03    -55.2572E-03     110.901E-03    -55.6689E-03     8.48444E-03    -32.1795E+06    -66.5089E+06    -245.303E+06    -66.5098E+06    -245.302E+06    -32.1795E+06    -156.760E+03         28.9524
             491     3.78486E-03     46.8032E-03     557.613E-03     12.4337E-03    -571.836E-03     5.97490E-03    -20.1983E-03     12.4337E-03     254.531E-03     111.105E-03    -55.4543E-03    -55.6379E-03    -55.3817E-03     111.033E-03    -55.6379E-03     6.91223E-03    -45.4756E+06    -73.1745E+06    -262.458E+06    -73.1748E+06    -262.458E+06    -45.4756E+06     135.494E+03         28.6848
             492     2.83865E-03     46.7965E-03     938.699E-03     14.3207E-03    -955.370E-03     7.96839E-03    -24.6397E-03     14.3207E-03    -510.128E-03     111.068E-03    -55.4973E-03    -55.5607E-03    -55.4545E-03     111.025E-03    -55.5607E-03     5.26866E-03    -60.5607E+06    -79.8061E+06    -276.186E+06    -79.8071E+06    -276.185E+06    -60.5607E+06     353.040E+03         28.4849
             493     1.89240E-03     46.7916E-03         1.66061     15.2196E-03        -1.68276     16.1940E-03    -38.3378E-03     15.2196E-03     939.372E-03     110.975E-03    -55.4562E-03    -55.5321E-03    -55.4656E-03     110.955E-03    -55.5027E-03     3.54463E-03    -75.9976E+06    -85.7572E+06    -283.885E+06    -85.7580E+06    -283.884E+06    -75.9976E+06     114.611E+03         28.3543
             494     946.222E-06     46.7888E-03         3.46563     185.383E-03        -3.65887    -155.283E-03    -37.9543E-03     185.383E-03        -2.83913     110.885E-03    -55.3198E-03    -55.5653E-03    -55.5273E-03     110.878E-03    -55.3516E-03     1.89306E-03    -86.9604E+06    -90.2552E+06    -288.500E+06    -89.9769E+06    -288.500E+06    -87.2389E+06    -140.467E+03         28.2839
             495     16.0940E-03     46.0729E-03     28.7879E-03     4.63750E-03    -31.1727E-03     11.6371E-03    -14.0219E-03     4.63750E-03    -9.36748E-03     113.368E-03    -54.6248E-03    -58.9429E-03    -53.8940E-03     108.996E-03    -55.3017E-03     44.8514E-03     165.250E+06     124.898E+06    -7.82176E+06    -7.81951E+06     165.248E+06     124.898E+06     570.342E+03         45.0400
             496     15.1463E-03     45.9890E-03     18.8473E-03     4.53139E-03    -23.8728E-03     2.58868E-03    -7.61417E-03     4.53139E-03     14.3238E-03     114.430E-03    -55.2580E-03    -59.3311E-03    -53.8058E-03     108.905E-03    -55.2580E-03     58.7681E-03     163.746E+06     109.320E+06    -14.5945E+06    -14.5921E+06     163.743E+06     109.320E+06     367.226E+03         42.2194
             497     14.1989E-03     45.9431E-03     15.0330E-03     4.88895E-03    -21.3724E-03    -2.31119E-03    -4.02823E-03     4.88895E-03    -6.52515E-03     112.205E-03    -55.1598E-03    -57.2457E-03    -53.7017E-03     108.661E-03    -55.1598E-03     48.0655E-03     159.341E+06     67.9494E+06    -21.2842E+06    -21.2789E+06     159.335E+06     67.9494E+06    -321.036E+03         39.1851
             498     13.2514E-03     45.8833E-03     10.0463E-03     2.99832E-03    -16.3562E-03    -3.87981E-03    -4.97411E-03     5.54239E-03     721.116E-06     112.266E-03    -55.0881E-03    -57.2721E-03    -53.9223E-03     108.916E-03    -55.0881E-03     46.4843E-03     130.361E+06     25.6585E+06    -26.7855E+06    -26.7807E+06     130.357E+06     25.6585E+06    -334.305E+03         36.6062
             499     12.3043E-03     45.8417E-03     14.0774E-03     2.24416E-03    -21.0691E-03    -515.681E-06    -10.4493E-03     6.21744E-03    -23.5146E-03     110.958E-03    -55.1349E-03    -55.9263E-03    -54.1395E-03     109.171E-03    -55.1349E-03     34.1246E-03     57.2514E+06     7.26449E+06    -30.6627E+06    -30.6624E+06      57.251E+06     7.26449E+06    -35.0862E+03         34.7509
             500     11.3573E-03     45.8089E-03     26.8391E-03     5.01792E-03    -37.9245E-03     8.26122E-03    -20.7758E-03     6.44714E-03     7.31138E-03     110.664E-03    -55.2374E-03    -55.5182E-03    -54.4368E-03     109.584E-03    -55.2384E-03     26.4480E-03     5.30781E+06    -15.7123E+06    -42.5071E+06     -33.753E+06    -21.3531E+06     2.19451E+06    -243.419E+03         33.4802
             501     10.4107E-03     45.7845E-03     35.6164E-03     6.17824E-03    -47.9598E-03     10.6774E-03    -23.0208E-03     6.17824E-03    -8.87363E-03     110.612E-03    -55.2255E-03    -55.3238E-03    -54.5782E-03     109.947E-03    -55.3055E-03     20.8929E-03    -601.195E+03    -36.9796E+06    -75.9404E+06    -36.9924E+06    -75.9276E+06    -601.195E+03    -517.373E+03         32.4802
             502     9.46378E-03     45.7639E-03     43.3862E-03     5.77758E-03    -55.5870E-03     9.82148E-03    -22.0222E-03     5.77758E-03     11.4560E-03     110.648E-03    -55.1752E-03    -55.3709E-03    -54.6798E-03     110.153E-03    -55.3709E-03     18.0730E-03    -2.08519E+06    -40.6497E+06    -115.572E+06    -40.6581E+06    -115.563E+06    -2.08519E+06    -609.505E+03         31.6087
             503     8.51706E-03     45.7453E-03     61.3424E-03     5.44092E-03    -71.1599E-03     8.31505E-03    -18.1325E-03     5.44092E-03    -28.1105E-03     110.727E-03    -55.1966E-03    -55.4666E-03    -54.8226E-03     110.353E-03    -55.4666E-03     15.6715E-03    -5.12616E+06    -45.3435E+06    -148.741E+06    -45.3506E+06    -148.734E+06    -5.12616E+06    -9.77917E+03         30.8605
             504     7.57060E-03     45.7300E-03     86.3264E-03     5.69498E-03    -94.3663E-03    -231.563E-06    -7.80827E-03     5.69498E-03     22.4530E-03     110.768E-03    -55.2403E-03    -55.5498E-03    -54.9712E-03     110.499E-03    -55.5498E-03     13.3223E-03    -8.22098E+06    -50.0824E+06    -180.613E+06    -50.0972E+06    -180.599E+06    -8.22098E+06     507.005E+03         30.2285
             505     6.62410E-03     45.7169E-03     133.915E-03     6.67602E-03    -142.926E-03    -1.09441E-03    -7.91673E-03     6.67602E-03    -74.0123E-03     110.799E-03    -55.2676E-03    -55.6197E-03    -55.0654E-03     110.596E-03    -55.6197E-03     11.5512E-03    -10.3465E+06    -53.9868E+06    -206.965E+06    -54.0017E+06    -206.950E+06    -10.3465E+06     406.145E+03         29.7100
             506     5.67752E-03     45.7053E-03     205.765E-03     6.81371E-03    -214.359E-03     12.4688E-03    -21.0623E-03     6.81371E-03     66.6023E-03     110.873E-03    -55.2786E-03    -55.6474E-03    -55.1282E-03     110.722E-03    -55.6474E-03     9.96441E-03    -18.8457E+06    -59.5853E+06    -226.870E+06    -59.5911E+06    -226.864E+06    -18.8457E+06     368.060E+03         29.2897
             507     4.73119E-03     45.6952E-03     335.009E-03     6.02959E-03    -343.677E-03     9.35202E-03    -18.0196E-03     6.02959E-03    -192.124E-03     111.010E-03    -55.3604E-03    -55.6676E-03    -55.2512E-03     110.901E-03    -55.6676E-03     8.49088E-03    -32.4967E+06    -66.9119E+06    -245.339E+06    -66.9154E+06    -245.336E+06    -32.4967E+06     75.9364E+03         28.9525
             508     3.78486E-03     45.6870E-03     562.109E-03     7.70150E-03    -573.782E-03    -8.57463E-03    -3.09863E-03     7.70150E-03     268.079E-03     111.100E-03    -55.4509E-03    -55.6259E-03    -55.3776E-03     111.026E-03    -55.6259E-03     6.93770E-03    -46.8099E+06    -74.2261E+06    -262.924E+06    -74.2273E+06    -262.922E+06    -46.8099E+06     201.065E+03         28.6850
             509     2.83860E-03     45.6801E-03     912.223E-03     15.6801E-03    -933.344E-03    -20.3271E-03    -794.040E-06     15.6801E-03    -441.653E-03     111.045E-03    -55.4773E-03    -55.5567E-03    -55.4342E-03     111.002E-03    -55.5567E-03     5.29474E-03    -61.4488E+06    -81.1546E+06    -275.978E+06    -81.1566E+06    -275.976E+06    -61.4488E+06     355.582E+03         28.4856
             510     1.89249E-03     45.6756E-03         1.59751     27.4237E-03        -1.63112     4.24487E-03    -37.8541E-03     27.4237E-03     940.628E-03     110.939E-03    -55.4334E-03    -55.5189E-03    -55.4131E-03     110.919E-03    -55.5189E-03     3.54851E-03    -76.0288E+06    -86.7251E+06    -283.202E+06    -86.7265E+06    -283.201E+06    -76.0288E+06    -97.2686E+03         28.3556
             511     946.085E-06     45.6729E-03         3.33466     206.581E-03        -3.55101    -140.286E-03    -76.0705E-03     206.581E-03        -2.71505     110.945E-03    -55.3229E-03    -55.6185E-03    -55.5655E-03     110.939E-03    -55.3697E-03     1.88408E-03    -86.9880E+06    -90.3415E+06    -288.884E+06    -90.0635E+06    -288.883E+06    -87.2665E+06    -126.827E+03         28.2855
             512     16.0939E-03     44.9569E-03     21.4295E-03     4.75824E-03    -31.1698E-03    -15.6476E-03     5.90732E-03     4.75824E-03    -5.72660E-03     113.247E-03    -54.5306E-03    -58.9028E-03    -53.7792E-03     108.889E-03    -55.2959E-03     44.8061E-03     165.406E+06     125.342E+06    -6.90569E+06    -6.90282E+06     165.403E+06     125.342E+06    -1.08151E+03         45.0273
             513     15.1467E-03     44.8725E-03     18.7270E-03     5.37853E-03    -25.3144E-03    -4.01383E-03    -2.91269E-03     5.71762E-03     3.85470E-03     114.398E-03    -55.2592E-03    -59.2835E-03    -53.7733E-03     108.888E-03    -55.2592E-03     58.6867E-03     163.970E+06     109.793E+06    -14.5049E+06    -14.5008E+06     163.966E+06     109.793E+06    -513.069E+03         42.2089
             514     14.1988E-03     44.8278E-03     16.4599E-03     5.96137E-03    -22.8565E-03     172.886E-06    -6.90864E-03     6.30046E-03    -8.32609E-03     112.295E-03    -55.1573E-03    -57.2878E-03    -53.7239E-03     108.731E-03    -55.1573E-03     48.2060E-03     159.000E+06     68.1296E+06    -21.0988E+06    -21.0907E+06     158.992E+06     68.1296E+06     313.492E+03         39.1770
             515     13.2516E-03     44.7670E-03     15.3502E-03     6.04132E-03    -22.8801E-03    -1.15499E-03    -7.17449E-03     6.84089E-03     15.2724E-03     112.321E-03    -55.0819E-03    -57.3223E-03    -53.9515E-03     108.951E-03    -55.0819E-03     46.6313E-03     130.641E+06     25.6571E+06    -26.6977E+06    -26.6892E+06     130.633E+06     25.6571E+06     944.882E+03         36.6011
             516     12.3045E-03     44.7259E-03     19.4836E-03     6.43456E-03    -29.0885E-03     4.86743E-03    -15.2719E-03     7.23413E-03    -15.2775E-03     110.941E-03    -55.1335E-03    -55.9010E-03    -54.1047E-03     109.145E-03    -55.1335E-03     34.2187E-03     57.7920E+06     7.48413E+06    -30.6662E+06    -30.6630E+06     57.7888E+06     7.48413E+06     129.373E+03         34.7479
             517     11.3573E-03     44.6929E-03     26.6060E-03     7.18355E-03    -38.7389E-03     10.7853E-03    -22.9182E-03     7.18355E-03     1.00541E-03     110.625E-03    -55.2127E-03    -55.4980E-03    -54.3867E-03     109.541E-03    -55.2394E-03     26.4757E-03     5.57373E+06    -15.5629E+06    -42.5497E+06    -33.7615E+06    -21.2268E+06     2.44949E+06    -264.134E+03         33.4780
             518     10.4106E-03     44.6684E-03     33.9488E-03     7.06513E-03    -45.8585E-03     6.93038E-03    -18.8401E-03     7.06513E-03    -16.4865E-03     110.590E-03    -55.2051E-03    -55.3219E-03    -54.5580E-03     109.925E-03    -55.3036E-03     20.8958E-03    -264.054E+03    -37.0433E+06    -75.6768E+06    -37.0483E+06    -75.6717E+06    -264.054E+03    -345.797E+03         32.4784
             519     9.46390E-03     44.6479E-03     37.1510E-03     7.41524E-03    -48.3468E-03     1.31596E-03    -12.5117E-03     7.41524E-03    -3.59333E-03     110.643E-03    -55.1756E-03    -55.3717E-03    -54.6768E-03     110.144E-03    -55.3717E-03     18.1318E-03    -2.03810E+06    -41.0430E+06    -116.040E+06    -41.0466E+06    -116.036E+06    -2.03810E+06    -165.789E+03         31.6072
             520     8.51707E-03     44.6294E-03     48.9186E-03     7.90077E-03    -59.9343E-03     5.36066E-03    -16.3763E-03     7.90077E-03    -25.7404E-03     110.689E-03    -55.1664E-03    -55.4685E-03    -54.7910E-03     110.313E-03    -55.4685E-03     15.7027E-03    -5.00594E+06    -45.2683E+06    -149.598E+06    -45.2711E+06    -149.595E+06    -5.00594E+06     185.414E+03         30.8591
             521     7.57049E-03     44.6139E-03     89.5518E-03     8.20982E-03    -98.9377E-03     5.94714E-03    -15.3331E-03     8.20982E-03     53.1134E-03     110.736E-03    -55.2164E-03    -55.5452E-03    -54.9452E-03     110.465E-03    -55.5452E-03     13.3723E-03    -8.65769E+06    -49.4842E+06    -179.431E+06    -49.4925E+06    -179.423E+06    -8.65769E+06    -498.991E+03         30.2268
             522     6.62400E-03     44.6006E-03     136.207E-03     8.74931E-03    -145.562E-03     3.18972E-03    -12.5450E-03     8.74931E-03    -41.7553E-03     110.824E-03    -55.2946E-03    -55.6176E-03    -55.0907E-03     110.620E-03    -55.6176E-03     11.6031E-03    -12.0762E+06    -54.8871E+06    -207.524E+06    -54.8945E+06    -207.516E+06    -12.0762E+06    -956.383E+03         29.7084
             523     5.67767E-03     44.5892E-03     193.885E-03     8.56352E-03    -204.417E-03     15.4063E-03    -25.9380E-03     8.56352E-03     73.0741E-03     110.894E-03    -55.2954E-03    -55.6484E-03    -55.1436E-03     110.742E-03    -55.6484E-03     10.0125E-03    -19.3822E+06    -60.8941E+06    -227.463E+06    -60.8984E+06    -227.458E+06    -19.3822E+06    -9.39454E+03         29.2889
             524     4.73115E-03     44.5790E-03     324.496E-03     6.49385E-03    -333.859E-03     21.5373E-03    -30.9000E-03     6.49385E-03    -186.745E-03     111.013E-03    -55.3476E-03    -55.6700E-03    -55.2376E-03     110.903E-03    -55.6700E-03     8.51935E-03    -31.2489E+06    -67.3888E+06    -244.855E+06    -67.3935E+06    -244.850E+06    -31.2489E+06     553.050E+03         28.9519
             525     3.78487E-03     44.5707E-03     537.305E-03     3.57744E-03    -546.200E-03     14.9946E-03    -23.8891E-03     3.57744E-03     240.643E-03     111.078E-03    -55.4183E-03    -55.6318E-03    -55.3455E-03     111.005E-03    -55.6318E-03     6.90193E-03    -45.8388E+06    -74.7705E+06    -263.612E+06    -74.7737E+06    -263.608E+06    -45.8388E+06     517.894E+03         28.6848
             526     2.83862E-03     44.5640E-03     870.078E-03     1.03275E-03    -876.009E-03     7.57239E-03    -13.5026E-03     1.03275E-03    -422.274E-03     110.995E-03    -55.4264E-03    -55.5611E-03    -55.3841E-03     110.952E-03    -55.5611E-03     5.25307E-03    -62.9676E+06    -81.6245E+06    -274.771E+06    -81.6260E+06    -274.769E+06    -62.9676E+06     108.572E+03         28.4866
             527     1.89223E-03     44.5595E-03         1.54750    -407.950E-06        -1.55248     601.095E-06    -5.58059E-03    -407.950E-06     932.465E-03     110.981E-03    -55.4567E-03    -55.5392E-03    -55.4410E-03     110.960E-03    -55.5346E-03     3.56210E-03    -78.0224E+06    -87.0174E+06    -283.264E+06    -87.0197E+06    -283.261E+06    -78.0224E+06    -612.817E+03         28.3581
             528     946.227E-06     44.5566E-03         3.22067     167.701E-03        -3.39520    -169.401E-03    -5.13074E-03     167.701E-03        -2.58016     110.995E-03    -55.3667E-03    -55.6252E-03    -55.6037E-03     110.989E-03    -55.3818E-03     1.94377E-03    -87.6228E+06    -90.8000E+06    -289.438E+06    -90.5055E+06    -289.436E+06    -87.9196E+06    -256.607E+03         28.2889
             529     16.0945E-03     43.8401E-03     22.3964E-03     5.08495E-03    -34.6784E-03    -15.5309E-03     3.24894E-03     5.08495E-03    -14.4172E-03     113.124E-03    -54.5645E-03    -58.7015E-03    -53.6338E-03     108.777E-03    -55.2845E-03     44.7775E-03     165.827E+06     125.318E+06    -6.80726E+06    -6.80316E+06     165.823E+06     125.318E+06    -550.528E+03         45.0136
             530     15.1462E-03     43.7567E-03     11.2426E-03     4.12019E-03    -19.4392E-03    -8.02063E-03    -2.17170E-03     6.11594E-03     12.0325E-03     114.267E-03    -55.2548E-03    -59.1029E-03    -53.5892E-03     108.754E-03    -55.2548E-03     58.6946E-03     163.321E+06     109.015E+06    -15.0101E+06    -15.0041E+06     163.315E+06     109.015E+06    -262.228E+03         42.1973
             531     14.1990E-03     43.7110E-03     19.5386E-03     4.35336E-03    -26.7498E-03     11.0597E-03    -20.2667E-03     6.34911E-03     25.1105E-03     112.323E-03    -55.1652E-03    -57.3025E-03    -53.7302E-03     108.750E-03    -55.1652E-03     48.2964E-03     157.759E+06     68.0398E+06    -22.5715E+06    -22.5615E+06     157.749E+06     68.0398E+06     647.608E+03         39.1684
             532     13.2515E-03     43.6510E-03     30.6867E-03     5.80719E-03    -38.1450E-03     14.0452E-03    -21.5035E-03     5.80719E-03     56.7830E-03     112.332E-03    -55.0904E-03    -57.3323E-03    -53.9597E-03     108.960E-03    -55.0904E-03     46.6760E-03     131.383E+06     26.9788E+06    -27.1267E+06    -27.1171E+06     131.373E+06     26.9788E+06     1.01108E+06         36.5960
             533     12.3043E-03     43.6093E-03     20.6811E-03     5.66561E-03    -28.7340E-03    -1.16263E-03    -6.89027E-03     5.66561E-03     25.0206E-03     110.980E-03    -55.1349E-03    -55.9431E-03    -54.1410E-03     109.177E-03    -55.1349E-03     34.2621E-03     58.6577E+06     8.07266E+06    -30.3290E+06    -30.3243E+06     58.6529E+06     8.07266E+06     417.210E+03         34.7452
             534     11.3576E-03     43.5766E-03     19.6127E-03     6.52100E-03    -28.7912E-03    -9.67534E-03     496.933E-06     6.52100E-03     23.3869E-03     110.610E-03    -55.1859E-03    -55.5129E-03    -54.3767E-03     109.529E-03    -55.2402E-03     26.4549E-03     5.76793E+06    -15.2809E+06    -42.2133E+06    -33.5027E+06    -21.0581E+06     2.83450E+06    -205.408E+03         33.4759
             535     10.4105E-03     43.5523E-03     22.6633E-03     7.62433E-03    -33.1600E-03    -2.59386E-03    -7.90280E-03     7.62433E-03     7.25074E-03     110.538E-03    -55.1705E-03    -55.3062E-03    -54.5006E-03     109.868E-03    -55.3062E-03     20.9563E-03     81.3226E+03    -36.7702E+06    -75.7284E+06    -36.7725E+06    -75.7260E+06     81.3226E+03    -144.599E+03         32.4766
             536     9.46374E-03     43.5315E-03     29.0754E-03     8.23306E-03    -39.5578E-03     5.07141E-03    -15.5538E-03     8.23306E-03     21.1144E-03     110.650E-03    -55.1839E-03    -55.3762E-03    -54.6810E-03     110.147E-03    -55.3762E-03     18.2087E-03    -1.65745E+06    -40.4002E+06    -116.396E+06    -40.4007E+06    -116.395E+06    -1.65745E+06    -13.0215E+03         31.6058
             537     8.51714E-03     43.5132E-03     40.6256E-03     8.48657E-03    -50.3346E-03     6.49448E-03    -16.2035E-03     8.48657E-03    -1.76963E-03     110.712E-03    -55.1935E-03    -55.4719E-03    -54.8150E-03     110.333E-03    -55.4719E-03     15.7642E-03    -4.36442E+06    -44.2480E+06    -149.287E+06    -44.2494E+06    -149.286E+06    -4.36442E+06    -238.461E+03         30.8582
             538     7.57047E-03     43.4980E-03     75.3729E-03     8.16045E-03    -84.0446E-03     14.8815E-03    -23.5532E-03     8.16045E-03     65.1041E-03     110.732E-03    -55.2082E-03    -55.5452E-03    -54.9368E-03     110.461E-03    -55.5452E-03     13.3780E-03    -8.13106E+06    -48.8825E+06    -178.557E+06    -48.8859E+06    -178.554E+06    -8.13106E+06    -641.123E+03         30.2260
             539     6.62398E-03     43.4845E-03     124.903E-03     6.87365E-03    -131.835E-03     18.7394E-03    -25.6715E-03     6.87365E-03    -32.2738E-03     110.814E-03    -55.2773E-03    -55.6215E-03    -55.0733E-03     110.610E-03    -55.6215E-03     11.6037E-03    -11.9930E+06    -54.5917E+06    -207.935E+06    -54.5974E+06    -207.929E+06    -11.9930E+06    -925.077E+03         29.7078
             540     5.67747E-03     43.4730E-03     179.808E-03     5.98485E-03    -187.675E-03     6.09902E-03    -13.9655E-03     5.98485E-03     81.5720E-03     110.921E-03    -55.3246E-03    -55.6522E-03    -55.1715E-03     110.768E-03    -55.6522E-03     10.0592E-03    -19.7820E+06    -61.1243E+06    -228.673E+06    -61.1276E+06    -228.670E+06    -19.7820E+06    -589.124E+03         29.2885
             541     4.73122E-03     43.4632E-03     297.508E-03     6.51212E-03    -308.098E-03     809.700E-06    -11.4000E-03     6.51212E-03    -157.718E-03     111.032E-03    -55.3674E-03    -55.6736E-03    -55.2564E-03     110.921E-03    -55.6736E-03     8.55557E-03    -31.2528E+06    -68.1411E+06    -245.276E+06    -68.1434E+06    -245.273E+06    -31.2528E+06     318.940E+03         28.9519
             542     3.78492E-03     43.4543E-03     484.794E-03     5.10677E-03    -494.479E-03     20.8586E-03    -30.5443E-03     5.10677E-03     214.729E-03     111.058E-03    -55.3947E-03    -55.6385E-03    -55.3222E-03     110.985E-03    -55.6385E-03     6.89308E-03    -46.0234E+06    -75.2386E+06    -263.510E+06    -75.2419E+06    -263.507E+06    -46.0234E+06     689.746E+03         28.6857
             543     2.83849E-03     43.4478E-03     819.348E-03    -2.15754E-03    -821.784E-03     29.7893E-03    -32.2260E-03    -2.15754E-03    -447.398E-03     111.001E-03    -55.4359E-03    -55.5619E-03    -55.3941E-03     110.959E-03    -55.5619E-03     5.21616E-03    -64.3553E+06    -81.9061E+06    -273.463E+06    -81.9074E+06    -273.462E+06    -64.3553E+06     257.805E+03         28.4885
             544     1.89235E-03     43.4431E-03         1.46169    -14.5053E-03        -1.45498     13.7903E-03    -7.07367E-03    -14.5053E-03     829.524E-03     110.996E-03    -55.4695E-03    -55.5414E-03    -55.4544E-03     110.977E-03    -55.5368E-03     3.51307E-03    -79.4627E+06    -87.2265E+06    -283.394E+06    -87.2285E+06    -283.392E+06    -79.4627E+06    -191.430E+03         28.3603
             545     946.115E-06     43.4402E-03         3.07672     136.300E-03        -3.21820    -179.398E-03     37.9179E-03     136.300E-03        -2.54355     111.004E-03    -55.3965E-03    -55.6084E-03    -55.5703E-03     110.998E-03    -55.4284E-03     1.90197E-03    -88.3997E+06    -91.2453E+06    -290.428E+06    -90.9518E+06    -290.425E+06    -88.6965E+06    -268.819E+03         28.2915
             546     16.0944E-03     42.7238E-03     23.2547E-03     5.89375E-03    -28.7528E-03     15.8727E-03    -21.3708E-03     5.89375E-03    -1.81654E-03     113.116E-03    -54.5585E-03    -58.7022E-03    -53.6198E-03     108.761E-03    -55.2856E-03     44.7279E-03     165.472E+06     124.556E+06    -8.29568E+06    -8.29124E+06     165.468E+06     124.556E+06    -229.520E+03         45.0001
             547     15.1467E-03     42.6402E-03     15.7333E-03     3.95680E-03    -20.1150E-03     5.38843E-03    -11.4268E-03     5.61346E-03    -1.06658E-03     114.271E-03    -55.2521E-03    -59.1558E-03    -53.6223E-03     108.737E-03    -55.2521E-03     58.8162E-03     162.519E+06     108.128E+06    -16.6356E+06    -16.6309E+06     162.514E+06     108.128E+06     586.664E+03         42.1876
             548     14.1987E-03     42.5941E-03     22.2277E-03     3.83418E-03    -26.2019E-03     9.09736E-03    -14.7282E-03     5.49084E-03    -5.71898E-03     112.272E-03    -55.1624E-03    -57.3066E-03    -53.7534E-03     108.719E-03    -55.1624E-03     48.1887E-03     157.757E+06     67.7780E+06    -23.1742E+06    -23.1713E+06     157.754E+06     67.7780E+06     256.661E+03         39.1624
             549     13.2515E-03     42.5348E-03     28.7973E-03     4.98867E-03    -34.1084E-03     16.0341E-03    -21.3452E-03     4.98867E-03     22.5627E-03     112.292E-03    -55.0882E-03    -57.2965E-03    -53.9430E-03     108.939E-03    -55.0882E-03     46.5704E-03     131.250E+06     26.4867E+06    -27.4919E+06    -27.4896E+06     131.248E+06     26.4867E+06    -25.8909E+03         36.5920
             550     12.3045E-03     42.4929E-03     26.1259E-03     4.58156E-03    -31.2327E-03     5.87795E-03    -10.9848E-03     4.58156E-03    -36.0170E-06     110.924E-03    -55.1358E-03    -55.8930E-03    -54.0884E-03     109.119E-03    -55.1358E-03     34.2601E-03     59.2515E+06     8.11967E+06    -30.3003E+06    -30.2977E+06     59.2489E+06     8.11967E+06     198.134E+03         34.7421
             551     11.3574E-03     42.4608E-03     25.6747E-03     5.23238E-03    -32.6785E-03    -11.2417E-03     4.23793E-03     5.23238E-03     11.6855E-03     110.582E-03    -55.2196E-03    -55.4578E-03    -54.3443E-03     109.496E-03    -55.2473E-03     26.5268E-03     6.33903E+06    -14.9315E+06    -42.0754E+06    -33.1855E+06    -20.6931E+06     3.21076E+06     86.7330E+03         33.4734
             552     10.4106E-03     42.4361E-03     29.2062E-03     6.73850E-03    -37.6667E-03    -11.6323E-03     3.17176E-03     6.73850E-03    -6.16575E-03     110.588E-03    -55.2122E-03    -55.3166E-03    -54.5382E-03     109.910E-03    -55.3120E-03     21.0836E-03     159.173E+03    -36.4777E+06    -75.9451E+06    -36.4798E+06    -75.9430E+06     159.173E+03    -100.780E+03         32.4748
             553     9.46370E-03     42.4157E-03     35.0876E-03     7.75718E-03    -43.9004E-03     3.82464E-03    -12.6374E-03     7.75718E-03     5.44023E-03     110.671E-03    -55.1958E-03    -55.3800E-03    -54.6936E-03     110.169E-03    -55.3800E-03     18.1993E-03    -1.40604E+06    -39.9706E+06    -116.232E+06    -39.9715E+06    -116.231E+06    -1.40604E+06    -231.538E+03         31.6053
             554     8.51697E-03     42.3967E-03     41.3213E-03     7.73916E-03    -49.0669E-03     11.5381E-03    -19.2836E-03     7.73916E-03    -6.11450E-03     110.727E-03    -55.2026E-03    -55.4755E-03    -54.8252E-03     110.350E-03    -55.4755E-03     15.7382E-03    -3.91571E+06    -44.1372E+06    -148.922E+06    -44.1383E+06    -148.921E+06    -3.91571E+06    -337.636E+03         30.8583
             555     7.57051E-03     42.3816E-03     68.7904E-03     7.25585E-03    -76.1733E-03     11.5184E-03    -18.9012E-03     7.25585E-03     50.1231E-03     110.744E-03    -55.2153E-03    -55.5440E-03    -54.9435E-03     110.472E-03    -55.5440E-03     13.3928E-03    -8.05865E+06    -49.0580E+06    -178.230E+06    -49.0603E+06    -178.228E+06    -8.05865E+06    -528.801E+03         30.2261
             556     6.62388E-03     42.3682E-03     117.230E-03     6.20308E-03    -124.947E-03     17.1997E-03    -24.9170E-03     6.20308E-03    -47.1317E-03     110.813E-03    -55.2726E-03    -55.6210E-03    -55.0679E-03     110.609E-03    -55.6210E-03     11.6178E-03    -11.9118E+06    -54.6768E+06    -207.866E+06    -54.6815E+06    -207.862E+06    -11.9118E+06    -848.613E+03         29.7077
             557     5.67752E-03     42.3568E-03     174.666E-03     4.18486E-03    -181.380E-03     19.0737E-03    -25.7880E-03     4.18486E-03     66.2702E-03     110.913E-03    -55.3123E-03    -55.6573E-03    -55.1603E-03     110.761E-03    -55.6573E-03     10.0277E-03    -19.8957E+06    -61.1513E+06    -229.859E+06    -61.1545E+06    -229.856E+06    -19.8957E+06    -527.248E+03         29.2888
             558     4.73112E-03     42.3465E-03     279.442E-03     2.01979E-03    -284.543E-03     11.0954E-03    -16.1966E-03     2.01979E-03    -143.523E-03     111.010E-03    -55.3438E-03    -55.6750E-03    -55.2338E-03     110.900E-03    -55.6750E-03     8.51036E-03    -33.1950E+06    -68.5203E+06    -246.272E+06    -68.5222E+06    -246.270E+06    -33.1950E+06     338.539E+03         28.9531
             559     3.78473E-03     42.3385E-03     473.048E-03     1.01699E-03    -477.972E-03     1.30192E-03    -6.22624E-03     1.01699E-03     245.123E-03     111.069E-03    -55.4106E-03    -55.6363E-03    -55.3378E-03     110.997E-03    -55.6363E-03     6.91873E-03    -48.6111E+06    -75.9208E+06    -262.758E+06    -75.9238E+06    -262.755E+06    -48.6111E+06     652.095E+03         28.6879
             560     2.83860E-03     42.3318E-03     790.821E-03     1.56570E-03    -798.665E-03    -2.26745E-03    -5.57703E-03     1.56570E-03    -393.614E-03     111.041E-03    -55.4790E-03    -55.5632E-03    -55.4362E-03     110.999E-03    -55.5632E-03     5.25715E-03    -64.9573E+06    -82.0473E+06    -272.982E+06    -82.0485E+06    -272.980E+06    -64.9573E+06     346.044E+03         28.4907
             561     1.89239E-03     42.3274E-03         1.40683    -929.314E-06        -1.41307     11.5969E-03    -17.8341E-03    -929.314E-06     837.642E-03     110.984E-03    -55.4577E-03    -55.5430E-03    -55.4379E-03     110.965E-03    -55.5430E-03     3.53034E-03    -77.8535E+06    -86.6409E+06    -283.252E+06    -86.6414E+06    -283.252E+06    -77.8535E+06     247.545E+03         28.3618
             562     946.121E-06     42.3244E-03         2.94999     159.076E-03        -3.12311    -167.186E-03    -5.93605E-03     159.076E-03        -2.41147     111.017E-03    -55.3746E-03    -55.6425E-03    -55.5756E-03     111.010E-03    -55.4346E-03     2.01861E-03    -86.9456E+06    -90.7381E+06    -290.322E+06    -90.3582E+06    -290.321E+06    -87.3271E+06    -117.227E+03         28.2927
             563     16.0940E-03     41.6081E-03     27.7152E-03     6.94162E-03    -31.4814E-03     12.3997E-03    -16.1659E-03     6.94162E-03    -10.8827E-03     113.197E-03    -54.4824E-03    -58.8534E-03    -53.6862E-03     108.840E-03    -55.2919E-03     44.6730E-03     165.004E+06     124.381E+06    -7.40058E+06    -7.39618E+06     165.000E+06     124.381E+06     32.3017E+03         44.9869
             564     15.1464E-03     41.5239E-03     24.2409E-03     6.55658E-03    -28.8195E-03     17.0699E-03    -21.6486E-03     6.55658E-03    -22.4279E-03     114.404E-03    -55.2482E-03    -59.3128E-03    -53.7751E-03     108.866E-03    -55.2482E-03     58.8825E-03     162.227E+06     108.921E+06    -14.5061E+06    -14.5004E+06     162.221E+06     108.921E+06     422.849E+03         42.1789
             565     14.1992E-03     41.4785E-03     19.6156E-03     6.49195E-03    -25.0858E-03     2.12011E-03    -7.59030E-03     6.49195E-03    -38.4240E-03     112.248E-03    -55.1505E-03    -57.3082E-03    -53.7516E-03     108.691E-03    -55.1505E-03     48.1967E-03     158.561E+06     68.1696E+06    -21.6365E+06    -21.6334E+06     158.558E+06     68.1696E+06     356.998E+03         39.1571
             566     13.2517E-03     41.4180E-03     18.0440E-03     6.87987E-03    -25.2124E-03     3.36360E-03    -10.5320E-03     6.87987E-03    -12.3456E-03     112.214E-03    -55.0798E-03    -57.2236E-03    -53.8607E-03     108.851E-03    -55.0798E-03     46.6105E-03     131.147E+06     25.4990E+06    -26.9845E+06    -26.9829E+06     131.145E+06     25.4990E+06    -267.128E+03         36.5883
             567     12.3043E-03     41.3767E-03     25.8421E-03     6.69283E-03    -33.5791E-03     17.8133E-03    -25.5503E-03     6.69283E-03    -15.8684E-03     110.829E-03    -55.1394E-03    -55.8010E-03    -53.9926E-03     109.020E-03    -55.1394E-03     34.2791E-03     58.8403E+06     7.62961E+06    -30.2060E+06    -30.2035E+06     58.8377E+06     7.62961E+06    -306.657E+03         34.7393
             568     11.3571E-03     41.3443E-03     30.4915E-03     6.10463E-03    -37.6420E-03     11.9779E-03    -19.1284E-03     6.10463E-03     2.05743E-03     110.580E-03    -55.2515E-03    -55.4340E-03    -54.3413E-03     109.493E-03    -55.2570E-03     26.5380E-03     6.41437E+06    -14.5751E+06    -41.9479E+06    -32.9426E+06    -20.4433E+06     3.27724E+06     57.1823E+03         33.4716
             569     10.4103E-03     41.3198E-03     35.8392E-03     6.30809E-03    -43.4903E-03    -2.78043E-03    -4.87075E-03     6.30809E-03    -21.4912E-03     110.658E-03    -55.2819E-03    -55.3208E-03    -54.6096E-03     109.981E-03    -55.3162E-03     21.0669E-03     50.2024E+03    -36.2745E+06    -75.8857E+06    -36.2761E+06    -75.8842E+06     50.2024E+03     34.4554E+03         32.4740
             570     9.46382E-03     41.2991E-03     43.5597E-03     7.12511E-03    -50.0873E-03    -1.06000E-03    -5.46761E-03     7.12511E-03    -4.07108E-03     110.720E-03    -55.2462E-03    -55.3795E-03    -54.7459E-03     110.220E-03    -55.3795E-03     18.1690E-03    -1.51910E+06    -40.0643E+06    -115.944E+06    -40.0651E+06    -115.943E+06    -1.51910E+06    -73.1443E+03         31.6053
             571     8.51715E-03     41.2806E-03     45.9014E-03     7.53130E-03    -52.1036E-03     7.38191E-03    -13.5841E-03     7.53130E-03    -7.17158E-03     110.715E-03    -55.1963E-03    -55.4723E-03    -54.8212E-03     110.340E-03    -55.4723E-03     15.6884E-03    -3.89386E+06    -44.2774E+06    -148.672E+06    -44.2808E+06    -148.669E+06    -3.89386E+06    -370.474E+03         30.8588
             572     7.57034E-03     41.2652E-03     67.6461E-03     7.39873E-03    -73.9820E-03     9.71008E-03    -16.0460E-03     7.39873E-03     37.4419E-03     110.718E-03    -55.1936E-03    -55.5415E-03    -54.9252E-03     110.449E-03    -55.5415E-03     13.3033E-03    -8.01894E+06    -48.9458E+06    -178.182E+06    -48.9502E+06    -178.178E+06    -8.01894E+06    -673.765E+03         30.2264
             573     6.62401E-03     41.2519E-03     112.877E-03     6.93277E-03    -120.150E-03     11.5640E-03    -18.8373E-03     6.93277E-03    -55.0785E-03     110.804E-03    -55.2626E-03    -55.6195E-03    -55.0577E-03     110.599E-03    -55.6195E-03     11.6310E-03    -12.4946E+06    -54.7828E+06    -208.107E+06    -54.7861E+06    -208.103E+06    -12.4946E+06    -428.918E+03         29.7078
             574     5.67753E-03     41.2405E-03     170.397E-03     5.06953E-03    -178.621E-03     23.5505E-03    -31.7742E-03     5.06953E-03     58.5971E-03     110.897E-03    -55.2894E-03    -55.6604E-03    -55.1363E-03     110.744E-03    -55.6604E-03     10.0485E-03    -20.6763E+06    -62.0151E+06    -230.834E+06    -62.0172E+06    -230.832E+06    -20.6763E+06     25.0990E+03         29.2896
             575     4.73114E-03     41.2304E-03     283.457E-03     635.167E-06    -286.901E-03     29.7503E-03    -33.1947E-03     635.167E-06    -162.967E-03     111.001E-03    -55.3265E-03    -55.6814E-03    -55.2174E-03     110.891E-03    -55.6814E-03     8.48264E-03    -33.7462E+06    -69.0402E+06    -246.771E+06    -69.0421E+06    -246.770E+06    -33.7462E+06     430.267E+03         28.9549
             576     3.78477E-03     41.2222E-03     477.064E-03    -4.00957E-03    -476.765E-03     10.0112E-03    -9.71246E-03    -4.00957E-03     223.321E-03     111.089E-03    -55.4221E-03    -55.6407E-03    -55.3489E-03     111.016E-03    -55.6407E-03     6.93704E-03    -48.7112E+06    -75.3934E+06    -262.105E+06    -75.3952E+06    -262.104E+06    -48.7112E+06     432.355E+03         28.6901
             577     2.83851E-03     41.2154E-03     779.234E-03    -4.13320E-03    -780.166E-03    -13.9663E-03     13.0341E-03    -4.13320E-03    -382.867E-03     111.039E-03    -55.4573E-03    -55.5796E-03    -55.4145E-03     110.996E-03    -55.5796E-03     5.25886E-03    -64.2027E+06    -81.4980E+06    -272.637E+06    -81.4983E+06    -272.637E+06    -64.2027E+06     235.937E+03         28.4927
             578     1.89225E-03     41.2107E-03         1.38503    -929.338E-06        -1.39111    -7.33701E-03     1.25323E-03    -929.338E-06     834.481E-03     111.025E-03    -55.4738E-03    -55.5719E-03    -55.4553E-03     111.005E-03    -55.5701E-03     3.58828E-03    -78.0064E+06    -86.7576E+06    -283.089E+06    -86.7579E+06    -283.089E+06    -78.0064E+06     200.786E+03         28.3635
             579     946.105E-06     41.2082E-03         2.87750     167.270E-03        -3.05639    -166.060E-03    -12.8298E-03     167.270E-03        -2.32021     111.083E-03    -55.3996E-03    -55.6809E-03    -55.6452E-03     111.075E-03    -55.4277E-03     2.14657E-03    -87.5471E+06    -90.6514E+06    -289.973E+06    -90.2703E+06    -289.973E+06    -87.9286E+06     140.159E+03         28.2941
             580     16.0942E-03     40.4911E-03     32.5366E-03     8.04501E-03    -39.8916E-03     162.038E-06    -7.51705E-03     8.04501E-03    -42.0906E-03     113.226E-03    -54.5422E-03    -58.8424E-03    -53.7561E-03     108.886E-03    -55.2887E-03     44.5640E-03     165.195E+06     124.214E+06    -7.48792E+06    -7.48514E+06     165.192E+06     124.214E+06    -265.741E+03         44.9735
             581     15.1468E-03     40.4075E-03     22.4789E-03     8.04575E-03    -32.8758E-03     16.7567E-03    -27.1536E-03     8.04575E-03     647.979E-06     114.377E-03    -55.2461E-03    -59.2405E-03    -53.7118E-03     108.849E-03    -55.2461E-03     58.8560E-03     161.769E+06     108.633E+06    -14.7162E+06    -14.7096E+06     161.763E+06     108.633E+06    -223.829E+03         42.1686
             582     14.1989E-03     40.3617E-03     27.4906E-03     7.59490E-03    -38.8466E-03     13.5035E-03    -24.8595E-03     7.59490E-03     8.02326E-03     112.218E-03    -55.1567E-03    -57.2370E-03    -53.6473E-03     108.629E-03    -55.1567E-03     48.3933E-03     158.396E+06     68.8302E+06    -21.0549E+06    -21.0474E+06     158.389E+06     68.8302E+06     390.119E+03         39.1496
             583     13.2516E-03     40.3019E-03     28.1843E-03     7.46702E-03    -38.5795E-03     4.46538E-03    -14.8606E-03     7.46702E-03     32.4494E-03     112.231E-03    -55.0887E-03    -57.2260E-03    -53.8336E-03     108.838E-03    -55.0887E-03     46.7970E-03     132.070E+06     26.4025E+06    -25.8593E+06    -25.8560E+06     132.067E+06     26.4025E+06     422.822E+03         36.5845
             584     12.3042E-03     40.2604E-03     23.0709E-03     7.47796E-03    -34.1088E-03     2.07252E-03    -13.3688E-03     7.73635E-03     23.4180E-03     110.910E-03    -55.1431E-03    -55.8764E-03    -54.0623E-03     109.096E-03    -55.1431E-03     34.3457E-03     58.6779E+06     7.23303E+06    -29.8688E+06    -29.8665E+06     58.6756E+06     7.23303E+06    -115.516E+03         34.7390
             585     11.3572E-03     40.2278E-03     26.1405E-03     7.46056E-03    -37.1257E-03     13.0716E-03    -24.3152E-03     7.71895E-03     20.0502E-03     110.656E-03    -55.2510E-03    -55.5136E-03    -54.4255E-03     109.573E-03    -55.2564E-03     26.4784E-03     5.73598E+06    -15.1026E+06    -41.8890E+06    -33.1416E+06    -20.8278E+06     2.71381E+06    -54.3984E+03         33.4725
             586     10.4105E-03     40.2032E-03     39.8832E-03     6.93800E-03    -48.9107E-03     19.6845E-03    -28.7120E-03     6.93800E-03    -20.5528E-03     110.634E-03    -55.2447E-03    -55.3353E-03    -54.5970E-03     109.965E-03    -55.3137E-03     20.9522E-03    -127.981E+03    -36.2857E+06    -75.6389E+06    -36.2866E+06    -75.6379E+06    -127.981E+03     122.673E+03         32.4746
             587     9.46365E-03     40.1826E-03     44.5732E-03     6.34237E-03    -52.0970E-03     6.83007E-03    -14.3539E-03     6.34237E-03    -1.28072E-03     110.701E-03    -55.2236E-03    -55.3796E-03    -54.7242E-03     110.202E-03    -55.3796E-03     18.1525E-03    -1.83216E+06    -39.8782E+06    -115.977E+06    -39.8785E+06    -115.977E+06    -1.83216E+06     123.210E+03         31.6055
             588     8.51709E-03     40.1641E-03     43.3504E-03     6.84692E-03    -49.7760E-03    -2.90576E-03    -3.51986E-03     6.84692E-03    -4.33261E-03     110.731E-03    -55.2122E-03    -55.4711E-03    -54.8344E-03     110.354E-03    -55.4711E-03     15.7508E-03    -4.20453E+06    -44.1726E+06    -147.997E+06    -44.1757E+06    -147.994E+06    -4.20453E+06    -169.853E+03         30.8592
             589     7.57060E-03     40.1487E-03     66.4684E-03     7.45195E-03    -73.1472E-03     6.20192E-03    -12.8807E-03     7.45195E-03     40.3810E-03     110.724E-03    -55.1996E-03    -55.5407E-03    -54.9280E-03     110.452E-03    -55.5407E-03     13.3811E-03      -8.568E+06    -49.3904E+06    -178.446E+06    -49.3937E+06    -178.442E+06      -8.568E+06    -399.277E+03         30.2270
             590     6.62386E-03     40.1359E-03     112.755E-03     7.20252E-03    -120.452E-03     11.6986E-03    -19.3954E-03     7.20252E-03    -52.6604E-03     110.792E-03    -55.2473E-03    -55.6220E-03    -55.0416E-03     110.586E-03    -55.6220E-03     11.6534E-03    -13.4665E+06    -55.4944E+06    -209.031E+06    -55.4980E+06    -209.027E+06    -13.4665E+06     311.901E+03         29.7083
             591     5.67736E-03     40.1243E-03     158.128E-03     6.90635E-03    -167.805E-03     6.73008E-03    -16.4070E-03     6.90635E-03     40.7877E-03     110.888E-03    -55.2741E-03    -55.6664E-03    -55.1215E-03     110.735E-03    -55.6664E-03     10.0289E-03    -20.7475E+06    -62.3040E+06    -230.766E+06    -62.3073E+06    -230.763E+06    -20.7475E+06     516.019E+03         29.2902
             592     4.73108E-03     40.1140E-03     266.451E-03     7.21167E-03    -277.412E-03     4.77426E-03    -15.7358E-03     7.21167E-03    -177.214E-03     111.031E-03    -55.3518E-03    -55.6906E-03    -55.2426E-03     110.922E-03    -55.6906E-03     8.49297E-03    -33.1664E+06    -69.5573E+06    -246.919E+06    -69.5581E+06    -246.919E+06    -33.1664E+06     219.518E+03         28.9560
             593     3.78478E-03     40.1056E-03     440.978E-03     6.20513E-03    -450.084E-03     16.9806E-03    -26.0866E-03     6.20513E-03     169.978E-03     111.057E-03    -55.3920E-03    -55.6477E-03    -55.3190E-03     110.984E-03    -55.6477E-03     6.91607E-03    -49.2826E+06    -76.7568E+06    -261.751E+06    -76.7576E+06    -261.750E+06    -49.2826E+06     342.150E+03         28.6913
             594     2.83846E-03     40.0994E-03     739.421E-03     5.22102E-03    -747.148E-03     3.81255E-03    -11.5401E-03     5.22102E-03    -425.871E-03     111.017E-03    -55.4258E-03    -55.5917E-03    -55.3836E-03     110.975E-03    -55.5917E-03     5.24170E-03    -65.9742E+06    -83.1146E+06    -272.627E+06    -83.1152E+06    -272.627E+06    -65.9742E+06     314.924E+03         28.4940
             595     1.89216E-03     40.0946E-03         1.29573     11.6627E-03        -1.31224    -12.6507E-03    -3.86287E-03     11.6627E-03     696.519E-03     111.075E-03    -55.5121E-03    -55.5842E-03    -55.4934E-03     111.054E-03    -55.5825E-03     3.59141E-03    -80.1344E+06    -88.1436E+06    -282.449E+06    -88.1440E+06    -282.449E+06    -80.1344E+06     279.709E+03         28.3650
             596     946.122E-06     40.0915E-03         2.71480     171.988E-03        -2.89347    -136.380E-03    -42.2947E-03     171.988E-03        -2.30222     111.110E-03    -55.3948E-03    -55.7163E-03    -55.6955E-03     111.103E-03    -55.4083E-03     2.10342E-03    -88.9288E+06    -91.3654E+06    -290.039E+06    -91.3673E+06    -290.037E+06    -88.9288E+06    -27.4357E+03         28.2958
             597     16.0943E-03     39.3754E-03     31.0799E-03     7.53981E-03    -46.0275E-03     5.90392E-03    -20.8516E-03     7.53981E-03    -13.1959E-03     113.229E-03    -54.5542E-03    -58.8100E-03    -53.7258E-03     108.881E-03    -55.2903E-03     44.6985E-03     165.709E+06     124.517E+06    -7.65615E+06    -7.65069E+06     165.704E+06     124.517E+06    -119.299E+03         44.9596
             598     15.1464E-03     39.2915E-03     17.5573E-03     7.52597E-03    -35.0528E-03     6.14940E-03    -23.6449E-03     7.52597E-03     24.2886E-03     114.324E-03    -55.2512E-03    -59.2003E-03    -53.6693E-03     108.793E-03    -55.2512E-03     58.8473E-03     161.954E+06     108.198E+06    -16.0815E+06    -16.0768E+06     161.949E+06     108.198E+06    -704.720E+03         42.1578
             599     14.1988E-03     39.2463E-03     25.9816E-03     7.04529E-03    -40.4435E-03     20.3273E-03    -34.7892E-03     7.04529E-03     22.4751E-03     112.192E-03    -55.1657E-03    -57.2142E-03    -53.6372E-03     108.615E-03    -55.1657E-03     48.3108E-03     157.073E+06     68.0757E+06    -22.6762E+06    -22.6698E+06     157.067E+06     68.0757E+06    -422.644E+03         39.1421
             600     13.2510E-03     39.1864E-03     25.3803E-03     6.28017E-03    -38.6712E-03     9.55389E-03    -23.0228E-03     6.45817E-03     43.2865E-03     112.248E-03    -55.1016E-03    -57.2215E-03    -53.8608E-03     108.887E-03    -55.1016E-03     46.5591E-03     132.187E+06     26.9324E+06    -27.2134E+06    -27.2071E+06     132.180E+06     26.9324E+06     445.714E+03         36.5814
             601     12.3041E-03     39.1445E-03     18.6445E-03     6.43531E-03    -31.4285E-03    -7.25783E-03    -5.96256E-03     6.87169E-03     13.8935E-03     110.982E-03    -55.1479E-03    -55.9353E-03    -54.1324E-03     109.179E-03    -55.1479E-03     34.2819E-03     59.4588E+06     7.61915E+06    -30.5273E+06    -30.5244E+06     59.4559E+06     7.61915E+06     408.269E+03         34.7395
             602     11.3574E-03     39.1117E-03     24.8203E-03     7.33874E-03    -37.6145E-03     2.66448E-03    -15.7170E-03     7.59712E-03     19.1511E-03     110.704E-03    -55.2472E-03    -55.5611E-03    -54.4692E-03     109.617E-03    -55.2529E-03     26.5083E-03     5.37261E+06    -15.6870E+06    -42.2009E+06    -33.5894E+06    -21.1425E+06     2.21659E+06    -7.04646E+03         33.4740
             603     10.4106E-03     39.0876E-03     35.2077E-03     7.44011E-03    -47.0727E-03     15.0357E-03    -26.9007E-03     7.44011E-03    -4.95845E-03     110.601E-03    -55.2111E-03    -55.3317E-03    -54.5645E-03     109.933E-03    -55.3101E-03     20.9399E-03    -346.700E+03    -36.4863E+06    -75.5466E+06    -36.4867E+06    -75.5463E+06    -346.700E+03     6.02735E+03         32.4755
             604     9.46373E-03     39.0673E-03     37.8422E-03     6.76736E-03    -47.9234E-03     13.4970E-03    -23.5782E-03     6.76736E-03     947.740E-06     110.650E-03    -55.1692E-03    -55.3801E-03    -54.6652E-03     110.146E-03    -55.3801E-03     18.2263E-03    -2.09792E+06    -39.8427E+06    -116.014E+06    -39.8433E+06    -116.014E+06    -2.09792E+06    -89.6573E+03         31.6056
             605     8.51697E-03     39.0484E-03     44.5176E-03     6.20113E-03    -53.4037E-03     10.5725E-03    -19.4586E-03     6.20113E-03    -13.8397E-03     110.712E-03    -55.1873E-03    -55.4769E-03    -54.8098E-03     110.334E-03    -55.4769E-03     15.7390E-03    -4.03797E+06    -43.6757E+06    -147.780E+06    -43.6763E+06    -147.780E+06    -4.03797E+06    -99.7409E+03         30.8591
             606     7.57022E-03     39.0334E-03     71.0713E-03     6.09588E-03    -80.1046E-03     3.72997E-03    -12.7633E-03     6.09588E-03     43.9021E-03     110.759E-03    -55.2194E-03    -55.5562E-03    -54.9470E-03     110.487E-03    -55.5562E-03     13.4075E-03    -7.05131E+06    -48.8581E+06    -179.187E+06    -48.8705E+06    -179.175E+06    -7.05131E+06     639.732E+03         30.2273
             607     6.62399E-03     39.0197E-03     113.598E-03     7.36934E-03    -125.196E-03    -8.55398E-03    -3.04415E-03     7.36934E-03    -46.6870E-03     110.838E-03    -55.2785E-03    -55.6348E-03    -55.0714E-03     110.631E-03    -55.6348E-03     11.6925E-03    -12.3942E+06    -55.2958E+06    -209.107E+06    -55.3111E+06    -209.092E+06    -12.3942E+06     859.319E+03         29.7083
             608     5.67752E-03     39.0083E-03     148.635E-03     10.0773E-03    -163.096E-03    -8.55560E-03    -5.90482E-03     10.0773E-03     26.5943E-03     110.919E-03    -55.2977E-03    -55.6678E-03    -55.1440E-03     110.765E-03    -55.6678E-03     10.0762E-03    -20.8364E+06    -61.5661E+06    -229.957E+06    -61.5692E+06    -229.954E+06    -20.8364E+06     179.462E+03         29.2897
             609     4.73104E-03     38.9979E-03     234.999E-03     13.7674E-03    -251.764E-03    -7.27179E-03    -9.49274E-03     13.7674E-03    -149.511E-03     111.044E-03    -55.3462E-03    -55.7017E-03    -55.2368E-03     110.934E-03    -55.7017E-03     8.49082E-03    -31.6541E+06    -68.3390E+06    -247.416E+06    -68.3408E+06    -247.414E+06    -31.6541E+06     363.190E+03         28.9555
             610     3.78481E-03     38.9898E-03     404.765E-03     18.3947E-03    -423.044E-03    -1.55619E-03    -16.7229E-03     18.3947E-03     191.279E-03     111.069E-03    -55.3885E-03    -55.6642E-03    -55.3165E-03     110.997E-03    -55.6642E-03     6.87687E-03    -47.3218E+06    -75.8066E+06    -261.320E+06    -75.8087E+06    -261.318E+06    -47.3218E+06     556.181E+03         28.6912
             611     2.83831E-03     38.9830E-03     674.128E-03     22.9826E-03    -695.886E-03     10.6276E-03    -32.3856E-03     22.9826E-03    -350.093E-03     111.058E-03    -55.4610E-03    -55.6003E-03    -55.4183E-03     111.016E-03    -55.6003E-03     5.26750E-03    -64.6922E+06    -82.4341E+06    -272.651E+06    -82.4345E+06    -272.651E+06    -64.6922E+06     274.356E+03         28.4940
             612     1.89231E-03     38.9782E-03         1.19531     24.5219E-03        -1.22434     26.6917E-03    -55.7210E-03     24.5219E-03     698.958E-03     111.076E-03    -55.5186E-03    -55.5745E-03    -55.4983E-03     111.055E-03    -55.5745E-03     3.57273E-03    -78.7989E+06    -87.4924E+06    -282.249E+06    -87.4936E+06    -282.248E+06    -78.7989E+06     421.151E+03         28.3653
             613     946.080E-06     38.9753E-03         2.55362     148.035E-03        -2.70671    -100.223E-03    -52.8639E-03     148.035E-03        -2.14041     111.067E-03    -55.3793E-03    -55.6906E-03    -55.6679E-03     111.060E-03    -55.3949E-03     2.07916E-03    -88.3390E+06    -91.4710E+06    -289.481E+06    -90.7853E+06    -289.477E+06    -89.0285E+06     281.499E+03         28.2961
             614     16.0941E-03     38.2588E-03     16.8553E-03     4.88400E-03    -39.1427E-03    -153.918E-06    -22.1335E-03     4.88400E-03     33.4534E-03     113.139E-03    -54.5171E-03    -58.7266E-03    -53.6792E-03     108.868E-03    -55.2938E-03     44.5298E-03     166.064E+06     124.810E+06    -7.16230E+06    -7.15441E+06     166.056E+06     124.810E+06     45.5011E+03         44.9459
             615     15.1465E-03     38.1756E-03     15.6687E-03     5.47327E-03    -31.5798E-03    -12.9852E-03    -2.92587E-03     5.47327E-03     19.8075E-03     114.226E-03    -55.2535E-03    -59.1335E-03    -53.6809E-03     108.773E-03    -55.2535E-03     58.5012E-03     162.460E+06     108.586E+06    -15.2447E+06    -15.2412E+06     162.457E+06     108.586E+06    -106.760E+03         42.1479
             616     14.1989E-03     38.1299E-03     19.0738E-03     6.51233E-03    -33.8301E-03    -9.42624E-03    -5.33011E-03     6.51233E-03     2.93974E-03     112.221E-03    -55.1652E-03    -57.2789E-03    -53.7056E-03     108.647E-03    -55.1652E-03     48.3198E-03     156.536E+06     67.6607E+06    -22.9950E+06    -22.9931E+06     156.534E+06     67.6607E+06    -304.097E+03         39.1361
             617     13.2518E-03     38.0698E-03     18.9862E-03     7.12859E-03    -33.1426E-03     1.27729E-03    -15.6117E-03     7.30659E-03     21.7323E-03     112.287E-03    -55.1015E-03    -57.2731E-03    -53.9230E-03     108.937E-03    -55.1015E-03     46.5179E-03     131.408E+06     27.0821E+06    -27.8824E+06    -27.8765E+06     131.402E+06     27.0821E+06    -203.050E+03         36.5784
             618     12.3042E-03     38.0286E-03     27.3375E-03     7.20569E-03    -41.5142E-03     12.9383E-03    -27.2930E-03     7.38368E-03    -12.7606E-03     110.956E-03    -55.1473E-03    -55.9139E-03    -54.1134E-03     109.155E-03    -55.1473E-03     34.2456E-03     59.7206E+06     8.38687E+06    -30.6091E+06    -30.6021E+06     59.7135E+06     8.38687E+06     193.719E+03         34.7385
             619     11.3574E-03     37.9955E-03     32.2779E-03     7.07018E-03    -45.3725E-03     10.2651E-03    -23.3597E-03     7.07018E-03     1.15624E-03     110.609E-03    -55.2001E-03    -55.5161E-03    -54.3828E-03     109.530E-03    -55.2545E-03     26.4072E-03     5.89052E+06    -15.4670E+06    -42.0207E+06    -33.3338E+06    -20.8266E+06     2.56315E+06     121.072E+03         33.4738
             620     10.4104E-03     37.9715E-03     28.8389E-03     7.23103E-03    -41.7851E-03     759.588E-06    -13.7057E-03     7.23103E-03    -488.840E-06     110.574E-03    -55.1958E-03    -55.3166E-03    -54.5277E-03     109.906E-03    -55.3166E-03     20.9404E-03    -162.638E+03    -36.6366E+06    -75.5091E+06    -36.6372E+06    -75.5085E+06    -162.638E+03    -113.281E+03         32.4754
             621     9.46375E-03     37.9507E-03     34.0701E-03     7.42524E-03    -47.5991E-03     9.34556E-03    -22.8746E-03     7.42524E-03     2.79714E-03     110.663E-03    -55.1771E-03    -55.3853E-03    -54.6711E-03     110.157E-03    -55.3853E-03     18.2612E-03    -2.01659E+06    -40.2245E+06    -115.779E+06    -40.2250E+06    -115.779E+06    -2.01659E+06    -149.332E+03         31.6050
             622     8.51696E-03     37.9322E-03     46.7364E-03     6.57238E-03    -59.8406E-03     20.2794E-03    -33.3837E-03     6.57238E-03    -16.3225E-03     110.694E-03    -55.1657E-03    -55.4826E-03    -54.7883E-03     110.316E-03    -55.4826E-03     15.7340E-03    -4.38725E+06    -44.9149E+06    -148.495E+06    -44.9204E+06    -148.490E+06    -4.38725E+06     232.701E+03         30.8581
             623     7.57045E-03     37.9167E-03     72.5960E-03     5.81211E-03    -86.1216E-03     6.01275E-03    -19.5384E-03     5.81211E-03     44.4417E-03     110.746E-03    -55.2008E-03    -55.5628E-03    -54.9314E-03     110.476E-03    -55.5628E-03     13.3284E-03    -7.33403E+06    -50.0059E+06    -179.959E+06    -50.0244E+06    -179.940E+06    -7.33403E+06     798.554E+03         30.2264
             624     6.62369E-03     37.9036E-03     108.528E-03     7.19467E-03    -123.555E-03    -12.2474E-03    -2.77940E-03     7.19467E-03    -33.9903E-03     110.831E-03    -55.2622E-03    -55.6441E-03    -55.0557E-03     110.624E-03    -55.6441E-03     11.6836E-03    -11.8232E+06    -55.0864E+06    -208.057E+06    -55.1016E+06    -208.042E+06    -11.8232E+06     583.533E+03         29.7071
             625     5.67735E-03     37.8918E-03     147.553E-03     9.97005E-03    -163.087E-03    -6.90596E-03    -8.62778E-03     9.97005E-03     44.5997E-03     110.951E-03    -55.3166E-03    -55.6792E-03    -55.1600E-03     110.794E-03    -55.6792E-03     10.1698E-03    -20.6044E+06    -61.5244E+06    -229.583E+06    -61.5263E+06    -229.581E+06    -20.6044E+06     182.321E+03         29.2878
             626     4.73112E-03     37.8820E-03     220.189E-03     12.3912E-03    -233.548E-03     1.82623E-03    -15.1860E-03     12.3912E-03    -99.4255E-03     111.071E-03    -55.3672E-03    -55.7081E-03    -55.2567E-03     110.960E-03    -55.7081E-03     8.53323E-03    -32.3770E+06    -68.5671E+06    -247.770E+06    -68.5704E+06    -247.766E+06    -32.3770E+06     8.12962E+03         28.9540
             627     3.78455E-03     37.8733E-03     381.822E-03     14.7428E-03    -395.085E-03     3.89271E-03    -17.1556E-03     14.7428E-03     223.650E-03     111.117E-03    -55.4309E-03    -55.6682E-03    -55.3587E-03     111.044E-03    -55.6682E-03     6.88578E-03    -46.5913E+06    -74.8357E+06    -261.271E+06    -74.8392E+06    -261.268E+06    -46.5913E+06     92.9044E+03         28.6903
             628     2.83861E-03     37.8669E-03     636.401E-03     14.8558E-03    -647.480E-03     21.7358E-03    -32.8154E-03     14.8558E-03    -282.339E-03     111.087E-03    -55.4928E-03    -55.6004E-03    -55.4497E-03     111.043E-03    -55.6004E-03     5.29558E-03    -62.4113E+06    -80.8178E+06    -272.385E+06    -80.8187E+06    -272.385E+06    -62.4113E+06     360.703E+03         28.4933
             629     1.89223E-03     37.8617E-03         1.13968     3.70097E-03        -1.14207     43.2505E-03    -45.6391E-03     3.70097E-03     714.794E-03     111.067E-03    -55.5181E-03    -55.5678E-03    -55.5015E-03     111.046E-03    -55.5635E-03     3.61893E-03    -77.3642E+06    -86.3474E+06    -282.378E+06    -86.3494E+06    -282.376E+06    -77.3642E+06     575.516E+03         28.3646
             630     946.209E-06     37.8590E-03         2.42726     115.494E-03        -2.54278    -128.099E-03     12.5764E-03     115.494E-03        -1.96934     111.029E-03    -55.4181E-03    -55.6118E-03    -55.6030E-03     111.023E-03    -55.4201E-03     1.98824E-03    -87.2321E+06    -90.7845E+06    -288.407E+06    -90.1013E+06    -288.401E+06    -87.9216E+06     1.03268E+06         28.2956
             631     16.0943E-03     37.1416E-03     24.2449E-03     4.25229E-03    -39.9691E-03    -1.17373E-03    -14.5505E-03     4.25229E-03    -19.1049E-03     113.048E-03    -54.4827E-03    -58.6722E-03    -53.6007E-03     108.782E-03    -55.2879E-03     44.4845E-03     165.226E+06     124.277E+06    -7.93967E+06    -7.93133E+06     165.218E+06     124.277E+06    -31.5464E+03         44.9331
             632     15.1467E-03     37.0602E-03     21.2583E-03     4.99656E-03    -33.2281E-03    -10.9802E-03    -989.637E-06     4.99656E-03    -15.3085E-03     114.235E-03    -55.2520E-03    -59.1183E-03    -53.6676E-03     108.785E-03    -55.2520E-03     58.4927E-03     163.307E+06     109.059E+06    -15.8943E+06    -15.8887E+06     163.301E+06     109.059E+06     204.638E+03         42.1389
             633     14.1988E-03     37.0131E-03     16.8019E-03     4.60461E-03    -27.8748E-03    -22.5982E-03     9.61958E-03     6.51026E-03    -5.54769E-03     112.271E-03    -55.1614E-03    -57.3221E-03    -53.7324E-03     108.681E-03    -55.1614E-03     48.4342E-03     158.082E+06     68.4834E+06    -22.1756E+06    -22.1700E+06     158.077E+06     68.4834E+06    -88.0437E+03         39.1304
             634     13.2512E-03     36.9537E-03     20.0799E-03     5.95948E-03    -32.3496E-03    -3.47496E-03    -10.7003E-03     7.86513E-03     25.7968E-03     112.350E-03    -55.0914E-03    -57.3445E-03    -53.9864E-03     108.992E-03    -55.0914E-03     46.5644E-03     130.785E+06     26.9198E+06    -26.9412E+06    -26.9351E+06     130.779E+06     26.9198E+06    -589.161E+03         36.5744
             635     12.3045E-03     36.9112E-03     27.3423E-03     5.30398E-03    -38.9062E-03     13.8021E-03    -28.0804E-03     8.01847E-03     8.20939E-03     110.907E-03    -55.1397E-03    -55.8703E-03    -54.0772E-03     109.114E-03    -55.1397E-03     34.1728E-03     59.2268E+06     8.47555E+06    -30.4329E+06    -30.4278E+06     59.2218E+06     8.47555E+06    -99.3372E+03         34.7354
             636     11.3573E-03     36.8794E-03     23.2551E-03     5.01952E-03    -34.7940E-03     9.33981E-03    -23.5932E-03     7.73401E-03     3.52107E-03     110.501E-03    -55.1934E-03    -55.4100E-03    -54.2656E-03     109.417E-03    -55.2538E-03     26.4673E-03     6.39353E+06    -15.2516E+06    -42.3800E+06    -33.4127E+06    -20.6206E+06     2.79511E+06     161.157E+03         33.4718
             637     10.4103E-03     36.8545E-03     31.7740E-03     7.51807E-03    -46.4095E-03     11.3303E-03    -25.9658E-03     7.51807E-03    -16.7220E-03     110.567E-03    -55.1869E-03    -55.3216E-03    -54.5144E-03     109.894E-03    -55.3216E-03     20.9975E-03     142.867E+03    -36.6737E+06    -75.4670E+06    -36.6755E+06    -75.4652E+06     142.867E+03     41.0393E+03         32.4740
             638     9.46355E-03     36.8340E-03     39.2999E-03     7.04470E-03    -54.3178E-03     13.1442E-03    -28.1621E-03     7.04470E-03    -1.17812E-03     110.678E-03    -55.1886E-03    -55.3910E-03    -54.6852E-03     110.174E-03    -55.3910E-03     18.2190E-03    -1.71963E+06    -40.5644E+06    -115.995E+06    -40.5657E+06    -115.994E+06    -1.71963E+06     182.866E+03         31.6038
             639     8.51695E-03     36.8157E-03     34.7759E-03     6.84553E-03    -50.2918E-03     4.77794E-03    -20.2938E-03     6.84553E-03    -1.50781E-03     110.706E-03    -55.1697E-03    -55.4879E-03    -54.7907E-03     110.327E-03    -55.4879E-03     15.7771E-03    -4.53200E+06    -44.7857E+06    -149.044E+06    -44.7920E+06    -149.037E+06    -4.53200E+06     510.528E+03         30.8566
             640     7.57022E-03     36.8001E-03     61.4454E-03     6.82473E-03    -78.0802E-03     9.02082E-03    -25.6556E-03     6.82473E-03     51.7655E-03     110.752E-03    -55.2025E-03    -55.5682E-03    -54.9315E-03     110.481E-03    -55.5682E-03     13.3640E-03    -7.40562E+06    -49.5192E+06    -179.886E+06    -49.5294E+06    -179.876E+06    -7.40562E+06     514.805E+03         30.2247
             641     6.62387E-03     36.7870E-03     97.8163E-03     5.84469E-03    -113.268E-03     17.5803E-03    -33.0316E-03     5.84469E-03    -18.2780E-03     110.836E-03    -55.2612E-03    -55.6516E-03    -55.0560E-03     110.631E-03    -55.6516E-03     11.6469E-03    -11.3806E+06    -55.5954E+06    -207.571E+06    -55.6021E+06    -207.564E+06    -11.3806E+06     389.730E+03         29.7054
             642     5.67729E-03     36.7753E-03     136.885E-03     5.13102E-03    -148.229E-03     3.20376E-03    -14.5475E-03     5.13102E-03     60.6851E-03     110.917E-03    -55.2772E-03    -55.6905E-03    -55.1227E-03     110.762E-03    -55.6905E-03     10.0933E-03    -20.0686E+06    -62.2556E+06    -229.137E+06    -62.2575E+06    -229.135E+06    -20.0686E+06     132.037E+03         29.2862
             643     4.73084E-03     36.7655E-03     218.138E-03     6.11925E-03    -227.343E-03    -2.68495E-03    -6.51981E-03     6.11925E-03    -103.343E-03     111.076E-03    -55.3774E-03    -55.7127E-03    -55.2675E-03     110.967E-03    -55.7127E-03     8.51944E-03    -33.5415E+06    -69.1300E+06    -247.571E+06    -69.1325E+06    -247.568E+06    -33.5415E+06    -329.903E+03         28.9527
             644     3.78489E-03     36.7573E-03     367.657E-03     5.47531E-03    -372.146E-03     17.2929E-03    -21.7813E-03     5.47531E-03     190.587E-03     111.141E-03    -55.4640E-03    -55.6646E-03    -55.3901E-03     111.067E-03    -55.6646E-03     6.96917E-03    -49.4514E+06    -76.2692E+06    -261.904E+06    -76.2717E+06    -261.902E+06    -49.4514E+06    -295.290E+03         28.6896
             645     2.83833E-03     36.7503E-03     628.969E-03     2.39180E-03    -626.559E-03     11.8556E-03    -9.44559E-03     2.39180E-03    -324.567E-03     111.102E-03    -55.5143E-03    -55.5980E-03    -55.4749E-03     111.058E-03    -55.5932E-03     5.36769E-03    -64.9850E+06    -82.4706E+06    -272.514E+06    -82.4717E+06    -272.513E+06    -64.9850E+06     183.064E+03         28.4931
             646     1.89232E-03     36.7457E-03         1.09355     1.52035E-03        -1.09090    -1.22448E-03     3.87719E-03     1.52035E-03     605.260E-03     111.083E-03    -55.5395E-03    -55.5655E-03    -55.5276E-03     111.062E-03    -55.5565E-03     3.61511E-03    -77.6292E+06    -87.3142E+06    -282.358E+06    -87.3158E+06    -282.356E+06    -77.6292E+06     532.681E+03         28.3646
             647     946.151E-06     36.7428E-03         2.28124     135.660E-03        -2.41960    -131.107E-03    -7.25512E-03     135.660E-03        -1.90856     110.997E-03    -55.4275E-03    -55.5704E-03    -55.5624E-03     110.991E-03    -55.4293E-03     1.87368E-03    -86.7524E+06    -91.1388E+06    -287.140E+06    -90.7667E+06    -287.128E+06    -87.1365E+06     135.942E+03         28.2957
             648     16.0942E-03     36.0273E-03     34.8888E-03     7.13278E-03    -40.4480E-03     5.47171E-03    -11.2203E-03     7.32208E-03    -62.5513E-03     113.123E-03    -54.4972E-03    -58.7731E-03    -53.6450E-03     108.784E-03    -55.2856E-03     44.6966E-03     164.999E+06     124.437E+06    -7.40176E+06    -7.38953E+06     164.987E+06     124.437E+06     341.893E+03         44.9210
             649     15.1460E-03     35.9421E-03     23.1591E-03     7.28961E-03    -35.3255E-03     10.6308E-03    -22.9866E-03     7.47891E-03    -29.1548E-03     114.365E-03    -55.2472E-03    -59.2309E-03    -53.7511E-03     108.885E-03    -55.2472E-03     58.4867E-03     163.743E+06     109.466E+06    -15.0784E+06    -15.0624E+06     163.727E+06     109.466E+06    -20.3261E+03         42.1308
             650     14.1990E-03     35.8984E-03     25.2012E-03     5.49466E-03    -35.1251E-03     11.2616E-03    -23.0912E-03     7.40031E-03    -29.4851E-03     112.323E-03    -55.1520E-03    -57.3667E-03    -53.8007E-03     108.757E-03    -55.1520E-03     48.2082E-03     158.907E+06     68.2227E+06    -22.1711E+06    -22.1594E+06     158.896E+06     68.2227E+06    -458.426E+03         39.1247
             651     13.2518E-03     35.8365E-03     20.3249E-03     4.09106E-03    -28.9454E-03     8.30386E-03    -20.1035E-03     7.27019E-03     947.643E-06     112.228E-03    -55.0819E-03    -57.2468E-03    -53.8788E-03     108.860E-03    -55.0819E-03     46.5522E-03     130.448E+06     25.7425E+06    -27.2255E+06    -27.2189E+06     130.441E+06     25.7425E+06    -441.946E+03         36.5699
             652     12.3046E-03     35.7962E-03     11.5913E-03     860.444E-06    -17.1187E-03    -1.04173E-03    -11.1773E-03     7.55203E-03     15.9816E-03     110.766E-03    -55.1405E-03    -55.7459E-03    -53.9562E-03     108.976E-03    -55.1405E-03     34.1473E-03     58.4209E+06     7.78027E+06    -30.7005E+06    -30.6965E+06     58.4169E+06     7.78027E+06    -110.160E+03         34.7316
             653     11.3571E-03     35.7631E-03     10.0841E-03     2.74370E-03    -18.5506E-03     1.12358E-03    -15.0082E-03     8.16181E-03     12.2772E-03     110.537E-03    -55.2257E-03    -55.4183E-03    -54.2801E-03     109.432E-03    -55.2594E-03     26.7131E-03     6.34513E+06    -15.2742E+06    -42.2314E+06    -33.6194E+06    -20.4452E+06     2.90414E+06     199.696E+03         33.4690
             654     10.4104E-03     35.7388E-03     26.6656E-03     8.19454E-03    -42.2900E-03     13.9038E-03    -29.5283E-03     8.19454E-03    -24.9434E-03     110.592E-03    -55.2126E-03    -55.3253E-03    -54.5355E-03     109.915E-03    -55.3253E-03     21.0649E-03     125.604E+03    -36.9650E+06    -75.5323E+06    -36.9682E+06    -75.5291E+06     125.604E+03     288.888E+03         32.4726
             655     9.46351E-03     35.7180E-03     31.9120E-03     7.74289E-03    -47.6984E-03     12.0024E-03    -27.7889E-03     7.74289E-03    -10.6722E-03     110.673E-03    -55.1835E-03    -55.3933E-03    -54.6788E-03     110.169E-03    -55.3933E-03     18.2436E-03    -1.70751E+06    -40.7001E+06    -116.189E+06    -40.7034E+06    -116.186E+06    -1.70751E+06     296.781E+03         31.6030
             656     8.51689E-03     35.6994E-03     28.8072E-03     7.99209E-03    -45.4331E-03     358.612E-06    -16.9845E-03     7.99209E-03    -15.8065E-03     110.724E-03    -55.1845E-03    -55.4927E-03    -54.8039E-03     110.344E-03    -55.4927E-03     15.8031E-03    -4.45519E+06    -44.6365E+06    -149.266E+06    -44.6393E+06    -149.263E+06    -4.45519E+06     255.541E+03         30.8554
             657     7.57031E-03     35.6843E-03     44.9133E-03     8.44039E-03    -62.3171E-03     8.63279E-03    -26.0366E-03     8.44039E-03     14.0655E-03     110.774E-03    -55.2277E-03    -55.5746E-03    -54.9559E-03     110.502E-03    -55.5746E-03     13.3889E-03    -7.26076E+06    -49.4457E+06    -179.728E+06    -49.4512E+06    -179.722E+06    -7.26076E+06     452.911E+03         30.2229
             658     6.62370E-03     35.6706E-03     80.5004E-03     7.66907E-03    -96.4616E-03     18.9291E-03    -34.8903E-03     7.66907E-03    -53.1111E-03     110.868E-03    -55.2895E-03    -55.6549E-03    -55.0844E-03     110.662E-03    -55.6549E-03     11.6394E-03    -10.7682E+06    -54.8352E+06    -207.142E+06    -54.8394E+06    -207.138E+06    -10.7682E+06     283.677E+03         29.7039
             659     5.67746E-03     35.6593E-03     115.876E-03     6.02474E-03    -129.211E-03     16.9000E-03    -30.2354E-03     6.02474E-03     13.2613E-03     110.915E-03    -55.2733E-03    -55.6879E-03    -55.1195E-03     110.761E-03    -55.6879E-03     10.0799E-03    -19.9192E+06    -61.2381E+06    -228.674E+06    -61.2397E+06    -228.672E+06    -19.9192E+06     71.2185E+03         29.2852
             660     4.73101E-03     35.6489E-03     196.665E-03     3.79802E-03    -204.341E-03     17.4879E-03    -25.1644E-03     3.79802E-03    -145.529E-03     111.021E-03    -55.3116E-03    -55.7217E-03    -55.2007E-03     110.911E-03    -55.7217E-03     8.54838E-03    -32.6923E+06    -68.6413E+06    -247.469E+06    -68.6434E+06    -247.467E+06    -32.6923E+06    -9.24863E+03         28.9517
             661     3.78438E-03     35.6412E-03     358.225E-03     933.204E-06    -359.181E-03     12.9094E-03    -13.8661E-03     933.204E-06     179.483E-03     111.159E-03    -55.4566E-03    -55.6882E-03    -55.3820E-03     111.085E-03    -55.6882E-03     7.00799E-03    -48.3106E+06    -75.9259E+06    -262.328E+06    -75.9274E+06    -262.327E+06    -48.3106E+06    -47.0939E+03         28.6892
             662     2.83850E-03     35.6339E-03     587.307E-03     672.070E-06    -584.858E-03    -6.85916E-03     9.30857E-03     672.070E-06    -275.733E-03     111.182E-03    -55.5707E-03    -55.6199E-03    -55.5350E-03     111.137E-03    -55.6108E-03     5.39923E-03    -64.6941E+06    -82.5780E+06    -272.808E+06    -82.5792E+06    -272.807E+06    -64.6941E+06     192.114E+03         28.4939
             663     1.89231E-03     35.6294E-03         1.02920     5.16219E-03        -1.03554    -7.89742E-03     1.55582E-03     5.16219E-03     617.026E-03     111.090E-03    -55.5445E-03    -55.5678E-03    -55.5330E-03     111.069E-03    -55.5588E-03     3.56277E-03    -78.5597E+06    -88.0364E+06    -281.907E+06    -88.0398E+06    -281.903E+06    -78.5597E+06    -67.5572E+03         28.3660
             664     946.214E-06     35.6266E-03         2.15153     126.520E-03        -2.28285    -109.847E-03    -21.4782E-03     126.520E-03        -1.75087     111.000E-03    -55.3680E-03    -55.6328E-03    -55.6126E-03     110.994E-03    -55.3823E-03     1.85203E-03    -88.3969E+06    -91.5946E+06    -287.204E+06    -91.0045E+06    -287.191E+06    -88.9997E+06    -467.637E+03         28.2970
             665     16.0940E-03     34.9103E-03     25.6758E-03     8.51101E-03    -35.3105E-03     1.76741E-03    -11.5914E-03     8.70030E-03     455.062E-06     113.282E-03    -54.5818E-03    -58.8621E-03    -53.8262E-03     108.955E-03    -55.2909E-03     44.5399E-03     165.645E+06     124.906E+06    -7.38626E+06    -7.37787E+06     165.636E+06     124.906E+06     247.763E+03         44.9095
             666     15.1468E-03     34.8267E-03     20.1560E-03     8.66536E-03    -32.0663E-03     8.52912E-03    -20.6287E-03     8.85466E-03     23.3929E-03     114.430E-03    -55.2436E-03    -59.3285E-03    -53.8441E-03     108.945E-03    -55.2436E-03     58.5773E-03     163.452E+06     109.018E+06    -15.0672E+06    -15.0528E+06     163.437E+06     109.018E+06     104.357E+03         42.1235
             667     14.1992E-03     34.7810E-03     26.0996E-03     8.42258E-03    -37.6391E-03     21.0420E-03    -32.5815E-03     8.42258E-03    -14.9092E-03     112.244E-03    -55.1491E-03    -57.3172E-03    -53.7364E-03     108.663E-03    -55.1491E-03     48.2935E-03     158.509E+06     67.5373E+06    -21.8962E+06    -21.8874E+06     158.500E+06     67.5373E+06    -273.048E+03         39.1193
             668     13.2518E-03     34.7213E-03     25.9031E-03     6.47357E-03    -34.9863E-03     15.8608E-03    -26.2175E-03     7.74705E-03     1.57296E-03     112.113E-03    -55.0872E-03    -57.1396E-03    -53.7319E-03     108.705E-03    -55.0872E-03     46.8463E-03     130.257E+06     24.9297E+06    -27.1732E+06    -27.1668E+06     130.251E+06     24.9297E+06     15.6095E+03         36.5662
             669     12.3039E-03     34.6801E-03     20.4472E-03     3.57207E-03    -27.6961E-03     6.12642E-03    -17.3524E-03     7.54918E-03     7.83323E-03     110.813E-03    -55.1496E-03    -55.7947E-03    -53.9767E-03     108.995E-03    -55.1496E-03     34.3803E-03     58.0787E+06     7.03252E+06    -30.9473E+06    -30.9385E+06     58.0699E+06     7.03252E+06     34.8200E+03         34.7298
             670     11.3573E-03     34.6474E-03     17.7716E-03     4.91612E-03    -28.3190E-03     7.31248E-03    -20.5635E-03     7.61975E-03     3.28948E-03     110.629E-03    -55.2299E-03    -55.5155E-03    -54.3772E-03     109.529E-03    -55.2683E-03     26.6868E-03     6.09612E+06    -15.4241E+06    -42.3454E+06    -33.9908E+06    -20.4143E+06     2.73180E+06     143.938E+03         33.4681
             671     10.4102E-03     34.6226E-03     19.6719E-03     8.03746E-03    -35.3238E-03    -1.23131E-03    -14.4207E-03     8.03746E-03    -10.9966E-03     110.590E-03    -55.2026E-03    -55.3325E-03    -54.5255E-03     109.912E-03    -55.3325E-03     21.0596E-03    -168.566E+03    -37.1406E+06    -75.7742E+06    -37.1470E+06    -75.7679E+06    -168.566E+03     318.501E+03         32.4724
             672     9.46356E-03     34.6021E-03     23.7478E-03     9.11819E-03    -40.9788E-03    -4.13421E-03    -13.0968E-03     9.11819E-03     1.73005E-03     110.673E-03    -55.1714E-03    -55.3996E-03    -54.6668E-03     110.168E-03    -55.3996E-03     18.2457E-03    -1.67938E+06    -40.7326E+06    -115.972E+06    -40.7377E+06    -115.967E+06    -1.67938E+06     355.410E+03         31.6031
             673     8.51675E-03     34.5833E-03     31.1946E-03     9.87986E-03    -48.5203E-03     8.35882E-03    -25.6845E-03     9.87986E-03    -7.65890E-03     110.737E-03    -55.1940E-03    -55.4987E-03    -54.8105E-03     110.353E-03    -55.4987E-03     15.8654E-03    -4.68818E+06    -45.2607E+06    -149.461E+06    -45.2653E+06    -149.457E+06    -4.68818E+06     443.857E+03         30.8548
             674     7.57032E-03     34.5679E-03     42.3489E-03     10.2103E-03    -60.0718E-03     6.53503E-03    -24.2579E-03     10.2103E-03     17.0688E-03     110.781E-03    -55.2427E-03    -55.5743E-03    -54.9667E-03     110.505E-03    -55.5743E-03     13.4987E-03    -8.64314E+06    -50.0181E+06    -179.012E+06    -50.0220E+06    -179.008E+06    -8.64314E+06    -121.170E+03         30.2215
             675     6.62380E-03     34.5547E-03     61.2887E-03     10.9097E-03    -79.3983E-03     4.49968E-03    -22.6093E-03     10.9097E-03    -27.8355E-03     110.855E-03    -55.2823E-03    -55.6578E-03    -55.0740E-03     110.647E-03    -55.6578E-03     11.7243E-03    -11.9669E+06    -55.0865E+06    -207.152E+06    -55.0893E+06    -207.149E+06    -11.9669E+06    -454.485E+03         29.7024
             676     5.67725E-03     34.5428E-03     98.0846E-03     9.76516E-03    -113.876E-03     29.0552E-03    -44.8471E-03     9.76516E-03     32.2376E-03     110.927E-03    -55.2771E-03    -55.6996E-03    -55.1217E-03     110.772E-03    -55.6996E-03     10.1364E-03    -19.6719E+06    -61.1979E+06    -229.275E+06    -61.1996E+06    -229.274E+06    -19.6719E+06     250.837E+03         29.2841
             677     4.73082E-03     34.5334E-03     171.388E-03     5.11590E-03    -179.729E-03     35.5508E-03    -43.8918E-03     5.11590E-03    -109.365E-03     111.060E-03    -55.3390E-03    -55.7323E-03    -55.2260E-03     110.947E-03    -55.7323E-03     8.63093E-03    -32.0631E+06    -68.2309E+06    -246.716E+06    -68.2330E+06    -246.714E+06    -32.0631E+06     255.357E+03         28.9510
             678     3.78463E-03     34.5244E-03     312.131E-03    -202.333E-06    -314.207E-03     18.0342E-03    -20.1106E-03    -202.333E-06     178.004E-03     111.181E-03    -55.4563E-03    -55.7058E-03    -55.3814E-03     111.106E-03    -55.7058E-03     7.02004E-03    -46.4537E+06    -75.5975E+06    -262.636E+06    -75.5989E+06    -262.634E+06    -46.4537E+06     21.2234E+03         28.6888
             679     2.83826E-03     34.5178E-03     520.080E-03    -5.66529E-03    -517.215E-03     13.3508E-03    -10.4859E-03    -5.66529E-03    -234.031E-03     111.182E-03    -55.5501E-03    -55.6358E-03    -55.5100E-03     111.138E-03    -55.6316E-03     5.37486E-03    -63.5514E+06    -82.2392E+06    -272.934E+06    -82.2401E+06    -272.933E+06    -63.5514E+06     210.568E+03         28.4944
             680     1.89228E-03     34.5128E-03     933.468E-03    -17.5013E-03    -922.429E-03     16.9449E-03    -5.90640E-03    -17.5013E-03     585.478E-03     111.121E-03    -55.5550E-03    -55.5862E-03    -55.5393E-03     111.101E-03    -55.5820E-03     3.49966E-03    -79.6085E+06    -87.5217E+06    -281.406E+06    -87.5284E+06    -281.400E+06    -79.6085E+06     184.126E+03         28.3680
             681     946.030E-06     34.5103E-03         1.97873     70.2332E-03        -2.04879    -122.653E-03     52.5925E-03     70.2332E-03        -1.57974     111.073E-03    -55.4098E-03    -55.6614E-03    -55.6428E-03     111.067E-03    -55.4223E-03     1.93819E-03    -89.5418E+06    -91.5934E+06    -287.402E+06    -91.3835E+06    -287.394E+06    -89.7606E+06     364.204E+03         28.3002
             682     16.0942E-03     33.7940E-03     15.6259E-03     6.52819E-03    -31.5051E-03    -3.35234E-03    -12.5269E-03     6.52819E-03     38.9255E-03     113.203E-03    -54.5630E-03    -58.7947E-03    -53.7462E-03     108.886E-03    -55.2944E-03     44.5211E-03     165.563E+06     124.662E+06    -7.75461E+06    -7.75346E+06     165.562E+06     124.662E+06    -146.263E+03         44.8976
             683     15.1463E-03     33.7102E-03     13.9536E-03     7.08984E-03    -23.5912E-03    -7.99944E-03    -1.70209E-03     7.15374E-03     30.8196E-03     114.313E-03    -55.2548E-03    -59.1854E-03    -53.6742E-03     108.801E-03    -55.2548E-03     58.7886E-03     163.610E+06     109.123E+06    -14.9016E+06    -14.8984E+06     163.607E+06     109.123E+06    -118.678E+03         42.1151
             684     14.1990E-03     33.6651E-03     12.4212E-03     7.87324E-03    -21.8152E-03    -4.48512E-03    -4.97273E-03     7.93714E-03    -318.157E-06     112.161E-03    -55.1664E-03    -57.1996E-03    -53.6033E-03     108.565E-03    -55.1664E-03     48.4350E-03     157.875E+06     67.5105E+06    -21.8824E+06    -21.8715E+06     157.864E+06     67.5105E+06     415.017E+03         39.1134
             685     13.2508E-03     33.6050E-03     20.3904E-03     8.45653E-03    -31.5529E-03     4.78900E-03    -15.9514E-03     8.45653E-03     11.1314E-03     112.251E-03    -55.1055E-03    -57.2332E-03    -53.8419E-03     108.859E-03    -55.1055E-03     46.7927E-03     130.431E+06     24.9616E+06    -27.4694E+06    -27.4581E+06     130.420E+06     24.9616E+06     588.190E+03         36.5631
             686     12.3041E-03     33.5636E-03     30.8975E-03     8.09365E-03    -43.7994E-03     21.2466E-03    -34.1485E-03     8.09365E-03    -1.28519E-03     110.987E-03    -55.1570E-03    -55.9351E-03    -54.1190E-03     109.171E-03    -55.1570E-03     34.3786E-03     58.7364E+06     7.02379E+06    -31.0533E+06    -31.0479E+06     58.7310E+06     7.02379E+06     125.927E+03         34.7297
             687     11.3570E-03     33.5307E-03     31.0978E-03     7.23550E-03    -45.3617E-03     15.9207E-03    -30.1846E-03     7.23550E-03     7.86219E-03     110.662E-03    -55.2462E-03    -55.5223E-03    -54.4108E-03     109.573E-03    -55.2690E-03     26.5635E-03      5.7125E+06    -15.7547E+06    -42.7344E+06    -34.0727E+06    -20.9932E+06     2.28924E+06     12.3362E+03         33.4692
             688     10.4103E-03     33.5062E-03     23.3579E-03     7.45471E-03    -38.4619E-03    -5.41109E-03    -9.69291E-03     7.45471E-03     5.52576E-03     110.599E-03    -55.2091E-03    -55.3336E-03    -54.5342E-03     109.924E-03    -55.3336E-03     21.0276E-03    -352.257E+03    -37.1909E+06    -75.7468E+06    -37.1977E+06    -75.7400E+06    -352.257E+03     296.610E+03         32.4731
             689     9.46336E-03     33.4857E-03     22.5476E-03     8.67502E-03    -38.6636E-03    -4.35303E-03    -11.7630E-03     8.67502E-03    -2.71655E-03     110.669E-03    -55.1633E-03    -55.4013E-03    -54.6628E-03     110.168E-03    -55.4013E-03     18.1665E-03    -1.76792E+06    -40.8027E+06    -116.008E+06    -40.8080E+06    -116.003E+06    -1.76792E+06     446.776E+03         31.6038
             690     8.51681E-03     33.4668E-03     22.5671E-03     9.12368E-03    -37.7708E-03     12.1784E-03    -27.3821E-03     9.12368E-03     11.1863E-03     110.713E-03    -55.1638E-03    -55.5003E-03    -54.7840E-03     110.333E-03    -55.5003E-03     15.7922E-03    -4.63285E+06    -44.6836E+06    -149.104E+06    -44.6872E+06    -149.101E+06    -4.63285E+06     219.344E+03         30.8551
             691     7.57005E-03     33.4513E-03     47.0924E-03     8.50314E-03    -60.6103E-03     14.9429E-03    -28.4609E-03     8.50314E-03     65.6894E-03     110.748E-03    -55.1974E-03    -55.5821E-03    -54.9208E-03     110.471E-03    -55.5821E-03     13.5113E-03    -8.52046E+06    -49.2272E+06    -178.143E+06    -49.2303E+06    -178.140E+06    -8.52046E+06    -263.062E+03         30.2209
             692     6.62366E-03     33.4381E-03     67.7076E-03     7.64140E-03    -81.3842E-03     13.1253E-03    -26.8020E-03     7.64140E-03     11.4451E-03     110.847E-03    -55.2635E-03    -55.6765E-03    -55.0550E-03     110.638E-03    -55.6765E-03     11.7271E-03    -12.0892E+06    -55.4467E+06    -207.654E+06    -55.4495E+06    -207.651E+06    -12.0892E+06    -301.004E+03         29.7014
             693     5.67715E-03     33.4268E-03     88.3407E-03     6.91955E-03    -101.609E-03     10.0359E-03    -23.3044E-03     6.91955E-03     49.5239E-03     110.965E-03    -55.2986E-03    -55.7205E-03    -55.1427E-03     110.809E-03    -55.7205E-03     10.1540E-03    -19.7959E+06    -62.2898E+06    -229.808E+06    -62.2920E+06    -229.806E+06    -19.7959E+06    -241.424E+03         29.2833
             694     4.73083E-03     33.4164E-03     156.741E-03     7.34836E-03    -170.604E-03     256.257E-06    -14.1199E-03     7.34836E-03    -91.7261E-03     111.153E-03    -55.4208E-03    -55.7439E-03    -55.3067E-03     111.039E-03    -55.7439E-03     8.67651E-03    -32.2346E+06    -68.9602E+06    -246.625E+06    -68.9634E+06    -246.622E+06    -32.2346E+06     140.958E+03         28.9504
             695     3.78458E-03     33.4082E-03     260.282E-03     7.77298E-03    -273.531E-03     10.5162E-03    -23.7658E-03     7.77298E-03     119.641E-03     111.205E-03    -55.4895E-03    -55.6974E-03    -55.4142E-03     111.130E-03    -55.6974E-03     7.03548E-03    -48.0639E+06    -76.1825E+06    -262.090E+06    -76.1839E+06    -262.089E+06    -48.0639E+06     213.398E+03         28.6880
             696     2.83837E-03     33.4012E-03     475.189E-03     5.19210E-03    -484.205E-03     19.3507E-03    -28.3666E-03     5.19210E-03    -306.207E-03     111.112E-03    -55.4706E-03    -55.6341E-03    -55.4266E-03     111.068E-03    -55.6341E-03     5.34173E-03    -65.2918E+06    -82.9679E+06    -273.513E+06    -82.9681E+06    -273.513E+06    -65.2918E+06    -6.90732E+03         28.4935
             697     1.89207E-03     33.3965E-03     852.531E-03    -2.11130E-03    -855.966E-03     18.3012E-03    -21.7366E-03    -2.11130E-03     443.820E-03     111.115E-03    -55.4918E-03    -55.6355E-03    -55.4716E-03     111.095E-03    -55.6355E-03     3.53808E-03    -79.2103E+06    -87.9864E+06    -281.789E+06    -87.9911E+06    -281.784E+06    -79.2103E+06     705.095E+03         28.3681
             698     946.194E-06     33.3939E-03         1.76944     92.9364E-03        -1.86904    -107.057E-03     7.45295E-03     92.9364E-03        -1.48158     111.220E-03    -55.4967E-03    -55.7219E-03    -55.6564E-03     111.213E-03    -55.5554E-03     2.05689E-03    -88.4734E+06    -91.5891E+06    -285.762E+06    -91.5940E+06    -285.757E+06    -88.4734E+06     501.354E+03         28.3028
             699     16.0941E-03     32.6773E-03     15.7525E-03     5.60032E-03    -27.3060E-03     1.52558E-03    -13.0791E-03     5.60032E-03    -2.85046E-03     113.007E-03    -54.5312E-03    -58.6954E-03    -53.6216E-03     108.705E-03    -55.3034E-03     44.6615E-03     165.770E+06     125.196E+06    -6.90115E+06    -6.89955E+06     165.768E+06     125.196E+06    -156.052E+03         44.8850
             700     15.1464E-03     32.5945E-03     11.2923E-03     5.90465E-03    -19.8299E-03    -975.225E-06    -7.62631E-03     5.96855E-03    -3.82101E-03     114.144E-03    -55.2683E-03    -59.0152E-03    -53.5359E-03     108.665E-03    -55.2683E-03     58.5759E-03     162.927E+06     108.128E+06    -15.7662E+06    -15.7598E+06     162.921E+06     108.128E+06     31.7515E+03         42.1049
             701     14.1982E-03     32.5491E-03     8.99823E-03     6.61420E-03    -17.1697E-03    -8.65923E-03     423.878E-06     6.67810E-03     1.81270E-03     112.209E-03    -55.1880E-03    -57.1995E-03    -53.6382E-03     108.647E-03    -55.1880E-03     48.2328E-03     157.199E+06     67.5914E+06    -23.2197E+06    -23.2062E+06     157.186E+06     67.5914E+06     619.768E+03         39.1057
             702     13.2514E-03     32.4892E-03     12.7355E-03     7.60538E-03    -23.0065E-03    -6.10809E-03    -4.16296E-03     7.60538E-03     13.4250E-03     112.378E-03    -55.1236E-03    -57.3412E-03    -53.9832E-03     109.020E-03    -55.1236E-03     46.6274E-03     131.132E+06     26.3424E+06    -27.4923E+06    -27.4829E+06     131.122E+06     26.3424E+06     477.972E+03         36.5587
             703     12.3040E-03     32.4476E-03     20.5975E-03     8.01460E-03    -33.7037E-03     8.55851E-03    -21.6646E-03     8.01460E-03    -6.47136E-03     111.031E-03    -55.1607E-03    -55.9688E-03    -54.1574E-03     109.220E-03    -55.1607E-03     34.3407E-03     59.0492E+06     7.28432E+06    -30.4963E+06    -30.4948E+06     59.0478E+06     7.28432E+06     197.507E+03         34.7285
             704     11.3571E-03     32.4144E-03     28.6608E-03     7.84832E-03    -43.0588E-03     11.3060E-03    -25.7040E-03     7.84832E-03     14.7958E-03     110.652E-03    -55.2376E-03    -55.5190E-03    -54.4021E-03     109.569E-03    -55.2719E-03     26.4861E-03     5.58266E+06    -15.7128E+06    -42.2502E+06    -33.7397E+06    -21.0905E+06     2.44984E+06     263.093E+03         33.4696
             705     10.4101E-03     32.3903E-03     30.7711E-03     7.68717E-03    -45.0976E-03     8.60330E-03    -22.9298E-03     7.68717E-03     892.772E-06     110.625E-03    -55.2333E-03    -55.3390E-03    -54.5576E-03     109.949E-03    -55.3390E-03     21.0514E-03    -512.103E+03    -37.1721E+06    -75.8648E+06    -37.1829E+06    -75.8540E+06    -512.103E+03     360.173E+03         32.4739
             706     9.46368E-03     32.3695E-03     25.6308E-03     7.51040E-03    -37.9038E-03     10.2921E-03    -22.5651E-03     7.51040E-03    -18.3221E-03     110.688E-03    -55.1884E-03    -55.4011E-03    -54.6863E-03     110.186E-03    -55.4011E-03     18.1921E-03    -2.02529E+06    -40.7289E+06    -115.915E+06    -40.7323E+06    -115.911E+06    -2.02529E+06     351.749E+03         31.6046
             707     8.51681E-03     32.3513E-03     21.6349E-03     7.16528E-03    -32.0685E-03     10.5892E-03    -21.0227E-03     7.16528E-03    -6.98555E-03     110.687E-03    -55.1379E-03    -55.4974E-03    -54.7600E-03     110.309E-03    -55.4974E-03     15.7519E-03    -4.38767E+06    -45.0327E+06    -148.459E+06    -45.0341E+06    -148.458E+06    -4.38767E+06     70.8293E+03         30.8559
             708     7.57018E-03     32.3356E-03     42.0898E-03     6.08739E-03    -51.8088E-03     20.0881E-03    -29.8071E-03     6.08739E-03     34.1887E-03     110.697E-03    -55.1307E-03    -55.5841E-03    -54.8553E-03     110.421E-03    -55.5841E-03     13.4756E-03    -8.70683E+06    -50.0400E+06    -178.157E+06    -50.0409E+06    -178.156E+06    -8.70683E+06    -124.772E+03         30.2211
             709     6.62350E-03     32.3221E-03     66.8424E-03     4.63921E-03    -76.8008E-03     12.7120E-03    -22.6704E-03     4.63921E-03    -22.9775E-03     110.842E-03    -55.2384E-03    -55.6845E-03    -55.0315E-03     110.635E-03    -55.6845E-03     11.6792E-03    -12.6470E+06    -55.2812E+06    -207.899E+06    -55.2822E+06    -207.898E+06    -12.6470E+06    -163.979E+03         29.7010
             710     5.67706E-03     32.3105E-03     79.5845E-03     5.96758E-03    -94.9578E-03    -16.5952E-03     1.22189E-03     5.96758E-03     16.3395E-03     111.035E-03    -55.3584E-03    -55.7280E-03    -55.2035E-03     110.880E-03    -55.7280E-03     10.1294E-03    -20.0706E+06    -61.9070E+06    -229.691E+06    -61.9120E+06    -229.686E+06    -20.0706E+06    -44.8631E+03         29.2831
             711     4.73077E-03     32.3003E-03     136.265E-03     11.4367E-03    -156.473E-03    -24.0704E-03     3.86305E-03     11.4367E-03    -102.782E-03     111.167E-03    -55.4355E-03    -55.7452E-03    -55.3224E-03     111.054E-03    -55.7452E-03     8.63712E-03    -32.9149E+06    -69.7589E+06    -246.931E+06    -69.7660E+06    -246.924E+06    -32.9149E+06     49.3187E+03         28.9502
             712     3.78462E-03     32.2916E-03     241.921E-03     18.6813E-03    -267.711E-03    -10.5398E-03    -15.2502E-03     18.6813E-03     115.746E-03     111.184E-03    -55.4780E-03    -55.6912E-03    -55.4034E-03     111.109E-03    -55.6912E-03     7.00825E-03    -49.7195E+06    -76.5970E+06    -261.748E+06    -76.5996E+06    -261.746E+06    -49.7195E+06    -41.9705E+03         28.6871
             713     2.83836E-03     32.2847E-03     421.900E-03     27.3639E-03    -453.790E-03    -2.49678E-03    -29.3935E-03     27.3639E-03    -250.298E-03     111.116E-03    -55.4664E-03    -55.6430E-03    -55.4228E-03     111.072E-03    -55.6430E-03     5.30996E-03    -64.6169E+06    -82.5016E+06    -273.988E+06    -82.5017E+06    -273.988E+06    -64.6169E+06     90.1635E+03         28.4915
             714     1.89209E-03     32.2802E-03     766.508E-03     35.1857E-03    -806.303E-03     24.0654E-03    -63.8602E-03     35.1857E-03     444.226E-03     111.120E-03    -55.4698E-03    -55.6640E-03    -55.4495E-03     111.100E-03    -55.6640E-03     3.58523E-03    -77.2500E+06    -87.6735E+06    -281.628E+06    -87.6750E+06    -281.626E+06    -77.2500E+06     112.623E+03         28.3658
             715     945.623E-06     32.2771E-03         1.57530     118.216E-03        -1.69932    -42.2439E-03    -81.7682E-03     118.216E-03        -1.25743     111.276E-03    -55.4392E-03    -55.8374E-03    -55.7507E-03     111.269E-03    -55.5190E-03     1.97512E-03    -87.3964E+06    -91.2409E+06    -285.003E+06    -90.4718E+06    -285.002E+06    -88.1672E+06    -138.444E+03         28.3013
             716     16.0941E-03     31.5610E-03     23.2717E-03     7.20698E-03    -31.8881E-03     12.4574E-03    -21.0737E-03     7.20698E-03    -28.3822E-03     112.913E-03    -54.3751E-03    -58.6856E-03    -53.4514E-03     108.610E-03    -55.3068E-03     44.6216E-03     164.960E+06     124.207E+06    -7.72666E+06    -7.72058E+06     164.954E+06     124.207E+06     16.8757E+03         44.8727
             717     15.1459E-03     31.4789E-03     20.2214E-03     6.77708E-03    -31.5148E-03     18.4029E-03    -29.6963E-03     6.77708E-03    -10.8119E-03     114.294E-03    -55.2752E-03    -59.1691E-03    -53.6980E-03     108.822E-03    -55.2752E-03     58.5389E-03     163.233E+06     108.961E+06    -15.2384E+06    -15.2290E+06     163.224E+06     108.961E+06     766.162E+03         42.0962
             718     14.1990E-03     31.4324E-03     21.0158E-03     6.12493E-03    -30.2575E-03     16.1938E-03    -25.4355E-03     6.12493E-03    -8.97211E-03     112.340E-03    -55.1855E-03    -57.3279E-03    -53.7936E-03     108.806E-03    -55.1855E-03     48.0829E-03     158.297E+06     68.6383E+06    -22.1454E+06    -22.1395E+06     158.291E+06     68.6383E+06     449.068E+03         39.0990
             719     13.2509E-03     31.3730E-03     19.4190E-03     5.81068E-03    -28.1165E-03     4.29285E-03    -12.9903E-03     5.81068E-03     14.1504E-03     112.278E-03    -55.1158E-03    -57.2494E-03    -53.9188E-03     108.948E-03    -55.1158E-03     46.4094E-03     131.083E+06     26.2860E+06    -27.1841E+06    -27.1816E+06     131.081E+06     26.2860E+06    -151.582E+03         36.5535
             720     12.3040E-03     31.3306E-03     18.2056E-03     6.72221E-03    -29.0166E-03    -17.2868E-03     6.47571E-03     6.72221E-03     3.33948E-03     110.925E-03    -55.1573E-03    -55.8689E-03    -54.0710E-03     109.127E-03    -55.1573E-03     34.1965E-03     58.6715E+06     7.48236E+06    -30.4048E+06    -30.3970E+06     58.6637E+06     7.48236E+06     316.558E+03         34.7252
             721     11.3571E-03     31.2986E-03     23.9442E-03     8.27921E-03    -38.1606E-03    -7.87552E-03    -6.34094E-03     8.27921E-03     12.8022E-03     110.619E-03    -55.2429E-03    -55.4798E-03    -54.3676E-03     109.538E-03    -55.2746E-03     26.4595E-03     5.66393E+06    -15.3556E+06    -42.2453E+06    -33.4143E+06    -21.1143E+06     2.59169E+06     553.278E+03         33.4683
             722     10.4102E-03     31.2741E-03     34.9892E-03     8.35429E-03    -49.4262E-03     21.4601E-03    -35.8971E-03     8.35429E-03    -7.68442E-03     110.628E-03    -55.2310E-03    -55.3453E-03    -54.5526E-03     109.950E-03    -55.3453E-03     21.0954E-03    -370.977E+03    -36.8123E+06    -75.8530E+06    -36.8241E+06    -75.8412E+06    -370.977E+03     450.681E+03         32.4740
             723     9.46331E-03     31.2533E-03     36.0938E-03     7.08048E-03    -47.5687E-03     20.7291E-03    -32.2040E-03     7.08048E-03    -5.66524E-03     110.702E-03    -55.2017E-03    -55.4036E-03    -54.6959E-03     110.196E-03    -55.4036E-03     18.2628E-03    -2.14249E+06    -40.6891E+06    -116.057E+06    -40.6931E+06    -116.053E+06    -2.14249E+06     463.854E+03         31.6052
             724     8.51686E-03     31.2351E-03     30.9250E-03     6.62103E-03    -39.9342E-03     2.60778E-03    -11.6169E-03     6.62103E-03    -9.63224E-03     110.728E-03    -55.1764E-03    -55.4999E-03    -54.7965E-03     110.348E-03    -55.4999E-03     15.7981E-03    -4.08358E+06    -44.9268E+06    -147.681E+06    -44.9288E+06    -147.679E+06    -4.08358E+06     388.707E+03         30.8568
             725     7.57009E-03     31.2195E-03     36.2794E-03     7.33404E-03    -46.3311E-03    -234.624E-06    -9.81713E-03     7.33404E-03    -3.08675E-03     110.722E-03    -55.1596E-03    -55.5835E-03    -54.8847E-03     110.447E-03    -55.5835E-03     13.4605E-03    -8.48738E+06    -49.7723E+06    -177.689E+06    -49.7742E+06    -177.687E+06    -8.48738E+06    -199.011E+03         30.2217
             726     6.62357E-03     31.2058E-03     49.5172E-03     8.52948E-03    -64.9928E-03    -850.320E-06    -14.6253E-03     8.52948E-03    -33.8329E-03     110.845E-03    -55.2503E-03    -55.6766E-03    -55.0425E-03     110.638E-03    -55.6766E-03     11.7116E-03    -13.6474E+06    -55.5780E+06    -208.346E+06    -55.5806E+06    -208.343E+06    -13.6474E+06    -297.683E+03         29.7007
             727     5.67712E-03     31.1940E-03     67.8810E-03     10.1936E-03    -88.8858E-03    -994.915E-06    -20.0099E-03     10.1936E-03     11.3742E-03     111.018E-03    -55.3503E-03    -55.7239E-03    -55.1948E-03     110.862E-03    -55.7239E-03     10.1379E-03    -20.2168E+06    -61.9087E+06    -230.043E+06    -61.9141E+06    -230.038E+06    -20.2168E+06     124.090E+03         29.2825
             728     4.73092E-03     31.1838E-03     110.878E-03     12.1552E-03    -134.717E-03     2.03348E-03    -25.8727E-03     12.1552E-03    -77.6679E-03     111.141E-03    -55.4154E-03    -55.7435E-03    -55.3031E-03     111.029E-03    -55.7435E-03     8.61053E-03    -32.5883E+06    -68.3840E+06    -246.272E+06    -68.3901E+06    -246.266E+06    -32.5883E+06    -39.6261E+03         28.9499
             729     3.78448E-03     31.1753E-03     229.299E-03     14.4485E-03    -252.958E-03     3.76761E-03    -27.4261E-03     14.4485E-03     163.561E-03     111.174E-03    -55.4493E-03    -55.7066E-03    -55.3746E-03     111.099E-03    -55.7066E-03     7.00452E-03    -47.9025E+06    -75.4598E+06    -262.271E+06    -75.4615E+06    -262.269E+06    -47.9025E+06    -160.526E+03         28.6863
             730     2.83825E-03     31.1686E-03     376.908E-03     20.1537E-03    -402.134E-03    -6.73317E-03    -18.4932E-03     20.1537E-03    -134.536E-03     111.167E-03    -55.5118E-03    -55.6576E-03    -55.4748E-03     111.124E-03    -55.6517E-03     5.26917E-03    -63.2279E+06    -82.3708E+06    -273.757E+06    -82.3709E+06    -273.757E+06    -63.2279E+06     18.2753E+03         28.4900
             731     1.89216E-03     31.1642E-03     657.433E-03     26.9319E-03    -687.570E-03     17.2237E-03    -47.3603E-03     26.9319E-03     429.243E-03     111.182E-03    -55.5498E-03    -55.6543E-03    -55.5689E-03     111.161E-03    -55.6148E-03     3.61159E-03    -78.3235E+06    -87.8179E+06    -281.013E+06    -87.8196E+06    -281.012E+06    -78.3235E+06    -360.088E+03         28.3634
             732     946.417E-06     31.1607E-03         1.36463     82.4753E-03        -1.44584    -23.9898E-03    -57.2201E-03     82.4753E-03        -1.03633     111.113E-03    -55.3888E-03    -55.7254E-03    -55.6972E-03     111.106E-03    -55.4099E-03     1.99704E-03    -88.5184E+06    -92.3670E+06    -286.121E+06    -91.5996E+06    -286.118E+06    -89.2892E+06    -178.893E+03         28.2965
             733     16.0938E-03     30.4464E-03     18.1007E-03     7.81629E-03    -31.6422E-03     7.42496E-03    -20.9664E-03     7.81629E-03     210.353E-06     113.027E-03    -54.3166E-03    -58.8128E-03    -53.4946E-03     108.695E-03    -55.3032E-03     44.6294E-03     164.678E+06     123.642E+06    -8.22178E+06    -8.21465E+06     164.671E+06     123.642E+06     258.843E+03         44.8608
             734     15.1462E-03     30.3611E-03     18.9562E-03     7.63423E-03    -31.6579E-03     13.4373E-03    -26.1389E-03     7.63423E-03     3.57621E-03     114.373E-03    -55.2678E-03    -59.2921E-03    -53.8046E-03     108.886E-03    -55.2678E-03     58.5826E-03     162.924E+06     108.857E+06    -15.4983E+06    -15.4922E+06     162.918E+06     108.857E+06     119.378E+03         42.0886
             735     14.1987E-03     30.3165E-03     26.4809E-03     7.00876E-03    -37.1482E-03     21.5370E-03    -32.2043E-03     7.00876E-03    -26.6432E-03     112.347E-03    -55.1758E-03    -57.3626E-03    -53.8128E-03     108.797E-03    -55.1758E-03     48.1435E-03     158.814E+06     68.9668E+06    -21.4795E+06    -21.4765E+06     158.811E+06     68.9668E+06     99.9344E+03         39.0935
             736     13.2518E-03     30.2559E-03     26.7350E-03     6.21809E-03    -35.7787E-03     17.4681E-03    -26.5118E-03     6.21809E-03    -12.0538E-03     112.255E-03    -55.1075E-03    -57.2459E-03    -53.8789E-03     108.888E-03    -55.1075E-03     46.6249E-03     131.152E+06     26.0256E+06    -26.4768E+06    -26.4721E+06     131.147E+06     26.0256E+06     379.069E+03         36.5485
             737     12.3043E-03     30.2144E-03     26.7609E-03     6.08092E-03    -36.5489E-03     1.05129E-03    -10.8393E-03     6.08092E-03    -4.79114E-03     110.858E-03    -55.1509E-03    -55.8145E-03    -53.9991E-03     109.042E-03    -55.1509E-03     34.3733E-03     58.1389E+06     6.93840E+06    -30.3885E+06    -30.3772E+06     58.1276E+06     6.93840E+06     549.818E+03         34.7212
             738     11.3569E-03     30.1816E-03     23.9217E-03     6.89290E-03    -35.7029E-03    -8.22878E-03    -3.55241E-03     6.89290E-03     4.65576E-03     110.631E-03    -55.2624E-03    -55.4724E-03    -54.3654E-03     109.537E-03    -55.2751E-03     26.5923E-03     5.54963E+06    -15.7003E+06    -42.3331E+06    -33.7160E+06    -21.1182E+06     2.35043E+06     785.871E+03         33.4664
             739     10.4101E-03     30.1576E-03     24.0877E-03     7.34877E-03    -36.6669E-03     4.53085E-03    -17.3754E-03     7.61414E-03    -8.68500E-03     110.642E-03    -55.2438E-03    -55.3502E-03    -54.5722E-03     109.971E-03    -55.3502E-03     20.9938E-03    -182.913E+03    -36.9568E+06    -75.4337E+06    -36.9918E+06    -75.3987E+06    -182.913E+03     637.662E+03         32.4734
             740     9.46344E-03     30.1366E-03     33.4016E-03     7.05475E-03    -44.9076E-03     15.6396E-03    -27.4109E-03     7.32012E-03     6.92612E-03     110.689E-03    -55.1886E-03    -55.4046E-03    -54.6877E-03     110.188E-03    -55.4046E-03     18.1724E-03    -1.96495E+06    -40.3649E+06    -116.031E+06    -40.3680E+06    -116.028E+06    -1.96495E+06     284.527E+03         31.6048
             741     8.51665E-03     30.1180E-03     31.8178E-03     6.83328E-03    -42.0818E-03     8.24038E-03    -18.5044E-03     6.83328E-03     5.70161E-03     110.759E-03    -55.2085E-03    -55.4989E-03    -54.8334E-03     110.383E-03    -55.4989E-03     15.6992E-03    -4.18858E+06    -43.9926E+06    -147.315E+06    -43.9947E+06    -147.313E+06    -4.18858E+06    -1.13980E+03         30.8565
             742     7.57026E-03     30.1026E-03     40.7196E-03     7.65106E-03    -52.2838E-03    -6.82613E-03    -4.73813E-03     7.65106E-03     29.6230E-03     110.783E-03    -55.2274E-03    -55.5869E-03    -54.9566E-03     110.512E-03    -55.5869E-03     13.3642E-03    -7.19427E+06    -48.9662E+06    -177.772E+06    -48.9822E+06    -177.756E+06    -7.19427E+06     424.466E+03         30.2217
             743     6.62367E-03     30.0890E-03     43.4499E-03     9.58325E-03    -59.0458E-03    -5.30492E-03    -10.2909E-03     9.58325E-03     16.2806E-03     110.842E-03    -55.2647E-03    -55.6690E-03    -55.0561E-03     110.634E-03    -55.6690E-03     11.7436E-03    -12.7264E+06    -55.5383E+06    -207.882E+06    -55.5553E+06    -207.865E+06    -12.7264E+06     389.922E+03         29.7001
             744     5.67726E-03     30.0773E-03     56.0797E-03     10.0571E-03    -75.9526E-03     16.5581E-03    -36.4310E-03     10.0571E-03     37.4469E-03     110.953E-03    -55.3004E-03    -55.7085E-03    -55.1425E-03     110.795E-03    -55.7085E-03     10.2077E-03    -21.2930E+06    -62.1004E+06    -229.772E+06    -62.1086E+06    -229.764E+06    -21.2930E+06    -792.636E+03         29.2809
             745     4.73073E-03     30.0675E-03     101.947E-03     8.06069E-03    -121.299E-03     22.1462E-03    -41.4987E-03     8.06069E-03    -53.4844E-03     111.105E-03    -55.3742E-03    -55.7460E-03    -55.2624E-03     110.994E-03    -55.7460E-03     8.59014E-03    -32.1904E+06    -68.3193E+06    -246.980E+06    -68.3257E+06    -246.973E+06    -32.1904E+06    -651.087E+03         28.9481
             746     3.78458E-03     30.0586E-03     189.294E-03     5.80356E-03    -204.853E-03     12.3285E-03    -27.8874E-03     5.80356E-03     126.379E-03     111.181E-03    -55.4425E-03    -55.7205E-03    -55.3687E-03     111.107E-03    -55.7205E-03     6.96308E-03    -45.9378E+06    -75.0986E+06    -262.389E+06    -75.0998E+06    -262.388E+06    -45.9378E+06     215.144E+03         28.6846
             747     2.83831E-03     30.0523E-03     338.224E-03     5.54457E-03    -347.739E-03     2.12875E-03    -11.6440E-03     5.54457E-03    -166.907E-03     111.193E-03    -55.5428E-03    -55.6535E-03    -55.5046E-03     111.149E-03    -55.6477E-03     5.36127E-03    -63.3156E+06    -82.1021E+06    -273.261E+06    -82.1032E+06    -273.260E+06    -63.3156E+06     24.8350E+03         28.4881
             748     1.89232E-03     30.0473E-03     571.171E-03     5.05425E-03    -576.556E-03     9.24978E-03    -14.6350E-03     5.05425E-03     295.120E-03     111.177E-03    -55.5707E-03    -55.6306E-03    -55.5885E-03     111.156E-03    -55.5910E-03     3.69695E-03    -78.9506E+06    -87.6167E+06    -281.020E+06    -87.6182E+06    -281.018E+06    -78.9506E+06    -261.400E+03         28.3607
             749     946.033E-06     30.0446E-03         1.12518     52.6546E-03        -1.17578    -44.7255E-03    -5.87152E-03     52.6546E-03    -857.498E-03     111.058E-03    -55.4250E-03    -55.6372E-03    -55.6131E-03     111.051E-03    -55.4417E-03     2.09249E-03    -87.8861E+06    -91.5171E+06    -286.887E+06    -91.1528E+06    -286.881E+06    -88.2564E+06    -227.952E+03         28.2915
             750     16.0940E-03     29.3289E-03     11.3526E-03     5.83295E-03    -24.1951E-03    -3.91680E-03    -9.75813E-03     6.66538E-03     21.1406E-03     113.257E-03    -54.5088E-03    -58.8803E-03    -53.7491E-03     108.917E-03    -55.2994E-03     44.6884E-03     165.211E+06     125.117E+06    -7.17509E+06    -7.16528E+06     165.201E+06     125.117E+06     539.555E+03         44.8481
             751     15.1466E-03     29.2456E-03     10.1154E-03     6.52426E-03    -20.0665E-03    -6.62022E-03    -4.16324E-03     7.35669E-03     2.68514E-03     114.302E-03    -55.2587E-03    -59.2372E-03    -53.7252E-03     108.790E-03    -55.2587E-03     58.7330E-03     162.935E+06     108.369E+06    -15.7092E+06    -15.7000E+06     162.925E+06     108.369E+06     44.1252E+03         42.0792
             752     14.1986E-03     29.1996E-03     14.1243E-03     6.17742E-03    -22.7217E-03     1.54217E-03    -11.9517E-03     7.98960E-03    -13.6982E-03     112.197E-03    -55.1781E-03    -57.2087E-03    -53.6299E-03     108.618E-03    -55.1781E-03     48.3015E-03     157.709E+06     66.6963E+06    -23.2166E+06    -23.2139E+06     157.706E+06     66.6963E+06    -300.474E+03         39.0858
             753     13.2509E-03     29.1397E-03     21.4352E-03     6.19896E-03    -30.4805E-03     14.3699E-03    -25.2274E-03     8.01113E-03    -2.65283E-03     112.284E-03    -55.1203E-03    -57.2592E-03    -53.8753E-03     108.900E-03    -55.1203E-03     46.7340E-03     130.644E+06     25.4765E+06    -27.8232E+06    -27.8156E+06     130.636E+06     25.4765E+06     716.810E+03         36.5434
             754     12.3038E-03     29.0985E-03     32.5232E-03     6.96064E-03    -42.8870E-03     29.5079E-03    -39.8718E-03     6.96064E-03    -1.15253E-03     110.980E-03    -55.1548E-03    -55.9279E-03    -54.1101E-03     109.163E-03    -55.1548E-03     34.4173E-03     58.3477E+06     6.75128E+06    -31.5179E+06    -31.4981E+06     58.3279E+06     6.75128E+06     1.15172E+06         34.7190
             755     11.3569E-03     29.0656E-03     27.7575E-03     5.55401E-03    -37.1290E-03     18.9401E-03    -28.3116E-03     5.55401E-03    -1.18579E-03     110.685E-03    -55.2453E-03    -55.5398E-03    -54.4203E-03     109.593E-03    -55.2725E-03     26.5758E-03     5.62436E+06    -16.4347E+06    -42.6110E+06    -34.6868E+06    -20.7558E+06     2.02125E+06     688.663E+03         33.4652
             756     10.4102E-03     29.0409E-03     17.8337E-03     5.23922E-03    -26.6058E-03    -6.17753E-03    -2.86003E-03     5.50458E-03    -8.23858E-03     110.656E-03    -55.2670E-03    -55.3495E-03    -54.6021E-03     109.991E-03    -55.3495E-03     20.8850E-03    -286.461E+03    -37.3906E+06    -75.0904E+06    -37.4290E+06    -75.0519E+06    -286.461E+03     417.587E+03         32.4724
             757     9.46348E-03     29.0203E-03     25.7602E-03     6.10341E-03    -34.0712E-03    -1.17128E-03    -7.40507E-03     6.36878E-03     15.2679E-03     110.687E-03    -55.2034E-03    -55.3979E-03    -54.7087E-03     110.193E-03    -55.3979E-03     18.0636E-03    -1.95174E+06    -40.6100E+06    -115.257E+06    -40.6163E+06    -115.250E+06    -1.95174E+06    -144.935E+03         31.6035
             758     8.51686E-03     29.0019E-03     23.7544E-03     6.36397E-03    -32.5177E-03     12.6512E-03    -21.4144E-03     6.36397E-03     29.5733E-03     110.708E-03    -55.1689E-03    -55.4899E-03    -54.7956E-03     110.335E-03    -55.4899E-03     15.6570E-03    -4.73048E+06    -44.8596E+06    -148.008E+06    -44.8680E+06    -148.000E+06    -4.73048E+06    -215.491E+03         30.8547
             759     7.57022E-03     28.9862E-03     27.5367E-03     5.92105E-03    -37.1442E-03     7.12963E-03    -16.7371E-03     5.92105E-03     34.3392E-03     110.780E-03    -55.2340E-03    -55.5797E-03    -54.9641E-03     110.510E-03    -55.5797E-03     13.3439E-03    -7.44804E+06    -49.4390E+06    -178.607E+06    -49.4594E+06    -178.587E+06    -7.44804E+06     522.957E+03         30.2203
             760     6.62377E-03     28.9731E-03     40.4786E-03     6.22625E-03    -52.1808E-03     608.191E-06    -12.3104E-03     6.22625E-03    -7.90926E-03     110.863E-03    -55.2936E-03    -55.6570E-03    -55.0864E-03     110.656E-03    -55.6570E-03     11.7048E-03    -11.4868E+06    -54.1570E+06    -206.428E+06    -54.1751E+06    -206.410E+06    -11.4868E+06     207.136E+03         29.6993
             761     5.67718E-03     28.9613E-03     41.2269E-03     7.00842E-03    -55.6723E-03     2.19949E-03    -16.6448E-03     7.00842E-03    -4.73162E-03     110.933E-03    -55.2941E-03    -55.6882E-03    -55.1383E-03     110.777E-03    -55.6882E-03     10.1372E-03    -21.2798E+06    -60.4792E+06    -228.891E+06    -60.4856E+06    -228.884E+06    -21.2798E+06    -570.779E+03         29.2794
             762     4.73100E-03     28.9509E-03     75.9934E-03     8.06911E-03    -90.9508E-03     1.57763E-03    -16.5351E-03     8.06911E-03    -74.7544E-03     111.048E-03    -55.3303E-03    -55.7320E-03    -55.2205E-03     110.938E-03    -55.7320E-03     8.50878E-03    -32.2684E+06    -68.2239E+06    -247.996E+06    -68.2320E+06    -247.988E+06    -32.2684E+06    -864.806E+03         28.9455
             763     3.78448E-03     28.9427E-03     147.390E-03     9.63337E-03    -162.321E-03     2.72134E-03    -17.6522E-03     9.63337E-03     76.3375E-03     111.150E-03    -55.4221E-03    -55.7122E-03    -55.3484E-03     111.076E-03    -55.7122E-03     6.96027E-03    -45.2231E+06    -75.2465E+06    -262.984E+06    -75.2528E+06    -262.978E+06    -45.2231E+06    -597.909E+03         28.6815
             764     2.83833E-03     28.9360E-03     276.203E-03     9.68898E-03    -288.435E-03     14.9019E-03    -27.1342E-03     9.68898E-03    -177.917E-03     111.184E-03    -55.5386E-03    -55.6449E-03    -55.4938E-03     111.140E-03    -55.6449E-03     5.39995E-03    -61.6567E+06    -80.9109E+06    -273.018E+06    -80.9141E+06    -273.015E+06    -61.6567E+06    -214.018E+03         28.4849
             765     1.89210E-03     28.9311E-03     485.905E-03     3.45322E-03    -492.895E-03     25.0836E-03    -32.0739E-03     3.45322E-03     236.366E-03     111.145E-03    -55.5587E-03    -55.6066E-03    -55.5379E-03     111.124E-03    -55.6066E-03     3.58016E-03    -76.8500E+06    -85.8959E+06    -281.010E+06    -85.9007E+06    -281.006E+06    -76.8500E+06    -433.795E+03         28.3571
             766     946.132E-06     28.9285E-03     939.358E-03     32.8319E-03    -974.147E-03    -36.7392E-03     1.95058E-03     32.8319E-03    -697.539E-03     111.120E-03    -55.4554E-03    -55.6727E-03    -55.6419E-03     111.114E-03    -55.4799E-03     1.95413E-03    -86.6259E+06    -89.2791E+06    -287.439E+06    -88.8952E+06    -287.431E+06    -87.0182E+06    -536.887E+03         28.2878
             767     16.0940E-03     28.2131E-03     16.2028E-03     4.84427E-03    -20.8661E-03    -2.98945E-03    -2.50630E-03     5.67670E-03     13.8114E-03     113.222E-03    -54.5676E-03    -58.7908E-03    -53.7233E-03     108.883E-03    -55.2966E-03     44.6504E-03     164.638E+06     125.191E+06    -6.57045E+06    -6.55994E+06     164.627E+06     125.191E+06      82.238E+03         44.8344
             768     15.1461E-03     28.1294E-03     10.4451E-03     5.22115E-03    -18.1015E-03    -3.82990E-03    -4.79911E-03     6.19380E-03     10.2442E-03     114.245E-03    -55.2627E-03    -59.1132E-03    -53.6057E-03     108.737E-03    -55.2627E-03     58.6681E-03     163.322E+06     109.571E+06    -13.9480E+06    -13.9226E+06     163.297E+06     109.571E+06     931.143E+03         42.0685
             769     14.1985E-03     28.0843E-03     11.3672E-03     4.79812E-03    -19.3279E-03    -3.64818E-03    -6.26487E-03     6.75051E-03     15.8645E-03     112.210E-03    -55.1779E-03    -57.1630E-03    -53.6002E-03     108.647E-03    -55.1779E-03     48.1980E-03     157.896E+06     66.2297E+06    -22.2677E+06    -22.2448E+06     157.873E+06     66.2297E+06     1.20418E+06         39.0771
             770     13.2510E-03     28.0242E-03     18.0433E-03     5.34062E-03    -26.4884E-03     1.84052E-03    -12.0978E-03     7.15279E-03     30.6712E-03     112.314E-03    -55.1161E-03    -57.2728E-03    -53.9263E-03     108.967E-03    -55.1161E-03     46.4559E-03     129.833E+06     23.8220E+06    -28.8811E+06    -28.8701E+06     129.822E+06     23.8220E+06     847.126E+03         36.5380
             771     12.3041E-03     27.9822E-03     25.9321E-03     7.11907E-03    -35.8229E-03     10.6922E-03    -20.5830E-03     7.11907E-03     7.19756E-03     111.012E-03    -55.1515E-03    -55.9479E-03    -54.1611E-03     109.225E-03    -55.1515E-03     34.1446E-03     58.8400E+06     6.88969E+06    -32.0907E+06    -32.0753E+06     58.8246E+06     6.88969E+06     786.689E+03         34.7170
             772     11.3573E-03     27.9500E-03     28.8636E-03     6.32226E-03    -37.2954E-03     22.1996E-03    -30.6313E-03     6.32226E-03    -5.52151E-03     110.694E-03    -55.2471E-03    -55.5415E-03    -54.4371E-03     109.608E-03    -55.2650E-03     26.5195E-03     6.29207E+06    -15.9618E+06     -42.628E+06    -34.3165E+06    -20.2251E+06     2.24376E+06     376.295E+03         33.4641
             773     10.4103E-03     27.9253E-03     30.5552E-03     5.27186E-03    -37.1853E-03     14.7190E-03    -21.3490E-03     5.27186E-03    -21.1888E-03     110.649E-03    -55.2614E-03    -55.3497E-03    -54.6023E-03     109.982E-03    -55.3417E-03     20.9195E-03    -241.552E+03    -37.1740E+06    -74.8440E+06    -37.1882E+06    -74.8298E+06    -241.552E+03    -66.5427E+03         32.4709
             774     9.46364E-03     27.9048E-03     27.7512E-03     5.29622E-03    -34.8213E-03    -3.31958E-03    -3.75053E-03     5.29622E-03    -18.7481E-03     110.678E-03    -55.2025E-03    -55.3906E-03    -54.7062E-03     110.182E-03    -55.3906E-03     18.0900E-03    -1.99042E+06    -40.8213E+06    -114.841E+06    -40.8363E+06    -114.826E+06    -1.99042E+06    -10.5089E+03         31.6017
             775     8.51690E-03     27.8860E-03     17.0386E-03     6.52112E-03    -24.8756E-03    -7.53550E-03    -301.484E-06     6.52112E-03     6.18037E-03     110.700E-03    -55.1704E-03    -55.4817E-03    -54.7939E-03     110.323E-03    -55.4817E-03     15.7287E-03    -4.96059E+06    -45.2227E+06    -148.414E+06    -45.2368E+06    -148.400E+06    -4.96059E+06     135.903E+03         30.8525
             776     7.57031E-03     27.8704E-03     12.3541E-03     7.70206E-03    -21.6293E-03     1.93698E-03    -11.2122E-03     7.70206E-03    -10.9365E-03     110.780E-03    -55.2531E-03    -55.5585E-03    -54.9807E-03     110.508E-03    -55.5585E-03     13.4028E-03    -8.89140E+06    -49.7728E+06    -178.126E+06    -49.7831E+06    -178.116E+06    -8.89140E+06    -535.000E+03         30.2182
             777     6.62387E-03     27.8572E-03     29.0883E-03     8.09787E-03    -40.1428E-03     8.49958E-03    -19.5541E-03     8.09787E-03    -57.0199E-03     110.893E-03    -55.3392E-03    -55.6339E-03    -55.1360E-03     110.690E-03    -55.6339E-03     11.5845E-03    -12.2801E+06    -54.6846E+06    -206.483E+06    -54.6916E+06    -206.476E+06    -12.2801E+06    -769.683E+03         29.6982
             778     5.67754E-03     27.8455E-03     30.2814E-03     8.85257E-03    -41.7957E-03     170.705E-06    -11.6850E-03     8.85257E-03    -34.2083E-03     110.905E-03    -55.2795E-03    -55.6667E-03    -55.1270E-03     110.753E-03    -55.6667E-03     10.0373E-03    -20.6686E+06    -60.6885E+06    -229.009E+06    -60.6909E+06    -229.006E+06    -20.6686E+06     106.525E+03         29.2788
             779     4.73097E-03     27.8347E-03     42.5837E-03     11.0661E-03    -56.0790E-03    -3.51480E-03    -9.98048E-03     11.0661E-03    -61.8679E-03     111.000E-03    -55.3165E-03    -55.6947E-03    -55.2067E-03     110.890E-03    -55.6947E-03     8.50244E-03    -33.4664E+06    -67.4455E+06    -247.053E+06    -67.4523E+06    -247.046E+06    -33.4664E+06    -486.041E+03         28.9437
             780     3.78468E-03     27.8265E-03     123.647E-03     11.6290E-03    -136.927E-03     18.7014E-03    -31.9812E-03     11.6290E-03     100.167E-03     111.132E-03    -55.4380E-03    -55.6758E-03    -55.3651E-03     111.059E-03    -55.6758E-03     6.93240E-03    -46.0583E+06    -74.5223E+06    -263.708E+06    -74.5327E+06    -263.698E+06    -46.0583E+06    -1.39719E+06         28.6785
             781     2.83844E-03     27.8195E-03     224.601E-03     8.86538E-03    -234.889E-03     19.8535E-03    -30.1413E-03     8.86538E-03    -99.8254E-03     111.110E-03    -55.4946E-03    -55.6100E-03    -55.4517E-03     111.067E-03    -55.6100E-03     5.26996E-03    -61.6111E+06    -81.0044E+06    -273.664E+06    -81.0115E+06    -273.657E+06    -61.6111E+06    -967.812E+03         28.4814
             782     1.89232E-03     27.8148E-03     384.861E-03     6.85131E-03    -397.410E-03     7.41841E-03    -19.9679E-03     6.85131E-03     227.360E-03     111.044E-03    -55.4837E-03    -55.5782E-03    -55.4643E-03     111.025E-03    -55.5782E-03     3.49314E-03    -77.8108E+06    -86.3295E+06    -281.259E+06    -86.3379E+06    -281.251E+06    -77.8108E+06    -461.411E+03         28.3534
             783     946.062E-06     27.8118E-03     773.296E-03     49.1903E-03    -835.937E-03    -35.7561E-03    -26.8848E-03     49.1903E-03    -599.580E-03     111.097E-03    -55.3939E-03    -55.7080E-03    -55.6501E-03     111.090E-03    -55.4450E-03     2.02641E-03    -88.0471E+06    -90.0997E+06    -288.238E+06    -90.0854E+06    -288.230E+06    -88.0691E+06    -160.023E+03         28.2845
             784     16.0940E-03     27.0965E-03     14.7098E-03     4.97659E-03    -18.8313E-03     1.66562E-03    -5.78710E-03     4.97659E-03     1.68258E-03     113.127E-03    -54.4983E-03    -58.8350E-03    -53.6930E-03     108.785E-03    -55.2981E-03     44.6926E-03     163.961E+06     124.004E+06    -7.48829E+06    -7.47888E+06     163.952E+06     124.004E+06    -479.658E+03         44.8200
             785     15.1462E-03     27.0133E-03     14.6066E-03     4.75562E-03    -21.7264E-03     8.98240E-03    -16.2425E-03     4.89584E-03     7.38503E-03     114.293E-03    -55.2656E-03    -59.1814E-03    -53.6898E-03     108.801E-03    -55.2656E-03     58.5540E-03     161.006E+06     108.407E+06    -15.1383E+06    -15.1173E+06     160.985E+06     108.407E+06     906.848E+03         42.0578
             786     14.1984E-03     26.9679E-03     16.3442E-03     4.63941E-03    -24.0943E-03     2.71961E-03    -10.6100E-03     4.77963E-03    -2.10646E-03     112.299E-03    -55.1783E-03    -57.2384E-03    -53.6865E-03     108.747E-03    -55.1783E-03     48.1226E-03     158.118E+06     67.5924E+06    -21.6567E+06    -21.6185E+06     158.079E+06     67.5924E+06     2.39065E+06         39.0695
             787     13.2514E-03     26.9072E-03     14.4361E-03     5.25827E-03    -22.6597E-03    -7.59829E-03    -625.301E-06     5.25827E-03     9.60440E-03     112.326E-03    -55.1068E-03    -57.3078E-03    -53.9414E-03     108.960E-03    -55.1068E-03     46.6158E-03     131.292E+06     24.8374E+06    -26.4545E+06    -26.4281E+06     131.265E+06     24.8374E+06     1.82172E+06         36.5325
             788     12.3042E-03     26.8662E-03     12.5015E-03     6.39155E-03    -21.1270E-03    -11.9862E-03     3.36079E-03     6.39155E-03    -4.63941E-03     110.993E-03    -55.1398E-03    -55.9447E-03    -54.1419E-03     109.190E-03    -55.1398E-03     34.2865E-03     59.4853E+06     6.93531E+06    -30.1852E+06    -30.1810E+06     59.4811E+06     6.93531E+06     433.105E+03         34.7130
             789     11.3571E-03     26.8330E-03     16.2797E-03     5.84921E-03    -22.9139E-03    -2.64897E-03    -5.65217E-03     7.51620E-03    -8.19693E-03     110.700E-03    -55.2453E-03    -55.5519E-03    -54.4508E-03     109.613E-03    -55.2589E-03     26.5229E-03     6.51981E+06    -14.9053E+06    -41.8510E+06    -33.1479E+06    -19.8322E+06     2.74371E+06     54.2297E+03         33.4614
             790     10.4105E-03     26.8085E-03     24.2930E-03     6.10814E-03    -31.2254E-03     12.1568E-03    -20.7562E-03     7.77512E-03    -24.1803E-03     110.622E-03    -55.2388E-03    -55.3441E-03    -54.5816E-03     109.956E-03    -55.3362E-03     20.8907E-03    -169.715E+03    -36.4024E+06    -74.8663E+06    -36.4165E+06    -74.8522E+06    -169.715E+03     107.224E+03         32.4687
             791     9.46346E-03     26.7880E-03     23.0491E-03     7.75181E-03    -31.5264E-03     5.64409E-03    -14.1214E-03     7.75181E-03    -34.6906E-03     110.673E-03    -55.1984E-03    -55.3862E-03    -54.7026E-03     110.178E-03    -55.3862E-03     18.0789E-03    -1.89609E+06    -40.2090E+06    -115.110E+06    -40.2241E+06    -115.095E+06    -1.89609E+06     262.115E+03         31.5996
             792     8.51696E-03     26.7694E-03     16.5504E-03     8.56765E-03    -26.0567E-03    -3.09527E-03    -6.41101E-03     8.56765E-03    -10.7458E-03     110.757E-03    -55.2353E-03    -55.4716E-03    -54.8608E-03     110.383E-03    -55.4716E-03     15.6920E-03    -4.69345E+06    -44.2585E+06    -147.823E+06    -44.2665E+06    -147.815E+06    -4.69345E+06     85.8724E+03         30.8507
             793     7.57042E-03     26.7543E-03     22.0003E-03     9.48679E-03    -33.3098E-03     5.39523E-03    -16.7048E-03     9.48679E-03     10.6113E-03     110.798E-03    -55.2778E-03    -55.5384E-03    -55.0040E-03     110.524E-03    -55.5384E-03     13.4458E-03    -8.68173E+06    -49.3219E+06    -177.238E+06    -49.3266E+06    -177.233E+06    -8.68173E+06    -472.199E+03         30.2164
             794     6.62412E-03     26.7402E-03     25.1130E-03     9.51850E-03    -35.4619E-03     12.3040E-03    -22.6529E-03     9.51850E-03    -15.5051E-06     110.870E-03    -55.3310E-03    -55.6097E-03    -55.1266E-03     110.666E-03    -55.6097E-03     11.6127E-03    -13.0914E+06    -55.7625E+06    -207.429E+06    -55.7667E+06    -207.424E+06    -13.0914E+06    -607.656E+03         29.6969
             795     5.67750E-03     26.7290E-03     31.8445E-03     8.54275E-03    -40.4379E-03     17.3416E-03    -25.9350E-03     8.54275E-03     22.4525E-03     110.907E-03    -55.3119E-03    -55.6409E-03    -55.1612E-03     110.756E-03    -55.6409E-03     9.97997E-03    -21.3460E+06    -62.4262E+06    -229.482E+06    -62.4313E+06    -229.477E+06    -21.3460E+06    -410.002E+03         29.2779
             796     4.73118E-03     26.7189E-03     45.8470E-03     6.71768E-03    -50.3251E-03     17.0013E-03    -21.4794E-03     6.71768E-03    -13.6069E-03     110.983E-03    -55.3418E-03    -55.6540E-03    -55.2322E-03     110.873E-03    -55.6540E-03     8.49884E-03    -34.5898E+06    -68.8675E+06    -245.895E+06    -68.8741E+06    -245.888E+06    -34.5898E+06    -366.253E+03         28.9423
             797     3.78488E-03     26.7100E-03     95.2145E-03     4.39303E-03    -98.1952E-03     14.1851E-03    -17.1658E-03     4.39303E-03     87.3945E-03     111.066E-03    -55.4337E-03    -55.6110E-03    -55.3608E-03     110.993E-03    -55.6110E-03     6.91801E-03    -50.0721E+06    -75.8643E+06    -263.526E+06    -75.8705E+06    -263.520E+06    -50.0721E+06    -767.648E+03         28.6761
             798     2.83871E-03     26.7030E-03     177.801E-03     4.11244E-03    -183.465E-03    -1.76315E-03    -3.90086E-03     4.11244E-03    -81.9787E-03     110.977E-03    -55.4323E-03    -55.5368E-03    -55.3899E-03     110.934E-03    -55.5368E-03     5.23773E-03    -66.2324E+06    -82.6412E+06    -274.742E+06    -82.6488E+06    -274.735E+06    -66.2324E+06    -1.18607E+06         28.4780
             799     1.89230E-03     26.6985E-03     286.320E-03     10.2499E-03    -306.705E-03    -10.3355E-03    -10.0496E-03     10.2499E-03     153.336E-03     110.914E-03    -55.4033E-03    -55.5241E-03    -55.3836E-03     110.894E-03    -55.5241E-03     3.51513E-03    -79.0186E+06    -87.2903E+06    -282.369E+06    -87.2965E+06    -282.362E+06    -79.0186E+06    -453.661E+03         28.3490
             800     946.034E-06     26.6953E-03     587.364E-03     45.0311E-03    -649.812E-03    -14.2403E-03    -48.2073E-03     45.0311E-03    -491.236E-03     111.008E-03    -55.3299E-03    -55.6806E-03    -55.6132E-03     111.001E-03    -55.3901E-03     2.11853E-03    -87.4870E+06    -90.4398E+06    -288.357E+06    -90.1633E+06    -288.353E+06    -87.7672E+06     159.744E+03         28.2795
             801     16.0937E-03     25.9807E-03     12.7604E-03     4.57311E-03    -21.9464E-03     4.38373E-03    -13.5698E-03     4.57311E-03    -16.4915E-03     113.171E-03    -54.4730E-03    -58.8233E-03    -53.6894E-03     108.860E-03    -55.2960E-03     44.6764E-03     163.618E+06     123.042E+06    -8.37016E+06    -8.35300E+06     163.600E+06     123.042E+06    -442.647E+03         44.8053
             802     15.1462E-03     25.8970E-03     13.7699E-03     4.72459E-03    -22.6345E-03     541.645E-06    -9.40620E-03     4.72459E-03    -19.4557E-03     114.375E-03    -55.2626E-03    -59.2723E-03    -53.7988E-03     108.901E-03    -55.2626E-03     58.5648E-03     158.725E+06     107.547E+06    -15.5946E+06    -15.5808E+06     158.711E+06     107.547E+06     182.043E+03         42.0483
             803     14.1990E-03     25.8517E-03     13.8720E-03     5.11035E-03    -23.1370E-03    -792.966E-06    -8.47200E-03     5.11035E-03    -29.1877E-03     112.355E-03    -55.1776E-03    -57.3232E-03    -53.7619E-03     108.794E-03    -55.1776E-03     48.2320E-03     157.082E+06     68.3827E+06    -21.6171E+06    -21.5952E+06     157.060E+06     68.3827E+06     1.73588E+06         39.0636
             804     13.2513E-03     25.7912E-03     10.5281E-03     5.59265E-03    -18.8071E-03    -47.2491E-06    -8.23170E-03     5.59265E-03    -19.1970E-03     112.284E-03    -55.0999E-03    -57.2777E-03    -53.9086E-03     108.915E-03    -55.0999E-03     46.6537E-03     133.062E+06     25.9231E+06    -25.9968E+06    -25.9696E+06     133.034E+06     25.9231E+06     1.99698E+06         36.5276
             805     12.3041E-03     25.7497E-03     9.67980E-03     6.13384E-03    -18.2566E-03    -1.53914E-03    -7.03765E-03     6.13384E-03    -8.20587E-03     110.995E-03    -55.1326E-03    -55.9545E-03    -54.1433E-03     109.184E-03    -55.1326E-03     34.3487E-03     60.6247E+06     7.28078E+06    -29.0199E+06    -29.0092E+06     60.6140E+06     7.28078E+06     895.228E+03         34.7083
             806     11.3575E-03     25.7168E-03     10.9289E-03     5.51214E-03    -19.1601E-03    -11.0697E-03     1.17152E-03     7.17913E-03     3.31555E-03     110.706E-03    -55.2347E-03    -55.5626E-03    -54.4583E-03     109.622E-03    -55.2552E-03     26.4852E-03     5.93552E+06    -14.7460E+06    -40.9977E+06    -32.4197E+06    -20.1392E+06     2.75069E+06     471.569E+03         33.4574
             807     10.4103E-03     25.6923E-03     13.6271E-03     7.16126E-03    -22.1174E-03    -11.2998E-03     1.14249E-03     8.82824E-03     2.32954E-03     110.628E-03    -55.2589E-03    -55.3314E-03    -54.5942E-03     109.963E-03    -55.3314E-03     20.8823E-03    -186.429E+03    -36.1397E+06    -74.6821E+06    -36.1898E+06    -74.6321E+06    -186.429E+03     648.088E+03         32.4657
             808     9.46378E-03     25.6719E-03     20.0193E-03     9.90080E-03    -30.3213E-03     6.45840E-03    -16.7604E-03     9.90080E-03     6.55066E-03     110.720E-03    -55.2594E-03    -55.3753E-03    -54.7651E-03     110.226E-03    -55.3753E-03     18.0576E-03    -2.03907E+06    -40.1727E+06    -115.026E+06    -40.1818E+06    -115.017E+06    -2.03907E+06     414.074E+03         31.5973
             809     8.51704E-03     25.6536E-03     25.8892E-03     9.32403E-03    -35.0336E-03     22.6326E-03    -31.7770E-03     9.32403E-03     9.35160E-03     110.774E-03    -55.2740E-03    -55.4533E-03    -54.9017E-03     110.402E-03    -55.4533E-03     15.6467E-03    -4.95668E+06    -44.6774E+06    -147.496E+06    -44.6815E+06    -147.492E+06    -4.95668E+06     211.941E+03         30.8486
             810     7.57069E-03     25.6376E-03     30.3584E-03     7.54193E-03    -36.8930E-03     23.8450E-03    -30.3796E-03     7.54193E-03     18.7715E-03     110.775E-03    -55.2757E-03    -55.5164E-03    -55.0054E-03     110.505E-03    -55.5164E-03     13.3569E-03    -8.62079E+06    -49.6411E+06    -176.987E+06    -49.6415E+06    -176.987E+06    -8.62079E+06     116.363E+03         30.2143
             811     6.62392E-03     25.6242E-03     27.1787E-03     5.65435E-03    -32.7962E-03     17.2306E-03    -22.8480E-03     5.65435E-03     10.9493E-03     110.839E-03    -55.3232E-03    -55.5845E-03    -55.1223E-03     110.638E-03    -55.5845E-03     11.5078E-03    -12.7280E+06    -55.2374E+06    -207.330E+06    -55.2383E+06    -207.329E+06    -12.7280E+06    -193.580E+03         29.6947
             812     5.67782E-03     25.6123E-03     28.7251E-03     3.43379E-03    -30.6798E-03     19.5786E-03    -21.5333E-03     3.43379E-03     13.1285E-03     110.916E-03    -55.3574E-03    -55.6112E-03    -55.2105E-03     110.769E-03    -55.6112E-03     9.84923E-03    -20.9922E+06    -61.8355E+06    -229.416E+06    -61.8393E+06    -229.412E+06    -20.9922E+06    -498.000E+03         29.2757
             813     4.73153E-03     25.6027E-03     38.9413E-03     830.440E-06    -36.8919E-03     13.0636E-03    -11.0142E-03     830.440E-06    -17.0834E-03     110.980E-03    -55.3822E-03    -55.6157E-03    -55.2734E-03     110.871E-03    -55.6157E-03     8.48065E-03    -33.7837E+06    -69.0472E+06    -245.968E+06    -69.0517E+06    -245.964E+06    -33.7837E+06    -383.073E+03         28.9394
             814     3.78508E-03     25.5937E-03     68.0601E-03     356.234E-06    -66.7525E-03    -5.71832E-03     7.02592E-03     356.234E-06     54.2918E-03     110.961E-03    -55.3840E-03    -55.5585E-03    -55.3118E-03     110.889E-03    -55.5585E-03     6.86256E-03    -49.7554E+06    -75.7282E+06    -263.186E+06    -75.7306E+06    -263.183E+06    -49.7554E+06    -358.649E+03         28.6724
             815     2.83874E-03     25.5872E-03     121.586E-03     2.93529E-03    -125.959E-03    -8.02404E-03     3.65124E-03     2.93529E-03    -57.7777E-03     110.860E-03    -55.3670E-03    -55.4874E-03    -55.3261E-03     110.819E-03    -55.4874E-03     5.16506E-03    -66.0216E+06    -81.7406E+06    -275.052E+06    -81.7433E+06    -275.049E+06    -66.0216E+06    -587.070E+03         28.4733
             816     1.89247E-03     25.5823E-03     212.596E-03    -643.545E-06    -222.907E-03     20.8057E-03    -31.1170E-03    -643.545E-06     125.961E-03     110.855E-03    -55.3883E-03    -55.4743E-03    -55.3751E-03     110.834E-03    -55.4667E-03     3.62132E-03    -78.7142E+06    -87.1230E+06    -283.510E+06    -87.1258E+06    -283.507E+06    -78.7142E+06    -643.428E+03         28.3427
             817     946.317E-06     25.5791E-03     433.633E-03    -3.96145E-03    -445.523E-03    -8.23152E-03    -3.65830E-03    -3.96145E-03    -307.648E-03     110.859E-03    -55.2844E-03    -55.5744E-03    -55.5502E-03     110.852E-03    -55.3011E-03     2.12283E-03    -87.2264E+06    -90.7775E+06    -288.769E+06    -90.5007E+06    -288.766E+06    -87.5066E+06    -399.313E+03         28.2723
             818     16.0939E-03     24.8635E-03     12.7943E-03     3.90228E-03    -21.4709E-03     4.76115E-03    -14.1113E-03     4.57579E-03    -6.43924E-03     113.142E-03    -54.5179E-03    -58.7311E-03    -53.6807E-03     108.873E-03    -55.2998E-03     44.6349E-03     163.904E+06     123.156E+06    -7.54987E+06    -7.53218E+06     163.886E+06     123.156E+06     30.4021E+03         44.7894
             819     15.1464E-03     24.7810E-03     12.9470E-03     4.77942E-03    -23.1632E-03    -2.33431E-03    -7.88188E-03     4.77942E-03     1.84890E-03     114.258E-03    -55.2599E-03    -59.1888E-03    -53.7328E-03     108.802E-03    -55.2599E-03     58.5645E-03     157.793E+06     106.663E+06    -16.0701E+06    -16.0514E+06     157.775E+06     106.663E+06    -16.4013E+03         42.0379
             820     14.1985E-03     24.7350E-03     13.8452E-03     5.15875E-03    -24.0170E-03    -1.16421E-03    -9.00759E-03     5.15875E-03     11.0167E-03     112.399E-03    -55.1782E-03    -57.3929E-03    -53.8104E-03     108.817E-03    -55.1782E-03     48.4393E-03     155.603E+06     68.4579E+06    -22.5635E+06    -22.5559E+06     155.595E+06     68.4579E+06     537.280E+03         39.0564
             821     13.2516E-03     24.6756E-03     18.9431E-03     5.30545E-03    -28.7329E-03     4.52503E-03    -14.3149E-03     5.30545E-03     24.7849E-03     112.391E-03    -55.1025E-03    -57.3770E-03    -54.0127E-03     109.027E-03    -55.1025E-03     46.6770E-03     133.212E+06     27.0957E+06    -26.1773E+06    -26.1663E+06     133.201E+06     27.0957E+06     1.15713E+06         36.5216
             822     12.3043E-03     24.6335E-03     16.5867E-03     5.44798E-03    -25.5612E-03     461.323E-06    -9.43582E-03     5.44798E-03     19.2833E-03     110.982E-03    -55.1266E-03    -55.9483E-03    -54.1307E-03     109.164E-03    -55.1266E-03     34.3990E-03     61.2449E+06     7.37580E+06    -29.4213E+06    -29.3643E+06     61.1880E+06     7.37580E+06     1.57564E+06         34.7033
             823     11.3570E-03     24.6007E-03     11.3972E-03     5.82345E-03    -19.5343E-03    -5.85206E-03    -2.56111E-03     6.09944E-03     9.20810E-03     110.674E-03    -55.2416E-03    -55.5313E-03    -54.4469E-03     109.596E-03    -55.2485E-03     26.3944E-03     5.80157E+06    -15.1707E+06    -40.9178E+06    -32.9841E+06    -19.8461E+06     2.54318E+06     1.45725E+06         33.4529
             824     10.4104E-03     24.5756E-03     15.3650E-03     6.75030E-03    -24.6339E-03    -3.17473E-03    -6.37020E-03     7.02629E-03     1.21001E-03     110.657E-03    -55.2836E-03    -55.3393E-03    -54.6425E-03     109.997E-03    -55.3208E-03     20.8098E-03    -425.037E+03    -36.6435E+06    -74.2422E+06    -36.7028E+06    -74.1829E+06    -425.037E+03     964.575E+03         32.4613
             825     9.46371E-03     24.5549E-03     25.9079E-03     7.50396E-03    -34.9529E-03     5.99070E-03    -15.0357E-03     7.50396E-03     23.5497E-03     110.754E-03    -55.3061E-03    -55.3593E-03    -54.8111E-03     110.258E-03    -55.3593E-03     18.0776E-03    -2.16847E+06    -40.5581E+06    -114.699E+06    -40.5703E+06    -114.687E+06    -2.16847E+06     739.235E+03         31.5931
             826     8.51736E-03     24.5366E-03     26.0522E-03     5.53876E-03    -31.2950E-03     11.8717E-03    -18.8346E-03     7.25883E-03     22.6908E-03     110.806E-03    -55.3289E-03    -55.4296E-03    -54.9590E-03     110.436E-03    -55.4296E-03     15.5879E-03    -5.00426E+06    -44.8836E+06    -147.152E+06    -44.8881E+06    -147.147E+06    -5.00426E+06     550.846E+03         30.8443
             827     7.57068E-03     24.5209E-03     24.0278E-03     4.39419E-03    -28.5115E-03     19.8711E-03    -26.0748E-03     6.11426E-03     140.472E-06     110.780E-03    -55.3184E-03    -55.4828E-03    -55.0561E-03     110.518E-03    -55.4828E-03     13.1553E-03    -8.89898E+06    -49.7778E+06    -176.686E+06    -49.7791E+06    -176.684E+06    -8.89898E+06     230.451E+03         30.2096
             828     6.62455E-03     24.5076E-03     22.7732E-03     3.44091E-03    -25.0181E-03     17.3405E-03    -20.4767E-03     4.33210E-03    -6.34912E-03     110.780E-03    -55.3103E-03    -55.5435E-03    -55.1159E-03     110.586E-03    -55.5435E-03     11.3232E-03    -12.9329E+06    -55.5011E+06    -206.871E+06    -55.5020E+06    -206.870E+06    -12.9329E+06    -107.364E+03         29.6897
             829     5.67792E-03     24.4959E-03     21.2392E-03     2.70663E-03    -21.1925E-03     1.63997E-03    -2.48449E-03     3.59781E-03    -32.6801E-03     110.835E-03    -55.3243E-03    -55.5681E-03    -55.1798E-03     110.691E-03    -55.5681E-03     9.77081E-03    -21.1563E+06    -61.8974E+06    -229.372E+06    -61.9003E+06    -229.369E+06    -21.1563E+06    -379.228E+03         29.2703
             830     4.73156E-03     24.4861E-03     30.9968E-03     4.05227E-03    -32.2621E-03     1.70774E-03    -2.97303E-03     4.05227E-03    -54.7303E-03     110.928E-03    -55.3837E-03    -55.5685E-03    -55.2779E-03     110.823E-03    -55.5685E-03     8.34764E-03    -33.5518E+06    -68.5263E+06    -246.209E+06    -68.5295E+06    -246.206E+06    -33.5518E+06    -480.437E+03         28.9335
             831     3.78540E-03     24.4778E-03     57.1665E-03     2.81523E-03    -59.1299E-03     15.0221E-03    -16.9856E-03     2.81523E-03     32.1068E-03     110.865E-03    -55.3377E-03    -55.5127E-03    -55.2688E-03     110.797E-03    -55.5127E-03     6.70470E-03    -48.0820E+06    -75.5670E+06    -263.315E+06    -75.5682E+06    -263.313E+06    -48.0820E+06    -348.489E+03         28.6657
             832     2.83892E-03     24.4715E-03     100.613E-03    -2.76836E-03    -100.826E-03     21.6194E-03    -21.8324E-03    -2.76836E-03    -55.2871E-03     110.766E-03    -55.3257E-03    -55.4383E-03    -55.2856E-03     110.726E-03    -55.4383E-03     5.11011E-03    -64.3223E+06    -82.5024E+06    -275.074E+06    -82.5026E+06    -275.074E+06    -64.3223E+06    -94.2200E+03         28.4656
             833     1.89251E-03     24.4660E-03     166.323E-03    -15.9021E-03    -157.625E-03     20.2338E-03    -11.5364E-03    -15.9021E-03     72.3950E-03     110.754E-03    -55.3589E-03    -55.4043E-03    -55.3458E-03     110.733E-03    -55.3968E-03     3.62496E-03    -79.3208E+06    -88.0781E+06    -283.766E+06    -88.0791E+06    -283.765E+06    -79.3208E+06    -102.534E+03         28.3340
             834     946.272E-06     24.4632E-03     287.304E-03    -7.37934E-03    -292.926E-03    -42.5256E-03     36.9040E-03    -7.37934E-03    -172.987E-03     110.688E-03    -55.2133E-03    -55.4716E-03    -55.4515E-03     110.680E-03    -55.2260E-03     2.04579E-03    -88.9142E+06    -92.2744E+06    -289.393E+06    -91.6254E+06    -289.388E+06    -89.5680E+06    -719.927E+03         28.2622
             835     16.0938E-03     23.7471E-03     9.07334E-03     2.25046E-03    -14.7089E-03    -1.98584E-03    -5.17515E-03     3.77591E-03     14.3657E-03     113.124E-03    -54.4551E-03    -58.7551E-03    -53.6204E-03     108.835E-03    -55.3009E-03     44.7114E-03     163.207E+06     122.996E+06    -7.45848E+06    -7.44734E+06     163.196E+06     122.996E+06     452.960E+03         44.7697
             836     15.1460E-03     23.6651E-03     18.0333E-03     3.86739E-03    -26.1426E-03     4.28423E-03    -12.3936E-03     3.86739E-03     9.88072E-03     114.331E-03    -55.2586E-03    -59.2421E-03    -53.7885E-03     108.878E-03    -55.2586E-03     58.4943E-03     158.930E+06     108.197E+06    -15.2289E+06    -15.2163E+06     158.918E+06     108.197E+06     436.947E+03         42.0223
             837     14.1985E-03     23.6192E-03     20.4802E-03     3.66851E-03    -29.1048E-03     7.26395E-03    -15.8885E-03     3.66851E-03     972.874E-06     112.331E-03    -55.1691E-03    -57.3713E-03    -53.8004E-03     108.760E-03    -55.1691E-03     48.3080E-03     155.648E+06     67.7820E+06    -22.7582E+06    -22.7526E+06     155.642E+06     67.7820E+06     112.168E+03         39.0430
             838     13.2511E-03     23.5585E-03     19.5918E-03     3.68609E-03    -28.2134E-03    -1.72308E-03    -6.89852E-03     3.68609E-03     20.6854E-03     112.403E-03    -55.1053E-03    -57.3768E-03    -54.0154E-03     109.042E-03    -55.1053E-03     46.6155E-03     131.506E+06     25.1238E+06    -28.4573E+06    -28.4447E+06     131.493E+06     25.1238E+06     837.915E+03         36.5111
             839     12.3042E-03     23.5168E-03     15.1788E-03     4.33881E-03    -23.5035E-03    -8.59512E-03     270.380E-06     4.33881E-03     15.0620E-03     111.041E-03    -55.1287E-03    -56.0039E-03    -54.1986E-03     109.236E-03    -55.1287E-03     34.3151E-03     61.5049E+06     6.83469E+06    -31.9430E+06    -31.8819E+06     61.4438E+06     6.83469E+06     1.73904E+06         34.6963
             840     11.3575E-03     23.4835E-03     10.1109E-03     4.73129E-03    -18.6095E-03     248.283E-06    -9.02284E-03     5.00728E-03     4.79242E-03     110.684E-03    -55.2382E-03    -55.5553E-03    -54.4759E-03     109.605E-03    -55.2382E-03     26.4122E-03     6.47473E+06    -15.9656E+06    -41.9825E+06    -34.3323E+06    -19.0241E+06     1.88314E+06     1.35751E+06         33.4465
             841     10.4106E-03     23.4588E-03     15.2272E-03     4.61693E-03    -23.0547E-03     11.0488E-03    -19.1523E-03     4.89292E-03    -13.6220E-03     110.709E-03    -55.2872E-03    -55.3902E-03    -54.7201E-03     110.055E-03    -55.3035E-03     20.7221E-03    -685.568E+03    -37.0543E+06    -73.9384E+06    -37.1061E+06    -73.8866E+06    -685.568E+03     1.12853E+06         32.4539
             842     9.46410E-03     23.4384E-03     21.7038E-03     4.34156E-03    -28.4515E-03     9.09309E-03    -15.8407E-03     4.34156E-03     4.16766E-03     110.794E-03    -55.3098E-03    -55.3945E-03    -54.8862E-03     110.308E-03    -55.3319E-03     17.9206E-03    -2.39554E+06    -40.7576E+06    -114.311E+06    -40.7744E+06    -114.294E+06    -2.39554E+06     983.145E+03         31.5847
             843     8.51737E-03     23.4201E-03     14.3037E-03     2.53737E-03    -19.1161E-03     832.766E-06    -7.36521E-03     4.25744E-03     21.9540E-03     110.811E-03    -55.3519E-03    -55.4068E-03    -55.0083E-03     110.451E-03    -55.3905E-03     15.3740E-03    -5.33695E+06    -44.9694E+06    -146.778E+06    -44.9741E+06    -146.774E+06    -5.33695E+06     601.539E+03         30.8349
             844     7.57134E-03     23.4047E-03     17.1915E-03     3.12246E-03    -21.6425E-03    -2.07305E-03    -4.09806E-03     4.84253E-03     7.01250E-03     110.729E-03    -55.3164E-03    -55.4360E-03    -55.0615E-03     110.474E-03    -55.4360E-03     12.9743E-03    -9.18700E+06    -49.7079E+06    -176.137E+06    -49.7098E+06    -176.136E+06    -9.18700E+06     378.955E+03         30.1994
             845     6.62462E-03     23.3915E-03     17.8008E-03     4.69743E-03    -23.9060E-03     997.334E-06    -7.99370E-03     5.58861E-03     10.5332E-03     110.704E-03    -55.2909E-03    -55.4947E-03    -55.0993E-03     110.512E-03    -55.4947E-03     11.2389E-03    -13.0929E+06    -55.3948E+06    -206.309E+06    -55.3955E+06    -206.308E+06    -13.0929E+06     153.436E+03         29.6790
             846     5.67829E-03     23.3801E-03     21.6117E-03     5.31669E-03    -28.9343E-03     2.78492E-03    -10.9988E-03     6.20787E-03    -2.72761E-03     110.763E-03    -55.3074E-03    -55.5141E-03    -55.1646E-03     110.620E-03    -55.5141E-03     9.71341E-03    -21.4316E+06    -62.0383E+06    -229.061E+06    -62.0404E+06    -229.059E+06    -21.4316E+06    -314.795E+03         29.2594
             847     4.73204E-03     23.3699E-03     36.6590E-03     7.13068E-03    -43.8124E-03     703.828E-06    -7.85725E-03     7.13068E-03    -12.8640E-03     110.796E-03    -55.3061E-03    -55.5131E-03    -55.2041E-03     110.694E-03    -55.5131E-03     8.18305E-03    -33.8098E+06    -69.2496E+06    -246.567E+06    -69.2523E+06    -246.565E+06    -33.8098E+06    -522.894E+03         28.9224
             848     3.78548E-03     23.3621E-03     38.6686E-03     5.63524E-03    -44.2444E-03     12.4760E-03    -19.5167E-03     7.10000E-03     13.6289E-03     110.780E-03    -55.2935E-03    -55.4711E-03    -55.2452E-03     110.714E-03    -55.4540E-03     6.54317E-03    -48.0875E+06    -76.4164E+06    -263.691E+06    -76.4173E+06    -263.691E+06    -48.0875E+06    -146.522E+03         28.6540
             849     2.83910E-03     23.3557E-03     77.8191E-03     3.21056E-03    -80.9311E-03     15.5315E-03    -20.1083E-03     4.67531E-03    -95.5216E-03     110.697E-03    -55.3078E-03    -55.3859E-03    -55.3041E-03     110.659E-03    -55.3512E-03     4.99001E-03    -64.6345E+06    -83.1746E+06    -275.132E+06    -83.1749E+06    -275.132E+06    -64.6345E+06     96.6322E+03         28.4530
             850     1.89286E-03     23.3498E-03     110.613E-03     3.46825E-03    -117.906E-03     1.54069E-03    -8.83351E-03     3.46825E-03    -13.0122E-03     110.552E-03    -55.2668E-03    -55.2980E-03    -55.2663E-03     110.533E-03    -55.2799E-03     3.41936E-03    -79.6429E+06    -88.6683E+06    -283.742E+06    -88.6693E+06    -283.741E+06    -79.6429E+06     338.563E+03         28.3208
             851     946.387E-06     23.3477E-03     140.411E-03     19.6882E-03    -166.215E-03    -11.5606E-03    -14.2438E-03     19.6882E-03    -82.2813E-03     110.434E-03    -55.0831E-03    -55.3498E-03    -55.3310E-03     110.428E-03    -55.0959E-03     1.84758E-03    -90.0017E+06    -93.1172E+06    -289.449E+06    -92.4760E+06    -289.436E+06    -90.6555E+06     632.841E+03         28.2483
             852     16.0937E-03     22.6320E-03     9.13951E-03     2.15160E-03    -17.0873E-03    -7.21142E-03    -1.58825E-03     3.00353E-03    -8.83226E-03     113.220E-03    -54.5028E-03    -58.8230E-03    -53.6924E-03     108.883E-03    -55.2959E-03     44.8522E-03     163.073E+06     122.968E+06    -7.16111E+06    -7.15107E+06     163.063E+06     122.968E+06     462.697E+03         44.7440
             853     15.1461E-03     22.5476E-03     18.3922E-03     3.54359E-03    -26.6824E-03    -3.72678E-03    -4.56340E-03     3.54359E-03    -26.2683E-03     114.346E-03    -55.2426E-03    -59.3210E-03    -53.8365E-03     108.861E-03    -55.2426E-03     58.5721E-03     158.965E+06     107.686E+06    -14.7840E+06    -14.7733E+06     158.954E+06     107.686E+06     545.107E+03         42.0002
             854     14.1991E-03     22.5033E-03     17.3121E-03     2.98703E-03    -24.2006E-03     1.52947E-03    -9.33520E-03     3.90418E-03    -35.0031E-03     112.343E-03    -55.1532E-03    -57.4337E-03    -53.8740E-03     108.783E-03    -55.1532E-03     48.2138E-03     155.274E+06     66.6267E+06    -22.3402E+06    -22.3034E+06     155.237E+06     66.6267E+06     1.40870E+06         39.0230
             855     13.2514E-03     22.4423E-03     12.8554E-03     3.25187E-03    -19.2785E-03     1.52188E-03    -8.86215E-03     4.16901E-03    -7.21177E-03     112.358E-03    -55.0946E-03    -57.3781E-03    -54.0258E-03     109.006E-03    -55.0946E-03     46.5078E-03     131.470E+06     24.7055E+06    -28.3794E+06    -28.3372E+06     131.428E+06     24.7055E+06     1.67194E+06         36.4945
             856     12.3044E-03     22.4007E-03     15.3386E-03     4.25589E-03    -24.1703E-03     6.04869E-03    -14.8804E-03     4.25589E-03    -7.32614E-03     111.028E-03    -55.1156E-03    -56.0273E-03    -54.2497E-03     109.251E-03    -55.1156E-03     34.0593E-03     61.8196E+06     7.21116E+06    -31.7466E+06    -31.7338E+06     61.8068E+06     7.21116E+06     843.078E+03         34.6830
             857     11.3574E-03     22.3681E-03     15.1930E-03     3.81330E-03    -25.0394E-03     12.7737E-03    -22.6200E-03     3.81330E-03    -8.38567E-03     110.780E-03    -55.2180E-03    -55.6715E-03    -54.6043E-03     109.713E-03    -55.2180E-03     26.2782E-03     6.47652E+06    -15.9299E+06    -42.1451E+06    -34.3605E+06    -18.9161E+06     1.67808E+06     906.678E+03         33.4332
             858     10.4108E-03     22.3432E-03     11.7625E-03     2.68195E-03    -20.1795E-03     5.81039E-03    -14.8428E-03     3.29736E-03    -6.46052E-03     110.788E-03    -55.2722E-03    -55.4941E-03    -54.8558E-03     110.150E-03    -55.2722E-03     20.4726E-03    -1.21259E+06    -37.2009E+06    -73.8519E+06    -37.2633E+06    -73.7895E+06    -1.21259E+06     1.16823E+06         32.4386
             859     9.46431E-03     22.3226E-03     11.2716E-03     2.65590E-03    -18.6021E-03     1.13324E-03    -9.07909E-03     3.27131E-03    -8.04441E-03     110.810E-03    -55.2813E-03    -55.4491E-03    -54.9838E-03     110.344E-03    -55.2813E-03     17.5337E-03    -2.67057E+06    -40.6013E+06    -113.587E+06    -40.6154E+06    -113.573E+06    -2.67057E+06     956.013E+03         31.5673
             860     8.51818E-03     22.3041E-03     11.7994E-03     3.22123E-03    -17.3722E-03     6.08945E-03    -11.6622E-03     3.22123E-03     974.351E-06     110.675E-03    -55.2594E-03    -55.3731E-03    -54.9559E-03     110.330E-03    -55.3310E-03     15.0641E-03    -5.64638E+06    -44.8023E+06    -146.638E+06    -44.8092E+06    -146.631E+06    -5.64638E+06     748.109E+03         30.8157
             861     7.57137E-03     22.2889E-03     12.8282E-03     3.91938E-03    -19.3774E-03    -9.64643E-03     3.09723E-03     3.91938E-03     1.22745E-03     110.590E-03    -55.2446E-03    -55.3744E-03    -54.9997E-03     110.345E-03    -55.3744E-03     12.7005E-03    -9.69081E+06    -49.6129E+06    -175.898E+06    -49.6166E+06    -175.894E+06    -9.69081E+06     595.812E+03         30.1791
             862     6.62510E-03     22.2755E-03     17.5610E-03     5.89580E-03    -28.9256E-03    -9.85735E-03    -1.50721E-03     5.89580E-03    -11.5770E-03     110.660E-03    -55.3121E-03    -55.4283E-03    -55.1291E-03     110.477E-03    -55.4283E-03     10.9893E-03    -13.7944E+06    -55.4663E+06    -205.749E+06    -55.4692E+06    -205.746E+06    -13.7944E+06     519.794E+03         29.6585
             863     5.67870E-03     22.2633E-03     27.7742E-03     5.98545E-03    -40.2335E-03     18.3675E-03    -30.8269E-03     5.98545E-03    -9.56326E-03     110.667E-03    -55.2854E-03    -55.4366E-03    -55.1510E-03     110.532E-03    -55.4366E-03     9.40285E-03    -21.7413E+06    -62.5634E+06    -228.470E+06    -62.5652E+06    -228.468E+06    -21.7413E+06     184.526E+03         29.2390
             864     4.73215E-03     22.2545E-03     28.5917E-03     4.20567E-03    -38.8009E-03     11.5304E-03    -21.7397E-03     4.20567E-03     17.4967E-03     110.624E-03    -55.2159E-03    -55.4348E-03    -55.1219E-03     110.530E-03    -55.4348E-03     7.85429E-03    -33.2568E+06    -69.8808E+06    -246.569E+06    -69.8821E+06    -246.568E+06    -33.2568E+06    -404.109E+03         28.9016
             865     3.78575E-03     22.2463E-03     26.0500E-03     4.03621E-03    -32.6265E-03    -11.0093E-03     2.96806E-03     5.50096E-03     33.5058E-03     110.639E-03    -55.2419E-03    -55.3864E-03    -55.1985E-03     110.577E-03    -55.3677E-03     6.37613E-03    -48.5545E+06    -76.7784E+06    -264.280E+06    -76.7807E+06    -264.277E+06    -48.5545E+06    -451.383E+03         28.6326
             866     2.83959E-03     22.2398E-03     46.4736E-03     11.0727E-03    -58.3802E-03    -17.5247E-03     4.15330E-03     12.5374E-03    -11.4395E-03     110.566E-03    -55.2431E-03    -55.3120E-03    -55.2755E-03     110.529E-03    -55.2431E-03     4.85419E-03    -65.6378E+06    -82.5161E+06    -275.477E+06    -82.5186E+06    -275.475E+06    -65.6378E+06     155.382E+03         28.4317
             867     1.89307E-03     22.2351E-03     62.1209E-03     19.6029E-03    -82.9881E-03     11.3090E-03    -32.1762E-03     19.6029E-03     13.0999E-03     110.352E-03    -55.1498E-03    -55.2099E-03    -55.1830E-03     110.334E-03    -55.1594E-03     3.30477E-03    -79.3740E+06    -87.6576E+06    -283.973E+06    -87.6614E+06    -283.969E+06    -79.3740E+06     746.968E+03         28.3006
             868     946.634E-06     22.2322E-03     61.0280E-03     31.1314E-03    -92.1274E-03     12.1939E-03    -43.2932E-03     31.1314E-03     66.9671E-03     110.191E-03    -54.9252E-03    -55.2662E-03    -55.2505E-03     110.185E-03    -54.9347E-03     1.92549E-03    -88.7372E+06    -91.5595E+06    -288.226E+06    -91.5712E+06    -288.215E+06    -88.7372E+06     1.16749E+06         28.2302
             869     16.0937E-03     21.5154E-03     10.2723E-03     3.28089E-03    -22.3475E-03     791.992E-06    -12.8672E-03     3.28089E-03    -9.40636E-03     113.322E-03    -54.6412E-03    -58.8944E-03    -53.9024E-03     108.992E-03    -55.3033E-03     44.8692E-03     162.920E+06     123.160E+06    -7.38321E+06    -7.37540E+06     162.912E+06     123.160E+06     644.878E+03         44.7114
             870     15.1462E-03     21.4321E-03     11.0143E-03     2.15924E-03    -18.8844E-03    -5.47848E-03    -3.86993E-03     3.63757E-03    -13.9867E-03     114.362E-03    -55.2397E-03    -59.4126E-03    -53.9089E-03     108.858E-03    -55.2397E-03     58.7717E-03     157.374E+06     105.097E+06    -16.3267E+06    -16.2946E+06     157.342E+06     105.097E+06     1.70991E+06         41.9711
             871     14.1982E-03     21.3857E-03     12.3132E-03     1.86438E-03    -16.9506E-03    -6.78854E-03    -244.329E-06     4.25986E-03    -2.08274E-03     112.487E-03    -55.1558E-03    -57.5516E-03    -54.0018E-03     108.937E-03    -55.1558E-03     48.2478E-03     154.384E+06     65.9844E+06    -23.3281E+06    -23.2675E+06     154.324E+06     65.9844E+06     1.73626E+06         38.9947
             872     13.2520E-03     21.3266E-03     15.7745E-03     3.62547E-03    -21.9807E-03     5.44088E-03    -12.5643E-03     4.54261E-03     19.4259E-03     112.480E-03    -55.0811E-03    -57.5299E-03    -54.2076E-03     109.157E-03    -55.0811E-03     46.3907E-03     132.873E+06     26.5822E+06    -26.9042E+06    -26.8599E+06     132.828E+06     26.5822E+06     1.34051E+06         36.4679
             873     12.3043E-03     21.2842E-03     18.4428E-03     3.97698E-03    -26.2942E-03     16.5824E-03    -24.4338E-03     3.97698E-03     4.38130E-03     111.143E-03    -55.0721E-03    -56.1959E-03    -54.4363E-03     109.383E-03    -55.0721E-03     33.8701E-03     62.4607E+06     7.34324E+06    -30.2712E+06    -30.2541E+06     62.4435E+06     7.34324E+06     957.350E+03         34.6584
             874     11.3580E-03     21.2519E-03     15.0137E-03     3.05654E-03    -23.8925E-03     12.8858E-03    -21.7646E-03     3.05654E-03    -12.9229E-03     110.907E-03    -55.1614E-03    -55.8572E-03    -54.8385E-03     109.889E-03    -55.1614E-03     25.6834E-03     5.61247E+06    -15.8172E+06    -41.3510E+06    -33.8324E+06    -19.1642E+06     1.44096E+06     1.05483E+06         33.4059
             875     10.4117E-03     21.2266E-03     10.7243E-03     1.95387E-03    -19.1002E-03     4.14331E-03    -13.1346E-03     2.56928E-03    -3.07939E-03     110.754E-03    -55.2015E-03    -55.5364E-03    -54.9330E-03     110.150E-03    -55.2015E-03     19.9136E-03    -2.09463E+06    -37.1445E+06    -73.6036E+06    -37.2094E+06    -73.5388E+06    -2.09463E+06     1.17660E+06         32.4071
             876     9.46533E-03     21.2061E-03     10.8559E-03     2.33307E-03    -17.9216E-03    -6.12109E-03    -1.56004E-03     2.94848E-03    -5.08719E-03     110.659E-03    -55.1976E-03    -55.3813E-03    -54.9423E-03     110.220E-03    -55.1976E-03     17.0171E-03    -3.41669E+06    -40.8721E+06    -113.320E+06    -40.8913E+06    -113.300E+06    -3.41669E+06     1.11804E+06         31.5331
             877     8.51859E-03     21.1878E-03     12.1922E-03     4.01967E-03    -19.8460E-03    -7.07239E-03    -581.321E-06     4.01967E-03    -3.61943E-03     110.538E-03    -55.1866E-03    -55.3099E-03    -54.9341E-03     110.216E-03    -55.2400E-03     14.5364E-03    -5.84364E+06    -45.0976E+06    -146.052E+06    -45.1096E+06    -146.040E+06    -5.84364E+06     951.540E+03         30.7801
             878     7.57216E-03     21.1724E-03     16.1824E-03     4.83272E-03    -26.8008E-03     1.90105E-03    -12.5194E-03     4.83272E-03     4.49973E-03     110.483E-03    -55.2075E-03    -55.3077E-03    -55.0173E-03     110.258E-03    -55.2724E-03     12.1726E-03    -10.2178E+06    -49.8937E+06    -175.921E+06    -49.8999E+06    -175.915E+06    -10.2178E+06     804.494E+03         30.1427
             879     6.62564E-03     21.1594E-03     18.8607E-03     5.41148E-03    -32.1524E-03    -45.4661E-06    -13.2462E-03     5.41148E-03    -23.0295E-03     110.506E-03    -55.2562E-03    -55.3325E-03    -55.1128E-03     110.342E-03    -55.3115E-03     10.3959E-03    -14.1383E+06    -55.5935E+06    -205.697E+06    -55.6002E+06    -205.690E+06    -14.1383E+06     966.585E+03         29.6217
             880     5.67935E-03     21.1481E-03     22.3667E-03     6.56645E-03    -38.7463E-03    -2.61469E-03    -13.7649E-03     6.56645E-03    -38.9565E-03     110.440E-03    -55.1920E-03    -55.3090E-03    -55.0724E-03     110.320E-03    -55.3090E-03     8.86167E-03    -21.5946E+06    -62.0305E+06    -227.343E+06    -62.0341E+06    -227.339E+06    -21.5946E+06     452.465E+03         29.2023
             881     4.73295E-03     21.1391E-03     29.0007E-03     6.42482E-03    -43.9115E-03     15.8077E-03    -30.7185E-03     6.42482E-03    -16.3659E-03     110.401E-03    -55.1393E-03    -55.2978E-03    -55.0555E-03     110.317E-03    -55.2978E-03     7.41106E-03    -33.5668E+06    -68.9996E+06    -246.100E+06    -69.0005E+06    -246.099E+06    -33.5668E+06    -341.331E+03         28.8646
             882     3.78630E-03     21.1311E-03     43.0739E-03     3.22992E-03    -52.3213E-03     21.6155E-03    -30.8628E-03     3.22992E-03     14.2021E-03     110.351E-03    -55.1058E-03    -55.2374E-03    -55.0513E-03     110.295E-03    -55.2357E-03     6.06050E-03    -48.6612E+06    -76.3031E+06    -264.871E+06    -76.3048E+06    -264.870E+06    -48.6612E+06    -436.422E+03         28.5958
             883     2.83962E-03     21.1240E-03     44.4801E-03     1.22385E-03    -49.0288E-03     4.88130E-03    -8.32335E-03     117.186E-06     21.6965E-03     110.264E-03    -55.0779E-03    -55.1665E-03    -55.0783E-03     110.231E-03    -55.1323E-03     4.65529E-03    -65.2530E+06    -83.1663E+06    -276.628E+06    -83.1687E+06    -276.626E+06    -65.2530E+06     143.054E+03         28.3965
             884     1.89328E-03     21.1203E-03     45.3101E-03    -509.775E-06    -45.4652E-03     1.78511E-03    -833.563E-06    -1.61644E-03     5.14430E-03     110.151E-03    -55.0386E-03    -55.1141E-03    -55.0789E-03     110.135E-03    -55.0581E-03     3.11908E-03    -79.0709E+06     -88.016E+06    -283.653E+06    -88.0192E+06    -283.650E+06    -79.0709E+06     688.643E+03         28.2689
             885     946.523E-06     21.1174E-03     96.2977E-03     33.4804E-03    -134.036E-03    -38.6007E-03     862.541E-06     33.4804E-03     164.882E-03     109.981E-03    -54.8664E-03    -55.1198E-03    -55.1045E-03     109.976E-03    -54.8759E-03     1.87021E-03    -88.1048E+06    -90.9094E+06    -286.361E+06    -90.7139E+06    -286.357E+06    -88.3038E+06     87.5511E+03         28.2033
             886     16.0934E-03     20.3985E-03     12.6547E-03     3.74482E-03    -24.3970E-03     11.4416E-03    -23.1839E-03     3.74482E-03     3.91869E-03     113.360E-03    -54.5131E-03    -59.0072E-03    -53.8964E-03     109.050E-03    -55.3139E-03     44.8951E-03     161.353E+06     122.442E+06    -8.47282E+06    -8.46889E+06     161.349E+06     122.442E+06     684.753E+03         44.6708
             887     15.1459E-03     20.3158E-03     12.2886E-03     1.95269E-03    -18.9703E-03     6.48731E-03    -14.6474E-03     3.43102E-03    -7.19044E-03     114.837E-03    -55.3046E-03    -59.6843E-03    -54.2222E-03     109.375E-03    -55.3046E-03     58.6507E-03     156.568E+06     109.779E+06    -14.6888E+06    -14.6608E+06     156.540E+06     109.779E+06     1.65583E+06         41.9322
             888     14.1993E-03     20.2696E-03     15.4610E-03     1.85079E-03    -20.7612E-03     2.94922E-03    -9.72778E-03     3.32912E-03    -4.82606E-03     112.730E-03    -55.1875E-03    -57.7037E-03    -54.2055E-03     109.232E-03    -55.1875E-03     47.9529E-03     155.355E+06     69.9872E+06    -20.9199E+06    -20.8737E+06     155.309E+06     69.9872E+06     1.62495E+06         38.9536
             889     13.2515E-03     20.2094E-03     18.0196E-03     3.08063E-03    -23.5126E-03     8.80592E-03    -14.2989E-03     3.08063E-03     4.33959E-03     112.710E-03    -55.0347E-03    -57.7584E-03    -54.5066E-03     109.458E-03    -55.0347E-03     45.9156E-03     132.934E+06     24.9972E+06    -26.8275E+06    -26.7971E+06     132.904E+06     24.9972E+06     1.16152E+06         36.4258
             890     12.3055E-03     20.1675E-03     20.0775E-03     2.44451E-03    -25.6234E-03     11.8836E-03    -17.4296E-03     2.44451E-03     14.9639E-03     111.443E-03    -55.0066E-03    -56.5271E-03    -54.8359E-03     109.752E-03    -55.0066E-03     33.2626E-03     62.9858E+06     7.09412E+06    -30.7063E+06    -30.6342E+06     62.9137E+06     7.09412E+06     1.76304E+06         34.6154
             891     11.3592E-03     20.1340E-03     15.7088E-03     2.09425E-03    -22.4325E-03     508.453E-06    -7.23214E-03     2.09425E-03     11.5347E-03     110.935E-03    -55.0629E-03    -55.9785E-03    -55.0153E-03     109.972E-03    -55.0629E-03     24.9649E-03     5.85451E+06    -15.5404E+06    -41.7685E+06    -34.0031E+06    -18.6993E+06     1.24814E+06     1.71157E+06         33.3571
             892     10.4129E-03     20.1103E-03     9.00299E-03     1.33213E-03    -14.8382E-03    -1.29773E-03    -5.50198E-03     2.29667E-03     958.066E-06     110.647E-03    -55.0794E-03    -55.5448E-03    -54.9843E-03     110.087E-03    -55.0794E-03     19.1849E-03    -2.88836E+06    -37.3703E+06    -73.4674E+06    -37.4402E+06    -73.3975E+06    -2.88836E+06     1.32544E+06         32.3514
             893     9.46615E-03     20.0894E-03     11.9995E-03     1.58212E-03    -17.7761E-03     623.737E-06    -7.36484E-03     2.54667E-03     8.34796E-03     110.504E-03    -55.0564E-03    -55.3671E-03    -54.9698E-03     110.107E-03    -55.0564E-03     16.1552E-03    -4.27340E+06    -41.0744E+06    -113.297E+06    -41.1057E+06    -113.265E+06    -4.27340E+06     1.42832E+06         31.4735
             894     8.51984E-03     20.0716E-03     12.8089E-03     3.23123E-03    -20.3896E-03    -7.70479E-03     124.171E-06     3.23123E-03     15.9095E-03     110.415E-03    -55.0752E-03    -55.2949E-03    -55.0164E-03     110.137E-03    -55.0752E-03     13.4834E-03    -6.53243E+06    -45.5033E+06    -145.454E+06    -45.5289E+06    -145.428E+06    -6.53243E+06     1.42387E+06         30.7187
             895     7.57340E-03     20.0565E-03     16.9924E-03     3.66660E-03    -25.3024E-03     5.80093E-03    -14.1109E-03     3.66660E-03     10.5171E-03     110.270E-03    -55.0867E-03    -55.2135E-03    -55.0232E-03     110.080E-03    -55.0867E-03     11.1571E-03    -10.7595E+06    -51.0676E+06    -175.757E+06    -51.0879E+06    -175.737E+06    -10.7595E+06     1.38274E+06         30.0803
             896     6.62711E-03     20.0436E-03     26.0839E-03     3.23301E-03    -36.6881E-03     6.85622E-03    -17.4604E-03     3.23301E-03     18.1501E-03     110.107E-03    -55.0505E-03    -55.1405E-03    -54.9552E-03     109.971E-03    -55.0990E-03     9.45739E-03    -16.0970E+06    -56.7933E+06    -205.169E+06    -56.8018E+06    -205.161E+06    -16.0970E+06     916.715E+03         29.5588
             897     5.68032E-03     20.0330E-03     29.7488E-03     5.18652E-03    -43.7357E-03    -21.8272E-03     7.84039E-03     5.18652E-03    -6.37501E-03     110.002E-03    -54.9739E-03    -55.0873E-03    -54.8740E-03     109.902E-03    -55.0873E-03     8.07779E-03    -24.1381E+06    -62.5760E+06    -226.504E+06    -62.5792E+06    -226.501E+06    -24.1381E+06     428.434E+03         29.1400
             898     4.73369E-03     20.0229E-03     31.0102E-03     9.40870E-03    -49.6986E-03    -12.5008E-03    -6.39790E-03     9.61899E-03    -17.5240E-03     109.976E-03    -54.9357E-03    -55.0752E-03    -54.8644E-03     109.905E-03    -55.0752E-03     6.80899E-03    -35.9196E+06    -69.7472E+06    -245.788E+06    -69.7500E+06    -245.785E+06    -35.9196E+06     337.984E+03         28.8037
             899     3.78711E-03     20.0152E-03     43.4355E-03     8.83340E-03    -59.6456E-03     31.4363E-03    -47.8567E-03     9.04369E-03    -5.61130E-03     109.924E-03    -54.8977E-03    -55.0236E-03    -54.8507E-03     109.877E-03    -55.0236E-03     5.52170E-03    -49.4891E+06    -77.3412E+06    -264.867E+06    -77.3429E+06    -264.866E+06    -49.4891E+06     81.7510E+03         28.5366
             900     2.84035E-03     20.0097E-03     54.0918E-03    -829.638E-06    -54.6861E-03     47.5089E-03    -46.9964E-03    -1.93630E-03    -19.4808E-03     109.804E-03    -54.8553E-03    -54.9389E-03    -54.8280E-03     109.777E-03    -54.9389E-03     4.17030E-03    -64.2127E+06    -84.4429E+06    -277.268E+06    -84.4436E+06    -277.267E+06    -64.2127E+06     139.812E+03         28.3395
             901     1.89336E-03     20.0043E-03     51.9454E-03    -10.6264E-03    -41.1089E-03     11.9006E-03     5.77546E-03    -17.4659E-03    -25.9862E-03     109.705E-03    -54.8182E-03    -54.8914E-03    -54.8294E-03     109.693E-03    -54.8680E-03     2.73652E-03    -79.4088E+06    -90.4629E+06    -283.119E+06    -90.4640E+06    -283.118E+06    -79.4088E+06     145.081E+03         28.2157
             902     946.978E-06     20.0015E-03     131.688E-03     21.1798E-03    -150.664E-03    -65.1132E-03     51.8703E-03     15.4470E-03     195.179E-03     109.587E-03    -54.6793E-03    -54.9156E-03    -54.8943E-03     109.583E-03    -54.6968E-03     1.49122E-03    -91.2971E+06    -94.7052E+06    -286.124E+06    -94.5091E+06    -286.121E+06    -91.4961E+06    -201.585E+03         28.1542
             903     16.0933E-03     19.2827E-03     15.3637E-03     4.18332E-03    -20.3021E-03     12.1787E-03    -17.1171E-03     4.18332E-03     64.6060E-06     113.492E-03    -54.5636E-03    -59.1250E-03    -54.0650E-03     109.181E-03    -55.3127E-03     45.2224E-03     161.383E+06     122.295E+06    -7.81547E+06     -7.8019E+06     161.369E+06     122.295E+06     730.725E+03         44.6218
             904     15.1464E-03     19.1976E-03     21.9929E-03     3.50980E-03    -27.3795E-03     18.2358E-03    -23.6224E-03     3.50980E-03    -5.14110E-03     115.028E-03    -55.2782E-03    -59.9400E-03    -54.5242E-03     109.612E-03    -55.2782E-03     58.4134E-03     155.994E+06     108.313E+06    -15.0798E+06    -15.0736E+06     155.988E+06     108.313E+06    -330.085E+03         41.8844
             905     14.1993E-03     19.1533E-03     22.4982E-03     2.59030E-03    -26.2578E-03     16.1691E-03    -19.9288E-03     2.59030E-03    -1.23792E-03     113.023E-03    -55.1263E-03    -58.0847E-03    -54.6657E-03     109.604E-03    -55.1263E-03     47.5111E-03     154.204E+06     69.4748E+06    -20.7065E+06    -20.6815E+06     154.179E+06     69.4748E+06     1.04830E+06         38.9004
             906     13.2531E-03     19.0922E-03     15.1156E-03     1.79646E-03    -18.3590E-03     10.2942E-03    -13.5377E-03     1.79646E-03    -7.37300E-03     113.028E-03    -54.9451E-03    -58.1536E-03    -55.0019E-03     109.876E-03    -54.9451E-03     45.2612E-03     133.337E+06     25.8493E+06    -25.1193E+06    -25.0597E+06     133.278E+06     25.8493E+06     2.57771E+06         36.3642
             907     12.3070E-03     19.0502E-03     16.7241E-03     1.33294E-03    -19.9237E-03     4.75906E-03    -7.95869E-03     1.33294E-03     3.04362E-03     111.595E-03    -54.8911E-03    -56.7910E-03    -55.2058E-03     110.010E-03    -54.8911E-03     32.2159E-03     63.1578E+06     8.42469E+06    -29.3845E+06    -29.2750E+06     63.0482E+06     8.42469E+06     2.48688E+06         34.5456
             908     11.3609E-03     19.0180E-03     16.9820E-03     1.26545E-03    -20.9717E-03    -462.095E-06    -3.52762E-03     1.26545E-03     7.53974E-03     110.968E-03    -54.9038E-03    -56.1647E-03    -55.2979E-03     110.102E-03    -54.9038E-03     23.6395E-03     5.90919E+06    -13.2794E+06    -40.3781E+06    -32.7095E+06    -17.9028E+06     2.86406E+06     2.32525E+06         33.2795
             909     10.4145E-03     18.9939E-03     8.67093E-03     636.001E-06    -12.9474E-03    -4.37849E-03    -862.499E-06     1.60055E-03    -2.81400E-03     110.608E-03    -54.8676E-03    -55.7146E-03    -55.2418E-03     110.135E-03    -54.8676E-03     17.5657E-03    -2.55860E+06    -35.7431E+06    -72.9614E+06    -35.9758E+06    -72.7288E+06    -2.55860E+06     1.67363E+06         32.2666
             910     9.46865E-03     18.9743E-03     9.06393E-03     1.03652E-03    -12.9354E-03    -849.606E-06    -3.98646E-03     2.00107E-03     10.9033E-03     110.387E-03    -54.8030E-03    -55.5142E-03    -55.1963E-03     110.069E-03    -54.8030E-03     14.4169E-03    -4.54609E+06    -39.4978E+06    -113.570E+06    -39.5477E+06    -113.520E+06    -4.54609E+06     1.69863E+06         31.3817
             911     8.52215E-03     18.9560E-03     15.9282E-03     2.02986E-03    -20.2946E-03     3.95607E-03    -8.32251E-03     2.02986E-03     2.45993E-03     110.115E-03    -54.7755E-03    -55.2973E-03    -55.0843E-03     109.902E-03    -54.7755E-03     11.7268E-03    -7.29117E+06    -44.1130E+06    -145.420E+06    -44.1864E+06    -145.347E+06    -7.29117E+06     2.59635E+06         30.6210
             912     7.57591E-03     18.9416E-03     25.0866E-03     1.82695E-03    -30.8707E-03     3.33772E-03    -9.12181E-03     1.82695E-03    -35.6735E-03     109.750E-03    -54.7532E-03    -55.0301E-03    -54.8935E-03     109.614E-03    -54.7532E-03     9.38651E-03    -11.3606E+06    -49.6949E+06    -174.841E+06    -49.7519E+06    -174.784E+06    -11.3606E+06     2.52616E+06         29.9793
             913     6.62903E-03     18.9289E-03     35.5651E-03     1.57347E-03    -42.0715E-03     3.79348E-03    -10.2999E-03     1.57347E-03     13.2800E-03     109.465E-03    -54.7254E-03    -54.8308E-03    -54.7134E-03     109.369E-03    -54.7461E-03     7.87652E-03    -17.4315E+06    -56.2035E+06    -203.950E+06    -56.2343E+06    -203.919E+06    -17.4315E+06     1.74929E+06         29.4569
             914     5.68230E-03     18.9182E-03     41.1282E-03     1.90268E-03    -49.4446E-03    -4.03832E-03    -4.27808E-03     1.90268E-03     492.148E-06     109.300E-03    -54.6348E-03    -54.7262E-03    -54.5712E-03     109.232E-03    -54.7212E-03     6.60823E-03    -26.4629E+06    -63.9214E+06    -226.455E+06    -63.9457E+06    -226.431E+06    -26.4629E+06     1.57395E+06         29.0394
             915     4.73530E-03     18.9086E-03     37.4573E-03     5.00648E-03    -48.5689E-03    -23.3227E-03     12.0008E-03     5.21677E-03    -15.1123E-03     109.202E-03    -54.5354E-03    -54.7030E-03    -54.4877E-03     109.155E-03    -54.7030E-03     5.50943E-03    -37.3026E+06    -71.5453E+06    -244.790E+06    -71.5580E+06    -244.778E+06    -37.3026E+06     1.09773E+06         28.7053
             916     3.78817E-03     18.9000E-03     42.2798E-03     11.5628E-03    -57.6290E-03    -18.2108E-03     2.65121E-03     11.7731E-03    -5.95313E-03     109.168E-03    -54.5125E-03    -54.6578E-03    -54.4804E-03     109.136E-03    -54.6578E-03     4.49807E-03    -50.0509E+06    -78.8497E+06    -264.539E+06    -78.8528E+06    -264.536E+06    -50.0509E+06     396.883E+03         28.4403
             917     2.84131E-03     18.8952E-03     50.6560E-03     12.4283E-03    -64.8381E-03     20.6618E-03    -36.9238E-03     14.5083E-03    -20.5631E-03     109.066E-03    -54.4937E-03    -54.5771E-03    -54.4922E-03     109.047E-03    -54.5596E-03     3.46292E-03    -65.9851E+06    -86.0258E+06    -277.054E+06    -86.0283E+06    -277.052E+06    -65.9851E+06     223.284E+03         28.2462
             918     1.89435E-03     18.8902E-03     57.4565E-03     7.88011E-03    -61.3091E-03     41.6609E-03    -41.8606E-03     4.22725E-03    -25.8955E-03     108.899E-03    -54.4137E-03    -54.4971E-03    -54.4225E-03     108.891E-03    -54.4796E-03     2.27684E-03    -82.0090E+06    -92.0443E+06    -282.822E+06    -92.0458E+06    -282.821E+06    -82.0090E+06     20.9690E+03         28.1257
             919     946.852E-06     18.8874E-03     148.220E-03     36.5716E-03    -177.585E-03    -40.8468E-03     17.2138E-03     30.8387E-03     202.589E-03     108.843E-03    -54.2870E-03    -54.5588E-03    -54.5126E-03     108.840E-03    -54.3306E-03     1.22858E-03    -93.0029E+06    -95.9434E+06    -286.432E+06    -95.8417E+06    -286.428E+06    -93.1086E+06    -225.800E+03         28.0661
             920     16.0938E-03     18.1642E-03     19.6752E-03     3.09945E-03    -18.6898E-03     1.10068E-03    -115.281E-06     3.09945E-03     22.7362E-03     113.857E-03    -54.8351E-03    -59.1570E-03    -54.4164E-03     109.573E-03    -55.2919E-03     45.3514E-03     161.522E+06     123.149E+06    -7.09434E+06    -7.07731E+06     161.505E+06     123.149E+06     775.506E+03         44.5647
             921     15.1469E-03     18.0823E-03     21.3549E-03     2.66724E-03    -23.7474E-03     14.7383E-03    -17.1309E-03     2.66724E-03     17.8302E-03     115.233E-03    -55.1720E-03    -60.2936E-03    -54.9179E-03     109.857E-03    -55.1720E-03     58.3076E-03     157.860E+06     105.292E+06    -15.1970E+06    -15.1850E+06     157.848E+06     105.292E+06     136.090E+03         41.8279
             922     14.2007E-03     18.0339E-03     18.6679E-03     1.73114E-03    -20.1139E-03     15.9705E-03    -17.4165E-03     1.73114E-03     13.8727E-03     113.518E-03    -54.9813E-03    -58.7517E-03    -55.4364E-03     110.203E-03    -54.9813E-03     47.0310E-03     152.212E+06     64.9696E+06    -23.4091E+06    -23.3998E+06     152.202E+06     64.9696E+06     487.662E+03         38.8340
             923     13.2550E-03     17.9752E-03     15.0536E-03     1.26907E-03    -15.8422E-03     44.3421E-06    -832.928E-06     1.26907E-03     909.640E-06     113.417E-03    -54.7924E-03    -58.7353E-03    -55.7482E-03     110.430E-03    -54.7924E-03     44.1866E-03     132.493E+06     25.0401E+06    -27.5950E+06    -27.5516E+06     132.450E+06     25.0401E+06     1.94408E+06         36.2803
             924     12.3092E-03     17.9327E-03     12.5264E-03     1.74870E-03    -14.6756E-03    -9.34336E-03     7.19411E-03     1.74870E-03    -15.2343E-03     111.849E-03    -54.6674E-03    -57.3004E-03    -55.8717E-03     110.420E-03    -54.6674E-03     30.5149E-03     63.6873E+06     7.05712E+06    -29.4559E+06    -29.3685E+06     63.5999E+06     7.05712E+06     2.40852E+06         34.4450
             925     11.3638E-03     17.9012E-03     12.6012E-03     2.24110E-03    -16.4354E-03     1.63680E-03    -5.47101E-03     2.24110E-03    -22.0411E-03     111.205E-03    -54.6053E-03    -56.7043E-03    -56.0073E-03     110.508E-03    -54.6053E-03     21.0910E-03     5.56343E+06    -13.4130E+06    -38.8415E+06    -31.3790E+06    -17.4411E+06     2.12902E+06     2.09357E+06         33.1710
             926     10.4184E-03     17.8767E-03     15.3025E-03     2.19575E-03    -18.6591E-03     4.74503E-03    -8.10164E-03     2.19575E-03    -21.6688E-03     110.612E-03    -54.4825E-03    -56.1180E-03    -55.7846E-03     110.278E-03    -54.4825E-03     14.6411E-03    -2.26284E+06    -33.8951E+06    -71.8964E+06    -34.1954E+06    -71.5961E+06    -2.26284E+06     2.32054E+06         32.1525
             927     9.47241E-03     17.8579E-03     12.6867E-03     2.25689E-03    -15.7359E-03    -675.422E-06    -2.37381E-03     2.25689E-03    -10.3111E-03     110.065E-03    -54.3407E-03    -55.6654E-03    -55.4630E-03     109.863E-03    -54.3407E-03     11.3605E-03    -4.91850E+06    -38.0988E+06    -114.052E+06    -38.2213E+06    -113.929E+06    -4.91850E+06     2.50370E+06         31.2534
             928     8.52642E-03     17.8403E-03     14.5526E-03     2.30244E-03    -17.9296E-03     4.37620E-03    -7.75321E-03     2.30244E-03    -8.45308E-03     109.465E-03    -54.2459E-03    -55.1832E-03    -55.0597E-03     109.341E-03    -54.2459E-03     8.67158E-03    -8.18595E+06    -41.8860E+06    -145.822E+06    -41.9785E+06    -145.730E+06    -8.18595E+06     3.04146E+06         30.4778
             929     7.57969E-03     17.8264E-03     25.5564E-03     2.31368E-03    -28.6303E-03     456.458E-06    -3.53046E-03     2.31368E-03    -31.8055E-03     108.888E-03    -54.1774E-03    -54.7544E-03    -54.6858E-03     108.819E-03    -54.1774E-03     6.38819E-03    -10.8852E+06    -46.2568E+06    -174.394E+06    -46.3916E+06    -174.260E+06    -10.8852E+06     3.99949E+06         29.8277
             930     6.63289E-03     17.8143E-03     24.1272E-03     2.38068E-03    -28.9673E-03    -1.36545E-03    -3.83391E-03     2.73993E-03    -11.7760E-03     108.469E-03    -54.1431E-03    -54.4283E-03    -54.3842E-03     108.425E-03    -54.1431E-03     5.02561E-03    -15.1440E+06    -53.3823E+06    -203.190E+06    -53.5515E+06    -203.021E+06    -15.1440E+06     4.68503E+06         29.3020
             931     5.68563E-03     17.8036E-03     29.3015E-03     1.56303E-03    -34.7721E-03     15.5075E-03    -21.3374E-03     1.92228E-03    -19.1636E-03     108.126E-03    -54.0575E-03    -54.1456E-03    -54.0904E-03     108.096E-03    -54.0832E-03     4.07407E-03    -24.7861E+06    -61.6217E+06    -224.489E+06    -61.7271E+06    -224.384E+06    -24.7861E+06     3.65266E+06         28.8843
             932     4.73828E-03     17.7945E-03     42.8682E-03     55.0442E-06    -44.1907E-03     7.43894E-03    -8.76153E-03     55.0442E-06     292.207E-06     107.920E-03    -53.9208E-03    -54.0438E-03    -53.9016E-03     107.900E-03    -54.0426E-03     3.39479E-03    -36.3546E+06    -69.4024E+06    -243.088E+06    -69.4316E+06    -243.059E+06    -36.3546E+06     1.91186E+06         28.5504
             933     3.79073E-03     17.7871E-03     44.0003E-03     2.59599E-03    -46.9208E-03    -24.0159E-03     21.0954E-03     2.59599E-03     12.3893E-03     107.805E-03    -53.8148E-03    -53.9877E-03    -53.8014E-03     107.791E-03    -53.9877E-03     2.74113E-03    -49.3205E+06    -77.2132E+06    -263.687E+06    -77.2265E+06    -263.673E+06    -49.3205E+06     1.05835E+06         28.2869
             934     2.84292E-03     17.7808E-03     58.9858E-03     11.1601E-03    -68.9705E-03    -31.2072E-03     19.1426E-03     13.2401E-03     35.0575E-03     107.682E-03    -53.7780E-03    -53.9051E-03    -53.7872E-03     107.674E-03    -53.8875E-03     2.14727E-03    -66.0218E+06    -84.3099E+06    -276.519E+06    -84.3121E+06    -276.517E+06    -66.0218E+06     363.319E+03         28.0966
             935     1.89527E-03     17.7774E-03     71.5800E-03     6.72463E-03    -76.9679E-03    -3.95560E-03    -23.4815E-03     28.7738E-03     30.1953E-03     107.576E-03    -53.7496E-03    -53.8360E-03    -53.7628E-03     107.572E-03    -53.8185E-03     1.48488E-03    -81.4137E+06    -89.5701E+06    -282.588E+06    -89.5725E+06    -282.586E+06    -81.4137E+06    -123.781E+03         27.9804
             936     947.857E-06     17.7736E-03     148.632E-03     65.2509E-03    -214.753E-03    -24.7633E-03    -74.8809E-03     98.7738E-03     247.061E-03     107.548E-03    -53.6988E-03    -53.8501E-03    -53.8126E-03     107.547E-03    -53.7350E-03     914.579E-06    -90.2016E+06    -92.6339E+06    -286.462E+06    -92.2795E+06    -286.456E+06    -90.5616E+06    -253.420E+03         27.9224
             937     16.0945E-03     17.0489E-03     19.6644E-03     527.962E-06    -22.1520E-03    -10.1577E-03     7.67012E-03     527.962E-06     11.4333E-03     114.371E-03    -54.8422E-03    -59.5903E-03    -54.8950E-03     110.097E-03    -55.2637E-03     45.9705E-03     160.565E+06     123.399E+06    -6.76845E+06    -6.76152E+06     160.558E+06     123.399E+06     324.102E+03         44.4993
             938     15.1478E-03     16.9639E-03     21.5035E-03     1.04300E-03    -22.7994E-03    -8.66899E-03     7.37305E-03     1.04300E-03    -3.78920E-03     116.223E-03    -55.1543E-03    -61.2366E-03    -55.9409E-03     110.927E-03    -55.1543E-03     58.1247E-03     157.490E+06     109.774E+06    -14.5945E+06    -14.5476E+06     157.443E+06     109.774E+06     2.22454E+06         41.7587
             939     14.2025E-03     16.9164E-03     14.8532E-03     1.34516E-03    -17.0289E-03     129.008E-06    -2.30465E-03     1.34516E-03    -2.79684E-03     114.404E-03    -54.8816E-03    -59.7149E-03    -56.6043E-03     111.293E-03    -54.8816E-03     45.8760E-03     153.338E+06     69.1834E+06    -22.6987E+06    -22.6564E+06     153.296E+06     69.1834E+06     1.90214E+06         38.7531
             940     13.2579E-03     16.8567E-03     17.1625E-03     1.47454E-03    -18.8659E-03    -368.753E-06    -1.33464E-03     1.47454E-03     11.5993E-03     114.163E-03    -54.5237E-03    -59.7950E-03    -57.1324E-03     111.500E-03    -54.5237E-03     41.7302E-03     131.816E+06     23.4196E+06    -28.2174E+06    -28.2134E+06     131.812E+06     23.4196E+06     339.687E+03         36.1787
             941     12.3137E-03     16.8153E-03     16.6406E-03     1.93488E-03    -19.0605E-03    -8.20063E-03     5.78068E-03     1.93488E-03     3.03002E-03     112.482E-03    -54.2662E-03    -58.3684E-03    -57.2373E-03     111.351E-03    -54.2662E-03     27.0473E-03     63.4103E+06     4.99778E+06    -30.1325E+06    -30.0949E+06     63.3728E+06     4.99778E+06     787.509E+03         34.3199
             942     11.3694E-03     16.7829E-03     13.3946E-03     2.73004E-03    -16.7156E-03    -7.60964E-03     4.28861E-03     2.73004E-03    -5.32959E-03     111.455E-03    -54.0740E-03    -57.5054E-03    -57.0448E-03     110.995E-03    -54.0740E-03     16.7610E-03     5.86831E+06    -14.6656E+06    -39.4310E+06    -31.8634E+06    -17.1138E+06     748.915E+03     1.80247E+06         33.0343
             943     10.4248E-03     16.7613E-03     19.9769E-03     3.14718E-03    -23.7840E-03     3.09071E-03    -6.89779E-03     3.14718E-03    -1.94639E-03     110.474E-03    -53.8244E-03    -56.6578E-03    -56.4890E-03     110.305E-03    -53.8244E-03     10.0462E-03    -3.53068E+06    -34.5632E+06    -72.1786E+06    -34.8681E+06    -71.8737E+06    -3.53068E+06     2.77434E+06         32.0076
             944     9.47986E-03     16.7416E-03     21.2169E-03     2.67786E-03    -24.4181E-03     12.1044E-03    -15.3056E-03     2.67786E-03     419.215E-06     109.496E-03    -53.5542E-03    -55.8883E-03    -55.8071E-03     109.415E-03    -53.5542E-03     6.60556E-03    -5.57018E+06    -37.9542E+06    -113.480E+06    -38.1377E+06    -113.297E+06    -5.57018E+06     3.39467E+06         31.0866
             945     8.53346E-03     16.7260E-03     15.7256E-03     1.62818E-03    -17.5592E-03     11.8673E-03    -13.7010E-03     1.62818E-03     8.12121E-03     108.432E-03    -53.3497E-03    -55.0492E-03    -55.0117E-03     108.394E-03    -53.3497E-03     3.73275E-03    -9.42915E+06    -42.5456E+06    -146.153E+06    -42.6896E+06    -146.009E+06    -9.42915E+06      3.6512E+06         30.2866
             946     7.58684E-03     16.7122E-03     13.4445E-03     986.554E-06    -15.0341E-03     1.68485E-03    -3.27445E-03     986.554E-06     19.4361E-03     107.486E-03    -53.1920E-03    -54.3362E-03    -54.3192E-03     107.469E-03    -53.1920E-03     1.70118E-03    -13.1039E+06    -47.6635E+06    -175.659E+06    -47.8849E+06    -175.438E+06    -13.1039E+06     5.23796E+06         29.6198
             947     6.63952E-03     16.7013E-03     10.9182E-03     759.139E-06    -13.3306E-03    -1.93708E-03    -834.580E-06     1.11839E-03     14.0157E-03     106.767E-03    -53.0826E-03    -53.7744E-03    -53.7635E-03     106.756E-03    -53.0826E-03     695.080E-06    -15.5152E+06    -52.5937E+06    -202.079E+06    -52.8702E+06    -201.802E+06    -15.5152E+06     6.37174E+06         29.0831
             948     5.69171E-03     16.6920E-03     20.8526E-03     77.6385E-06    -21.7195E-03     10.6992E-03    -11.9253E-03     436.891E-06     3.99296E-03     106.162E-03    -52.9715E-03    -53.2675E-03    -53.2595E-03     106.154E-03    -52.9715E-03     266.407E-06    -23.7156E+06    -58.8012E+06    -221.246E+06    -59.0021E+06    -221.046E+06    -23.7156E+06     5.37272E+06         28.6583
             949     4.74341E-03     16.6822E-03     32.8773E-03    -2.62951E-03    -30.7374E-03     19.1755E-03    -17.0356E-03    -2.62951E-03     25.5335E-03     105.768E-03    -52.8526E-03    -52.9724E-03    -52.9190E-03     105.762E-03    -52.9001E-03     180.772E-06    -36.1047E+06    -66.5422E+06    -240.966E+06    -66.6474E+06    -240.861E+06    -36.1047E+06     3.83368E+06         28.3215
             950     3.79485E-03     16.6758E-03     39.0792E-03    -7.12653E-03    -30.1080E-03     11.2361E-03    -2.26487E-03    -7.12653E-03     8.32978E-03     105.536E-03    -52.7215E-03    -52.8217E-03    -52.7177E-03     105.532E-03    -52.8217E-03     163.168E-06    -49.6965E+06    -74.5308E+06    -261.721E+06    -74.5687E+06    -261.683E+06    -49.6965E+06     2.35982E+06         28.0589
             951     2.84628E-03     16.6699E-03     64.7647E-03    -6.31866E-03    -56.5673E-03    -25.2049E-03     33.4023E-03    -6.31866E-03     30.9503E-03     105.355E-03    -52.6266E-03    -52.7265E-03    -52.6246E-03     105.353E-03    -52.7265E-03     166.128E-06    -64.5675E+06    -81.5963E+06    -275.105E+06    -81.6082E+06    -275.093E+06    -64.5675E+06     777.409E+03         27.8709
             952     1.89738E-03     16.6652E-03     76.2635E-03    -6.47463E-03    -70.2666E-03    -53.4990E-03     39.5268E-03     13.4945E-03     26.6272E-03     105.241E-03    -52.5768E-03    -52.6695E-03    -52.5757E-03     105.240E-03    -52.6695E-03     124.335E-06    -78.5450E+06    -87.2118E+06    -282.383E+06    -87.2149E+06    -282.380E+06    -78.5450E+06    -80.7510E+03         27.7572
             953     948.483E-06     16.6635E-03     139.661E-03     39.6871E-03    -184.986E-03    -59.8944E-03    -65.8630E-03     120.120E-03     172.495E-03     105.231E-03    -52.4784E-03    -52.7580E-03    -52.7118E-03     105.231E-03    -52.5240E-03     176.467E-06    -88.3841E+06    -91.4058E+06    -286.587E+06    -91.1551E+06    -286.584E+06    -88.6385E+06     93.6933E+03         27.6996
             954     16.0937E-03     15.9291E-03     13.1922E-03    -266.556E-06    -18.0007E-03    -4.69462E-03    -113.920E-06    -266.556E-06    -18.3237E-03     115.438E-03    -54.9650E-03    -60.5784E-03    -56.2002E-03     111.308E-03    -55.2128E-03     46.4196E-03     159.724E+06     122.426E+06    -8.81553E+06    -8.80033E+06     159.709E+06     122.426E+06     437.174E+03         44.4333
             955     15.1502E-03     15.8439E-03     21.3442E-03     379.287E-06    -23.5194E-03    -15.4974E-03     13.3223E-03     379.287E-06    -27.1879E-03     117.664E-03    -55.0547E-03    -62.7364E-03    -57.7445E-03     112.672E-03    -55.0547E-03     56.7927E-03     155.976E+06     111.052E+06    -16.1452E+06    -16.0979E+06     155.929E+06     111.052E+06     717.221E+03         41.6899
             956     14.2063E-03     15.7958E-03     15.1241E-03     1.30913E-03    -17.7500E-03    -11.9075E-03     9.28164E-03     1.30913E-03    -8.50913E-03     115.824E-03    -54.6358E-03    -61.3528E-03    -58.6347E-03     113.106E-03    -54.6358E-03     43.3537E-03     154.329E+06     73.4592E+06    -20.9430E+06    -20.8882E+06     154.274E+06     73.4592E+06     1.54342E+06         38.6743
             957     13.2638E-03     15.7362E-03     14.7608E-03     1.59630E-03    -18.4060E-03     5.40708E-03    -9.05231E-03     1.59630E-03     14.6862E-03     115.293E-03    -54.0454E-03    -61.3913E-03    -59.2354E-03     113.137E-03    -54.0454E-03     37.5227E-03     133.425E+06     25.8004E+06    -25.1573E+06    -25.1460E+06     133.414E+06     25.8004E+06     779.041E+03         36.0787
             958     12.3221E-03     15.6953E-03     18.5698E-03     1.08892E-03    -21.2889E-03     10.3004E-03    -13.0195E-03     1.08892E-03     17.7902E-03     113.236E-03    -53.5895E-03    -59.8099E-03    -59.0495E-03     112.476E-03    -53.5895E-03     21.9650E-03     63.1298E+06     4.38873E+06    -29.3736E+06    -29.3658E+06     63.1221E+06     4.38873E+06     341.525E+03         34.1899
             959     11.3793E-03     15.6656E-03     13.6923E-03     772.859E-06    -15.5861E-03    -1.08103E-03    -812.723E-06     772.859E-06     12.9477E-03     111.699E-03    -53.2036E-03    -58.6268E-03    -58.3976E-03     111.469E-03    -53.2036E-03     10.9677E-03     4.86814E+06    -15.4504E+06    -40.4253E+06    -32.4412E+06    -17.9714E+06    -595.052E+03     1.69452E+06         32.8804
             960     10.4357E-03     15.6447E-03     14.9196E-03     891.517E-06    -16.2041E-03    -1.46512E-03     180.625E-06     891.517E-06     23.4149E-03     110.198E-03    -52.7731E-03    -57.4227E-03    -57.3776E-03     110.153E-03    -52.7731E-03     3.80600E-03    -4.78545E+06    -34.8973E+06    -72.7972E+06    -35.2820E+06    -72.4124E+06    -4.78545E+06     3.22592E+06         31.8343
             961     9.49092E-03     15.6275E-03     19.8612E-03     672.998E-06    -19.7677E-03     5.88969E-03    -5.79620E-03     672.998E-06     26.4371E-03     108.681E-03    -52.3279E-03    -56.2864E-03    -56.2619E-03     108.657E-03    -52.3279E-03     121.275E-06    -6.73470E+06    -38.8755E+06    -113.371E+06    -39.1445E+06    -113.102E+06    -6.73470E+06     4.32245E+06         30.8863
             962     8.54545E-03     15.6128E-03     15.8113E-03    -124.730E-06    -15.0309E-03     8.86763E-03    -8.08722E-03    -124.730E-06     9.32933E-03     107.034E-03    -51.9544E-03    -55.0375E-03    -55.0023E-03     106.999E-03    -51.9544E-03    -2.82371E-03    -10.2712E+06    -43.6249E+06    -146.304E+06    -43.9529E+06    -145.976E+06    -10.2712E+06     5.63333E+06         30.0558
             963     7.59837E-03     15.6005E-03     18.5769E-03    -1.59024E-03    -17.8920E-03     13.6341E-03    -12.9492E-03    -1.59024E-03     8.53512E-03     105.438E-03    -51.6406E-03    -53.8249E-03    -53.7735E-03     105.386E-03    -51.6406E-03    -4.51813E-03    -15.7511E+06    -48.8955E+06    -175.788E+06    -49.2206E+06    -175.463E+06    -15.7511E+06     6.15634E+06         29.3611
             964     6.65030E-03     15.5906E-03     19.8331E-03    -3.32180E-03    -16.9415E-03     7.35390E-03    -4.46228E-03    -3.32180E-03     12.1003E-03     104.148E-03    -51.4031E-03    -52.8161E-03    -52.7583E-03     104.090E-03    -51.4031E-03    -5.04981E-03    -19.2461E+06    -53.7454E+06    -200.610E+06    -53.9940E+06    -200.361E+06    -19.2461E+06     5.97384E+06         28.7996
             965     5.70134E-03     15.5821E-03     28.2566E-03    -3.53572E-03    -25.3704E-03    -10.4533E-03     13.3395E-03    -3.53572E-03    -9.20054E-03     103.172E-03    -51.2138E-03    -52.0218E-03    -51.9694E-03     103.119E-03    -51.2138E-03    -4.86126E-03    -25.4169E+06    -58.8348E+06    -219.183E+06    -59.0698E+06    -218.948E+06    -25.4169E+06     6.10452E+06         28.3565
             966     4.75178E-03     15.5737E-03     29.2037E-03    -2.63265E-03    -25.9763E-03    -2.95207E-03     6.52350E-03    -2.97661E-03    -4.63261E-03     102.469E-03    -51.0746E-03    -51.4510E-03    -51.3996E-03     102.429E-03    -51.0857E-03    -4.24183E-03    -36.6693E+06    -65.3074E+06    -238.548E+06    -65.5273E+06    -238.328E+06    -36.6693E+06     5.91271E+06         28.0102
             967     3.80171E-03     15.5673E-03     26.3502E-03    -3.99988E-03    -20.9205E-03     6.77268E-03    -998.975E-06    -4.34384E-03    -14.0967E-03     102.006E-03    -50.9448E-03    -51.0773E-03    -51.0263E-03     101.979E-03    -50.9687E-03    -3.43587E-03    -49.5986E+06    -72.8329E+06    -258.353E+06    -72.9582E+06    -258.228E+06    -49.5986E+06     4.30409E+06         27.7428
             968     2.85131E-03     15.5614E-03     39.6775E-03    -6.88634E-03    -32.6724E-03     412.890E-06     6.59221E-03    -6.88634E-03    -26.1525E-03     101.722E-03    -50.8176E-03    -50.9022E-03    -50.8594E-03     101.706E-03    -50.8446E-03    -2.56336E-03    -64.1485E+06    -80.3670E+06    -272.489E+06    -80.4025E+06    -272.454E+06    -64.1485E+06     2.09862E+06         27.5507
             969     1.90106E-03     15.5576E-03     62.0140E-03    -9.65000E-03    -53.0026E-03    -3.25319E-03     12.2646E-03    -9.65000E-03    -49.4876E-03     101.476E-03    -50.6925E-03    -50.7861E-03    -50.7290E-03     101.469E-03    -50.7423E-03    -1.70594E-03    -77.9700E+06    -86.7957E+06    -281.847E+06    -86.8082E+06    -281.835E+06    -77.9700E+06     819.022E+03         27.4327
             970     950.597E-06     15.5544E-03     134.224E-03     911.004E-06    -140.922E-03    -70.4801E-03     16.8724E-03     47.8210E-03     53.3575E-03     101.306E-03    -50.5095E-03    -50.8034E-03    -50.7661E-03     101.305E-03    -50.5450E-03    -786.102E-06    -87.9624E+06    -91.9498E+06    -286.048E+06    -91.2792E+06    -286.045E+06    -88.6365E+06     477.732E+03         27.3720
             971     16.0972E-03     14.8087E-03     11.9110E-03     320.236E-06    -15.3861E-03     6.15430E-03    -9.62942E-03     320.236E-06    -24.2917E-06     117.611E-03    -55.0966E-03    -62.5355E-03    -58.5305E-03     113.606E-03    -55.0966E-03     47.2997E-03     159.216E+06     123.104E+06    -6.67312E+06    -6.65284E+06     159.196E+06     123.104E+06     1.00540E+06         44.3781
             972     15.1540E-03     14.7240E-03     14.7938E-03     131.551E-06    -18.0786E-03     495.677E-06    -3.78051E-03     131.551E-06    -3.79645E-03     119.841E-03    -54.7027E-03    -65.2273E-03    -60.6004E-03     115.214E-03    -54.7027E-03     55.0694E-03     157.825E+06     108.343E+06    -14.3614E+06    -14.3447E+06     157.808E+06     108.343E+06     114.753E+03         41.6416
             973     14.2137E-03     14.6741E-03     13.1980E-03     487.897E-06    -16.7058E-03    -11.8597E-03     8.35195E-03     487.897E-06    -2.27727E-03     117.656E-03    -54.0605E-03    -63.7529E-03    -61.4598E-03     115.363E-03    -54.0605E-03     40.3552E-03     153.827E+06     68.5862E+06    -21.6811E+06    -21.6586E+06     153.805E+06     68.5862E+06    -92.7818E+03         38.6186
             974     13.2744E-03     14.6145E-03     13.9866E-03     1.07161E-03    -18.1244E-03    -5.32815E-03     1.19037E-03     1.07161E-03    -6.23773E-03     116.614E-03    -53.2978E-03    -63.4625E-03    -61.7530E-03     114.904E-03    -53.2978E-03     33.3755E-03     133.964E+06     25.3316E+06    -25.6018E+06    -25.5804E+06     133.943E+06     25.3316E+06     830.523E+03         35.9997
             975     12.3342E-03     14.5752E-03     20.4032E-03     726.642E-06    -23.3803E-03     15.2196E-03    -18.1967E-03     726.642E-06     3.73953E-03     114.131E-03    -52.6160E-03    -61.6964E-03    -61.2348E-03     113.670E-03    -52.6160E-03     16.6832E-03     64.1657E+06     4.81202E+06    -28.5691E+06    -28.5356E+06     64.1322E+06     4.81202E+06     1.36924E+06         34.0784
             976     11.3935E-03     14.5465E-03     18.2441E-03    -480.242E-06    -19.1646E-03     15.4685E-03    -16.3891E-03    -480.242E-06     1.34137E-03     112.189E-03    -51.9752E-03    -60.3037E-03    -60.2112E-03     112.097E-03    -51.9752E-03     4.75850E-03     3.34272E+06    -16.0193E+06    -40.2327E+06    -32.1406E+06    -19.1608E+06    -1.60784E+06     2.21108E+06         32.7341
             977     10.4513E-03     14.5287E-03     17.4614E-03    -1.21091E-03    -16.6242E-03     414.317E-06     422.863E-06    -1.21091E-03    -16.6237E-03     110.066E-03    -51.2803E-03    -58.7401E-03    -58.6986E-03     110.025E-03    -51.2803E-03    -3.16154E-03    -5.50651E+06    -35.0650E+06    -73.1594E+06    -35.5905E+06    -72.6339E+06    -5.50651E+06     3.88530E+06         31.6556
             978     9.50783E-03     14.5129E-03     16.7485E-03    -1.09750E-03    -15.3623E-03    -4.90401E-03     6.29018E-03    -1.09750E-03    -9.83657E-03     107.701E-03    -50.5913E-03    -57.0163E-03    -56.9073E-03     107.592E-03    -50.5913E-03    -7.31707E-03    -7.42220E+06    -38.8597E+06    -114.070E+06    -39.2926E+06    -113.637E+06    -7.42220E+06     5.58734E+06         30.6725
             979     8.56214E-03     14.5005E-03     10.7943E-03    -1.02744E-03    -9.30934E-03     1.08514E-03     399.781E-06    -1.02744E-03    -9.18846E-03     105.230E-03    -49.9876E-03    -55.1809E-03    -54.9859E-03     105.035E-03    -49.9876E-03    -10.3562E-03    -10.6831E+06    -42.8459E+06    -146.509E+06    -43.3162E+06    -146.038E+06    -10.6831E+06     6.79134E+06         29.8027
             980     7.61507E-03     14.4912E-03     19.1936E-03    -1.87527E-03    -15.8739E-03     9.86805E-03    -6.54832E-03    -1.87527E-03    -13.4218E-03     102.830E-03    -49.4590E-03    -53.3777E-03    -53.1300E-03     102.583E-03    -49.4590E-03    -11.7774E-03    -15.5626E+06    -47.1992E+06    -174.224E+06    -47.6548E+06    -173.768E+06    -15.5626E+06     7.31652E+06         29.0689
             981     6.66598E-03     14.4833E-03     19.8669E-03    -2.92622E-03    -15.3832E-03     1.75859E-03     2.72505E-03    -2.92622E-03    -5.39369E-03     100.753E-03    -49.0284E-03    -51.7722E-03    -51.5208E-03     100.501E-03    -49.0284E-03    -11.7969E-03    -20.9700E+06    -53.0837E+06    -198.438E+06    -53.4320E+06    -198.089E+06    -20.9700E+06     6.74926E+06         28.4692
             982     5.71564E-03     14.4752E-03     31.0044E-03    -2.30356E-03    -26.8366E-03    -13.4251E-03     17.5929E-03    -2.30356E-03    -42.3733E-03     99.1043E-03    -48.6913E-03    -50.4548E-03    -50.2329E-03     98.8824E-03    -48.6913E-03    -10.9695E-03    -27.7792E+06    -59.2964E+06    -218.487E+06    -59.5679E+06    -218.216E+06    -27.7792E+06     6.48119E+06         27.9930
             983     4.76415E-03     14.4690E-03     31.5244E-03     680.192E-06    -30.2832E-03    -16.4941E-03     18.0793E-03     336.231E-06    -39.3258E-03     97.8744E-03    -48.4545E-03    -49.4636E-03    -49.2923E-03     97.7031E-03    -48.4545E-03    -9.53504E-03    -37.6595E+06    -65.3983E+06    -236.486E+06    -65.7092E+06    -236.175E+06    -37.6595E+06     7.21531E+06         27.6236
             984     3.81202E-03     14.4625E-03     20.2763E-03     3.53658E-03    -21.9372E-03    -5.99745E-03     4.68059E-03     3.19262E-03    -5.48796E-03     96.9849E-03    -48.2459E-03    -48.7532E-03    -48.6375E-03     96.8693E-03    -48.2459E-03    -7.76058E-03    -49.9863E+06    -72.1572E+06    -253.933E+06    -72.3979E+06    -253.692E+06    -49.9863E+06     6.31124E+06         27.3388
             985     2.85943E-03     14.4584E-03     29.6418E-03     1.78474E-03    -29.4639E-03     17.2232E-03    -17.0454E-03     1.78474E-03     3.87772E-03     96.3918E-03    -48.0545E-03    -48.3273E-03    -48.2596E-03     96.3241E-03    -48.0545E-03    -5.89121E-03    -63.7840E+06    -79.1945E+06    -269.038E+06    -79.3010E+06    -268.932E+06    -63.7840E+06     4.05526E+06         27.1303
             986     1.90635E-03     14.4537E-03     50.5490E-03    -10.1530E-03    -42.5374E-03     27.3314E-03    -19.3198E-03    -10.1530E-03    -37.8693E-03     95.9099E-03    -47.8933E-03    -48.0141E-03    -47.9822E-03     95.8779E-03    -47.8933E-03    -3.93154E-03    -77.2533E+06    -85.3766E+06    -279.628E+06    -85.4158E+06    -279.588E+06    -77.2533E+06     2.38946E+06         26.9974
             987     953.270E-06     14.4517E-03     96.8694E-03     967.894E-06    -97.8537E-03    -39.9668E-03     38.9825E-03     967.894E-06     31.1648E-03     95.5600E-03    -47.7117E-03    -47.8553E-03    -47.8461E-03     95.5508E-03    -47.7117E-03    -1.90254E-03    -87.4925E+06    -91.0943E+06    -284.761E+06    -90.4402E+06    -284.741E+06    -88.1665E+06     1.32155E+06         26.9278
             988     16.0976E-03     13.6846E-03     12.6293E-03    -37.6799E-06    -13.7268E-03     9.46605E-03    -10.5635E-03    -37.6799E-06     15.6300E-03     120.612E-03    -54.9119E-03    -65.6096E-03    -61.6297E-03     116.632E-03    -54.9119E-03     49.2352E-03     158.171E+06     122.399E+06    -7.11839E+06    -7.09963E+06     158.152E+06     122.399E+06    -458.792E+03         44.3355
             989     15.1611E-03     13.5979E-03     9.15727E-03    -542.812E-06    -11.6290E-03     5.09417E-03    -7.56585E-03    -542.812E-06     14.3839E-03     122.676E-03    -54.3109E-03    -68.4291E-03    -64.0649E-03     118.312E-03    -54.3109E-03     54.1758E-03     157.498E+06     109.208E+06    -13.7322E+06    -13.6984E+06     157.464E+06     109.208E+06     965.429E+03         41.6127
             990     14.2237E-03     13.5505E-03     9.49871E-03    -613.486E-06    -13.1171E-03    -5.27145E-03     1.65309E-03    -613.486E-06     5.74595E-03     119.963E-03    -53.4195E-03    -66.7036E-03    -64.6740E-03     117.933E-03    -53.4195E-03     38.5828E-03     155.128E+06     69.3359E+06    -20.1551E+06    -20.1264E+06     155.100E+06     69.3359E+06     1.17162E+06         38.5844
             991     13.2865E-03     13.4903E-03     13.5903E-03    -68.9305E-06    -17.0974E-03    -12.6877E-03     9.18062E-03    -68.9305E-06    -9.27106E-03     118.459E-03    -52.3681E-03    -66.2787E-03    -64.8467E-03     117.026E-03    -52.3681E-03     30.4381E-03     133.678E+06     23.4412E+06    -25.8129E+06    -25.7841E+06     133.650E+06     23.4412E+06    -42.0445E+03         35.9452
             992     12.3496E-03     13.4534E-03     19.3005E-03     562.027E-06    -22.6901E-03    -5.49979E-03     2.11019E-03     562.027E-06    -9.03712E-03     115.589E-03    -51.3994E-03    -64.4653E-03    -64.1879E-03     115.312E-03    -51.3994E-03     11.9949E-03     64.1220E+06     4.99667E+06    -28.4364E+06    -28.2796E+06     63.9652E+06     4.99667E+06     1.51410E+06         33.9975
             993     11.4112E-03     13.4276E-03     22.7702E-03     383.322E-06    -24.7789E-03     10.2571E-03    -12.2659E-03     383.322E-06    -4.00764E-03     113.052E-03    -50.4416E-03    -62.7096E-03    -62.6407E-03     112.983E-03    -50.4416E-03    -1.31116E-03     4.02144E+06    -14.3435E+06    -40.4551E+06    -30.9683E+06    -19.0430E+06    -765.844E+03     3.52581E+06         32.6195
             994     10.4713E-03     13.4125E-03     25.2154E-03    -520.715E-06    -25.9851E-03     11.0494E-03    -11.8191E-03    -520.715E-06    -11.0484E-03     110.082E-03    -49.4193E-03    -60.5892E-03    -60.4165E-03     109.909E-03    -49.4193E-03    -9.99782E-03    -5.77111E+06    -34.0659E+06    -74.2729E+06    -34.7858E+06    -73.5531E+06    -5.77111E+06     4.83694E+06         31.5017
             995     9.52899E-03     13.4013E-03     19.8854E-03    -1.28758E-03    -19.8712E-03     3.99752E-03    -3.98330E-03    -1.28758E-03    -3.57609E-03     106.722E-03    -48.4135E-03    -58.2115E-03    -57.8655E-03     106.376E-03    -48.4135E-03    -14.5252E-03    -7.28260E+06    -37.8066E+06    -114.247E+06    -38.3859E+06    -113.668E+06    -7.28260E+06     6.43450E+06         30.4729
             996     8.58418E-03     13.3918E-03     15.3212E-03    -1.54786E-03    -14.3125E-03    -1.55604E-03     2.56478E-03    -1.54786E-03    -3.74037E-03     103.215E-03    -47.5033E-03    -55.6453E-03    -55.1249E-03     102.695E-03    -47.5033E-03    -17.7333E-03    -10.5612E+06    -41.6398E+06    -146.266E+06    -42.2152E+06    -145.691E+06    -10.5612E+06     7.53628E+06         29.5531
             997     7.63653E-03     13.3850E-03     21.9225E-03    -662.258E-06    -21.2437E-03    -14.9067E-03     15.5855E-03    -662.258E-06    -11.5688E-03     99.8562E-03    -46.6901E-03    -53.1433E-03    -52.5234E-03     99.2362E-03    -46.6901E-03    -19.0763E-03    -15.4038E+06    -46.1723E+06    -172.818E+06    -46.7369E+06    -172.253E+06    -15.4038E+06     8.17455E+06         28.7712
             998     6.68665E-03     13.3802E-03     23.3611E-03     725.470E-06    -22.9686E-03    -6.20171E-03     6.59423E-03     725.470E-06    -6.59374E-03     96.8201E-03    -45.9889E-03    -50.8378E-03    -50.2174E-03     96.1996E-03    -45.9889E-03    -18.7321E-03    -20.0973E+06    -51.1020E+06    -195.857E+06    -51.6332E+06    -195.326E+06    -20.0973E+06     8.39256E+06         28.1249
             999     5.73468E-03     13.3747E-03     26.4917E-03     698.420E-06    -24.5778E-03     7.12953E-03    -5.21570E-03     698.420E-06    -6.18367E-03     94.1789E-03    -45.4170E-03    -48.7805E-03    -48.2318E-03     93.6301E-03    -45.4170E-03    -17.3031E-03    -27.5508E+06    -57.6465E+06    -217.216E+06    -58.1069E+06    -216.756E+06    -27.5508E+06     8.24246E+06         27.6011
            1000     4.78092E-03     13.3698E-03     24.2766E-03     926.548E-06    -22.6128E-03    -6.66762E-03     8.33141E-03     926.548E-06     936.281E-06     92.0449E-03    -44.9846E-03    -47.0925E-03    -46.6651E-03     91.6175E-03    -44.9846E-03    -15.0233E-03    -37.9375E+06    -64.5572E+06    -234.887E+06    -64.9547E+06    -234.490E+06    -37.9375E+06     8.16323E+06         27.1873
            1001     3.82600E-03     13.3662E-03     25.4261E-03     1.25841E-03    -22.9392E-03     4.55512E-03    -2.06827E-03     1.25841E-03     8.85056E-03     90.4454E-03    -44.6220E-03    -45.8271E-03    -45.5349E-03     90.1532E-03    -44.6220E-03    -12.2380E-03    -50.6360E+06    -70.9928E+06    -249.740E+06    -71.3404E+06    -249.393E+06    -50.6360E+06     7.78535E+06         26.8667
            1002     2.87016E-03     13.3614E-03     34.1553E-03    -3.37511E-03    -27.0676E-03     21.7789E-03    -14.6912E-03    -3.37511E-03     29.8920E-03     89.3315E-03    -44.3325E-03    -44.9797E-03    -44.8074E-03     89.1593E-03    -44.3325E-03    -9.26681E-03    -63.4802E+06    -77.3912E+06    -264.799E+06    -77.6117E+06    -264.578E+06    -63.4802E+06     6.12377E+06         26.6292
            1003     1.91382E-03     13.3582E-03     48.8617E-03    -10.7266E-03    -34.7769E-03     1.79790E-03     12.2870E-03    -10.7266E-03     24.5461E-03     88.5003E-03    -44.1044E-03    -44.3894E-03    -44.3074E-03     88.4183E-03    -44.1044E-03    -6.26639E-03    -75.8039E+06    -83.5905E+06    -275.835E+06    -83.7041E+06    -275.721E+06    -75.8039E+06     4.38222E+06         26.4707
            1004     956.853E-06     13.3565E-03     79.7418E-03     16.7702E-03    -95.6989E-03    -44.5100E-03     28.5529E-03     16.7702E-03     112.889E-03     87.9588E-03    -43.8846E-03    -44.0755E-03    -44.0498E-03     87.9332E-03    -43.8846E-03    -3.23715E-03    -84.9594E+06    -89.6237E+06    -280.743E+06    -87.8371E+06    -280.682E+06    -86.8078E+06     3.02364E+06         26.3825
            1005     16.1035E-03     12.5573E-03     10.7505E-03    -710.403E-06    -10.3500E-03     1.50774E-03    -1.10727E-03    -710.403E-06     2.53721E-03     123.931E-03    -54.6911E-03    -69.0769E-03    -65.1212E-03     119.975E-03    -54.6911E-03     50.8638E-03     158.624E+06     122.842E+06    -9.28574E+06    -9.27072E+06     158.609E+06     122.842E+06    -471.172E+03         44.2977
            1006     15.1673E-03     12.4698E-03     5.51973E-03    -890.790E-06    -7.48636E-03     2.86539E-03    -4.83202E-03    -890.790E-06     3.84604E-03     125.389E-03    -53.9301E-03    -71.4724E-03    -67.2961E-03     121.213E-03    -53.9301E-03     53.7369E-03     156.046E+06     111.513E+06    -15.9664E+06    -15.9030E+06     155.983E+06     111.513E+06    -820.188E+03         41.5910
            1007     14.2331E-03     12.4214E-03     8.86956E-03    -1.26482E-03    -10.4097E-03     6.47766E-03    -8.01777E-03    -1.26482E-03     4.22120E-03     122.713E-03    -52.7858E-03    -70.0650E-03    -68.2361E-03     120.884E-03    -52.7858E-03     37.2703E-03     155.153E+06     74.2908E+06    -20.0908E+06    -20.0297E+06     155.092E+06     74.2908E+06    -364.146E+03         38.5604
            1008     13.3003E-03     12.3645E-03     12.8431E-03    -1.54009E-03    -14.0443E-03    -1.88743E-03     686.234E-06    -1.54009E-03     4.72731E-03     120.924E-03    -51.3582E-03    -69.7497E-03    -68.5455E-03     119.720E-03    -51.3582E-03     27.9403E-03     134.184E+06     26.1605E+06    -23.2301E+06    -23.1812E+06     134.135E+06     26.1605E+06     510.240E+03         35.9119
            1009     12.3666E-03     12.3283E-03     17.4282E-03    -1.01565E-03    -18.8161E-03    -15.9944E-03     14.6065E-03    -1.01565E-03     5.18535E-03     117.610E-03    -50.0300E-03    -67.9081E-03    -67.7250E-03     117.427E-03    -50.0300E-03     7.95523E-03     62.8215E+06     4.20933E+06    -27.4590E+06    -27.2784E+06     62.6410E+06     4.20933E+06     2.02088E+06         33.9526
            1010     11.4320E-03     12.3066E-03     20.4150E-03    -419.328E-06    -21.6511E-03    -2.33450E-03     1.09849E-03    -419.328E-06     13.0507E-03     114.170E-03    -48.7071E-03    -65.5918E-03    -65.4674E-03     114.046E-03    -48.7071E-03    -6.61421E-03     3.53694E+06    -13.7810E+06    -40.9915E+06    -30.8517E+06    -19.3448E+06    -1.03907E+06     4.60646E+06         32.5504
            1011     10.4940E-03     12.2971E-03     24.1720E-03    -1.15000E-03    -23.8359E-03     16.2867E-03    -15.9506E-03    -1.15000E-03     31.9022E-03     110.165E-03    -47.3256E-03    -62.7633E-03    -62.3864E-03     109.788E-03    -47.3256E-03    -15.6526E-03    -5.25721E+06    -32.6662E+06    -74.7021E+06    -34.1195E+06    -73.2488E+06    -5.25721E+06     6.07051E+06         31.3935
            1012     9.55329E-03     12.2895E-03     23.0340E-03    -2.40776E-03    -20.9957E-03     6.93235E-03    -4.89405E-03    -2.40776E-03     22.6436E-03     105.838E-03    -45.9687E-03    -59.7851E-03    -59.1165E-03     105.169E-03    -45.9687E-03    -20.6567E-03    -6.21676E+06    -36.8672E+06    -114.319E+06    -37.5282E+06    -113.658E+06    -6.21676E+06     6.93554E+06         30.3162
            1013     8.60902E-03     12.2858E-03     23.1169E-03    -2.28388E-03    -21.1298E-03    -13.1115E-03     15.0986E-03    -2.28388E-03     10.8163E-03     101.283E-03    -44.6986E-03    -56.5246E-03    -55.5839E-03     100.342E-03    -44.6986E-03    -24.0443E-03    -9.16166E+06    -40.5502E+06    -145.656E+06    -41.2062E+06    -145.000E+06    -9.16166E+06     8.07187E+06         29.3439
            1014     7.66163E-03     12.2841E-03     24.8582E-03    -631.037E-06    -24.8638E-03    -17.7160E-03     17.7103E-03    -631.037E-06     8.94332E-03     96.7854E-03    -43.5407E-03    -53.2039E-03    -52.1177E-03     95.6992E-03    -43.5407E-03    -25.2505E-03    -13.7965E+06    -44.6676E+06    -171.662E+06    -45.3275E+06    -171.002E+06    -13.7965E+06     8.84966E+06         28.5074
            1015     6.71089E-03     12.2824E-03     21.4256E-03     521.317E-06    -22.6964E-03    -755.474E-06    -515.307E-06     521.317E-06    -752.219E-06     92.5589E-03    -42.5045E-03    -50.0359E-03    -48.9565E-03     91.4795E-03    -42.5045E-03    -24.5472E-03    -18.3404E+06    -49.7892E+06    -194.263E+06    -50.4522E+06    -193.600E+06    -18.3404E+06     9.50550E+06         27.8072
            1016     5.75730E-03     12.2811E-03     24.1737E-03    -384.041E-06    -23.8949E-03     11.6053E-03    -11.3265E-03    -384.041E-06     22.5736E-03     88.7578E-03    -41.6195E-03    -47.1322E-03    -46.1733E-03     87.7989E-03    -41.6195E-03    -22.5655E-03    -25.1401E+06    -55.1002E+06    -214.853E+06    -55.7195E+06    -214.233E+06    -25.1401E+06     9.73985E+06         27.2263
            1017     4.80117E-03     12.2786E-03     27.7223E-03    -3.17997E-03    -23.3904E-03     14.8230E-03    -10.4912E-03    -3.17997E-03     12.7964E-03     85.5019E-03    -40.9131E-03    -44.5847E-03    -43.8271E-03     84.7443E-03    -40.9131E-03    -19.5817E-03    -35.5201E+06    -61.1237E+06    -232.688E+06    -61.6718E+06    -232.140E+06    -35.5201E+06     9.56495E+06         26.7508
            1018     3.84296E-03     12.2769E-03     35.1152E-03    -6.23347E-03    -26.8179E-03     3.72969E-03     4.56756E-03    -6.23347E-03    -873.141E-06     82.8696E-03    -40.3361E-03    -42.5130E-03    -41.9836E-03     82.3402E-03    -40.3361E-03    -16.0155E-03    -48.0994E+06    -67.5885E+06    -245.923E+06    -68.0637E+06    -245.448E+06    -48.0994E+06     9.11723E+06         26.3760
            1019     2.88334E-03     12.2739E-03     44.3303E-03    -7.47461E-03    -32.1564E-03    -7.61330E-03     19.7873E-03    -7.47461E-03     3.33204E-03     80.9826E-03    -39.8960E-03    -41.0663E-03    -40.7471E-03     80.6634E-03    -39.8960E-03    -12.1801E-03    -60.9791E+06    -73.6395E+06    -259.946E+06    -73.9953E+06    -259.590E+06    -60.9791E+06     7.99110E+06         26.0963
            1020     1.92260E-03     12.2713E-03     46.0003E-03    -9.06735E-03    -33.3366E-03    -2.61714E-03     15.2809E-03    -9.06735E-03     8.53572E-03     79.6834E-03    -39.5588E-03    -40.1170E-03    -39.9649E-03     79.5313E-03    -39.5588E-03    -8.20076E-03    -72.1945E+06    -79.1488E+06    -270.807E+06    -79.3409E+06    -270.615E+06    -72.1945E+06     5.90509E+06         25.9032
            1021     961.716E-06     12.2702E-03     64.3620E-03     9.70030E-03    -72.2412E-03    -31.0614E-03     23.1823E-03     9.70030E-03     96.8055E-03     78.8151E-03    -39.2575E-03    -39.5564E-03    -39.5077E-03     78.7664E-03    -39.2575E-03    -4.38071E-03    -78.2263E+06    -84.2982E+06    -274.080E+06    -82.5331E+06    -273.997E+06    -80.0746E+06     3.59004E+06         25.7885
            1022     16.1065E-03     11.4265E-03     12.5938E-03    -1.37317E-03    -14.3197E-03    -12.0077E-03     10.2818E-03    -1.37317E-03     3.03101E-03     127.289E-03    -54.4540E-03    -72.7400E-03    -68.7850E-03     123.333E-03    -54.4540E-03     52.3882E-03     159.352E+06     125.636E+06    -6.33025E+06    -6.32032E+06     159.342E+06     125.636E+06     231.175E+03         44.2506
            1023     15.1747E-03     11.3392E-03     11.0917E-03    -1.20852E-03    -11.3478E-03     1.87669E-03    -2.13281E-03    -1.20852E-03     3.07613E-03     128.052E-03    -53.4516E-03    -74.7362E-03    -70.7297E-03     124.046E-03    -53.4516E-03     53.2266E-03     157.790E+06     112.636E+06    -13.7454E+06    -13.6976E+06     157.743E+06     112.636E+06    -1.81827E+06         41.5642
            1024     14.2442E-03     11.2900E-03     12.3207E-03    -1.75675E-03    -11.3432E-03     10.9797E-03    -10.0022E-03    -1.75675E-03     6.52602E-03     125.304E-03    -52.0298E-03    -73.4117E-03    -71.7835E-03     123.676E-03    -52.0298E-03     35.7687E-03     153.542E+06     71.9557E+06    -21.7933E+06    -21.7376E+06     153.487E+06     71.9557E+06    -2.82142E+06         38.5380
            1025     13.3140E-03     11.2348E-03     13.0643E-03    -2.57536E-03    -11.4613E-03     8.17967E-03    -6.57663E-03    -2.57536E-03     12.7934E-03     123.300E-03    -50.2889E-03    -73.1604E-03    -72.1375E-03     122.277E-03    -50.2889E-03     25.7720E-03     131.740E+06     23.4786E+06    -26.2979E+06    -26.2538E+06     131.696E+06     23.4786E+06    -89.8569E+03         35.8923
            1026     12.3847E-03     11.2003E-03     16.3366E-03    -3.19675E-03    -13.4583E-03     2.57160E-03     306.626E-06    -3.19675E-03     5.75065E-03     119.428E-03    -48.6359E-03    -71.0783E-03    -70.9368E-03     119.286E-03    -48.6359E-03     4.73669E-03     61.9593E+06     3.11425E+06    -29.5177E+06    -29.0668E+06     61.5084E+06     3.11425E+06     3.66182E+06         33.9379
            1027     11.4522E-03     11.1848E-03     23.0182E-03    -3.35542E-03    -19.6944E-03    -5.57329E-03     8.89708E-03    -3.35542E-03    -3.97241E-03     115.187E-03    -46.9710E-03    -68.3192E-03    -68.1107E-03     114.979E-03    -46.9710E-03    -10.5326E-03     3.14711E+06    -14.4616E+06    -41.0862E+06    -32.3028E+06    -19.4762E+06    -621.710E+03     5.40908E+06         32.5245
            1028     10.5169E-03     11.1800E-03     30.9538E-03    -3.04348E-03    -27.7086E-03    -8.53806E-03     11.7832E-03    -3.04348E-03     18.2080E-03     110.325E-03    -45.2327E-03    -65.0072E-03    -64.4412E-03     109.759E-03    -45.2327E-03    -19.5428E-03    -3.99438E+06    -33.5231E+06    -73.7412E+06    -35.0812E+06    -72.1831E+06    -3.99438E+06     6.29987E+06         31.3390
            1029     9.57768E-03     11.1792E-03     26.4304E-03    -2.55078E-03    -23.2349E-03    -7.81502E-03     11.0105E-03    -2.55078E-03     10.5932E-03     104.978E-03    -43.5276E-03    -61.3879E-03    -60.4450E-03     104.035E-03    -43.5276E-03    -24.7581E-03    -4.25279E+06    -37.2857E+06    -113.852E+06    -38.0290E+06    -113.108E+06    -4.25279E+06     7.04138E+06         30.2251
            1030     8.63485E-03     11.1822E-03     22.6842E-03    -2.13938E-03    -20.8932E-03    -5.01309E-03     6.80411E-03    -2.13938E-03     1.03623E-03     99.3680E-03    -41.8909E-03    -57.4402E-03    -56.1704E-03     98.0982E-03    -41.8909E-03    -28.0161E-03    -6.63999E+06    -40.5776E+06    -144.864E+06    -41.1696E+06    -144.272E+06    -6.63999E+06     7.59010E+06         29.2110
            1031     7.68729E-03     11.1859E-03     22.5355E-03    -2.34725E-03    -21.3734E-03     3.57275E-03    -2.41061E-03    -2.34725E-03     2.19934E-03     93.7743E-03    -40.3702E-03    -53.3697E-03    -51.9313E-03     92.3359E-03    -40.3702E-03    -28.9124E-03    -10.7516E+06    -43.7242E+06    -171.003E+06    -44.3555E+06    -170.371E+06    -10.7516E+06     8.70108E+06         28.3238
            1032     6.73592E-03     11.1900E-03     16.3015E-03    -2.63212E-03    -15.9764E-03    -3.71716E-03     4.04223E-03    -2.63212E-03    -5.09359E-03     88.3505E-03    -38.9813E-03    -49.3545E-03    -47.9197E-03     86.9157E-03    -38.9813E-03    -27.9275E-03    -14.6271E+06    -47.1840E+06    -192.627E+06    -47.8405E+06    -191.970E+06    -14.6271E+06     9.50445E+06         27.5665
            1033     5.78069E-03     11.1943E-03     21.9517E-03    -2.42923E-03    -22.3778E-03    -3.94872E-03     3.52265E-03    -2.42923E-03     964.018E-06     83.3635E-03    -37.7487E-03    -45.5926E-03    -44.3062E-03     82.0771E-03    -37.7487E-03    -25.5751E-03    -20.6068E+06    -51.8506E+06    -212.781E+06    -52.4781E+06    -212.153E+06    -20.6068E+06     9.89621E+06         26.9274
            1034     4.82223E-03     11.1961E-03     28.8904E-03    -3.56372E-03    -27.5061E-03     9.01776E-03    -7.63351E-03    -3.56372E-03    -17.3744E-03     78.9580E-03    -36.7374E-03    -42.2078E-03    -41.1753E-03     77.9255E-03    -36.7374E-03    -22.1840E-03    -29.8348E+06    -57.1257E+06    -230.146E+06    -57.7607E+06    -229.511E+06    -29.8348E+06     10.3531E+06         26.3942
            1035     3.86102E-03     11.1968E-03     31.6466E-03    -4.40251E-03    -27.1733E-03    -7.78138E-03     12.2547E-03    -4.40251E-03    -19.5052E-03     75.1874E-03    -35.8914E-03    -39.2855E-03    -38.5501E-03     74.4519E-03    -35.8914E-03    -18.1635E-03    -41.5811E+06    -62.7655E+06    -242.057E+06    -63.3460E+06    -241.476E+06    -41.5811E+06     10.1125E+06         25.9668
            1036     2.89744E-03     11.1962E-03     34.4012E-03    -380.975E-06    -32.3241E-03    -21.9966E-03     24.0738E-03    -380.975E-06    -37.7258E-03     72.3239E-03    -35.2348E-03    -37.0873E-03    -36.6371E-03     71.8737E-03    -35.2348E-03    -13.8092E-03    -54.0116E+06    -68.4455E+06    -254.449E+06    -68.8697E+06    -254.025E+06    -54.0116E+06     8.78139E+06         25.6438
            1037     1.93254E-03     11.1956E-03     32.3163E-03     8.42871E-03    -39.5306E-03    -12.3594E-03     5.14509E-03     8.42871E-03    -18.4355E-03     70.3246E-03    -34.7558E-03    -35.5678E-03    -35.3524E-03     70.1092E-03    -34.7558E-03    -9.25418E-03    -65.6098E+06    -72.9195E+06    -264.069E+06    -73.1496E+06    -263.839E+06    -65.6098E+06     6.42136E+06         25.4180
            1038     966.321E-06     11.1944E-03     47.6684E-03     18.4048E-03    -66.3087E-03     1.43491E-03    -27.5507E-03     25.8803E-03     33.5410E-03     69.1327E-03    -34.3582E-03    -34.7725E-03    -34.7035E-03     69.0637E-03    -34.3582E-03    -4.93445E-03    -71.8008E+06    -77.5561E+06    -267.776E+06    -75.7676E+06    -267.712E+06    -73.6540E+06     2.82169E+06         25.2816
            1039     16.1107E-03     10.2911E-03     22.2540E-03    -2.05738E-03    -21.9264E-03    -1.91932E-03     2.24691E-03    -2.05738E-03     2.02236E-03     130.831E-03    -54.2149E-03    -76.7244E-03    -72.8163E-03     126.923E-03    -54.2149E-03     53.3464E-03     160.341E+06     127.359E+06    -6.00099E+06    -5.98834E+06     160.328E+06     127.359E+06    -923.396E+03         44.1748
            1040     15.1828E-03     10.2024E-03     20.1631E-03    -2.01844E-03    -16.8176E-03    -4.94249E-03     8.28794E-03    -2.01844E-03    -11.5458E-03     130.897E-03    -52.9652E-03    -78.1445E-03    -74.2525E-03     127.005E-03    -52.9652E-03     53.2860E-03     159.531E+06     113.315E+06    -13.8474E+06    -13.8340E+06     159.517E+06     113.315E+06    -1.44437E+06         41.5114
            1041     14.2547E-03     10.1562E-03     13.7099E-03    -2.11966E-03    -10.4488E-03     2.74770E-03     513.405E-06    -2.11966E-03    -3.89959E-03     127.802E-03    -51.2660E-03    -76.6661E-03    -75.1332E-03     126.269E-03    -51.2660E-03     35.2437E-03     152.894E+06     69.7886E+06    -22.2556E+06    -22.2344E+06     152.873E+06     69.7886E+06    -856.262E+03         38.4965
            1042     13.3288E-03     10.1010E-03     13.1602E-03    -2.76760E-03    -9.54932E-03     11.3662E-03    -7.75532E-03    -2.76760E-03    -729.607E-06     124.972E-03    -49.2559E-03    -75.8586E-03    -74.9399E-03     124.054E-03    -49.2559E-03     24.3664E-03     128.037E+06     19.9365E+06    -29.2591E+06    -29.2213E+06     128.000E+06     19.9365E+06     643.996E+03         35.8626
            1043     12.4007E-03     10.0722E-03     13.7461E-03    -2.76893E-03    -10.6904E-03     12.0715E-03    -7.93607E-03    -3.84865E-03    -6.33016E-03     120.320E-03    -47.3577E-03    -73.2291E-03    -73.1040E-03     120.195E-03    -47.3577E-03     2.68205E-03     59.9592E+06     1.98835E+06    -33.4668E+06    -33.0423E+06     59.5347E+06     1.98835E+06     3.29205E+06         33.9258
            1044     11.4708E-03     10.0626E-03     19.6649E-03    -3.35459E-03    -15.2752E-03    -4.60649E-03     10.0758E-03    -4.43431E-03    -18.4933E-03     115.458E-03    -45.4493E-03    -70.1410E-03    -69.8874E-03     115.204E-03    -45.4493E-03    -12.3770E-03     4.82064E+06    -14.9464E+06    -42.5169E+06    -34.8051E+06    -18.3708E+06     533.292E+03     5.22059E+06         32.5193
            1045     10.5371E-03     10.0650E-03     31.3445E-03    -3.63031E-03    -26.3749E-03    -21.4978E-03     26.4674E-03    -3.63031E-03     3.04119E-03     109.971E-03    -43.4559E-03    -66.4359E-03    -65.8224E-03     109.357E-03    -43.4559E-03    -20.5198E-03    -1.57527E+06    -35.1243E+06    -73.0289E+06    -36.9743E+06    -71.1790E+06    -1.57527E+06     5.60902E+06         31.3292
            1046     9.59938E-03     10.0705E-03     24.3046E-03    -2.24105E-03    -20.8583E-03    -14.2289E-03     17.6752E-03    -2.24105E-03     17.0773E-03     103.824E-03    -41.4790E-03    -62.2839E-03    -61.3171E-03     102.857E-03    -41.4790E-03    -25.0892E-03    -850.333E+03    -38.5124E+06    -112.635E+06    -39.0730E+06    -112.075E+06    -850.333E+03     5.70484E+06         30.2063
            1047     8.65661E-03     10.0810E-03     14.8986E-03    -2.02044E-03    -12.6887E-03     4.91720E-03    -2.70734E-03    -2.02044E-03    -1.02181E-03     97.3803E-03    -39.5387E-03    -57.8329E-03    -56.5722E-03     96.1196E-03    -39.5387E-03    -27.7856E-03    -2.22620E+06    -40.7600E+06    -143.823E+06    -41.1791E+06    -143.403E+06    -2.22620E+06     6.12854E+06         29.1768
            1048     7.70936E-03     10.0920E-03     14.6854E-03    -3.12616E-03    -13.5184E-03     8.73301E-03    -7.56601E-03    -3.12616E-03    -12.5578E-03     91.0173E-03    -37.7064E-03    -53.2954E-03    -51.8913E-03     89.6132E-03    -37.7064E-03    -28.2853E-03    -6.09355E+06    -43.0824E+06    -170.526E+06    -43.4874E+06    -170.121E+06    -6.09355E+06     6.76592E+06         28.2619
            1049     6.75764E-03     10.1028E-03     16.8772E-03    -4.21430E-03    -15.9568E-03     863.448E-06     56.9366E-06    -4.21430E-03    -6.37517E-03     84.7546E-03    -36.0194E-03    -48.7181E-03    -47.3113E-03     83.3478E-03    -36.0194E-03    -27.2294E-03    -9.25584E+06    -45.7979E+06    -191.539E+06    -46.2443E+06    -191.093E+06    -9.25584E+06     7.81145E+06         27.4631
            1050     5.80123E-03     10.1120E-03     23.1625E-03    -4.26454E-03    -24.0621E-03    -7.78210E-03     6.88248E-03    -4.26454E-03    -3.12092E-03     78.7831E-03    -34.4832E-03    -44.2769E-03    -43.0008E-03     77.5070E-03    -34.4832E-03    -24.9064E-03    -13.2708E+06    -49.1903E+06    -211.032E+06    -49.6898E+06    -210.533E+06    -13.2708E+06     8.73633E+06         26.7809
            1051     4.84095E-03     10.1200E-03     26.2991E-03    -2.77113E-03    -28.3796E-03    -14.5534E-03     12.4728E-03    -2.77113E-03     9.94385E-03     73.3515E-03    -33.1713E-03    -40.1968E-03    -39.1558E-03     72.3105E-03    -33.1713E-03    -21.6094E-03    -20.9656E+06    -53.5893E+06    -227.750E+06    -54.0927E+06    -227.247E+06    -20.9656E+06     9.15715E+06         26.2144
            1052     3.87710E-03     10.1245E-03     26.6562E-03    -884.689E-06    -29.5114E-03    -6.34783E-03     3.49266E-03    -884.689E-06     32.6011E-03     68.6031E-03    -32.0438E-03    -36.5903E-03    -35.8364E-03     67.8492E-03    -32.0438E-03    -17.6799E-03    -31.3229E+06    -57.8946E+06    -238.281E+06    -58.3513E+06    -237.824E+06    -31.3229E+06     8.83463E+06         25.7621
            1053     2.91048E-03     10.1280E-03     27.4476E-03     74.0662E-06    -30.2787E-03    -1.34200E-03    -1.48908E-03     74.0662E-06     20.7449E-03     64.8102E-03    -31.1374E-03    -33.6958E-03    -33.2296E-03     64.3440E-03    -31.1374E-03    -13.3978E-03    -43.4353E+06    -62.0151E+06    -248.933E+06    -62.3383E+06    -248.610E+06    -43.4353E+06     7.59136E+06         25.4200
            1054     1.94134E-03     10.1292E-03     34.1134E-03     5.50273E-03    -40.7049E-03    -15.0952E-03     8.50366E-03     5.50273E-03     49.3575E-03     62.0533E-03    -30.4653E-03    -31.5892E-03    -31.3615E-03     61.8255E-03    -30.4653E-03    -8.99983E-03    -56.0435E+06    -65.4306E+06    -257.313E+06    -65.5990E+06    -257.145E+06    -56.0435E+06     5.28699E+06         25.1808
            1055     971.056E-06     10.1302E-03     47.0780E-03     21.6552E-03    -74.0433E-03    -10.8559E-03    -26.6592E-03     32.2050E-03     36.2570E-03     60.4096E-03    -29.9560E-03    -30.4485E-03    -30.3748E-03     60.3360E-03    -29.9560E-03    -4.78082E-03    -63.5484E+06    -69.5012E+06    -261.758E+06    -67.7004E+06    -261.706E+06    -65.4016E+06     2.90337E+06         25.0364
            1056     16.1151E-03     9.15257E-03     26.8031E-03    -1.68783E-03    -20.4795E-03     11.2939E-03    -4.97027E-03    -1.68783E-03    -4.42228E-03     134.524E-03    -54.0225E-03    -80.6967E-03    -76.7383E-03     130.565E-03    -54.0225E-03     54.5100E-03     161.013E+06     128.432E+06    -6.72291E+06    -6.70510E+06     160.995E+06     128.432E+06    -1.18434E+06         44.0505
            1057     15.1886E-03     9.06534E-03     21.5486E-03    -2.11757E-03    -16.7354E-03     1.72886E-03     3.08430E-03    -2.11757E-03    -28.1737E-03     134.051E-03    -52.5337E-03    -81.6240E-03    -77.6902E-03     130.117E-03    -52.5337E-03     54.2432E-03     158.558E+06     112.823E+06    -15.8306E+06    -15.8224E+06     158.550E+06     112.823E+06    -13.6812E+03         41.4081
            1058     14.2652E-03     9.01796E-03     14.8950E-03    -2.15559E-03    -10.6322E-03    -3.72813E-03     7.99095E-03    -2.15559E-03    -14.0411E-03     129.691E-03    -50.6273E-03    -79.1952E-03    -77.6697E-03     128.165E-03    -50.6273E-03     35.5061E-03     151.670E+06     70.3008E+06    -24.7006E+06    -24.6784E+06     151.648E+06     70.3008E+06     1.42837E+06         38.4087
            1059     13.3403E-03     8.96718E-03     16.2903E-03    -2.23941E-03    -12.5261E-03     1.87942E-03     1.88477E-03    -2.23941E-03    -16.8768E-03     125.515E-03    -48.4646E-03    -77.2559E-03    -76.3099E-03     124.569E-03    -48.4646E-03     25.0190E-03     127.463E+06     23.1305E+06    -30.2381E+06    -30.1988E+06     127.424E+06     23.1305E+06     2.07388E+06         35.7890
            1060     12.4142E-03     8.94290E-03     15.3272E-03    -1.63584E-03    -12.2341E-03     6.58190E-03    -2.40910E-03    -2.71556E-03    -16.7900E-03     119.871E-03    -46.4495E-03    -73.7320E-03    -73.6023E-03     119.742E-03    -46.4495E-03     3.53724E-03     59.2913E+06     5.12264E+06    -33.6022E+06    -33.3686E+06     58.4420E+06     5.73841E+06     2.58615E+06         33.8734
            1061     11.4841E-03     8.94031E-03     11.8183E-03    -2.20115E-03    -8.26711E-03     2.22245E-03     2.40846E-03    -3.28087E-03    -5.06640E-03     114.168E-03    -44.4418E-03    -69.9173E-03    -69.7420E-03     113.993E-03    -44.4418E-03    -10.0669E-03     7.14908E+06    -14.2846E+06     -41.435E+06    -35.8021E+06    -17.7949E+06     5.02646E+06     3.57348E+06         32.4964
            1062     10.5502E-03     8.94865E-03     16.0459E-03    -2.68809E-03    -11.4572E-03    -4.11679E-03     9.49551E-03    -3.47816E-03     7.20500E-03     108.332E-03    -42.3782E-03    -65.8694E-03    -65.4629E-03     107.925E-03    -42.3782E-03    -16.2522E-03     4.27449E+06    -35.6306E+06    -71.2008E+06    -37.1131E+06    -69.7183E+06     4.27449E+06     3.36486E+06         31.3414
            1063     9.61204E-03     8.96358E-03     16.7737E-03    -2.63751E-03    -12.5089E-03    -3.73336E-03     8.78829E-03    -3.42758E-03     7.46136E-03     102.105E-03    -40.3413E-03    -61.6478E-03    -61.0275E-03     101.485E-03    -40.3413E-03    -19.5352E-03     5.48004E+06    -38.4290E+06    -111.556E+06    -38.6565E+06    -111.328E+06     5.48004E+06     3.31755E+06         30.2548
            1064     8.66949E-03     8.98090E-03     13.1132E-03    -3.44975E-03    -9.26576E-03    -2.31906E-03     6.16650E-03    -3.44975E-03    -166.303E-06     95.4929E-03    -38.3015E-03    -57.1920E-03    -56.4077E-03     94.7086E-03    -38.3015E-03    -21.1964E-03     4.84940E+06    -40.7440E+06    -142.719E+06    -40.9250E+06    -142.538E+06     4.84940E+06     3.37377E+06         29.2542
            1065     7.72203E-03     9.00021E-03     10.7756E-03    -3.90755E-03    -7.27976E-03     3.13065E-03     365.150E-06    -3.90755E-03     2.35329E-03     88.9713E-03    -36.3393E-03    -52.6477E-03    -51.7977E-03     88.1213E-03    -36.3393E-03    -21.2022E-03     1.91228E+06    -43.1303E+06    -170.018E+06    -43.2809E+06    -169.867E+06     1.91228E+06     3.34455E+06         28.3520
            1066     6.76990E-03     9.01788E-03     10.9713E-03    -4.86289E-03    -9.10042E-03     8.92090E-03    -6.60678E-03    -5.30613E-03     6.98735E-03     82.5595E-03    -34.4891E-03    -48.0467E-03    -47.1986E-03     81.7115E-03    -34.4891E-03    -20.3372E-03    -518.235E+03    -45.1630E+06    -191.519E+06    -45.3391E+06    -191.342E+06    -518.235E+03     3.99540E+06         27.5498
            1067     5.81350E-03     9.03499E-03     13.9006E-03    -4.82998E-03    -14.5823E-03    -1.55082E-03     2.74114E-03    -6.70198E-03     13.3649E-03     76.2283E-03    -32.7339E-03    -43.4604E-03    -42.6815E-03     75.4494E-03    -32.7339E-03    -18.6825E-03    -3.44703E+06    -47.7060E+06    -210.168E+06    -47.9193E+06    -209.954E+06    -3.44703E+06     5.25930E+06         26.8597
            1068     4.85232E-03     9.04870E-03     19.9110E-03    -4.95300E-03    -21.6459E-03    -12.0362E-03     11.8945E-03    -6.54612E-03     22.5440E-03     70.1988E-03    -31.1670E-03    -39.0592E-03    -38.4117E-03     69.5512E-03    -31.1670E-03    -16.3017E-03    -10.4962E+06    -50.8675E+06    -225.118E+06    -51.0837E+06    -224.901E+06    -10.4962E+06     5.37472E+06         26.2920
            1069     3.88734E-03     9.05908E-03     26.3213E-03    -6.09598E-03    -27.3310E-03    -3.83745E-03     2.99220E-03    -6.26035E-03     32.1270E-03     64.8230E-03    -29.7944E-03    -35.0539E-03    -34.5749E-03     64.3440E-03    -29.7944E-03    -13.4183E-03    -20.9015E+06    -54.2748E+06    -235.254E+06    -54.4327E+06    -235.096E+06    -20.9015E+06     4.46739E+06         25.8440
            1070     2.91871E-03     9.06643E-03     28.9315E-03    -8.46699E-03    -25.9558E-03     3.15344E-03    -177.674E-06    -8.46699E-03     26.0390E-03     60.3831E-03    -28.6359E-03    -31.7449E-03    -31.4424E-03     60.0805E-03    -28.6359E-03    -10.2316E-03    -34.2406E+06    -57.0598E+06    -244.781E+06    -57.1781E+06    -244.663E+06    -34.2406E+06     3.57786E+06         25.5071
            1071     1.94765E-03     9.07098E-03     30.3631E-03    -6.76938E-03    -29.0577E-03    -395.954E-06     8.65896E-03    -13.7270E-03     26.0047E-03     56.9592E-03    -27.7274E-03    -29.2284E-03    -29.0763E-03     56.8071E-03    -27.7274E-03    -6.92309E-03    -47.5210E+06    -59.4917E+06    -252.982E+06    -59.5381E+06    -252.936E+06    -47.5210E+06     2.40920E+06         25.2725
            1072     974.321E-06     9.07346E-03     46.0946E-03     3.53905E-03    -53.2354E-03    -10.2028E-03     30.5107E-03    -23.9097E-03    -3.40834E-03     54.6826E-03    -27.0695E-03    -27.6109E-03    -27.5611E-03     54.6328E-03    -27.0695E-03    -3.67581E-03    -55.9930E+06    -62.9459E+06    -257.329E+06    -61.8554E+06    -257.302E+06    -57.1108E+06     1.60785E+06         25.1313
            1073     16.1150E-03     8.01272E-03     23.8210E-03    -1.32520E-03    -18.6594E-03     1.31505E-03     3.84658E-03    -1.32520E-03     158.424E-06     138.015E-03    -53.9948E-03    -84.2579E-03    -79.9926E-03     133.750E-03    -53.9948E-03     57.0116E-03     159.926E+06     128.556E+06    -8.74626E+06    -8.72417E+06     159.904E+06     128.556E+06    -1.24045E+06         43.8609
            1074     15.1946E-03     7.92103E-03     15.3898E-03    -1.50311E-03    -11.4030E-03     9.30785E-03    -5.08107E-03    -1.74304E-03    -3.25641E-03     136.506E-03    -52.3297E-03    -84.3692E-03    -80.0161E-03     132.153E-03    -52.3297E-03     57.8883E-03     154.971E+06     113.675E+06    -17.7163E+06    -17.6393E+06     154.894E+06     113.675E+06     1.60135E+06         41.2339
            1075     14.2714E-03     7.88055E-03     11.8876E-03    -1.88817E-03    -7.83075E-03    -578.973E-06     4.87575E-03    -2.12810E-03    -11.7099E-03     130.390E-03    -50.3297E-03    -80.2147E-03    -78.3228E-03     128.499E-03    -50.3297E-03     39.4020E-03     151.877E+06     74.2361E+06    -24.6312E+06    -24.5471E+06     151.793E+06     74.2361E+06     3.25954E+06         38.2557
            1076     13.3467E-03     7.83197E-03     18.3857E-03    -2.11769E-03    -14.3496E-03    -3.93404E-03     7.97017E-03    -2.11769E-03    -8.14629E-03     124.575E-03    -48.1944E-03    -76.6182E-03    -75.2846E-03     123.241E-03    -48.1944E-03     30.3374E-03     128.028E+06     28.2567E+06    -31.3271E+06    -31.2563E+06     127.957E+06     28.2567E+06     2.57103E+06         35.6517
            1077     12.4186E-03     7.81486E-03     22.4599E-03    -2.05817E-03    -18.6881E-03    -1.95115E-03     5.72297E-03    -2.05817E-03     6.60520E-03     117.370E-03    -46.2955E-03    -71.3768E-03    -71.1124E-03     117.106E-03    -46.2955E-03     10.5105E-03     60.5248E+06     11.3258E+06    -35.3900E+06    -35.0707E+06     59.5898E+06     11.9416E+06     2.00073E+06         33.7504
            1078     11.4867E-03     7.82013E-03     15.3481E-03    -2.11517E-03    -12.5631E-03    -764.756E-06     3.54979E-03    -2.11517E-03     10.2714E-03     111.048E-03    -44.4792E-03    -66.7363E-03    -66.6376E-03     110.950E-03    -44.4792E-03     445.692E-06     13.0159E+06    -12.6154E+06    -40.7890E+06    -36.2546E+06    -16.5898E+06     12.4559E+06     377.115E+03         32.4184
            1079     10.5499E-03     7.83667E-03     12.9051E-03    -1.59073E-03    -10.7097E-03     1.90688E-03     1.07859E-03    -2.38080E-03    -9.90897E-03     105.539E-03    -42.6615E-03    -62.8081E-03    -62.6562E-03     105.387E-03    -42.6615E-03    -2.87622E-03     13.3410E+06    -37.1887E+06    -70.0078E+06    -37.4046E+06    -69.7918E+06     13.3410E+06    -416.258E+03         31.3485
            1080     9.60978E-03     7.85688E-03     19.7791E-03    -2.23454E-03    -17.1378E-03     5.25557E-03    -1.82421E-03    -3.02461E-03    -31.1190E-03     100.153E-03    -40.8796E-03    -59.1517E-03    -58.9440E-03     99.9458E-03    -40.8796E-03    -4.39651E-03     15.3673E+06    -38.3496E+06    -111.108E+06    -38.5345E+06    -110.923E+06     15.3673E+06    -558.156E+03         30.3597
            1081     8.66552E-03     7.88346E-03     21.6535E-03    -3.98322E-03    -17.7496E-03     5.27955E-03    -1.37562E-03    -3.98322E-03    -25.1149E-03     94.6555E-03    -39.0753E-03    -55.5724E-03    -55.3300E-03     94.4130E-03    -39.0753E-03    -4.92802E-03     16.1475E+06    -39.4812E+06    -141.983E+06    -39.6138E+06    -141.851E+06     16.1475E+06    -1.28457E+06         29.4479
            1082     7.71774E-03     7.90910E-03     21.3119E-03    -5.04495E-03    -16.6426E-03     3.62780E-03     1.04153E-03    -5.04495E-03    -15.9557E-03     89.1762E-03    -37.2403E-03    -51.9452E-03    -51.6967E-03     88.9276E-03    -37.2403E-03    -5.04184E-03     14.8974E+06    -40.5363E+06    -169.657E+06    -40.6872E+06    -169.506E+06     14.8974E+06    -2.03180E+06         28.6160
            1083     6.76619E-03     7.93482E-03     14.8359E-03    -4.90029E-03    -11.3650E-03     1.35986E-03     3.32654E-03    -6.11582E-03    -4.93544E-03     83.5448E-03    -35.4077E-03    -48.1146E-03    -47.8744E-03     83.3046E-03    -35.4077E-03    -5.28685E-03     12.8708E+06    -42.4092E+06    -192.782E+06    -42.5071E+06    -192.684E+06     12.8708E+06    -1.70487E+06         27.8608
            1084     5.81038E-03     7.95797E-03     7.92209E-03    -3.84472E-03    -7.15409E-03    -1.23417E-03     5.31154E-03    -7.15409E-03     4.81185E-03     77.6909E-03    -33.5872E-03    -44.0650E-03    -43.8486E-03     77.4745E-03    -33.5872E-03    -5.44849E-03     8.07819E+06    -44.8795E+06    -210.612E+06    -44.9771E+06    -210.515E+06     8.07819E+06    -867.410E+03         27.2028
            1085     4.85079E-03     7.97888E-03     11.6461E-03    -6.10242E-03    -10.8791E-03    -1.47829E-03     4.50348E-03    -8.36063E-03    -13.0613E-03     71.7611E-03    -31.8736E-03    -39.8891E-03    -39.7096E-03     71.5816E-03    -31.8736E-03    -5.18666E-03    -1.43547E+06    -47.6341E+06    -223.646E+06    -47.7060E+06    -223.574E+06    -1.43547E+06    -794.934E+03         26.6633
            1086     3.88661E-03     7.99442E-03     21.6400E-03    -8.63813E-03    -20.0594E-03    -11.0304E-03     12.7754E-03    -8.80250E-03    -2.74880E-03     66.1679E-03    -30.3196E-03    -35.8547E-03    -35.7195E-03     66.0328E-03    -30.3196E-03    -4.54026E-03    -14.2270E+06    -50.9371E+06    -233.980E+06    -51.0036E+06    -233.914E+06    -14.2270E+06    -1.36727E+06         26.2397
            1087     2.91904E-03     8.00773E-03     28.8208E-03    -7.66517E-03    -29.0771E-03    -13.1294E-03     12.8731E-03    -7.66517E-03    -19.5148E-03     61.3585E-03    -28.9568E-03    -32.3869E-03    -32.2996E-03     61.2712E-03    -28.9568E-03    -3.68140E-03    -29.6795E+06    -54.8454E+06    -243.893E+06    -54.8787E+06    -243.860E+06    -29.6795E+06    -1.36667E+06         25.9222
            1088     1.94801E-03     8.01529E-03     34.4325E-03    -5.21030E-03    -35.5454E-03     9.22638E-03    -3.38163E-03    -12.1680E-03    -12.6008E-03     57.4365E-03    -27.8527E-03    -29.5831E-03    -29.5387E-03     57.3922E-03    -27.8527E-03    -2.64618E-03    -45.3068E+06    -58.4514E+06    -252.117E+06    -58.4694E+06    -252.099E+06    -45.3068E+06    -837.691E+03         25.7023
            1089     974.967E-06     8.02086E-03     56.2988E-03    -5.21812E-03    -56.1216E-03     589.146E-06     30.1111E-03    -35.7412E-03     17.4404E-03     54.6922E-03    -27.0638E-03    -27.6298E-03    -27.6152E-03     54.6776E-03    -27.0638E-03    -1.40803E-03    -56.0255E+06    -61.8977E+06    -256.314E+06    -60.7857E+06    -256.308E+06    -57.1433E+06    -382.882E+03         25.5701
            1090     16.1142E-03     6.86584E-03     23.2138E-03    -2.11935E-03    -22.1164E-03     1.55739E-03    -459.977E-06    -2.11935E-03    -1.57499E-03     140.830E-03    -54.3247E-03    -86.7162E-03    -81.6156E-03     135.729E-03    -54.3247E-03     62.3222E-03     160.794E+06     129.893E+06    -7.62216E+06    -7.42606E+06     160.598E+06     129.893E+06     1.38779E+06         43.5972
            1091     15.1904E-03     6.77699E-03     14.9345E-03    -2.17798E-03    -11.5225E-03     1.39129E-03     2.26069E-03    -2.41791E-03     20.9084E-03     137.156E-03    -52.6631E-03    -84.7725E-03    -79.2106E-03     131.594E-03    -52.6631E-03     66.3693E-03     154.301E+06     115.626E+06    -18.4518E+06    -18.1305E+06     153.980E+06     115.626E+06     2.09762E+06         40.9733
            1092     14.2673E-03     6.74140E-03     14.1176E-03    -2.59576E-03    -10.2224E-03     4.51177E-03    -376.620E-06    -2.83569E-03     10.8100E-03     129.552E-03    -50.8187E-03    -78.9680E-03    -75.8998E-03     126.484E-03    -50.8187E-03     49.3903E-03     149.838E+06     78.0721E+06    -25.1636E+06    -24.9311E+06     149.606E+06     78.0721E+06     2.39211E+06         38.0307
            1093     13.3398E-03     6.70020E-03     17.0533E-03    -3.21513E-03    -12.7804E-03    -310.914E-06     4.58381E-03    -3.21513E-03     11.3204E-03     121.692E-03    -48.9857E-03    -72.8466E-03    -70.2827E-03     119.128E-03    -48.9857E-03     42.3958E-03     129.227E+06     35.6493E+06    -30.1776E+06    -30.0090E+06     129.058E+06     35.6493E+06     4.66461E+06         35.4654
            1094     12.4067E-03     6.69217E-03     22.8824E-03    -2.97181E-03    -19.9883E-03    -12.6422E-03     15.5363E-03    -2.97181E-03     20.8182E-03     112.742E-03    -47.5342E-03    -65.3375E-03    -64.0754E-03     111.480E-03    -47.5342E-03     26.9677E-03     64.4484E+06     17.5737E+06    -36.0282E+06    -35.8879E+06     62.5804E+06     19.3015E+06     1.69631E+06         33.5785
            1095     11.4675E-03     6.70514E-03     19.8552E-03    -2.13612E-03    -18.3823E-03    -13.5362E-03     15.0091E-03    -2.13612E-03     17.3783E-03     107.343E-03    -46.3420E-03    -61.0394E-03    -59.9356E-03     106.239E-03    -46.3420E-03     22.5988E-03     20.0422E+06    -11.0212E+06    -45.0550E+06    -40.5374E+06    -14.9788E+06     19.4822E+06    -2.88104E+06         32.2852
            1096     10.5259E-03     6.72591E-03     19.1079E-03    -1.72218E-03    -18.7925E-03    -156.507E-06     471.974E-06    -1.72218E-03     3.10152E-03     103.728E-03    -45.2130E-03    -58.5334E-03    -57.4102E-03     102.605E-03    -45.2130E-03     21.9186E-03     21.7884E+06    -39.1141E+06    -73.1647E+06    -42.0782E+06    -70.2006E+06     21.7884E+06    -5.77236E+06         31.3294
            1097     9.58135E-03     6.75415E-03     26.5864E-03    -2.38807E-03    -25.4018E-03     10.2522E-03    -9.06763E-03    -2.38807E-03    -3.92839E-03     100.465E-03    -44.0502E-03    -56.4260E-03    -55.2921E-03     99.3316E-03    -44.0502E-03     21.6039E-03     24.9926E+06    -39.9828E+06    -111.894E+06    -41.3381E+06    -110.538E+06     24.9926E+06    -8.11505E+06         30.5004
            1098     8.63534E-03     6.78428E-03     25.4116E-03    -3.67867E-03    -21.6413E-03     8.98535E-03    -5.21508E-03    -3.67867E-03    -4.12490E-03     97.5777E-03    -42.7804E-03    -54.8001E-03    -53.6708E-03     96.4484E-03    -42.7804E-03     21.3926E-03     27.8730E+06     -37.774E+06    -143.415E+06    -39.1812E+06    -142.008E+06     27.8730E+06    -10.0953E+06         29.7468
            1099     7.68773E-03     6.81610E-03     21.2557E-03    -4.08418E-03    -16.0404E-03     494.221E-06     5.32907E-03    -4.69212E-03    -17.4345E-03     94.4265E-03    -41.3591E-03    -53.0606E-03    -52.0577E-03     93.4237E-03    -41.3591E-03     19.9647E-03     28.5790E+06    -36.9075E+06    -172.392E+06    -37.8325E+06    -171.467E+06     28.5790E+06    -10.0493E+06         29.0567
            1100     6.73792E-03     6.84595E-03     14.5558E-03    -3.33016E-03    -9.36650E-03    -3.40202E-03     10.4280E-03    -5.16679E-03    -11.7096E-03     90.4137E-03    -39.7860E-03    -50.6254E-03    -49.8075E-03     89.5959E-03    -39.7860E-03     17.5600E-03     25.5672E+06    -38.4142E+06    -195.933E+06    -39.0367E+06    -195.310E+06     25.5672E+06    -8.86127E+06         28.4140
            1101     5.78565E-03     6.87689E-03     9.36223E-03    -2.80732E-03    -5.69389E-03    -1.27868E-03     7.83359E-03    -5.69389E-03     3.30262E-03     85.7422E-03    -38.0981E-03    -47.6329E-03    -47.0097E-03     85.1190E-03    -38.0981E-03     14.6579E-03     14.9983E+06    -41.2032E+06    -212.915E+06    -41.6572E+06    -212.461E+06     14.9983E+06    -8.10614E+06         27.8338
            1102     4.82968E-03     6.90300E-03     16.4940E-03    -4.69755E-03    -12.6551E-03    -3.73027E-03     9.22708E-03    -6.35543E-03    -11.4658E-03     80.5927E-03    -36.4009E-03    -44.1766E-03    -43.7428E-03     80.1589E-03    -36.4009E-03     11.6408E-03     559.581E+03    -44.7978E+06    -225.271E+06    -45.1713E+06    -224.897E+06     559.581E+03    -7.45830E+06         27.3479
            1103     3.87036E-03     6.92601E-03     26.8287E-03    -5.81627E-03    -25.1395E-03    -12.6266E-03     14.3158E-03    -5.81627E-03     9.26262E-03     75.2225E-03    -34.7891E-03    -40.4374E-03    -40.1590E-03     74.9441E-03    -34.7891E-03     8.85186E-03    -14.3758E+06    -49.3268E+06    -235.774E+06    -49.5638E+06    -235.537E+06    -14.3758E+06    -6.31931E+06         26.9668
            1104     2.90685E-03     6.94327E-03     37.8465E-03    -3.64454E-03    -39.7309E-03    -11.8540E-03     9.96961E-03    -3.64454E-03    -23.7920E-03     70.2664E-03    -33.3558E-03    -36.9092E-03    -36.7511E-03     70.1083E-03    -33.3558E-03     6.26373E-03    -31.8684E+06    -54.1888E+06    -246.700E+06    -54.3290E+06    -246.560E+06    -31.8684E+06    -4.93232E+06         26.6832
            1105     1.94044E-03     6.95659E-03     50.0183E-03    -2.92974E-03    -52.3648E-03    -380.965E-06    -1.96554E-03    -2.92974E-03     317.529E-06     66.1471E-03    -32.1920E-03    -33.9514E-03    -33.8787E-03     66.0744E-03    -32.1920E-03     3.91515E-03    -47.6955E+06    -58.4350E+06    -254.423E+06    -58.4961E+06    -254.362E+06    -47.6955E+06    -3.12337E+06         26.4868
            1106     970.736E-06     6.96465E-03     54.6415E-03    -1.76805E-03    -59.4523E-03    -5.47773E-03     666.927E-06    -1.76805E-03     83.7228E-03     63.3040E-03    -31.3617E-03    -31.9409E-03    -31.9176E-03     63.2806E-03    -31.3617E-03     2.08123E-03    -57.3230E+06    -61.7314E+06    -257.732E+06    -61.3949E+06    -257.719E+06    -57.6718E+06    -1.21889E+06         26.3687
            1107     16.0994E-03     5.71863E-03     24.7121E-03    -3.38381E-03    -23.0562E-03     3.85510E-03    -2.19925E-03    -3.38381E-03     21.4463E-03     141.687E-03    -55.2904E-03    -86.6230E-03    -80.3306E-03     135.394E-03    -55.2904E-03     69.2854E-03     161.802E+06     130.441E+06    -9.34775E+06    -9.11422E+06     161.569E+06     130.441E+06     3.09586E+06         43.2764
            1108     15.1747E-03     5.63543E-03     16.0450E-03    -3.80203E-03    -13.0885E-03     1.26997E-03     1.68660E-03    -3.80203E-03     6.23264E-03     135.622E-03    -53.8651E-03    -81.9054E-03    -74.2487E-03     127.965E-03    -53.8651E-03     78.3314E-03     155.779E+06     115.130E+06    -18.3304E+06    -17.8917E+06     155.340E+06     115.130E+06     3.51203E+06         40.6383
            1109     14.2450E-03     5.60443E-03     19.4714E-03    -4.37399E-03    -16.1150E-03     6.63074E-03    -3.27436E-03    -4.37399E-03     17.5280E-03     126.378E-03    -52.5072E-03    -74.0325E-03    -68.5481E-03     120.894E-03    -52.5072E-03     64.2294E-03     146.020E+06     75.0111E+06    -29.0441E+06    -28.6927E+06     145.669E+06     75.0111E+06     3.08310E+06         37.7601
            1110     13.3103E-03     5.57448E-03     20.7958E-03    -4.67768E-03    -17.7063E-03    -7.20312E-03     10.2926E-03    -4.67768E-03     26.1809E-03     116.774E-03    -51.3855E-03    -65.4150E-03    -60.3273E-03     111.686E-03    -51.3855E-03     58.6713E-03     127.984E+06     34.0854E+06    -36.7962E+06    -36.5367E+06     127.724E+06     34.0854E+06     5.23872E+06         35.2780
            1111     12.3656E-03     5.58043E-03     24.3836E-03    -4.24896E-03    -21.3617E-03    -13.1471E-03     16.1690E-03    -4.24896E-03     20.4594E-03     108.377E-03    -50.7889E-03    -57.6086E-03    -53.2977E-03     104.152E-03    -50.8740E-03     50.1504E-03     69.8474E+06     20.4896E+06    -41.5091E+06    -41.1165E+06     67.7270E+06     22.2174E+06     1.69105E+06         33.4258
            1112     11.4170E-03     5.59561E-03     20.3335E-03    -3.85131E-03    -18.9238E-03    -4.58045E-03     5.99012E-03    -3.85131E-03     21.0899E-03     106.314E-03    -50.6501E-03    -55.7630E-03    -51.2580E-03     101.894E-03    -50.7352E-03     50.6020E-03     26.6184E+06    -6.41911E+06    -50.2728E+06    -43.7446E+06    -12.5566E+06     26.2277E+06    -7.26512E+06         32.1609
            1113     10.4685E-03     5.61996E-03     15.2834E-03    -2.71361E-03    -15.5496E-03     4.65329E-03    -3.48026E-03    -4.15282E-03     19.5937E-03     105.868E-03    -50.5685E-03    -55.4263E-03    -51.1448E-03     101.586E-03    -50.5685E-03     50.1190E-03     28.9791E+06    -35.6083E+06    -77.2464E+06    -43.6331E+06    -69.2216E+06     28.9791E+06    -13.8463E+06         31.3039
            1114     9.52082E-03     5.65005E-03     18.6928E-03    -3.53149E-03    -17.9509E-03     5.51625E-03    -3.33515E-03    -4.97070E-03     27.4735E-03     105.882E-03    -50.2969E-03    -55.7062E-03    -51.4096E-03     101.585E-03    -50.2969E-03     50.4186E-03     31.7692E+06    -36.8115E+06    -115.115E+06    -42.1072E+06    -109.819E+06     31.7692E+06    -18.6253E+06         30.6576
            1115     8.57326E-03     5.68205E-03     22.6552E-03    -5.40181E-03    -18.6864E-03    -5.23189E-03     9.20062E-03    -5.40181E-03     31.5872E-03     106.345E-03    -49.8121E-03    -56.5681E-03    -52.4056E-03     102.183E-03    -49.8121E-03     50.0510E-03     33.7268E+06    -36.4859E+06    -149.241E+06    -40.9307E+06    -144.796E+06     33.7268E+06    -21.1906E+06         30.1234
            1116     7.62710E-03     5.71427E-03     21.7309E-03    -4.25826E-03    -15.7517E-03    -12.5471E-03     19.1342E-03    -4.86620E-03     7.39893E-03     105.987E-03    -49.0937E-03    -56.8930E-03    -53.2550E-03     102.349E-03    -49.0937E-03     46.9788E-03     34.2011E+06    -36.7722E+06    -180.615E+06    -40.1622E+06    -177.225E+06     34.2011E+06    -20.7873E+06         29.6498
            1117     6.68142E-03     5.74917E-03     17.4688E-03    -2.99540E-03    -11.1790E-03    -8.45096E-03     15.8050E-03    -4.05974E-03    -9.51819E-03     104.262E-03    -48.0816E-03    -56.2001E-03    -53.1846E-03     101.246E-03    -48.0816E-03     42.5604E-03     27.7501E+06    -37.1721E+06    -203.380E+06    -39.3413E+06    -201.211E+06     27.7501E+06    -18.0392E+06         29.2022
            1118     5.73422E-03     5.78251E-03     11.5899E-03    -2.00208E-03    -6.14457E-03    -219.296E-06     7.76442E-03    -4.10192E-03    -3.86253E-03     101.432E-03    -46.8092E-03    -54.6294E-03    -52.2725E-03     99.0746E-03    -46.8092E-03     37.1586E-03     11.6168E+06    -39.9091E+06    -218.427E+06    -41.2247E+06    -217.112E+06     11.6168E+06    -14.7291E+06         28.7718
            1119     4.78579E-03     5.81405E-03     15.5826E-03    -2.77149E-03    -10.2236E-03    -5.00994E-03     12.0124E-03    -4.41494E-03     2.78059E-03     97.7080E-03    -45.4192E-03    -52.2963E-03    -50.5855E-03     95.9972E-03    -45.4192E-03     31.0481E-03    -5.50311E+06    -44.4945E+06    -230.424E+06    -45.2983E+06     -229.62E+06    -5.50311E+06    -12.0381E+06         28.3827
            1120     3.83435E-03     5.84176E-03     22.5428E-03    -4.73490E-03    -16.5682E-03    -1.85374E-03     7.82839E-03    -4.73490E-03     9.67843E-03     93.2853E-03    -43.9967E-03    -49.3002E-03    -48.1555E-03     92.1407E-03    -43.9967E-03     24.7312E-03    -21.9523E+06    -49.6980E+06    -240.901E+06    -50.1716E+06    -240.428E+06    -21.9523E+06    -9.33461E+06         28.0666
            1121     2.88003E-03     5.86544E-03     30.7309E-03    -6.77538E-03    -24.7456E-03     7.13861E-03    -478.897E-06    -7.44979E-03    -6.91385E-03     88.8033E-03    -42.7066E-03    -46.0888E-03    -45.4214E-03     88.1358E-03    -42.7066E-03     18.2893E-03    -38.9022E+06    -55.0360E+06    -251.862E+06    -55.2716E+06    -251.626E+06    -38.9022E+06    -6.61413E+06         27.8295
            1122     1.92173E-03     5.88272E-03     57.4510E-03    -6.07046E-03    -53.2413E-03    -18.6055E-03     23.4897E-03    -6.74486E-03     45.8606E-03     84.9408E-03    -41.6726E-03    -43.2657E-03    -42.9516E-03     84.6267E-03    -41.6726E-03     12.0874E-03    -51.5084E+06    -59.0587E+06    -259.061E+06    -59.0888E+06    -258.969E+06    -51.5700E+06    -4.06297E+06         27.6671
            1123     961.871E-06     5.89396E-03     61.4053E-03     10.5242E-03    -73.7262E-03    -19.4409E-03     5.48823E-03     12.1560E-03     61.0659E-03     82.4198E-03    -40.7454E-03    -41.6765E-03    -41.5724E-03     82.3157E-03    -40.7454E-03     6.53945E-03    -58.6508E+06    -63.1093E+06    -261.009E+06    -62.7254E+06    -260.983E+06    -59.0612E+06    -1.69301E+06         27.5729
            1124     16.0727E-03     4.56881E-03     29.0608E-03    -4.85156E-03    -25.6260E-03    -11.4203E-03     14.8551E-03    -4.85156E-03     27.4537E-03     140.483E-03    -57.1618E-03    -83.6623E-03    -75.9329E-03     132.753E-03    -57.1618E-03     77.4946E-03     160.548E+06     130.918E+06    -8.03308E+06    -7.80819E+06     160.323E+06     130.918E+06     4.19679E+06         42.9697
            1125     15.1394E-03     4.50363E-03     16.4995E-03    -4.72209E-03    -15.1125E-03    -4.00662E-03     5.39354E-03    -4.72209E-03    -14.7071E-03     133.361E-03    -56.1465E-03    -77.4194E-03    -67.6817E-03     123.623E-03    -56.1465E-03     87.9464E-03     154.146E+06     113.985E+06    -20.9870E+06    -20.5218E+06     153.680E+06     113.985E+06     7.32498E+06         40.3148
            1126     14.1999E-03     4.47322E-03     20.1790E-03    -4.73883E-03    -18.5043E-03    -5.26240E-03     6.93711E-03    -4.73883E-03    -5.90038E-03     120.246E-03    -53.5497E-03    -66.7608E-03    -57.7066E-03     113.151E-03    -55.5094E-03     70.9276E-03     144.206E+06     75.4081E+06    -32.3535E+06    -31.7583E+06     143.611E+06     75.4081E+06     8.60213E+06         37.5435
            1127     13.2523E-03     4.46067E-03     24.1909E-03    -4.79371E-03    -21.7280E-03    -2.88442E-03     5.34738E-03    -4.79371E-03     4.80019E-03     108.777E-03    -49.4344E-03    -59.3923E-03    -45.9347E-03     101.372E-03    -55.4867E-03     66.8760E-03     131.044E+06     32.7076E+06    -41.8231E+06    -41.3705E+06     130.591E+06     32.7076E+06     6.01216E+06         35.1866
            1128     12.2955E-03     4.47470E-03     26.1067E-03    -5.16064E-03    -23.5549E-03     2.36585E-03     185.943E-06    -5.16064E-03     3.47968E-03     106.502E-03    -50.0304E-03    -56.5749E-03    -41.5195E-03     97.6449E-03    -56.2291E-03     71.3680E-03     76.2936E+06     18.1367E+06    -46.7416E+06    -45.6156E+06     75.1675E+06     18.1367E+06    -3.26929E+06         33.3870
            1129     11.3387E-03     4.48801E-03     18.9088E-03    -5.92543E-03    -15.6258E-03     5.60984E-03    -2.32676E-03    -5.92543E-03     110.933E-06     110.157E-03    -52.9230E-03    -57.3337E-03    -44.2429E-03     101.400E-03    -57.2571E-03     72.8947E-03     26.6490E+06    -484.120E+03    -55.6905E+06    -43.6434E+06    -9.52036E+06     23.6382E+06    -16.0368E+06         32.1531
            1130     10.3858E-03     4.51099E-03     15.1431E-03    -5.17859E-03    -13.8175E-03    -1.56357E-03     4.32844E-03    -6.61781E-03    -6.61068E-03     112.164E-03    -53.8159E-03    -58.3742E-03    -46.3076E-03     104.419E-03    -58.1374E-03     69.8331E-03     26.4310E+06    -25.4862E+06    -83.0777E+06    -40.7928E+06    -67.7710E+06     26.4310E+06    -23.5392E+06         31.3687
            1131     9.43410E-03     4.54045E-03     20.6238E-03    -4.96787E-03    -20.3442E-03    -15.0978E-03     16.8166E-03    -6.40708E-03    -1.69014E-03     115.319E-03    -55.5297E-03    -59.8292E-03    -48.8234E-03     107.696E-03    -58.9122E-03     70.5709E-03     28.2266E+06    -29.6733E+06    -121.522E+06    -39.8269E+06    -111.368E+06     28.2266E+06    -28.2120E+06         30.8655
            1132     8.48665E-03     4.56930E-03     28.7211E-03    -5.44946E-03    -26.5251E-03    -15.4572E-03     17.6533E-03    -5.44946E-03    -8.59992E-03     118.832E-03    -57.4089E-03    -61.4488E-03    -52.3058E-03     111.738E-03    -59.4585E-03     69.5377E-03     28.1490E+06    -31.6675E+06    -157.778E+06    -39.9902E+06    -149.455E+06     28.1490E+06    -30.9061E+06         30.5482
            1133     7.54253E-03     4.60172E-03     24.4097E-03    -4.07072E-03    -21.0821E-03    -9.94448E-03     13.8193E-03    -4.61790E-03    -14.8479E-03     121.129E-03    -58.6719E-03    -62.4886E-03    -55.3331E-03     115.009E-03    -59.7077E-03     65.6013E-03     26.0401E+06    -33.9947E+06    -192.487E+06    -40.4749E+06    -186.007E+06     26.0401E+06    -30.9619E+06         30.3385
            1134     6.60069E-03     4.63527E-03     17.5202E-03    -3.50916E-03    -11.7459E-03    -7.58676E-03     13.9083E-03    -4.05634E-03    -10.2934E-03     122.263E-03    -59.2986E-03    -62.9924E-03    -57.5896E-03     117.136E-03    -59.5738E-03     60.6151E-03     15.7295E+06    -38.0139E+06    -216.438E+06    -42.2436E+06    -212.209E+06     15.7295E+06    -26.6809E+06         30.1546
            1135     5.66073E-03     4.66998E-03     21.0106E-03    -2.85954E-03    -14.9217E-03    -6.83412E-03     13.5737E-03    -3.51019E-03     8.69023E-03     122.172E-03    -59.1637E-03    -63.0221E-03    -58.9265E-03     118.077E-03    -59.1637E-03     54.3195E-03    -1.60509E+06    -41.8653E+06    -228.770E+06    -44.1869E+06    -226.448E+06    -1.60509E+06    -20.2971E+06         29.9578
            1136     4.72044E-03     4.70265E-03     26.1578E-03    -2.89789E-03    -19.8185E-03    -275.693E-06     7.26561E-03    -3.54854E-03     8.38495E-03     120.938E-03    -58.5501E-03    -62.3988E-03    -59.3351E-03     117.875E-03    -58.5501E-03     46.8255E-03    -17.4855E+06    -46.1868E+06    -239.303E+06    -47.3734E+06    -238.116E+06    -17.4855E+06    -14.7486E+06         29.7569
            1137     3.77998E-03     4.73442E-03     21.9420E-03    -4.66649E-03    -14.9544E-03     9.90465E-03    -1.75281E-03    -5.83073E-03    -6.24799E-03     118.827E-03    -57.7541E-03    -61.0624E-03    -58.9562E-03     116.721E-03    -57.7541E-03     38.4684E-03    -32.7788E+06    -51.6124E+06    -248.601E+06    -52.1394E+06    -248.074E+06    -32.7788E+06    -9.81419E+06         29.5765
            1138     2.83738E-03     4.76166E-03     30.8096E-03    -7.04775E-03    -24.0789E-03    -2.43073E-03     11.0001E-03    -8.88638E-03    -7.70789E-03     116.275E-03    -56.9563E-03    -59.3031E-03    -58.0393E-03     115.011E-03    -56.9563E-03     29.3360E-03    -46.4685E+06    -57.5235E+06    -258.145E+06    -57.7083E+06    -257.960E+06    -46.4685E+06    -5.69525E+06         29.4295
            1139     1.89346E-03     4.78369E-03     55.5145E-03    -7.33475E-03    -50.1070E-03    -16.3607E-03     22.4426E-03    -8.00916E-03     22.3812E-03     113.763E-03    -56.2233E-03    -57.5466E-03    -56.9471E-03     113.164E-03    -56.2233E-03     19.6645E-03    -56.9959E+06    -62.7490E+06    -264.215E+06    -62.7465E+06    -264.155E+06    -57.0575E+06    -2.95259E+06         29.3274
            1140     946.618E-06     4.79651E-03     56.2567E-03     67.7464E-06    -56.8043E-03    -13.9176E-03     11.7383E-03     1.69953E-03    -10.5066E-03     111.741E-03    -55.2579E-03    -56.4837E-03    -55.9606E-03     111.547E-03    -55.5871E-03     10.6872E-03    -61.3461E+06    -67.0601E+06    -265.169E+06    -64.6579E+06    -265.128E+06    -63.7890E+06    -1.91250E+06         29.2693
            1141     16.0229E-03     3.42187E-03     28.5989E-03    -5.47284E-03    -27.5961E-03    -10.9651E-03     11.9678E-03    -5.47284E-03    -14.7656E-03     138.321E-03    -60.3781E-03    -78.2578E-03    -64.8599E-03     124.923E-03    -60.3781E-03     100.152E-03     158.336E+06     128.093E+06    -9.89073E+06    -9.47408E+06     157.920E+06     128.093E+06     7.40390E+06         42.7958
            1142     15.0897E-03     3.37351E-03     22.1476E-03    -4.92036E-03    -21.3901E-03    -17.5122E-03     18.2697E-03    -4.92036E-03    -13.3738E-03     136.034E-03    -60.0470E-03    -76.2629E-03    -59.3318E-03     119.103E-03    -60.0470E-03     112.647E-03     150.760E+06     114.077E+06    -20.7285E+06    -20.2020E+06     150.233E+06     114.077E+06     9.00774E+06         40.1648
            1143     14.1473E-03     3.34928E-03     20.0765E-03    -4.02093E-03    -20.2635E-03    -18.9007E-03     18.7137E-03    -4.02093E-03    -5.05942E-03     120.391E-03    -55.0211E-03    -65.4050E-03    -47.4327E-03     107.623E-03    -60.2256E-03     89.9551E-03     147.498E+06     85.0400E+06    -30.5028E+06    -29.7914E+06     146.786E+06     85.0400E+06     10.8093E+06         37.5378
            1144     13.1837E-03     3.37052E-03     15.3987E-03    -3.63855E-03    -15.1258E-03    -204.474E-06     477.292E-06    -3.63855E-03    -15.1485E-03     110.051E-03    -48.8558E-03    -61.1735E-03    -37.0520E-03     98.2468E-03    -61.1735E-03     81.9687E-03     140.031E+06     37.5513E+06    -34.6505E+06    -34.2570E+06     139.637E+06     37.5513E+06     4.79153E+06         35.3289
            1145     12.2074E-03     3.37187E-03     19.2822E-03    -4.39586E-03    -17.4189E-03     11.5200E-03    -9.65664E-03    -4.39586E-03    -27.5675E-03     111.765E-03    -49.1440E-03    -62.6906E-03    -36.9102E-03     99.5308E-03    -62.6906E-03     84.7539E-03     84.4569E+06     4.88393E+06    -36.6725E+06    -34.5978E+06     82.3822E+06     4.88393E+06    -9.11914E+06         33.5991
            1146     11.2472E-03     3.37515E-03     20.4129E-03    -5.58785E-03    -17.1360E-03     7.20529E-03    -3.92843E-03    -5.58785E-03    -34.1698E-03     114.858E-03    -50.2416E-03    -64.5282E-03    -40.7814E-03     105.397E-03    -64.5282E-03     76.3164E-03     19.5611E+06    -6.07941E+06    -52.6554E+06    -36.1420E+06    -4.92048E+06     1.88885E+06    -21.9861E+06         32.3909
            1147     10.2920E-03     3.39991E-03     23.3635E-03    -6.10254E-03    -20.4726E-03    -7.45925E-03     10.3502E-03    -6.10254E-03    -6.60578E-03     118.659E-03    -52.0943E-03    -66.4059E-03    -43.7735E-03     110.338E-03    -66.4059E-03     73.4232E-03     2.42913E+06    -18.9015E+06    -88.5094E+06    -38.1417E+06    -67.5802E+06     740.103E+03    -30.5581E+06         31.6483
            1148     9.33950E-03     3.42130E-03     28.5433E-03    -5.14980E-03    -27.5314E-03    -23.3615E-03     24.3733E-03    -5.14980E-03     6.70040E-03     125.094E-03    -56.7413E-03    -68.2111E-03    -48.5702E-03     116.922E-03    -68.2111E-03     75.1551E-03     857.949E+03    -25.0251E+06    -129.900E+06    -38.2571E+06    -115.666E+06    -143.446E+03    -35.4858E+06         31.2249
            1149     8.39223E-03     3.44334E-03     24.6722E-03    -3.64372E-03    -24.9374E-03    -14.5177E-03     14.2526E-03    -3.64372E-03    -16.6425E-03     130.760E-03    -60.8145E-03    -69.8580E-03    -53.5643E-03     123.510E-03    -69.8580E-03     72.8197E-03    -985.133E+03    -27.1329E+06    -167.078E+06    -37.9958E+06    -156.215E+06    -985.133E+03    -37.0822E+06         31.0433
            1150     7.44956E-03     3.46990E-03     17.2402E-03    -3.08502E-03    -15.7256E-03     5.48863E-03    -3.42682E-03    -3.63221E-03    -7.42061E-03     135.496E-03    -64.2130E-03    -71.2648E-03    -58.0245E-03     129.308E-03    -71.2648E-03     68.9038E-03    -3.02615E+06    -32.7355E+06    -205.665E+06    -40.5540E+06    -197.847E+06    -3.02615E+06    -35.4345E+06         31.0508
            1151     6.51118E-03     3.50021E-03     15.9910E-03    -4.07553E-03    -10.4290E-03     1.08400E-03     5.02518E-03    -4.62272E-03     2.02971E-03     139.723E-03    -67.1687E-03    -72.5588E-03    -62.1207E-03     134.495E-03    -72.3782E-03     64.6602E-03    -10.5240E+06    -39.9451E+06    -231.835E+06    -44.8332E+06    -226.947E+06    -10.5240E+06    -29.8433E+06         31.1338
            1152     5.57619E-03     3.53235E-03     23.7096E-03    -4.44264E-03    -16.8644E-03    -11.1814E-03     18.0266E-03    -4.44264E-03     16.4116E-03     143.205E-03    -69.4503E-03    -73.7661E-03    -65.7117E-03     138.937E-03    -73.2373E-03     59.3842E-03    -25.0993E+06    -46.9016E+06    -242.743E+06    -49.5073E+06    -240.137E+06    -25.0993E+06    -21.9831E+06         31.2251
            1153     4.64444E-03     3.56500E-03     34.8541E-03    -3.87207E-03    -30.0608E-03    -3.57683E-03     8.37008E-03    -3.87207E-03    -14.5177E-03     145.859E-03    -71.1830E-03    -74.6261E-03    -68.7030E-03     142.589E-03    -73.8358E-03     52.6119E-03    -37.1935E+06    -52.7117E+06    -251.149E+06    -53.8583E+06    -250.002E+06    -37.1935E+06    -14.4615E+06         31.3151
            1154     3.71414E-03     3.59576E-03     34.8457E-03    -3.47392E-03    -32.0047E-03     1.13406E-03     2.87121E-03    -4.63815E-03    -8.41458E-03     147.641E-03    -72.5484E-03    -75.0444E-03    -71.1097E-03     145.347E-03    -74.1896E-03     44.3657E-03    -46.8938E+06    -58.2148E+06    -258.057E+06    -58.5837E+06    -257.688E+06    -46.8938E+06    -7.97071E+06         31.3890
            1155     2.78549E-03     3.62333E-03     31.4768E-03    -1.90238E-03    -32.6990E-03    -17.4568E-03     17.3988E-03    -3.06661E-03     9.78499E-03     148.610E-03    -73.4937E-03    -75.0921E-03    -72.8450E-03     147.209E-03    -74.3394E-03     34.6724E-03    -54.9926E+06    -62.4327E+06    -264.295E+06    -62.5143E+06    -264.213E+06    -54.9926E+06    -3.69491E+06         31.4346
            1156     1.85705E-03     3.64550E-03     28.3206E-03     3.15112E-03    -36.4009E-03    -12.7471E-03     4.66686E-03     3.15112E-03    -9.73302E-03     148.799E-03    -73.8660E-03    -74.9298E-03    -73.7779E-03     148.113E-03    -74.3316E-03     24.0133E-03    -62.2746E+06    -66.3927E+06    -267.767E+06    -66.3858E+06    -267.751E+06    -62.2975E+06    -1.41091E+06         31.4616
            1157     930.154E-06     3.66038E-03     43.0016E-03     1.35275E-03    -48.0750E-03     12.4149E-03    -17.4882E-03     1.35275E-03    -37.3746E-03     148.557E-03    -73.8026E-03    -74.7560E-03    -73.8292E-03     148.326E-03    -74.4979E-03     13.3408E-03    -66.6366E+06    -71.2902E+06    -268.667E+06    -68.9224E+06    -268.631E+06    -69.0408E+06    -505.944E+03         31.4811
            1158     15.9384E-03     2.28476E-03     23.4874E-03    -4.39725E-03    -22.5283E-03     10.0102E-03    -9.05113E-03    -4.39725E-03    -20.9162E-03     134.055E-03    -63.3460E-03    -70.8673E-03    -52.8206E-03     117.249E-03    -64.5868E-03     111.113E-03     157.038E+06     127.504E+06    -9.58398E+06    -8.76506E+06     156.219E+06     127.504E+06     10.6443E+06         42.8986
            1159     14.9870E-03     2.24014E-03     17.7649E-03    -4.74125E-03    -16.7034E-03    -6.28753E-03     7.34894E-03    -4.74125E-03    -4.08338E-03     131.186E-03    -58.6348E-03    -72.5002E-03    -49.8510E-03     115.045E-03    -65.1429E-03     105.767E-03     152.560E+06     116.419E+06    -18.3156E+06    -17.5635E+06     151.808E+06     116.419E+06     9.78997E+06         40.3897
            1160     14.0307E-03     2.23357E-03     20.1630E-03    -4.35444E-03    -19.7429E-03    -13.8343E-03     14.2544E-03    -4.35444E-03     12.8960E-03     119.131E-03    -50.6329E-03    -68.3961E-03    -41.0663E-03     107.242E-03    -66.0741E-03     83.9518E-03     155.569E+06     89.3834E+06    -21.0607E+06    -20.6920E+06     155.200E+06     89.3834E+06     4.95344E+06         37.9394
            1161     13.0759E-03     2.26713E-03     19.9099E-03    -3.55181E-03    -19.3482E-03    -16.2599E-03     16.8217E-03    -3.55181E-03    -2.24493E-03     120.174E-03    -52.6081E-03    -67.5315E-03    -40.8552E-03     108.421E-03    -67.5315E-03     84.9228E-03     143.879E+06     31.9873E+06    -27.0189E+06    -20.2304E+06     143.663E+06     25.4154E+06    -1.86945E+06         35.8766
            1162     12.1280E-03     2.25376E-03     19.4772E-03    -3.27450E-03    -16.9240E-03     1.60517E-03     948.040E-06    -3.27450E-03    -18.3419E-03     123.041E-03    -53.7914E-03    -69.2526E-03    -42.9966E-03     112.247E-03    -69.2526E-03     82.9254E-03     87.8701E+06    -11.7442E+06    -40.2491E+06    -21.2345E+06     86.3247E+06    -29.2134E+06    -8.71465E+06         34.2315
            1163     11.1703E-03     2.26351E-03     21.9124E-03    -3.99493E-03    -18.0332E-03     8.14822E-03    -4.26901E-03    -3.99493E-03    -7.08152E-03     120.313E-03    -48.8111E-03    -71.3694E-03    -41.9995E-03     113.501E-03    -71.3694E-03     65.9687E-03     17.7745E+06    -26.3418E+06    -58.5356E+06    -27.1510E+06     2.61513E+06    -42.5669E+06    -18.4459E+06         33.0300
            1164     10.2082E-03     2.27880E-03     21.6963E-03    -4.59768E-03    -17.9097E-03    -3.14135E-03     6.92796E-03    -4.59768E-03     17.4642E-03     124.516E-03    -50.6002E-03    -73.8990E-03    -44.4906E-03     118.407E-03    -73.8990E-03     63.6261E-03    -12.7642E+06    -42.8711E+06    -91.1129E+06    -31.7094E+06    -66.8399E+06    -48.1990E+06    -30.0180E+06         32.2618
            1165     9.25564E-03     2.28965E-03     23.4211E-03    -4.86601E-03    -20.6016E-03    -1.08229E-03     3.90174E-03    -4.86601E-03     14.3844E-03     132.471E-03    -56.0457E-03    -76.4820E-03    -50.4618E-03     126.887E-03    -76.4820E-03     62.6897E-03    -20.1505E+06    -52.2826E+06    -134.397E+06    -33.8557E+06    -121.128E+06    -51.8466E+06    -35.4571E+06         31.8420
            1166     8.30908E-03     2.30472E-03     18.8766E-03    -5.34756E-03    -16.7024E-03     287.226E-06     1.88690E-03    -5.34756E-03     4.35446E-03     139.401E-03    -60.2979E-03    -79.0536E-03    -55.6088E-03     134.712E-03    -79.0536E-03     59.1426E-03    -27.4522E+06    -53.9159E+06    -175.272E+06    -38.1978E+06    -166.198E+06    -52.2441E+06     -34.536E+06         31.6939
            1167     7.36729E-03     2.32418E-03     21.2548E-03    -5.64032E-03    -18.1880E-03    -4.97308E-03     8.03994E-03    -5.64032E-03     23.6893E-03     146.254E-03    -64.5418E-03    -81.5903E-03    -60.5609E-03     142.273E-03    -81.5903E-03     56.1202E-03    -32.6116E+06    -55.2794E+06    -217.028E+06    -43.8680E+06    -211.000E+06    -50.0505E+06    -31.3008E+06         31.7970
            1168     6.43030E-03     2.34709E-03     27.2904E-03    -5.32843E-03    -22.6067E-03    -9.52166E-03     14.2054E-03    -5.32843E-03     24.1471E-03     153.426E-03    -69.2696E-03    -84.0544E-03    -65.8765E-03     150.033E-03    -84.0544E-03     53.3451E-03    -38.8516E+06    -55.3854E+06    -246.218E+06    -49.5540E+06    -242.656E+06    -48.2456E+06    -25.9304E+06         32.0891
            1169     5.49886E-03     2.37129E-03     19.5018E-03    -4.78404E-03    -15.3378E-03    -7.62584E-03     11.7899E-03    -4.78404E-03     75.1149E-06     160.696E-03    -74.3147E-03    -86.3355E-03    -71.5023E-03     157.884E-03    -86.3355E-03     49.9060E-03    -47.8342E+06    -56.5339E+06    -257.357E+06    -54.8973E+06    -255.567E+06    -51.2604E+06    -17.9059E+06         32.4691
            1170     4.57225E-03     2.39674E-03     25.0495E-03    -4.08072E-03    -23.2859E-03    -8.82620E-03     10.5897E-03    -4.08072E-03    -29.1218E-03     167.831E-03    -79.3757E-03    -88.3484E-03    -77.1840E-03     165.639E-03    -88.3484E-03     45.1604E-03    -55.0291E+06    -59.9263E+06    -262.745E+06    -60.1007E+06    -262.153E+06    -55.4475E+06    -10.2694E+06         32.8711
            1171     3.65138E-03     2.42305E-03     30.4081E-03    -2.38286E-03    -32.7254E-03    -12.2010E-03     9.88368E-03    -2.38286E-03     5.65310E-03     174.162E-03    -84.0226E-03    -90.0787E-03    -82.4570E-03     172.597E-03    -90.0787E-03     38.9710E-03    -59.6735E+06    -64.0252E+06    -266.353E+06    -64.2040E+06    -266.174E+06    -59.6735E+06    -5.22849E+06         33.2559
            1172     2.73465E-03     2.44567E-03     22.5703E-03    -1.14885E-03    -26.9752E-03    -1.11314E-03    -3.29176E-03    -1.14885E-03     28.4963E-03     179.283E-03    -87.8042E-03    -91.4939E-03    -86.8241E-03     178.303E-03    -91.4939E-03     31.2919E-03    -63.3048E+06    -67.0052E+06    -269.700E+06    -67.0334E+06    -269.672E+06    -63.3048E+06    -2.05627E+06         33.5760
            1173     1.82144E-03     2.46540E-03     19.2675E-03     1.21198E-03    -23.2546E-03    -816.253E-06    -845.462E-06    -1.11341E-03     17.4467E-03     183.264E-03    -90.6616E-03    -92.6412E-03    -90.1653E-03     182.768E-03    -92.6412E-03     22.2137E-03    -65.8779E+06    -68.4008E+06    -269.760E+06    -68.3881E+06    -269.750E+06    -65.9008E+06    -462.968E+03         33.8105
            1174     908.065E-06     2.47862E-03     43.3150E-03     4.97341E-03    -51.0415E-03    -4.64261E-03    -758.442E-06     2.64802E-03     948.839E-06     186.217E-03    -92.6423E-03    -93.5994E-03    -92.6314E-03     186.045E-03    -93.4378E-03     12.5420E-03    -69.8333E+06    -71.7800E+06    -270.080E+06    -71.3115E+06    -270.042E+06    -70.3403E+06     28.9235E+03         33.9665
            1175     15.8760E-03     1.14647E-03     25.5477E-03    -2.05693E-03    -20.8173E-03     7.30257E-03    -1.05407E-03    -3.57502E-03     20.9915E-03     140.245E-03    -63.5603E-03    -76.9154E-03    -60.0423E-03     128.525E-03    -68.7138E-03     93.8890E-03     161.806E+06      134.76E+06    -4.86628E+06    -3.81359E+06     160.753E+06      134.76E+06     9.54953E+06         43.4984
            1176     14.9311E-03     1.11611E-03     11.4859E-03    -2.68165E-03    -10.2711E-03     5.26881E-03    -2.53586E-03    -4.19974E-03    -9.96276E-03     121.665E-03    -52.0455E-03    -69.4791E-03    -46.0519E-03     115.672E-03    -69.4791E-03     60.6701E-03     161.815E+06     121.044E+06    -8.95734E+06    -8.24460E+06     161.102E+06     121.044E+06     1.68545E+06         41.2219
            1177     13.9652E-03     1.12800E-03     20.5783E-03    -4.71661E-03    -18.4597E-03     1.70195E-03     416.607E-06    -4.71661E-03     869.063E-06     116.395E-03    -45.5440E-03    -70.7228E-03    -42.2920E-03     113.143E-03    -70.7228E-03     41.6046E-03     158.653E+06     77.0698E+06    -10.5733E+06    -10.3318E+06     158.411E+06     77.0698E+06    -2.42369E+06         38.9728
            1178     13.0034E-03     1.13419E-03     24.2415E-03    -4.23036E-03    -20.5356E-03    -5.01199E-03     9.42451E-03    -4.93699E-03     4.07142E-03     122.429E-03    -50.1201E-03    -72.3987E-03    -45.8024E-03     118.112E-03    -72.3987E-03     46.4950E-03     142.170E+06     16.1253E+06    -22.1987E+06    -12.8413E+06     142.011E+06     6.92684E+06    -1.70789E+06         37.0246
            1179     12.0516E-03     1.12027E-03     27.7917E-03    -4.05114E-03    -21.7901E-03    -9.32949E-03     16.0377E-03    -4.75777E-03     3.51896E-03     124.933E-03    -50.6641E-03    -74.3978E-03    -46.0909E-03     120.360E-03    -74.3978E-03     48.5339E-03     90.8476E+06    -15.8198E+06    -56.4051E+06    -15.5526E+06     90.5804E+06    -56.4051E+06    -2.03413E+06         35.4381
            1180     11.1013E-03     1.14185E-03     32.0953E-03    -4.38251E-03    -24.4046E-03    -8.67093E-03     16.3616E-03    -4.38251E-03     33.6164E-03     126.432E-03    -49.8022E-03    -76.6624E-03    -46.6701E-03     123.300E-03    -76.6624E-03     42.0190E-03     24.5803E+06    -33.0903E+06    -87.3248E+06    -18.2277E+06     9.71772E+06    -87.3248E+06    -11.1835E+06         34.2280
            1181     10.1493E-03     1.14572E-03     19.4820E-03    -3.34523E-03    -14.4200E-03    -1.58226E-03     7.61505E-03    -4.31603E-03     27.8124E-03     131.896E-03    -52.7657E-03    -79.3213E-03    -49.9990E-03     129.129E-03    -79.3213E-03     41.0619E-03    -11.4844E+06    -69.8956E+06    -106.529E+06    -22.0478E+06    -66.8274E+06    -99.0340E+06    -20.2881E+06         33.3988
            1182     9.19972E-03     1.14701E-03     15.8065E-03    -4.09516E-03    -13.0624E-03     7.03180E-03    -3.31697E-03    -5.06596E-03    -7.03860E-03     137.326E-03    -55.4344E-03    -82.2178E-03    -53.3352E-03     135.227E-03    -82.2178E-03     36.0716E-03    -24.0496E+06    -96.8157E+06    -137.920E+06    -29.8547E+06    -125.824E+06    -103.106E+06    -21.8366E+06         32.9214
            1183     8.25319E-03     1.15498E-03     26.9942E-03    -6.06396E-03    -23.8823E-03     513.896E-06     2.59800E-03    -6.06396E-03    -28.2104E-03     143.979E-03    -58.7855E-03    -85.3749E-03    -57.1398E-03     142.333E-03    -85.3749E-03     32.6270E-03    -34.7476E+06    -99.6288E+06    -179.492E+06    -38.6268E+06    -175.612E+06    -99.6288E+06    -20.6060E+06         32.7462
            1184     7.31123E-03     1.16507E-03     29.6480E-03    -6.08300E-03    -27.5112E-03    -11.6404E-03     13.7772E-03    -6.08300E-03    -16.2801E-03     152.424E-03    -63.6207E-03    -88.7538E-03    -62.2193E-03     151.022E-03    -88.7538E-03     31.1147E-03    -44.3145E+06    -91.3207E+06    -223.725E+06    -46.7077E+06    -221.332E+06    -91.3207E+06    -18.5018E+06         32.8635
            1185     6.37464E-03     1.17774E-03     23.8578E-03    -5.56460E-03    -22.4213E-03    -7.68855E-03     9.12503E-03    -5.56460E-03     11.4447E-03     162.018E-03    -69.6403E-03    -92.2236E-03    -68.4329E-03     160.810E-03    -92.2236E-03     29.8958E-03    -52.7294E+06    -80.2089E+06    -256.049E+06    -54.2332E+06    -254.546E+06    -80.2089E+06    -15.5043E+06         33.2509
            1186     5.44444E-03     1.19122E-03     15.4605E-03    -5.62387E-03    -14.5527E-03    -497.043E-06     1.62878E-03    -5.84772E-03     3.58220E-03     172.209E-03    -76.4947E-03    -95.6385E-03    -75.4876E-03     171.202E-03    -95.6385E-03     28.2459E-03    -59.4868E+06    -71.2006E+06    -269.784E+06    -60.1508E+06    -269.120E+06    -71.2006E+06    -10.3063E+06         33.7985
            1187     4.52168E-03     1.20577E-03     17.0439E-03    -5.95692E-03    -16.5383E-03    -7.15965E-03     7.88913E-03    -6.18077E-03     3.96244E-03     182.718E-03    -83.7884E-03    -98.8449E-03    -82.9943E-03     181.923E-03    -98.8449E-03     26.0096E-03    -63.8272E+06    -67.5427E+06    -271.116E+06    -64.1610E+06    -270.892E+06    -67.4332E+06    -4.89631E+06         34.4028
            1188     3.60592E-03     1.21987E-03     16.6757E-03    -4.93838E-03    -18.8104E-03    -13.6932E-03     11.5585E-03    -4.93838E-03     14.8846E-03     192.739E-03    -90.9581E-03    -101.748E-03    -90.3809E-03     192.162E-03    -101.748E-03     22.8274E-03    -66.1060E+06    -67.6260E+06    -271.191E+06    -66.7892E+06    -271.107E+06    -67.0274E+06    -2.24574E+06         35.0168
            1189     2.69686E-03     1.23437E-03     21.3848E-03    -3.63446E-03    -23.3739E-03    -4.58745E-03     2.59838E-03    -3.63446E-03     14.7770E-03     201.703E-03    -97.4904E-03    -104.260E-03    -97.1199E-03     201.333E-03    -104.260E-03     18.4306E-03    -67.4807E+06    -68.4901E+06    -272.878E+06    -68.5287E+06    -272.839E+06    -67.4807E+06    -1.20034E+06         35.5714
            1190     1.79305E-03     1.24440E-03     30.0737E-03    -2.97886E-03    -28.6666E-03     1.98242E-03     1.75002E-03    -5.30424E-03    -3.95177E-03     209.157E-03    -102.921E-03    -106.274E-03    -102.735E-03     208.972E-03    -106.274E-03     12.9762E-03    -68.1223E+06    -69.9178E+06    -271.698E+06    -69.9544E+06    -271.661E+06    -68.1223E+06    -285.210E+03         36.0033
            1191     896.953E-06     1.25150E-03     50.4601E-03    -2.21672E-03    -46.1812E-03    -9.71721E-03     16.3216E-03    -4.54211E-03    -38.1814E-03     214.192E-03    -106.476E-03    -107.724E-03    -106.759E-03     214.131E-03    -107.380E-03     7.40205E-03    -69.2111E+06    -71.2112E+06    -269.843E+06    -70.8365E+06    -269.734E+06    -69.6952E+06     156.345E+03         36.2869
            1192     946.225E-06     62.4157E-03         4.12697     229.691E-03        -4.35657    -199.969E-03    -29.6319E-03     229.691E-03        -3.35151     111.034E-03    -55.3786E-03    -55.6545E-03    -55.6358E-03     111.027E-03    -55.3907E-03     1.88819E-03    -88.3195E+06    -91.3989E+06    -289.732E+06    -91.2368E+06    -289.731E+06    -88.4830E+06     16.8876E+03         28.2935
            1193     1.89231E-03     62.4188E-03         1.96578     11.5354E-03        -1.97390    -2.01678E-03    -6.09592E-03     11.5354E-03         1.18951     111.102E-03    -55.5419E-03    -55.5759E-03    -55.5210E-03     111.081E-03    -55.5759E-03     3.64304E-03    -77.5166E+06    -87.2411E+06    -284.631E+06    -87.2417E+06    -284.630E+06    -77.5166E+06     76.1216E+03         28.3591
            1194     2.83842E-03     62.4237E-03         1.09415     4.39299E-03        -1.09497    -18.2578E-03     17.4341E-03     4.39299E-03    -561.466E-03     111.173E-03    -55.5483E-03    -55.6236E-03    -55.5055E-03     111.130E-03    -55.6236E-03     5.28064E-03    -62.8751E+06    -81.6840E+06    -275.052E+06    -81.6842E+06    -275.051E+06    -62.8751E+06    -181.022E+03         28.4857
            1195     3.78455E-03     62.4303E-03     667.101E-03    -446.847E-06    -663.526E-03    -8.98536E-03     12.5598E-03    -446.847E-06     296.941E-03     111.231E-03    -55.5078E-03    -55.7024E-03    -55.4348E-03     111.158E-03    -55.7024E-03     6.92792E-03    -46.9872E+06    -74.9298E+06    -263.748E+06    -74.9343E+06    -263.744E+06    -46.9872E+06     505.084E+03         28.6828
            1196     4.73078E-03     62.4389E-03     419.164E-03    -1.97179E-03    -414.204E-03    -6.29840E-03     11.2583E-03    -1.97179E-03    -200.990E-03     111.121E-03    -55.3881E-03    -55.7403E-03    -55.2762E-03     111.009E-03    -55.7403E-03     8.59045E-03    -32.5292E+06    -68.1482E+06    -246.523E+06    -68.1607E+06    -246.510E+06    -32.5292E+06     973.021E+03         28.9482
            1197     5.67719E-03     62.4489E-03     259.512E-03    -4.22038E-03    -253.080E-03    -25.9095E-03     32.3410E-03    -4.22038E-03     125.550E-03     110.921E-03    -55.2578E-03    -55.7048E-03    -55.1009E-03     110.764E-03    -55.7048E-03     10.1782E-03    -20.4899E+06    -61.9563E+06    -230.312E+06    -61.9652E+06    -230.303E+06    -20.4899E+06     509.046E+03         29.2829
            1198     6.62376E-03     62.4607E-03     165.604E-03    -7.07627E-03    -156.206E-03    -22.1906E-03     31.5881E-03    -7.07627E-03    -65.3709E-03     110.782E-03    -55.2011E-03    -55.6489E-03    -54.9963E-03     110.577E-03    -55.6489E-03     11.6319E-03    -12.3608E+06    -55.2175E+06    -208.270E+06    -55.2250E+06    -208.263E+06    -12.3608E+06    -396.165E+03         29.7011
            1199     7.57045E-03     62.4737E-03     117.343E-03    -6.62305E-03    -107.985E-03     17.3764E-03    -8.01793E-03    -6.62305E-03     32.8823E-03     110.678E-03    -55.1406E-03    -55.5700E-03    -54.8707E-03     110.408E-03    -55.5700E-03     13.3318E-03    -7.34932E+06    -48.5216E+06    -177.586E+06    -48.5294E+06    -177.578E+06    -7.34932E+06    -596.593E+03         30.2197
            1200     8.51684E-03     62.4891E-03     88.8564E-03    -3.43054E-03    -83.4696E-03     27.1891E-03    -21.8023E-03    -3.43054E-03    -20.6978E-03     110.640E-03    -55.1197E-03    -55.4911E-03    -54.7404E-03     110.260E-03    -55.4911E-03     15.7729E-03    -3.49168E+06    -43.1760E+06    -148.087E+06    -43.1792E+06    -148.084E+06    -3.49168E+06     146.074E+03         30.8522
            1201     9.46390E-03     62.5078E-03     58.6014E-03    -1.55384E-03    -56.1838E-03     2.83918E-03    -421.565E-06    -1.55384E-03     38.7993E-03     110.622E-03    -55.1445E-03    -55.3868E-03    -54.6461E-03     110.123E-03    -55.3868E-03     18.1287E-03    -966.720E+03    -39.1081E+06    -115.948E+06    -39.1108E+06    -115.946E+06    -966.720E+03     305.522E+03         31.6011
            1202     10.4104E-03     62.5281E-03     34.5954E-03    -1.87992E-03    -31.9066E-03    -13.1207E-03     15.8095E-03    -1.87992E-03    -18.5146E-03     110.657E-03    -55.2317E-03    -55.3775E-03    -54.6098E-03     109.977E-03    -55.3202E-03     21.0893E-03     1.06506E+06    -35.4876E+06    -75.5105E+06    -35.4901E+06    -75.5080E+06     1.06506E+06     63.4976E+03         32.4757
            1203     11.3571E-03     62.5532E-03     27.7187E-03    -2.89233E-03    -24.5286E-03    -15.0642E-03     18.2543E-03    -2.89233E-03    -8.07643E-03     110.709E-03    -55.2564E-03    -55.5691E-03    -54.4804E-03     109.621E-03    -55.2564E-03     26.5927E-03     7.10147E+06    -13.6742E+06    -41.5154E+06    -32.1548E+06    -20.2496E+06     4.31621E+06    -6.98056E+03         33.4851
            1204     12.3040E-03     62.5852E-03     30.0952E-03    -3.31596E-03    -26.6440E-03    -2.16315E-03     5.61442E-03    -3.31596E-03     5.28088E-03     110.928E-03    -55.1492E-03    -55.8912E-03    -54.0806E-03     109.117E-03    -55.1492E-03     34.3050E-03     59.3795E+06     9.60033E+06    -29.2055E+06    -29.1982E+06     59.3722E+06     9.60033E+06    -261.084E+03         34.7761
            1205     13.2516E-03     62.6279E-03     23.0872E-03    -2.89100E-03    -18.9818E-03     6.52617E-03    -2.42076E-03    -2.89100E-03     30.6639E-03     112.215E-03    -55.0957E-03    -57.2061E-03    -53.8769E-03     108.886E-03    -55.0957E-03     46.4219E-03     131.193E+06     27.0194E+06    -26.1568E+06    -26.1534E+06     131.189E+06     27.0194E+06    -333.570E+03         36.6594
            1206     14.1988E-03     62.6860E-03     12.2215E-03    -2.48842E-03    -8.48604E-03    -1.28720E-03     5.02265E-03    -2.48842E-03     4.03603E-03     112.280E-03    -55.1659E-03    -57.2660E-03    -53.7010E-03     108.715E-03    -55.1659E-03     48.3286E-03     158.234E+06     68.0564E+06    -21.7208E+06    -21.7174E+06     158.231E+06     68.0564E+06     229.531E+03         39.2672
            1207     15.1464E-03     62.7335E-03     11.3510E-03    -2.29577E-03    -7.02240E-03     2.39501E-03     1.93365E-03    -2.29577E-03     1.93842E-03     114.105E-03    -55.2543E-03    -58.9950E-03    -53.6298E-03     108.740E-03    -55.2543E-03     58.1586E-03     162.238E+06     108.882E+06    -14.9362E+06    -14.9311E+06     162.233E+06     108.882E+06    -88.4319E+03         42.3365
            1208     16.0944E-03     62.8139E-03     13.7410E-03    -1.99592E-03    -8.34066E-03     3.32006E-03     2.08031E-03    -1.99592E-03    -3.56172E-03     112.840E-03    -54.5132E-03    -58.5467E-03    -53.6160E-03     108.679E-03    -55.2823E-03     44.1512E-03     164.305E+06     124.486E+06    -6.70103E+06    -6.69446E+06     164.299E+06     124.486E+06     35.3286E+03         45.2050
            1209     946.043E-06     63.5319E-03         4.22453     208.355E-03        -4.43897    -225.045E-03     10.6076E-03     208.355E-03        -3.48757     111.131E-03    -55.3500E-03    -55.7825E-03    -55.7503E-03     111.125E-03    -55.3759E-03     1.90269E-03    -87.7637E+06    -90.6767E+06    -289.639E+06    -90.5974E+06    -289.636E+06    -87.8459E+06    -115.488E+03         28.2954
            1210     1.89222E-03     63.5352E-03         1.99957    -3.41963E-03        -1.99726     16.3388E-03    -14.0305E-03    -3.41963E-03         1.17336     111.131E-03    -55.5312E-03    -55.6066E-03    -55.5105E-03     111.110E-03    -55.6066E-03     3.59574E-03    -78.2389E+06    -86.8096E+06    -284.719E+06    -86.8115E+06    -284.717E+06    -78.2389E+06    -8.81665E+03         28.3586
            1211     2.83836E-03     63.5401E-03         1.12078    -75.2835E-06        -1.11900    -9.16101E-03     10.9395E-03    -75.2835E-06    -584.191E-03     111.156E-03    -55.5101E-03    -55.6342E-03    -55.4662E-03     111.112E-03    -55.6342E-03     5.34291E-03    -63.8723E+06    -81.7755E+06    -275.086E+06    -81.7762E+06    -275.085E+06    -63.8723E+06     178.717E+03         28.4836
            1212     3.78457E-03     63.5467E-03     691.312E-03    -3.84958E-03    -684.322E-03    -21.5401E-03     28.5301E-03    -3.84958E-03     280.352E-03     111.176E-03    -55.4544E-03    -55.7042E-03    -55.3790E-03     111.100E-03    -55.7042E-03     7.03056E-03    -47.3150E+06    -75.4334E+06    -264.423E+06    -75.4347E+06    -264.422E+06    -47.3150E+06     79.8185E+03         28.6801
            1213     4.73091E-03     63.5552E-03     445.799E-03    -5.30883E-03    -435.668E-03     2.47909E-03     7.65212E-03    -5.30883E-03    -213.690E-03     111.082E-03    -55.3624E-03    -55.7319E-03    -55.2491E-03     110.969E-03    -55.7319E-03     8.65088E-03    -32.5866E+06    -67.7148E+06    -247.602E+06    -67.7239E+06    -247.593E+06    -32.5866E+06     708.973E+03         28.9455
            1214     5.67727E-03     63.5653E-03     261.764E-03    -3.24154E-03    -254.975E-03     12.2478E-03    -5.45890E-03    -3.24154E-03     152.524E-03     110.911E-03    -55.2608E-03    -55.6922E-03    -55.1052E-03     110.755E-03    -55.6922E-03     10.1374E-03    -19.3235E+06    -59.9548E+06    -229.227E+06    -59.9636E+06    -229.218E+06    -19.3235E+06     826.966E+03         29.2809
            1215     6.62378E-03     63.5768E-03     154.281E-03    -2.29589E-03    -148.399E-03    -7.65902E-03     13.5410E-03    -2.29589E-03    -63.2062E-03     110.764E-03    -55.1932E-03    -55.6377E-03    -54.9886E-03     110.560E-03    -55.6377E-03     11.6208E-03    -10.9028E+06    -53.8108E+06    -206.647E+06    -53.8192E+06    -206.639E+06    -10.9028E+06    -577.316E+03         29.6997
            1216     7.57032E-03     63.5900E-03     115.684E-03    -3.74770E-03    -107.822E-03    -21.6935E-03     29.5554E-03    -3.74770E-03     24.8359E-03     110.711E-03    -55.1767E-03    -55.5645E-03    -54.9058E-03     110.441E-03    -55.5645E-03     13.3597E-03    -7.28865E+06    -49.1033E+06    -178.490E+06    -49.1126E+06    -178.480E+06    -7.28865E+06    -685.034E+03         30.2188
            1217     8.51703E-03     63.6053E-03     94.9945E-03    -5.52239E-03    -86.1276E-03    -17.3262E-03     26.1931E-03    -5.52239E-03    -19.5173E-03     110.675E-03    -55.1576E-03    -55.4915E-03    -54.7791E-03     110.296E-03    -55.4915E-03     15.7629E-03    -3.61803E+06    -44.6634E+06    -148.645E+06    -44.6684E+06    -148.641E+06    -3.61803E+06     30.9793E+03         30.8519
            1218     9.46352E-03     63.6238E-03     73.1447E-03    -5.69408E-03    -63.7431E-03     5.29417E-03     4.10736E-03    -5.69408E-03     17.2624E-03     110.612E-03    -55.1441E-03    -55.3887E-03    -54.6420E-03     110.110E-03    -55.3887E-03     18.1889E-03      -995.4E+03    -39.9835E+06    -115.583E+06    -39.9886E+06    -115.578E+06      -995.4E+03    -139.147E+03         31.6012
            1219     10.4104E-03     63.6446E-03     49.1477E-03    -4.06394E-03    -42.1148E-03     21.3882E-03    -14.3552E-03    -4.06394E-03    -38.9974E-03     110.582E-03    -55.2138E-03    -55.3266E-03    -54.5339E-03     109.893E-03    -55.3178E-03     21.2288E-03     923.923E+03    -35.8806E+06    -75.4894E+06    -35.8834E+06    -75.4867E+06     923.923E+03    -233.813E+03         32.4756
            1220     11.3577E-03     63.6693E-03     31.7176E-03    -2.34259E-03    -26.3024E-03     11.8123E-03    -6.39720E-03    -2.34259E-03    -4.19356E-03     110.675E-03    -55.2319E-03    -55.5646E-03    -54.4463E-03     109.569E-03    -55.2449E-03     26.7877E-03     6.73206E+06    -14.3884E+06    -41.5379E+06    -32.6619E+06    -20.3761E+06     3.84386E+06    -54.6840E+03         33.4855
            1221     12.3043E-03     63.7021E-03     31.2614E-03    -1.84858E-03    -25.2083E-03    -5.07245E-03     11.1256E-03    -1.84858E-03    -2.07060E-03     110.936E-03    -55.1404E-03    -55.9152E-03    -54.1118E-03     109.133E-03    -55.1404E-03     34.2733E-03     59.4357E+06     9.23444E+06    -29.8113E+06    -29.8007E+06     59.4250E+06     9.23444E+06     102.001E+03         34.7786
            1222     13.2516E-03     63.7429E-03     24.5105E-03    -2.15103E-03    -18.4453E-03    -8.04599E-03     14.1112E-03    -2.15103E-03     25.0706E-03     112.228E-03    -55.0917E-03    -57.2298E-03    -53.8713E-03     108.870E-03    -55.0917E-03     46.5551E-03     131.262E+06     27.2189E+06    -26.7340E+06    -26.7282E+06     131.256E+06     27.2189E+06     169.342E+03         36.6643
            1223     14.1989E-03     63.8037E-03     13.2550E-03    -2.33176E-03    -6.93515E-03    -1.72592E-03     8.04576E-03    -2.33176E-03     2.55050E-03     112.312E-03    -55.1646E-03    -57.2994E-03    -53.7208E-03     108.733E-03    -55.1646E-03     48.3580E-03     157.924E+06     68.1065E+06    -21.6961E+06    -21.6952E+06     157.923E+06     68.1065E+06     77.3364E+03         39.2750
            1224     15.1466E-03     63.8485E-03     14.0632E-03    -2.33095E-03    -8.90906E-03    -2.83489E-03     7.98907E-03    -2.33095E-03    -4.62310E-03     114.235E-03    -55.2555E-03    -59.1072E-03    -53.6851E-03     108.812E-03    -55.2555E-03     58.3446E-03     161.299E+06     108.603E+06    -14.5793E+06    -14.5781E+06     161.298E+06     108.603E+06     221.348E+03         42.3481
            1225     16.0942E-03     63.9315E-03     15.0870E-03    -2.40367E-03    -10.2158E-03    -3.88164E-03     8.75280E-03    -2.40367E-03    -5.41910E-03     113.064E-03    -54.5666E-03    -58.6705E-03    -53.7181E-03     108.824E-03    -55.2792E-03     44.3021E-03     164.367E+06     124.368E+06    -7.19861E+06    -7.19635E+06     164.365E+06     124.368E+06     506.733E+03         45.2189
            1226     946.052E-06     64.6487E-03         4.30565     190.470E-03        -4.50465    -267.356E-03     68.3506E-03     190.470E-03        -3.56339     111.184E-03    -55.4424E-03    -55.7420E-03    -55.6987E-03     111.177E-03    -55.4794E-03     1.90235E-03    -87.6161E+06    -90.3536E+06    -289.128E+06    -89.8041E+06    -289.126E+06    -88.1682E+06    -357.966E+03         28.2944
            1227     1.89207E-03     64.6513E-03         2.04412    -30.1797E-03        -2.02096     2.88640E-03     20.2724E-03    -30.1797E-03         1.17399     111.130E-03    -55.5159E-03    -55.6217E-03    -55.4947E-03     111.109E-03    -55.6217E-03     3.62737E-03    -78.7728E+06    -86.8319E+06    -284.881E+06    -86.8335E+06    -284.880E+06    -78.7728E+06    -269.144E+03         28.3571
            1228     2.83840E-03     64.6565E-03         1.16084    -15.8802E-03        -1.14626     20.8262E-03    -6.24441E-03    -15.8802E-03    -584.519E-03     111.090E-03    -55.4466E-03    -55.6315E-03    -55.4019E-03     111.046E-03    -55.6315E-03     5.39656E-03    -64.0574E+06    -81.4037E+06    -275.434E+06    -81.4046E+06    -275.433E+06    -64.0574E+06     131.760E+03         28.4814
            1229     3.78468E-03     64.6630E-03     710.228E-03    -6.98836E-03    -701.256E-03     15.4651E-03    -6.49280E-03    -6.98836E-03     311.689E-03     111.123E-03    -55.4162E-03    -55.6881E-03    -55.3408E-03     111.048E-03    -55.6881E-03     7.03222E-03    -46.7033E+06    -74.7815E+06    -264.059E+06    -74.7827E+06    -264.058E+06    -46.7033E+06     77.8357E+03         28.6780
            1230     4.73105E-03     64.6714E-03     453.584E-03    -3.40457E-03    -446.151E-03     4.05489E-03     3.37744E-03    -3.40457E-03    -199.847E-03     111.057E-03    -55.3491E-03    -55.7185E-03    -55.2373E-03     110.945E-03    -55.7185E-03     8.59159E-03    -31.7176E+06    -67.6520E+06    -248.528E+06    -67.6549E+06    -248.525E+06    -31.7176E+06    -101.026E+03         28.9440
            1231     5.67739E-03     64.6816E-03     276.202E-03    -1.77973E-03    -270.211E-03     8.37997E-03    -2.38929E-03    -1.77973E-03     153.935E-03     110.878E-03    -55.2513E-03    -55.6718E-03    -55.0977E-03     110.725E-03    -55.6718E-03     10.0692E-03    -19.5099E+06    -59.9176E+06    -228.749E+06    -59.9212E+06    -228.746E+06    -19.5099E+06    -116.893E+03         29.2797
            1232     6.62392E-03     64.6930E-03     158.433E-03    -624.716E-06    -153.438E-03     3.75380E-03     1.24145E-03    -624.716E-06    -80.7350E-03     110.782E-03    -55.2286E-03    -55.6289E-03    -55.0234E-03     110.577E-03    -55.6289E-03     11.6368E-03    -10.0959E+06    -53.4793E+06    -206.394E+06    -53.4988E+06    -206.374E+06    -10.0959E+06     562.361E+03         29.6994
            1233     7.57057E-03     64.7062E-03     110.472E-03    -1.82839E-03    -105.208E-03    -25.9250E-03     31.1890E-03    -1.82839E-03     27.2485E-03     110.728E-03    -55.1927E-03    -55.5685E-03    -54.9216E-03     110.457E-03    -55.5685E-03     13.3704E-03     -6.1581E+06    -48.8303E+06    -178.816E+06    -48.8489E+06    -178.797E+06     -6.1581E+06     743.444E+03         30.2193
            1234     8.51705E-03     64.7217E-03     103.149E-03    -4.77406E-03    -93.8173E-03    -31.2064E-03     40.5384E-03    -4.77406E-03     5.20463E-03     110.679E-03    -55.1652E-03    -55.4888E-03    -54.7875E-03     110.301E-03    -55.4888E-03     15.7440E-03    -3.32911E+06    -44.2054E+06    -147.966E+06    -44.2104E+06    -147.961E+06    -3.32911E+06    -300.745E+03         30.8530
            1235     9.46383E-03     64.7399E-03     71.8605E-03    -5.94904E-03    -60.9960E-03    -1.46699E-03     12.3315E-03    -5.94904E-03     62.3723E-03     110.644E-03    -55.1814E-03    -55.3859E-03    -54.6764E-03     110.139E-03    -55.3859E-03     18.2435E-03    -764.041E+03    -39.8107E+06    -115.545E+06    -39.8167E+06    -115.539E+06    -764.041E+03    -601.885E+03         31.6027
            1236     10.4105E-03     64.7606E-03     45.0343E-03    -4.57362E-03    -36.5104E-03     19.3801E-03    -10.8563E-03    -4.57362E-03     808.822E-06     110.585E-03    -55.2249E-03    -55.3169E-03    -54.5441E-03     109.905E-03    -55.3169E-03     21.1246E-03     816.727E+03    -36.1663E+06    -75.5000E+06    -36.1799E+06    -75.4864E+06     816.727E+03    -378.753E+03         32.4770
            1237     11.3573E-03     64.7855E-03     39.4137E-03    -2.60655E-03    -33.2385E-03     18.2004E-03    -12.0253E-03    -2.60655E-03     5.64228E-03     110.544E-03    -55.2204E-03    -55.4309E-03    -54.3155E-03     109.448E-03    -55.2396E-03     26.6306E-03     6.34708E+06    -14.5081E+06    -41.6924E+06    -32.7821E+06    -20.7437E+06     3.67228E+06    -405.278E+03         33.4872
            1238     12.3047E-03     64.8184E-03     30.7047E-03    -1.72649E-03    -25.7660E-03    -646.433E-06     5.58518E-03    -1.72649E-03    -7.11978E-03     110.867E-03    -55.1282E-03    -55.8427E-03    -54.0480E-03     109.072E-03    -55.1282E-03     34.1917E-03     58.7381E+06     9.13540E+06    -29.5376E+06    -29.5310E+06     58.7315E+06     9.13540E+06     84.2813E+03         34.7819
            1239     13.2517E-03     64.8594E-03     24.1367E-03    -1.94685E-03    -17.8150E-03    -8.76085E-03     15.0826E-03    -1.94685E-03     9.70043E-03     112.293E-03    -55.0813E-03    -57.3054E-03    -53.9379E-03     108.925E-03    -55.0813E-03     46.6014E-03     131.697E+06     27.9253E+06    -25.9940E+06    -25.9872E+06     131.690E+06     27.9253E+06     551.275E+03         36.6697
            1240     14.1992E-03     64.9194E-03     15.3695E-03    -2.14324E-03    -9.23215E-03    -975.771E-06     7.11314E-03    -2.14324E-03    -2.24883E-03     112.302E-03    -55.1580E-03    -57.2598E-03    -53.6963E-03     108.738E-03    -55.1580E-03     48.2025E-03     158.345E+06     68.8218E+06    -21.6223E+06    -21.6186E+06     158.341E+06     68.8218E+06     363.704E+03         39.2824
            1241     15.1467E-03     64.9647E-03     21.9077E-03    -2.25863E-03    -16.9560E-03    -7.63425E-03     12.5860E-03    -2.25863E-03     13.3028E-03     114.274E-03    -55.2479E-03    -59.0983E-03    -53.6803E-03     108.856E-03    -55.2479E-03     58.2252E-03     160.111E+06     108.064E+06    -15.4657E+06    -15.4636E+06     160.109E+06     108.064E+06     470.687E+03         42.3577
            1242     16.0944E-03     65.0476E-03     22.7773E-03    -2.71168E-03    -20.5876E-03    -12.6750E-03     14.8647E-03    -2.71168E-03    -6.56180E-03     113.153E-03    -54.5811E-03    -58.7218E-03    -53.7649E-03     108.888E-03    -55.2724E-03     44.3615E-03     164.484E+06     124.343E+06    -8.02356E+06    -8.02072E+06     164.481E+06     124.343E+06     669.249E+03         45.2313
            1243     946.103E-06     65.7650E-03         4.36899     201.886E-03        -4.58606    -269.796E-03     52.7231E-03     201.886E-03        -3.60819     111.098E-03    -55.4953E-03    -55.6020E-03    -55.5490E-03     111.091E-03    -55.5415E-03     1.95274E-03    -87.2294E+06    -91.8813E+06    -289.014E+06    -91.3348E+06    -289.008E+06    -87.7815E+06     117.739E+03         28.2905
            1244     1.89227E-03     65.7679E-03         2.07581    -29.6304E-03        -2.05519    -12.6208E-03     33.2370E-03    -29.6304E-03         1.20972     111.091E-03    -55.5105E-03    -55.5951E-03    -55.4896E-03     111.071E-03    -55.5951E-03     3.63374E-03    -77.3097E+06    -87.2807E+06    -284.258E+06    -87.2829E+06    -284.256E+06    -77.3097E+06    -518.999E+03         28.3549
            1245     2.83838E-03     65.7726E-03         1.18944    -17.0294E-03        -1.17559     32.6242E-03    -18.7722E-03    -17.0294E-03    -557.225E-03     111.100E-03    -55.4729E-03    -55.6215E-03    -55.4290E-03     111.056E-03    -55.6215E-03     5.33696E-03    -63.2487E+06    -81.3668E+06    -275.851E+06    -81.3689E+06    -275.849E+06    -63.2487E+06    -489.757E+03         28.4799
            1246     3.78477E-03     65.7794E-03     724.639E-03    -4.12869E-03    -721.410E-03     32.4269E-03    -29.1976E-03    -4.12869E-03     362.118E-03     111.097E-03    -55.3981E-03    -55.6789E-03    -55.3237E-03     111.023E-03    -55.6789E-03     6.99169E-03    -46.7953E+06    -74.4306E+06    -264.206E+06    -74.4314E+06    -264.205E+06    -46.7953E+06    -81.4968E+03         28.6772
            1247     4.73099E-03     65.7878E-03     440.103E-03    -13.2278E-06    -438.809E-03    -4.74628E-03     6.03938E-03    -13.2278E-06    -204.242E-03     111.005E-03    -55.3021E-03    -55.7047E-03    -55.1922E-03     110.895E-03    -55.7047E-03     8.51471E-03    -31.4923E+06    -67.1760E+06    -248.076E+06    -67.1779E+06    -248.074E+06    -31.4923E+06    -197.501E+03         28.9437
            1248     5.67754E-03     65.7975E-03     276.704E-03    -1.47904E-03    -272.867E-03    -13.3125E-03     17.1496E-03    -1.47904E-03     124.964E-03     110.858E-03    -55.2358E-03    -55.6544E-03    -55.0832E-03     110.705E-03    -55.6544E-03     10.0318E-03    -19.9627E+06    -61.1438E+06    -229.377E+06    -61.1516E+06    -229.369E+06    -19.9627E+06     57.9517E+03         29.2796
            1249     6.62403E-03     65.8091E-03     177.922E-03    -2.55715E-03    -172.757E-03    -3.59260E-03     8.75762E-03    -2.55715E-03    -73.3589E-03     110.796E-03    -55.2543E-03    -55.6124E-03    -55.0496E-03     110.591E-03    -55.6124E-03     11.6230E-03    -11.2946E+06    -55.0681E+06    -207.635E+06    -55.0921E+06    -207.611E+06    -11.2946E+06     940.451E+03         29.7000
            1250     7.57042E-03     65.8224E-03     120.989E-03    -2.50720E-03    -115.014E-03    -243.008E-06     6.21783E-03    -2.50720E-03     44.4961E-03     110.731E-03    -55.2076E-03    -55.5609E-03    -54.9363E-03     110.460E-03    -55.5609E-03     13.3739E-03    -5.95287E+06    -48.3644E+06    -177.763E+06    -48.3819E+06    -177.746E+06    -5.95287E+06     645.491E+03         30.2210
            1251     8.51718E-03     65.8378E-03     88.1937E-03    -2.25134E-03    -82.0158E-03    -319.855E-06     6.49773E-03    -2.25134E-03    -21.5871E-03     110.683E-03    -55.1759E-03    -55.4833E-03    -54.8001E-03     110.308E-03    -55.4833E-03     15.7085E-03    -3.09806E+06    -43.2187E+06    -147.120E+06    -43.2226E+06    -147.116E+06    -3.09806E+06    -162.639E+03         30.8553
            1252     9.46370E-03     65.8562E-03     62.6137E-03    -2.22515E-03    -55.8447E-03    -4.58323E-03     11.3522E-03    -2.22515E-03     30.2234E-03     110.688E-03    -55.2259E-03    -55.3851E-03    -54.7214E-03     110.184E-03    -55.3851E-03     18.2348E-03    -1.00961E+06    -39.6878E+06    -115.744E+06    -39.6920E+06    -115.740E+06    -1.00961E+06    -221.177E+03         31.6048
            1253     10.4104E-03     65.8771E-03     42.8221E-03    -2.58971E-03    -36.8313E-03    -8.87315E-03     14.8639E-03    -2.58971E-03    -13.3707E-03     110.607E-03    -55.2409E-03    -55.3188E-03    -54.5597E-03     109.926E-03    -55.3188E-03     21.1377E-03     713.565E+03    -36.4212E+06    -75.2049E+06    -36.4334E+06    -75.1927E+06     713.565E+03    -308.510E+03         32.4787
            1254     11.3574E-03     65.9014E-03     30.8388E-03    -3.00167E-03    -25.9867E-03    -6.29241E-03     11.1445E-03    -3.00167E-03     11.5734E-03     110.511E-03    -55.2036E-03    -55.4094E-03    -54.2795E-03     109.416E-03    -55.2387E-03     26.6054E-03     5.90900E+06    -15.0740E+06    -42.1870E+06    -33.3884E+06    -21.1459E+06     3.18232E+06    -284.311E+03         33.4892
            1255     12.3045E-03     65.9342E-03     24.5163E-03    -2.96479E-03    -19.2137E-03     2.25161E-03     3.05097E-03    -2.96479E-03     476.400E-06     110.821E-03    -55.1238E-03    -55.7982E-03    -54.0006E-03     109.023E-03    -55.1238E-03     34.2081E-03     58.3266E+06       8.536E+06    -30.4348E+06    -30.4345E+06     58.3262E+06       8.536E+06    -144.185E+03         34.7856
            1256     13.2519E-03     65.9758E-03     23.2327E-03    -2.52633E-03    -17.5838E-03     5.33501E-03     313.897E-06    -2.52633E-03    -1.21329E-03     112.280E-03    -55.0744E-03    -57.2965E-03    -53.9597E-03     108.943E-03    -55.0744E-03     46.4250E-03     131.123E+06     27.0810E+06    -26.9316E+06    -26.9284E+06     131.120E+06     27.0810E+06     344.096E+03         36.6752
            1257     14.1990E-03     66.0355E-03     19.3691E-03    -2.17023E-03    -13.4173E-03     1.00630E-03     4.94553E-03    -2.17023E-03    -14.1664E-03     112.265E-03    -55.1483E-03    -57.2157E-03    -53.6898E-03     108.740E-03    -55.1483E-03     47.9624E-03     157.907E+06     67.8344E+06    -22.2884E+06    -22.2764E+06     157.895E+06     67.8344E+06     1.18044E+06         39.2884
            1258     15.1467E-03     66.0810E-03     22.1289E-03    -2.04635E-03    -16.6758E-03    -1.49850E-03     6.95161E-03    -2.04635E-03     25.9159E-03     114.197E-03    -55.2419E-03    -59.0356E-03    -53.6092E-03     108.771E-03    -55.2419E-03     58.2261E-03     160.345E+06     107.779E+06    -15.9876E+06    -15.9777E+06     160.335E+06     107.779E+06     1.03766E+06         42.3644
            1259     16.0943E-03     66.1638E-03     24.7351E-03    -2.11914E-03    -21.3442E-03    -6.11332E-03     9.50422E-03    -2.11914E-03     4.61650E-03     113.157E-03    -54.5962E-03    -58.7179E-03    -53.7615E-03     108.877E-03    -55.2733E-03     44.4404E-03     164.942E+06     124.577E+06    -8.06661E+06    -8.06518E+06     164.941E+06     124.577E+06     259.567E+03         45.2415
            1260     946.112E-06     66.8810E-03         4.44981     209.355E-03        -4.66528    -220.818E-03     5.35233E-03     209.355E-03        -3.67482     111.016E-03    -55.3554E-03    -55.6598E-03    -55.6229E-03     111.009E-03    -55.3855E-03     1.89143E-03    -87.0249E+06    -91.6969E+06    -288.666E+06    -91.0220E+06    -288.661E+06    -87.7050E+06     353.186E+03         28.2873
            1261     1.89231E-03     66.8843E-03         2.10472    -2.86596E-03        -2.10762     7.98903E-03    -10.8869E-03    -2.86596E-03         1.22303     111.071E-03    -55.5166E-03    -55.5662E-03    -55.4961E-03     111.050E-03    -55.5662E-03     3.62341E-03    -76.3431E+06    -86.6922E+06    -283.567E+06    -86.6945E+06    -283.565E+06    -76.3431E+06    -497.569E+03         28.3531
            1262     2.83848E-03     66.8888E-03         1.19660    -1.47246E-03        -1.19948    -9.90232E-03     7.01658E-03    -1.47246E-03    -594.499E-03     111.140E-03    -55.5164E-03    -55.6139E-03    -55.4733E-03     111.097E-03    -55.6139E-03     5.28112E-03    -62.4134E+06    -81.4728E+06    -275.909E+06    -81.4749E+06    -275.907E+06    -62.4134E+06    -465.020E+03         28.4792
            1263     3.78458E-03     66.8955E-03     730.442E-03    -4.10998E-03    -728.440E-03    -13.9565E-03     15.9589E-03    -4.10998E-03     343.129E-03     111.072E-03    -55.3778E-03    -55.6737E-03    -55.3039E-03     110.998E-03    -55.6737E-03     6.96894E-03    -47.5201E+06    -74.9522E+06    -264.364E+06    -74.9535E+06    -264.362E+06    -47.5201E+06    -469.367E+03         28.6771
            1264     4.73121E-03     66.9039E-03     437.594E-03    -5.73111E-03    -433.591E-03    -8.87476E-03     12.8779E-03    -5.73111E-03    -243.183E-03     110.939E-03    -55.2557E-03    -55.6911E-03    -55.1465E-03     110.830E-03    -55.6911E-03     8.48735E-03    -32.9164E+06    -67.9366E+06    -248.330E+06    -67.9382E+06    -248.328E+06    -32.9164E+06    -105.042E+03         28.9441
            1265     5.67755E-03     66.9138E-03     270.716E-03    -5.74435E-03    -265.881E-03    -1.17622E-03     6.01066E-03    -5.74435E-03     91.1757E-03     110.860E-03    -55.2496E-03    -55.6446E-03    -55.0975E-03     110.708E-03    -55.6446E-03     10.0164E-03    -19.7679E+06    -60.8412E+06    -230.516E+06    -60.8485E+06    -230.508E+06    -19.7679E+06     879.664E+03         29.2803
            1266     6.62397E-03     66.9253E-03     184.084E-03    -5.22620E-03    -178.436E-03    -2.59765E-03     8.24626E-03    -5.22620E-03    -82.6505E-03     110.798E-03    -55.2614E-03    -55.5950E-03    -55.0555E-03     110.592E-03    -55.5950E-03     11.6570E-03    -11.7047E+06    -54.1381E+06    -207.271E+06    -54.1452E+06    -207.264E+06    -11.7047E+06     542.301E+03         29.7009
            1267     7.57066E-03     66.9386E-03     131.440E-03    -4.66497E-03    -125.207E-03     1.93513E-03     4.29852E-03    -4.66497E-03     24.2252E-03     110.747E-03    -55.2276E-03    -55.5458E-03    -54.9552E-03     110.475E-03    -55.5458E-03     13.4050E-03    -7.07805E+06    -48.5946E+06    -177.229E+06    -48.5957E+06    -177.228E+06    -7.07805E+06    -18.6858E+03         30.2226
            1268     8.51713E-03     66.9540E-03     86.0724E-03    -3.88490E-03    -79.6718E-03     3.78262E-03     2.61803E-03    -3.88490E-03    -67.0313E-03     110.729E-03    -55.2281E-03    -55.4814E-03    -54.8542E-03     110.355E-03    -55.4814E-03     15.6761E-03    -3.20285E+06    -43.9774E+06    -147.273E+06    -43.9791E+06    -147.271E+06    -3.20285E+06     352.087E+03         30.8574
            1269     9.46372E-03     66.9724E-03     66.4021E-03    -3.55649E-03    -60.7798E-03    -3.81296E-03     9.43526E-03    -3.55649E-03    -28.8350E-03     110.669E-03    -55.2122E-03    -55.3829E-03    -54.7075E-03     110.164E-03    -55.3829E-03     18.2324E-03    -1.03818E+06    -39.9839E+06    -115.302E+06    -39.9865E+06    -115.300E+06    -1.03818E+06     276.667E+03         31.6066
            1270     10.4107E-03     66.9933E-03     50.0673E-03    -3.59237E-03    -45.1401E-03    -5.59670E-03     10.6711E-03    -3.73957E-03    -68.1027E-03     110.550E-03    -55.1770E-03    -55.3132E-03    -54.5015E-03     109.874E-03    -55.3132E-03     21.0518E-03     561.274E+03    -36.7913E+06    -75.2286E+06    -36.7931E+06    -75.2269E+06     561.274E+03     90.5233E+03         32.4804
            1271     11.3575E-03     67.0176E-03     20.9675E-03    -3.70417E-03    -16.0977E-03    -3.19182E-03     8.20874E-03    -3.85137E-03    -4.46422E-03     110.569E-03    -55.1757E-03    -55.4894E-03    -54.3406E-03     109.477E-03    -55.2324E-03     26.5603E-03     5.69359E+06    -15.5807E+06    -42.3895E+06    -33.9979E+06    -21.2164E+06     2.93767E+06     91.2566E+03         33.4918
            1272     12.3045E-03     67.0505E-03     22.7866E-03    -3.64446E-03    -17.5985E-03     1.45568E-03     3.73245E-03    -3.64446E-03     3.15701E-03     110.899E-03    -55.1212E-03    -55.8873E-03    -54.0815E-03     109.093E-03    -55.1212E-03     34.3035E-03     58.1552E+06     7.71292E+06    -31.4141E+06    -31.4114E+06     58.1525E+06     7.71292E+06     268.306E+03         34.7896
            1273     13.2515E-03     67.0920E-03     23.0782E-03    -3.04378E-03    -17.1458E-03     8.31199E-03    -2.37958E-03    -3.04378E-03     11.2533E-03     112.229E-03    -55.0710E-03    -57.2578E-03    -53.8967E-03     108.868E-03    -55.0710E-03     46.5636E-03     130.194E+06     25.3667E+06    -28.5843E+06    -28.5813E+06     130.191E+06     25.3667E+06     517.860E+03         36.6808
            1274     14.1991E-03     67.1521E-03     19.4408E-03    -2.39393E-03    -13.3462E-03     4.99008E-03     1.10459E-03    -2.39393E-03    -747.729E-06     112.167E-03    -55.1383E-03    -57.1494E-03    -53.6113E-03     108.629E-03    -55.1383E-03     47.9932E-03     157.103E+06     66.2088E+06    -23.3442E+06    -23.3322E+06     157.091E+06     66.2088E+06     620.835E+03         39.2946
            1275     15.1467E-03     67.1966E-03     16.9923E-03    -2.04929E-03    -11.4301E-03     1.43719E-03     4.12507E-03    -2.04929E-03     16.8793E-03     114.213E-03    -55.2338E-03    -59.0965E-03    -53.6346E-03     108.751E-03    -55.2338E-03     58.3732E-03     161.222E+06     107.781E+06    -15.2461E+06    -15.2333E+06     161.210E+06     107.781E+06     707.940E+03         42.3715
            1276     16.0945E-03     67.2804E-03     25.4094E-03    -1.77847E-03    -19.2435E-03     4.38977E-03     1.77609E-03    -1.77847E-03    -15.4794E-03     113.240E-03    -54.5960E-03    -58.8057E-03    -53.8030E-03     108.917E-03    -55.2764E-03     44.6398E-03     165.708E+06     125.169E+06    -7.02094E+06    -7.01857E+06     165.705E+06     125.169E+06     284.633E+03         45.2522
            1277     946.224E-06     67.9973E-03         4.51477     234.435E-03        -4.75394    -181.757E-03    -57.4168E-03     234.435E-03        -3.73749     110.996E-03    -55.3505E-03    -55.6489E-03    -55.6347E-03     110.990E-03    -55.3584E-03     1.79113E-03    -87.3164E+06    -89.6406E+06    -288.005E+06    -88.9738E+06    -287.985E+06    -88.0030E+06    -917.316E+03         28.2872
            1278     1.89232E-03     68.0003E-03         2.12951     18.1609E-03        -2.15335    -14.9439E-03    -8.89958E-03     18.1609E-03         1.24658     111.049E-03    -55.5141E-03    -55.5479E-03    -55.4932E-03     111.028E-03    -55.5479E-03     3.63610E-03    -77.6319E+06    -86.3410E+06     -283.72E+06    -86.3417E+06    -283.719E+06    -77.6319E+06     36.8618E+03         28.3520
            1279     2.83844E-03     68.0052E-03         1.20058     654.633E-06        -1.20473    -54.5322E-03     50.3877E-03     654.633E-06    -632.749E-03     111.089E-03    -55.4823E-03    -55.5974E-03    -55.4393E-03     111.046E-03    -55.5974E-03     5.29095E-03    -62.1621E+06    -81.2728E+06    -275.673E+06    -81.2731E+06    -275.673E+06    -62.1621E+06     3.66662E+03         28.4784
            1280     3.78486E-03     68.0116E-03     729.257E-03    -11.0845E-03    -720.064E-03    -30.9926E-03     40.1856E-03    -11.0845E-03     322.944E-03     111.059E-03    -55.3743E-03    -55.6659E-03    -55.3012E-03     110.986E-03    -55.6659E-03     6.92179E-03    -46.4301E+06    -75.1170E+06    -264.144E+06    -75.1186E+06    -264.142E+06    -46.4301E+06    -68.4718E+03         28.6771
            1281     4.73107E-03     68.0199E-03     460.055E-03    -11.9996E-03    -449.214E-03     3.95116E-03     6.88949E-03    -11.9996E-03    -214.986E-03     110.950E-03    -55.2750E-03    -55.6834E-03    -55.1651E-03     110.840E-03    -55.6834E-03     8.50811E-03    -32.9397E+06    -68.6759E+06    -249.085E+06    -68.6780E+06    -249.083E+06    -32.9397E+06     217.302E+03         28.9444
            1282     5.67762E-03     68.0299E-03     284.397E-03    -9.57674E-03    -276.274E-03     410.308E-06     7.71292E-03    -9.57674E-03     134.189E-03     110.832E-03    -55.2451E-03    -55.6270E-03    -55.0919E-03     110.679E-03    -55.6270E-03     10.0523E-03    -21.3775E+06    -61.3784E+06    -230.979E+06    -61.3828E+06    -230.975E+06    -21.3775E+06     113.162E+03         29.2805
            1283     6.62420E-03     68.0415E-03     174.789E-03    -8.45577E-03    -166.647E-03    -4.10848E-03     12.2502E-03    -8.45577E-03    -84.9716E-03     110.793E-03    -55.2769E-03    -55.5821E-03    -55.0704E-03     110.587E-03    -55.5821E-03     11.6751E-03    -12.2531E+06    -54.2706E+06    -206.856E+06    -54.2770E+06    -206.850E+06    -12.2531E+06     169.649E+03         29.7010
            1284     7.57056E-03     68.0549E-03     122.773E-03    -7.47461E-03    -114.679E-03     3.77826E-03     4.31661E-03    -7.47461E-03     19.1040E-03     110.762E-03    -55.2466E-03    -55.5421E-03    -54.9753E-03     110.491E-03    -55.5421E-03     13.3827E-03    -7.14851E+06    -48.9801E+06    -177.653E+06    -48.9849E+06    -177.648E+06    -7.14851E+06     612.733E+03         30.2228
            1285     8.51714E-03     68.0705E-03     102.258E-03    -6.08205E-03    -95.0715E-03     6.49406E-03     692.467E-06    -6.08205E-03    -21.8263E-03     110.720E-03    -55.2228E-03    -55.4800E-03    -54.8465E-03     110.343E-03    -55.4800E-03     15.7180E-03    -3.15391E+06    -44.6139E+06    -147.426E+06    -44.6190E+06    -147.420E+06    -3.15391E+06     673.941E+03         30.8584
            1286     9.46375E-03     68.0887E-03     68.5611E-03    -5.09693E-03    -62.6987E-03     114.257E-06     5.74821E-03    -5.09693E-03     46.4718E-03     110.658E-03    -55.2036E-03    -55.3834E-03    -54.7012E-03     110.156E-03    -55.3834E-03     18.2001E-03    -742.142E+03    -40.4744E+06    -114.893E+06    -40.4791E+06    -114.889E+06    -742.142E+03     548.418E+03         31.6086
            1287     10.4105E-03     68.1094E-03     38.3029E-03    -4.65279E-03    -33.0289E-03    -4.82893E-03     10.2501E-03    -4.79999E-03    -18.1232E-03     110.567E-03    -55.1853E-03    -55.3176E-03    -54.5172E-03     109.899E-03    -55.3176E-03     20.9317E-03     463.180E+03    -37.0389E+06    -75.5089E+06    -37.0535E+06    -75.4943E+06     463.180E+03     479.318E+03         32.4832
            1288     11.3575E-03     68.1336E-03     26.5786E-03    -4.32791E-03    -21.5690E-03     2.89298E-03     2.26384E-03    -4.47511E-03     3.64845E-03     110.594E-03    -55.1910E-03    -55.4992E-03    -54.3645E-03     109.503E-03    -55.2344E-03     26.5483E-03     6.03381E+06    -15.3714E+06    -42.5602E+06    -34.0825E+06    -20.9472E+06     3.13196E+06     485.827E+03         33.4955
            1289     12.3044E-03     68.1668E-03     22.6684E-03    -3.74397E-03    -19.0017E-03     7.26329E-03    -3.59652E-03    -3.74397E-03    -298.733E-06     110.879E-03    -55.1211E-03    -55.8687E-03    -54.0624E-03     109.073E-03    -55.1211E-03     34.3050E-03     57.6895E+06     7.49697E+06    -31.1784E+06    -31.1736E+06     57.6847E+06     7.49697E+06     629.806E+03         34.7943
            1290     13.2519E-03     68.2080E-03     24.5600E-03    -3.16458E-03    -20.1798E-03     1.44040E-03     2.93976E-03    -3.16458E-03     11.4934E-03     112.198E-03    -55.0690E-03    -57.2331E-03    -53.8573E-03     108.822E-03    -55.0690E-03     46.6424E-03     130.004E+06     25.2178E+06    -27.6376E+06    -27.6337E+06     130.001E+06     25.2178E+06     675.891E+03         36.6871
            1291     14.1992E-03     68.2682E-03     25.0840E-03    -3.04631E-03    -19.8478E-03    -3.38151E-03     8.61770E-03    -3.04631E-03    -9.45068E-03     112.223E-03    -55.1405E-03    -57.2694E-03    -53.7358E-03     108.689E-03    -55.1405E-03     47.9488E-03     157.950E+06     67.0207E+06    -22.3838E+06    -22.3799E+06     157.946E+06     67.0207E+06    -172.477E+03         39.3028
            1292     15.1467E-03     68.3129E-03     21.7046E-03    -3.09751E-03    -16.4935E-03    -1.76353E-03     6.97468E-03    -3.09751E-03    -11.1145E-03     114.250E-03    -55.2422E-03    -59.2022E-03    -53.7767E-03     108.824E-03    -55.2422E-03     58.1580E-03     161.549E+06     108.234E+06    -15.3896E+06    -15.3841E+06     161.543E+06     108.234E+06     66.2304E+03         42.3819
            1293     16.0940E-03     68.3971E-03     27.3641E-03    -2.92365E-03    -23.1778E-03     4.73295E-03    -546.575E-06    -2.92365E-03    -41.1945E-03     113.147E-03    -54.5608E-03    -58.7954E-03    -53.7636E-03     108.837E-03    -55.2831E-03     44.6442E-03     165.513E+06     124.911E+06    -7.64112E+06    -7.63800E+06     165.510E+06     124.911E+06     426.260E+03         45.2655
            1294     946.067E-06     69.1137E-03         4.56532     230.311E-03        -4.80257    -180.151E-03    -57.1084E-03     230.311E-03        -3.77707     111.008E-03    -55.3926E-03    -55.6157E-03    -55.5748E-03     111.002E-03    -55.4274E-03     1.82562E-03    -86.9234E+06    -90.2425E+06    -287.993E+06    -90.2555E+06    -287.974E+06    -86.9300E+06    -757.887E+03         28.2882
            1295     1.89233E-03     69.1166E-03         2.13323     13.7114E-03        -2.14914    -31.6586E-03     15.7438E-03     13.7114E-03         1.30800     110.976E-03    -55.4462E-03    -55.5436E-03    -55.4254E-03     110.955E-03    -55.5436E-03     3.59880E-03    -77.1147E+06    -86.5672E+06    -283.964E+06    -86.5675E+06    -283.964E+06    -77.1147E+06     104.182E+03         28.3510
            1296     2.83862E-03     69.1215E-03         1.20112    -3.05328E-03        -1.19907    -35.5632E-03     37.6102E-03    -3.05328E-03    -575.200E-03     110.990E-03    -55.4153E-03    -55.5713E-03    -55.3725E-03     110.947E-03    -55.5713E-03     5.28236E-03    -62.0516E+06    -80.8168E+06    -275.796E+06     -80.817E+06    -275.796E+06    -62.0516E+06     78.6676E+03         28.4770
            1297     3.78483E-03     69.1278E-03     743.910E-03    -8.70377E-03    -735.487E-03    -11.0342E-03     19.4573E-03    -8.70377E-03     345.057E-03     111.045E-03    -55.3855E-03    -55.6434E-03    -55.3129E-03     110.972E-03    -55.6434E-03     6.89717E-03    -45.3177E+06    -74.0035E+06    -264.554E+06    -74.0059E+06    -264.552E+06    -45.3177E+06     527.582E+03         28.6766
            1298     4.73131E-03     69.1362E-03     475.926E-03    -8.42141E-03    -467.710E-03    -3.38122E-03     11.5968E-03    -8.42141E-03    -189.897E-03     111.007E-03    -55.3384E-03    -55.6678E-03    -55.2286E-03     110.897E-03    -55.6678E-03     8.51233E-03    -31.2332E+06    -66.8793E+06    -248.883E+06    -66.8817E+06    -248.881E+06    -31.2332E+06     487.113E+03         28.9448
            1299     5.67767E-03     69.1460E-03     295.800E-03    -8.08724E-03    -287.438E-03    -10.6683E-03     19.0306E-03    -8.08724E-03     171.328E-03     110.885E-03    -55.2993E-03    -55.6239E-03    -55.1475E-03     110.734E-03    -55.6239E-03     10.0159E-03    -20.2057E+06    -60.4926E+06    -230.656E+06    -60.4985E+06    -230.650E+06    -20.2057E+06     72.7564E+03         29.2811
            1300     6.62408E-03     69.1577E-03     179.680E-03    -8.09249E-03    -171.987E-03    -5.69584E-03     13.3887E-03    -8.09249E-03    -60.0729E-03     110.794E-03    -55.2808E-03    -55.5888E-03    -55.0753E-03     110.588E-03    -55.5888E-03     11.6418E-03    -12.4454E+06    -55.1911E+06    -207.902E+06    -55.2012E+06    -207.892E+06    -12.4454E+06     584.420E+03         29.7011
            1301     7.57060E-03     69.1713E-03     124.573E-03    -6.92143E-03    -117.126E-03     8.35814E-03    -911.078E-06    -6.92143E-03     49.5678E-03     110.726E-03    -55.2113E-03    -55.5423E-03    -54.9400E-03     110.455E-03    -55.5423E-03     13.3817E-03    -7.38250E+06    -49.8593E+06    -177.868E+06    -49.8672E+06    -177.860E+06    -7.38250E+06     992.911E+03         30.2226
            1302     8.51722E-03     69.1864E-03     92.3813E-03    -5.05709E-03    -86.7799E-03     10.6973E-03    -5.09582E-03    -5.05709E-03    -13.3939E-03     110.697E-03    -55.1994E-03    -55.4749E-03    -54.8221E-03     110.320E-03    -55.4749E-03     15.7333E-03    -3.09734E+06    -44.7827E+06    -147.295E+06    -44.7899E+06    -147.288E+06    -3.09734E+06     838.678E+03         30.8589
            1303     9.46388E-03     69.2052E-03     66.0416E-03    -3.70789E-03    -61.5049E-03     5.46189E-03    -925.136E-06    -3.70789E-03     41.0843E-03     110.673E-03    -55.2217E-03    -55.3785E-03    -54.7221E-03     110.174E-03    -55.3785E-03     18.1553E-03    -610.011E+03    -40.5659E+06    -115.051E+06    -40.5749E+06    -115.042E+06    -610.011E+03     740.682E+03         31.6108
            1304     10.4106E-03     69.2254E-03     41.1121E-03    -3.41583E-03    -36.3820E-03    -7.39315E-03     12.1233E-03    -3.41583E-03    -15.4216E-03     110.632E-03    -55.2384E-03    -55.3291E-03    -54.5825E-03     109.965E-03    -55.3177E-03     20.9183E-03     768.801E+03    -36.8962E+06    -75.3896E+06    -36.9170E+06    -75.3688E+06     768.801E+03     696.081E+03         32.4865
            1305     11.3574E-03     69.2501E-03     36.2923E-03    -3.91195E-03    -31.4939E-03    -11.9468E-03     16.7452E-03    -3.91195E-03    -4.88574E-03     110.623E-03    -55.2238E-03    -55.5005E-03    -54.3964E-03     109.535E-03    -55.2393E-03     26.5353E-03     6.29650E+06    -15.0843E+06    -42.5523E+06    -33.7729E+06    -20.9041E+06     3.33692E+06     720.458E+03         33.4993
            1306     12.3045E-03     69.2828E-03     32.6543E-03    -4.22332E-03    -27.0612E-03    -3.42412E-03     9.01718E-03    -4.22332E-03    -11.3063E-03     110.878E-03    -55.1285E-03    -55.8585E-03    -54.0776E-03     109.097E-03    -55.1285E-03     34.0730E-03     57.6592E+06     7.67967E+06    -30.7698E+06    -30.7611E+06     57.6505E+06     7.67967E+06     452.515E+03         34.7993
            1307     13.2515E-03     69.3241E-03     29.3317E-03    -4.47144E-03    -24.8600E-03    -10.2070E-03     14.6787E-03    -4.47144E-03     1.55323E-03     112.210E-03    -55.0825E-03    -57.2210E-03    -53.8901E-03     108.879E-03    -55.0825E-03     46.3250E-03     130.268E+06     25.6208E+06    -27.0580E+06    -27.0565E+06     130.266E+06     25.6208E+06    -25.7650E+03         36.6939
            1308     14.1990E-03     69.3847E-03     26.5126E-03    -5.03521E-03    -22.2547E-03    -12.1452E-03     16.4031E-03    -5.03521E-03    -35.6240E-03     112.262E-03    -55.1613E-03    -57.3506E-03    -53.8178E-03     108.729E-03    -55.1613E-03     48.0067E-03     158.660E+06     68.2556E+06    -21.8302E+06    -21.8289E+06     158.659E+06     68.2556E+06    -72.7239E+03         39.3126
            1309     15.1460E-03     69.4298E-03     21.7515E-03    -5.09417E-03    -17.7348E-03     4.48312E-03    -466.391E-06    -5.09417E-03    -28.0283E-03     114.234E-03    -55.2625E-03    -59.2832E-03    -53.8587E-03     108.810E-03    -55.2625E-03     58.2432E-03     161.710E+06     108.943E+06    -15.1411E+06    -15.1385E+06     161.708E+06     108.943E+06     392.566E+03         42.3950
            1310     16.0942E-03     69.5126E-03     23.3753E-03    -4.57769E-03    -22.1810E-03     5.90488E-03    -4.71064E-03    -4.57769E-03    -35.1187E-03     113.020E-03    -54.4640E-03    -58.7827E-03    -53.6615E-03     108.728E-03    -55.2930E-03     44.7120E-03     165.144E+06     124.667E+06    -7.63827E+06    -7.63650E+06     165.142E+06     124.667E+06     279.990E+03         45.2812
            1311     946.143E-06     70.2300E-03         4.65008     172.408E-03        -4.81766    -193.554E-03     25.9781E-03     172.408E-03        -3.76604     110.988E-03    -55.3608E-03    -55.6246E-03    -55.5777E-03     110.982E-03    -55.4017E-03     1.82720E-03    -86.7593E+06    -91.2937E+06    -287.911E+06    -90.8079E+06    -287.904E+06    -87.2513E+06     616.712E+03         28.2879
            1312     1.89229E-03     70.2327E-03         2.18799    -6.53471E-03        -2.17953     9.72220E-03    -1.25861E-03    -6.53471E-03         1.33130     110.941E-03    -55.4069E-03    -55.5399E-03    -55.3872E-03     110.921E-03    -55.5399E-03     3.51425E-03    -75.9241E+06    -86.7605E+06    -283.870E+06    -86.7612E+06    -283.869E+06    -75.9241E+06     69.5153E+03         28.3513
            1313     2.83867E-03     70.2376E-03         1.22124     355.108E-06        -1.22224     17.3450E-03    -18.3447E-03     355.108E-06    -592.968E-03     110.934E-03    -55.3742E-03    -55.5581E-03    -55.3318E-03     110.891E-03    -55.5581E-03     5.24090E-03    -61.7342E+06    -81.1554E+06    -276.153E+06    -81.1561E+06    -276.152E+06    -61.7342E+06     190.525E+03         28.4771
            1314     3.78507E-03     70.2442E-03     747.737E-03     1.76995E-03    -751.190E-03    -9.90371E-03     6.45094E-03     1.76995E-03     352.063E-03     111.019E-03    -55.3984E-03    -55.6154E-03    -55.3263E-03     110.947E-03    -55.6154E-03     6.88231E-03    -46.7085E+06    -74.4336E+06    -265.344E+06    -74.4354E+06    -265.342E+06    -46.7085E+06     290.306E+03         28.6768
            1315     4.73130E-03     70.2523E-03     471.784E-03    -2.26154E-03    -470.868E-03    -28.4196E-03     29.3363E-03    -2.26154E-03    -204.735E-03     111.029E-03    -55.3866E-03    -55.6493E-03    -55.2787E-03     110.921E-03    -55.6493E-03     8.43870E-03    -31.6790E+06    -67.2388E+06    -248.518E+06    -67.2430E+06    -248.513E+06    -31.6790E+06     511.312E+03         28.9456
            1316     5.67760E-03     70.2623E-03     291.972E-03    -5.11565E-03    -288.854E-03    -8.31884E-03     11.4360E-03    -5.11565E-03     156.374E-03     110.933E-03    -55.3388E-03    -55.6282E-03    -55.1874E-03     110.781E-03    -55.6282E-03     10.0010E-03    -18.8262E+06    -60.6471E+06    -231.261E+06    -60.6566E+06    -231.252E+06    -18.8262E+06     1.06555E+06         29.2823
            1317     6.62398E-03     70.2739E-03     175.527E-03    -4.78333E-03    -172.355E-03     3.20529E-03    -33.2757E-06    -4.78333E-03    -75.8744E-03     110.812E-03    -55.2814E-03    -55.5993E-03    -55.0756E-03     110.606E-03    -55.5993E-03     11.6527E-03    -11.4874E+06    -54.4789E+06    -208.434E+06    -54.4909E+06    -208.422E+06    -11.4874E+06     1.34677E+06         29.7022
            1318     7.57071E-03     70.2872E-03     118.632E-03    -4.32857E-03    -115.499E-03    -6.58744E-03     9.72058E-03    -4.32857E-03     39.6850E-03     110.730E-03    -55.2128E-03    -55.5435E-03    -54.9408E-03     110.458E-03    -55.5435E-03     13.3959E-03    -7.09841E+06    -48.9457E+06    -177.668E+06    -48.9540E+06    -177.659E+06    -7.09841E+06     1.00729E+06         30.2234
            1319     8.51716E-03     70.3029E-03     82.9610E-03    -4.87634E-03    -77.5177E-03    -12.1389E-03     17.5822E-03    -4.87634E-03    -36.3004E-03     110.696E-03    -55.2014E-03    -55.4717E-03    -54.8273E-03     110.322E-03    -55.4717E-03     15.6751E-03    -2.91530E+06    -44.2933E+06    -147.542E+06    -44.3048E+06    -147.531E+06    -2.91530E+06     978.297E+03         30.8598
            1320     9.46389E-03     70.3213E-03     63.4648E-03    -5.08054E-03    -55.8384E-03    -284.981E-06     7.91129E-03    -5.08054E-03     3.01159E-03     110.664E-03    -55.2113E-03    -55.3768E-03    -54.7145E-03     110.167E-03    -55.3768E-03     18.0989E-03    -477.220E+03    -40.2983E+06    -115.205E+06    -40.3139E+06    -115.189E+06    -477.220E+03     1.01239E+06         31.6121
            1321     10.4106E-03     70.3419E-03     45.6779E-03    -4.32536E-03    -38.5431E-03     8.21595E-03    -1.08110E-03    -4.32536E-03    -38.4209E-03     110.673E-03    -55.2621E-03    -55.3540E-03    -54.6276E-03     110.007E-03    -55.3220E-03     20.9158E-03     1.09536E+06    -36.6625E+06    -75.2810E+06    -36.6860E+06    -75.2575E+06     1.09536E+06     809.586E+03         32.4886
            1322     11.3573E-03     70.3661E-03     34.0854E-03    -3.83289E-03    -28.4077E-03    -4.92302E-03     10.6008E-03    -3.83289E-03    -11.0809E-03     110.716E-03    -55.2494E-03    -55.5775E-03    -54.4955E-03     109.634E-03    -55.2494E-03     26.4718E-03     6.19956E+06    -15.0530E+06    -42.2348E+06    -33.5145E+06    -21.0800E+06     3.50620E+06     764.145E+03         33.5024
            1323     12.3042E-03     70.3992E-03     41.5809E-03    -4.58691E-03    -37.2433E-03    -22.8591E-03     27.1967E-03    -4.58691E-03     629.289E-06     110.995E-03    -55.1446E-03    -55.9617E-03    -54.1900E-03     109.223E-03    -55.1446E-03     34.0075E-03     58.2146E+06     8.23052E+06    -30.7785E+06    -30.7685E+06     58.2046E+06     8.23052E+06     510.451E+03         34.8036
            1324     13.2511E-03     70.4405E-03     32.1885E-03    -4.96117E-03    -28.7018E-03    -18.5079E-03     22.7823E-03    -5.74894E-03     27.1995E-03     112.210E-03    -55.1056E-03    -57.1976E-03    -53.8685E-03     108.881E-03    -55.1056E-03     46.2926E-03     130.814E+06     26.2206E+06    -27.7119E+06    -27.7101E+06     130.813E+06     26.2206E+06     16.0492E+03         36.7003
            1325     14.1986E-03     70.5008E-03     16.8548E-03    -5.23167E-03    -14.4002E-03    -841.639E-06     4.08403E-03    -6.01944E-03    -9.30434E-03     112.166E-03    -55.1722E-03    -57.2256E-03    -53.6426E-03     108.583E-03    -55.1722E-03     48.3617E-03     157.812E+06     67.5251E+06    -23.1917E+06    -23.1907E+06     157.811E+06     67.5251E+06     152.732E+03         39.3220
            1326     15.1468E-03     70.5464E-03     21.5208E-03    -5.48565E-03    -18.8744E-03     4.37353E-03    -1.72707E-03    -5.48565E-03     10.6467E-03     114.200E-03    -55.2612E-03    -59.2241E-03    -53.7832E-03     108.759E-03    -55.2612E-03     58.4680E-03     161.876E+06     108.487E+06    -16.4357E+06    -16.4341E+06     161.874E+06     108.487E+06     225.976E+03         42.4080
            1327     16.0937E-03     70.6291E-03     21.8050E-03    -4.98437E-03    -20.2096E-03    -349.967E-06     1.94539E-03    -4.98437E-03     1.89592E-03     112.991E-03    -54.4119E-03    -58.7717E-03    -53.6252E-03     108.723E-03    -55.2912E-03     44.7052E-03     165.614E+06     125.092E+06    -7.78480E+06    -7.78364E+06     165.613E+06     125.092E+06    -124.269E+03         45.2975
            1328     946.196E-06     71.3461E-03         4.65279     143.838E-03        -4.78332    -204.350E-03     73.8196E-03     143.838E-03        -3.75970     110.877E-03    -55.3042E-03    -55.5727E-03    -55.5546E-03     110.870E-03    -55.3157E-03     1.93060E-03    -88.2029E+06    -91.6613E+06    -287.685E+06    -91.1756E+06    -287.679E+06    -88.6950E+06     700.900E+03         28.2884
            1329     1.89238E-03     71.3491E-03         2.21044    -21.1891E-03        -2.18273     14.9590E-03     12.7602E-03    -21.1891E-03         1.27910     110.946E-03    -55.4382E-03    -55.5128E-03    -55.4369E-03     110.926E-03    -55.4949E-03     3.49764E-03    -77.6904E+06    -87.4194E+06    -284.240E+06    -87.4201E+06    -284.239E+06    -77.6904E+06     198.218E+03         28.3530
            1330     2.83866E-03     71.3533E-03         1.23646    -6.53529E-03        -1.22801     27.5586E-03    -19.1097E-03    -6.53529E-03    -649.620E-03     110.964E-03    -55.4155E-03    -55.5504E-03    -55.3791E-03     110.923E-03    -55.5451E-03     5.18569E-03    -62.8153E+06    -81.9788E+06    -276.352E+06    -81.9802E+06    -276.350E+06    -62.8153E+06     397.463E+03         28.4790
            1331     3.78498E-03     71.3603E-03     743.314E-03    -567.932E-06    -742.562E-03     2.41237E-03    -1.65969E-03    -567.932E-06     329.495E-03     111.025E-03    -55.4009E-03    -55.6198E-03    -55.3289E-03     110.953E-03    -55.6198E-03     6.87912E-03    -46.6385E+06    -75.3748E+06    -265.501E+06    -75.3771E+06    -265.498E+06    -46.6385E+06     420.345E+03         28.6783
            1332     4.73122E-03     71.3686E-03     460.946E-03    -1.41927E-03    -461.567E-03    -13.1780E-03     12.5574E-03    -1.41927E-03    -234.199E-03     111.003E-03    -55.3504E-03    -55.6525E-03    -55.2419E-03     110.895E-03    -55.6525E-03     8.45228E-03    -32.1349E+06    -68.7055E+06    -249.392E+06    -68.7119E+06    -249.385E+06    -32.1349E+06     849.824E+03         28.9469
            1333     5.67762E-03     71.3783E-03     279.412E-03    -3.10573E-03    -280.509E-03    -9.23096E-03     8.13446E-03    -3.10573E-03     128.153E-03     110.908E-03    -55.3097E-03    -55.6287E-03    -55.1566E-03     110.755E-03    -55.6287E-03     10.0535E-03    -19.3094E+06    -61.6958E+06    -231.939E+06    -61.7054E+06    -231.929E+06    -19.3094E+06     1.24521E+06         29.2834
            1334     6.62419E-03     71.3902E-03     170.296E-03    -3.84187E-03    -169.900E-03    -6.99992E-03     7.39537E-03    -3.84187E-03    -91.7253E-03     110.844E-03    -55.3185E-03    -55.6023E-03    -55.1132E-03     110.639E-03    -55.6023E-03     11.6455E-03    -11.4450E+06    -54.5701E+06    -208.336E+06    -54.5793E+06    -208.326E+06    -11.4450E+06     1.12721E+06         29.7031
            1335     7.57047E-03     71.4035E-03     111.979E-03    -4.58252E-03    -109.271E-03    -12.5027E-03     15.2100E-03    -4.58252E-03     28.6168E-03     110.744E-03    -55.2530E-03    -55.5461E-03    -54.9803E-03     110.471E-03    -55.5461E-03     13.4104E-03    -7.36600E+06    -48.5740E+06    -177.721E+06    -48.5849E+06    -177.710E+06    -7.36600E+06     1.10956E+06         30.2241
            1336     8.51712E-03     71.4190E-03     87.0594E-03    -5.45817E-03    -82.2128E-03    -12.1223E-03     16.9689E-03    -5.45817E-03    -25.0509E-03     110.693E-03    -55.2120E-03    -55.4719E-03    -54.8375E-03     110.318E-03    -55.4719E-03     15.6906E-03    -2.93949E+06    -43.8221E+06    -148.069E+06    -43.8387E+06    -148.053E+06    -2.93949E+06     1.23248E+06         30.8600
            1337     9.46382E-03     71.4374E-03     60.1083E-03    -5.89760E-03    -52.5831E-03    -7.61052E-03     15.1357E-03    -5.89760E-03     31.5860E-03     110.706E-03    -55.2436E-03    -55.3836E-03    -54.7475E-03     110.210E-03    -55.3836E-03     18.0884E-03    -71.3686E+03    -39.7622E+06    -115.097E+06    -39.7924E+06    -115.066E+06    -71.3686E+03     1.36383E+06         31.6114
            1338     10.4105E-03     71.4582E-03     36.1756E-03    -5.57594E-03    -27.7207E-03     3.06057E-03     5.39441E-03    -5.57594E-03    -21.6478E-03     110.691E-03    -55.2863E-03    -55.3549E-03    -54.6428E-03     110.027E-03    -55.3344E-03     20.8841E-03     1.43766E+06    -36.5110E+06    -75.0439E+06    -36.5500E+06    -75.0048E+06     1.43766E+06     1.09674E+06         32.4877
            1339     11.3573E-03     71.4825E-03     23.5826E-03    -4.81890E-03    -17.9753E-03     4.31905E-03     1.28830E-03    -4.81890E-03     889.402E-06     110.731E-03    -55.2500E-03    -55.5859E-03    -54.4860E-03     109.638E-03    -55.2575E-03     26.5734E-03     6.30542E+06    -14.9350E+06    -41.7819E+06    -33.1821E+06    -21.0469E+06     3.81748E+06     565.867E+03         33.5027
            1340     12.3039E-03     71.5155E-03     30.7991E-03    -4.70148E-03    -27.5847E-03    -11.0449E-03     14.2593E-03    -4.70148E-03     13.7678E-03     110.997E-03    -55.1455E-03    -55.9552E-03    -54.1453E-03     109.187E-03    -55.1455E-03     34.3625E-03     58.1825E+06     8.41650E+06    -29.6317E+06    -29.6276E+06     58.1784E+06     8.41650E+06     498.251E+03         34.8069
            1341     13.2510E-03     71.5567E-03     26.5969E-03    -4.20349E-03    -25.5448E-03    -7.40300E-03     9.24288E-03    -4.99127E-03     23.5086E-03     112.227E-03    -55.1059E-03    -57.2089E-03    -53.8509E-03     108.869E-03    -55.1059E-03     46.5351E-03     130.709E+06     26.6983E+06    -26.3499E+06    -26.3421E+06     130.701E+06     26.6983E+06     893.055E+03         36.7068
            1342     14.1989E-03     71.6163E-03     10.5263E-03    -3.62801E-03    -10.4951E-03     5.45856E-03    -4.40561E-03    -4.64980E-03    -5.29502E-03     112.216E-03    -55.1687E-03    -57.2418E-03    -53.6324E-03     108.607E-03    -55.1687E-03     48.5689E-03     157.834E+06     68.0289E+06    -22.0939E+06    -22.0869E+06     157.827E+06     68.0289E+06     821.337E+03         39.3308
            1343     15.1460E-03     71.6631E-03     18.9136E-03    -3.97428E-03    -17.4280E-03    -3.44159E-03     5.16121E-03    -4.20830E-03     23.8123E-03     114.134E-03    -55.2552E-03    -59.0739E-03    -53.6422E-03     108.703E-03    -55.2552E-03     58.4546E-03     162.851E+06     109.004E+06    -15.5361E+06    -15.5347E+06     162.849E+06     109.004E+06     46.5379E+03         42.4198
            1344     16.0946E-03     71.7450E-03     27.1972E-03    -4.22823E-03    -23.8245E-03    -7.45749E-03     10.8302E-03    -4.22823E-03    -246.502E-06     112.935E-03    -54.4654E-03    -58.6341E-03    -53.5777E-03     108.700E-03    -55.2872E-03     44.4946E-03     165.916E+06     125.145E+06    -8.01021E+06    -8.00831E+06     165.914E+06     125.145E+06    -533.745E+03         45.3135
            1345     946.375E-06     72.4621E-03         4.56854     151.698E-03        -4.70542    -201.631E-03     64.7559E-03     151.698E-03        -3.75812     110.765E-03    -55.2314E-03    -55.5349E-03    -55.5110E-03     110.759E-03    -55.2487E-03     1.90066E-03    -88.8912E+06    -91.6177E+06     -287.66E+06    -91.3670E+06    -287.659E+06    -89.1427E+06     37.4936E+03         28.2898
            1346     1.89257E-03     72.4651E-03         2.15325    -20.2588E-03        -2.12125    -1.75959E-03     33.7597E-03    -20.2588E-03         1.23710     110.901E-03    -55.4316E-03    -55.4823E-03    -55.4451E-03     110.881E-03    -55.4489E-03     3.54952E-03    -78.5183E+06    -87.2671E+06    -284.813E+06    -87.2676E+06    -284.813E+06    -78.5183E+06    -94.0356E+03         28.3542
            1347     2.83862E-03     72.4696E-03         1.23175    -13.1640E-03        -1.21316     1.53876E-03     17.0531E-03    -13.1640E-03    -592.438E-03     111.031E-03    -55.4784E-03    -55.5476E-03    -55.4563E-03     110.988E-03    -55.5268E-03     5.25727E-03    -62.5577E+06    -81.4688E+06    -276.599E+06    -81.4698E+06    -276.598E+06    -62.5577E+06     286.973E+03         28.4799
            1348     3.78484E-03     72.4766E-03     752.748E-03    -8.53345E-03    -744.637E-03     8.96765E-03    -856.200E-06    -8.53345E-03     355.436E-03     111.058E-03    -55.4118E-03    -55.6256E-03    -55.3383E-03     110.984E-03    -55.6256E-03     6.95111E-03    -45.4797E+06    -75.0110E+06    -266.197E+06    -75.0191E+06    -266.189E+06    -45.4797E+06     1.07720E+06         28.6791
            1349     4.73131E-03     72.4847E-03     456.572E-03    -4.84150E-03    -455.901E-03     10.4709E-03    -9.80041E-03    -4.84150E-03    -229.328E-03     110.991E-03    -55.3260E-03    -55.6592E-03    -55.2171E-03     110.883E-03    -55.6592E-03     8.47353E-03    -31.3251E+06    -67.9152E+06    -250.059E+06    -67.9254E+06    -250.048E+06    -31.3251E+06     1.27096E+06         28.9476
            1350     5.67776E-03     72.4948E-03     286.060E-03    -3.96829E-03    -286.358E-03    -11.4838E-03     11.1863E-03    -3.96829E-03     111.422E-03     110.925E-03    -55.3221E-03    -55.6349E-03    -55.1697E-03     110.772E-03    -55.6349E-03     10.0317E-03    -19.3120E+06    -60.6927E+06    -231.813E+06    -60.6981E+06    -231.808E+06    -19.3120E+06     929.301E+03         29.2841
            1351     6.62401E-03     72.5065E-03     183.782E-03    -5.37383E-03    -181.186E-03    -15.9018E-03     18.4978E-03    -5.37383E-03    -96.7422E-03     110.857E-03    -55.3323E-03    -55.6137E-03    -55.1278E-03     110.653E-03    -55.6137E-03     11.6243E-03    -11.2722E+06    -54.2450E+06    -208.557E+06    -54.2502E+06    -208.552E+06    -11.2722E+06     881.532E+03         29.7034
            1352     7.57061E-03     72.5199E-03     118.387E-03    -6.12686E-03    -114.093E-03    -5.86486E-03     10.1583E-03    -6.12686E-03     34.7760E-03     110.752E-03    -55.2585E-03    -55.5556E-03    -54.9869E-03     110.480E-03    -55.5556E-03     13.3856E-03    -7.24832E+06    -48.6777E+06    -178.086E+06    -48.6879E+06    -178.076E+06    -7.24832E+06     1.07978E+06         30.2239
            1353     8.51716E-03     72.5352E-03     81.6428E-03    -5.73313E-03    -78.0037E-03     1.25913E-03     2.37998E-03    -5.73313E-03    -37.4900E-03     110.728E-03    -55.2377E-03    -55.4786E-03    -54.8608E-03     110.351E-03    -55.4786E-03     15.7383E-03    -3.01897E+06    -43.6979E+06    -148.456E+06    -43.7136E+06    -148.440E+06    -3.01897E+06     1.24471E+06         30.8591
            1354     9.46378E-03     72.5539E-03     51.8228E-03    -5.15385E-03    -48.0831E-03    -1.23218E-03     4.97184E-03    -5.15385E-03     24.4443E-03     110.735E-03    -55.2721E-03    -55.3872E-03    -54.7700E-03     110.233E-03    -55.3872E-03     18.1986E-03     65.6696E+03    -39.3556E+06    -115.411E+06    -39.3871E+06    -115.380E+06     65.6696E+03     1.41426E+06         31.6095
            1355     10.4102E-03     72.5744E-03     34.9338E-03    -5.26556E-03    -29.0919E-03    -12.1072E-03     17.9492E-03    -5.26556E-03    -22.8392E-03     110.679E-03    -55.2864E-03    -55.3316E-03    -54.6167E-03     110.007E-03    -55.3287E-03     21.0124E-03     2.07978E+06    -35.4475E+06    -74.5481E+06    -35.5168E+06    -74.4788E+06     2.07978E+06     1.38002E+06         32.4850
            1356     11.3572E-03     72.5988E-03     22.4690E-03    -5.71592E-03    -16.3674E-03    -8.93676E-03     15.0383E-03    -5.71592E-03     2.43646E-03     110.636E-03    -55.2421E-03    -55.4795E-03    -54.3694E-03     109.533E-03    -55.2496E-03     26.6854E-03     6.97870E+06    -13.9679E+06    -41.1228E+06    -32.4132E+06    -20.2205E+06     4.52168E+06     644.012E+03         33.5015
            1357     12.3045E-03     72.6318E-03     23.3558E-03    -5.33557E-03    -18.5719E-03     8.64445E-03    -3.86060E-03    -5.33557E-03     5.82642E-03     110.847E-03    -55.1330E-03    -55.8217E-03    -54.0120E-03     109.037E-03    -55.1330E-03     34.3419E-03     57.4319E+06     8.40437E+06    -29.8071E+06    -29.8053E+06     57.4302E+06     8.40437E+06     374.983E+03         34.8098
            1358     13.2518E-03     72.6726E-03     28.4575E-03    -4.37548E-03    -25.8041E-03     8.11374E-03    -5.46029E-03    -4.37548E-03    -8.11239E-03     112.251E-03    -55.0875E-03    -57.2537E-03    -53.8935E-03     108.891E-03    -55.0875E-03     46.5523E-03     130.284E+06     26.5839E+06    -26.2643E+06    -26.2567E+06     130.276E+06     26.5839E+06     856.502E+03         36.7135
            1359     14.1986E-03     72.7329E-03     23.4732E-03    -3.85916E-03    -21.9124E-03    -8.15291E-03     9.94775E-03    -4.09318E-03    -34.0683E-03     112.350E-03    -55.1630E-03    -57.3777E-03    -53.7575E-03     108.729E-03    -55.1630E-03     48.6802E-03     158.674E+06     68.9710E+06    -20.7074E+06    -20.7005E+06     158.668E+06     68.9710E+06     698.445E+03         39.3407
            1360     15.1468E-03     72.7787E-03     20.4413E-03    -4.15987E-03    -17.0032E-03    -7.57021E-03     11.2423E-03    -4.39389E-03    -9.67526E-03     114.174E-03    -55.2563E-03    -59.1024E-03    -53.6784E-03     108.750E-03    -55.2563E-03     58.4414E-03     163.257E+06     110.076E+06    -13.3393E+06    -13.3375E+06     163.256E+06     110.076E+06     282.750E+03         42.4331
            1361     16.0940E-03     72.8610E-03     28.7192E-03    -4.43970E-03    -20.4765E-03     80.4961E-06     8.16226E-03    -4.43970E-03    -31.4625E-03     112.942E-03    -54.4598E-03    -58.6201E-03    -53.5717E-03     108.718E-03    -55.2841E-03     44.4614E-03     165.951E+06     125.641E+06    -6.07276E+06    -6.06921E+06     165.948E+06     125.641E+06     170.396E+03         45.3298
            1362     946.132E-06     73.5781E-03         4.47129     178.561E-03        -4.63909    -180.830E-03     13.0344E-03     178.561E-03        -3.69193     110.787E-03    -55.2964E-03    -55.4909E-03    -55.4626E-03     110.781E-03    -55.3183E-03     1.84478E-03    -86.5924E+06    -89.9927E+06    -287.974E+06    -89.7437E+06    -287.971E+06    -86.8439E+06     7.92557E+03         28.2890
            1363     1.89258E-03     73.5810E-03         2.10054    -4.30729E-03        -2.09056    -17.4138E-03     27.3924E-03    -4.30729E-03         1.22506     110.854E-03    -55.4077E-03    -55.4670E-03    -55.4027E-03     110.834E-03    -55.4516E-03     3.58738E-03    -77.3298E+06    -86.8280E+06    -284.919E+06    -86.8302E+06    -284.917E+06    -77.3298E+06     186.154E+03         28.3536
            1364     2.83881E-03     73.5861E-03         1.19643    -8.68493E-03        -1.18515    -15.5307E-03     26.8165E-03    -8.68493E-03    -584.581E-03     111.000E-03    -55.4667E-03    -55.5251E-03    -55.4387E-03     110.956E-03    -55.5097E-03     5.30572E-03    -63.2330E+06    -82.0124E+06    -277.425E+06    -82.0168E+06    -277.421E+06    -63.2330E+06     584.012E+03         28.4795
            1365     3.78502E-03     73.5924E-03     736.779E-03    -9.06579E-03    -730.096E-03    -3.11587E-03     9.79846E-03    -9.06579E-03     330.104E-03     111.097E-03    -55.4598E-03    -55.6116E-03    -55.3872E-03     111.024E-03    -55.6116E-03     6.91208E-03    -46.2280E+06    -75.2631E+06    -267.167E+06    -75.2732E+06    -267.157E+06    -46.2280E+06     1.14443E+06         28.6782
            1366     4.73129E-03     73.6009E-03     468.643E-03    -7.11525E-03    -465.576E-03     4.93834E-03    -1.87110E-03    -7.11525E-03    -202.332E-03     111.022E-03    -55.3806E-03    -55.6649E-03    -55.2716E-03     110.913E-03    -55.6649E-03     8.47477E-03    -30.7104E+06    -67.5234E+06    -249.937E+06    -67.5324E+06    -249.928E+06    -30.7104E+06     1.09789E+06         28.9467
            1367     5.67753E-03     73.6108E-03     293.341E-03    -5.77671E-03    -292.114E-03    -4.13536E-03     5.36159E-03    -5.77671E-03     146.825E-03     110.916E-03    -55.3316E-03    -55.6390E-03    -55.1782E-03     110.762E-03    -55.6390E-03     10.0648E-03    -19.0886E+06    -60.4128E+06    -231.793E+06    -60.4190E+06    -231.787E+06    -19.0886E+06     1.00010E+06         29.2837
            1368     6.62414E-03     73.6228E-03     179.556E-03    -5.69486E-03    -177.371E-03    -6.57991E-03     8.76457E-03    -5.69486E-03    -81.8267E-03     110.838E-03    -55.3085E-03    -55.6110E-03    -55.1026E-03     110.632E-03    -55.6110E-03     11.6626E-03    -11.3917E+06    -54.2234E+06    -209.079E+06    -54.2309E+06    -209.072E+06    -11.3917E+06     1.06366E+06         29.7034
            1369     7.57051E-03     73.6360E-03     114.157E-03    -5.76164E-03    -112.267E-03    -6.13276E-03     8.02245E-03    -5.76164E-03     48.5857E-03     110.752E-03    -55.2466E-03    -55.5570E-03    -54.9736E-03     110.479E-03    -55.5570E-03     13.4195E-03    -7.10253E+06    -48.6807E+06    -178.504E+06    -48.6922E+06    -178.492E+06    -7.10253E+06     1.18610E+06         30.2235
            1370     8.51712E-03     73.6513E-03     75.7958E-03    -5.97145E-03    -73.5549E-03    -9.52239E-03     11.7633E-03    -5.97145E-03    -32.2853E-03     110.724E-03    -55.2292E-03    -55.4817E-03    -54.8470E-03     110.342E-03    -55.4817E-03     15.8388E-03    -3.10173E+06    -43.9382E+06    -148.526E+06    -43.9537E+06    -148.510E+06    -3.10173E+06     1.23789E+06         30.8579
            1371     9.46373E-03     73.6701E-03     55.8527E-03    -6.14786E-03    -51.9070E-03    -5.37529E-03     9.32097E-03    -6.14786E-03     8.93614E-03     110.686E-03    -55.2219E-03    -55.3861E-03    -54.7134E-03     110.178E-03    -55.3861E-03     18.3140E-03    -141.217E+03    -39.6679E+06    -115.781E+06    -39.6862E+06    -115.763E+06    -141.217E+03     1.16142E+06         31.6082
            1372     10.4106E-03     73.6907E-03     41.0511E-03    -6.01152E-03    -36.2108E-03    -3.09252E-03     7.93279E-03    -6.01152E-03    -29.9817E-03     110.638E-03    -55.2444E-03    -55.3239E-03    -54.5705E-03     109.958E-03    -55.3180E-03     21.1171E-03     2.07182E+06    -35.6059E+06    -74.5444E+06    -35.6693E+06    -74.4810E+06     2.07182E+06     1.18747E+06         32.4845
            1373     11.3574E-03     73.7152E-03     28.0294E-03    -5.88010E-03    -21.9822E-03    -5.61320E-03     11.6604E-03    -5.88010E-03    -835.618E-06     110.622E-03    -55.2450E-03    -55.4588E-03    -54.3662E-03     109.530E-03    -55.2450E-03     26.5990E-03     7.15889E+06    -12.9244E+06     -40.882E+06    -32.6569E+06    -19.6904E+06     5.69971E+06     1.41531E+06         33.5027
            1374     12.3043E-03     73.7478E-03     28.4260E-03    -5.53634E-03    -22.9290E-03     2.78929E-03     2.70764E-03    -5.53634E-03     159.507E-06     110.862E-03    -55.1360E-03    -55.8359E-03    -54.0440E-03     109.071E-03    -55.1360E-03     34.1593E-03     57.7916E+06     9.64332E+06    -30.2510E+06    -30.2011E+06     57.7417E+06     9.64332E+06     972.833E+03         34.8133
            1375     13.2515E-03     73.7891E-03     30.7910E-03    -5.01545E-03    -26.2972E-03     1.01865E-03     3.47510E-03    -5.01545E-03     6.29678E-03     112.220E-03    -55.0799E-03    -57.2417E-03    -53.9023E-03     108.881E-03    -55.0799E-03     46.4145E-03     130.282E+06     26.5072E+06    -26.6978E+06    -26.6954E+06     130.280E+06     26.5072E+06    -19.6781E+03         36.7197
            1376     14.1994E-03     73.8493E-03     25.2100E-03    -3.58220E-03    -21.5556E-03    -10.7728E-03     15.8839E-03    -5.03887E-03    -22.7175E-03     112.283E-03    -55.1548E-03    -57.3356E-03    -53.7457E-03     108.694E-03    -55.1548E-03     48.4632E-03     159.108E+06     68.8950E+06    -21.2172E+06    -21.2158E+06     159.106E+06     68.8950E+06    -310.333E+03         39.3503
            1377     15.1463E-03     73.8951E-03     23.6244E-03    -3.79465E-03    -18.8827E-03    -5.11287E-03     11.3113E-03    -5.25131E-03    -6.16043E-03     114.167E-03    -55.2557E-03    -59.1282E-03    -53.7322E-03     108.771E-03    -55.2557E-03     58.2868E-03     162.639E+06     109.615E+06    -14.3940E+06    -14.3908E+06     162.636E+06     109.615E+06     423.356E+03         42.4465
            1378     16.0944E-03     73.9774E-03     21.1672E-03    -5.07720E-03    -15.0321E-03     579.603E-06     5.55548E-03    -5.07720E-03    -7.61509E-03     112.944E-03    -54.5047E-03    -58.6422E-03    -53.6551E-03     108.732E-03    -55.2806E-03     44.4835E-03     165.540E+06     125.024E+06    -7.15249E+06    -7.14418E+06     165.532E+06     125.024E+06     1.16111E+06         45.3460
            1379     946.367E-06     74.6941E-03         4.32527     219.298E-03        -4.54245    -185.296E-03    -31.8905E-03     219.298E-03        -3.58153     110.814E-03    -55.3249E-03    -55.4919E-03    -55.4740E-03     110.807E-03    -55.3360E-03     1.93924E-03    -88.0641E+06    -91.6527E+06    -288.786E+06    -91.6483E+06    -288.779E+06    -88.0753E+06     753.496E+03         28.2879
            1380     1.89239E-03     74.6971E-03         2.03976     8.43048E-03        -2.04951    -26.0577E-03     16.3160E-03     8.43048E-03         1.19573     110.886E-03    -55.4343E-03    -55.4731E-03    -55.4137E-03     110.866E-03    -55.4731E-03     3.61472E-03    -77.2215E+06    -87.5080E+06    -285.481E+06    -87.5143E+06    -285.475E+06    -77.2215E+06     918.245E+03         28.3529
            1381     2.83880E-03     74.7019E-03         1.15618    -2.69632E-03        -1.15852    -17.8879E-03     15.5421E-03    -2.69632E-03    -578.857E-03     110.971E-03    -55.4455E-03    -55.5248E-03    -55.4027E-03     110.928E-03    -55.5248E-03     5.26644E-03    -63.0961E+06    -82.0354E+06    -278.068E+06    -82.0438E+06    -278.060E+06    -63.0961E+06     1.03780E+06         28.4788
            1382     3.78499E-03     74.7088E-03     710.049E-03    -5.44339E-03    -705.656E-03    -7.45955E-03     11.8518E-03    -5.44339E-03     319.979E-03     111.083E-03    -55.4536E-03    -55.6138E-03    -55.3812E-03     111.011E-03    -55.6138E-03     6.89490E-03    -46.4684E+06    -75.3073E+06    -267.513E+06    -75.3142E+06    -267.506E+06    -46.4684E+06     959.411E+03         28.6767
            1383     4.73116E-03     74.7168E-03     459.436E-03    -5.24813E-03    -455.571E-03    -1.13970E-03     5.00467E-03    -5.24813E-03    -180.600E-03     111.050E-03    -55.4027E-03    -55.6673E-03    -55.2920E-03     110.939E-03    -55.6673E-03     8.53944E-03    -30.7500E+06    -68.1620E+06    -250.109E+06    -68.1687E+06    -250.103E+06    -30.7500E+06     1.00084E+06         28.9450
            1384     5.67772E-03     74.7272E-03     284.631E-03    -4.53004E-03    -282.430E-03    -1.21037E-03     3.41143E-03    -4.53004E-03     167.484E-03     110.888E-03    -55.3147E-03    -55.6413E-03    -55.1598E-03     110.733E-03    -55.6413E-03     10.1169E-03    -18.7823E+06    -60.9228E+06    -232.154E+06    -60.9317E+06    -232.145E+06    -18.7823E+06     1.20611E+06         29.2827
            1385     6.62397E-03     74.7388E-03     160.482E-03    -4.63173E-03    -160.126E-03    -10.1472E-03     10.5029E-03    -4.63173E-03    -81.1897E-03     110.799E-03    -55.2839E-03    -55.6008E-03    -55.0756E-03     110.590E-03    -55.6008E-03     11.7221E-03    -11.5794E+06    -54.5452E+06    -209.683E+06    -54.5595E+06    -209.669E+06    -11.5794E+06     1.42941E+06         29.7027
            1386     7.57071E-03     74.7522E-03     107.751E-03    -5.48858E-03    -107.082E-03    -12.7972E-03     13.4662E-03    -5.48858E-03     24.9377E-03     110.737E-03    -55.2410E-03    -55.5452E-03    -54.9658E-03     110.462E-03    -55.5452E-03     13.4762E-03    -7.38787E+06    -49.2765E+06    -178.811E+06    -49.2950E+06    -178.792E+06    -7.38787E+06     1.52610E+06         30.2228
            1387     8.51719E-03     74.7676E-03     80.9206E-03    -6.26562E-03    -79.5066E-03    -11.7865E-03     13.2004E-03    -6.26562E-03    -31.0186E-03     110.696E-03    -55.2113E-03    -55.4763E-03    -54.8301E-03     110.314E-03    -55.4763E-03     15.8186E-03    -3.16049E+06    -44.5436E+06    -148.510E+06    -44.5646E+06    -148.489E+06    -3.16049E+06     1.43982E+06         30.8572
            1388     9.46399E-03     74.7863E-03     55.4861E-03    -6.61130E-03    -51.6343E-03    -7.47901E-03     11.3308E-03    -6.61130E-03     21.8813E-03     110.658E-03    -55.1912E-03    -55.3770E-03    -54.6881E-03     110.154E-03    -55.3770E-03     18.2174E-03    -280.434E+03    -40.4111E+06    -115.614E+06    -40.4291E+06    -115.596E+06    -280.434E+03     1.12854E+06         31.6079
            1389     10.4105E-03     74.8068E-03     45.9850E-03    -6.07309E-03    -39.3568E-03     6.12344E-03     504.728E-06    -6.07309E-03     943.092E-06     110.612E-03    -55.2275E-03    -55.3109E-03    -54.5568E-03     109.939E-03    -55.3078E-03     21.0146E-03     1.21476E+06    -36.9173E+06    -75.0807E+06    -36.9781E+06    -75.0199E+06     1.21476E+06     1.06474E+06         32.4854
            1390     11.3575E-03     74.8314E-03     37.1173E-03    -5.10245E-03    -30.7032E-03     4.05247E-03     2.36158E-03    -5.10245E-03     19.3481E-03     110.628E-03    -55.2367E-03    -55.4742E-03    -54.3926E-03     109.548E-03    -55.2382E-03     26.4597E-03     6.48164E+06    -13.7857E+06    -41.7094E+06    -33.5012E+06    -20.3504E+06     4.83808E+06     1.50674E+06         33.5052
            1391     12.3045E-03     74.8639E-03     30.9065E-03    -4.86299E-03    -23.5128E-03    -9.32093E-03     16.7146E-03    -4.86299E-03     559.470E-06     110.981E-03    -55.1371E-03    -55.9513E-03    -54.1523E-03     109.182E-03    -55.1371E-03     34.2208E-03     59.3304E+06     10.0400E+06    -29.7308E+06    -29.6795E+06     59.2791E+06     10.0400E+06     1.04254E+06         34.8172
            1392     13.2516E-03     74.9055E-03     24.8665E-03    -4.22573E-03    -18.4842E-03    -9.89013E-03     17.2258E-03    -5.17914E-03     25.2760E-03     112.307E-03    -55.0905E-03    -57.3169E-03    -53.9962E-03     108.986E-03    -55.0905E-03     46.3672E-03     131.487E+06     27.2455E+06    -26.1547E+06    -26.1515E+06     131.483E+06     27.2455E+06    -284.465E+03         36.7253
            1393     14.1985E-03     74.9652E-03     14.5101E-03    -2.63223E-03    -11.4272E-03     3.07491E-03     2.41806E-03    -5.04230E-03    -2.27590E-03     112.198E-03    -55.1685E-03    -57.2452E-03    -53.6966E-03     108.650E-03    -55.1685E-03     48.1857E-03     158.255E+06     68.9473E+06    -21.7439E+06    -21.7387E+06     158.250E+06     68.9473E+06    -175.802E+03         39.3583
            1394     15.1468E-03     75.0117E-03     19.7722E-03    -3.01406E-03    -17.4691E-03     2.79607E-03     963.710E-06    -4.47073E-03     17.8499E-03     114.003E-03    -55.2607E-03    -58.9680E-03    -53.5966E-03     108.631E-03    -55.2607E-03     58.1064E-03     161.230E+06     108.576E+06    -15.6976E+06    -15.6858E+06     161.218E+06     108.576E+06     1.14717E+06         42.4575
            1395     16.0942E-03     75.0932E-03     15.5239E-03    -4.19346E-03    -15.7387E-03    -5.53762E-03     5.32281E-03    -4.19346E-03     17.3125E-03     112.858E-03    -54.5018E-03    -58.5539E-03    -53.5842E-03     108.665E-03    -55.2781E-03     44.4050E-03     165.896E+06     124.317E+06    -8.41208E+06    -8.39940E+06     165.883E+06     124.317E+06     1.27105E+06         45.3605
            1396     946.127E-06     75.8103E-03         4.17123     193.664E-03        -4.37041    -199.561E-03     377.939E-06     193.664E-03        -3.48571     110.857E-03    -55.2660E-03    -55.5977E-03    -55.5743E-03     110.850E-03    -55.2829E-03     1.90663E-03    -89.6782E+06    -93.4880E+06    -289.993E+06    -92.6908E+06    -289.986E+06    -90.4823E+06     799.553E+03         28.2876
            1397     1.89255E-03     75.8132E-03         1.96386    -273.589E-06        -1.96909     10.4729E-03    -15.6964E-03    -273.589E-06         1.12078     110.910E-03    -55.4369E-03    -55.4908E-03    -55.4161E-03     110.889E-03    -55.4908E-03     3.61896E-03    -78.9024E+06    -89.0964E+06    -286.441E+06    -89.1033E+06    -286.434E+06    -78.9024E+06     1.04809E+06         28.3523
            1398     2.83853E-03     75.8182E-03         1.12931     3.59822E-03        -1.13727     10.6799E-03    -18.6347E-03     3.59822E-03    -545.590E-03     110.956E-03    -55.4194E-03    -55.5380E-03    -55.3757E-03     110.912E-03    -55.5380E-03     5.32873E-03    -64.1154E+06    -83.5064E+06    -278.356E+06    -83.5147E+06    -278.348E+06    -64.1154E+06     1.11851E+06         28.4781
            1399     3.78498E-03     75.8248E-03     688.902E-03     2.23232E-03    -692.388E-03    -18.5623E-03     15.0755E-03     2.23232E-03     339.874E-03     111.017E-03    -55.3892E-03    -55.6145E-03    -55.3146E-03     110.942E-03    -55.6145E-03     6.99691E-03    -47.5161E+06    -76.7456E+06    -267.781E+06    -76.7521E+06    -267.775E+06    -47.5161E+06     958.524E+03         28.6759
            1400     4.73139E-03     75.8334E-03     424.186E-03    -2.46339E-03    -421.019E-03    -23.7292E-03     26.8959E-03    -2.46339E-03    -197.856E-03     111.014E-03    -55.3614E-03    -55.6529E-03    -55.2494E-03     110.902E-03    -55.6529E-03     8.59503E-03    -31.7186E+06    -68.9603E+06    -250.462E+06    -68.9668E+06    -250.456E+06    -31.7186E+06     1.01891E+06         28.9443
            1401     5.67759E-03     75.8432E-03     265.069E-03    -5.24696E-03    -260.094E-03    -12.8830E-03     17.8582E-03    -5.24696E-03     121.109E-03     110.901E-03    -55.3162E-03    -55.6323E-03    -55.1621E-03     110.747E-03    -55.6323E-03     10.0904E-03    -19.1848E+06    -61.8143E+06    -233.029E+06    -61.8271E+06    -233.016E+06    -19.1848E+06     1.42578E+06         29.2821
            1402     6.62427E-03     75.8551E-03     158.303E-03    -6.16990E-03    -153.735E-03    -9.60379E-03     14.1713E-03    -6.16990E-03    -92.5079E-03     110.798E-03    -55.2883E-03    -55.5961E-03    -55.0805E-03     110.590E-03    -55.5961E-03     11.7057E-03    -11.6163E+06    -55.3885E+06    -210.073E+06    -55.4086E+06    -210.052E+06    -11.6163E+06     1.74252E+06         29.7020
            1403     7.57061E-03     75.8684E-03     103.642E-03    -6.57284E-03    -101.289E-03    -8.69608E-03     11.0492E-03    -6.57284E-03     14.5582E-03     110.736E-03    -55.2427E-03    -55.5373E-03    -54.9687E-03     110.462E-03    -55.5373E-03     13.4489E-03    -7.38493E+06    -49.5269E+06    -178.683E+06    -49.5467E+06    -178.663E+06    -7.38493E+06     1.59290E+06         30.2220
            1404     8.51719E-03     75.8840E-03     86.1234E-03    -6.10044E-03    -83.6831E-03     4.71147E-03    -2.27112E-03    -6.10044E-03    -19.7592E-03     110.702E-03    -55.2097E-03    -55.4748E-03    -54.8321E-03     110.324E-03    -55.4748E-03     15.7451E-03    -3.19233E+06    -44.4711E+06    -148.771E+06    -44.4933E+06    -148.749E+06    -3.19233E+06     1.48928E+06         30.8571
            1405     9.46375E-03     75.9025E-03     59.3434E-03    -4.82494E-03    -54.3404E-03     8.00552E-03    -3.00252E-03    -4.82494E-03     36.2512E-03     110.667E-03    -55.2066E-03    -55.3775E-03    -54.7045E-03     110.165E-03    -55.3775E-03     18.1957E-03    -450.026E+03    -40.2798E+06    -115.502E+06    -40.3152E+06    -115.467E+06    -450.026E+03     1.48095E+06         31.6084
            1406     10.4107E-03     75.9232E-03     48.4675E-03    -4.02432E-03    -40.6466E-03    -1.54577E-03     9.36663E-03    -4.02432E-03     7.61883E-03     110.624E-03    -55.2464E-03    -55.3110E-03    -54.5758E-03     109.951E-03    -55.3088E-03     21.0061E-03     1.02182E+06    -36.7862E+06    -75.0797E+06    -36.8507E+06    -75.0152E+06     1.02182E+06     1.19968E+06         32.4862
            1407     11.3575E-03     75.9475E-03     43.2526E-03    -3.96984E-03    -33.8347E-03    -6.14939E-03     15.5673E-03    -3.96984E-03     21.8450E-03     110.645E-03    -55.2346E-03    -55.5018E-03    -54.4242E-03     109.569E-03    -55.2361E-03     26.4109E-03     6.48330E+06    -14.5102E+06    -41.9006E+06    -33.2187E+06    -20.6713E+06      3.9625E+06     793.726E+03         33.5068
            1408     12.3044E-03     75.9802E-03     36.2404E-03    -4.14186E-03    -28.0250E-03    -6.81849E-03     15.0339E-03    -4.14186E-03     7.56447E-03     110.981E-03    -55.1330E-03    -55.9544E-03    -54.1516E-03     109.178E-03    -55.1330E-03     34.2486E-03     60.0932E+06     9.44025E+06    -29.8219E+06    -29.8161E+06     60.0874E+06     9.44025E+06     614.362E+03         34.8207
            1409     13.2513E-03     76.0221E-03     27.0946E-03    -3.11655E-03    -21.1447E-03    -702.091E-06     7.60546E-03    -4.06995E-03     24.5412E-03     112.315E-03    -55.0926E-03    -57.3068E-03    -53.9521E-03     108.961E-03    -55.0926E-03     46.5840E-03     132.342E+06     27.9940E+06    -27.0092E+06    -26.9993E+06     132.332E+06     27.9940E+06     668.177E+03         36.7305
            1410     14.1988E-03     76.0815E-03     16.8944E-03    -2.58512E-03    -13.3374E-03     6.07891E-03    -1.56856E-03    -3.53853E-03    -2.20983E-03     112.328E-03    -55.1746E-03    -57.3455E-03    -53.7603E-03     108.743E-03    -55.1746E-03     48.4477E-03     156.906E+06     68.4863E+06    -23.3321E+06    -23.3183E+06     156.892E+06     68.4863E+06     1.04191E+06         39.3652
            1411     15.1461E-03     76.1273E-03     21.9688E-03    -2.98668E-03    -19.2360E-03     1.79051E-03     942.275E-06    -2.98668E-03     25.1076E-03     114.084E-03    -55.2658E-03    -59.0140E-03    -53.6143E-03     108.685E-03    -55.2658E-03     58.2658E-03     160.293E+06     107.979E+06    -16.5223E+06    -16.5101E+06     160.281E+06     107.979E+06     1.31186E+06         42.4669
            1412     16.0942E-03     76.2098E-03     22.1666E-03    -2.60919E-03    -19.5073E-03     3.19076E-03    -531.482E-06    -2.60919E-03     2.89155E-03     112.838E-03    -54.4847E-03    -58.5138E-03    -53.5072E-03     108.627E-03    -55.2800E-03     44.4240E-03     167.067E+06     125.115E+06    -7.82984E+06    -7.82289E+06     167.060E+06     125.115E+06     617.087E+03         45.3736
            1413     946.236E-06     76.9263E-03         3.99309     178.985E-03        -4.17000    -202.119E-03     25.2059E-03     178.985E-03        -3.31749     110.964E-03    -55.3259E-03    -55.6427E-03    -55.5937E-03     110.958E-03    -55.3688E-03     1.83807E-03    -88.7285E+06    -93.2080E+06    -291.307E+06    -92.4209E+06    -291.301E+06    -89.5213E+06     792.661E+03         28.2859
            1414     1.89221E-03     76.9290E-03         1.88282    -5.83259E-03        -1.88139     16.7512E-03    -15.3239E-03    -5.83259E-03         1.07809     110.894E-03    -55.3977E-03    -55.5157E-03    -55.3769E-03     110.873E-03    -55.5157E-03     3.60412E-03    -79.3372E+06    -88.8095E+06    -287.453E+06    -88.8178E+06    -287.444E+06    -79.3372E+06     1.23970E+06         28.3512
            1415     2.83882E-03     76.9343E-03         1.06969     1.55497E-03        -1.07562     12.1920E-03    -18.1232E-03     1.55497E-03    -540.852E-03     110.931E-03    -55.3882E-03    -55.5419E-03    -55.3436E-03     110.886E-03    -55.5419E-03     5.38161E-03    -64.0685E+06    -83.2477E+06    -278.819E+06    -83.2557E+06    -278.811E+06    -64.0685E+06     1.17337E+06         28.4780
            1416     3.78496E-03     76.9411E-03     652.511E-03     682.815E-06    -654.242E-03    -19.8706E-03     18.1387E-03     682.815E-06     297.961E-03     111.012E-03    -55.3846E-03    -55.6162E-03    -55.3092E-03     110.937E-03    -55.6162E-03     7.03440E-03    -47.2165E+06    -76.5782E+06    -267.771E+06    -76.5864E+06    -267.762E+06    -47.2165E+06     1.13370E+06         28.6766
            1417     4.73129E-03     76.9496E-03     400.109E-03    -4.81761E-03    -394.989E-03    -33.4937E-03     38.6137E-03    -4.81761E-03    -216.432E-03     110.961E-03    -55.3287E-03    -55.6485E-03    -55.2170E-03     110.849E-03    -55.6485E-03     8.58508E-03    -32.8006E+06    -69.8703E+06    -251.138E+06    -69.8797E+06    -251.129E+06    -32.8006E+06     1.21213E+06         28.9449
            1418     5.67787E-03     76.9595E-03     243.030E-03    -8.21167E-03    -232.665E-03    -14.1795E-03     24.5445E-03    -8.21167E-03     101.738E-03     110.906E-03    -55.3240E-03    -55.6243E-03    -55.1713E-03     110.753E-03    -55.6243E-03     10.0458E-03    -19.7802E+06    -62.7346E+06    -234.017E+06    -62.7490E+06    -234.003E+06    -19.7802E+06     1.54723E+06         29.2823
            1419     6.62400E-03     76.9711E-03     157.424E-03    -7.42449E-03    -149.348E-03     10.5340E-03    -2.45809E-03    -7.42449E-03    -66.1649E-03     110.840E-03    -55.3207E-03    -55.5919E-03    -55.1148E-03     110.634E-03    -55.5919E-03     11.6574E-03    -11.3915E+06    -55.5771E+06    -209.919E+06    -55.5921E+06    -209.904E+06    -11.3915E+06     1.49793E+06         29.7019
            1420     7.57062E-03     76.9849E-03     100.695E-03    -5.20436E-03    -95.8022E-03     9.25159E-03    -4.35849E-03    -5.20436E-03     44.0357E-03     110.729E-03    -55.2226E-03    -55.5367E-03    -54.9488E-03     110.455E-03    -55.5367E-03     13.4378E-03    -7.45285E+06    -49.4135E+06    -178.681E+06    -49.4267E+06    -178.668E+06    -7.45285E+06     1.27629E+06         30.2217
            1421     8.51720E-03     77.0001E-03     75.8857E-03    -3.95557E-03    -71.0573E-03     1.39940E-03     3.42892E-03    -3.95557E-03    -9.33587E-03     110.690E-03    -55.1983E-03    -55.4743E-03    -54.8206E-03     110.312E-03    -55.4743E-03     15.7475E-03    -3.30073E+06    -44.1989E+06    -149.005E+06    -44.2123E+06    -148.991E+06    -3.30073E+06     1.15727E+06         30.8569
            1422     9.46394E-03     77.0186E-03     62.6135E-03    -3.57112E-03    -55.4385E-03    -2.22543E-03     9.40046E-03    -3.57112E-03     21.6106E-03     110.676E-03    -55.2300E-03    -55.3787E-03    -54.7275E-03     110.173E-03    -55.3787E-03     18.2029E-03    -292.636E+03    -39.4718E+06    -115.967E+06    -39.5040E+06    -115.935E+06    -292.636E+03     1.37061E+06         31.6088
            1423     10.4105E-03     77.0395E-03     43.5619E-03    -3.56100E-03    -34.8652E-03    -4.45025E-03     13.1470E-03    -3.56100E-03    -18.1091E-03     110.643E-03    -55.2608E-03    -55.3195E-03    -54.5977E-03     109.970E-03    -55.3100E-03     21.0104E-03     1.90552E+06    -35.5029E+06    -74.6562E+06    -35.5860E+06    -74.5732E+06     1.90552E+06     1.39633E+06         32.4870
            1424     11.3574E-03     77.0637E-03     30.8264E-03    -3.53787E-03    -23.2816E-03    -1.73319E-03     9.27802E-03    -3.53787E-03     7.46251E-03     110.694E-03    -55.2410E-03    -55.5466E-03    -54.4605E-03     109.608E-03    -55.2410E-03     26.5223E-03     6.95108E+06    -13.8689E+06    -41.0795E+06    -32.6422E+06    -20.0795E+06     4.72437E+06     746.098E+03         33.5084
            1425     12.3042E-03     77.0967E-03     28.7912E-03    -3.18810E-03    -23.8597E-03     3.30993E-03     1.62163E-03    -3.18810E-03     11.4474E-03     110.940E-03    -55.1371E-03    -55.9081E-03    -54.1102E-03     109.142E-03    -55.1371E-03     34.2211E-03     59.2766E+06     9.30495E+06    -30.4214E+06    -30.4002E+06     59.2553E+06     9.30495E+06     1.13883E+06         34.8238
            1426     13.2519E-03     77.1382E-03     28.5706E-03    -2.64906E-03    -26.3873E-03     4.16494E-03    -1.98162E-03    -2.64906E-03     7.79829E-03     112.175E-03    -55.0880E-03    -57.1697E-03    -53.8327E-03     108.838E-03    -55.0880E-03     46.3989E-03     131.659E+06     27.5017E+06    -28.2190E+06    -28.1785E+06     131.619E+06     27.5017E+06     2.33024E+06         36.7355
            1427     14.1994E-03     77.1977E-03     20.2889E-03    -2.31471E-03    -17.2173E-03    -621.812E-06     3.69338E-03    -2.31471E-03    -16.7610E-03     112.329E-03    -55.1641E-03    -57.3210E-03    -53.7520E-03     108.760E-03    -55.1641E-03     48.3183E-03     157.654E+06     68.3182E+06    -23.8818E+06    -23.8574E+06     157.630E+06     68.3182E+06     1.73799E+06         39.3717
            1428     15.1466E-03     77.2439E-03     19.1757E-03    -2.07139E-03    -13.7761E-03     2.93932E-03     2.46024E-03    -2.07139E-03     12.1985E-03     114.194E-03    -55.2583E-03    -59.0957E-03    -53.7356E-03     108.834E-03    -55.2583E-03     58.0760E-03     161.007E+06     108.202E+06    -16.5332E+06    -16.5285E+06     161.003E+06     108.202E+06     134.797E+03         42.4757
            1429     16.0942E-03     77.3254E-03     24.5746E-03    -1.52409E-03    -16.3781E-03     10.4714E-03    -2.27488E-03    -1.52409E-03    -9.73877E-03     112.866E-03    -54.4636E-03    -58.5691E-03    -53.5604E-03     108.676E-03    -55.2819E-03     44.4209E-03     167.072E+06     125.253E+06    -7.90270E+06    -7.90020E+06     167.069E+06     125.253E+06    -118.768E+03         45.3858
            1430     945.974E-06     78.0424E-03         3.75699     235.949E-03        -3.99113    -192.622E-03    -41.5146E-03     235.949E-03        -3.14835     110.947E-03    -55.3712E-03    -55.5764E-03    -55.5285E-03     110.940E-03    -55.4125E-03     1.90315E-03    -89.0797E+06    -93.2999E+06    -292.594E+06    -92.4478E+06    -292.589E+06    -89.9377E+06     703.039E+03         28.2843
            1431     1.89246E-03     78.0452E-03         1.76337     11.0066E-03        -1.77347    -32.0506E-03     21.9579E-03     11.0066E-03         1.06181     110.919E-03    -55.4233E-03    -55.5124E-03    -55.4022E-03     110.898E-03    -55.5124E-03     3.63930E-03    -79.1397E+06    -88.1472E+06    -288.369E+06    -88.1547E+06    -288.361E+06    -79.1397E+06     829.812E+03         28.3505
            1432     2.83857E-03     78.0500E-03     996.272E-03    -5.01334E-03    -996.348E-03    -36.6010E-03     36.5253E-03    -5.01334E-03    -483.710E-03     110.960E-03    -55.4145E-03    -55.5486E-03    -55.3699E-03     110.916E-03    -55.5486E-03     5.38272E-03    -63.6859E+06    -82.4247E+06    -279.725E+06    -82.4354E+06    -279.714E+06    -63.6859E+06     1.35446E+06         28.4782
            1433     3.78504E-03     78.0570E-03     610.837E-03    -10.2631E-03    -604.107E-03    -9.77149E-03     16.5011E-03    -10.2631E-03     293.861E-03     111.018E-03    -55.3893E-03    -55.6227E-03    -55.3149E-03     110.944E-03    -55.6227E-03     6.99575E-03    -47.9320E+06    -76.1370E+06    -268.264E+06    -76.1527E+06    -268.249E+06    -47.9320E+06     1.65645E+06         28.6776
            1434     4.73133E-03     78.0654E-03     377.096E-03    -8.57038E-03    -368.078E-03     8.05151E-03     966.459E-06    -8.57038E-03    -176.312E-03     110.975E-03    -55.3390E-03    -55.6533E-03    -55.2279E-03     110.864E-03    -55.6533E-03     8.55539E-03    -33.5848E+06    -69.5454E+06    -251.693E+06    -69.5636E+06    -251.675E+06    -33.5848E+06     1.80451E+06         28.9453
            1435     5.67760E-03     78.0758E-03     232.646E-03    -6.02610E-03    -225.147E-03     4.19089E-03     3.30837E-03    -6.02610E-03     110.324E-03     110.895E-03    -55.3150E-03    -55.6267E-03    -55.1607E-03     110.740E-03    -55.6267E-03     10.0959E-03    -20.0908E+06    -62.5813E+06    -234.176E+06    -62.5948E+06    -234.162E+06    -20.0908E+06     1.47347E+06         29.2817
            1436     6.62421E-03     78.0875E-03     149.031E-03    -4.14464E-03    -144.144E-03     9.44591E-03    -4.55821E-03    -4.14464E-03    -54.4287E-03     110.825E-03    -55.3141E-03    -55.5909E-03    -55.1079E-03     110.619E-03    -55.5909E-03     11.6680E-03    -11.6482E+06    -55.6804E+06    -209.725E+06    -55.6874E+06    -209.718E+06    -11.6482E+06     1.00393E+06         29.7013
            1437     7.57058E-03     78.1004E-03     102.222E-03    -2.70987E-03    -97.8776E-03     4.16464E-03     179.552E-06    -2.70987E-03     39.1363E-03     110.712E-03    -55.2216E-03    -55.5361E-03    -54.9490E-03     110.439E-03    -55.5361E-03     13.4104E-03    -7.46949E+06    -49.3521E+06    -178.670E+06    -49.3568E+06    -178.665E+06    -7.46949E+06     673.778E+03         30.2213
            1438     8.51727E-03     78.1166E-03     71.4430E-03    -2.79246E-03    -67.5003E-03    -11.9999E-03     15.9425E-03    -2.79246E-03    -25.4018E-03     110.678E-03    -55.1950E-03    -55.4714E-03    -54.8165E-03     110.299E-03    -55.4714E-03     15.7610E-03    -3.25522E+06    -44.0212E+06    -149.185E+06    -44.0280E+06    -149.179E+06    -3.25522E+06     723.406E+03         30.8567
            1439     9.46379E-03     78.1352E-03     51.6054E-03    -3.77019E-03    -44.9909E-03    -12.9150E-03     19.5295E-03    -3.77019E-03     18.4615E-03     110.689E-03    -55.2328E-03    -55.3772E-03    -54.7308E-03     110.187E-03    -55.3772E-03     18.1975E-03    -256.887E+03    -39.5883E+06    -116.484E+06    -39.6005E+06    -116.472E+06    -256.887E+03     923.980E+03         31.6089
            1440     10.4106E-03     78.1556E-03     38.0690E-03    -3.88061E-03    -29.1645E-03     3.60157E-03     5.30291E-03    -3.88061E-03    -6.72644E-03     110.653E-03    -55.2621E-03    -55.3232E-03    -54.5992E-03     109.979E-03    -55.3122E-03     21.0229E-03     1.90777E+06    -35.5562E+06    -75.1392E+06    -35.6556E+06    -75.0398E+06     1.90777E+06     1.34988E+06         32.4877
            1441     11.3573E-03     78.1800E-03     26.3863E-03    -3.05498E-03    -20.3868E-03     8.08595E-03    -2.08648E-03    -3.05498E-03     13.8523E-03     110.683E-03    -55.2457E-03    -55.5233E-03    -54.4316E-03     109.591E-03    -55.2457E-03     26.5907E-03     7.09698E+06    -12.8639E+06    -41.5422E+06    -32.9439E+06    -20.0017E+06     5.63647E+06     1.92513E+06         33.5102
            1442     12.3044E-03     78.2130E-03     18.2146E-03    -2.47433E-03    -15.3698E-03     201.235E-06     2.64358E-03    -2.47433E-03    -1.22094E-03     110.995E-03    -55.1441E-03    -55.9589E-03    -54.1707E-03     109.207E-03    -55.1441E-03     34.1578E-03     58.4470E+06     9.63632E+06    -31.1652E+06    -31.0485E+06     58.3304E+06     9.63632E+06     2.24652E+06         34.8270
            1443     13.2512E-03     78.2540E-03     23.9273E-03    -2.46621E-03    -22.2635E-03    -4.62203E-03     6.28583E-03    -2.46621E-03    -14.9088E-03     112.281E-03    -55.0968E-03    -57.2799E-03    -53.9766E-03     108.978E-03    -55.0968E-03     46.1957E-03     131.046E+06     26.5505E+06    -27.2998E+06    -27.2591E+06     131.005E+06     26.5505E+06     2.39324E+06         36.7403
            1444     14.1987E-03     78.3142E-03     21.3296E-03    -2.47265E-03    -18.0508E-03     769.641E-06     2.50913E-03    -2.47265E-03    -29.8332E-03     112.220E-03    -55.1669E-03    -57.2064E-03    -53.6650E-03     108.679E-03    -55.1669E-03     48.1173E-03     159.285E+06     68.7109E+06    -21.6634E+06    -21.6333E+06     159.255E+06     68.7109E+06     1.95215E+06         39.3784
            1445     15.1464E-03     78.3604E-03     16.1512E-03    -2.02993E-03    -10.0424E-03     9.69277E-03    -3.58393E-03    -2.02993E-03    -12.3047E-03     114.042E-03    -55.2538E-03    -58.9654E-03    -53.6195E-03     108.696E-03    -55.2538E-03     57.9582E-03     162.769E+06     108.997E+06    -15.5927E+06    -15.5784E+06     162.755E+06     108.997E+06     448.521E+03         42.4849
            1446     16.0938E-03     78.4414E-03     19.3417E-03    -1.55567E-03    -10.5800E-03     2.98522E-03     5.77648E-03    -1.55567E-03    -17.3379E-03     112.891E-03    -54.4622E-03    -58.5912E-03    -53.5815E-03     108.703E-03    -55.2842E-03     44.5033E-03     167.019E+06     125.020E+06    -8.10556E+06    -8.10040E+06     167.014E+06     125.020E+06    -540.115E+03         45.3984
            1447     946.436E-06     79.1586E-03         3.53136     227.089E-03        -3.75693    -192.721E-03    -32.8482E-03     227.089E-03        -2.99109     110.867E-03    -55.3092E-03    -55.5568E-03    -55.5292E-03     110.861E-03    -55.3306E-03     1.78430E-03    -89.0865E+06    -92.9844E+06    -293.428E+06    -92.1341E+06    -293.420E+06    -89.9445E+06     217.923E+03         28.2845
            1448     1.89239E-03     79.1615E-03         1.65412     7.12828E-03        -1.66317    -32.8889E-03     23.8408E-03     7.12828E-03     979.087E-03     110.923E-03    -55.4538E-03    -55.4868E-03    -55.4326E-03     110.902E-03    -55.4868E-03     3.63422E-03    -80.0403E+06    -89.2083E+06    -289.448E+06    -89.2145E+06    -289.442E+06    -80.0403E+06     719.450E+03         28.3498
            1449     2.83867E-03     79.1665E-03     947.957E-03    -5.71341E-03    -947.462E-03    -22.5953E-03     23.0906E-03    -5.71341E-03    -443.824E-03     110.990E-03    -55.4589E-03    -55.5345E-03    -55.4135E-03     110.944E-03    -55.5345E-03     5.43020E-03    -66.3180E+06    -84.2131E+06    -280.881E+06    -84.2233E+06    -280.870E+06    -66.3180E+06     1.33331E+06         28.4768
            1450     3.78487E-03     79.1734E-03     568.804E-03    -8.01456E-03    -564.416E-03    -4.41328E-03     8.80184E-03    -8.01456E-03     318.110E-03     111.017E-03    -55.3894E-03    -55.6128E-03    -55.3141E-03     110.941E-03    -55.6128E-03     7.03793E-03    -49.8542E+06    -77.4388E+06    -269.047E+06    -77.4543E+06    -269.031E+06    -49.8542E+06     1.67643E+06         28.6760
            1451     4.73127E-03     79.1817E-03     341.468E-03    -5.18696E-03    -337.261E-03     17.8151E-03    -13.6082E-03    -5.18696E-03    -135.792E-03     110.990E-03    -55.3400E-03    -55.6509E-03    -55.2272E-03     110.878E-03    -55.6509E-03     8.62141E-03    -33.8855E+06    -69.6861E+06    -251.945E+06    -69.7009E+06    -251.930E+06    -33.8855E+06     1.57094E+06         28.9439
            1452     5.67772E-03     79.1920E-03     224.902E-03    -1.86296E-03    -224.100E-03     9.92797E-03    -9.12607E-03    -1.86296E-03     93.1449E-03     110.905E-03    -55.3190E-03    -55.6301E-03    -55.1634E-03     110.750E-03    -55.6301E-03     10.1422E-03    -20.5092E+06    -62.0397E+06    -233.795E+06    -62.0497E+06    -233.785E+06    -20.5092E+06     1.23831E+06         29.2802
            1453     6.62409E-03     79.2037E-03     142.350E-03    -1.45215E-03    -141.067E-03    -9.59080E-03     10.8737E-03    -1.45215E-03    -74.7407E-03     110.802E-03    -55.2920E-03    -55.5991E-03    -55.0861E-03     110.596E-03    -55.5991E-03     11.6571E-03    -11.7882E+06    -55.1233E+06    -209.115E+06    -55.1268E+06    -209.111E+06    -11.7882E+06     632.378E+03         29.7000
            1454     7.57064E-03     79.2170E-03     94.0233E-03    -2.75425E-03    -92.1605E-03    -14.1216E-03     15.9843E-03    -2.75425E-03     23.1356E-03     110.713E-03    -55.2262E-03    -55.5392E-03    -54.9548E-03     110.442E-03    -55.5392E-03     13.3825E-03    -7.66477E+06    -49.4345E+06    -178.845E+06    -49.4371E+06    -178.843E+06    -7.66477E+06     394.147E+03         30.2209
            1455     8.51710E-03     79.2322E-03     74.6696E-03    -3.53820E-03    -71.5401E-03    -4.62899E-03     7.75853E-03    -3.53820E-03    -15.2788E-03     110.694E-03    -55.2050E-03    -55.4700E-03    -54.8233E-03     110.312E-03    -55.4700E-03     15.8207E-03    -3.91110E+06    -44.7506E+06    -149.811E+06    -44.7566E+06    -149.805E+06    -3.91110E+06     677.279E+03         30.8573
            1456     9.46396E-03     79.2512E-03     56.2737E-03    -3.35287E-03    -51.8342E-03     1.41864E-03     3.02086E-03    -3.35287E-03     22.2720E-03     110.696E-03    -55.2333E-03    -55.3764E-03    -54.7291E-03     110.192E-03    -55.3764E-03     18.2432E-03    -825.546E+03    -40.6465E+06    -116.542E+06    -40.6586E+06    -116.530E+06    -825.546E+03     898.691E+03         31.6103
            1457     10.4105E-03     79.2719E-03     38.8640E-03    -2.81578E-03    -34.4913E-03     3.22998E-03     1.14277E-03    -2.81578E-03    -12.3842E-03     110.653E-03    -55.2689E-03    -55.3190E-03    -54.6024E-03     109.982E-03    -55.3154E-03     20.9639E-03     820.057E+03    -37.0953E+06    -76.1282E+06    -37.1832E+06    -76.0403E+06     820.057E+03     1.30727E+06         32.4893
            1458     11.3574E-03     79.2965E-03     27.4071E-03    -2.41167E-03    -23.2992E-03     323.608E-06     3.78426E-03    -2.41167E-03     10.6995E-03     110.671E-03    -55.2464E-03    -55.5198E-03    -54.4320E-03     109.586E-03    -55.2492E-03     26.5108E-03     6.17451E+06    -13.7021E+06    -42.4173E+06    -33.5404E+06    -21.2270E+06     4.82252E+06     2.34727E+06         33.5118
            1459     12.3043E-03     79.3292E-03     23.2324E-03    -2.36419E-03    -20.8022E-03    -4.20424E-03     6.63448E-03    -2.36419E-03     2.65081E-03     111.035E-03    -55.1468E-03    -56.0013E-03    -54.2090E-03     109.243E-03    -55.1468E-03     34.1920E-03     58.5476E+06     9.83849E+06    -30.0051E+06    -29.8678E+06     58.4103E+06     9.83849E+06     2.61034E+06         34.8301
            1460     13.2514E-03     79.3712E-03     23.3341E-03    -2.49717E-03    -21.4872E-03    -4.77981E-03     6.62671E-03    -2.49717E-03     2.39502E-03     112.354E-03    -55.1062E-03    -57.3504E-03    -54.0269E-03     109.030E-03    -55.1062E-03     46.3591E-03     131.274E+06     26.0809E+06    -26.6210E+06    -26.5959E+06     131.249E+06     26.0809E+06     1.84074E+06         36.7454
            1461     14.1985E-03     79.4300E-03     16.6418E-03    -2.44544E-03    -13.8343E-03     426.009E-06     2.38143E-03    -2.44544E-03    -18.8593E-03     112.172E-03    -55.1758E-03    -57.2107E-03    -53.6387E-03     108.600E-03    -55.1758E-03     48.3303E-03     159.384E+06     67.7563E+06    -21.4394E+06    -21.4208E+06     159.366E+06     67.7563E+06     1.57904E+06         39.3860
            1462     15.1464E-03     79.4762E-03     14.9927E-03    -2.22972E-03    -9.84730E-03     1.05402E-03     4.09136E-03    -2.22972E-03    -2.16019E-03     113.969E-03    -55.2535E-03    -58.9444E-03    -53.5377E-03     108.562E-03    -55.2535E-03     58.2781E-03     164.329E+06     109.737E+06    -13.7149E+06    -13.7001E+06     164.314E+06     109.737E+06     1.13506E+06         42.4958
            1463     16.0946E-03     79.5579E-03     17.0832E-03    -2.17852E-03    -12.2234E-03    -3.51287E-03     8.37265E-03    -2.17852E-03     769.044E-06     113.010E-03    -54.5773E-03    -58.5933E-03    -53.6673E-03     108.787E-03    -55.2806E-03     44.5587E-03     168.001E+06     125.913E+06    -6.53629E+06    -6.53104E+06     167.996E+06     125.913E+06     36.1478E+03         45.4118
            1464     945.997E-06     80.2748E-03         3.32734     183.381E-03        -3.50940    -223.218E-03     41.1591E-03     183.381E-03        -2.74334     110.848E-03    -55.2860E-03    -55.5622E-03    -55.5273E-03     110.842E-03    -55.3149E-03     1.66942E-03    -91.0987E+06    -94.4920E+06    -294.386E+06    -94.5000E+06    -294.378E+06    -91.0987E+06     481.469E+03         28.2840
            1465     1.89250E-03     80.2776E-03         1.58412    -16.0445E-03        -1.57319    -573.017E-06     11.5003E-03    -16.0445E-03     931.118E-03     110.902E-03    -55.4410E-03    -55.4817E-03    -55.4235E-03     110.880E-03    -55.4774E-03     3.68450E-03    -81.1439E+06    -90.3738E+06    -290.283E+06    -90.3797E+06    -290.277E+06    -81.1439E+06     943.055E+03         28.3485
            1466     2.83865E-03     80.2828E-03     890.507E-03    -7.59035E-03    -889.836E-03     20.1171E-03    -19.4468E-03    -7.59035E-03    -445.486E-03     110.996E-03    -55.4652E-03    -55.5309E-03    -55.4242E-03     110.950E-03    -55.5266E-03     5.42874E-03    -66.5654E+06    -84.6417E+06    -281.812E+06    -84.6477E+06    -281.806E+06    -66.5654E+06     1.07545E+06         28.4750
            1467     3.78499E-03     80.2894E-03     542.630E-03    -2.47779E-03    -543.734E-03     1.64923E-03    -2.75298E-03    -2.47779E-03     248.168E-03     111.060E-03    -55.4279E-03    -55.6164E-03    -55.3520E-03     110.984E-03    -55.6164E-03     7.06055E-03    -49.2025E+06    -77.7053E+06    -269.606E+06    -77.7126E+06    -269.598E+06    -49.2025E+06     1.16815E+06         28.6737
            1468     4.73130E-03     80.2978E-03     328.649E-03    -2.26387E-03    -328.431E-03    -5.08661E-03     5.30396E-03    -2.26387E-03    -181.629E-03     111.004E-03    -55.3620E-03    -55.6610E-03    -55.2494E-03     110.892E-03    -55.6610E-03     8.62164E-03    -34.0410E+06    -70.5266E+06    -252.152E+06    -70.5337E+06    -252.145E+06    -34.0410E+06     1.13307E+06         28.9418
            1469     5.67768E-03     80.3083E-03     204.066E-03    -2.49469E-03    -201.800E-03    -1.53150E-03     3.79770E-03    -2.49469E-03     69.5244E-03     110.865E-03    -55.2924E-03    -55.6243E-03    -55.1373E-03     110.710E-03    -55.6243E-03     10.1177E-03    -22.1034E+06    -63.2426E+06    -233.208E+06    -63.2482E+06    -233.202E+06    -22.1034E+06     637.869E+03         29.2785
            1470     6.62407E-03     80.3200E-03     136.382E-03    -2.74655E-03    -135.246E-03    -6.95415E-03     8.08996E-03    -2.74655E-03    -67.0320E-03     110.774E-03    -55.2605E-03    -55.5868E-03    -55.0524E-03     110.566E-03    -55.5868E-03     11.7168E-03    -13.4268E+06    -56.2959E+06    -208.808E+06    -56.2990E+06    -208.805E+06    -13.4268E+06     256.796E+03         29.6986
            1471     7.57064E-03     80.3332E-03     92.5554E-03    -3.39562E-03    -90.3337E-03    -8.78081E-03     11.0025E-03    -3.39562E-03     21.8576E-03     110.750E-03    -55.2351E-03    -55.5400E-03    -54.9619E-03     110.476E-03    -55.5400E-03     13.4274E-03    -8.48274E+06    -50.4908E+06    -179.385E+06    -50.4944E+06    -179.382E+06    -8.48274E+06     562.988E+03         30.2205
            1472     8.51721E-03     80.3487E-03     71.3529E-03    -3.43681E-03    -70.6611E-03     1.73929E-03    -1.04746E-03    -3.43681E-03    -16.6529E-03     110.740E-03    -55.2374E-03    -55.4726E-03    -54.8590E-03     110.362E-03    -55.4726E-03     15.7614E-03    -4.68612E+06    -45.6219E+06    -149.947E+06    -45.6278E+06    -149.941E+06    -4.68612E+06     772.510E+03         30.8577
            1473     9.46377E-03     80.3672E-03     55.6140E-03    -2.72123E-03    -55.2366E-03     5.69849E-03    -5.32110E-03    -2.72123E-03     14.4559E-03     110.686E-03    -55.2281E-03    -55.3783E-03    -54.7235E-03     110.181E-03    -55.3783E-03     18.2418E-03    -1.76936E+06    -41.2078E+06    -116.957E+06    -41.2194E+06    -116.945E+06    -1.76936E+06     863.117E+03         31.6113
            1474     10.4105E-03     80.3882E-03     39.5162E-03    -2.30592E-03    -37.8992E-03    -2.37530E-03     3.99235E-03    -2.30592E-03    -20.0879E-03     110.668E-03    -55.2571E-03    -55.3573E-03    -54.6214E-03     109.996E-03    -55.3208E-03     21.0085E-03     68.0427E+03    -37.1698E+06    -76.8170E+06    -37.2467E+06    -76.7401E+06     68.0427E+03     1.28483E+06         32.4907
            1475     11.3572E-03     80.4124E-03     28.3580E-03    -2.32630E-03    -27.4205E-03    -2.63776E-03     3.57522E-03    -2.32630E-03     2.31477E-03     110.714E-03    -55.2481E-03    -55.5758E-03    -54.4840E-03     109.625E-03    -55.2509E-03     26.5531E-03     5.41291E+06    -15.0082E+06    -43.1765E+06    -33.6649E+06    -22.2433E+06     3.13643E+06     1.65626E+06         33.5133
            1476     12.3042E-03     80.4458E-03     30.1611E-03    -2.01653E-03    -30.1595E-03     6.07937E-03    -6.07774E-03    -2.01653E-03     6.24226E-03     110.964E-03    -55.1483E-03    -55.9322E-03    -54.1323E-03     109.164E-03    -55.1483E-03     34.2537E-03     57.8153E+06     8.88210E+06    -30.2087E+06    -30.1435E+06     57.7502E+06     8.88210E+06     2.23686E+06         34.8328
            1477     13.2512E-03     80.4872E-03     24.5830E-03    -1.48188E-03    -25.9725E-03     3.54392E-03    -4.93350E-03    -1.48188E-03     15.1352E-03     112.219E-03    -55.1050E-03    -57.2183E-03    -53.8932E-03     108.893E-03    -55.1050E-03     46.3373E-03     131.786E+06     26.4599E+06    -26.7946E+06    -26.7548E+06     131.746E+06     26.4599E+06     2.36900E+06         36.7508
            1478     14.1989E-03     80.5468E-03     15.5332E-03    -1.40221E-03    -15.6792E-03    -6.23586E-03     6.08983E-03    -1.40221E-03    -10.1073E-03     112.120E-03    -55.1651E-03    -57.2049E-03    -53.6668E-03     108.582E-03    -55.1651E-03     48.0555E-03     160.281E+06     67.5398E+06    -22.4034E+06    -22.3914E+06     160.269E+06     67.5398E+06     1.10853E+06         39.3940
            1479     15.1466E-03     80.5918E-03     13.0462E-03    -1.74558E-03    -11.8551E-03    -9.32643E-03     10.5176E-03    -1.74558E-03     12.8584E-03     114.051E-03    -55.2454E-03    -59.0456E-03    -53.6587E-03     108.664E-03    -55.2454E-03     58.1119E-03     164.717E+06     109.183E+06    -15.5196E+06    -15.5172E+06     164.714E+06     109.183E+06     424.898E+03         42.5056
            1480     16.0940E-03     80.6747E-03     9.95517E-03    -1.32010E-03    -8.59265E-03    -1.62472E-03     3.59768E-03    -1.93054E-03     12.9697E-03     113.027E-03    -54.5014E-03    -58.6590E-03    -53.6465E-03     108.794E-03    -55.2807E-03     44.5629E-03     168.460E+06     125.687E+06    -7.52957E+06    -7.52664E+06     168.457E+06     125.687E+06     555.145E+03         45.4241
            1481     946.413E-06     81.3906E-03         3.08955     178.187E-03        -3.27381    -223.933E-03     39.6768E-03     178.187E-03        -2.54143     110.834E-03    -55.2361E-03    -55.5981E-03    -55.5748E-03     110.827E-03    -55.2524E-03     1.90831E-03    -92.0999E+06    -95.0469E+06    -295.134E+06    -94.6510E+06    -295.131E+06    -92.4988E+06     175.154E+03         28.2824
            1482     1.89241E-03     81.3936E-03         1.49360    -20.4578E-03        -1.47798    -11.1095E-03     26.7237E-03    -20.4578E-03     845.409E-03     110.978E-03    -55.4380E-03    -55.5555E-03    -55.4882E-03     110.956E-03    -55.4840E-03     3.68181E-03    -81.5356E+06    -90.7319E+06    -290.831E+06    -90.7335E+06    -290.829E+06    -81.5356E+06     157.888E+03         28.3472
            1483     2.83868E-03     81.3987E-03     849.408E-03    -14.0390E-03    -842.742E-03     10.5937E-03    -3.92851E-03    -14.0390E-03    -433.271E-03     111.014E-03    -55.4543E-03    -55.5543E-03    -55.4146E-03     110.970E-03    -55.5501E-03     5.33728E-03    -65.9622E+06    -84.7605E+06    -282.404E+06    -84.7632E+06    -282.401E+06    -65.9622E+06     581.329E+03         28.4739
            1484     3.78491E-03     81.4057E-03     517.018E-03    -7.94249E-03    -512.362E-03     8.38657E-03    -3.73018E-03    -7.94249E-03     229.681E-03     111.091E-03    -55.4463E-03    -55.6373E-03    -55.3710E-03     111.015E-03    -55.6373E-03     7.03350E-03    -49.2379E+06    -77.6728E+06    -270.465E+06    -77.6809E+06    -270.457E+06    -49.2379E+06     1.10737E+06         28.6726
            1485     4.73111E-03     81.4142E-03     320.155E-03    -5.07095E-03    -313.382E-03     3.61137E-03     3.16200E-03    -5.07095E-03    -166.603E-03     111.013E-03    -55.3641E-03    -55.6755E-03    -55.2522E-03     110.901E-03    -55.6755E-03     8.59406E-03    -34.6457E+06    -70.4380E+06    -252.074E+06    -70.4468E+06    -252.065E+06    -34.6457E+06     1.10338E+06         28.9404
            1486     5.67757E-03     81.4240E-03     196.323E-03    -4.20708E-03    -189.801E-03    -4.13630E-03     10.6582E-03    -4.20708E-03     80.4927E-03     110.831E-03    -55.2540E-03    -55.6300E-03    -55.0988E-03     110.676E-03    -55.6300E-03     10.1172E-03    -22.5953E+06    -63.4221E+06    -232.285E+06    -63.4250E+06    -232.282E+06    -22.5953E+06     248.941E+03         29.2772
            1487     6.62419E-03     81.4362E-03     132.648E-03    -3.69803E-03    -127.581E-03     3.27446E-03     1.79178E-03    -3.69803E-03    -45.0467E-03     110.754E-03    -55.2492E-03    -55.5832E-03    -55.0423E-03     110.547E-03    -55.5832E-03     11.6859E-03    -14.4250E+06    -57.0317E+06    -209.236E+06    -57.0334E+06    -209.235E+06    -14.4250E+06     29.9809E+03         29.6977
            1488     7.57068E-03     81.4497E-03     95.4345E-03    -2.94179E-03    -94.2598E-03     1.03559E-03     139.182E-06    -2.94179E-03     25.4476E-03     110.766E-03    -55.2489E-03    -55.5393E-03    -54.9758E-03     110.493E-03    -55.5393E-03     13.4205E-03    -9.36915E+06    -51.0679E+06    -179.691E+06    -51.0697E+06    -179.689E+06    -9.36915E+06     283.469E+03         30.2196
            1489     8.51703E-03     81.4652E-03     69.0428E-03    -2.76147E-03    -68.8616E-03    -4.15008E-03     4.33122E-03    -2.76147E-03    -27.3152E-03     110.750E-03    -55.2367E-03    -55.4750E-03    -54.8586E-03     110.371E-03    -55.4750E-03     15.7622E-03    -4.98334E+06    -45.4127E+06    -149.703E+06    -45.4154E+06    -149.701E+06    -4.98334E+06     306.239E+03         30.8568
            1490     9.46375E-03     81.4833E-03     49.7592E-03    -2.88676E-03    -49.8786E-03    -3.82321E-03     3.70372E-03    -2.88676E-03     11.2243E-03     110.682E-03    -55.2261E-03    -55.3754E-03    -54.7191E-03     110.175E-03    -55.3754E-03     18.2798E-03    -2.40883E+06    -40.7430E+06    -117.696E+06    -40.7517E+06    -117.687E+06    -2.40883E+06     589.088E+03         31.6100
            1491     10.4106E-03     81.5044E-03     36.1707E-03    -2.80568E-03    -35.9094E-03     254.695E-06     6.57185E-06    -2.80568E-03    -18.6867E-03     110.674E-03    -55.2614E-03    -55.3642E-03    -54.6268E-03     109.994E-03    -55.3187E-03     21.1343E-03    -419.645E+03    -36.8363E+06    -77.3419E+06    -36.8701E+06    -77.3081E+06    -419.645E+03     921.200E+03         32.4890
            1492     11.3573E-03     81.5293E-03     30.8388E-03    -2.28924E-03    -30.8765E-03     6.82241E-03    -6.86004E-03    -2.28924E-03    -6.89064E-03     110.693E-03    -55.2467E-03    -55.5589E-03    -54.4659E-03     109.600E-03    -55.2467E-03     26.6074E-03     4.64852E+06    -15.4741E+06    -43.1831E+06    -33.6162E+06    -22.9113E+06     2.51889E+06     1.24774E+06         33.5127
            1493     12.3042E-03     81.5621E-03     32.5262E-03    -1.49690E-03    -34.6843E-03     8.96686E-03    -11.1249E-03    -1.49690E-03    -193.127E-06     110.914E-03    -55.1431E-03    -55.8928E-03    -54.0876E-03     109.109E-03    -55.1431E-03     34.2906E-03     56.5181E+06     7.83454E+06    -30.5813E+06    -30.5291E+06     56.4659E+06     7.83454E+06     1.95873E+06         34.8346
            1494     13.2516E-03     81.6035E-03     28.1351E-03    -905.020E-06    -30.9453E-03     4.37779E-03    -7.18799E-03    -905.020E-06     6.35287E-03     112.171E-03    -55.0977E-03    -57.1813E-03    -53.8493E-03     108.839E-03    -55.0977E-03     46.3795E-03     131.741E+06     26.7270E+06    -26.6740E+06    -26.6371E+06     131.704E+06     26.7270E+06     2.37015E+06         36.7558
            1495     14.1988E-03     81.6628E-03     18.6032E-03    -815.006E-06    -22.0596E-03    -3.52786E-03     71.4828E-06    -815.006E-06    -14.4550E-03     112.215E-03    -55.1513E-03    -57.2877E-03    -53.7472E-03     108.675E-03    -55.1513E-03     48.0928E-03     161.645E+06     68.4569E+06    -21.9666E+06    -21.9372E+06     161.616E+06     68.4569E+06     2.00664E+06         39.4009
            1496     15.1461E-03     81.7086E-03     12.4322E-03    -1.13262E-03    -15.4832E-03    -8.62662E-03     5.57561E-03    -1.13262E-03     5.21026E-03     114.144E-03    -55.2454E-03    -59.1059E-03    -53.7316E-03     108.770E-03    -55.2454E-03     58.0726E-03     165.780E+06     108.858E+06    -16.1671E+06    -16.1535E+06     165.766E+06     108.858E+06     857.618E+03         42.5133
            1497     16.0941E-03     81.7909E-03     8.77404E-03    -850.548E-06    -9.92214E-03    -5.19847E-03     4.66082E-03    -1.46099E-03    -8.62982E-03     112.879E-03    -54.3638E-03    -58.6139E-03    -53.4670E-03     108.658E-03    -55.2894E-03     44.5141E-03     168.707E+06     124.914E+06    -8.50590E+06    -8.50440E+06     168.706E+06     124.914E+06    -1.04099E+03         45.4351
            1498     946.325E-06     82.5068E-03         2.84063     186.693E-03        -3.03116    -213.764E-03     23.2349E-03     186.693E-03        -2.36875     110.915E-03    -55.2572E-03    -55.6573E-03    -55.6129E-03     110.908E-03    -55.2946E-03     1.99278E-03    -91.0412E+06    -94.6703E+06    -295.432E+06    -94.2735E+06    -295.430E+06    -91.4401E+06    -141.608E+03         28.2801
            1499     1.89226E-03     82.5100E-03         1.36988    -14.0493E-03        -1.36149    -16.5360E-03     24.9277E-03    -14.0493E-03     766.875E-03     111.017E-03    -55.4487E-03    -55.5861E-03    -55.4952E-03     110.996E-03    -55.5188E-03     3.62540E-03    -80.8830E+06    -90.8353E+06    -291.098E+06    -90.8368E+06    -291.096E+06    -80.8830E+06     102.936E+03         28.3453
            1500     2.83849E-03     82.5150E-03     801.156E-03    -11.9466E-03    -794.371E-03     4.09111E-03     2.69373E-03    -11.9466E-03    -368.357E-03     111.053E-03    -55.4801E-03    -55.5788E-03    -55.4348E-03     111.008E-03    -55.5788E-03     5.40790E-03    -66.3666E+06    -85.4188E+06    -282.979E+06    -85.4198E+06    -282.978E+06    -66.3666E+06     273.234E+03         28.4723
            1501     3.78476E-03     82.5219E-03     480.772E-03    -6.86209E-03    -476.179E-03     11.8852E-03    -7.29146E-03    -6.86209E-03     270.761E-03     111.067E-03    -55.4045E-03    -55.6535E-03    -55.3281E-03     110.991E-03    -55.6535E-03     7.08946E-03    -49.9958E+06    -78.2550E+06    -271.311E+06    -78.2620E+06    -271.304E+06    -49.9958E+06     546.770E+03         28.6713
            1502     4.73121E-03     82.5303E-03     296.935E-03    -3.25396E-03    -292.737E-03     8.77105E-03    -4.57286E-03    -3.25396E-03    -96.5036E-03     110.972E-03    -55.2989E-03    -55.6697E-03    -55.1858E-03     110.859E-03    -55.6697E-03     8.63067E-03    -35.2651E+06    -70.2366E+06    -251.629E+06    -70.2433E+06    -251.623E+06    -35.2651E+06     438.468E+03         28.9397
            1503     5.67764E-03     82.5403E-03     201.291E-03    -2.15182E-03    -194.247E-03    -3.90110E-03     10.9454E-03    -2.15182E-03     97.4001E-03     110.894E-03    -55.2924E-03    -55.6304E-03    -55.1366E-03     110.739E-03    -55.6304E-03     10.1488E-03    -22.7986E+06    -62.8892E+06    -231.530E+06    -62.8900E+06    -231.529E+06    -22.7986E+06     210.993E+03         29.2770
            1504     6.62394E-03     82.5520E-03     128.381E-03    -2.22273E-03    -121.683E-03    -1.60574E-03     8.30418E-03    -2.22273E-03    -48.2860E-03     110.822E-03    -55.2992E-03    -55.5963E-03    -55.0932E-03     110.616E-03    -55.5963E-03     11.6638E-03    -14.7182E+06    -56.3326E+06    -209.125E+06    -56.3337E+06    -209.124E+06    -14.7182E+06    -201.744E+03         29.6971
            1505     7.57050E-03     82.5660E-03     87.7342E-03    -1.97309E-03    -83.3683E-03     1.01209E-03     3.35375E-03    -1.97309E-03     30.3872E-03     110.713E-03    -55.2039E-03    -55.5441E-03    -54.9305E-03     110.440E-03    -55.5441E-03     13.4250E-03    -10.1259E+06    -50.1504E+06    -179.497E+06    -50.1568E+06    -179.491E+06    -10.1259E+06    -622.862E+03         30.2182
            1506     8.51722E-03     82.5813E-03     63.0799E-03    -2.01909E-03    -61.8694E-03    -6.46627E-03     7.67674E-03    -2.01909E-03    -16.8951E-03     110.684E-03    -55.1945E-03    -55.4724E-03    -54.8150E-03     110.304E-03    -55.4724E-03     15.7869E-03    -5.65542E+06    -44.7459E+06    -150.298E+06    -44.7516E+06    -150.292E+06    -5.65542E+06    -457.533E+03         30.8551
            1507     9.46384E-03     82.5997E-03     44.7973E-03    -2.51723E-03    -44.5796E-03    -7.90164E-03     8.11940E-03    -2.51723E-03     18.9856E-03     110.715E-03    -55.2742E-03    -55.3750E-03    -54.7663E-03     110.207E-03    -55.3750E-03     18.3012E-03    -2.74236E+06    -40.0764E+06    -118.165E+06    -40.0814E+06    -118.160E+06    -2.74236E+06     141.218E+03         31.6080
            1508     10.4103E-03     82.6207E-03     29.4199E-03    -2.49556E-03    -30.2088E-03     3.37380E-03    -4.16267E-03    -2.49556E-03    -12.3572E-03     110.652E-03    -55.2799E-03    -55.3256E-03    -54.6081E-03     109.971E-03    -55.3166E-03     21.1404E-03    -970.105E+03    -36.4962E+06    -77.9468E+06    -36.5312E+06    -77.9119E+06    -970.105E+03     704.699E+03         32.4865
            1509     11.3574E-03     82.6453E-03     25.4480E-03    -1.90726E-03    -27.3842E-03     5.35050E-03    -7.28666E-03    -1.90726E-03    -3.58915E-03     110.627E-03    -55.2174E-03    -55.5176E-03    -54.4059E-03     109.536E-03    -55.2381E-03     26.5809E-03     3.71965E+06    -15.8573E+06    -43.4346E+06    -33.5416E+06    -23.7814E+06     1.75074E+06     1.14106E+06         33.5113
            1510     12.3043E-03     82.6782E-03     24.7581E-03    -1.68797E-03    -26.0557E-03    -3.60843E-03     2.31080E-03    -1.68797E-03    -8.12333E-03     110.909E-03    -55.1340E-03    -55.8960E-03    -54.1063E-03     109.119E-03    -55.1340E-03     34.1522E-03     55.7416E+06     6.88304E+06    -30.4503E+06    -30.4144E+06     55.7057E+06     6.88304E+06     1.55145E+06         34.8361
            1511     13.2514E-03     82.7195E-03     27.3357E-03    -1.77671E-03    -29.1105E-03    -765.155E-06    -1.00971E-03    -1.77671E-03    -15.1838E-03     112.167E-03    -55.0937E-03    -57.1792E-03    -53.8574E-03     108.845E-03    -55.0937E-03     46.2842E-03     131.051E+06     25.5534E+06    -27.1490E+06    -27.1176E+06     131.019E+06     25.5534E+06     2.21178E+06         36.7598
            1512     14.1992E-03     82.7795E-03     19.8965E-03    -1.57770E-03    -22.7139E-03     5.41719E-03    -8.23453E-03    -1.57770E-03    -26.3301E-03     112.233E-03    -55.1508E-03    -57.2995E-03    -53.7276E-03     108.661E-03    -55.1508E-03     48.3358E-03     161.817E+06     67.8268E+06    -22.2767E+06    -22.2411E+06     161.781E+06     67.8268E+06     2.47265E+06         39.4069
            1513     15.1465E-03     82.8253E-03     8.81108E-03    -1.38492E-03    -12.0119E-03    -922.843E-06    -2.27800E-03    -1.38492E-03    -1.43056E-03     114.178E-03    -55.2418E-03    -59.1248E-03    -53.7531E-03     108.806E-03    -55.2418E-03     58.1677E-03     167.768E+06     109.947E+06    -14.7696E+06    -14.7516E+06     167.750E+06     109.947E+06     1.45286E+06         42.5220
            1514     16.0938E-03     82.9065E-03     9.40278E-03    -1.59665E-03    -12.8668E-03    -8.27859E-03     4.81461E-03    -1.59665E-03    -14.2712E-03     112.942E-03    -54.4105E-03    -58.6123E-03    -53.5427E-03     108.746E-03    -55.2840E-03     44.5157E-03     169.668E+06     125.972E+06    -6.95554E+06    -6.95322E+06     169.665E+06     125.972E+06     20.8136E+03         45.4472
            1515     945.862E-06     83.6230E-03         2.64282     209.440E-03        -2.85963    -202.165E-03    -14.6485E-03     209.440E-03        -2.21049     111.021E-03    -55.3853E-03    -55.6353E-03    -55.5274E-03     111.014E-03    -55.4861E-03     2.00280E-03    -92.1252E+06    -95.2420E+06    -296.123E+06    -95.1634E+06    -296.120E+06    -92.2059E+06     167.731E+03         28.2760
            1516     1.89246E-03     83.6263E-03         1.26365     3.77143E-03        -1.27143     3.83354E-03    -11.6215E-03     3.77143E-03     751.941E-03     110.945E-03    -55.4218E-03    -55.5444E-03    -55.3995E-03     110.923E-03    -55.5444E-03     3.74748E-03    -80.8897E+06    -91.4833E+06    -291.629E+06    -91.4920E+06    -291.620E+06    -80.8897E+06     955.994E+03         28.3419
            1517     2.83853E-03     83.6310E-03     719.393E-03     2.16109E-03    -726.936E-03    -8.11700E-03     574.046E-06     2.16109E-03    -337.625E-03     111.057E-03    -55.4894E-03    -55.5848E-03    -55.4423E-03     111.009E-03    -55.5848E-03     5.52625E-03    -65.4929E+06    -85.9838E+06    -282.981E+06    -85.9923E+06    -282.973E+06    -65.4929E+06     618.286E+03         28.4696
            1518     3.78476E-03     83.6378E-03     445.654E-03    -980.755E-06    -445.997E-03    -12.6795E-03     12.3363E-03    -980.755E-06     217.711E-03     111.057E-03    -55.3995E-03    -55.6573E-03    -55.3226E-03     110.981E-03    -55.6573E-03     7.11909E-03    -49.9546E+06    -79.1384E+06    -270.819E+06    -79.1413E+06    -270.816E+06    -49.9546E+06    -342.823E+03         28.6698
            1519     4.73115E-03     83.6461E-03     272.912E-03    -2.04298E-03    -267.309E-03     2.15241E-03     3.45085E-03    -2.04298E-03    -133.306E-03     110.975E-03    -55.3132E-03    -55.6647E-03    -55.1999E-03     110.862E-03    -55.6647E-03     8.64026E-03    -36.7349E+06    -71.4213E+06    -251.476E+06    -71.4262E+06    -251.471E+06    -36.7349E+06    -568.309E+03         28.9392
            1520     5.67760E-03     83.6565E-03     171.557E-03    -489.607E-06    -165.780E-03     13.3295E-03    -7.55286E-03    -489.607E-06     72.7558E-03     110.907E-03    -55.3098E-03    -55.6208E-03    -55.1527E-03     110.750E-03    -55.6208E-03     10.1876E-03    -24.8259E+06    -63.5279E+06    -231.120E+06    -63.5348E+06    -231.113E+06    -24.8259E+06    -627.913E+03         29.2764
            1521     6.62397E-03     83.6686E-03     121.179E-03     963.825E-06    -116.592E-03     4.82854E-03    -242.120E-06     963.825E-06    -26.6826E-03     110.836E-03    -55.3029E-03    -55.5920E-03    -55.0934E-03     110.627E-03    -55.5920E-03     11.7606E-03    -15.9748E+06    -55.8880E+06    -208.139E+06    -55.9112E+06    -208.116E+06    -15.9748E+06    -1.41838E+06         29.6958
            1522     7.57041E-03     83.6820E-03     80.4140E-03     759.425E-06    -76.9986E-03    -7.77110E-03     11.1865E-03     759.425E-06     51.1702E-03     110.714E-03    -55.2112E-03    -55.5428E-03    -54.9354E-03     110.438E-03    -55.5428E-03     13.4879E-03    -11.3199E+06    -49.3546E+06    -179.468E+06    -49.3830E+06    -179.440E+06    -11.3199E+06    -1.70113E+06         30.2168
            1523     8.51712E-03     83.6973E-03     52.4853E-03    -111.593E-06    -52.1131E-03    -7.06640E-03     7.43853E-03    -111.593E-06    -1.57893E-03     110.684E-03    -55.2083E-03    -55.4702E-03    -54.8268E-03     110.303E-03    -55.4702E-03     15.8275E-03    -6.85018E+06    -44.2119E+06    -151.137E+06    -44.2267E+06    -151.122E+06    -6.85018E+06    -1.09786E+06         30.8536
            1524     9.46374E-03     83.7164E-03     38.5731E-03    -505.079E-06    -40.6025E-03    -1.58072E-03    -448.638E-06    -505.079E-06     23.2203E-03     110.685E-03    -55.2479E-03    -55.3769E-03    -54.7382E-03     110.175E-03    -55.3769E-03     18.3328E-03    -3.72778E+06    -39.8361E+06    -118.770E+06    -39.8424E+06    -118.764E+06    -3.72778E+06    -453.453E+03         31.6065
            1525     10.4105E-03     83.7368E-03     25.4817E-03    -615.898E-06    -28.3478E-03    -2.95534E-03     89.2808E-06    -615.898E-06    -6.23798E-03     110.620E-03    -55.2442E-03    -55.3386E-03    -54.5822E-03     109.938E-03    -55.3182E-03     21.1604E-03    -1.73682E+06    -35.8469E+06    -78.8154E+06    -35.8744E+06    -78.7879E+06    -1.73682E+06     295.979E+03         32.4857
            1526     11.3574E-03     83.7615E-03     21.8036E-03    -1.15799E-03    -24.3270E-03    -12.4222E-03     9.89878E-03    -1.15799E-03     11.2134E-03     110.634E-03    -55.2155E-03    -55.5277E-03    -54.4085E-03     109.535E-03    -55.2361E-03     26.6675E-03     3.43370E+06    -15.3087E+06    -43.5326E+06    -32.4781E+06    -24.3804E+06     1.45088E+06     1.08470E+06         33.5114
            1527     12.3042E-03     83.7946E-03     19.6368E-03    -2.02002E-03    -20.3369E-03    -12.5309E-03     11.8307E-03    -2.02002E-03     3.95039E-03     110.936E-03    -55.1269E-03    -55.9299E-03    -54.1372E-03     109.143E-03    -55.1269E-03     34.1970E-03     55.0186E+06     5.96056E+06    -29.9039E+06    -29.8602E+06     54.9749E+06     5.96056E+06     1.60174E+06         34.8378
            1528     13.2515E-03     83.8354E-03     22.5756E-03    -2.48933E-03    -22.1212E-03    -4.44608E-03     4.90045E-03    -2.48933E-03    -9.21542E-03     112.205E-03    -55.0838E-03    -57.2286E-03    -53.9152E-03     108.891E-03    -55.0838E-03     46.2386E-03     130.161E+06     23.8050E+06    -26.7511E+06    -26.7222E+06     130.132E+06     23.8050E+06     2.09545E+06         36.7634
            1529     14.1988E-03     83.8956E-03     18.2225E-03    -2.38033E-03    -17.9517E-03     2.99179E-03    -2.72095E-03    -2.38033E-03    -14.5151E-03     112.132E-03    -55.1468E-03    -57.1974E-03    -53.6323E-03     108.566E-03    -55.1468E-03     48.2683E-03     162.206E+06     67.2135E+06    -21.6228E+06    -21.5957E+06     162.179E+06     67.2135E+06     2.15935E+06         39.4132
            1530     15.1467E-03     83.9414E-03     9.61446E-03    -1.93158E-03    -11.2216E-03     6.97059E-03    -8.57777E-03    -1.93158E-03     10.5922E-03     114.013E-03    -55.2347E-03    -59.0018E-03    -53.6562E-03     108.667E-03    -55.2347E-03     58.0070E-03     168.930E+06     110.204E+06    -14.7827E+06    -14.7703E+06     168.917E+06     110.204E+06     1.39813E+06         42.5323
            1531     16.0944E-03     84.0230E-03     12.4366E-03    -1.43277E-03    -16.4629E-03     6.11092E-03    -10.1372E-03    -1.43277E-03     3.09338E-03     112.910E-03    -54.4943E-03    -58.6009E-03    -53.6547E-03     108.741E-03    -55.2714E-03     44.3513E-03     170.380E+06     126.104E+06    -7.06268E+06    -7.06011E+06     170.377E+06     126.104E+06     494.873E+03         45.4607
            1532     946.176E-06     84.7388E-03         2.46304     228.695E-03        -2.70172    -190.151E-03    -48.5256E-03     228.695E-03        -2.11800     110.927E-03    -55.2742E-03    -55.6563E-03    -55.5850E-03     110.919E-03    -55.3376E-03     1.98357E-03    -93.9885E+06    -97.0583E+06    -297.538E+06    -96.9825E+06    -297.533E+06    -94.0693E+06     388.652E+03         28.2721
            1533     1.89232E-03     84.7424E-03         1.17274     15.8943E-03        -1.19265     2.22843E-03    -22.1320E-03     15.8943E-03     678.180E-03     110.967E-03    -55.4270E-03    -55.5532E-03    -55.4356E-03     110.943E-03    -55.5207E-03     3.91205E-03    -81.8310E+06    -92.6232E+06    -292.474E+06    -92.6348E+06    -292.463E+06    -81.8310E+06     1.17848E+06         28.3381
            1534     2.83862E-03     84.7475E-03     676.873E-03     7.85151E-03    -685.868E-03    -19.7699E-03     10.7750E-03     7.85151E-03    -326.039E-03     111.032E-03    -55.4626E-03    -55.5762E-03    -55.4167E-03     110.986E-03    -55.5762E-03     5.47442E-03    -65.3240E+06    -86.1883E+06    -282.319E+06    -86.1982E+06    -282.309E+06    -65.3240E+06     757.960E+03         28.4663
            1535     3.78492E-03     84.7539E-03     418.801E-03    -217.577E-06    -414.251E-03    -27.8802E-03     32.4307E-03    -217.577E-06     204.224E-03     111.088E-03    -55.4396E-03    -55.6532E-03    -55.3636E-03     111.012E-03    -55.6532E-03     7.06838E-03    -49.1331E+06    -79.1599E+06    -269.635E+06    -79.1632E+06    -269.632E+06    -49.1331E+06    -55.3649E+03         28.6680
            1536     4.73108E-03     84.7625E-03     253.295E-03    -2.75498E-03    -243.403E-03     6.28740E-03     3.60539E-03    -2.75498E-03    -131.599E-03     111.037E-03    -55.3779E-03    -55.6643E-03    -55.2634E-03     110.923E-03    -55.6643E-03     8.68720E-03    -37.6170E+06    -72.2705E+06    -250.625E+06    -72.2821E+06    -250.613E+06    -37.6170E+06    -1.14765E+06         28.9380
            1537     5.67746E-03     84.7725E-03     150.353E-03     318.501E-06    -144.798E-03     26.0665E-03    -20.5117E-03     318.501E-06     73.2537E-03     110.854E-03    -55.2702E-03    -55.6127E-03    -55.1112E-03     110.695E-03    -55.6127E-03     10.2453E-03    -27.5638E+06    -64.3301E+06    -229.566E+06    -64.4058E+06    -229.490E+06    -27.5638E+06    -2.87329E+06         29.2747
            1538     6.62407E-03     84.7847E-03     99.8823E-03     2.98085E-03    -99.6622E-03     10.0910E-03    -9.87082E-03     2.98085E-03    -21.4932E-03     110.761E-03    -55.2518E-03    -55.5779E-03    -55.0399E-03     110.549E-03    -55.5779E-03     11.8259E-03    -18.3112E+06    -56.3278E+06    -207.500E+06    -56.4285E+06    -207.400E+06    -18.3112E+06    -3.53063E+06         29.6941
            1539     7.57054E-03     84.7984E-03     75.5092E-03     2.69790E-03    -77.5353E-03    -9.88510E-03     7.85898E-03     2.69790E-03     22.5442E-03     110.769E-03    -55.2658E-03    -55.5339E-03    -54.9881E-03     110.492E-03    -55.5339E-03     13.5402E-03    -13.0542E+06    -49.8825E+06    -179.946E+06    -49.9549E+06    -179.874E+06    -13.0542E+06    -2.89433E+06         30.2156
            1540     8.51699E-03     84.8136E-03     49.0703E-03     1.54595E-03    -50.3660E-03    -5.05446E-03     3.75875E-03     1.54595E-03    -31.4038E-03     110.724E-03    -55.2392E-03    -55.4677E-03    -54.8521E-03     110.337E-03    -55.4677E-03     15.9392E-03    -8.46337E+06    -44.3320E+06    -151.776E+06    -44.3866E+06    -151.721E+06    -8.46337E+06    -2.22422E+06         30.8527
            1541     9.46368E-03     84.8323E-03     33.6337E-03     1.17797E-03    -38.1929E-03     982.689E-06    -5.54194E-03     1.17797E-03    -4.52517E-03     110.633E-03    -55.1970E-03    -55.3694E-03    -54.6837E-03     110.120E-03    -55.3694E-03     18.3987E-03    -5.02336E+06    -39.5000E+06    -119.661E+06    -39.5315E+06    -119.630E+06    -5.02336E+06    -1.39878E+06         31.6059
            1542     10.4106E-03     84.8531E-03     34.1013E-03     649.141E-06    -39.9912E-03    -10.8728E-03     4.98284E-03     649.141E-06    -7.54842E-03     110.606E-03    -55.2320E-03    -55.3296E-03    -54.5741E-03     109.923E-03    -55.3042E-03     21.1680E-03    -2.79127E+06    -35.3378E+06    -79.9078E+06    -35.3511E+06    -79.8945E+06    -2.79127E+06    -513.078E+03         32.4853
            1543     11.3574E-03     84.8780E-03     32.5786E-03    -531.591E-06    -35.0917E-03    -16.4248E-03     13.9118E-03    -531.591E-06     7.32892E-03     110.633E-03    -55.2261E-03    -55.5193E-03    -54.4237E-03     109.537E-03    -55.2261E-03     26.6432E-03     2.48148E+06    -15.4471E+06    -43.6606E+06    -31.7297E+06    -25.4204E+06     523.844E+03     514.284E+03         33.5114
            1544     12.3045E-03     84.9103E-03     31.7253E-03    -1.28693E-03    -31.2533E-03    -4.46103E-03     4.93304E-03    -1.28693E-03     8.20596E-03     110.957E-03    -55.1178E-03    -55.9649E-03    -54.1665E-03     109.159E-03    -55.1178E-03     34.2416E-03     53.8687E+06     5.69741E+06    -28.4939E+06    -28.4493E+06     53.8241E+06     5.69741E+06     1.59931E+06         34.8393
            1545     13.2513E-03     84.9520E-03     26.8624E-03    -1.44077E-03    -24.1201E-03    -4.25415E-03     6.99647E-03    -1.44077E-03     16.1927E-03     112.286E-03    -55.0799E-03    -57.3099E-03    -53.9994E-03     108.976E-03    -55.0799E-03     46.2715E-03     129.747E+06     24.0477E+06    -25.4391E+06    -25.4069E+06     129.714E+06     24.0477E+06     2.18763E+06         36.7672
            1546     14.1989E-03     85.0113E-03     18.6364E-03    -1.61143E-03    -15.8311E-03    -6.27723E-03     9.08259E-03    -1.61143E-03    -1.65060E-03     112.161E-03    -55.1499E-03    -57.2285E-03    -53.6745E-03     108.606E-03    -55.1499E-03     48.2176E-03     162.540E+06     67.3879E+06    -21.0536E+06    -21.0277E+06     162.514E+06     67.3879E+06     2.14873E+06         39.4198
            1547     15.1465E-03     85.0580E-03     13.8939E-03    -1.49179E-03    -13.1297E-03     5.03349E-03    -4.26928E-03    -1.49179E-03     16.8069E-03     113.900E-03    -55.2398E-03    -58.8797E-03    -53.5399E-03     108.560E-03    -55.2398E-03     57.9421E-03     169.361E+06     110.014E+06    -14.6555E+06    -14.6330E+06     169.339E+06     110.014E+06     1.90804E+06         42.5425
            1548     16.0942E-03     85.1390E-03     19.1087E-03    -725.394E-06    -20.8700E-03     16.7304E-03    -18.4916E-03    -725.394E-06    -1.36098E-03     112.806E-03    -54.4819E-03    -58.4846E-03    -53.5353E-03     108.648E-03    -55.2726E-03     44.2239E-03     171.365E+06     125.683E+06    -7.54391E+06    -7.53236E+06     171.354E+06     125.683E+06     1.04740E+06         45.4744
            1549     946.438E-06     85.8547E-03         2.30051     222.803E-03        -2.52718    -234.113E-03     7.44358E-03     222.803E-03        -2.01097     110.845E-03    -55.1731E-03    -55.6787E-03    -55.6714E-03     110.837E-03    -55.1731E-03     1.87779E-03    -95.2034E+06    -98.5056E+06    -298.167E+06    -98.5123E+06    -298.160E+06    -95.2034E+06     169.910E+03         28.2690
            1550     1.89245E-03     85.8587E-03         1.11263    -6.33372E-03        -1.10939    -8.98960E-03     12.2365E-03    -6.33372E-03     587.753E-03     111.007E-03    -55.4559E-03    -55.5606E-03    -55.4927E-03     110.984E-03    -55.5009E-03     3.81718E-03    -83.2868E+06    -93.3127E+06    -293.079E+06    -93.3189E+06    -293.072E+06    -83.2868E+06     346.701E+03         28.3341
            1551     2.83852E-03     85.8636E-03     661.896E-03    -4.26864E-03    -657.384E-03     12.7894E-03    -8.27712E-03    -4.26864E-03    -316.783E-03     111.010E-03    -55.4435E-03    -55.5669E-03    -55.3973E-03     110.964E-03    -55.5669E-03     5.47888E-03    -67.6028E+06    -86.9902E+06    -282.128E+06    -86.9932E+06    -282.125E+06    -67.6028E+06     383.209E+03         28.4622
            1552     3.78480E-03     85.8705E-03     406.198E-03     276.642E-06    -401.857E-03     14.1412E-03    -9.80062E-03     276.642E-06     195.554E-03     111.091E-03    -55.4417E-03    -55.6474E-03    -55.3645E-03     111.014E-03    -55.6474E-03     7.12375E-03    -50.0019E+06    -79.3239E+06    -268.609E+06    -79.3277E+06    -268.605E+06    -50.0019E+06    -94.3325E+03         28.6649
            1553     4.73115E-03     85.8791E-03     244.986E-03     2.32511E-03    -241.797E-03     5.08439E-03    -1.89513E-03     2.32511E-03    -125.905E-03     111.020E-03    -55.3637E-03    -55.6589E-03    -55.2486E-03     110.905E-03    -55.6589E-03     8.71160E-03    -37.3480E+06    -70.7649E+06    -247.661E+06    -70.8257E+06    -247.600E+06    -37.3480E+06    -2.34530E+06         28.9363
            1554     5.67754E-03     85.8890E-03     152.234E-03     1.81253E-03    -151.577E-03    -7.98013E-03     8.63731E-03     1.81253E-03     57.7919E-03     110.843E-03    -55.2641E-03    -55.5975E-03    -55.1046E-03     110.684E-03    -55.5975E-03     10.2606E-03    -28.1915E+06    -63.1881E+06    -226.674E+06    -63.3438E+06    -226.519E+06    -28.1915E+06    -4.79307E+06         29.2738
            1555     6.62407E-03     85.9008E-03     102.308E-03     863.567E-06    -103.627E-03    -644.732E-06    -674.368E-06     863.567E-06    -38.3628E-03     110.766E-03    -55.2552E-03    -55.5629E-03    -55.0423E-03     110.553E-03    -55.5629E-03     11.8537E-03    -20.1485E+06    -56.7074E+06    -207.557E+06    -56.9008E+06    -207.364E+06    -20.1485E+06    -5.21029E+06         29.6931
            1556     7.57056E-03     85.9145E-03     77.0918E-03     1.18928E-03    -79.3528E-03     8.74439E-03    -11.0054E-03     1.18928E-03     11.8871E-03     110.723E-03    -55.2420E-03    -55.5215E-03    -54.9615E-03     110.442E-03    -55.5215E-03     13.6036E-03    -14.8466E+06    -50.3742E+06    -180.400E+06    -50.5511E+06    -180.223E+06    -14.8466E+06    -4.62872E+06         30.2146
            1557     8.51709E-03     85.9297E-03     48.3045E-03     1.69688E-03    -55.0496E-03     2.61057E-03    -9.35567E-03     1.69688E-03    -41.0211E-03     110.711E-03    -55.2611E-03    -55.4578E-03    -54.8748E-03     110.324E-03    -55.4578E-03     15.9320E-03    -10.1333E+06    -44.4988E+06    -152.179E+06    -44.6670E+06    -152.011E+06    -10.1333E+06    -4.06475E+06         30.8518
            1558     9.46376E-03     85.9488E-03     30.9449E-03     1.30764E-03    -38.0783E-03    -7.41334E-03     279.962E-06     1.30764E-03    -6.59585E-03     110.691E-03    -55.2612E-03    -55.3665E-03    -54.7518E-03     110.181E-03    -55.3665E-03     18.3328E-03    -6.61567E+06    -39.1390E+06    -120.950E+06    -39.2667E+06    -120.823E+06    -6.61567E+06    -3.02962E+06         31.6051
            1559     10.4104E-03     85.9696E-03     34.6486E-03     417.682E-06    -40.8099E-03    -9.38123E-03     3.21989E-03     417.682E-06    -2.35642E-03     110.620E-03    -55.2588E-03    -55.3118E-03    -54.5888E-03     109.943E-03    -55.3048E-03     21.0772E-03    -4.00648E+06    -34.7021E+06    -81.1616E+06    -34.7824E+06    -81.0812E+06    -4.00648E+06    -1.66969E+06         32.4844
            1560     11.3575E-03     85.9938E-03     31.1730E-03    -162.609E-06    -36.4442E-03    -3.44039E-03    -1.83080E-03    -162.609E-06     3.04238E-03     110.634E-03    -55.2261E-03    -55.5207E-03    -54.4353E-03     109.548E-03    -55.2261E-03     26.5166E-03     879.081E+03    -15.8729E+06    -43.8840E+06    -31.2113E+06    -26.9701E+06    -696.335E+03    -354.007E+03         33.5107
            1561     12.3041E-03     86.0269E-03     27.1563E-03    -237.364E-06    -29.6933E-03     879.342E-06    -3.41629E-03    -237.364E-06    -5.08865E-03     110.940E-03    -55.1220E-03    -55.9391E-03    -54.1505E-03     109.151E-03    -55.1220E-03     34.1404E-03     51.6164E+06     4.80389E+06    -28.6145E+06    -28.5833E+06     51.5852E+06     4.80389E+06     1.52106E+06         34.8400
            1562     13.2516E-03     86.0684E-03     22.6520E-03    -156.259E-06    -24.2741E-03     171.276E-06    -1.79342E-03    -156.259E-06     11.3869E-03     112.252E-03    -55.0823E-03    -57.2653E-03    -53.9472E-03     108.934E-03    -55.0823E-03     46.2955E-03     129.210E+06     23.6715E+06    -26.0238E+06    -25.9738E+06     129.160E+06     23.6715E+06     2.73552E+06         36.7701
            1563     14.1987E-03     86.1280E-03     17.7285E-03    -109.935E-06    -17.4973E-03    -388.507E-06     619.740E-06    -109.935E-06    -11.0495E-03     112.188E-03    -55.1453E-03    -57.2799E-03    -53.7191E-03     108.627E-03    -55.1453E-03     48.2571E-03     162.908E+06     66.8371E+06    -21.5580E+06    -21.5244E+06     162.874E+06     66.8371E+06     2.45187E+06         39.4250
            1564     15.1464E-03     86.1734E-03     13.7673E-03     26.1604E-06    -13.6228E-03     1.97788E-03    -1.83340E-03     26.1604E-06     13.7000E-03     113.964E-03    -55.2327E-03    -58.9389E-03    -53.5832E-03     108.608E-03    -55.2327E-03     58.0121E-03     169.827E+06     109.605E+06    -14.8616E+06    -14.8346E+06     169.800E+06     109.605E+06     2.19283E+06         42.5513
            1565     16.0944E-03     86.2554E-03     20.3099E-03     169.540E-06    -22.1523E-03    -70.2126E-06    -1.77219E-03     169.540E-06    -2.56506E-03     112.817E-03    -54.4328E-03    -58.4958E-03    -53.4721E-03     108.631E-03    -55.2706E-03     44.4501E-03     172.756E+06     125.963E+06    -7.04614E+06    -7.02932E+06     172.739E+06     125.963E+06     1.48384E+06         45.4884
            1566     946.077E-06     86.9715E-03         2.19339     194.688E-03        -2.39482    -248.356E-03     46.9227E-03     194.688E-03        -1.88689     111.002E-03    -55.3575E-03    -55.6438E-03    -55.5994E-03     110.994E-03    -55.3945E-03     2.09854E-03    -95.3995E+06    -98.0701E+06    -297.437E+06    -97.8598E+06    -297.432E+06    -95.6145E+06     -304.98E+03         28.2650
            1567     1.89220E-03     86.9744E-03         1.05006    -20.7703E-03        -1.03509     3.14182E-03     11.8322E-03    -20.7703E-03     605.515E-03     110.980E-03    -55.4082E-03    -55.5719E-03    -55.4142E-03     110.958E-03    -55.5447E-03     3.63221E-03    -84.9626E+06    -94.4733E+06    -293.632E+06    -94.4769E+06    -293.629E+06    -84.9626E+06    -182.467E+03         28.3294
            1568     2.83864E-03     86.9797E-03     619.475E-03    -8.36893E-03    -610.652E-03     29.8598E-03    -21.0365E-03    -8.36893E-03    -250.556E-03     110.963E-03    -55.3969E-03    -55.5629E-03    -55.3492E-03     110.915E-03    -55.5629E-03     5.55111E-03    -70.1513E+06    -88.5899E+06    -282.029E+06    -88.5918E+06    -282.027E+06    -70.1513E+06    -208.557E+03         28.4573
            1569     3.78485E-03     86.9866E-03     397.273E-03     1.05147E-03    -392.577E-03     25.2351E-03    -20.5394E-03     1.05147E-03     190.573E-03     111.035E-03    -55.4198E-03    -55.6090E-03    -55.3397E-03     110.954E-03    -55.6090E-03     7.26137E-03    -54.3414E+06    -80.7500E+06    -266.004E+06    -80.8057E+06    -265.948E+06    -54.3414E+06    -1.94335E+06         28.6608
            1570     4.73115E-03     86.9952E-03     229.502E-03     3.22050E-03    -228.402E-03    -5.06363E-03     6.16343E-03     3.22050E-03    -142.044E-03     110.977E-03    -55.3387E-03    -55.6310E-03    -55.2230E-03     110.861E-03    -55.6310E-03     8.74024E-03    -40.0867E+06     -71.766E+06    -243.552E+06    -71.9405E+06    -243.378E+06    -40.0867E+06    -4.87868E+06         28.9341
            1571     5.67759E-03     87.0046E-03     140.212E-03     709.377E-06    -139.470E-03    -19.0660E-03     19.8083E-03     709.377E-06     36.6582E-03     110.858E-03    -55.2815E-03    -55.5919E-03    -55.1222E-03     110.699E-03    -55.5919E-03     10.2554E-03    -28.9510E+06    -63.5822E+06    -224.640E+06    -63.8310E+06    -224.391E+06    -28.9510E+06      -6.217E+06         29.2733
            1572     6.62397E-03     87.0170E-03     101.976E-03    -836.335E-06    -102.458E-03     690.359E-06    -1.17196E-03    -836.335E-06    -37.5433E-03     110.793E-03    -55.2877E-03    -55.5592E-03    -55.0739E-03     110.579E-03    -55.5592E-03     11.8791E-03    -21.5063E+06    -56.6553E+06    -206.762E+06    -56.9561E+06    -206.461E+06    -21.5063E+06    -6.57813E+06         29.6930
            1573     7.57055E-03     87.0305E-03     69.9425E-03     289.295E-06    -74.7693E-03     16.4072E-03    -21.2340E-03     289.295E-06     24.9198E-03     110.683E-03    -55.2378E-03    -55.5119E-03    -54.9559E-03     110.401E-03    -55.5119E-03     13.6356E-03    -16.9390E+06    -50.3338E+06    -180.216E+06    -50.7091E+06    -179.840E+06    -16.9390E+06    -6.80453E+06         30.2141
            1574     8.51729E-03     87.0463E-03     46.2575E-03     1.58022E-03    -51.8251E-03     6.61261E-03    -12.1803E-03     1.58022E-03    -20.5749E-03     110.696E-03    -55.2849E-03    -55.4495E-03    -54.8981E-03     110.309E-03    -55.4495E-03     15.9460E-03    -12.0990E+06    -44.5887E+06    -152.643E+06    -44.9612E+06    -152.271E+06    -12.0990E+06    -6.18815E+06         30.8505
            1575     9.46360E-03     87.0645E-03     30.4546E-03     1.35172E-03    -36.3545E-03    -8.87485E-03     2.97492E-03     1.35172E-03     9.04993E-03     110.744E-03    -55.3212E-03    -55.3668E-03    -54.8158E-03     110.236E-03    -55.3642E-03     18.3127E-03    -8.73426E+06    -39.5596E+06    -122.448E+06    -39.8806E+06    -122.127E+06    -8.73426E+06    -4.99185E+06         31.6024
            1576     10.4105E-03     87.0854E-03     28.0226E-03     878.692E-06    -34.0279E-03     1.29019E-03    -7.29553E-03     878.692E-06    -1.04511E-03     110.659E-03    -55.2792E-03    -55.3241E-03    -54.6237E-03     109.980E-03    -55.3011E-03     21.0992E-03    -6.07761E+06    -35.1219E+06    -82.9807E+06    -35.3768E+06    -82.7259E+06    -6.07761E+06    -3.30014E+06         32.4808
            1577     11.3571E-03     87.1102E-03     22.2470E-03     1.17660E-03    -28.8472E-03     6.77661E-03    -13.3768E-03     1.17660E-03     26.3686E-03     110.619E-03    -55.2271E-03    -55.4868E-03    -54.3928E-03     109.524E-03    -55.2271E-03     26.6133E-03    -1.26196E+06    -16.9835E+06    -44.7548E+06    -31.8289E+06    -29.3617E+06     -1.8096E+06    -1.04100E+06         33.5080
            1578     12.3043E-03     87.1433E-03     18.3135E-03     1.16034E-03    -24.2550E-03    -6.96745E-03     1.02597E-03     1.16034E-03     19.3416E-03     110.922E-03    -55.1258E-03    -55.9101E-03    -54.1008E-03     109.113E-03    -55.1258E-03     34.3276E-03     49.2469E+06     3.20336E+06    -28.8481E+06    -28.8062E+06     48.4397E+06     3.96866E+06     1.67013E+06         34.8396
            1579     13.2513E-03     87.1845E-03     17.1900E-03     784.944E-06    -20.4218E-03    -2.65998E-03    -571.791E-06     784.944E-06     8.88612E-03     112.198E-03    -55.0731E-03    -57.2232E-03    -53.8910E-03     108.866E-03    -55.0731E-03     46.3995E-03     128.513E+06     22.0103E+06    -26.0429E+06    -25.9676E+06     128.438E+06     22.0103E+06     3.34797E+06         36.7724
            1580     14.1991E-03     87.2441E-03     12.0415E-03     967.654E-06    -15.3566E-03     8.72089E-03    -12.0360E-03     967.654E-06    -16.9083E-03     112.108E-03    -55.1320E-03    -57.2005E-03    -53.6369E-03     108.544E-03    -55.1320E-03     48.2558E-03     163.677E+06     64.8246E+06    -22.1593E+06    -22.1072E+06     163.625E+06     64.8246E+06     3.02334E+06         39.4291
            1581     15.1465E-03     87.2898E-03     11.8720E-03     1.32620E-03    -13.6379E-03     3.26152E-03    -5.02747E-03     1.32620E-03     3.32585E-03     114.001E-03    -55.2183E-03    -58.9456E-03    -53.5871E-03     108.643E-03    -55.2183E-03     58.0491E-03     170.319E+06     108.161E+06    -15.7010E+06    -15.6768E+06     170.294E+06     108.161E+06     2.07984E+06         42.5589
            1582     16.0941E-03     87.3712E-03     16.1159E-03     1.06954E-03    -15.9478E-03    -10.8473E-03     11.0155E-03     1.06954E-03     7.41535E-03     112.762E-03    -54.3673E-03    -58.5208E-03    -53.4409E-03     108.571E-03    -55.2570E-03     44.5639E-03     173.848E+06     125.942E+06    -7.24822E+06    -7.23736E+06     173.837E+06     125.942E+06     1.36618E+06         45.5037
            1583     945.996E-06     88.0877E-03         2.01780     224.225E-03        -2.25346    -224.998E-03    -10.6628E-03     224.225E-03        -1.76133     111.049E-03    -55.4302E-03    -55.6123E-03    -55.5179E-03     111.041E-03    -55.5165E-03     2.27995E-03    -96.9070E+06    -99.9216E+06    -297.682E+06    -99.7118E+06    -297.677E+06    -97.1220E+06    -157.397E+03         28.2581
            1584     1.89227E-03     88.0904E-03     956.487E-03     2.38333E-03    -963.568E-03     12.8990E-03    -19.9801E-03     2.38333E-03     581.858E-03     110.967E-03    -55.3994E-03    -55.5579E-03    -55.3772E-03     110.944E-03    -55.5579E-03     3.71082E-03    -86.0469E+06    -95.7922E+06    -293.063E+06    -95.7951E+06    -293.060E+06    -86.0469E+06    -428.868E+03         28.3238
            1585     2.83852E-03     88.0956E-03     557.964E-03     4.61752E-03    -561.092E-03     1.70341E-03    -4.83154E-03     4.61752E-03    -219.947E-03     110.966E-03    -55.4056E-03    -55.5541E-03    -55.3571E-03     110.918E-03    -55.5541E-03     5.60842E-03    -72.1925E+06    -89.4550E+06    -280.516E+06    -89.4901E+06    -280.481E+06    -72.1925E+06    -1.62761E+06         28.4528
            1586     3.78491E-03     88.1027E-03     352.557E-03     2.41430E-03    -352.864E-03    -11.6197E-03     11.3124E-03     2.41430E-03     193.331E-03     110.946E-03    -55.3599E-03    -55.5724E-03    -55.2794E-03     110.866E-03    -55.5724E-03     7.27297E-03    -57.9212E+06    -81.7184E+06    -261.590E+06    -81.8590E+06    -261.450E+06    -57.9212E+06    -4.33893E+06         28.6570
            1587     4.73128E-03     88.1115E-03     206.345E-03     655.430E-06    -207.193E-03     537.643E-06    -1.38550E-03     655.430E-06    -99.4636E-03     110.926E-03    -55.3175E-03    -55.5926E-03    -55.1996E-03     110.808E-03    -55.5926E-03     8.81885E-03    -44.0227E+06    -73.9112E+06    -239.657E+06    -74.2230E+06    -239.346E+06    -44.0227E+06    -6.99326E+06         28.9315
            1588     5.67755E-03     88.1215E-03     126.061E-03     1.27824E-03    -129.304E-03     8.58196E-03    -11.8252E-03     1.27824E-03     59.9801E-03     110.857E-03    -55.3011E-03    -55.5694E-03    -55.1396E-03     110.696E-03    -55.5694E-03     10.3305E-03    -32.1469E+06    -66.3502E+06    -222.853E+06    -66.8097E+06    -222.393E+06    -32.1469E+06    -8.35015E+06         29.2722
            1589     6.62411E-03     88.1331E-03     83.4105E-03     1.84583E-03    -89.6837E-03     604.620E-06    -6.87787E-03     1.84583E-03    -22.3827E-03     110.808E-03    -55.3135E-03    -55.5397E-03    -55.0981E-03     110.592E-03    -55.5397E-03     11.9247E-03    -23.9762E+06    -58.3533E+06    -204.932E+06    -58.9473E+06    -204.338E+06    -23.9762E+06    -9.07426E+06         29.6925
            1590     7.57059E-03     88.1469E-03     63.4503E-03     1.40864E-03    -68.2861E-03    -4.70213E-03    -133.666E-06     1.40864E-03     20.7581E-03     110.727E-03    -55.2896E-03    -55.5006E-03    -55.0067E-03     110.444E-03    -55.5006E-03     13.6644E-03    -19.4334E+06    -51.1363E+06    -179.477E+06    -51.8311E+06    -178.783E+06    -19.4334E+06    -9.25599E+06         30.2132
            1591     8.51698E-03     88.1623E-03     45.6478E-03     1.14724E-03    -50.3173E-03     3.29152E-03    -7.96108E-03     1.14724E-03    -17.0258E-03     110.659E-03    -55.2551E-03    -55.4467E-03    -54.8637E-03     110.267E-03    -55.4467E-03     16.0274E-03    -14.8695E+06    -45.3513E+06    -153.812E+06    -46.0019E+06    -153.161E+06    -14.8695E+06    -8.29931E+06         30.8484
            1592     9.46391E-03     88.1812E-03     33.0225E-03     1.62593E-03    -37.2387E-03     8.88517E-03    -13.1014E-03     1.62593E-03     10.7093E-03     110.687E-03    -55.2798E-03    -55.3626E-03    -54.7650E-03     110.170E-03    -55.3601E-03     18.4779E-03    -11.3832E+06    -40.6723E+06    -123.609E+06    -41.2513E+06    -123.030E+06    -11.3832E+06    -6.81188E+06         31.5987
            1593     10.4103E-03     88.2013E-03     23.1385E-03     2.19658E-03    -27.5654E-03     6.44241E-03    -10.8692E-03     2.19658E-03    -15.9181E-03     110.655E-03    -55.2803E-03    -55.3186E-03    -54.6269E-03     109.966E-03    -55.2832E-03     21.2605E-03    -9.26779E+06    -36.6326E+06    -85.4511E+06    -37.1975E+06    -84.8863E+06    -9.26779E+06    -5.03155E+06         32.4765
            1594     11.3574E-03     88.2261E-03     15.3300E-03     2.37687E-03    -20.6421E-03     1.79534E-03    -7.10739E-03     2.37687E-03     12.7300E-03     110.603E-03    -55.2090E-03    -55.4839E-03    -54.3834E-03     109.503E-03    -55.2090E-03     26.7016E-03    -4.50490E+06    -19.0909E+06    -47.4251E+06    -33.2573E+06    -32.7041E+06    -5.05947E+06    -2.13593E+06         33.5050
            1595     12.3043E-03     88.2585E-03     18.6101E-03     2.18188E-03    -22.6788E-03    -2.30281E-03    -1.76588E-03     2.18188E-03     12.0771E-03     110.910E-03    -55.1113E-03    -55.9123E-03    -54.0975E-03     109.095E-03    -55.1113E-03     34.3750E-03     45.8894E+06    -112.322E+03    -29.8401E+06    -29.8110E+06     45.0950E+06     652.981E+03     863.805E+03         34.8390
            1596     13.2517E-03     88.3015E-03     20.9861E-03     1.91548E-03    -23.6907E-03    -1.44133E-03    -1.26325E-03     1.91548E-03    -9.59119E-03     112.144E-03    -55.0499E-03    -57.1881E-03    -53.8690E-03     108.825E-03    -55.0499E-03     46.3188E-03     126.666E+06     17.9253E+06    -26.2929E+06    -26.2170E+06     126.590E+06     17.9253E+06     3.25832E+06         36.7742
            1597     14.1988E-03     88.3593E-03     15.2676E-03     1.88287E-03    -16.0148E-03     3.06839E-03    -3.81567E-03     1.88287E-03    -17.2943E-03     112.035E-03    -55.1115E-03    -57.1453E-03    -53.5849E-03     108.475E-03    -55.1115E-03     48.2415E-03     164.797E+06     62.2001E+06    -21.9806E+06    -21.8993E+06     164.716E+06     62.2001E+06     3.81317E+06         39.4330
            1598     15.1468E-03     88.4061E-03     12.3172E-03     1.84296E-03    -13.7390E-03    -1.67717E-03     255.347E-06     1.84296E-03     12.0122E-03     113.919E-03    -55.2092E-03    -58.8526E-03    -53.4980E-03     108.565E-03    -55.2092E-03     58.0443E-03     171.425E+06     107.657E+06    -15.8209E+06    -15.7860E+06     171.390E+06     107.657E+06     2.32702E+06         42.5675
            1599     16.0947E-03     88.4865E-03     15.2008E-03     1.68180E-03    -16.0070E-03    -436.568E-06    -369.631E-06     1.68180E-03     6.64455E-03     112.762E-03    -54.4162E-03    -58.4375E-03    -53.4311E-03     108.588E-03    -55.2489E-03     44.4973E-03     174.885E+06     126.010E+06    -7.73444E+06    -7.72750E+06     174.878E+06     126.010E+06     1.07290E+06         45.5209
            1600     946.151E-06     89.2036E-03         1.85210     259.215E-03        -2.12624    -213.689E-03    -60.4489E-03     259.215E-03        -1.69364     110.863E-03    -55.3108E-03    -55.5498E-03    -55.4928E-03     110.856E-03    -55.3601E-03     2.10244E-03    -98.7246E+06    -101.797E+06    -297.754E+06    -101.381E+06    -297.746E+06    -99.1479E+06    -609.993E+03         28.2494
            1601     1.89248E-03     89.2067E-03     883.830E-03     16.0832E-03    -903.321E-03    -10.6790E-03    -8.81199E-03     16.0832E-03     493.624E-03     110.956E-03    -55.4376E-03    -55.5145E-03    -55.4353E-03     110.932E-03    -55.4931E-03     3.85613E-03    -88.1006E+06    -96.9659E+06    -291.415E+06    -96.9864E+06    -291.394E+06    -88.1006E+06    -1.44620E+06         28.3172
            1602     2.83850E-03     89.2117E-03     523.772E-03     6.38521E-03    -531.207E-03    -11.3610E-03     3.92647E-03     6.38521E-03    -239.421E-03     111.001E-03    -55.4561E-03    -55.5344E-03    -55.4139E-03     110.952E-03    -55.5276E-03     5.65111E-03    -74.3651E+06    -90.3293E+06    -276.501E+06    -90.4291E+06    -276.401E+06    -74.3651E+06    -3.73734E+06         28.4483
            1603     3.78482E-03     89.2184E-03     323.507E-03     2.80592E-03    -327.325E-03    -1.96623E-03    -1.85193E-03     2.80592E-03     165.096E-03     110.907E-03    -55.3257E-03    -55.5563E-03    -55.2449E-03     110.826E-03    -55.5563E-03     7.28073E-03    -60.1011E+06    -82.5495E+06    -256.685E+06    -82.8337E+06    -256.401E+06    -60.1011E+06    -6.68354E+06         28.6535
            1604     4.73134E-03     89.2275E-03     190.603E-03     2.97592E-03    -199.716E-03     10.4328E-03    -19.5457E-03     2.97592E-03    -95.9051E-03     110.843E-03    -55.2629E-03    -55.5737E-03    -55.1428E-03     110.723E-03    -55.5737E-03     8.89350E-03    -46.8264E+06    -74.8781E+06    -236.097E+06    -75.3687E+06    -235.607E+06    -46.8264E+06    -8.68405E+06         28.9287
            1605     5.67781E-03     89.2379E-03     119.221E-03     4.04292E-03    -130.841E-03     7.61556E-03    -19.2354E-03     4.04292E-03     44.9125E-03     110.841E-03    -55.3121E-03    -55.5453E-03    -55.1494E-03     110.678E-03    -55.5453E-03     10.3727E-03    -34.4693E+06    -67.1749E+06    -219.379E+06    -67.9449E+06    -218.609E+06    -34.4693E+06    -10.6036E+06         29.2705
            1606     6.62404E-03     89.2494E-03     81.5120E-03     3.61000E-03    -91.2386E-03    -6.60248E-03    -3.12409E-03     3.61000E-03    -32.4706E-03     110.838E-03    -55.3460E-03    -55.5141E-03    -55.1296E-03     110.622E-03    -55.5141E-03     11.9525E-03    -26.0658E+06    -59.3842E+06    -202.649E+06    -60.4744E+06    -201.559E+06    -26.0658E+06    -12.2752E+06         29.6916
            1607     7.57050E-03     89.2628E-03     64.0235E-03     1.77261E-03    -69.9207E-03    -15.7760E-03     9.87878E-03     1.77261E-03     6.56772E-03     110.719E-03    -55.2800E-03    -55.4855E-03    -54.9938E-03     110.433E-03    -55.4855E-03     13.7422E-03    -22.2585E+06    -52.7063E+06    -179.574E+06      -53.84E+06    -178.440E+06    -22.2585E+06    -11.8642E+06         30.2122
            1608     8.51715E-03     89.2788E-03     45.7256E-03     668.655E-06    -48.9636E-03     642.016E-06    -3.88002E-03     668.655E-06    -36.8581E-03     110.633E-03    -55.2308E-03    -55.4396E-03    -54.8365E-03     110.238E-03    -55.4396E-03     16.0876E-03    -18.0730E+06    -47.0329E+06    -154.678E+06    -48.1049E+06    -153.606E+06    -18.0730E+06    -10.5744E+06         30.8468
            1609     9.46378E-03     89.2969E-03     28.5922E-03     1.41092E-03    -31.9873E-03     16.4209E-03    -19.8160E-03     1.41092E-03     2.84386E-03     110.631E-03    -55.2370E-03    -55.3475E-03    -54.7154E-03     110.109E-03    -55.3475E-03     18.5457E-03    -14.5647E+06    -41.5257E+06    -125.022E+06    -42.6042E+06    -123.943E+06    -14.5647E+06    -9.27400E+06         31.5970
            1610     10.4108E-03     89.3179E-03     19.9910E-03     2.11834E-03    -23.1822E-03     1.60441E-03    -4.79562E-03     2.11834E-03    -19.1385E-03     110.615E-03    -55.2373E-03    -55.3277E-03    -54.6193E-03     109.933E-03    -55.2641E-03     21.1610E-03    -12.1682E+06    -36.5196E+06    -88.2281E+06    -37.5812E+06    -87.1666E+06    -12.1682E+06    -7.12123E+06         32.4753
            1611     11.3574E-03     89.3422E-03     11.7970E-03     1.60076E-03    -15.7876E-03    -9.38555E-03     5.39500E-03     1.60076E-03    -9.32530E-03     110.664E-03    -55.1931E-03    -55.5724E-03    -54.4826E-03     109.575E-03    -55.1931E-03     26.5612E-03    -8.03829E+06    -20.6120E+06    -49.5898E+06    -33.3645E+06    -36.2828E+06    -8.59286E+06    -4.12073E+06         33.5044
            1612     12.3043E-03     89.3755E-03     16.2448E-03     1.32133E-03    -22.1976E-03     7.27981E-03    -13.2325E-03     1.32133E-03    -18.8454E-03     110.913E-03    -55.1025E-03    -55.9283E-03    -54.1323E-03     109.117E-03    -55.1025E-03     34.2131E-03     41.5722E+06    -3.10018E+06    -30.0999E+06    -29.8944E+06     41.0435E+06    -2.77693E+06    -230.107E+03         34.8391
            1613     13.2514E-03     89.4161E-03     22.4579E-03     1.93220E-03    -28.2799E-03     13.9190E-03    -19.7409E-03     1.93220E-03    -26.7306E-03     112.040E-03    -55.0303E-03    -57.0977E-03    -53.7937E-03     108.736E-03    -55.0303E-03     46.1552E-03     123.902E+06     14.6576E+06    -27.0507E+06    -26.9880E+06     123.839E+06     14.6576E+06     2.92783E+06         36.7750
            1614     14.1994E-03     89.4760E-03     15.9380E-03     2.30116E-03    -19.4193E-03     1.17895E-03    -4.66020E-03     2.30116E-03    -21.1650E-03     111.942E-03    -55.0870E-03    -57.0643E-03    -53.4986E-03     108.376E-03    -55.0870E-03     48.2511E-03     165.610E+06     59.8660E+06    -22.1756E+06    -22.1082E+06     165.542E+06     59.8660E+06     3.40021E+06         39.4362
            1615     15.1468E-03     89.5218E-03     9.51388E-03     2.03313E-03    -12.3175E-03    -5.27049E-03     2.46683E-03     2.03313E-03     11.7398E-03     113.892E-03    -55.2006E-03    -58.8559E-03    -53.5258E-03     108.562E-03    -55.2006E-03     57.9454E-03     172.973E+06     107.694E+06    -14.6517E+06    -14.6182E+06     172.939E+06     107.694E+06     2.28430E+06         42.5768
            1616     16.0948E-03     89.6030E-03     21.9580E-03     1.76768E-03    -29.1769E-03     503.432E-06    -7.72238E-03     1.76768E-03    -19.5346E-03     112.837E-03    -54.4558E-03    -58.4809E-03    -53.5476E-03     108.693E-03    -55.2455E-03     44.3180E-03     175.809E+06     126.470E+06    -7.24916E+06    -7.23834E+06     175.798E+06     126.470E+06     1.31060E+06         45.5382
            1617     946.423E-06     90.3193E-03         1.78872     224.967E-03        -2.01581    -214.251E-03    -12.8323E-03     224.967E-03        -1.58704     110.731E-03    -55.2340E-03    -55.4972E-03    -55.4894E-03     110.723E-03    -55.2340E-03     2.02109E-03    -100.009E+06    -103.341E+06    -295.913E+06    -102.931E+06    -295.900E+06    -100.432E+06    -1.10541E+06         28.2422
            1618     1.89243E-03     90.3231E-03     861.993E-03     560.383E-06    -867.208E-03    -18.4974E-03     13.2819E-03     560.383E-06     481.568E-03     110.931E-03    -55.4402E-03    -55.4945E-03    -55.4688E-03     110.907E-03    -55.4416E-03     3.91886E-03    -90.4056E+06    -98.5138E+06    -287.782E+06    -98.5823E+06    -287.713E+06    -90.4056E+06    -3.06943E+06         28.3108
            1619     2.83865E-03     90.3280E-03     506.357E-03    -3.09315E-03    -504.489E-03     3.89643E-03    -2.02898E-03    -3.09315E-03    -237.172E-03     110.948E-03    -55.4434E-03    -55.4975E-03    -55.4022E-03     110.900E-03    -55.4907E-03     5.59578E-03    -77.1262E+06    -91.6880E+06    -270.972E+06    -91.9499E+06    -270.710E+06    -77.1262E+06    -6.31062E+06         28.4434
            1620     3.78488E-03     90.3349E-03     320.518E-03     622.303E-06    -321.203E-03     21.2458E-03    -21.9308E-03     622.303E-06     132.818E-03     110.919E-03    -55.3549E-03    -55.5314E-03    -55.2745E-03     110.838E-03    -55.5314E-03     7.26196E-03    -62.7710E+06    -84.0559E+06    -251.499E+06    -84.5934E+06    -250.962E+06    -62.7710E+06    -9.19330E+06         28.6499
            1621     4.73130E-03     90.3435E-03     190.323E-03     3.59864E-03    -197.761E-03     7.83078E-03    -15.2691E-03     3.59864E-03    -120.392E-03     110.840E-03    -55.2699E-03    -55.5615E-03    -55.1494E-03     110.720E-03    -55.5615E-03     8.90920E-03    -49.2740E+06    -75.8674E+06    -232.191E+06    -76.7235E+06    -231.335E+06    -49.2740E+06    -11.2760E+06         28.9259
            1622     5.67774E-03     90.3543E-03     113.631E-03     3.21210E-03    -123.272E-03    -6.15444E-03    -3.48609E-03     3.21210E-03     29.6840E-03     110.774E-03    -55.2709E-03    -55.5267E-03    -55.1060E-03     110.609E-03    -55.5267E-03     10.4335E-03    -37.0059E+06    -67.4598E+06    -215.093E+06    -68.6880E+06    -213.864E+06    -37.0059E+06    -13.1950E+06         29.2689
            1623     6.62410E-03     90.3654E-03     84.1942E-03     2.17209E-03    -94.6196E-03    -1.12430E-03    -9.30106E-03     2.17209E-03    -30.0769E-03     110.804E-03    -55.3186E-03    -55.4874E-03    -55.1021E-03     110.587E-03    -55.4874E-03     11.9590E-03    -27.9966E+06    -60.2686E+06    -200.022E+06    -61.7855E+06    -198.505E+06    -27.9966E+06    -14.4368E+06         29.6910
            1624     7.57062E-03     90.3790E-03     60.8472E-03     2.26376E-03    -70.3093E-03     7.41286E-03    -16.8750E-03     2.26376E-03     26.5028E-03     110.719E-03    -55.2725E-03    -55.4679E-03    -54.9887E-03     110.436E-03    -55.4679E-03     13.6829E-03    -24.5167E+06    -54.0750E+06    -179.650E+06    -55.7655E+06    -177.959E+06    -24.5167E+06    -14.3698E+06         30.2118
            1625     8.51720E-03     90.3945E-03     44.1628E-03     2.74225E-03    -49.2746E-03     4.70584E-03    -9.81764E-03     2.74225E-03    -11.6928E-03     110.670E-03    -55.2739E-03    -55.4324E-03    -54.8839E-03     110.280E-03    -55.4324E-03     16.0110E-03    -20.8991E+06    -47.4506E+06    -154.401E+06    -49.3988E+06    -152.453E+06    -20.8991E+06    -14.0600E+06         30.8465
            1626     9.46385E-03     90.4133E-03     33.4836E-03     2.61036E-03    -36.8951E-03    -3.38060E-03    -30.9425E-06     2.61036E-03     34.1468E-03     110.653E-03    -55.2586E-03    -55.3400E-03    -54.7467E-03     110.141E-03    -55.3400E-03     18.3765E-03    -17.4379E+06    -40.9457E+06    -126.853E+06    -42.9938E+06    -124.805E+06    -17.4379E+06    -12.9425E+06         31.5973
            1627     10.4105E-03     90.4339E-03     28.8795E-03     2.11528E-03    -32.1197E-03    -3.02278E-03    -217.387E-06     2.11528E-03     21.2513E-03     110.613E-03    -55.2101E-03    -55.3373E-03    -54.6138E-03     109.934E-03    -55.2544E-03     21.1120E-03    -15.0411E+06    -35.5357E+06    -92.1231E+06    -37.4844E+06    -90.1743E+06    -15.0411E+06    -10.0965E+06         32.4762
            1628     11.3572E-03     90.4590E-03     19.6336E-03     1.79742E-03    -25.0465E-03    -1.24289E-03    -4.16999E-03     1.79742E-03     21.9555E-03     110.685E-03    -55.1870E-03    -55.5991E-03    -54.5089E-03     109.595E-03    -55.1870E-03     26.5806E-03    -11.1898E+06    -21.4710E+06    -51.8276E+06    -33.1104E+06    -40.1034E+06    -11.2746E+06    -6.36613E+06         33.5058
            1629     12.3043E-03     90.4914E-03     19.8769E-03     1.77143E-03    -25.9704E-03     2.52007E-03    -8.61358E-03     1.77143E-03     9.58736E-03     110.941E-03    -55.1022E-03    -55.9646E-03    -54.1756E-03     109.152E-03    -55.1022E-03     34.1542E-03     36.0289E+06    -5.65486E+06    -29.9327E+06    -29.4480E+06     35.2209E+06    -5.33162E+06    -1.61727E+06         34.8395
            1630     13.2516E-03     90.5326E-03     19.7986E-03     1.96759E-03    -24.3633E-03     4.97978E-03    -9.54448E-03     1.96759E-03     5.04118E-03     112.062E-03    -55.0228E-03    -57.1248E-03    -53.8455E-03     108.783E-03    -55.0228E-03     46.0029E-03     121.216E+06     12.6930E+06    -25.8104E+06    -25.7514E+06     121.157E+06     12.6930E+06     2.49514E+06         36.7742
            1631     14.1989E-03     90.5913E-03     8.47931E-03     1.99190E-03    -13.7812E-03    -693.573E-06    -4.60829E-03     1.99190E-03    -12.1683E-03     111.897E-03    -55.0855E-03    -56.9903E-03    -53.4744E-03     108.381E-03    -55.0855E-03     47.8876E-03     166.500E+06     58.2797E+06    -21.7860E+06    -21.7288E+06     166.443E+06     58.2797E+06     3.14611E+06         39.4372
            1632     15.1472E-03     90.6384E-03     8.90553E-03     1.90109E-03    -13.0286E-03     2.36229E-03    -6.48531E-03     1.90109E-03     457.863E-06     113.867E-03    -55.2055E-03    -58.8058E-03    -53.4912E-03     108.553E-03    -55.2055E-03     57.7749E-03     173.486E+06     106.638E+06    -16.3146E+06    -16.2846E+06     173.456E+06     106.638E+06     2.33085E+06         42.5840
            1633     16.0943E-03     90.7194E-03     20.7181E-03     2.00657E-03    -26.8035E-03     5.00761E-03    -11.0930E-03     2.00657E-03    -14.1817E-03     112.789E-03    -54.3600E-03    -58.5083E-03    -53.4688E-03     108.634E-03    -55.2441E-03     44.3462E-03     177.265E+06     126.436E+06    -9.05306E+06    -9.03796E+06     177.250E+06     126.436E+06     1.35230E+06         45.5527
            1634     946.229E-06     91.4355E-03         1.69976     201.901E-03        -1.89182    -225.927E-03     33.8745E-03     201.901E-03        -1.46241     110.734E-03    -55.2056E-03    -55.5244E-03    -55.5151E-03     110.724E-03    -55.2056E-03     2.30826E-03    -101.846E+06    -105.698E+06    -292.231E+06    -104.793E+06    -292.201E+06    -102.782E+06    -1.86495E+06         28.2354
            1635     1.89244E-03     91.4392E-03     821.783E-03    -8.52889E-03    -810.357E-03     5.04879E-03     6.37693E-03    -8.52889E-03     486.950E-03     110.884E-03    -55.4086E-03    -55.4783E-03    -55.4309E-03     110.860E-03    -55.4315E-03     3.95769E-03    -92.5239E+06    -100.163E+06    -281.964E+06    -100.329E+06    -281.798E+06    -92.5239E+06    -4.94692E+06         28.3045
            1636     2.83856E-03     91.4443E-03     471.911E-03    -2.44580E-03    -470.614E-03     13.4589E-03    -12.1622E-03    -2.44580E-03    -203.080E-03     110.871E-03    -55.4049E-03    -55.4698E-03    -55.3577E-03     110.823E-03    -55.4698E-03     5.54751E-03    -80.2392E+06    -93.9515E+06    -264.227E+06    -94.4316E+06    -263.746E+06    -80.2392E+06    -8.68579E+06         28.4391
            1637     3.78496E-03     91.4508E-03     297.045E-03     737.601E-06    -298.926E-03     4.75502E-03    -6.63676E-03     737.601E-06     142.865E-03     110.906E-03    -55.3729E-03    -55.5145E-03    -55.2924E-03     110.825E-03    -55.5145E-03     7.26136E-03    -66.3065E+06    -86.4966E+06    -245.705E+06    -87.4264E+06    -244.775E+06    -66.3065E+06    -11.8443E+06         28.6472
            1638     4.73119E-03     91.4596E-03     177.455E-03     1.41725E-03    -180.176E-03     3.16870E-03    -5.88990E-03     1.41725E-03    -95.0589E-03     110.859E-03    -55.3086E-03    -55.5506E-03    -55.1872E-03     110.737E-03    -55.5506E-03     8.94348E-03    -52.5747E+06    -77.8921E+06    -227.094E+06    -79.3983E+06    -225.588E+06    -52.5747E+06    -14.5977E+06         28.9238
            1639     5.67759E-03     91.4700E-03     107.719E-03     1.50016E-03    -114.726E-03     465.382E-06    -7.47205E-03     1.50016E-03     40.2376E-03     110.730E-03    -55.2461E-03    -55.5159E-03    -55.0799E-03     110.564E-03    -55.5159E-03     10.4723E-03    -40.2068E+06    -69.3408E+06    -211.188E+06    -71.2966E+06    -209.232E+06    -40.2068E+06    -16.3918E+06         29.2672
            1640     6.62419E-03     91.4819E-03     72.9360E-03     1.90734E-03    -83.8818E-03     8.72025E-03    -19.6660E-03     1.90734E-03    -29.1226E-03     110.752E-03    -55.2737E-03    -55.4730E-03    -55.0603E-03     110.539E-03    -55.4730E-03     11.8804E-03    -30.3474E+06    -61.3793E+06    -197.854E+06    -63.5107E+06    -195.722E+06    -30.3474E+06    -16.7970E+06         29.6901
            1641     7.57056E-03     91.4951E-03     57.8354E-03     3.46247E-03    -68.2000E-03     20.3850E-03    -30.7497E-03     3.46247E-03     11.4450E-03     110.759E-03    -55.3058E-03    -55.4502E-03    -55.0268E-03     110.480E-03    -55.4502E-03     13.5625E-03    -26.1130E+06    -53.3732E+06    -177.411E+06    -56.0610E+06    -174.724E+06    -26.1130E+06    -17.7383E+06         30.2113
            1642     8.51699E-03     91.5109E-03     42.8094E-03     3.90771E-03    -51.0852E-03     7.69357E-03    -16.7492E-03     4.68755E-03    -17.8479E-03     110.704E-03    -55.3145E-03    -55.4220E-03    -54.9263E-03     110.316E-03    -55.4220E-03     15.9781E-03    -23.5071E+06    -45.8541E+06    -153.902E+06    -49.1487E+06    -150.607E+06    -23.5071E+06    -18.4103E+06         30.8459
            1643     9.46356E-03     91.5297E-03     36.5342E-03     3.26342E-03    -42.1355E-03    -12.0933E-03     5.71225E-03     4.04326E-03     16.8467E-03     110.671E-03    -55.2811E-03    -55.3407E-03    -54.7776E-03     110.164E-03    -55.3365E-03     18.3059E-03    -20.5776E+06    -39.9186E+06    -129.337E+06    -43.2151E+06    -126.040E+06    -20.5776E+06    -16.7561E+06         31.5967
            1644     10.4105E-03     91.5503E-03     36.0680E-03     3.10036E-03    -40.7853E-03    -21.6460E-06    -4.69567E-03     3.10036E-03    -5.12982E-03     110.607E-03    -55.2313E-03    -55.3030E-03    -54.6018E-03     109.926E-03    -55.2517E-03     21.1254E-03    -18.4255E+06    -34.7131E+06    -96.3993E+06    -38.0569E+06    -93.0554E+06    -18.4255E+06    -13.7010E+06         32.4762
            1645     11.3573E-03     91.5748E-03     23.1217E-03     3.43999E-03    -26.8794E-03     14.4358E-03    -18.1935E-03     3.43999E-03     12.6316E-03     110.616E-03    -55.1841E-03    -55.5298E-03    -54.4395E-03     109.526E-03    -55.1841E-03     26.5875E-03    -15.1730E+06    -22.9509E+06    -55.6858E+06    -33.3579E+06    -45.1940E+06    -15.2578E+06    -9.23183E+06         33.5059
            1646     12.3043E-03     91.6077E-03     18.2380E-03     3.76519E-03    -22.3928E-03    -694.141E-06    -3.46063E-03     3.76519E-03     7.88460E-03     110.978E-03    -55.0996E-03    -56.0022E-03    -54.2172E-03     109.193E-03    -55.0996E-03     34.1204E-03     30.1944E+06    -9.63607E+06    -31.0151E+06    -29.6674E+06     28.6048E+06    -9.39422E+06    -3.49869E+06         34.8384
            1647     13.2513E-03     91.6490E-03     17.4828E-03     2.93566E-03    -21.8104E-03    -16.6168E-03     12.2892E-03     2.93566E-03     8.33096E-03     112.159E-03    -55.0175E-03    -57.2224E-03    -53.9489E-03     108.886E-03    -55.0175E-03     45.9932E-03     117.024E+06     7.93369E+06    -26.6779E+06    -26.6404E+06     116.987E+06     7.93369E+06     1.48161E+06         36.7715
            1648     14.1987E-03     91.7079E-03     13.8160E-03     1.94488E-03    -16.4614E-03    -7.63697E-03     4.99163E-03     1.94488E-03    -9.59436E-03     111.929E-03    -55.0785E-03    -57.0483E-03    -53.5340E-03     108.414E-03    -55.0785E-03     47.8985E-03     166.649E+06     54.3152E+06    -22.6760E+06    -22.5909E+06     166.564E+06     54.3152E+06     3.89626E+06         39.4351
            1649     15.1461E-03     91.7537E-03     18.6203E-03     2.00731E-03    -23.1175E-03     13.3601E-03    -17.8574E-03     2.00731E-03    -8.35199E-03     113.789E-03    -55.2037E-03    -58.7196E-03    -53.3566E-03     108.426E-03    -55.2037E-03     57.9641E-03     175.224E+06     105.453E+06    -16.3262E+06    -16.2695E+06     175.168E+06     105.453E+06     2.83130E+06         42.5867
            1650     16.0949E-03     91.8362E-03     22.7521E-03     2.89719E-03    -26.0035E-03     19.8117E-03    -23.0631E-03     2.89719E-03    -14.6448E-06     112.668E-03    -54.2970E-03    -58.3897E-03    -53.2508E-03     108.475E-03    -55.2426E-03     44.3599E-03     178.724E+06     127.199E+06    -8.00225E+06    -7.99491E+06     178.717E+06     127.199E+06     586.407E+03         45.5619
            1651     946.278E-06     92.5517E-03         1.53537     198.317E-03        -1.72445    -184.922E-03    -4.16658E-03     198.317E-03        -1.32583     110.852E-03    -55.2514E-03    -55.5962E-03    -55.5438E-03     110.843E-03    -55.2944E-03     2.38635E-03    -103.795E+06    -107.878E+06    -286.431E+06    -107.034E+06    -286.339E+06    -104.731E+06    -3.68544E+06         28.2291
            1652     1.89232E-03     92.5558E-03     744.255E-03     7.63443E-03    -742.096E-03     10.7511E-03    -8.59219E-03     7.63443E-03     441.872E-03     110.816E-03    -55.3453E-03    -55.4729E-03    -55.3368E-03     110.792E-03    -55.4575E-03     3.90145E-03    -95.0077E+06    -102.295E+06    -274.892E+06    -102.584E+06    -274.603E+06    -95.0077E+06    -6.69698E+06         28.2993
            1653     2.83866E-03     92.5604E-03     440.144E-03     8.63873E-03    -444.725E-03     9.52040E-03    -14.1011E-03     8.63873E-03    -159.734E-03     110.814E-03    -55.3573E-03    -55.4635E-03    -55.3091E-03     110.766E-03    -55.4635E-03     5.59254E-03    -82.6996E+06    -96.1029E+06    -256.003E+06    -96.8619E+06    -255.244E+06    -82.6996E+06    -10.5439E+06         28.4356
            1654     3.78481E-03     92.5671E-03     280.123E-03     7.04629E-03    -285.538E-03    -7.37297E-03     1.95838E-03     7.04629E-03     158.394E-03     110.877E-03    -55.3647E-03    -55.5018E-03    -55.2826E-03     110.795E-03    -55.5018E-03     7.33422E-03    -68.5416E+06    -88.2738E+06    -238.385E+06    -89.7436E+06    -236.915E+06    -68.5416E+06    -14.5055E+06         28.6448
            1655     4.73127E-03     92.5761E-03     167.793E-03     4.69477E-03    -177.302E-03    -1.44113E-03    -8.06777E-03     4.69477E-03    -62.2597E-03     110.852E-03    -55.3095E-03    -55.5356E-03    -55.1864E-03     110.729E-03    -55.5356E-03     9.00529E-03    -55.5236E+06    -80.0845E+06    -221.041E+06    -82.3876E+06    -218.738E+06    -55.5236E+06    -17.6412E+06         28.9220
            1656     5.67756E-03     92.5863E-03     104.261E-03     4.13894E-03    -115.351E-03     4.11522E-03    -15.2062E-03     4.13894E-03     63.8305E-03     110.777E-03    -55.2884E-03    -55.5122E-03    -55.1206E-03     110.610E-03    -55.5122E-03     10.5279E-03    -44.0013E+06     -71.812E+06    -207.244E+06    -74.7409E+06    -204.315E+06    -44.0013E+06    -19.5841E+06         29.2655
            1657     6.62384E-03     92.5981E-03     60.1318E-03     3.94966E-03    -71.6744E-03     742.112E-06    -12.2847E-03     3.94966E-03    -26.5331E-03     110.769E-03    -55.3096E-03    -55.4803E-03    -55.0941E-03     110.554E-03    -55.4803E-03     11.9377E-03    -35.0085E+06    -62.8348E+06    -195.166E+06    -66.4537E+06    -191.547E+06    -35.0085E+06    -21.2009E+06         29.6882
            1658     7.57041E-03     92.6116E-03     50.1549E-03     3.33457E-03    -59.7396E-03    -2.94978E-03    -6.63494E-03     3.33457E-03    -551.876E-06     110.716E-03    -55.2834E-03    -55.4487E-03    -55.0025E-03     110.435E-03    -55.4487E-03     13.6104E-03    -29.6849E+06    -53.3726E+06     -174.55E+06    -57.9012E+06    -170.021E+06    -29.6849E+06    -22.6194E+06         30.2096
            1659     8.51688E-03     92.6267E-03     40.9176E-03     1.85257E-03    -45.1326E-03    -2.26033E-03    -2.73452E-03     2.63241E-03    -22.2980E-03     110.660E-03    -55.2778E-03    -55.4146E-03    -54.8878E-03     110.270E-03    -55.4146E-03     16.0071E-03    -26.5353E+06    -45.5018E+06    -153.777E+06    -50.6205E+06    -148.658E+06    -26.5353E+06    -22.7951E+06         30.8442
            1660     9.46363E-03     92.6454E-03     34.2416E-03     1.52293E-03    -37.4796E-03     2.30980E-03    -6.32758E-03     2.30277E-03    -8.30618E-03     110.673E-03    -55.2867E-03    -55.3464E-03    -54.7893E-03     110.160E-03    -55.3309E-03     18.3984E-03    -24.3938E+06    -39.0765E+06    -132.398E+06    -44.1975E+06    -127.277E+06    -24.3938E+06    -21.0947E+06         31.5948
            1661     10.4101E-03     92.6664E-03     26.5850E-03     2.51826E-03    -29.0050E-03     8.27074E-03    -10.6907E-03     2.51826E-03    -46.3000E-03     110.634E-03    -55.2479E-03    -55.3248E-03    -54.6439E-03     109.953E-03    -55.2479E-03     21.1408E-03    -22.0971E+06    -33.2665E+06    -100.853E+06    -38.4690E+06    -95.6502E+06    -22.0971E+06    -17.7199E+06         32.4744
            1662     11.3570E-03     92.6907E-03     14.8140E-03     3.03397E-03    -16.6769E-03     10.2217E-03    -12.0847E-03     3.03397E-03    -20.2322E-03     110.582E-03    -55.1820E-03    -55.4978E-03    -54.4096E-03     109.493E-03    -55.1820E-03     26.5481E-03    -18.7861E+06    -24.4988E+06    -60.5340E+06    -33.7089E+06    -50.8193E+06    -19.2908E+06    -12.9014E+06         33.5038
            1663     12.3041E-03     92.7238E-03     18.2194E-03     3.41098E-03    -21.4928E-03     6.99701E-03    -10.2705E-03     3.41098E-03    -10.5992E-03     110.938E-03    -55.0947E-03    -55.9579E-03    -54.1588E-03     109.139E-03    -55.0947E-03     34.2356E-03     24.2779E+06    -14.1722E+06    -33.9191E+06    -29.9809E+06     20.0979E+06    -13.9303E+06    -5.43850E+06         34.8355
            1664     13.2513E-03     92.7651E-03     21.7500E-03     3.42243E-03    -25.8742E-03     549.192E-06    -4.67336E-03     3.42243E-03     6.76656E-03     112.181E-03    -55.0109E-03    -57.2481E-03    -53.9689E-03     108.901E-03    -55.0109E-03     46.0678E-03     111.817E+06     3.25912E+06    -27.6391E+06    -27.6058E+06     111.784E+06     3.25912E+06     1.19575E+06         36.7670
            1665     14.1989E-03     92.8239E-03     17.1504E-03     3.18757E-03    -22.8146E-03     811.495E-06    -6.58689E-03     3.29875E-03    -957.050E-06     111.938E-03    -55.0699E-03    -57.0482E-03    -53.5357E-03     108.425E-03    -55.0699E-03     47.8996E-03     166.370E+06     49.6101E+06    -23.2574E+06    -23.1917E+06     166.304E+06     49.6101E+06     2.86876E+06         39.4293
            1666     15.1469E-03     92.8699E-03     20.1384E-03     3.24353E-03    -24.3018E-03     4.36510E-03    -8.63966E-03     3.35471E-03     148.983E-06     113.780E-03    -55.2092E-03    -58.6618E-03    -53.2894E-03     108.407E-03    -55.2092E-03     58.0127E-03     177.459E+06     104.101E+06    -15.2388E+06    -15.1967E+06     177.417E+06     104.101E+06     1.88506E+06         42.5830
            1667     16.0945E-03     92.9508E-03     23.7705E-03     3.49087E-03    -27.9907E-03     4.52885E-03    -8.74911E-03     3.49087E-03    -9.01456E-03     112.635E-03    -54.2751E-03    -58.3551E-03    -53.1778E-03     108.435E-03    -55.2526E-03     44.4211E-03     180.114E+06     128.569E+06    -7.08758E+06    -7.08166E+06     180.108E+06     128.569E+06     704.434E+03         45.5644
            1668     945.795E-06     93.6678E-03         1.44462     153.343E-03        -1.58630    -130.603E-03    -11.0769E-03     153.343E-03        -1.32945     110.999E-03    -55.3216E-03    -55.6742E-03    -55.5409E-03     110.991E-03    -55.4468E-03     2.13803E-03    -105.091E+06    -109.600E+06    -277.701E+06    -108.635E+06    -277.554E+06    -106.203E+06    -4.59892E+06         28.2254
            1669     1.89226E-03     93.6712E-03     678.106E-03     11.3669E-03    -683.179E-03     11.5425E-03    -16.6153E-03     11.3669E-03     335.913E-03     110.791E-03    -55.2860E-03    -55.5068E-03    -55.2621E-03     110.767E-03    -55.5068E-03     3.89904E-03    -96.2356E+06    -103.821E+06    -266.102E+06    -104.326E+06    -265.597E+06    -96.2356E+06    -8.53823E+06         28.2961
            1670     2.83853E-03     93.6766E-03     413.943E-03     11.0955E-03    -421.553E-03     9.51655E-03    -17.1268E-03     11.0955E-03    -190.121E-03     110.774E-03    -55.3102E-03    -55.4688E-03    -55.2611E-03     110.725E-03    -55.4688E-03     5.64061E-03    -83.6656E+06    -96.7468E+06    -246.766E+06    -97.9165E+06    -245.596E+06    -83.6656E+06    -12.7800E+06         28.4324
            1671     3.78491E-03     93.6835E-03     258.547E-03     10.7473E-03    -271.048E-03     10.2468E-03    -22.7483E-03     10.7473E-03     117.314E-03     110.842E-03    -55.3319E-03    -55.4894E-03    -55.2488E-03     110.759E-03    -55.4894E-03     7.37926E-03    -69.8205E+06    -89.0713E+06    -230.153E+06    -91.1738E+06    -228.051E+06    -69.8205E+06    -16.8517E+06         28.6418
            1672     4.73111E-03     93.6919E-03     161.018E-03     9.86136E-03    -172.979E-03     1.53443E-03    -13.4949E-03     9.86136E-03    -78.5343E-03     110.871E-03    -55.3305E-03    -55.5207E-03    -55.2059E-03     110.746E-03    -55.5207E-03     9.05866E-03    -57.4150E+06    -80.6273E+06    -214.169E+06    -83.8267E+06    -210.970E+06    -57.4150E+06    -20.1930E+06         28.9196
            1673     5.67751E-03     93.7025E-03     100.280E-03     7.65825E-03    -111.492E-03    -8.99272E-03    -2.21939E-03     7.65825E-03     42.5969E-03     110.815E-03    -55.3218E-03    -55.5035E-03    -55.1518E-03     110.645E-03    -55.5035E-03     10.6010E-03    -46.6241E+06    -71.6433E+06    -202.035E+06    -75.9220E+06    -197.757E+06    -46.6241E+06    -23.0532E+06         29.2635
            1674     6.62387E-03     93.7143E-03     62.7815E-03     4.95550E-03    -71.2922E-03    -13.4549E-03     4.94428E-03     4.95550E-03    -36.8115E-03     110.779E-03    -55.3207E-03    -55.4796E-03    -55.0993E-03     110.558E-03    -55.4796E-03     12.0944E-03    -37.8974E+06    -62.4946E+06    -190.476E+06    -68.0680E+06    -184.903E+06    -37.8974E+06    -25.8649E+06         29.6857
            1675     7.57009E-03     93.7276E-03     45.5328E-03     2.41904E-03    -50.5329E-03    -16.9367E-03     11.9366E-03     2.41904E-03     3.98029E-03     110.682E-03    -55.2661E-03    -55.4510E-03    -54.9783E-03     110.394E-03    -55.4510E-03     13.7798E-03    -32.7974E+06    -53.5875E+06    -172.251E+06    -60.5112E+06    -165.328E+06    -32.7974E+06    -27.6175E+06         30.2073
            1676     8.51682E-03     93.7431E-03     43.7993E-03     993.080E-06    -46.9596E-03    -2.86985E-03    -290.406E-06     993.080E-06    -3.05048E-03     110.646E-03    -55.2691E-03    -55.4155E-03    -54.8762E-03     110.253E-03    -55.4155E-03     16.0677E-03    -29.3683E+06    -45.6156E+06    -153.974E+06     -53.264E+06    -146.325E+06    -29.3683E+06    -27.5838E+06         30.8429
            1677     9.46338E-03     93.7622E-03     35.4754E-03     1.55948E-03    -35.7943E-03     16.7496E-03    -17.0685E-03     1.55948E-03     24.7850E-03     110.678E-03    -55.2902E-03    -55.3458E-03    -54.7881E-03     110.165E-03    -55.3346E-03     18.4066E-03    -27.9534E+06    -38.5587E+06    -135.018E+06    -46.6329E+06    -126.943E+06    -27.9534E+06    -26.4879E+06         31.5935
            1678     10.4102E-03     93.7824E-03     23.0866E-03     2.68940E-03    -24.6103E-03     9.98657E-03    -11.5102E-03     2.68940E-03     2.22909E-03     110.649E-03    -55.2404E-03    -55.3501E-03    -54.6576E-03     109.966E-03    -55.2504E-03     21.1649E-03    -26.3569E+06    -31.9868E+06    -107.204E+06    -40.0747E+06    -99.1159E+06    -26.3569E+06    -23.0415E+06         32.4727
            1679     11.3569E-03     93.8073E-03     15.5211E-03     2.92184E-03    -18.7544E-03    -518.510E-06    -2.71482E-03     2.92184E-03     15.5447E-03     110.635E-03    -55.1867E-03    -55.5580E-03    -54.4738E-03     109.551E-03    -55.1867E-03     26.5208E-03    -21.9110E+06    -24.6963E+06    -67.4507E+06    -34.5793E+06    -56.7892E+06    -22.6896E+06    -16.8250E+06         33.5016
            1680     12.3041E-03     93.8396E-03     19.9640E-03     3.08537E-03    -24.3335E-03     9.87614E-03    -14.2456E-03     3.08537E-03     19.2688E-03     110.894E-03    -55.0954E-03    -55.9195E-03    -54.1277E-03     109.103E-03    -55.0954E-03     34.1470E-03     16.1443E+06    -18.7786E+06    -37.1018E+06    -30.3184E+06     9.36088E+06    -18.7786E+06    -8.47313E+06         34.8313
            1681     13.2514E-03     93.8813E-03     26.7921E-03     4.01477E-03    -33.8829E-03     21.3578E-03    -28.4486E-03     4.01477E-03     18.0052E-03     112.052E-03    -54.9908E-03    -57.1334E-03    -53.8574E-03     108.776E-03    -54.9908E-03     46.0131E-03     105.570E+06    -2.71067E+06    -25.8419E+06    -25.6830E+06     105.412E+06    -2.71067E+06    -618.329E+03         36.7602
            1682     14.1986E-03     93.9402E-03     18.0114E-03     4.87977E-03    -25.9018E-03     14.1749E-03    -22.1763E-03     4.99094E-03    -9.53827E-03     111.960E-03    -55.0989E-03    -57.0104E-03    -53.5145E-03     108.464E-03    -55.0989E-03     47.7711E-03     167.123E+06     49.6447E+06    -21.1686E+06    -21.1256E+06     167.080E+06     49.6447E+06     2.12552E+06         39.4200
            1683     15.1464E-03     93.9853E-03     14.5998E-03     4.79196E-03    -21.7750E-03    -9.28920E-03     2.00285E-03     4.90314E-03     1.87825E-03     113.829E-03    -55.2603E-03    -58.6256E-03    -53.2616E-03     108.465E-03    -55.2603E-03     57.9240E-03     178.314E+06     106.799E+06    -15.8510E+06    -15.8229E+06     178.286E+06     106.799E+06     1.53895E+06         42.5743
            1684     16.0950E-03     94.0674E-03     19.3346E-03     3.82493E-03    -25.9969E-03    -19.0377E-03     12.3754E-03     3.82493E-03    -10.9283E-03     112.512E-03    -54.1852E-03    -58.3104E-03    -53.0335E-03     108.305E-03    -55.2553E-03     44.4470E-03     181.243E+06     129.172E+06    -8.38879E+06    -8.38289E+06     181.237E+06     129.172E+06     825.885E+03         45.5620
            1685     946.000E-06     94.7840E-03         1.36759     147.522E-03        -1.51052    -120.873E-03    -22.0505E-03     147.522E-03        -1.20876     110.946E-03    -55.2994E-03    -55.6445E-03    -55.5543E-03     110.938E-03    -55.3815E-03     2.05831E-03    -104.860E+06    -108.956E+06    -267.037E+06    -108.043E+06    -266.838E+06    -105.971E+06    -5.10847E+06         28.2243
            1686     1.89217E-03     94.7875E-03     632.398E-03     11.6021E-03    -641.996E-03     4.28373E-03    -13.8817E-03     11.6021E-03     391.561E-03     110.829E-03    -55.3213E-03    -55.5122E-03    -55.3185E-03     110.803E-03    -55.4889E-03     4.05242E-03    -96.3052E+06    -103.294E+06    -254.921E+06    -104.054E+06    -254.160E+06    -96.3052E+06    -10.1524E+06         28.2944
            1687     2.83842E-03     94.7927E-03     355.893E-03     8.90174E-03    -364.296E-03     3.46910E-03    -11.8721E-03     8.90174E-03    -162.897E-03     110.763E-03    -55.3124E-03    -55.4629E-03    -55.2613E-03     110.712E-03    -55.4629E-03     5.77432E-03    -84.2132E+06    -96.5596E+06    -236.980E+06    -98.2722E+06    -235.267E+06    -84.2132E+06    -15.0745E+06         28.4297
            1688     3.78475E-03     94.7996E-03     227.414E-03     8.11494E-03    -237.057E-03     9.13597E-03    -18.7786E-03     8.11494E-03     94.4320E-03     110.830E-03    -55.3327E-03    -55.4827E-03    -55.2472E-03     110.745E-03    -55.4827E-03     7.47877E-03    -70.4795E+06    -88.5940E+06    -221.257E+06    -91.4535E+06    -218.398E+06    -70.4795E+06    -19.0316E+06         28.6385
            1689     4.73114E-03     94.8084E-03     135.240E-03     7.87713E-03    -144.902E-03     4.66123E-03    -14.3237E-03     7.87713E-03    -90.5435E-03     110.864E-03    -55.3320E-03    -55.5187E-03    -55.2049E-03     110.737E-03    -55.5187E-03     9.15794E-03    -57.8156E+06    -79.5504E+06    -206.118E+06    -83.9890E+06    -201.679E+06    -57.8156E+06    -22.9722E+06         28.9165
            1690     5.67727E-03     94.8187E-03     80.0804E-03     6.43568E-03    -86.7343E-03    -6.45594E-03    -197.917E-06     6.43568E-03     21.5889E-03     110.774E-03    -55.2835E-03    -55.5036E-03    -55.1090E-03     110.599E-03    -55.5036E-03     10.7278E-03    -46.8970E+06    -70.3587E+06    -195.393E+06    -76.3401E+06    -189.412E+06    -46.8970E+06    -26.5344E+06         29.2608
            1691     6.62375E-03     94.8306E-03     60.8813E-03     4.22358E-03    -64.3835E-03    -11.4210E-03     7.91880E-03     4.22358E-03    -21.0092E-03     110.737E-03    -55.2717E-03    -55.4726E-03    -55.0454E-03     110.510E-03    -55.4726E-03     12.2268E-03    -38.6341E+06    -61.3505E+06    -184.603E+06    -68.9711E+06    -176.983E+06    -38.6341E+06    -29.4352E+06         29.6831
            1692     7.57034E-03     94.8444E-03     46.4120E-03     2.54300E-03    -47.1136E-03    -6.55917E-03     5.85756E-03     2.54300E-03     11.4831E-03     110.708E-03    -55.2907E-03    -55.4416E-03    -54.9999E-03     110.417E-03    -55.4416E-03     13.8520E-03    -34.5770E+06    -52.5538E+06    -169.084E+06    -62.1131E+06    -159.525E+06    -34.5770E+06    -31.7786E+06         30.2053
            1693     8.51667E-03     94.8598E-03     36.7406E-03     2.49166E-03    -37.1590E-03     11.2860E-03    -11.7043E-03     2.49166E-03    -14.1729E-03     110.721E-03    -55.3319E-03    -55.4161E-03    -54.9376E-03     110.324E-03    -55.4132E-03     16.1646E-03    -31.7969E+06    -44.4674E+06    -154.002E+06    -55.4107E+06    -143.059E+06    -31.7969E+06    -32.6688E+06         30.8424
            1694     9.46328E-03     94.8781E-03     27.2959E-03     3.83263E-03    -30.5635E-03     20.0042E-03    -23.2718E-03     3.83263E-03     25.2818E-03     110.726E-03    -55.3164E-03    -55.3537E-03    -54.8180E-03     110.214E-03    -55.3394E-03     18.4035E-03    -30.5951E+06    -37.3973E+06    -136.952E+06    -48.9494E+06    -125.400E+06    -30.5951E+06    -31.7460E+06         31.5934
            1695     10.4097E-03     94.8987E-03     23.8607E-03     4.88100E-03    -28.0219E-03     9.14656E-03    -13.3077E-03     4.88100E-03     27.1357E-03     110.655E-03    -55.2455E-03    -55.3461E-03    -54.6579E-03     109.976E-03    -55.2555E-03     21.0960E-03    -29.3902E+06    -32.2812E+06    -113.901E+06    -43.1566E+06    -101.853E+06    -30.5626E+06    -28.9469E+06         32.4718
            1696     11.3568E-03     94.9230E-03     21.9347E-03     4.90669E-03    -25.6783E-03    -341.966E-06    -3.40169E-03     4.90669E-03     17.9674E-03     110.674E-03    -55.1955E-03    -55.5972E-03    -54.5175E-03     109.594E-03    -55.1955E-03     26.4745E-03    -23.1717E+06    -27.8956E+06    -77.9996E+06    -36.8263E+06    -64.3685E+06    -27.8720E+06    -22.5779E+06         33.4991
            1697     12.3035E-03     94.9555E-03     18.3343E-03     4.77704E-03    -24.4008E-03     5.53258E-03    -11.5990E-03     4.77704E-03     3.81932E-03     110.948E-03    -55.1078E-03    -55.9754E-03    -54.1944E-03     109.167E-03    -55.1078E-03     34.0589E-03     10.4594E+06    -23.3847E+06    -42.7491E+06    -30.8445E+06    -1.44516E+06    -23.3847E+06    -13.0033E+06         34.8254
            1698     13.2509E-03     94.9969E-03     18.3516E-03     5.13222E-03    -27.1011E-03     13.5397E-03    -22.3184E-03     5.16144E-03     9.68826E-03     111.921E-03    -54.9743E-03    -57.0267E-03    -53.7421E-03     108.637E-03    -54.9743E-03     46.0056E-03     97.2425E+06    -11.0994E+06    -27.4696E+06    -26.9895E+06     96.7623E+06    -11.0994E+06    -3.67470E+06         36.7510
            1699     14.1991E-03     95.0562E-03     16.7949E-03     5.55949E-03    -26.1451E-03     8.58008E-03    -17.9595E-03     5.58870E-03    -1.48826E-03     111.695E-03    -55.0562E-03    -56.8309E-03    -53.3275E-03     108.192E-03    -55.0562E-03     47.7346E-03     165.937E+06     40.8916E+06    -22.5721E+06    -22.5482E+06     165.913E+06     40.8916E+06     1.29704E+06         39.4094
            1700     15.1469E-03     95.1014E-03     15.9690E-03     5.32098E-03    -25.6097E-03    -6.54599E-03    -3.09465E-03     5.32098E-03     14.1542E-03     113.675E-03    -55.2265E-03    -58.5118E-03    -53.1399E-03     108.303E-03    -55.2265E-03     57.8855E-03     179.350E+06     104.503E+06    -15.1791E+06    -15.1509E+06     179.322E+06     104.503E+06     1.63440E+06         42.5652
            1701     16.0947E-03     95.1830E-03     19.9736E-03     4.41763E-03    -26.1966E-03    -13.8758E-03     7.65273E-03     4.41763E-03    -8.35652E-03     112.407E-03    -54.0895E-03    -58.2589E-03    -52.8842E-03     108.184E-03    -55.2410E-03     44.4797E-03     181.810E+06     130.617E+06    -7.25872E+06    -7.25125E+06     181.802E+06     130.617E+06     984.279E+03         45.5580
            1702     946.366E-06     95.9007E-03         1.17364     187.112E-03        -1.36524    -112.615E-03    -78.9800E-03     187.112E-03        -1.03896     110.718E-03    -55.2377E-03    -55.4799E-03    -55.4720E-03     110.710E-03    -55.2377E-03     2.09523E-03    -103.431E+06    -106.691E+06    -254.708E+06    -105.866E+06    -254.352E+06    -104.612E+06    -6.65823E+06         28.2226
            1703     1.89228E-03     95.9035E-03     558.905E-03     26.3785E-03    -584.314E-03    -17.2926E-03    -8.11661E-03     26.3785E-03     356.276E-03     110.805E-03    -55.3508E-03    -55.4560E-03    -55.3793E-03     110.779E-03    -55.4014E-03     4.03832E-03    -95.6922E+06    -101.259E+06    -242.717E+06    -102.277E+06    -241.698E+06    -95.6922E+06    -11.5428E+06         28.2927
            1704     2.83855E-03     95.9090E-03     311.510E-03     11.7960E-03    -327.502E-03    -10.3017E-03    -5.69057E-03     11.7960E-03    -148.095E-03     110.757E-03    -55.3444E-03    -55.4254E-03    -55.2902E-03     110.703E-03    -55.4254E-03     5.93687E-03    -83.0094E+06    -94.8869E+06    -225.538E+06    -97.1804E+06    -223.244E+06    -83.0094E+06    -16.7194E+06         28.4275
            1705     3.78476E-03     95.9157E-03     195.670E-03     5.91116E-03    -205.564E-03    -11.6929E-03     1.79968E-03     5.91116E-03     89.5763E-03     110.835E-03    -55.3576E-03    -55.4666E-03    -55.2670E-03     110.745E-03    -55.4666E-03     7.70334E-03    -68.6463E+06    -86.1237E+06    -211.497E+06    -90.0292E+06    -207.591E+06    -68.6463E+06    -21.5670E+06         28.6357
            1706     4.73096E-03     95.9250E-03     122.015E-03     3.89871E-03    -126.573E-03     5.88375E-03    -10.4416E-03     3.89871E-03    -64.1240E-03     110.812E-03    -55.2919E-03    -55.5077E-03    -55.1597E-03     110.679E-03    -55.5077E-03     9.33691E-03    -56.2363E+06    -77.1599E+06    -197.448E+06    -82.8272E+06    -191.780E+06    -56.2363E+06    -25.2545E+06         28.9137
            1707     5.67749E-03     95.9351E-03     67.8726E-03     4.84433E-03    -71.5908E-03     13.8131E-03    -17.5313E-03     4.84433E-03     48.8870E-03     110.722E-03    -55.2445E-03    -55.4928E-03    -55.0661E-03     110.544E-03    -55.4928E-03     10.8481E-03    -45.8508E+06    -68.7880E+06    -187.356E+06    -76.3652E+06    -179.778E+06    -45.8508E+06    -28.8918E+06         29.2584
            1708     6.62390E-03     95.9474E-03     51.9092E-03     5.74496E-03    -56.3792E-03     7.50335E-03    -11.9733E-03     5.74496E-03     16.8685E-03     110.742E-03    -55.2911E-03    -55.4628E-03    -55.0607E-03     110.512E-03    -55.4628E-03     12.3391E-03    -38.7317E+06    -59.5216E+06    -178.130E+06    -69.4797E+06    -168.172E+06    -38.7317E+06    -32.6479E+06         29.6810
            1709     7.57011E-03     95.9605E-03     44.7792E-03     5.94067E-03    -48.8785E-03     6.11444E-03    -10.2138E-03     5.94067E-03     29.8140E-03     110.746E-03    -55.3306E-03    -55.4328E-03    -55.0372E-03     110.453E-03    -55.4328E-03     13.9204E-03    -35.3953E+06    -49.9951E+06    -164.608E+06    -62.6015E+06    -152.001E+06    -35.3953E+06    -35.7008E+06         30.2037
            1710     8.51672E-03     95.9762E-03     26.0619E-03     6.02426E-03    -30.7195E-03     6.08843E-03    -10.7460E-03     6.02426E-03    -10.4678E-03     110.756E-03    -55.3573E-03    -55.4121E-03    -54.9620E-03     110.358E-03    -55.4091E-03     16.1879E-03    -33.1301E+06    -41.9549E+06    -152.663E+06    -56.3207E+06    -138.297E+06    -33.1301E+06    -37.0959E+06         30.8418
            1711     9.46300E-03     95.9948E-03     22.1340E-03     5.83897E-03    -27.7540E-03     1.22151E-03    -6.84156E-03     5.83897E-03     13.0693E-03     110.769E-03    -55.3284E-03    -55.3833E-03    -54.8556E-03     110.252E-03    -55.3385E-03     18.4938E-03    -31.6967E+06    -36.0868E+06    -138.618E+06    -50.3894E+06    -123.336E+06    -32.6762E+06    -36.6013E+06         31.5932
            1712     10.4098E-03     96.0150E-03     20.1069E-03     5.62640E-03    -25.6198E-03     5.98970E-03    -11.5026E-03     5.62640E-03     4.84351E-03     110.725E-03    -55.2570E-03    -55.4074E-03    -54.7249E-03     110.043E-03    -55.2570E-03     21.1776E-03    -28.4482E+06    -33.6353E+06    -118.690E+06    -44.7000E+06    -102.739E+06    -33.3343E+06    -34.1743E+06         32.4712
            1713     11.3564E-03     96.0393E-03     18.5799E-03     5.76118E-03    -25.3878E-03     8.89516E-03    -15.7031E-03     5.76118E-03    -7.08545E-03     110.699E-03    -55.1994E-03    -55.6141E-03    -54.5268E-03     109.612E-03    -55.1994E-03     26.5595E-03    -21.5645E+06    -33.1987E+06    -88.8799E+06    -39.4621E+06    -70.9823E+06    -33.1987E+06    -29.1309E+06         33.4960
            1714     12.3036E-03     96.0719E-03     13.3527E-03     4.79161E-03    -19.5430E-03     4.80362E-03    -12.0525E-03     5.85017E-03    -22.1960E-03     110.968E-03    -55.1114E-03    -55.9895E-03    -54.2164E-03     109.195E-03    -55.1114E-03     34.0125E-03     3.97231E+06    -30.4125E+06    -52.6609E+06    -34.0745E+06    -14.6141E+06    -30.4125E+06    -18.7526E+06         34.8178
            1715     13.2509E-03     96.1125E-03     8.84654E-03     4.55692E-03    -16.3520E-03     1.12373E-03    -9.71696E-03     5.64469E-03    -10.6167E-03     111.923E-03    -54.9546E-03    -57.0427E-03    -53.7753E-03     108.655E-03    -54.9546E-03     45.8633E-03     88.0518E+06    -20.6536E+06    -30.3497E+06    -28.9524E+06     86.6545E+06    -20.6536E+06    -7.14810E+06         36.7393
            1716     14.1984E-03     96.1716E-03     12.1617E-03     5.18516E-03    -23.3857E-03    -2.03604E-03    -9.21723E-03     5.21438E-03    -5.82504E-03     111.455E-03    -55.0127E-03    -56.6264E-03    -53.1293E-03     107.958E-03    -55.0127E-03     47.6318E-03     163.427E+06     30.0216E+06    -23.5302E+06    -23.4876E+06     163.384E+06     30.0216E+06    -1.56839E+06         39.3966
            1717     15.1469E-03     96.2170E-03     18.4125E-03     4.87187E-03    -27.2338E-03     2.93066E-03    -11.7519E-03     4.87187E-03     10.9121E-03     113.284E-03    -55.1971E-03    -58.1720E-03    -52.8028E-03     107.914E-03    -55.1971E-03     57.7363E-03     178.677E+06     99.4399E+06    -16.1697E+06    -16.1623E+06     178.670E+06     99.4399E+06     487.338E+03         42.5551
            1718     16.0957E-03     96.2982E-03     22.9886E-03     4.88803E-03    -28.2278E-03     8.32148E-03    -13.5606E-03     4.88803E-03    -7.88228E-03     112.209E-03    -54.0460E-03    -58.1076E-03    -52.6888E-03     107.975E-03    -55.2301E-03     44.6261E-03     182.250E+06     131.474E+06    -7.96185E+06    -7.95235E+06     182.240E+06     131.474E+06     1.26224E+06         45.5523
            1719     946.215E-06     97.0169E-03     998.731E-03     106.150E-03        -1.11145    -95.5264E-03    -17.1927E-03     106.150E-03    -915.956E-03     110.646E-03    -55.2170E-03    -55.4290E-03    -55.3582E-03     110.639E-03    -55.2800E-03     2.10723E-03    -97.2225E+06    -101.283E+06    -239.996E+06    -100.579E+06    -239.519E+06    -98.4032E+06    -7.83610E+06         28.2171
            1720     1.89249E-03     97.0202E-03     478.363E-03     4.34121E-03    -489.565E-03     1.23224E-03    -12.4345E-03     4.34121E-03     221.890E-03     110.695E-03    -55.2909E-03    -55.4014E-03    -55.2967E-03     110.669E-03    -55.3700E-03     3.97630E-03    -89.5613E+06    -95.9761E+06    -230.102E+06    -97.2358E+06    -228.842E+06    -89.5613E+06    -12.5149E+06         28.2883
            1721     2.83862E-03     97.0250E-03     289.476E-03     3.20433E-03    -298.869E-03     1.79775E-03    -11.1910E-03     3.20433E-03    -157.787E-03     110.712E-03    -55.3400E-03    -55.3798E-03    -55.2839E-03     110.655E-03    -55.3798E-03     6.02546E-03    -77.5950E+06    -88.9923E+06    -212.182E+06    -91.9211E+06    -209.253E+06    -77.5950E+06    -18.2523E+06         28.4240
            1722     3.78486E-03     97.0324E-03     183.706E-03     2.37302E-03    -189.083E-03    -1.89206E-03    -3.48471E-03     2.37302E-03     57.7677E-03     110.778E-03    -55.3320E-03    -55.4326E-03    -55.2377E-03     110.684E-03    -55.4326E-03     7.86950E-03    -64.1600E+06    -80.8883E+06    -200.761E+06    -85.7336E+06    -195.915E+06    -64.1600E+06    -23.5062E+06         28.6327
            1723     4.73123E-03     97.0409E-03     121.091E-03     2.74532E-03    -123.006E-03     12.0097E-03    -13.9248E-03     2.74532E-03    -71.8805E-03     110.807E-03    -55.3128E-03    -55.4828E-03    -55.1772E-03     110.671E-03    -55.4828E-03     9.45971E-03    -52.8307E+06    -72.6018E+06    -189.035E+06    -79.2393E+06    -182.398E+06    -52.8307E+06    -26.8197E+06         28.9112
            1724     5.67750E-03     97.0519E-03     70.3824E-03     4.78120E-03    -72.3886E-03     18.1891E-03    -20.1953E-03     4.78120E-03     34.0251E-03     110.741E-03    -55.2967E-03    -55.4703E-03    -55.1162E-03     110.561E-03    -55.4703E-03     10.9160E-03    -42.8560E+06    -63.8194E+06    -177.598E+06    -72.7014E+06    -168.716E+06    -42.8560E+06    -30.4297E+06         29.2563
            1725     6.62380E-03     97.0637E-03     52.3488E-03     7.12065E-03    -57.1987E-03     24.3618E-03    -29.2117E-03     7.12065E-03    -9.24391E-03     110.760E-03    -55.3329E-03    -55.4480E-03    -55.0977E-03     110.525E-03    -55.4480E-03     12.4641E-03    -36.1381E+06    -54.4623E+06    -169.912E+06    -66.6118E+06    -157.762E+06    -36.1381E+06    -35.2048E+06         29.6792
            1726     7.57030E-03     97.0777E-03     45.6752E-03     8.96674E-03    -54.9902E-03     18.8157E-03    -28.1307E-03     8.96674E-03    -2.74049E-03     110.756E-03    -55.3515E-03    -55.4211E-03    -55.0499E-03     110.454E-03    -55.4211E-03     14.1193E-03    -34.2051E+06    -45.8748E+06    -159.029E+06    -61.1424E+06    -143.761E+06    -34.2051E+06    -38.5692E+06         30.2021
            1727     8.51644E-03     97.0924E-03     35.0836E-03     8.86218E-03    -46.6752E-03    -4.32082E-03    -7.27081E-03     8.86218E-03    -13.3885E-03     110.758E-03    -55.3553E-03    -55.4109E-03    -54.9626E-03     110.355E-03    -55.4004E-03     16.2932E-03    -32.7959E+06    -38.4951E+06    -149.646E+06    -56.1081E+06    -132.033E+06    -32.7959E+06    -40.4662E+06         30.8404
            1728     9.46327E-03     97.1109E-03     23.5866E-03     7.02993E-03    -32.0373E-03    -15.3234E-03     6.87263E-03     7.02993E-03     11.5722E-03     110.805E-03    -55.3254E-03    -55.4206E-03    -54.8865E-03     110.281E-03    -55.3355E-03     18.6113E-03    -30.3311E+06    -34.5241E+06    -139.041E+06    -50.7857E+06    -119.865E+06    -33.2459E+06    -41.0525E+06         31.5924
            1729     10.4096E-03     97.1315E-03     20.6307E-03     5.79604E-03    -29.1917E-03     2.79576E-03    -11.3568E-03     5.79604E-03    -4.48119E-03     110.794E-03    -55.2526E-03    -55.4733E-03    -54.7904E-03     110.111E-03    -55.2526E-03     21.2037E-03    -25.4070E+06    -34.7503E+06    -122.783E+06    -45.5143E+06    -102.676E+06    -34.7503E+06    -39.2605E+06         32.4711
            1730     11.3565E-03     97.1556E-03     17.1435E-03     5.99761E-03    -26.7678E-03     13.5687E-03    -23.1930E-03     5.99761E-03     14.1696E-03     110.761E-03    -55.2055E-03    -55.6672E-03    -54.5832E-03     109.677E-03    -55.2055E-03     26.5159E-03    -19.2906E+06    -35.3069E+06    -97.2282E+06    -40.6482E+06    -75.8706E+06    -35.3069E+06    -34.3190E+06         33.4937
            1731     12.3033E-03     97.1878E-03     9.46035E-03     5.03191E-03    -18.3571E-03    -85.8303E-06    -9.86951E-03     6.09047E-03    -8.49646E-03     110.999E-03    -55.1192E-03    -56.0103E-03    -54.2418E-03     109.230E-03    -55.1192E-03     33.9809E-03    -1.35766E+06    -35.8590E+06    -62.0795E+06    -35.6494E+06    -27.7878E+06    -35.8590E+06    -25.2930E+06         34.8090
            1732     13.2506E-03     97.2289E-03     11.7665E-03     4.17701E-03    -20.4038E-03    -11.6678E-03     1.97193E-03     5.23557E-03    -12.2147E-03     111.886E-03    -54.9344E-03    -57.0124E-03    -53.7530E-03     108.626E-03    -54.9344E-03     45.7883E-03     78.7301E+06    -29.5930E+06    -34.8160E+06    -29.8061E+06     74.0633E+06    -29.9361E+06    -13.1345E+06         36.7251
            1733     14.1987E-03     97.2873E-03     12.3105E-03     3.64302E-03    -18.6183E-03    -6.89640E-03     13.6523E-06     4.21792E-03    -14.7673E-03     111.457E-03    -55.0253E-03    -56.5882E-03    -53.1020E-03     107.971E-03    -55.0253E-03     47.5427E-03     158.938E+06     24.7386E+06    -25.2572E+06    -24.7816E+06     158.806E+06     24.3954E+06    -3.63656E+06         39.3806
            1734     15.1472E-03     97.3325E-03     18.5931E-03     3.51984E-03    -23.9295E-03     13.4041E-03    -19.3154E-03     4.09474E-03    -7.53791E-03     113.100E-03    -55.2312E-03    -57.9382E-03    -52.6506E-03     107.812E-03    -55.2312E-03     57.2535E-03     177.138E+06     97.6395E+06    -19.0673E+06    -19.0629E+06     177.133E+06     97.6395E+06    -468.800E+03         42.5410
            1735     16.0959E-03     97.4120E-03     26.2126E-03     4.92750E-03    -32.4051E-03     24.1142E-03    -30.3067E-03     4.92750E-03    -9.53600E-03     111.684E-03    -53.7407E-03    -57.8752E-03    -52.2251E-03     107.522E-03    -55.2286E-03     44.1857E-03     182.156E+06     130.825E+06    -10.0873E+06    -10.0812E+06     182.150E+06     130.825E+06    -104.635E+03         45.5425
            1736     945.982E-06     98.1328E-03     926.474E-03     19.6539E-03    -951.783E-03    -83.3354E-03     58.0267E-03     19.6539E-03    -770.534E-03     110.633E-03    -55.1663E-03    -55.4643E-03    -55.3827E-03     110.625E-03    -55.2397E-03     2.10452E-03    -90.3096E+06    -94.9089E+06    -224.889E+06    -94.9323E+06    -224.407E+06    -90.7679E+06    -6.93445E+06         28.2078
            1737     1.89250E-03     98.1361E-03     439.012E-03    -22.9149E-03    -425.500E-03     12.7487E-03     763.729E-06    -22.9149E-03     237.027E-03     110.580E-03    -55.2330E-03    -55.3495E-03    -55.2054E-03     110.553E-03    -55.3495E-03     4.14356E-03    -81.8248E+06    -88.9808E+06    -215.741E+06    -90.5564E+06    -214.165E+06    -81.8248E+06    -13.4476E+06         28.2804
            1738     2.83875E-03     98.1419E-03     263.907E-03    -8.39711E-03    -263.185E-03     25.3060E-03    -24.5843E-03    -8.39711E-03    -103.869E-03     110.573E-03    -55.2597E-03    -55.3275E-03    -55.2018E-03     110.515E-03    -55.3275E-03     6.12359E-03    -71.6223E+06    -81.8133E+06    -198.708E+06    -85.2532E+06    -195.268E+06    -71.6223E+06    -19.3607E+06         28.4179
            1739     3.78515E-03     98.1484E-03     173.249E-03     213.194E-06    -175.060E-03     24.1412E-03    -25.9523E-03     213.194E-06     75.7761E-03     110.702E-03    -55.3114E-03    -55.3804E-03    -55.2142E-03     110.605E-03    -55.3804E-03     7.97702E-03    -58.6490E+06    -74.8725E+06    -188.953E+06    -80.1929E+06    -183.633E+06    -58.6490E+06    -23.9927E+06         28.6281
            1740     4.73139E-03     98.1582E-03     109.570E-03     3.93445E-03    -113.037E-03     11.0032E-03    -14.4704E-03     3.93445E-03    -46.5357E-03     110.793E-03    -55.3428E-03    -55.4434E-03    -55.2025E-03     110.653E-03    -55.4434E-03     9.62270E-03    -47.8377E+06    -66.3955E+06    -179.571E+06    -74.1884E+06    -171.778E+06    -47.8377E+06    -28.3442E+06         28.9075
            1741     5.67762E-03     98.1681E-03     70.5267E-03     4.92861E-03    -73.0248E-03     8.15419E-03    -10.6523E-03     4.92861E-03     32.8724E-03     110.741E-03    -55.3356E-03    -55.4358E-03    -55.1463E-03     110.551E-03    -55.4358E-03     11.1742E-03    -38.9569E+06    -56.4614E+06    -168.075E+06    -67.1288E+06    -157.408E+06    -38.9569E+06    -32.7069E+06         29.2532
            1742     6.62406E-03     98.1804E-03     45.3648E-03     6.04625E-03    -49.8035E-03     17.9751E-03    -22.4138E-03     6.04625E-03    -25.8298E-03     110.768E-03    -55.3587E-03    -55.4233E-03    -55.1131E-03     110.522E-03    -55.4233E-03     12.7404E-03    -31.2650E+06    -47.4952E+06    -160.360E+06    -60.9616E+06    -146.894E+06    -31.2650E+06    -36.4499E+06         29.6763
            1743     7.57026E-03     98.1935E-03     40.2642E-03     7.41135E-03    -48.6962E-03     16.1392E-03    -24.5711E-03     7.41135E-03    -19.3250E-03     110.759E-03    -55.3611E-03    -55.4032E-03    -55.0507E-03     110.448E-03    -55.4032E-03     14.3225E-03    -29.5335E+06    -39.8194E+06    -151.605E+06    -56.5297E+06    -134.894E+06    -29.5335E+06    -39.7796E+06         30.1992
            1744     8.51697E-03     98.2093E-03     38.8490E-03     7.73442E-03    -50.2569E-03     4.61637E-03    -16.0243E-03     7.73442E-03    -25.0467E-03     110.835E-03    -55.3635E-03    -55.4511E-03    -55.0186E-03     110.424E-03    -55.3850E-03     16.4597E-03    -29.5002E+06    -32.9158E+06    -144.112E+06    -52.7176E+06    -124.310E+06    -29.5002E+06    -42.4751E+06         30.8376
            1745     9.46312E-03     98.2272E-03     29.2023E-03     7.23900E-03    -44.2045E-03     1.37025E-03    -16.3725E-03     7.23900E-03    -7.46495E-03     110.906E-03    -55.3297E-03    -55.4957E-03    -54.9662E-03     110.377E-03    -55.3297E-03     18.7180E-03    -26.5847E+06    -31.3144E+06    -136.708E+06    -49.2930E+06    -114.348E+06    -30.9656E+06    -44.1314E+06         31.5907
            1746     10.4098E-03     98.2482E-03     21.3494E-03     6.57921E-03    -35.3837E-03     2.04471E-03    -16.2362E-03     6.73633E-03    -22.3529E-03     110.828E-03    -55.2508E-03    -55.5055E-03    -54.8188E-03     110.141E-03    -55.2508E-03     21.2683E-03    -21.7265E+06    -34.3745E+06    -125.418E+06    -45.5349E+06    -101.609E+06    -34.3745E+06    -43.5058E+06         32.4712
            1747     11.3562E-03     98.2717E-03     11.7689E-03     5.68397E-03    -24.9839E-03     9.55851E-06    -13.8033E-03     6.26276E-03     3.52498E-03     110.784E-03    -55.2099E-03    -55.6865E-03    -54.5988E-03     109.696E-03    -55.2099E-03     26.5642E-03    -16.2097E+06    -36.1040E+06    -104.534E+06    -40.9995E+06    -79.7444E+06    -36.1040E+06    -39.4485E+06         33.4923
            1748     12.3034E-03     98.3038E-03     6.96744E-03     4.28757E-03    -18.4207E-03    -4.63572E-03    -8.11027E-03     5.58026E-03    -7.74643E-03     110.983E-03    -55.1236E-03    -56.0010E-03    -54.2126E-03     109.194E-03    -55.1236E-03     34.1543E-03    -1.29739E+06    -37.9704E+06    -71.2640E+06    -35.3557E+06    -37.2056E+06    -37.9704E+06    -32.2425E+06         34.8007
            1749     13.2506E-03     98.3447E-03     9.86272E-03     3.77503E-03    -17.7199E-03    -9.63302E-03     904.803E-06     4.64605E-03    -4.49631E-03     111.877E-03    -54.9209E-03    -57.0170E-03    -53.7389E-03     108.599E-03    -54.9209E-03     45.9476E-03     67.7237E+06    -34.1788E+06    -42.1662E+06    -29.9673E+06     57.8241E+06    -36.4780E+06    -19.6957E+06         36.7088
            1750     14.1986E-03     98.4010E-03     11.9284E-03     3.38691E-03    -18.3153E-03    -1.35068E-03    -5.61116E-03     3.96181E-03    -8.49198E-03     111.440E-03    -54.9798E-03    -56.6132E-03    -53.1148E-03     107.941E-03    -54.9798E-03     47.6368E-03     149.297E+06     16.2519E+06    -27.7170E+06    -24.9072E+06     148.786E+06     13.9527E+06    -5.85151E+06         39.3610
            1751     15.1465E-03     98.4466E-03     17.5055E-03     3.48259E-03    -23.8195E-03     11.8733E-03    -18.7622E-03     4.05749E-03    -10.8483E-03     113.045E-03    -55.1943E-03    -57.9050E-03    -52.5768E-03     107.717E-03    -55.1943E-03     57.4502E-03     178.057E+06     91.5757E+06    -18.1718E+06    -18.1512E+06     178.037E+06     91.5757E+06    -1.34566E+06         42.5228
            1752     16.0954E-03     98.5260E-03     17.5062E-03     3.97213E-03    -28.0716E-03     11.1960E-03    -22.3025E-03     4.51330E-03    -12.1510E-03     111.293E-03    -53.4111E-03    -57.8411E-03    -51.8361E-03     107.100E-03    -55.2234E-03     44.2894E-03     181.878E+06     129.969E+06    -9.09155E+06    -9.06338E+06     181.850E+06     129.969E+06    -2.07478E+06         45.5274
            1753     946.525E-06     99.2488E-03     776.728E-03     73.4158E-03    -855.878E-03    -67.4952E-03    -11.6553E-03     73.4158E-03    -637.047E-03     110.375E-03    -55.0062E-03    -55.3652E-03    -55.3454E-03     110.366E-03    -55.0166E-03     2.19169E-03    -84.8265E+06    -87.8252E+06    -208.823E+06    -87.9280E+06    -208.261E+06    -85.2849E+06    -6.48096E+06         28.1951
            1754     1.89253E-03     99.2525E-03     365.468E-03     1.15416E-03    -369.830E-03    -6.89307E-03     2.53129E-03     1.15416E-03     258.661E-03     110.453E-03    -55.1818E-03    -55.2710E-03    -55.1868E-03     110.422E-03    -55.2354E-03     4.39274E-03    -75.3741E+06    -81.3711E+06    -199.771E+06    -83.4150E+06    -197.727E+06    -75.3741E+06    -14.8733E+06         28.2697
            1755     2.83906E-03     99.2570E-03     213.201E-03     1.58909E-03    -220.660E-03     15.3973E-03    -22.8561E-03     1.58909E-03    -46.2001E-03     110.456E-03    -55.1973E-03    -55.2679E-03    -55.1527E-03     110.394E-03    -55.2510E-03     6.30875E-03    -64.3067E+06    -74.3425E+06    -185.901E+06    -78.2158E+06    -182.028E+06    -64.3067E+06    -20.2016E+06         28.4092
            1756     3.78536E-03     99.2653E-03     142.845E-03     5.62310E-03    -153.126E-03     18.7740E-03    -29.0556E-03     5.62310E-03     94.5353E-03     110.603E-03    -55.2629E-03    -55.3306E-03    -55.1784E-03     110.502E-03    -55.3138E-03     8.14857E-03    -51.1317E+06    -66.9558E+06    -177.207E+06    -72.5434E+06    -171.619E+06    -51.1317E+06    -24.1281E+06         28.6205
            1757     4.73168E-03     99.2735E-03     85.6929E-03     7.55757E-03    -94.5437E-03     9.98735E-03    -18.8381E-03     7.55757E-03    -17.6668E-03     110.682E-03    -55.2896E-03    -55.3823E-03    -55.1400E-03     110.532E-03    -55.3823E-03     9.92099E-03    -40.3345E+06    -57.9600E+06    -167.506E+06    -66.6906E+06    -158.776E+06    -40.3345E+06    -29.2712E+06         28.9002
            1758     5.67812E-03     99.2848E-03     57.4430E-03     7.50152E-03    -64.9144E-03     3.44837E-03    -10.9198E-03     7.50152E-03     38.1370E-03     110.686E-03    -55.3174E-03    -55.3895E-03    -55.1264E-03     110.485E-03    -55.3792E-03     11.5272E-03    -33.2605E+06    -48.8630E+06    -158.216E+06    -61.1986E+06    -145.880E+06    -33.2605E+06    -34.5459E+06         29.2462
            1759     6.62436E-03     99.2964E-03     37.0057E-03     7.05665E-03    -43.8124E-03     5.01635E-03    -11.8230E-03     7.05665E-03    -4.22647E-03     110.757E-03    -55.3613E-03    -55.3995E-03    -55.1290E-03     110.501E-03    -55.3755E-03     13.0175E-03    -26.4564E+06    -40.6792E+06    -152.066E+06    -55.6089E+06    -137.137E+06    -26.4564E+06    -37.8483E+06         29.6691
            1760     7.57084E-03     99.3101E-03     28.7800E-03     5.91761E-03    -36.7800E-03     1.45100E-03    -10.1518E-03     6.61843E-03     22.8686E-03     110.806E-03    -55.3652E-03    -55.4294E-03    -55.0980E-03     110.483E-03    -55.3739E-03     14.6106E-03    -23.1611E+06    -32.6095E+06    -143.076E+06    -50.4595E+06    -125.226E+06    -23.1611E+06    -40.5677E+06         30.1900
            1761     8.51700E-03     99.3256E-03     23.0930E-03     5.62597E-03    -34.8023E-03     6.59252E-03    -19.0026E-03     6.32678E-03     111.955E-06     110.938E-03    -55.3616E-03    -55.5256E-03    -55.0949E-03     110.511E-03    -55.3655E-03     16.7823E-03    -22.4517E+06    -26.4419E+06    -136.843E+06    -46.6020E+06    -115.824E+06    -23.3103E+06    -43.5020E+06         30.8270
            1762     9.46350E-03     99.3443E-03     24.5676E-03     6.63212E-03    -38.8125E-03     12.4685E-03    -26.7134E-03     6.63212E-03    -12.3592E-03     110.978E-03    -55.3180E-03    -55.5613E-03    -55.0171E-03     110.434E-03    -55.3180E-03     18.9873E-03    -20.3016E+06    -25.6778E+06    -131.339E+06    -43.8923E+06    -107.900E+06    -25.5261E+06    -45.2169E+06         31.5828
            1763     10.4098E-03     99.3644E-03     16.5434E-03     6.44293E-03    -31.7620E-03    -165.227E-06    -15.2106E-03     6.60005E-03    -21.8902E-03     110.844E-03    -55.2476E-03    -55.5287E-03    -54.8259E-03     110.141E-03    -55.2476E-03     21.5152E-03    -16.1835E+06    -30.1844E+06    -123.742E+06    -41.8020E+06    -98.1234E+06    -30.1844E+06    -45.7074E+06         32.4671
            1764     11.3568E-03     99.3883E-03     6.56229E-03     4.30175E-03    -18.2317E-03    -8.34429E-03    -4.71158E-03     5.68822E-03    -1.60621E-03     110.776E-03    -55.1994E-03    -55.6819E-03    -54.5771E-03     109.671E-03    -55.1994E-03     26.7850E-03    -10.0630E+06    -34.4959E+06    -108.876E+06    -38.3846E+06    -80.5548E+06    -34.4959E+06    -44.4602E+06         33.4892
            1765     12.3036E-03     99.4189E-03     9.42950E-03     2.74536E-03    -18.2528E-03    -1.57224E-03    -9.35142E-03     4.84573E-03     8.85719E-03     110.968E-03    -55.1040E-03    -55.9935E-03    -54.1999E-03     109.175E-03    -55.1040E-03     34.2107E-03     3.02573E+06    -38.8666E+06    -79.9308E+06    -33.3319E+06    -43.5731E+06    -38.8666E+06    -39.6199E+06         34.7926
            1766     13.2513E-03     99.4590E-03     14.2498E-03     3.79987E-03    -22.7927E-03     6.29005E-03    -15.7040E-03     4.67090E-03     9.90795E-03     111.885E-03    -54.8954E-03    -57.0236E-03    -53.7273E-03     108.589E-03    -54.8954E-03     46.0566E-03     55.2663E+06    -34.4044E+06    -50.1073E+06    -27.5302E+06     38.7011E+06    -40.4163E+06    -26.6809E+06         36.6901
            1767     14.1987E-03     99.5176E-03     14.4102E-03     4.96669E-03    -22.9666E-03     10.6553E-03    -19.2117E-03     4.96669E-03    -8.80874E-03     111.253E-03    -54.8808E-03    -56.5061E-03    -52.9400E-03     107.708E-03    -54.9022E-03     47.9223E-03     135.771E+06     9.37939E+06    -28.5708E+06    -21.1931E+06     134.405E+06     3.36750E+06    -10.5416E+06         39.3358
            1768     15.1481E-03     99.5612E-03     19.0206E-03     5.04171E-03    -28.0725E-03    -668.457E-06    -8.38351E-03     5.04171E-03     4.92610E-03     112.675E-03    -55.0751E-03    -57.6875E-03    -52.2127E-03     107.221E-03    -55.0965E-03     57.9849E-03     178.872E+06     83.0224E+06    -13.4018E+06    -13.2976E+06     178.768E+06     83.0224E+06    -3.19272E+06         42.4988
            1769     16.0973E-03     99.6414E-03     14.6928E-03     3.96287E-03    -24.0985E-03    -9.30484E-03    -642.030E-06     4.50405E-03     1.59514E-03     111.048E-03    -53.3467E-03    -57.7198E-03    -51.6130E-03     106.763E-03    -55.1677E-03     44.5407E-03     180.894E+06     128.270E+06    -6.07902E+06    -6.05225E+06     180.867E+06     128.270E+06    -1.63208E+06         45.5062
            1770     946.508E-06     100.365E-03     532.079E-03     112.472E-03    -647.799E-03    -38.8855E-03    -76.8342E-03     112.472E-03    -498.751E-03     110.064E-03    -54.9128E-03    -55.1460E-03    -55.1233E-03     110.054E-03    -54.9257E-03     2.25441E-03    -74.5741E+06    -78.0799E+06    -191.286E+06    -77.1004E+06    -190.521E+06    -76.3187E+06    -8.37175E+06         28.1792
            1771     1.89316E-03     100.368E-03     250.095E-03     30.0759E-03    -280.699E-03     3.06076E-03    -33.6643E-03     30.0759E-03     151.632E-03     110.210E-03    -55.0686E-03    -55.1435E-03    -55.0954E-03     110.178E-03    -55.0846E-03     4.49013E-03    -65.8555E+06    -71.4783E+06    -182.675E+06    -73.8232E+06    -180.330E+06    -65.8555E+06    -15.4575E+06         28.2549
            1772     2.83931E-03     100.374E-03     153.214E-03     18.7848E-03    -176.721E-03    -8.72294E-03    -14.7845E-03     18.7848E-03    -48.6989E-03     110.296E-03    -55.1307E-03    -55.1748E-03    -55.1051E-03     110.230E-03    -55.1339E-03     6.55861E-03    -53.7500E+06    -64.2283E+06    -173.191E+06    -68.6212E+06    -168.798E+06    -53.7500E+06    -21.2703E+06         28.3944
            1773     3.78570E-03     100.381E-03     106.814E-03     11.4838E-03    -122.541E-03    -10.5154E-03    -5.21095E-03     11.4838E-03     52.7860E-03     110.402E-03    -55.1699E-03    -55.2216E-03    -55.0791E-03     110.293E-03    -55.2038E-03     8.43108E-03    -41.6592E+06    -55.7996E+06    -165.818E+06    -62.1460E+06    -159.472E+06    -41.6592E+06    -25.5405E+06         28.6050
            1774     4.73230E-03     100.389E-03     65.9379E-03     8.61827E-03    -80.4036E-03     7.47423E-03    -21.9400E-03     8.61827E-03    -31.1714E-03     110.487E-03    -55.2122E-03    -55.2650E-03    -55.0515E-03     110.326E-03    -55.2644E-03     10.2859E-03    -30.6303E+06    -46.2919E+06    -154.545E+06    -55.5888E+06    -145.249E+06    -30.6303E+06    -30.0247E+06         28.8830
            1775     5.67870E-03     100.401E-03     48.4328E-03     8.57468E-03    -63.3103E-03     9.64779E-03    -24.5252E-03     8.57468E-03     3.99468E-03     110.570E-03    -55.2732E-03    -55.3116E-03    -55.0773E-03     110.354E-03    -55.2914E-03     11.9442E-03    -22.9595E+06    -38.2875E+06    -146.571E+06    -50.6707E+06    -134.188E+06    -22.9595E+06    -34.4329E+06         29.2285
            1776     6.62507E-03     100.413E-03     41.2938E-03     8.58202E-03    -52.2111E-03     7.57951E-03    -18.4969E-03     8.58202E-03    -13.3286E-03     110.689E-03    -55.3015E-03    -55.3943E-03    -55.1198E-03     110.414E-03    -55.3015E-03     13.4628E-03    -18.7175E+06    -31.5039E+06    -142.581E+06    -47.0169E+06    -127.068E+06    -18.7175E+06    -38.3683E+06         29.6516
            1777     7.57135E-03     100.426E-03     32.0784E-03     7.44656E-03    -40.2387E-03     2.22994E-03    -11.0911E-03     8.14737E-03     17.8424E-03     110.796E-03    -55.3090E-03    -55.4828E-03    -55.1322E-03     110.445E-03    -55.3090E-03     15.2224E-03    -16.5871E+06    -24.2127E+06    -134.775E+06    -43.1871E+06    -115.800E+06    -16.5871E+06    -41.6433E+06         30.1694
            1778     8.51783E-03     100.442E-03     23.4291E-03     4.35901E-03    -30.7893E-03     1.79001E-03    -12.2732E-03     7.48207E-03    -3.37360E-03     110.938E-03    -55.3121E-03    -55.5752E-03    -55.1145E-03     110.477E-03    -55.3121E-03     17.4382E-03    -15.2221E+06    -18.8466E+06    -128.927E+06    -39.5912E+06    -107.324E+06    -16.0807E+06    -43.8979E+06         30.8029
            1779     9.46404E-03     100.460E-03     13.8744E-03     4.53369E-03    -22.2165E-03     2.30039E-03    -13.0647E-03     6.95594E-03     4.12045E-03     110.942E-03    -55.2691E-03    -55.5878E-03    -55.0087E-03     110.362E-03    -55.2691E-03     19.5855E-03    -12.9018E+06    -19.1489E+06    -124.771E+06    -36.8665E+06    -101.010E+06    -18.9447E+06    -45.6660E+06         31.5594
            1780     10.4108E-03     100.480E-03     12.9158E-03     6.42536E-03    -23.9205E-03    -500.381E-06    -10.5044E-03     6.42536E-03     9.57900E-03     110.807E-03    -55.2066E-03    -55.5553E-03    -54.8193E-03     110.071E-03    -55.2066E-03     22.0192E-03    -8.28780E+06    -23.6976E+06    -118.861E+06    -34.5598E+06    -92.5888E+06    -23.6976E+06    -46.9513E+06         32.4467
            1781     11.3572E-03     100.504E-03     10.5273E-03     4.42224E-03    -19.5665E-03    -4.96234E-03    -5.33730E-03     5.68270E-03     16.9846E-03     110.795E-03    -55.1485E-03    -55.7383E-03    -54.5935E-03     109.650E-03    -55.1485E-03     27.2732E-03    -1.78228E+06    -29.3050E+06    -107.780E+06    -32.3403E+06    -77.2221E+06    -29.3050E+06    -47.7850E+06         33.4725
            1782     12.3045E-03     100.535E-03     11.7733E-03     3.80190E-03    -18.5910E-03     8.64494E-06    -8.08675E-03     5.06236E-03     4.30819E-03     111.010E-03    -55.0541E-03    -56.0481E-03    -54.2074E-03     109.170E-03    -55.0541E-03     34.6704E-03     8.79557E+06    -36.5110E+06    -85.7038E+06    -29.5174E+06    -47.3908E+06    -36.5110E+06    -45.3906E+06         34.7753
            1783     13.2514E-03     100.574E-03     23.5802E-03     5.25164E-03    -31.1193E-03     15.3652E-03    -22.9042E-03     5.25164E-03    -3.17791E-03     111.839E-03    -54.8570E-03    -56.9814E-03    -53.6070E-03     108.464E-03    -54.8570E-03     46.5636E-03     44.3177E+06    -35.7829E+06    -55.8485E+06    -25.8583E+06     19.6287E+06    -41.0841E+06    -33.7905E+06         36.6619
            1784     14.2002E-03     100.633E-03     18.3133E-03     4.56596E-03    -24.4101E-03     13.5830E-03    -21.0075E-03     5.89375E-03    -10.9107E-03     111.030E-03    -54.7737E-03    -56.3660E-03    -52.7382E-03     107.424E-03    -54.7952E-03     48.2486E-03     121.381E+06    -2.48341E+06    -29.4034E+06    -20.3393E+06     117.618E+06    -7.78457E+06    -16.8380E+06         39.2996
            1785     15.1488E-03     100.676E-03     15.6650E-03     4.61434E-03    -20.9192E-03    -1.58183E-03    -5.00011E-03     5.94212E-03     15.6320E-03     112.142E-03    -54.9301E-03    -57.3556E-03    -51.8787E-03     106.687E-03    -54.9515E-03     57.8482E-03     174.633E+06     67.8854E+06    -14.4302E+06    -14.2163E+06     174.419E+06     67.8854E+06    -5.33734E+06         42.4646
            1786     16.0991E-03     100.755E-03     16.0750E-03     5.40618E-03    -19.0723E-03    -5.96187E-03     2.96465E-03     5.40618E-03     7.93182E-03     110.316E-03    -53.0113E-03    -57.4332E-03    -51.0906E-03     106.034E-03    -55.0724E-03     44.3652E-03     178.262E+06     123.504E+06    -7.69146E+06    -7.67669E+06     178.247E+06     123.504E+06    -648.336E+03         45.4763
            1787     946.635E-06     101.480E-03     394.878E-03     57.6539E-03    -446.496E-03    -14.9526E-03    -36.6653E-03     57.6539E-03    -382.389E-03     109.894E-03    -54.8176E-03    -55.0758E-03    -55.0511E-03     109.883E-03    -54.8312E-03     2.47654E-03    -55.8101E+06    -60.5987E+06    -173.693E+06    -59.6079E+06    -172.889E+06    -57.6041E+06    -9.14209E+06         28.1552
            1788     1.89320E-03     101.484E-03     187.530E-03     18.7526E-03    -208.776E-03     8.78780E-03    -30.0333E-03     18.7526E-03     63.5875E-03     109.898E-03    -54.9206E-03    -54.9862E-03    -54.9080E-03     109.863E-03    -54.9630E-03     4.71365E-03    -50.6529E+06    -55.1347E+06    -164.788E+06    -57.4301E+06    -162.443E+06    -50.7024E+06    -15.3015E+06         28.2321
            1789     2.83990E-03     101.490E-03     119.194E-03     13.9175E-03    -140.265E-03     557.100E-06    -21.6285E-03     13.9175E-03    -78.6539E-03     109.978E-03    -54.9621E-03    -55.0244E-03    -54.9222E-03     109.905E-03    -54.9909E-03     6.87871E-03    -39.9630E+06    -48.9787E+06    -159.001E+06    -53.5343E+06    -154.445E+06    -39.9630E+06    -21.7707E+06         28.3700
            1790     3.78652E-03     101.496E-03     77.3121E-03     10.5331E-03    -94.5521E-03     1.76975E-03    -19.0097E-03     10.5331E-03     11.0854E-03     110.114E-03    -55.0333E-03    -55.0686E-03    -54.9481E-03     109.993E-03    -55.0335E-03     8.85671E-03    -29.2909E+06    -41.0634E+06    -153.137E+06    -48.1147E+06    -146.086E+06    -29.2909E+06    -27.0441E+06         28.5766
            1791     4.73306E-03     101.506E-03     63.1862E-03     8.98249E-03    -80.0106E-03     4.42008E-03    -21.2445E-03     8.98249E-03    -12.4609E-03     110.148E-03    -55.0526E-03    -55.0971E-03    -54.8990E-03     109.969E-03    -55.0715E-03     10.8245E-03    -20.5568E+06    -33.2670E+06    -143.036E+06    -42.8748E+06    -133.428E+06    -20.5568E+06    -30.9235E+06         28.8466
            1792     5.67969E-03     101.516E-03     49.7307E-03     8.02687E-03    -63.6664E-03     1.87509E-03    -15.8108E-03     8.02687E-03     19.8636E-03     110.212E-03    -55.0864E-03    -55.1434E-03    -54.8799E-03     109.967E-03    -55.1051E-03     12.6740E-03    -12.3332E+06    -26.5109E+06    -135.454E+06    -38.3424E+06    -123.623E+06    -12.3332E+06    -33.8537E+06         29.1835
            1793     6.62626E-03     101.529E-03     28.8025E-03     7.09132E-03    -40.5471E-03     1.38125E-03    -13.1258E-03     7.09132E-03    -24.0604E-03     110.425E-03    -55.1205E-03    -55.3210E-03    -55.0057E-03     110.110E-03    -55.1205E-03     14.4043E-03    -7.61335E+06    -19.3023E+06    -130.440E+06    -34.3446E+06    -115.397E+06    -7.61335E+06    -37.9017E+06         29.6031
            1794     7.57278E-03     101.543E-03     28.3063E-03     6.84848E-03    -37.3264E-03     10.1370E-03    -19.1570E-03     6.84848E-03    -18.3558E-03     110.573E-03    -55.1310E-03    -55.4701E-03    -55.0722E-03     110.175E-03    -55.1310E-03     16.2006E-03    -6.92855E+06    -12.8234E+06    -124.872E+06    -31.2299E+06    -106.465E+06    -6.92855E+06    -41.4557E+06         30.1200
            1795     8.51914E-03     101.558E-03     28.6027E-03     4.87594E-03    -32.5766E-03     12.3868E-03    -18.7829E-03     7.29820E-03    -28.5331E-03     110.673E-03    -55.1318E-03    -55.5081E-03    -54.9900E-03     110.154E-03    -55.1318E-03     18.4681E-03    -6.15554E+06    -8.69824E+06    -120.214E+06    -29.1180E+06    -99.3178E+06    -6.63253E+06    -43.5738E+06         30.7507
            1796     9.46569E-03     101.577E-03     12.5414E-03     3.97937E-03    -15.9357E-03     3.01037E-03    -9.77126E-03     7.34598E-03    -2.43600E-03     110.709E-03    -55.0925E-03    -55.5361E-03    -54.8824E-03     110.055E-03    -55.0925E-03     20.7701E-03    -3.56703E+06    -9.98067E+06    -116.805E+06    -27.3417E+06    -93.2345E+06    -9.77640E+06    -45.8729E+06         31.5062
            1797     10.4120E-03     101.596E-03     12.2107E-03     5.76550E-03    -17.0937E-03    -2.40380E-03    -3.42355E-03     6.70986E-03     4.72665E-03     110.733E-03    -55.0401E-03    -55.6207E-03    -54.7964E-03     109.909E-03    -55.0401E-03     23.2911E-03     922.214E+03    -15.1328E+06    -112.624E+06    -25.5952E+06    -86.1064E+06    -15.1328E+06    -47.9630E+06         32.3967
            1798     11.3591E-03     101.620E-03     13.2899E-03     5.59842E-03    -19.0174E-03     200.420E-06    -6.38071E-03     6.05120E-03     9.02520E-03     110.826E-03    -54.9964E-03    -55.8483E-03    -54.6046E-03     109.582E-03    -54.9964E-03     28.4484E-03     5.94029E+06    -21.3011E+06    -102.758E+06    -24.6647E+06    -72.1531E+06    -21.3011E+06    -48.6391E+06         33.4289
            1799     12.3058E-03     101.651E-03     14.5760E-03     5.42455E-03    -21.1840E-03     7.19591E-03    -14.2567E-03     5.87734E-03    -1.42614E-03     111.001E-03    -54.9183E-03    -56.1469E-03    -54.1974E-03     109.051E-03    -54.9183E-03     35.6975E-03     12.2177E+06    -30.7344E+06    -85.5843E+06    -25.1156E+06    -48.2510E+06    -30.7344E+06    -46.9460E+06         34.7330
            1800     13.2540E-03     101.690E-03     19.3830E-03     4.76322E-03    -25.5331E-03     9.85642E-03    -17.3456E-03     6.10234E-03    -6.37857E-03     111.874E-03    -54.7617E-03    -57.1217E-03    -53.6484E-03     108.400E-03    -54.7617E-03     47.3108E-03     35.1020E+06    -36.3206E+06    -58.4004E+06    -24.8369E+06     4.09754E+06    -38.8797E+06    -38.1220E+06         36.6103
            1801     14.2017E-03     101.746E-03     19.6154E-03     3.60311E-03    -25.1849E-03     6.39693E-03    -14.6334E-03     6.27002E-03     1.74814E-03     110.971E-03    -54.6044E-03    -56.4175E-03    -52.7214E-03     107.275E-03    -54.6044E-03     48.8590E-03     105.123E+06    -19.8625E+06    -32.4602E+06    -23.2376E+06     98.4596E+06    -22.4216E+06    -21.6428E+06         39.2440
            1802     15.1510E-03     101.790E-03     13.3984E-03     4.54419E-03    -20.2570E-03     3.61633E-03    -12.1312E-03     6.20050E-03     16.3606E-03     111.679E-03    -54.6785E-03    -57.1145E-03    -51.5558E-03     106.120E-03    -54.6785E-03     58.2951E-03     165.588E+06     44.5779E+06    -19.1002E+06    -18.6107E+06     165.098E+06     44.5779E+06    -7.74504E+06         42.4172
            1803     16.1010E-03     101.867E-03     9.63083E-03     5.69921E-03    -18.6450E-03     2.90078E-03    -12.2434E-03     6.02773E-03    -6.03295E-03     109.269E-03    -52.3104E-03    -57.1278E-03    -50.2208E-03     104.911E-03    -54.8588E-03     44.8303E-03     175.370E+06     115.301E+06    -10.3581E+06    -10.3203E+06     175.332E+06     115.301E+06    -2.02952E+06         45.4388
            1804     946.805E-06     102.596E-03     305.739E-03     48.8781E-03    -351.587E-03    -40.9271E-03    -4.92082E-03     48.8781E-03    -231.755E-03     109.335E-03    -54.4803E-03    -54.8554E-03    -54.8406E-03     109.321E-03    -54.4810E-03     2.75086E-03    -40.1418E+06    -45.3402E+06    -155.984E+06    -43.9273E+06    -155.216E+06    -42.3230E+06    -8.45851E+06         28.1042
            1805     1.89375E-03     102.599E-03     170.921E-03     1.36361E-03    -172.360E-03    -9.17409E-03     7.73518E-03     1.36361E-03     83.4247E-03     109.335E-03    -54.6447E-03    -54.6917E-03    -54.6156E-03     109.291E-03    -54.6768E-03     5.22515E-03    -36.1031E+06    -39.1760E+06    -147.370E+06    -41.4873E+06    -145.009E+06    -36.1525E+06    -15.3360E+06         28.1823
            1806     2.84074E-03     102.605E-03     107.073E-03     2.77812E-03    -111.560E-03     27.1568E-03    -31.6436E-03     2.77812E-03    -50.1559E-03     109.399E-03    -54.6745E-03    -54.7273E-03    -54.6074E-03     109.310E-03    -54.7058E-03     7.52840E-03    -26.8510E+06    -33.3627E+06    -143.527E+06    -37.9907E+06    -138.899E+06    -26.8510E+06    -21.9140E+06         28.3193
            1807     3.78758E-03     102.613E-03     64.9761E-03     9.60377E-03    -79.5000E-03     31.6258E-03    -46.1497E-03     9.60377E-03     34.4291E-03     109.526E-03    -54.7399E-03    -54.7869E-03    -54.6405E-03     109.379E-03    -54.7399E-03     9.72218E-03    -16.9551E+06    -26.6788E+06    -139.356E+06    -33.9566E+06    -132.079E+06    -16.9551E+06    -27.5217E+06         28.5193
            1808     4.73439E-03     102.621E-03     46.9518E-03     12.2785E-03    -62.4947E-03     11.1973E-03    -26.7402E-03     12.2785E-03     11.6312E-03     109.564E-03    -54.7521E-03    -54.8221E-03    -54.5859E-03     109.346E-03    -54.7708E-03     11.8761E-03    -9.11456E+06    -19.9244E+06    -132.422E+06    -29.4669E+06    -122.879E+06    -9.11456E+06    -31.3078E+06         28.7785
            1809     5.68153E-03     102.632E-03     31.3502E-03     9.48170E-03    -43.7506E-03    -4.10342E-03    -9.77646E-03     10.9612E-03     52.5418E-03     109.649E-03    -54.7556E-03    -54.8931E-03    -54.5738E-03     109.348E-03    -54.7743E-03     13.9856E-03    -2.34553E+06    -12.8508E+06    -124.867E+06    -24.7972E+06    -112.921E+06    -2.34553E+06    -34.4692E+06         29.1023
            1810     6.62843E-03     102.645E-03     19.8731E-03     7.17584E-03    -30.4449E-03    -6.95044E-03    -5.10088E-03     8.65538E-03     28.1329E-03     109.840E-03    -54.7827E-03    -55.0661E-03    -54.6759E-03     109.450E-03    -54.7827E-03     15.9655E-03     3.81932E+06    -6.00088E+06    -118.683E+06    -20.5627E+06    -104.121E+06     3.81932E+06    -37.7451E+06         29.5100
            1811     7.57505E-03     102.659E-03     22.8448E-03     4.82399E-03    -31.1800E-03     2.48556E-03    -13.3021E-03     7.30542E-03     20.6888E-03     110.011E-03    -54.8023E-03    -55.2502E-03    -54.7545E-03     109.516E-03    -54.8023E-03     17.9948E-03     4.72521E+06    -1.55123E+06    -114.592E+06    -18.0376E+06    -98.0094E+06     4.62890E+06    -39.9479E+06         30.0202
            1812     8.52180E-03     102.675E-03     21.1016E-03     4.61878E-03    -26.8120E-03     8.08417E-03    -16.2761E-03     7.10021E-03     10.8892E-03     110.153E-03    -54.7911E-03    -55.3406E-03    -54.6983E-03     109.511E-03    -54.7911E-03     20.4816E-03     4.74877E+06     2.00167E+06    -110.064E+06    -16.7060E+06    -90.7834E+06     4.17548E+06    -42.3525E+06         30.6461
            1813     9.46870E-03     102.693E-03     17.6744E-03     5.91870E-03    -18.3269E-03     899.985E-06    -2.49684E-03     6.86305E-03     10.3471E-03     110.271E-03    -54.7625E-03    -55.4402E-03    -54.6404E-03     109.471E-03    -54.7625E-03     22.9045E-03     7.42671E+06     855.881E+03    -107.324E+06    -15.7350E+06    -85.0689E+06     1.76228E+06    -45.1093E+06         31.3993
            1814     10.4159E-03     102.713E-03     13.5096E-03     5.36878E-03    -13.2792E-03     1.00598E-03    -1.71988E-03     6.31313E-03    -5.11941E-03     110.485E-03    -54.7390E-03    -55.6621E-03    -54.6640E-03     109.487E-03    -54.7390E-03     25.5877E-03     9.51678E+06    -4.63873E+06    -104.109E+06    -15.6882E+06    -78.9040E+06    -4.63873E+06    -47.1101E+06         32.2941
            1815     11.3622E-03     102.736E-03     19.0479E-03     6.44032E-03    -21.4440E-03     15.1448E-03    -17.5409E-03     6.44032E-03     1.00775E-03     110.807E-03    -54.7207E-03    -56.0470E-03    -54.6129E-03     109.373E-03    -54.7207E-03     30.5924E-03     12.0990E+06    -11.9229E+06    -96.3872E+06    -16.6288E+06    -67.6594E+06    -11.9229E+06    -47.7054E+06         33.3328
            1816     12.3097E-03     102.766E-03     20.2804E-03     7.24980E-03    -25.4536E-03     17.8754E-03    -23.0486E-03     7.24980E-03     5.88832E-03     111.105E-03    -54.6731E-03    -56.4975E-03    -54.3502E-03     108.957E-03    -54.6731E-03     37.5093E-03     14.0296E+06    -21.1665E+06    -81.1873E+06    -18.5497E+06    -48.6080E+06    -21.1665E+06    -44.6532E+06         34.6417
            1817     13.2564E-03     102.805E-03     11.6589E-03     4.68398E-03    -17.7888E-03     449.679E-06    -9.36293E-03     7.46736E-03     10.6090E-03     111.990E-03    -54.5571E-03    -57.4838E-03    -53.8062E-03     108.312E-03    -54.5571E-03     48.7829E-03     27.7078E+06    -30.3428E+06    -57.6006E+06    -22.0386E+06    -6.54056E+06    -31.6565E+06    -37.4178E+06         36.5244
            1818     14.2050E-03     102.861E-03     15.1541E-03     4.14144E-03    -21.3658E-03    -3.48762E-03    -5.50747E-03     6.92482E-03     5.79351E-03     110.942E-03    -54.3403E-03    -56.6015E-03    -52.6909E-03     107.031E-03    -54.3403E-03     50.2868E-03     89.6571E+06    -26.4906E+06    -36.7529E+06    -22.5071E+06     80.2935E+06    -31.3728E+06    -24.8331E+06         39.1667
            1819     15.1540E-03     102.904E-03     19.8526E-03     6.23142E-03    -29.5614E-03     4.63157E-03    -14.6689E-03     6.55994E-03     22.7261E-03     111.235E-03    -54.3119E-03    -56.9360E-03    -51.1340E-03     105.433E-03    -54.3119E-03     59.5223E-03     155.620E+06     26.0257E+06    -21.9127E+06    -17.2116E+06     154.487E+06     22.4571E+06    -12.3666E+06         42.3564
            1820     16.1055E-03     102.980E-03     14.7691E-03     6.19962E-03    -27.1611E-03     6.29607E-03    -19.0166E-03     6.52814E-03     5.31727E-03     108.423E-03    -51.7647E-03    -56.7724E-03    -49.5106E-03     103.915E-03    -54.5182E-03     45.5704E-03     171.321E+06     104.029E+06    -8.58225E+06    -8.33282E+06     171.072E+06     104.029E+06    -5.11603E+06         45.4033
            1821     947.590E-06     103.710E-03     207.183E-03     49.6804E-03    -255.564E-03    -31.7802E-03    -16.6007E-03     49.6804E-03    -131.442E-03     108.208E-03    -54.0072E-03    -54.2015E-03    -54.1565E-03     108.191E-03    -54.0352E-03     3.02484E-03    -24.8784E+06    -30.9049E+06    -137.781E+06    -28.5938E+06    -136.862E+06    -28.1089E+06    -9.31874E+06         28.0123
            1822     1.89486E-03     103.714E-03     127.148E-03     9.37993E-03    -132.334E-03     10.8301E-03    -16.0166E-03     9.37993E-03     78.7188E-03     108.204E-03    -54.0759E-03    -54.1280E-03    -54.0409E-03     108.148E-03    -54.1064E-03     5.85728E-03    -20.0921E+06     -24.063E+06    -130.205E+06    -25.5455E+06    -127.624E+06    -21.1908E+06    -16.0083E+06         28.0859
            1823     2.84225E-03     103.719E-03     78.2900E-03     11.7499E-03    -85.5499E-03     23.1583E-03    -30.4182E-03     11.7499E-03    -15.5244E-03     108.271E-03    -54.1232E-03    -54.1541E-03    -54.0234E-03     108.152E-03    -54.1352E-03     8.64685E-03    -11.3918E+06    -16.7253E+06    -127.738E+06    -21.5826E+06    -122.881E+06    -11.3918E+06    -22.5551E+06         28.2172
            1824     3.78972E-03     103.727E-03     47.2367E-03     13.3767E-03    -55.2810E-03     14.0787E-03    -22.5048E-03     13.7585E-03     46.9893E-03     108.337E-03    -54.1528E-03    -54.1877E-03    -53.9810E-03     108.140E-03    -54.1624E-03     11.2049E-03    -2.72033E+06    -10.3395E+06    -125.700E+06    -17.5502E+06    -118.489E+06    -2.72033E+06    -27.8059E+06         28.4067
            1825     4.73742E-03     103.736E-03     21.8442E-03     12.8852E-03    -32.1637E-03     7.90504E-03    -18.6063E-03     13.2670E-03     4.03247E-03     108.440E-03    -54.1693E-03    -54.2679E-03    -53.9717E-03     108.144E-03    -54.1693E-03     13.7534E-03     4.14764E+06    -3.63209E+06    -120.964E+06    -13.2040E+06    -111.393E+06     4.14764E+06    -32.0473E+06         28.6537
            1826     5.68468E-03     103.747E-03     22.7802E-03     11.0019E-03    -34.3766E-03     9.72825E-03    -22.8042E-03     12.4814E-03     13.2831E-03     108.586E-03    -54.1637E-03    -54.4135E-03    -53.9937E-03     108.166E-03    -54.1637E-03     16.3826E-03     9.05033E+06     2.62253E+06    -114.057E+06    -9.11320E+06    -102.321E+06     9.05033E+06    -35.0066E+06         28.9653
            1827     6.63211E-03     103.759E-03     28.3924E-03     10.5388E-03    -42.4268E-03     8.79661E-03    -24.3106E-03     12.0183E-03     5.22737E-03     108.697E-03    -54.1623E-03    -54.5361E-03    -53.9832E-03     108.144E-03    -54.1623E-03     18.8245E-03     14.5063E+06     6.51719E+06    -108.623E+06    -6.83407E+06    -95.2721E+06     14.5063E+06    -36.8224E+06         29.3560
            1828     7.57975E-03     103.774E-03     22.0455E-03     8.32915E-03    -35.5724E-03    -5.18714E-03    -10.8212E-03     10.8106E-03     6.58336E-03     108.894E-03    -54.1726E-03    -54.7394E-03    -54.0360E-03     108.191E-03    -54.1726E-03     21.2618E-03     16.1054E+06     9.68829E+06    -105.140E+06    -5.12749E+06     -90.228E+06     16.0091E+06    -38.5519E+06         29.8476
            1829     8.52724E-03     103.790E-03     19.0688E-03     6.10960E-03    -29.2233E-03    -13.8278E-03     1.19194E-03     8.59102E-03     19.0528E-03     109.242E-03    -54.1582E-03    -55.0735E-03    -54.1761E-03     108.345E-03    -54.1582E-03     24.0640E-03     15.1017E+06     12.9560E+06    -99.4916E+06    -4.00270E+06    -82.4366E+06     15.0054E+06    -40.2582E+06         30.4587
            1830     9.47438E-03     103.808E-03     21.7345E-03     6.79686E-03    -30.5231E-03    -4.44708E-03    -4.34151E-03     6.79686E-03     18.1457E-03     109.552E-03    -54.1580E-03    -55.3915E-03    -54.2914E-03     108.452E-03    -54.1580E-03     26.7029E-03     16.1465E+06     12.1669E+06    -96.4802E+06    -4.47286E+06    -76.7962E+06     13.1023E+06    -42.4619E+06         31.2023
            1831     10.4214E-03     103.828E-03     19.2389E-03     6.49436E-03    -23.8289E-03     11.8952E-03    -16.4852E-03     6.49436E-03    -2.37858E-03     109.941E-03    -54.1733E-03    -55.7239E-03    -54.3753E-03     108.593E-03    -54.1733E-03     29.5985E-03     16.3957E+06     6.00064E+06    -94.6039E+06    -6.06860E+06    -72.1396E+06     6.00064E+06    -44.4967E+06         32.0951
            1832     11.3689E-03     103.852E-03     25.0185E-03     7.12636E-03    -28.3922E-03     16.0293E-03    -19.4030E-03     7.12636E-03    -11.0383E-03     110.576E-03    -54.1657E-03    -56.3435E-03    -54.4864E-03     108.719E-03    -54.1657E-03     34.7397E-03     16.3251E+06    -2.14446E+06    -89.0123E+06    -8.52121E+06    -64.1660E+06    -2.14446E+06    -44.4800E+06         33.1426
            1833     12.3151E-03     103.882E-03     21.5388E-03     7.70417E-03    -25.5511E-03     13.3042E-03    -17.3165E-03     7.70417E-03    -16.8359E-03     111.208E-03    -54.1487E-03    -57.1070E-03    -54.4468E-03     108.548E-03    -54.1487E-03     41.7286E-03     14.3720E+06    -12.5447E+06    -77.1713E+06    -11.8436E+06    -50.9557E+06    -12.5447E+06    -41.0614E+06         34.4864
            1834     13.2629E-03     103.921E-03     10.2781E-03     6.34322E-03    -14.3629E-03     4.97671E-03    -10.5058E-03     7.78748E-03    -41.3957E-06     112.321E-03    -54.0985E-03    -58.2887E-03    -54.0224E-03     108.055E-03    -54.0985E-03     52.7206E-03     25.8829E+06    -20.2446E+06    -50.9985E+06    -13.4423E+06    -11.6733E+06    -20.2446E+06    -35.1263E+06         36.4231
            1835     14.2108E-03     103.975E-03     9.97542E-03     5.84808E-03    -15.8897E-03    -3.80878E-03    -3.54971E-03     7.29234E-03    -16.0925E-03     111.174E-03    -53.9495E-03    -57.2361E-03    -52.8149E-03     106.753E-03    -53.9495E-03     53.5180E-03     79.1751E+06    -19.3463E+06    -28.6675E+06    -13.1117E+06     67.3522E+06    -23.0793E+06    -26.9115E+06         39.0944
            1836     15.1606E-03     104.016E-03     17.4115E-03     6.87665E-03    -25.4726E-03     5.71582E-03    -13.7769E-03     6.87665E-03    -4.29838E-03     111.334E-03    -53.9222E-03    -57.4154E-03    -51.1640E-03     105.083E-03    -53.9222E-03     62.0347E-03     143.968E+06     20.9648E+06    -17.3341E+06    -11.3796E+06     141.746E+06     17.2318E+06    -15.6890E+06         42.3073
            1837     16.1117E-03     104.090E-03     19.8143E-03     6.99958E-03    -29.1541E-03     12.5089E-03    -21.8487E-03     6.99958E-03    -6.82642E-03     108.126E-03    -51.3983E-03    -56.8486E-03    -49.3654E-03     103.352E-03    -54.1072E-03     46.9542E-03     165.446E+06     97.1695E+06    -7.76150E+06    -7.46038E+06     165.145E+06     97.1695E+06    -6.09809E+06         45.4071
            1838     947.954E-06     104.823E-03     113.647E-03     23.7446E-03    -128.805E-03     20.9713E-03    -36.1299E-03     23.7446E-03    -62.2001E-03     106.298E-03    -53.0867E-03    -53.2171E-03    -53.1640E-03     106.273E-03    -53.1147E-03     3.61673E-03    -6.61578E+06    -11.5665E+06    -118.318E+06    -10.2489E+06    -117.254E+06    -8.99738E+06    -9.24619E+06         27.8600
            1839     1.89666E-03     104.827E-03     70.2274E-03     20.7081E-03    -84.3896E-03     31.1115E-03    -48.6978E-03     24.1323E-03     33.5864E-03     106.180E-03    -53.0606E-03    -53.1215E-03    -52.9868E-03     106.098E-03    -53.1136E-03     6.95441E-03    -4.00907E+06    -8.59741E+06    -112.111E+06    -9.18668E+06    -109.164E+06    -6.36695E+06    -17.0395E+06         27.9247
            1840     2.84505E-03     104.832E-03     45.3183E-03     17.0822E-03    -56.0711E-03    -11.7292E-03    -2.44776E-03     20.5063E-03    -25.7293E-03     106.128E-03    -53.0346E-03    -53.0950E-03    -52.8694E-03     105.956E-03    -53.0883E-03     10.2725E-03     1.69807E+06    -3.01852E+06    -112.388E+06    -6.86008E+06    -107.288E+06     438.942E+03    -23.0773E+06         28.0425
            1841     3.79368E-03     104.839E-03     41.5495E-03     11.5737E-03    -43.6231E-03    -13.0830E-03     10.6276E-03     11.9555E-03    -18.2747E-03     106.158E-03    -53.0305E-03    -53.1248E-03    -52.7990E-03     105.861E-03    -53.0593E-03     13.5347E-03     7.13829E+06     3.14689E+06    -112.217E+06    -4.11116E+06    -104.921E+06     7.10000E+06    -27.9786E+06         28.2120
            1842     4.74212E-03     104.849E-03     27.8476E-03     8.22750E-03    -29.7981E-03     7.10032E-03    -9.43266E-03     8.60929E-03    -18.0317E-03     106.312E-03    -53.0392E-03    -53.2536E-03    -52.7971E-03     105.855E-03    -53.0392E-03     16.8291E-03     12.6892E+06     8.34809E+06    -108.757E+06    -1.43671E+06    -98.9335E+06     12.6509E+06    -32.3575E+06         28.4346
            1843     5.69090E-03     104.860E-03     28.9991E-03     8.58209E-03    -35.5069E-03     10.8232E-03    -17.3310E-03     8.58209E-03    -19.3643E-03     106.468E-03    -53.0429E-03    -53.4115E-03    -52.7625E-03     105.819E-03    -53.0429E-03     20.1170E-03     17.1403E+06     12.2943E+06    -105.208E+06     1.00531E+06    -93.9187E+06     17.1403E+06    -34.6197E+06         28.7251
            1844     6.63960E-03     104.873E-03     28.3398E-03     9.04573E-03    -41.6252E-03     13.9546E-03    -27.2400E-03     9.04573E-03    -42.3354E-03     106.647E-03    -53.0224E-03    -53.6274E-03    -52.7582E-03     105.778E-03    -53.0224E-03     23.3124E-03     21.3994E+06     15.9627E+06    -99.6768E+06     3.44709E+06    -87.1612E+06     21.3994E+06    -35.8521E+06         29.0980
            1845     7.58810E-03     104.887E-03     16.6656E-03     8.85918E-03    -35.1686E-03     1.62177E-03    -20.1248E-03     8.85918E-03    -27.6039E-03     107.018E-03    -53.0185E-03    -54.0090E-03    -52.8977E-03     105.907E-03    -53.0185E-03     26.3998E-03     24.8082E+06     19.2088E+06    -96.4094E+06     5.42942E+06    -82.6300E+06     24.8082E+06    -37.4509E+06         29.5686
            1846     8.53646E-03     104.903E-03     21.7961E-03     7.59662E-03    -39.1174E-03    -5.78718E-03    -11.5341E-03     7.59662E-03    -14.5835E-03     107.544E-03    -53.0154E-03    -54.5501E-03    -53.1303E-03     106.125E-03    -53.0154E-03     29.8863E-03     23.5683E+06     20.8026E+06    -91.3696E+06     6.17279E+06    -76.6384E+06     23.4668E+06    -37.8078E+06         30.1580
            1847     9.48449E-03     104.921E-03     23.8802E-03     6.85327E-03    -37.8279E-03     7.38068E-03    -21.3283E-03     6.85327E-03    -4.90865E-03     108.235E-03    -53.0462E-03    -55.2174E-03    -53.4781E-03     106.496E-03    -53.0462E-03     33.2330E-03     23.3399E+06     21.5966E+06    -85.5254E+06     5.49840E+06    -69.0005E+06     22.9132E+06    -38.7462E+06         30.8885
            1848     10.4325E-03     104.943E-03     16.4527E-03     4.79020E-03    -25.1301E-03     7.84224E-03    -18.6463E-03     6.91690E-03    -7.60220E-03     109.087E-03    -53.1003E-03    -55.9841E-03    -53.8919E-03     106.995E-03    -53.1003E-03     36.6055E-03     22.3153E+06     15.1063E+06    -85.1046E+06     2.99390E+06    -67.0709E+06     16.3940E+06    -39.6130E+06         31.7799
            1849     11.3796E-03     104.966E-03     22.2104E-03     4.51551E-03    -26.2426E-03    -412.463E-06    -5.74636E-03     6.64222E-03    -28.0788E-03     110.047E-03    -53.1382E-03    -56.8815E-03    -54.1566E-03     107.322E-03    -53.1382E-03     41.9396E-03     17.2757E+06     7.34128E+06    -80.7886E+06    -1.75326E+06    -61.7596E+06     7.34128E+06    -38.5048E+06         32.8640
            1850     12.3276E-03     104.997E-03     22.2648E-03     6.19494E-03    -25.7766E-03     3.64051E-03    -7.15234E-03     6.19494E-03    -37.1023E-03     111.218E-03    -53.1681E-03    -58.0542E-03    -54.4141E-03     107.578E-03    -53.1681E-03     48.8262E-03     13.9010E+06    -4.06583E+06    -72.2118E+06    -6.69909E+06    -51.6117E+06    -4.06583E+06    -36.4357E+06         34.3128
            1851     13.2743E-03     105.035E-03     17.8088E-03     6.33252E-03    -21.6883E-03     15.0377E-03    -18.9172E-03     6.33252E-03    -13.0142E-03     112.892E-03    -53.1988E-03    -59.7143E-03    -54.3692E-03     107.546E-03    -53.1988E-03     59.3106E-03     28.3769E+06    -9.14016E+06    -49.4246E+06    -9.12658E+06    -11.9211E+06    -9.14016E+06    -34.8973E+06         36.3753
            1852     14.2223E-03     105.089E-03     18.6843E-03     6.81504E-03    -24.7185E-03     13.6879E-03    -19.7222E-03     6.81504E-03    -12.8646E-03     111.858E-03    -53.1954E-03    -58.6780E-03    -53.3548E-03     106.535E-03    -53.1954E-03     58.8884E-03     70.9073E+06    -4.80435E+06    -22.0388E+06    -8.26277E+06     57.2957E+06    -4.96874E+06    -28.3833E+06         39.1110
            1853     15.1713E-03     105.127E-03     15.8093E-03     6.90894E-03    -23.8152E-03     3.05246E-03    -11.0584E-03     6.90894E-03    -11.0851E-03     112.359E-03    -53.2289E-03    -59.1397E-03    -52.0341E-03     105.253E-03    -53.2289E-03     66.7645E-03     130.373E+06     21.0097E+06    -10.1301E+06    -7.47449E+06     127.882E+06     20.8453E+06    -14.6901E+06         42.3583
            1854     16.1220E-03     105.202E-03     14.9846E-03     6.71339E-03    -24.5860E-03     4.10360E-03    -13.7051E-03     6.71339E-03    -19.1571E-03     108.797E-03    -51.2325E-03    -57.5860E-03    -50.1025E-03     103.508E-03    -53.4268E-03     49.3532E-03     158.345E+06     90.3640E+06    -5.42754E+06    -5.24591E+06     158.163E+06     90.3640E+06    -4.83661E+06         45.5371
            1855     950.142E-06     105.933E-03     78.7109E-03     24.1878E-03    -94.3894E-03     24.2938E-03    -39.9723E-03     24.1878E-03    -92.6703E-03     102.810E-03    -51.2858E-03    -51.5278E-03    -51.4863E-03     102.769E-03    -51.2858E-03     4.55819E-03     6.21009E+06     1.52369E+06    -97.8411E+06     3.58376E+06    -96.7184E+06     3.02733E+06    -9.02431E+06         27.5930
            1856     1.89958E-03     105.937E-03     33.8271E-03     17.0070E-03    -46.7359E-03     5.42749E-03    -21.7604E-03     20.4311E-03     10.8285E-03     102.723E-03    -51.3307E-03    -51.3969E-03    -51.2423E-03     102.593E-03    -51.3556E-03     8.63713E-03     7.79123E+06     3.71152E+06    -94.1446E+06     3.94679E+06    -91.0968E+06     4.50816E+06    -17.0608E+06         27.6533
            1857     2.84991E-03     105.942E-03     31.5829E-03     9.51180E-03    -37.7040E-03    -9.12815E-03    -416.989E-06     12.9359E-03     8.49348E-03     102.578E-03    -51.2516E-03    -51.3297E-03    -51.0103E-03     102.303E-03    -51.2958E-03     12.7074E-03     10.3759E+06     6.72762E+06    -97.2986E+06     4.35547E+06    -92.1521E+06     7.60144E+06    -22.7566E+06         27.7587
            1858     3.80023E-03     105.949E-03     36.9880E-03     4.38511E-03    -40.1458E-03    -6.94771E-03     739.156E-06     7.43583E-03    -14.2377E-03     102.610E-03    -51.2303E-03    -51.3808E-03    -50.8832E-03     102.131E-03    -51.2495E-03     16.8666E-03     15.0607E+06     11.7648E+06    -98.6063E+06     5.66045E+06    -91.0723E+06     13.6311E+06    -27.9271E+06         27.9065
            1859     4.75084E-03     105.958E-03     35.4080E-03     2.96137E-03    -36.5733E-03     9.64532E-03    -13.8614E-03     6.01209E-03     9.39350E-03     102.771E-03    -51.2212E-03    -51.5330E-03    -50.7904E-03     102.028E-03    -51.2212E-03     21.0642E-03     19.3273E+06     16.4125E+06    -97.4684E+06     7.07726E+06    -88.0949E+06     19.2890E+06    -31.2364E+06         28.0992
            1860     5.70113E-03     105.969E-03     29.9678E-03     4.41977E-03    -37.2624E-03     5.32174E-03    -14.5045E-03     6.30783E-03     17.2473E-03     102.969E-03    -51.1789E-03    -51.7728E-03    -50.7060E-03     101.902E-03    -51.1789E-03     25.2734E-03     22.6061E+06     19.1601E+06    -95.9992E+06     8.14722E+06    -84.9863E+06     22.6061E+06    -33.7452E+06         28.3584
            1861     6.65181E-03     105.982E-03     22.5965E-03     3.40150E-03    -32.5478E-03    -7.80333E-03    -4.03600E-03     5.28957E-03    -7.42195E-03     103.310E-03    -51.1218E-03    -52.1851E-03    -50.7310E-03     101.856E-03    -51.1218E-03     29.5446E-03     24.7884E+06     21.9630E+06    -92.0350E+06     9.73113E+06    -79.7426E+06     24.7279E+06    -35.3083E+06         28.7054
            1862     7.60217E-03     105.997E-03     23.3983E-03     4.13763E-03    -36.4638E-03     1.14072E-03    -14.2062E-03     4.13763E-03    -9.65944E-03     103.911E-03    -51.1006E-03    -52.8215E-03    -50.9278E-03     102.017E-03    -51.1006E-03     33.8191E-03     28.6446E+06     23.1480E+06    -88.9191E+06     10.5115E+06    -76.2221E+06     28.5841E+06    -35.5055E+06         29.1553
            1863     8.55232E-03     106.013E-03     28.0445E-03     4.82312E-03    -43.1749E-03     21.2426E-03    -36.3730E-03     4.82312E-03    -19.6673E-03     104.849E-03    -51.1089E-03    -53.7700E-03    -51.3486E-03     102.428E-03    -51.1089E-03     38.4254E-03     27.7143E+06     22.6348E+06    -85.7203E+06     9.84751E+06    -72.8316E+06     27.6129E+06    -35.0669E+06         29.7295
            1864     9.50233E-03     106.034E-03     22.8697E-03     4.94720E-03    -36.0243E-03     15.0953E-03    -29.4577E-03     6.15505E-03    -3.30114E-03     106.114E-03    -51.1613E-03    -54.9554E-03    -52.0171E-03     103.176E-03    -51.1613E-03     42.6731E-03     27.6561E+06     21.2009E+06    -77.2962E+06     7.72740E+06    -63.7212E+06     27.5547E+06    -33.8822E+06         30.4639
            1865     10.4511E-03     106.055E-03     9.77547E-03     2.79176E-03    -18.9102E-03    -3.81763E-03    -8.65170E-03     6.12631E-03    -985.598E-06     107.671E-03    -51.2966E-03    -56.3918E-03    -52.9542E-03     104.233E-03    -51.2966E-03     46.5723E-03     25.7169E+06     15.1181E+06    -77.3488E+06     3.86964E+06    -64.0463E+06     23.6628E+06    -32.8192E+06         31.3882
            1866     11.3995E-03     106.079E-03     14.3463E-03     3.03421E-03    -21.6898E-03    -6.46884E-03    -3.00133E-03     5.16092E-03    -22.6464E-03     109.477E-03    -51.4539E-03    -58.0524E-03    -53.8556E-03     105.280E-03    -51.4539E-03     51.9714E-03     17.8267E+06     10.9281E+06    -73.3889E+06    -512.430E+03    -59.5275E+06     15.4060E+06    -31.4685E+06         32.5747
            1867     12.3466E-03     106.110E-03     20.2983E-03     4.65660E-03    -27.6923E-03     4.87135E-03    -12.2654E-03     4.65660E-03    -37.3832E-03     111.488E-03    -51.6012E-03    -59.8661E-03    -54.6441E-03     106.266E-03    -51.6012E-03     58.5846E-03     12.9714E+06     3.41447E+06    -65.2466E+06    -4.57722E+06    -49.2398E+06     4.95628E+06    -31.1081E+06         34.2172
            1868     13.2939E-03     106.149E-03     24.6016E-03     5.15435E-03    -32.0535E-03     19.4738E-03    -26.9256E-03     5.15435E-03    -8.13772E-03     113.720E-03    -51.7651E-03    -61.9407E-03    -55.0190E-03     106.798E-03    -51.7651E-03     67.9759E-03     27.7763E+06     35.6242E+03    -47.3438E+06    -9.86846E+06    -9.69905E+06     35.6242E+03    -30.2011E+06         36.4790
            1869     14.2411E-03     106.202E-03     23.8444E-03     6.09708E-03    -31.8040E-03     19.7737E-03    -27.7333E-03     6.09708E-03    -2.06745E-03     113.197E-03    -51.9462E-03    -61.2639E-03    -54.7136E-03     106.647E-03    -51.9462E-03     65.8506E-03     63.0057E+06     6.69112E+06    -26.0715E+06    -14.8282E+06     51.7623E+06     6.69112E+06    -27.2060E+06         39.3462
            1870     15.1889E-03     106.241E-03     15.0208E-03     6.47834E-03    -22.4332E-03     5.33481E-03    -12.7472E-03     6.47834E-03    -11.1722E-03     114.381E-03    -52.1021E-03    -62.2567E-03    -54.1904E-03     106.315E-03    -52.1021E-03     72.4599E-03     116.590E+06     17.6427E+06    -16.0573E+06    -12.4097E+06     112.942E+06     17.6427E+06    -16.6662E+06         42.6763
            1871     16.1378E-03     106.314E-03     17.7467E-03     6.08728E-03    -24.7970E-03    -4.79914E-03    -2.25111E-03     6.08728E-03    -26.8765E-03     111.151E-03    -51.5974E-03    -59.4787E-03    -52.8926E-03     105.426E-03    -52.4579E-03     50.9081E-03     149.544E+06     78.8905E+06    -6.45793E+06    -6.26078E+06     149.347E+06     78.8905E+06    -4.31634E+06         45.9327
            1872     952.224E-06     107.039E-03     70.2037E-03     15.7581E-03    -85.3846E-03    -228.414E-06    -14.9525E-03     15.7581E-03    -15.1000E-03     97.3211E-03    -48.5098E-03    -48.8110E-03    -48.7439E-03     97.2539E-03    -48.5098E-03     5.76941E-03     15.7208E+06     11.5843E+06    -77.8711E+06     13.8197E+06    -76.6770E+06     12.2913E+06    -9.84844E+06         27.1712
            1873     1.90510E-03     107.042E-03     25.4128E-03     3.77775E-03    -32.1303E-03    -11.9602E-03     5.24264E-03     3.77775E-03     5.04693E-03     97.2707E-03    -48.5872E-03    -48.6891E-03    -48.4826E-03     97.0641E-03    -48.5872E-03     10.5775E-03     16.0976E+06     12.5934E+06    -77.0467E+06     13.1038E+06    -74.0530E+06     12.5934E+06    -16.1492E+06         27.2279
            1874     2.85764E-03     107.047E-03     32.9376E-03     3.20460E-03    -44.4628E-03     23.6278E-03    -35.1529E-03     3.20460E-03     10.9591E-03     97.2117E-03    -48.5215E-03    -48.6956E-03    -48.2498E-03     96.7659E-03    -48.5215E-03     15.7457E-03     17.3768E+06     13.9165E+06    -82.1572E+06     12.0172E+06    -76.7976E+06     13.9165E+06    -22.2746E+06         27.3228
            1875     3.81058E-03     107.054E-03     33.0572E-03     5.10048E-03    -43.6649E-03     20.5297E-03    -34.1881E-03     8.15119E-03    -236.149E-06     97.1860E-03    -48.4477E-03    -48.7357E-03    -47.9488E-03     96.3991E-03    -48.4477E-03     20.9883E-03     19.7322E+06     15.2292E+06    -85.8231E+06     11.4575E+06    -78.5409E+06     16.2216E+06    -26.5305E+06         27.4519
            1876     4.76367E-03     107.063E-03     23.2083E-03     5.68363E-03    -37.1455E-03    -1.13528E-03    -15.8527E-03     8.73435E-03     9.99855E-03     97.2812E-03    -48.3578E-03    -48.9112E-03    -47.6775E-03     96.0476E-03    -48.3578E-03     26.3187E-03     20.2534E+06     17.4281E+06    -87.5427E+06     10.4206E+06    -78.9204E+06     18.6386E+06    -28.9827E+06         27.6208
            1877     5.71743E-03     107.074E-03     19.8616E-03     5.04824E-03    -31.6078E-03    -2.94853E-03    -10.6857E-03     6.93631E-03     20.1364E-03     97.6282E-03    -48.2548E-03    -49.3749E-03    -47.5765E-03     95.8299E-03    -48.2548E-03     31.8526E-03     20.4056E+06     18.7783E+06    -85.7856E+06     8.80779E+06    -75.6814E+06     20.2719E+06    -30.7942E+06         27.8512
            1878     6.67063E-03     107.086E-03     15.8858E-03     3.24559E-03    -24.1377E-03    -8.60893E-03    -1.53099E-03     5.13365E-03     14.4243E-03     98.2844E-03    -48.1745E-03    -50.1123E-03    -47.6497E-03     95.8218E-03    -48.1745E-03     37.4257E-03     20.8883E+06     16.9155E+06    -84.9285E+06     5.89422E+06    -73.8467E+06     20.8278E+06    -31.6834E+06         28.1694
            1879     7.62422E-03     107.102E-03     25.5234E-03     4.07702E-03    -33.9444E-03     2.44073E-03    -10.8618E-03     4.07702E-03    -2.06335E-03     99.3454E-03    -48.1449E-03    -51.1738E-03    -47.9705E-03     96.1421E-03    -48.1449E-03     42.9475E-03     22.7587E+06     13.7246E+06    -83.3847E+06     2.55999E+06    -72.1596E+06     22.6982E+06    -31.0286E+06         28.6063
            1880     8.57723E-03     107.119E-03     27.4307E-03     4.76914E-03    -37.5410E-03     18.3500E-03    -28.4603E-03     4.76914E-03     1.33844E-03     101.073E-03    -48.2103E-03    -52.8498E-03    -48.8106E-03     97.0342E-03    -48.2103E-03     48.7097E-03     24.4105E+06     10.5332E+06    -80.5935E+06    -760.138E+03    -69.3001E+06     24.4105E+06    -29.9770E+06         29.2015
            1881     9.52891E-03     107.139E-03     19.5288E-03     4.53215E-03    -32.9011E-03     9.69053E-03    -24.2707E-03     5.73999E-03     33.5869E-03     103.243E-03    -48.3357E-03    -54.9028E-03    -50.0954E-03     98.4355E-03    -48.3357E-03     53.8605E-03     24.3991E+06     6.83994E+06    -73.6362E+06    -4.14261E+06    -62.6537E+06     24.3991E+06    -27.5551E+06         30.0031
            1882     10.4799E-03     107.163E-03     11.7668E-03     4.56108E-03    -24.9682E-03     1.79087E-03    -16.2001E-03     5.76892E-03     28.3303E-03     105.819E-03    -48.5935E-03    -57.2552E-03    -51.8103E-03     100.374E-03    -48.5935E-03     58.2081E-03     23.5755E+06     1.92288E+06    -72.0263E+06    -7.98841E+06    -62.1150E+06     23.5755E+06    -25.1472E+06         31.0380
            1883     11.4285E-03     107.189E-03     13.8305E-03     5.56152E-03    -27.1360E-03     3.90790E-03    -17.2134E-03     5.56152E-03     9.94721E-03     108.925E-03    -48.9428E-03    -60.0194E-03    -53.7822E-03     102.688E-03    -48.9428E-03     63.4058E-03     17.0836E+06     1.19150E+06    -68.3277E+06    -11.5531E+06    -55.5831E+06     17.0836E+06    -25.8041E+06         32.4002
            1884     12.3762E-03     107.222E-03     15.2927E-03     4.06681E-03    -26.4429E-03     7.90754E-03    -20.6509E-03     5.66009E-03    -7.72793E-03     112.069E-03    -49.3423E-03    -62.7139E-03    -55.5574E-03     104.913E-03    -49.3423E-03     69.0985E-03     10.1914E+06    -2.92238E+06    -61.8089E+06    -14.7558E+06    -47.5440E+06     7.75993E+06    -25.4110E+06         34.2897
            1885     13.3220E-03     107.263E-03     17.7079E-03     4.19089E-03    -27.7699E-03     4.54998E-03    -16.2052E-03     5.78417E-03     16.4910E-03     115.205E-03    -49.7986E-03    -65.3857E-03    -56.8384E-03     106.658E-03    -49.7986E-03     76.5462E-03     27.0947E+06     82.2068E+03    -46.0864E+06    -18.2432E+06    -7.17240E+06     6.50612E+06    -23.3748E+06         36.8049
            1886     14.2678E-03     107.317E-03     13.7021E-03     5.38100E-03    -24.0061E-03    -1.85334E-03    -8.59434E-03     5.52461E-03     9.21514E-03     115.513E-03    -50.2819E-03    -65.2219E-03    -57.6422E-03     107.933E-03    -50.2819E-03     71.8788E-03     60.2577E+06     16.7127E+06    -26.9484E+06    -19.9706E+06     53.2799E+06     16.7127E+06    -22.9119E+06         39.9022
            1887     15.2118E-03     107.355E-03     11.7120E-03     5.12990E-03    -20.1720E-03     6.38541E-03    -14.9890E-03     5.27351E-03    -14.3223E-03     117.707E-03    -50.7596E-03    -66.9356E-03    -58.4417E-03     109.213E-03    -50.7596E-03     76.3810E-03     105.241E+06     24.2885E+06    -24.0629E+06    -19.9924E+06     101.171E+06     24.2885E+06    -19.4873E+06         43.4007
            1888     16.1563E-03     107.429E-03     20.6424E-03     5.26465E-03    -26.9898E-03     5.93455E-03    -12.2819E-03     5.26465E-03    -17.0508E-03     116.408E-03    -51.4608E-03    -64.8985E-03    -59.1402E-03     110.649E-03    -51.4608E-03     50.7504E-03     137.859E+06     77.9512E+06    -13.5011E+06    -12.4658E+06     136.824E+06     77.9512E+06    -9.31152E+06         46.6941
            1889     956.303E-06     108.138E-03     48.4572E-03     9.27201E-03    -66.1880E-03     2.04617E-03     1.76354E-03    -12.2685E-03     57.5661E-03     89.5763E-03    -44.6327E-03    -44.9436E-03    -44.8391E-03     89.4718E-03    -44.6327E-03     6.92122E-03     20.0057E+06     16.7087E+06    -59.8530E+06     17.9437E+06    -58.8049E+06     17.7226E+06    -8.67314E+06         26.5795
            1890     1.91228E-03     108.140E-03     24.0948E-03    -3.64138E-03    -31.8588E-03     2.25616E-03    -10.0202E-03    -3.64138E-03     1.94625E-03     89.5315E-03    -44.6794E-03    -44.8536E-03    -44.5260E-03     89.2039E-03    -44.6794E-03     12.7450E-03     17.6784E+06     14.8853E+06    -60.7234E+06     14.9927E+06    -58.0376E+06     14.8853E+06    -13.9122E+06         26.6257
            1891     2.86882E-03     108.145E-03     27.3748E-03     1.10821E-03    -38.4171E-03     20.7009E-03    -31.7432E-03     1.10821E-03    -5.35799E-03     89.5250E-03    -44.5812E-03    -44.9420E-03    -44.2352E-03     88.8182E-03    -44.5812E-03     18.9978E-03     15.6331E+06     11.6773E+06    -67.7017E+06     10.8540E+06    -62.9226E+06     11.6773E+06    -19.2525E+06         26.7045
            1892     3.82550E-03     108.152E-03     27.9027E-03     5.81647E-03    -45.5706E-03     17.5278E-03    -35.1956E-03     5.81647E-03     336.425E-06     89.5112E-03    -44.4401E-03    -45.0674E-03    -43.8095E-03     88.2533E-03    -44.4401E-03     25.4418E-03     13.3998E+06     8.08539E+06    -74.5780E+06     6.90561E+06    -68.0838E+06     8.08539E+06    -22.8935E+06         26.8139
            1893     4.78299E-03     108.160E-03     15.2612E-03     6.29395E-03    -29.0081E-03    -2.99481E-03    -10.7522E-03     6.29395E-03    -20.1764E-03     89.7345E-03    -44.2834E-03    -45.4455E-03    -43.4573E-03     87.7463E-03    -44.2834E-03     32.0748E-03     10.5668E+06     6.47930E+06    -78.4603E+06     2.95940E+06    -70.8529E+06     6.47930E+06    -24.8057E+06         26.9696
            1894     5.74016E-03     108.170E-03     18.5268E-03     5.00500E-03    -25.9420E-03     1.32039E-03    -8.73561E-03     5.00500E-03    -7.16516E-03     90.3695E-03    -44.1593E-03    -46.2140E-03    -43.3185E-03     87.4739E-03    -44.1593E-03     38.8481E-03     8.68971E+06     4.74573E+06    -78.1997E+06    -2.16706E+06    -70.4240E+06     7.82676E+06    -24.2759E+06         27.1963
            1895     6.69807E-03     108.184E-03     22.7684E-03     5.42191E-03    -28.8780E-03     15.7898E-03    -21.8993E-03     5.42191E-03     16.1301E-03     91.6421E-03    -44.0945E-03    -47.5138E-03    -43.5857E-03     87.7140E-03    -44.0945E-03     45.6152E-03     10.3564E+06    -1.69565E+06    -77.6542E+06    -9.16680E+06    -70.1830E+06     10.3564E+06    -22.4990E+06         27.5187
            1896     7.65500E-03     108.199E-03     25.9849E-03     6.16674E-03    -32.5522E-03     6.07450E-03    -12.6419E-03     6.16674E-03    -21.8329E-03     93.6680E-03    -44.1276E-03    -49.4718E-03    -44.4324E-03     88.6286E-03    -44.1276E-03     52.3018E-03     12.9017E+06    -9.58799E+06    -76.9456E+06    -17.3822E+06    -69.1514E+06     12.9017E+06    -21.3535E+06         27.9927
            1897     8.61114E-03     108.218E-03     23.7386E-03     5.49024E-03    -31.0546E-03    -6.58019E-03    -735.824E-06     5.49024E-03    -19.9764E-03     96.4882E-03    -44.3137E-03    -52.1319E-03    -45.9325E-03     90.2888E-03    -44.3137E-03     59.0251E-03     15.8904E+06    -15.0777E+06    -74.8997E+06    -23.9881E+06    -65.9893E+06     15.8904E+06    -21.2017E+06         28.6871
            1898     9.56574E-03     108.240E-03     22.0818E-03     4.83202E-03    -30.8253E-03     5.77391E-03    -14.5174E-03     4.83202E-03     4.29747E-03     99.9823E-03    -44.6188E-03    -55.3352E-03    -48.2153E-03     92.8625E-03    -44.6188E-03     64.6721E-03     17.1435E+06    -18.0313E+06    -72.3142E+06    -27.8368E+06    -62.5087E+06     17.1435E+06    -20.5944E+06         29.6409
            1899     10.5175E-03     108.267E-03     29.3696E-03     5.61529E-03    -41.8143E-03     22.8803E-03    -35.3250E-03     5.61529E-03     5.09177E-03     104.057E-03    -45.1083E-03    -58.9651E-03    -51.2271E-03     96.3191E-03    -45.1083E-03     69.1242E-03     19.9822E+06    -16.8559E+06    -70.1012E+06    -27.7170E+06    -59.2401E+06     19.9822E+06    -20.7148E+06         30.8551
            1900     11.4670E-03     108.297E-03     29.1330E-03     6.96237E-03    -43.2193E-03     20.9733E-03    -35.0596E-03     6.96237E-03    -2.91382E-03     108.656E-03    -45.7696E-03    -62.9210E-03    -54.6239E-03     100.359E-03    -45.7696E-03     73.5011E-03     18.3560E+06    -12.5636E+06    -64.3947E+06    -25.8547E+06    -51.1036E+06     18.3560E+06    -21.8492E+06         32.4283
            1901     12.4126E-03     108.333E-03     18.5704E-03     5.73202E-03    -31.8794E-03     1.37802E-03    -16.2803E-03     7.32530E-03    -21.8759E-03     113.227E-03    -46.5575E-03    -66.6620E-03    -57.9217E-03     104.487E-03    -46.5575E-03     77.3178E-03     13.4429E+06    -10.3829E+06    -60.7323E+06    -24.1768E+06    -46.9383E+06     13.4429E+06    -22.1214E+06         34.5669
            1902     13.3560E-03     108.377E-03     12.3484E-03     4.76269E-03    -24.2332E-03    -14.5118E-03     1.03375E-03     6.35597E-03     6.66675E-03     117.602E-03    -47.4160E-03    -70.1512E-03    -60.5654E-03     108.016E-03    -47.4160E-03     82.6172E-03     31.7649E+06     5.30435E+06    -44.2215E+06    -21.0614E+06    -3.41408E+06     17.3234E+06    -21.5494E+06         37.3555
            1903     14.2969E-03     108.434E-03     10.9329E-03     4.87222E-03    -21.8345E-03    -12.5775E-03     1.53228E-03     5.01582E-03     1.41719E-03     119.061E-03    -48.3594E-03    -70.6518E-03    -62.6465E-03     111.056E-03    -48.3594E-03     75.4814E-03     63.1655E+06     32.4736E+06    -23.2706E+06    -17.1662E+06     57.0612E+06     32.4736E+06    -21.4024E+06         40.7565
            1904     15.2364E-03     108.474E-03     10.3311E-03     4.13799E-03    -21.7825E-03     194.494E-06    -11.7896E-03     4.28160E-03    -22.2563E-03     122.962E-03    -49.3599E-03    -73.5775E-03    -65.2647E-03     114.649E-03    -49.3599E-03     78.2893E-03     100.626E+06     46.1822E+06    -15.3899E+06    -11.4362E+06     96.6728E+06     46.1822E+06    -19.5052E+06         44.4553
            1905     16.1727E-03     108.552E-03     14.3157E-03     4.32490E-03    -26.3355E-03     11.2202E-03    -23.2400E-03     4.32490E-03    -8.42262E-03     124.816E-03    -50.5988E-03    -74.3309E-03    -68.8286E-03     119.314E-03    -50.5988E-03     50.7951E-03     126.571E+06     87.0908E+06    -7.13561E+06    -5.79923E+06     124.008E+06     88.3175E+06    -12.0064E+06         47.7250
            1906     960.813E-06     109.227E-03     65.8210E-03     9.90745E-03    -84.3096E-03     35.5828E-03    -32.5309E-03    -11.6331E-03     79.6993E-03     79.4748E-03    -39.5317E-03    -39.9421E-03    -39.7838E-03     79.3165E-03    -39.5317E-03     7.95911E-03     21.1299E+06     16.2910E+06    -45.5626E+06     19.0150E+06    -44.9290E+06     17.7722E+06    -5.29512E+06         25.8202
            1907     1.92225E-03     109.230E-03     37.3001E-03     9.51832E-03    -54.4897E-03     14.3656E-03    -34.5403E-03     12.5034E-03     56.2175E-03     79.4593E-03    -39.5907E-03    -39.8680E-03    -39.3777E-03     78.9690E-03    -39.5907E-03     14.7266E-03     15.1847E+06     12.2664E+06    -47.4040E+06     13.0797E+06    -45.7663E+06     12.7337E+06    -9.60668E+06         25.8539
            1908     2.88356E-03     109.233E-03     24.3331E-03     6.33413E-03    -38.1802E-03    -12.9762E-03    -3.85603E-03     9.31922E-03     22.6251E-03     79.4843E-03    -39.4500E-03    -40.0344E-03    -38.9784E-03     78.4283E-03    -39.4500E-03     21.8842E-03     10.7274E+06     6.11993E+06    -54.9276E+06     7.77272E+06    -51.9729E+06     6.11993E+06    -13.4081E+06         25.9198
            1909     3.84559E-03     109.240E-03     24.3746E-03     3.99483E-03    -35.6369E-03    -9.12868E-03    -2.13365E-03     3.99483E-03     29.5844E-03     79.7301E-03    -39.2753E-03    -40.4558E-03    -38.5781E-03     77.8525E-03    -39.2753E-03     29.3248E-03     3.25660E+06    -2.11168E+06    -65.1369E+06    -634.251E+03    -61.2460E+06    -2.11168E+06    -15.2426E+06         26.0225
            1910     4.80759E-03     109.247E-03     30.5996E-03     3.49063E-03    -36.6884E-03     14.6469E-03    -20.7356E-03     3.49063E-03     36.0082E-03     80.3511E-03    -39.1017E-03    -41.2557E-03    -38.2851E-03     77.3804E-03    -39.1017E-03     37.0539E-03    -6.30658E+06    -11.9501E+06    -70.5267E+06    -12.5876E+06    -66.7018E+06    -9.49395E+06    -14.1446E+06         26.1827
            1911     5.77035E-03     109.257E-03     34.2786E-03     5.38359E-03    -37.6784E-03     14.2238E-03    -17.6236E-03     5.38359E-03     34.5218E-03     81.6325E-03    -38.9948E-03    -42.6361E-03    -38.3473E-03     77.3437E-03    -38.9948E-03     44.9105E-03    -10.4251E+06    -23.4554E+06    -72.9516E+06    -25.9907E+06     -69.687E+06    -11.1544E+06    -11.4678E+06         26.4366
            1912     6.73227E-03     109.270E-03     24.6886E-03     6.20658E-03    -27.7891E-03     6.94727E-03    -10.0478E-03     6.20658E-03     17.3157E-03     83.9286E-03    -39.0267E-03    -44.8630E-03    -39.1312E-03     78.1969E-03    -39.0267E-03     52.7123E-03    -5.82825E+06    -35.1244E+06    -72.2976E+06    -37.6608E+06    -69.7612E+06    -5.82825E+06    -8.61448E+06         26.8275
            1913     7.69357E-03     109.287E-03     21.5237E-03     5.87508E-03    -25.7619E-03    -160.974E-06    -4.07729E-03     5.87508E-03    -23.4656E-03     87.2902E-03    -39.2273E-03    -48.0327E-03    -40.8542E-03     80.1118E-03    -39.2273E-03     60.3319E-03     2.28346E+06    -41.7787E+06    -69.3106E+06    -45.4551E+06    -65.6342E+06     2.28346E+06    -8.55422E+06         27.4270
            1914     8.65255E-03     109.309E-03     19.3277E-03     4.92300E-03    -24.0389E-03    -5.23043E-03     519.210E-06     4.92300E-03    -15.3553E-03     91.6803E-03    -39.6323E-03    -52.0469E-03    -43.5205E-03     83.1539E-03    -39.6323E-03     67.6707E-03     9.48314E+06    -41.0894E+06    -69.7088E+06    -49.5399E+06    -61.2582E+06     9.48314E+06    -11.4241E+06         28.2938
            1915     9.60879E-03     109.335E-03     23.6533E-03     4.53293E-03    -30.2944E-03     7.43762E-03    -14.0787E-03     4.53293E-03     4.60973E-03     96.8987E-03    -40.2588E-03    -56.6299E-03    -47.2258E-03     87.4945E-03    -40.2588E-03     73.4822E-03     14.1151E+06    -37.6770E+06    -71.0452E+06    -49.4957E+06    -59.2265E+06     14.1151E+06    -14.7982E+06         29.4376
            1916     10.5614E-03     109.367E-03     30.8220E-03     5.42902E-03    -39.4695E-03     21.2466E-03    -29.8941E-03     5.42902E-03     8.92145E-03     102.718E-03    -41.1244E-03    -61.5787E-03    -51.7924E-03     92.9316E-03    -41.1244E-03     77.6796E-03     19.2963E+06    -26.3581E+06    -70.2647E+06    -45.6849E+06    -50.9379E+06     19.2963E+06    -20.4534E+06         30.8484
            1917     11.5090E-03     109.403E-03     24.5781E-03     6.40526E-03    -34.8098E-03     16.4172E-03    -26.7795E-03     6.53579E-03    -11.9242E-03     109.122E-03    -42.2237E-03    -66.8920E-03    -56.9043E-03     99.1341E-03    -42.2237E-03     81.3876E-03     19.0987E+06    -15.7858E+06    -69.8173E+06    -37.1389E+06    -48.4641E+06     19.0987E+06    -24.7116E+06         32.6336
            1918     12.4521E-03     109.446E-03     17.3942E-03     6.49398E-03    -29.0397E-03    -207.748E-06    -11.5683E-03     6.62451E-03    -22.6141E-03     115.389E-03    -43.5188E-03    -71.8488E-03    -61.9761E-03     105.517E-03    -43.5188E-03     83.6534E-03     18.5182E+06    -9.05245E+06    -62.9118E+06    -27.0147E+06    -44.9495E+06     18.5182E+06    -24.9058E+06         35.0075
            1919     13.3904E-03     109.494E-03     15.3376E-03     5.88207E-03    -26.2261E-03    -6.79753E-03    -4.09095E-03     5.88207E-03     14.6576E-03     121.188E-03    -44.9112E-03    -76.2490E-03    -66.2247E-03     111.164E-03    -44.9112E-03     86.6775E-03     37.1444E+06     13.9129E+06    -40.9932E+06    -18.3532E+06     1.99402E+06     26.4232E+06    -25.7725E+06         38.0667
            1920     14.3266E-03     109.556E-03     12.9099E-03     5.20070E-03    -21.9270E-03    -2.60850E-03    -6.40861E-03     5.20070E-03     13.1218E-03     124.194E-03    -46.4445E-03    -77.7140E-03    -69.8439E-03     116.324E-03    -46.4445E-03     77.0499E-03     66.0705E+06     44.1395E+06    -18.8974E+06    -10.0800E+06     57.2531E+06     44.1395E+06    -23.9468E+06         41.7456
            1921     15.2577E-03     109.599E-03     12.9540E-03     4.70780E-03    -20.6209E-03    -5.35116E-03    -2.31576E-03     4.70780E-03     711.739E-06     130.214E-03    -48.0747E-03    -82.1059E-03    -74.3264E-03     122.435E-03    -48.0747E-03     78.9810E-03      96.735E+06     58.3123E+06    -10.0710E+06    -6.11351E+06     92.7776E+06     58.3123E+06    -18.7812E+06         45.5755
            1922     16.1852E-03     109.686E-03     13.3628E-03     3.75399E-03    -26.7732E-03    -3.31890E-03    -10.5978E-03     4.26024E-03    -5.54783E-03     134.272E-03    -49.9378E-03    -84.4554E-03    -79.3003E-03     129.117E-03    -49.9378E-03     52.0799E-03     120.325E+06     85.4372E+06    -5.22190E+06    -3.93716E+06     111.365E+06     93.1116E+06    -10.4715E+06         48.7880
            1923     967.192E-06     110.303E-03     82.5607E-03     10.5703E-03    -93.1459E-03     23.9945E-03    -34.5797E-03     10.5703E-03     7.62568E-03     67.2870E-03    -33.4091E-03    -33.8787E-03    -33.6597E-03     67.0680E-03    -33.4091E-03     8.68845E-03     13.5812E+06     6.24819E+06    -38.8424E+06     9.46709E+06    -38.5275E+06     10.0474E+06    -436.871E+03         24.9355
            1924     1.93384E-03     110.305E-03     69.6993E-03     12.3624E-03    -80.2863E-03     7.74852E-03    -21.3206E-03     15.3475E-03    -20.7081E-03     67.3140E-03    -33.4409E-03    -33.8749E-03    -33.1994E-03     66.6385E-03    -33.4409E-03     15.9035E-03     3.47691E+06    -457.292E+03    -39.4910E+06     2.41445E+06    -38.8958E+06     10.0196E+03    -2.63644E+06         24.9600
            1925     2.90159E-03     110.309E-03     32.5276E-03     7.22885E-03    -39.5758E-03    -8.92917E-03    -1.10410E-03     10.2139E-03    -1.20526E-03     67.5276E-03    -33.2705E-03    -34.2576E-03    -32.7990E-03     66.0689E-03    -33.2705E-03     23.6860E-03    -7.98329E+06    -13.5837E+06    -48.9657E+06    -9.60101E+06    -47.3480E+06    -13.5837E+06    -3.26125E+06         25.0193
            1926     3.86920E-03     110.314E-03     31.1031E-03     6.28677E-03    -33.9312E-03     471.505E-06    -3.29966E-03     6.28677E-03     1.19931E-03     68.2502E-03    -33.1263E-03    -35.1232E-03    -32.5371E-03     65.6641E-03    -33.1263E-03     31.8189E-03    -22.0106E+06    -26.3325E+06    -64.6174E+06    -25.6816E+06    -61.4903E+06    -25.7886E+06    -318.217E+03         25.1347
            1927     4.83752E-03     110.321E-03     37.8246E-03     6.53038E-03    -39.3885E-03     16.0297E-03    -17.5936E-03     6.53038E-03     31.3930E-03     69.6792E-03    -33.0416E-03    -36.6457E-03    -32.5926E-03     65.6260E-03    -33.0416E-03     40.2955E-03    -31.7865E+06    -37.9813E+06    -74.6773E+06    -43.1822E+06    -68.7617E+06    -32.5011E+06     4.12714E+06         25.3335
            1928     5.80500E-03     110.332E-03     33.3335E-03     7.05683E-03    -34.5465E-03     1.97946E-03    -3.19247E-03     7.05683E-03     24.2847E-03     72.1726E-03    -33.0848E-03    -39.0855E-03    -33.3144E-03     66.4015E-03    -33.0848E-03     48.9983E-03    -29.3472E+06    -49.2110E+06    -80.0639E+06    -58.0448E+06    -71.2301E+06    -29.3472E+06     6.59665E+06         25.6651
            1929     6.77193E-03     110.347E-03     23.9604E-03     6.15803E-03    -27.7177E-03    -183.381E-06    -3.57391E-03     6.15803E-03    -14.1139E-03     75.9471E-03    -33.3365E-03    -42.6370E-03    -35.0638E-03     68.3739E-03    -33.3365E-03     57.7258E-03    -17.9661E+06    -58.0664E+06    -76.8605E+06    -66.2503E+06    -68.6766E+06    -17.9661E+06     5.34856E+06         26.1971
            1930     7.73627E-03     110.367E-03     23.4269E-03     6.11424E-03    -30.0379E-03     12.3880E-03    -18.9990E-03     6.11424E-03     10.7374E-03     80.9822E-03    -33.8233E-03    -47.1733E-03    -37.9428E-03     71.7517E-03    -33.8233E-03     66.0873E-03    -3.37224E+06    -57.0826E+06    -70.5170E+06    -67.4774E+06    -60.1222E+06    -3.37224E+06     786.822E+03         26.9819
            1931     8.69773E-03     110.393E-03     17.0777E-03     6.74932E-03    -26.6448E-03     10.9732E-03    -20.6137E-03     6.82262E-03     20.1155E-03     87.2850E-03    -34.5803E-03    -52.6884E-03    -42.0509E-03     76.6475E-03    -34.5803E-03     74.0663E-03     9.24864E+06    -50.5415E+06    -67.6809E+06    -63.8615E+06    -54.3610E+06     9.24864E+06    -5.36657E+06         28.0380
            1932     9.65464E-03     110.426E-03     14.7922E-03     6.31901E-03    -24.2520E-03     2.88975E-03    -12.9895E-03     6.95897E-03     14.0331E-03     94.4397E-03    -35.6461E-03    -58.8176E-03    -47.3790E-03     83.0011E-03    -35.6461E-03     80.4614E-03     16.3529E+06    -40.5394E+06    -68.0477E+06    -57.8165E+06    -50.7706E+06     16.3529E+06    -12.6390E+06         29.3645
            1933     10.6059E-03     110.464E-03     16.1424E-03     5.78165E-03    -23.4898E-03    -4.26566E-03    -3.64845E-03     6.34831E-03     14.4028E-03     102.089E-03    -36.9802E-03    -65.1580E-03    -53.5848E-03     90.5159E-03    -36.9802E-03     84.8161E-03     20.6232E+06    -24.0701E+06    -67.2431E+06    -51.7543E+06    -39.5589E+06     20.6232E+06    -20.0426E+06         30.9607
            1934     11.5517E-03     110.508E-03     9.83085E-03     5.49195E-03    -16.6546E-03    -694.209E-06    -6.26007E-03     5.62248E-03    -30.8137E-06     110.402E-03    -38.5992E-03    -71.8333E-03    -60.4158E-03     98.9841E-03    -38.5992E-03     88.2657E-03     18.4729E+06    -12.9230E+06    -74.0215E+06    -47.0779E+06    -39.8666E+06     18.4729E+06    -28.7453E+06         32.9420
            1935     12.4908E-03     110.559E-03     9.04365E-03     5.19012E-03    -15.0404E-03     4.93767E-03    -11.0649E-03     5.32064E-03     1.46666E-03     118.609E-03    -40.4829E-03    -78.1308E-03    -67.3806E-03     107.859E-03    -40.4829E-03     89.3381E-03     15.1773E+06    -4.58818E+06    -75.6858E+06    -38.1441E+06    -42.1299E+06     15.1773E+06    -34.5088E+06         35.5285
            1936     13.4240E-03     110.616E-03     17.9494E-03     5.43297E-03    -23.6559E-03     10.1694E-03    -15.8759E-03     5.43297E-03     7.07151E-03     126.223E-03    -42.5409E-03    -83.6816E-03    -73.5004E-03     116.042E-03    -42.5409E-03     90.1580E-03     36.8467E+06     18.2274E+06    -52.3175E+06    -27.4484E+06     4.55436E+06     25.6506E+06    -32.1117E+06         38.8250
            1937     14.3509E-03     110.685E-03     18.0549E-03     5.79746E-03    -23.5633E-03     12.5823E-03    -18.0907E-03     5.79746E-03     4.94923E-03     131.102E-03    -44.7621E-03    -86.3278E-03    -78.7047E-03     123.479E-03    -44.7621E-03     78.7137E-03     67.1837E+06     44.5404E+06    -31.1384E+06    -19.9114E+06     55.9567E+06     44.5404E+06    -29.0972E+06         42.6906
            1938     15.2740E-03     110.736E-03     16.2399E-03     5.96971E-03    -20.0828E-03     3.23171E-03    -7.07466E-03     5.96971E-03     13.2323E-03     138.539E-03    -47.0498E-03    -91.4850E-03    -83.9382E-03     130.992E-03    -47.0498E-03     81.0884E-03     87.1539E+06     55.9793E+06    -16.9599E+06    -11.1579E+06     81.3518E+06     55.9793E+06    -19.9659E+06         46.5588
            1939     16.1899E-03     110.833E-03     18.0932E-03     5.16351E-03    -20.3247E-03    -4.62368E-03     1.88597E-03     5.66976E-03    -2.72618E-03     142.295E-03    -49.4640E-03    -92.8885E-03    -87.7790E-03     137.186E-03    -49.4640E-03     55.2958E-03     110.706E+06     80.4075E+06    -5.51978E+06    -4.54145E+06     99.1566E+06     90.9789E+06    -7.52147E+06         49.7212
            1940     973.254E-06     111.365E-03     90.4061E-03    -2.81498E-03    -77.0122E-03    -6.23461E-03     52.0915E-03    -35.2780E-03    -42.4873E-03     53.8048E-03    -26.7269E-03    -27.0795E-03    -26.8024E-03     53.5277E-03    -26.7269E-03     8.75864E-03    -12.3012E+06    -22.4895E+06    -45.5359E+06    -17.8153E+06    -41.1877E+06    -21.3235E+06     2.40489E+06         23.9772
            1941     1.94746E-03     111.367E-03     74.9819E-03    -4.79031E-03    -64.1023E-03     10.4156E-03     10.2594E-03    -14.5857E-03    -49.6196E-03     53.9570E-03    -26.6517E-03    -27.3098E-03    -26.4616E-03     53.1088E-03    -26.6517E-03     15.9631E-03    -20.0469E+06    -32.5355E+06    -51.5731E+06    -27.7504E+06    -41.7037E+06    -34.7014E+06     7.41500E+06         24.0031
            1942     2.92116E-03     111.370E-03     47.6402E-03    -3.05788E-03    -38.3734E-03     28.9781E-03    -19.7112E-03    -3.05788E-03    -6.22764E-03     54.6172E-03    -26.5366E-03    -28.0869E-03    -26.2485E-03     52.7789E-03    -26.5366E-03     23.9210E-03    -31.0314E+06    -47.6435E+06    -67.4040E+06    -44.9899E+06    -53.4456E+06    -47.6435E+06     13.7407E+06         24.0726
            1943     3.89553E-03     111.375E-03     37.3448E-03     3.68445E-03    -34.7976E-03     15.2977E-03    -12.7505E-03     3.68445E-03    -38.6651E-03     56.1576E-03    -26.5201E-03    -29.6412E-03    -26.3766E-03     52.8929E-03    -26.5201E-03     32.4236E-03    -43.9421E+06    -54.3891E+06    -86.9326E+06    -62.6627E+06    -68.7560E+06    -53.8452E+06     19.0687E+06         24.2302
            1944     4.86906E-03     111.383E-03     29.0404E-03     4.44399E-03    -25.3806E-03    -1.88302E-03     5.54283E-03     4.44399E-03    -10.5989E-03     58.8544E-03    -26.6486E-03    -32.2082E-03    -27.1613E-03     53.8076E-03    -26.6486E-03     41.3563E-03    -47.4873E+06    -54.3874E+06    -97.1430E+06    -74.7482E+06    -74.4806E+06    -49.7890E+06     21.7418E+06         24.5219
            1945     5.84192E-03     111.394E-03     29.1271E-03     4.06630E-03    -30.0373E-03     7.88465E-03    -8.79485E-03     4.06630E-03     3.27651E-03     62.9114E-03    -26.9712E-03    -35.9451E-03    -28.8748E-03     55.8412E-03    -26.9712E-03     50.7220E-03    -36.2489E+06    -54.3781E+06    -95.9624E+06    -78.9250E+06    -71.4155E+06    -36.2489E+06     20.0781E+06         24.9980
            1946     6.81214E-03     111.412E-03     32.8464E-03     5.58922E-03    -40.4977E-03     22.7919E-03    -30.4431E-03     5.58922E-03    -23.0291E-03     68.3702E-03    -27.5514E-03    -40.8597E-03    -31.7205E-03     59.2310E-03    -27.5514E-03     60.3386E-03    -17.9562E+06    -53.9969E+06    -85.7744E+06    -76.9189E+06    -62.8524E+06    -17.9562E+06     13.2160E+06         25.7074
            1947     7.77955E-03     111.437E-03     31.1598E-03     7.87909E-03    -43.8638E-03     24.7984E-03    -37.5024E-03     7.87909E-03    -1.43537E-03     75.1929E-03    -28.4088E-03    -46.8414E-03    -35.8598E-03     64.2113E-03    -28.4088E-03     69.7417E-03    -462.665E+03    -50.4201E+06    -72.7521E+06    -70.8311E+06    -52.3412E+06    -462.665E+03     4.57028E+06         26.6722
            1948     8.74226E-03     111.469E-03     21.8920E-03     6.48806E-03    -34.6255E-03     11.2248E-03    -26.5235E-03     9.05323E-03     1.47732E-03     83.4902E-03    -29.5639E-03    -53.8853E-03    -41.3646E-03     70.9695E-03    -29.5639E-03     78.9977E-03     12.1349E+06    -42.8921E+06    -65.1948E+06    -63.1368E+06    -44.9501E+06     12.1349E+06    -3.90967E+06         27.8969
            1949     9.69929E-03     111.510E-03     8.77727E-03     5.26452E-03    -18.9116E-03    -7.16404E-03    -6.10214E-03     8.39636E-03    -1.87256E-03     92.6431E-03    -31.0980E-03    -61.5067E-03    -48.1668E-03     79.3032E-03    -31.0980E-03     86.5948E-03     19.8922E+06    -30.7809E+06    -63.2171E+06    -55.0827E+06    -38.9153E+06     19.8922E+06    -13.1807E+06         29.3863
            1950     10.6497E-03     111.558E-03     9.95223E-03     6.34609E-03    -18.9168E-03    -9.23299E-03    -298.232E-06     6.91275E-03     4.39622E-03     102.387E-03    -32.9684E-03    -69.4690E-03    -56.1522E-03     89.0702E-03    -32.9684E-03     91.8053E-03     24.7055E+06    -16.0689E+06    -60.6809E+06    -46.6680E+06    -30.0819E+06     24.7055E+06    -20.5772E+06         31.1458
            1951     11.5921E-03     111.613E-03     10.0666E-03     5.71058E-03    -17.7283E-03    -6.91337E-03    -748.333E-06     5.71058E-03     4.79347E-03     112.798E-03    -35.1659E-03    -77.6631E-03    -64.8183E-03     99.9533E-03    -35.1659E-03     95.4343E-03     26.4326E+06    -4.08449E+06    -61.7843E+06    -39.9792E+06    -25.8896E+06     26.4326E+06    -27.5235E+06         33.2934
            1952     12.5265E-03     111.676E-03     9.68383E-03     5.04710E-03    -16.4318E-03     145.286E-06    -6.89322E-03     5.04710E-03     3.40486E-03     123.111E-03    -37.6660E-03    -85.4662E-03    -73.6546E-03     111.299E-03    -37.6660E-03     96.2688E-03     18.9414E+06     3.41993E+06    -73.2428E+06    -37.9060E+06    -31.9168E+06     18.9414E+06    -37.7033E+06         36.0500
            1953     13.4521E-03     111.744E-03     16.8526E-03     5.15517E-03    -22.8434E-03     13.2909E-03    -19.2817E-03     5.15517E-03    -1.70416E-03     132.615E-03    -40.3853E-03    -92.2952E-03    -81.5420E-03     121.862E-03    -40.3853E-03     95.9128E-03     36.1882E+06     22.1061E+06    -62.8945E+06    -31.4046E+06     2.55695E+06     24.2474E+06    -40.3912E+06         39.5202
            1954     14.3724E-03     111.822E-03     22.0724E-03     5.82562E-03    -26.9590E-03     18.0730E-03    -22.9595E-03     5.82562E-03     5.76573E-03     138.763E-03    -43.2714E-03    -95.5184E-03    -87.5459E-03     130.790E-03    -43.2714E-03     83.8068E-03     66.4779E+06     43.5935E+06    -36.3003E+06    -21.5240E+06     51.7016E+06     43.5935E+06    -32.0459E+06         43.4984
            1955     15.2846E-03     111.882E-03     23.0022E-03     6.64839E-03    -24.7850E-03     20.6437E-03    -22.4265E-03     6.64839E-03     11.8281E-03     146.450E-03    -46.1473E-03    -100.289E-03    -92.1869E-03     138.348E-03    -46.1473E-03     87.0288E-03      76.704E+06     49.2117E+06    -25.0339E+06    -17.1529E+06     68.8230E+06     49.2117E+06    -23.5826E+06         47.3649
            1956     16.1977E-03     111.985E-03     24.8290E-03     7.18844E-03    -20.0731E-03     10.2897E-03    -5.53377E-03     7.18844E-03     7.52639E-03     149.349E-03    -49.0459E-03    -100.500E-03    -94.9827E-03     143.832E-03    -49.0459E-03     60.7956E-03     101.109E+06     70.3708E+06    -9.43013E+06    -6.14353E+06     83.6329E+06     84.5603E+06    -11.3355E+06         50.4926
            1957     980.459E-06     112.412E-03     87.0109E-03    -18.6080E-03    -63.7405E-03    -6.07420E-03     61.8076E-03    -51.0711E-03    -11.1347E-03     40.2099E-03    -19.8996E-03    -20.3107E-03    -19.9915E-03     39.8907E-03    -19.8996E-03     8.12060E-03    -41.9452E+06    -60.8231E+06    -77.5101E+06    -63.0443E+06    -54.2450E+06    -62.9891E+06     10.4921E+06         23.0036
            1958     1.96042E-03     112.415E-03     55.7815E-03    -11.0715E-03    -43.1549E-03     9.77092E-03     12.6511E-03    -20.8669E-03     5.20964E-03     40.6909E-03    -19.8858E-03    -20.8121E-03    -19.8385E-03     39.7173E-03    -19.8858E-03     14.8690E-03    -44.3181E+06    -78.0868E+06    -94.4513E+06    -78.5067E+06    -58.0969E+06    -80.2527E+06     20.7842E+06         23.0608
            1959     2.94115E-03     112.417E-03     41.8576E-03    -8.96050E-03    -33.5839E-03     14.8677E-03    -6.37592E-03    -9.17852E-03     14.3950E-03     42.0850E-03    -19.9283E-03    -22.1634E-03    -20.0492E-03     39.9708E-03    -19.9283E-03     22.5238E-03    -46.9099E+06    -83.8234E+06    -110.010E+06    -89.5828E+06    -67.3369E+06    -83.8234E+06     28.5296E+06         23.1880
            1960     3.92088E-03     112.422E-03     38.6946E-03    -3.32941E-03    -32.9670E-03     9.63085E-03    -3.68521E-03    -3.54742E-03    -13.4134E-03     44.7631E-03    -20.1321E-03    -24.6160E-03    -20.8590E-03     41.0062E-03    -20.1321E-03     31.1073E-03    -53.4064E+06    -75.2911E+06    -118.366E+06    -93.2339E+06    -78.5385E+06    -75.2911E+06     31.3289E+06         23.4396
            1961     4.89990E-03     112.431E-03     36.5962E-03    -414.892E-06    -34.8443E-03     14.7167E-03    -12.9648E-03    -414.892E-06     5.96866E-03     48.8538E-03    -20.5512E-03    -28.3070E-03    -22.5187E-03     43.0655E-03    -20.5512E-03     40.4444E-03    -52.4743E+06    -60.0495E+06    -115.201E+06    -90.7249E+06    -78.5252E+06    -58.4752E+06     29.7432E+06         23.8647
            1962     5.87631E-03     112.446E-03     39.6584E-03     3.74485E-03    -44.8152E-03     35.2281E-03    -40.3849E-03     3.74485E-03     17.1717E-03     54.4624E-03    -21.2044E-03    -33.2703E-03    -25.2106E-03     46.4027E-03    -21.2044E-03     50.5387E-03    -37.6228E+06    -51.1086E+06    -101.080E+06    -83.9773E+06    -68.0736E+06    -37.7604E+06     23.3832E+06         24.5002
            1963     6.85014E-03     112.469E-03     29.6444E-03     5.38105E-03    -39.5777E-03     20.4918E-03    -32.4098E-03     7.36568E-03     6.81905E-03     61.5161E-03    -22.1309E-03    -39.3913E-03    -29.0282E-03     51.1530E-03    -22.1309E-03     61.1724E-03    -16.1903E+06    -46.0712E+06    -83.0068E+06    -74.7830E+06    -54.2950E+06    -16.1903E+06     14.3518E+06         25.3681
            1964     7.81950E-03     112.500E-03     19.0282E-03     5.95479E-03    -31.2004E-03     1.91992E-03    -16.0768E-03     7.93942E-03    -23.3234E-03     70.0206E-03    -23.3738E-03    -46.7143E-03    -34.2191E-03     57.5254E-03    -23.3738E-03     72.1107E-03     1.44798E+06    -40.8402E+06    -67.5688E+06    -65.4716E+06    -42.9373E+06     1.44798E+06     4.78723E+06         26.4802
            1965     8.78354E-03     112.540E-03     21.7415E-03     4.98151E-03    -34.2881E-03     7.48379E-03    -22.5223E-03     7.47338E-03    -18.2533E-03     80.1301E-03    -24.9314E-03    -55.2104E-03    -40.9196E-03     65.8393E-03    -24.9314E-03     83.1201E-03     14.8784E+06    -31.0976E+06    -57.8389E+06    -55.7820E+06    -33.1546E+06     14.8784E+06    -5.28354E+06         27.8460
            1966     9.74083E-03     112.591E-03     15.6472E-03     4.81101E-03    -27.1013E-03     6.13463E-03    -20.0806E-03     7.30288E-03     5.16145E-03     91.3343E-03    -26.8894E-03    -64.4158E-03    -49.1385E-03     76.0570E-03    -26.8894E-03     92.5587E-03     25.2715E+06    -16.3167E+06    -54.8919E+06    -45.1822E+06    -26.0264E+06     25.2715E+06    -15.7507E+06         29.4726
            1967     10.6898E-03     112.650E-03     9.98076E-03     6.83640E-03    -19.8707E-03    -1.26369E-03    -8.62622E-03     6.83640E-03     6.50033E-03     103.332E-03    -29.2465E-03    -74.0775E-03    -58.7524E-03     88.0067E-03    -29.2465E-03     99.5491E-03     30.6085E+06    -5.63378E+06    -53.0616E+06    -35.7541E+06    -22.9412E+06     30.6085E+06    -22.4711E+06         31.3664
            1968     11.6293E-03     112.720E-03     11.1780E-03     6.05657E-03    -21.4013E-03    -4.23051E-03    -5.99274E-03     6.05657E-03     475.968E-06     115.899E-03    -31.9801E-03    -83.8704E-03    -69.0685E-03     101.098E-03    -31.9801E-03     104.498E-03     34.6350E+06     7.73332E+06    -50.6301E+06    -28.8807E+06    -14.0161E+06     34.6350E+06    -27.2232E+06         33.6438
            1969     12.5590E-03     112.796E-03     13.3719E-03     5.58255E-03    -24.5158E-03     3.20175E-03    -14.3457E-03     5.58255E-03    -4.57798E-03     128.398E-03    -35.0603E-03    -93.3096E-03    -79.6130E-03     114.701E-03    -35.0603E-03     106.544E-03     29.7593E+06     13.6427E+06    -57.0310E+06    -24.7971E+06    -18.5912E+06     29.7593E+06    -33.1422E+06         36.5190
            1970     13.4794E-03     112.878E-03     12.7263E-03     5.67250E-03    -24.1111E-03     8.93258E-03    -20.3174E-03     5.67250E-03     7.90473E-03     139.681E-03    -38.3797E-03    -101.352E-03    -88.9718E-03     127.300E-03    -38.3797E-03     106.265E-03     49.2366E+06     27.1940E+06    -57.3208E+06    -25.0160E+06     11.2680E+06     32.8577E+06    -41.3857E+06         40.0874
            1971     14.3908E-03     112.967E-03     16.6830E-03     6.03501E-03    -24.8631E-03     12.1659E-03    -20.3461E-03     6.03501E-03     16.0165E-03     146.187E-03    -41.8401E-03    -104.378E-03    -95.2656E-03     137.075E-03    -41.8401E-03     92.6280E-03     66.2054E+06     44.0225E+06    -44.8374E+06    -18.5348E+06     39.9029E+06     44.0225E+06    -40.9826E+06         44.1221
            1972     15.3007E-03     113.035E-03     23.6550E-03     6.58714E-03    -26.9705E-03     18.9116E-03    -22.2271E-03     6.58714E-03    -412.210E-06     154.023E-03    -45.2597E-03    -108.749E-03    -99.7772E-03     145.051E-03    -45.2597E-03     94.6661E-03     70.7620E+06     54.4748E+06    -26.9829E+06    -8.00174E+06     51.7808E+06     54.4748E+06    -22.0696E+06         47.9965
            1973     16.2040E-03     113.145E-03     23.8601E-03     7.10669E-03    -25.7234E-03     14.7082E-03    -16.5715E-03     7.10669E-03     8.83014E-03     157.221E-03    -48.6415E-03    -108.729E-03    -102.719E-03     151.211E-03    -48.6415E-03     66.3536E-03     98.2834E+06     70.1242E+06    -16.5654E+06    -10.5831E+06     74.6250E+06     87.8003E+06    -9.96145E+06         51.1158
            1974     986.228E-06     113.446E-03     58.7612E-03    -1.47028E-03    -70.5151E-03    -6.08625E-03    -22.4016E-03     15.2637E-03    -25.6311E-03     27.6033E-03    -13.5118E-03    -14.0915E-03    -13.7415E-03     27.2533E-03    -13.5118E-03     7.05254E-03    -73.7892E+06    -141.433E+06    -159.405E+06    -150.342E+06    -80.6397E+06    -143.646E+06     19.4617E+06         22.1422
            1975     1.97287E-03     113.447E-03     33.7137E-03    -1.39681E-03    -40.6604E-03    -10.3894E-03     401.511E-06     1.64433E-03    -2.36911E-03     28.9473E-03    -13.7879E-03    -15.1662E-03    -14.1163E-03     27.8975E-03    -13.7879E-03     13.0613E-03    -67.6613E+06    -134.330E+06    -153.184E+06    -142.270E+06    -78.5755E+06    -134.330E+06     26.0568E+06         22.2581
            1976     2.95827E-03     113.451E-03     23.6123E-03    -2.70224E-03    -28.8425E-03    -12.5948E-03     7.58258E-03    -2.92025E-03     39.6551E-03     31.2954E-03    -14.0939E-03    -17.1982E-03    -14.9398E-03     29.0369E-03    -14.0939E-03     20.1518E-03    -67.2405E+06    -121.734E+06    -144.663E+06    -130.973E+06    -80.9306E+06    -121.734E+06     28.2076E+06         22.4790
            1977     3.94310E-03     113.458E-03     27.9917E-03    -3.09753E-03    -32.4324E-03     5.92136E-03    -10.1440E-03    -3.31554E-03     28.9320E-03     35.0555E-03    -14.5838E-03    -20.4432E-03    -16.4503E-03     31.0627E-03    -14.5838E-03     28.4891E-03    -68.9581E+06    -101.172E+06    -133.900E+06    -116.774E+06    -86.0846E+06    -101.172E+06     27.7437E+06         22.8494
            1978     4.92572E-03     113.469E-03     38.6153E-03     1.26246E-03    -45.9270E-03     34.9242E-03    -42.2359E-03     1.26246E-03     7.35499E-03     40.2867E-03    -15.3028E-03    -25.0016E-03    -18.8120E-03     34.0971E-03    -15.3028E-03     38.1223E-03    -62.6777E+06    -74.5267E+06    -115.921E+06    -100.036E+06    -78.5626E+06    -74.5267E+06     23.3716E+06         23.4040
            1979     5.90604E-03     113.489E-03     33.7938E-03     5.66621E-03    -42.8058E-03     27.8418E-03    -37.6174E-03     6.42981E-03     4.79387E-03     47.0627E-03    -16.2580E-03    -30.8351E-03    -22.1417E-03     38.3693E-03    -16.2580E-03     48.9734E-03    -44.3795E+06    -53.6253E+06    -92.0876E+06    -81.8395E+06    -62.9514E+06    -45.3014E+06     16.3304E+06         24.1672
            1980     6.88231E-03     113.517E-03     19.9170E-03     5.24361E-03    -29.3227E-03     5.50107E-03    -17.6550E-03     7.99183E-03    -768.455E-06     55.4541E-03    -17.4711E-03    -37.9850E-03    -26.6757E-03     44.1448E-03    -17.4711E-03     60.8927E-03    -18.6267E+06    -42.0670E+06    -70.0698E+06    -65.2460E+06    -46.8907E+06    -18.6267E+06     9.12481E+06         25.1566
            1981     7.85410E-03     113.555E-03     15.6058E-03     5.20821E-03    -25.5085E-03    -2.32467E-03    -9.56265E-03     7.19283E-03    -13.0515E-03     65.4783E-03    -19.0186E-03    -46.4805E-03    -32.6522E-03     51.6500E-03    -19.0186E-03     73.6224E-03     3.70788E+06    -31.2161E+06    -52.7542E+06    -51.0804E+06    -32.8900E+06     3.70788E+06     1.29363E+06         26.3848
            1982     8.81949E-03     113.605E-03     22.9650E-03     6.23988E-03    -32.9762E-03    -1.07109E-03    -8.94015E-03     6.23988E-03     9.57807E-03     77.1898E-03    -20.9183E-03    -56.3236E-03    -40.2947E-03     61.1610E-03    -20.9183E-03     86.7290E-03     20.8843E+06    -18.2224E+06    -43.3513E+06    -40.0235E+06    -21.5501E+06     20.8843E+06    -7.47603E+06         27.8627
            1983     9.77722E-03     113.668E-03     20.1328E-03     4.58332E-03    -27.8951E-03     3.58210E-03    -12.4781E-03     5.71700E-03     11.1340E-03     90.3454E-03    -23.2065E-03    -67.1580E-03    -49.6989E-03     72.8863E-03    -23.2065E-03     98.7863E-03     31.9579E+06    -2.83801E+06    -42.6151E+06    -32.9458E+06    -12.5073E+06     31.9579E+06    -16.8907E+06         29.5983
            1984     10.7254E-03     113.742E-03     15.2104E-03     4.40816E-03    -23.3065E-03     7.11552E-03    -16.3453E-03     5.54184E-03    -15.2902E-03     104.373E-03    -25.9422E-03    -78.3919E-03    -60.5416E-03     86.5230E-03    -25.9422E-03     108.355E-03     37.4008E+06     6.13143E+06    -46.9261E+06    -25.8533E+06    -14.9414E+06     37.4008E+06    -25.0901E+06         31.5970
            1985     11.6635E-03     113.826E-03     20.1433E-03     5.78548E-03    -31.0742E-03     12.9722E-03    -23.9031E-03     5.78548E-03    -14.8110E-03     118.817E-03    -29.0894E-03    -89.6784E-03    -72.1542E-03     101.292E-03    -29.0894E-03     115.514E-03     42.9941E+06     18.3289E+06    -42.0777E+06    -17.1458E+06    -6.60300E+06     42.9941E+06    -28.8707E+06         33.9704
            1986     12.5907E-03     113.920E-03     14.8183E-03     4.33315E-03    -25.2528E-03     9.67960E-03    -21.9765E-03     6.19551E-03    -11.0661E-03     133.304E-03    -32.6063E-03    -100.667E-03    -84.1413E-03     116.779E-03    -32.6063E-03     119.628E-03     43.6477E+06     27.3241E+06    -43.8623E+06    -8.79900E+06    -7.73920E+06     43.6477E+06    -33.4734E+06         36.9217
            1987     13.5064E-03     114.018E-03     8.55251E-03     3.94470E-03    -17.2030E-03     635.487E-06    -11.4875E-03     6.14626E-03    -2.02668E-03     146.360E-03    -36.3954E-03    -109.946E-03    -95.1459E-03     131.560E-03    -36.3954E-03     119.312E-03     55.5512E+06     38.0531E+06    -34.9232E+06    -4.86782E+06     18.0649E+06     45.4840E+06    -32.9943E+06         40.5221
            1988     14.4145E-03     114.120E-03     11.8697E-03     5.41778E-03    -17.5012E-03     848.731E-06    -6.81950E-03     5.75698E-03    -6.38084E-03     153.813E-03    -40.3907E-03    -113.427E-03    -103.007E-03     143.393E-03    -40.3907E-03     101.896E-03     61.8449E+06     47.2962E+06    -35.7631E+06    -16.2645E+06     40.0861E+06     49.5564E+06    -31.8756E+06         44.5653
            1989     15.3142E-03     114.193E-03     15.2952E-03     5.33614E-03    -19.6692E-03     804.040E-06    -5.17806E-03     5.33614E-03    -25.3470E-03     161.910E-03    -44.3173E-03    -117.620E-03    -108.009E-03     152.300E-03    -44.3173E-03     101.145E-03     66.6201E+06     42.1862E+06    -48.8001E+06    -18.1799E+06     33.7397E+06     44.4464E+06    -33.8079E+06         48.4710
            1990     16.2128E-03     114.317E-03     14.9149E-03     5.00448E-03    -20.3217E-03     4.22757E-03    -9.63436E-03     5.00448E-03    -15.8123E-03     165.335E-03    -48.1760E-03    -117.210E-03    -110.788E-03     158.913E-03    -48.1760E-03     71.7538E-03     100.770E+06     64.7013E+06    -24.8626E+06     5.27999E+06     54.5112E+06     80.8177E+06    -13.9427E+06         51.6211
            1991     991.846E-06     114.468E-03     63.1009E-03     7.02727E-03    -88.5024E-03     11.9785E-03    -54.1140E-03     23.7613E-03    -53.7262E-03     18.0122E-03    -8.72537E-03    -9.28625E-03    -8.90739E-03     17.6710E-03    -8.76309E-03     5.69216E-03    -103.364E+06    -211.574E+06    -221.335E+06    -214.270E+06    -105.348E+06    -216.655E+06     8.93868E+06         21.5422
            1992     1.98189E-03     114.470E-03     38.6359E-03     6.15977E-03    -57.0601E-03    -1.85753E-03    -24.2965E-03     13.8896E-03    -16.8225E-03     19.8824E-03    -9.07326E-03    -10.8110E-03    -9.78220E-03     18.8536E-03    -9.07326E-03     10.7994E-03    -86.9381E+06    -187.234E+06    -200.763E+06    -192.097E+06    -90.0913E+06    -192.747E+06     10.6848E+06         21.7114
            1993     2.97166E-03     114.474E-03     19.4942E-03     2.48878E-03    -37.2708E-03    -9.07673E-03    -13.4770E-03     7.26584E-03     48.1740E-03     23.0182E-03    -9.56623E-03    -13.4470E-03    -11.1920E-03     20.7632E-03    -9.56623E-03     17.3770E-03    -82.9207E+06    -164.215E+06    -180.731E+06    -167.305E+06    -86.9432E+06    -173.618E+06     8.96047E+06         22.0119
            1994     3.95938E-03     114.484E-03     27.1086E-03     3.66020E-03    -45.5358E-03    -3.15154E-03    -15.3640E-03     3.74855E-03    -2.59621E-03     27.6109E-03    -10.3001E-03    -17.2980E-03    -13.2582E-03     23.5711E-03    -10.3001E-03     25.5815E-03    -80.8505E+06    -135.860E+06    -154.307E+06    -139.721E+06    -87.4466E+06    -143.850E+06     5.38248E+06         22.4736
            1995     4.94526E-03     114.499E-03     32.9306E-03     3.13765E-03    -46.3160E-03     5.75203E-03    -19.1374E-03     3.13765E-03    -40.6778E-03     33.5899E-03    -11.2740E-03    -22.3214E-03    -16.0263E-03     27.2948E-03    -11.2740E-03     35.2744E-03    -69.3533E+06    -102.065E+06    -117.749E+06    -109.470E+06    -75.6442E+06    -104.053E+06     960.749E+03         23.1218
            1996     5.92786E-03     114.523E-03     24.3080E-03     2.74982E-03    -31.7618E-03     6.70179E-03    -14.9192E-03     3.51342E-03    -22.2116E-03     41.0292E-03    -12.4601E-03    -28.5927E-03    -19.6486E-03     32.0851E-03    -12.4601E-03     46.5494E-03    -50.7049E+06    -68.1956E+06    -87.6108E+06    -81.7105E+06    -59.2075E+06    -65.5932E+06    -2.18444E+06         23.9761
            1997     6.90720E-03     114.558E-03     25.9114E-03     3.78035E-03    -29.6945E-03     18.1462E-03    -22.6929E-03     4.54395E-03    -26.2182E-03     50.2354E-03    -13.8880E-03    -36.3777E-03    -24.5188E-03     38.3765E-03    -13.8880E-03     59.5206E-03    -26.0446E+06    -43.2405E+06    -64.1147E+06    -59.5162E+06    -43.5982E+06    -30.2853E+06    -3.31683E+06         25.0533
            1998     7.88091E-03     114.604E-03     20.6047E-03     5.96399E-03    -26.6927E-03     17.0805E-03    -23.2517E-03     6.04712E-03    -12.2872E-03     61.2919E-03    -15.6153E-03    -45.6911E-03    -30.8895E-03     46.4903E-03    -15.6153E-03     73.8466E-03    -568.923E+03    -23.6512E+06    -45.8470E+06    -43.8995E+06    -25.5988E+06    -568.923E+03    -5.87988E+06         26.3666
            1999     8.84836E-03     114.665E-03     18.0077E-03     5.85090E-03    -23.4368E-03    -6.55391E-03     1.04163E-03     5.93403E-03     2.68639E-03     74.4090E-03    -17.7078E-03    -56.7109E-03    -39.0842E-03     56.7823E-03    -17.7078E-03     89.4057E-03     21.9398E+06    -5.66826E+06    -37.3402E+06    -31.8079E+06    -11.2006E+06     21.9398E+06    -11.7610E+06         27.9263
            2000     9.80726E-03     114.741E-03     18.3642E-03     3.45585E-03    -22.0795E-03    -7.22290E-03     2.37397E-03     4.58953E-03     2.52142E-03     89.1385E-03    -20.2013E-03    -68.9376E-03    -49.1870E-03     69.3879E-03    -20.2013E-03     104.437E-03     38.7040E+06     9.68922E+06    -32.0782E+06    -20.6023E+06    -1.78671E+06     38.7040E+06    -18.2650E+06         29.7428
            2001     10.7564E-03     114.831E-03     17.8216E-03     3.32138E-03    -23.6161E-03     14.6253E-03    -21.5535E-03     4.45506E-03    -4.58402E-03     104.794E-03    -23.1517E-03    -81.5785E-03    -60.8682E-03     84.0841E-03    -23.1517E-03     116.986E-03     48.5200E+06     19.1833E+06    -34.9234E+06    -12.7746E+06    -2.96551E+06     48.5200E+06    -25.9256E+06         31.8214
            2002     11.6941E-03     114.932E-03     19.9057E-03     5.40612E-03    -29.8271E-03     17.6766E-03    -27.5980E-03     5.40612E-03    -8.27585E-03     121.036E-03    -26.5408E-03    -94.4409E-03    -73.6695E-03     100.265E-03    -26.5408E-03     126.984E-03     52.2433E+06     26.3551E+06    -35.9138E+06    -7.11651E+06    -2.44224E+06     52.2433E+06    -30.9971E+06         34.2672
            2003     12.6204E-03     115.044E-03     12.1111E-03     3.95136E-03    -17.6232E-03     5.55153E-03    -12.9260E-03     5.81372E-03    -8.98251E-03     137.252E-03    -30.3519E-03    -106.926E-03    -87.0611E-03     117.387E-03    -30.3519E-03     133.235E-03     55.7504E+06     35.1903E+06    -34.9201E+06    -3.29727E+06     3.56738E+06     55.7504E+06    -34.2413E+06         37.2712
            2004     13.5347E-03     115.161E-03     9.58049E-03     3.12787E-03    -9.89542E-03    -4.58688E-03     2.07039E-03     5.32943E-03    -5.32928E-03     152.434E-03    -34.4903E-03    -117.936E-03    -100.335E-03     134.833E-03    -34.4903E-03     133.007E-03     50.3519E+06     38.4858E+06    -28.3312E+06     333.174E+03     9.89234E+06     50.2810E+06    -31.9896E+06         40.8827
            2005     14.4356E-03     115.279E-03     12.3288E-03     4.16087E-03    -13.2124E-03    -7.03957E-03     5.81676E-03     4.50007E-03    -12.5603E-03     161.297E-03    -38.9493E-03    -122.328E-03    -110.254E-03     149.224E-03    -38.9493E-03     112.626E-03     63.9531E+06     54.5235E+06    -5.04932E+06     9.98645E+06     39.5586E+06     63.8822E+06    -20.9551E+06         44.9271
            2006     15.3279E-03     115.365E-03     16.6904E-03     3.68694E-03    -17.0852E-03    -8.12533E-03     7.73057E-03     3.68694E-03    -7.72775E-03     170.326E-03    -43.4243E-03    -126.961E-03    -116.339E-03     159.705E-03    -43.4243E-03     109.717E-03     89.1481E+06     50.5498E+06    -15.5831E+06     5.93872E+06     48.6402E+06     69.5359E+06    -24.0419E+06         48.8728
            2007     16.2184E-03     115.489E-03     18.2964E-03     2.81853E-03    -20.6433E-03    -13.2138E-03     10.8668E-03     2.81853E-03    -1.06376E-03     174.076E-03    -47.7343E-03    -126.502E-03    -119.432E-03     167.006E-03    -47.7343E-03     79.1798E-03     95.2368E+06     40.8511E+06    -44.1151E+06    -13.2736E+06     29.6218E+06     75.6246E+06    -13.6623E+06         52.0668
            2008     993.132E-06     115.481E-03     56.6661E-03     6.67787E-03    -74.7848E-03     8.02367E-03    -26.1423E-03     6.67787E-03    -24.0662E-03     13.1677E-03    -6.41716E-03    -6.74957E-03    -6.45070E-03     12.9338E-03    -6.48215E-03     3.94600E-03    -106.897E+06    -199.922E+06    -207.305E+06    -203.290E+06    -108.044E+06    -202.789E+06    -7.08801E+06         21.2537
            2009     1.98729E-03     115.486E-03     32.2443E-03     4.11115E-03    -50.7759E-03     14.7025E-03    -37.9229E-03     8.79986E-03    -33.4922E-03     14.5719E-03    -6.60120E-03    -7.96896E-03    -7.17361E-03     13.7766E-03    -6.60120E-03     8.08729E-03    -86.2813E+06    -188.639E+06    -198.003E+06    -190.638E+06    -88.1334E+06    -194.151E+06    -10.1780E+06         21.4445
            2010     2.97915E-03     115.492E-03     15.2070E-03     4.50447E-03    -37.1342E-03     3.65890E-03    -30.3632E-03     9.28154E-03     7.07357E-03     17.7339E-03    -7.02926E-03    -10.7015E-03    -8.76280E-03     15.7952E-03    -7.02926E-03     14.1901E-03    -76.5176E+06    -174.008E+06    -187.966E+06    -174.294E+06    -80.7856E+06    -183.411E+06    -15.9051E+06         21.7837
            2011     3.96955E-03     115.504E-03     23.2857E-03     6.50961E-03    -44.2693E-03    -7.20895E-03    -13.8631E-03     6.59796E-03    -19.1690E-03     22.5674E-03    -7.76102E-03    -14.8010E-03    -11.0678E-03     18.8343E-03    -7.76102E-03     22.3341E-03    -69.7728E+06    -156.038E+06    -169.918E+06    -153.055E+06    -78.6452E+06    -164.028E+06    -24.3072E+06         22.2948
            2012     4.95692E-03     115.524E-03     29.3588E-03     2.33882E-03    -41.0002E-03    -23.2879E-03     11.6465E-03     2.33882E-03    -16.6686E-03     28.7874E-03    -8.73114E-03    -20.0448E-03    -13.9877E-03     22.7303E-03    -8.73114E-03     32.1549E-03    -56.8090E+06    -137.996E+06    -142.886E+06    -128.225E+06    -69.4815E+06    -139.985E+06    -29.6240E+06         22.9970
            2013     5.94186E-03     115.553E-03     31.8829E-03     12.4909E-06    -33.7478E-03     2.39480E-03    -4.25973E-03     12.4909E-06    -1.73523E-03     36.6511E-03    -9.97773E-03    -26.6616E-03    -17.8355E-03     27.8250E-03    -9.97773E-03     43.8419E-03    -40.8349E+06    -104.203E+06    -116.707E+06    -100.684E+06    -56.6349E+06    -104.426E+06    -30.3085E+06         23.9078
            2014     6.92240E-03     115.593E-03     28.6647E-03     1.88386E-03    -28.1000E-03     25.5016E-03    -24.9368E-03     1.88386E-03    -5.38059E-03     46.2804E-03    -11.5388E-03    -34.7504E-03    -22.8491E-03     34.3790E-03    -11.5388E-03     57.3606E-03    -24.9639E+06    -61.0369E+06    -88.5403E+06    -71.4634E+06    -45.2510E+06    -57.8267E+06    -26.6063E+06         25.0420
            2015     7.89843E-03     115.649E-03     18.3669E-03     3.65433E-03    -19.1893E-03     8.24746E-03    -9.15296E-03     3.73747E-03     4.28594E-03     57.7913E-03    -13.3794E-03    -44.4197E-03    -29.2490E-03     42.6207E-03    -13.3794E-03     72.6702E-03    -5.63511E+06    -21.4593E+06    -58.6700E+06    -45.2166E+06    -25.5084E+06    -15.0395E+06    -19.9570E+06         26.4111
            2016     8.86757E-03     115.720E-03     24.4930E-03     3.93043E-03    -25.2322E-03     6.73266E-03    -7.55500E-03     4.01356E-03     2.59539E-03     71.6584E-03    -15.5419E-03    -56.0523E-03    -37.4461E-03     53.0522E-03    -15.5419E-03     90.0949E-03     18.6531E+06     5.72516E+06    -38.6001E+06    -28.3835E+06    -4.49138E+06     18.6531E+06    -18.0758E+06         28.0227
            2017     9.82881E-03     115.809E-03     25.3333E-03     4.65571E-03    -28.4812E-03     14.9706E-03    -18.1185E-03     4.65571E-03     4.75350E-03     87.1640E-03    -18.0775E-03    -69.0010E-03    -47.5304E-03     65.6935E-03    -18.0775E-03     107.495E-03     40.3947E+06     16.4206E+06    -32.8191E+06    -21.1155E+06     4.71696E+06     40.3947E+06    -20.0390E+06         29.8839
            2018     10.7801E-03     115.915E-03     17.3436E-03     5.30887E-03    -23.0900E-03     6.07241E-03    -11.8188E-03     5.30887E-03    -1.30020E-03     103.852E-03    -21.0489E-03    -82.7343E-03    -59.5227E-03     80.6402E-03    -21.0489E-03     123.043E-03     53.4017E+06     27.6926E+06    -33.8489E+06    -16.6784E+06     10.5221E+06     53.4017E+06    -26.0571E+06         32.0145
            2019     11.7201E-03     116.034E-03     18.5515E-03     4.99885E-03    -22.4213E-03    -3.91230E-03     42.4730E-06     4.99885E-03    -6.37729E-03     121.721E-03    -24.5186E-03    -97.1872E-03    -73.4155E-03     97.9493E-03    -24.5186E-03     136.029E-03     59.0287E+06     32.6166E+06    -38.7497E+06    -10.1196E+06     3.98653E+06     59.0287E+06    -33.4428E+06         34.5321
            2020     12.6465E-03     116.166E-03     18.3726E-03     4.09987E-03    -17.7673E-03    -5.69602E-03     6.30125E-03     4.09987E-03    -12.1701E-03     139.945E-03    -28.4700E-03    -111.527E-03    -88.5043E-03     116.922E-03    -28.4700E-03     144.790E-03     63.0421E+06     34.1859E+06    -32.3697E+06    -4.19855E+06     6.01480E+06     63.0421E+06    -32.1928E+06         37.6018
            2021     13.5586E-03     116.306E-03     18.2763E-03     3.33578E-03    -15.9508E-03     11.9261E-06     2.31365E-03     3.33578E-03    -17.8386E-03     157.370E-03    -32.8285E-03    -124.580E-03    -103.761E-03     136.551E-03    -32.8285E-03     147.035E-03     60.9019E+06     40.0335E+06    -27.6604E+06    -46.5646E+03     12.4196E+06     60.9019E+06    -32.8977E+06         41.2398
            2022     14.4565E-03     116.446E-03     16.0513E-03     2.99815E-03    -14.6136E-03     3.64646E-03    -2.20879E-03     2.99815E-03    -15.9227E-03     167.827E-03    -37.5803E-03    -130.267E-03    -116.081E-03     153.641E-03    -37.5803E-03     124.416E-03     61.0516E+06     47.4009E+06    -17.4452E+06     6.70881E+06     23.2468E+06     61.0516E+06    -29.9620E+06         45.2995
            2023     15.3476E-03     116.539E-03     18.9876E-03     2.79602E-03    -19.6455E-03    -873.616E-06     215.719E-06     2.79602E-03     8.56496E-03     177.479E-03    -42.5080E-03    -135.020E-03    -123.847E-03     166.306E-03    -42.5080E-03     115.669E-03     72.4538E+06     49.9235E+06    -9.61064E+06     451.975E+03     39.8609E+06     72.4538E+06    -3.98897E+06         49.2906
            2024     16.2294E-03     116.682E-03     22.5047E-03     2.42748E-03    -25.9148E-03    -6.43574E-03     3.02559E-03     2.42748E-03     27.2889E-03     181.961E-03    -47.3047E-03    -134.788E-03    -127.465E-03     174.637E-03    -47.3047E-03     84.7669E-03     87.0116E+06     36.4816E+06    -34.0107E+06    -24.0848E+06     26.5557E+06     87.0116E+06     2.76296E+06         52.5261
            2025     994.082E-06     116.494E-03     47.3042E-03     26.7931E-03    -78.5303E-03    -3.17100E-03    -28.0551E-03     26.7931E-03    -22.8765E-03     12.7018E-03    -6.24944E-03    -6.45163E-03    -6.25101E-03     12.6079E-03    -6.35615E-03     2.25318E-03    -88.5162E+06    -151.954E+06    -160.160E+06    -156.607E+06    -91.2081E+06    -152.814E+06    -12.2376E+06         21.2406
            2026     1.98710E-03     116.497E-03     31.6182E-03     9.93467E-03    -52.3187E-03     2.14262E-03    -22.8430E-03     9.93467E-03     22.4814E-03     13.6319E-03    -6.44178E-03    -7.18793E-03    -6.77419E-03     13.2181E-03    -6.44178E-03     5.32795E-03    -67.8857E+06    -140.816E+06    -155.334E+06    -148.992E+06    -74.2276E+06    -140.816E+06    -21.0904E+06         21.4234
            2027     2.98073E-03     116.507E-03     28.5024E-03     6.46080E-03    -50.0941E-03    -2.90789E-03    -18.6839E-03     6.46080E-03     22.5670E-03     16.0485E-03    -6.78018E-03    -9.26394E-03    -8.04327E-03     14.8278E-03    -6.78018E-03     10.4553E-03    -53.5605E+06    -131.152E+06    -150.546E+06    -139.378E+06    -64.7283E+06    -131.152E+06    -29.6728E+06         21.7651
            2028     3.97169E-03     116.522E-03     19.0552E-03     4.34962E-03    -33.8584E-03     237.027E-06    -15.0403E-03     4.34962E-03    -11.2028E-03     20.1031E-03    -7.36177E-03    -12.7372E-03    -10.0519E-03     17.4178E-03    -7.36177E-03     17.7200E-03    -42.5434E+06    -123.745E+06    -150.099E+06    -131.820E+06    -60.8226E+06    -123.745E+06    -39.6506E+06         22.2903
            2029     4.96110E-03     116.546E-03     24.8100E-03     3.27449E-03    -32.5199E-03    -2.42879E-03    -5.28104E-03     3.27449E-03     12.2025E-03     25.9007E-03    -8.16553E-03    -17.7322E-03    -12.8480E-03     21.0166E-03    -8.16553E-03     27.3446E-03    -30.7149E+06    -117.969E+06    -149.611E+06    -123.724E+06    -56.6023E+06    -117.969E+06    -48.5344E+06         23.0124
            2030     5.94669E-03     116.579E-03     33.4080E-03     2.44364E-03    -35.9965E-03    -2.09813E-03    -490.393E-06     2.44364E-03    -4.79462E-03     33.7639E-03    -9.26568E-03    -24.4792E-03    -16.7028E-03     25.9874E-03    -9.26568E-03     39.5504E-03    -19.8945E+06    -102.219E+06    -142.144E+06    -111.830E+06    -50.2092E+06    -102.219E+06    -52.6155E+06         23.9479
            2031     6.92836E-03     116.627E-03     24.7172E-03     1.80529E-03    -25.8141E-03    -2.71411E-03     1.61716E-03     1.80529E-03     2.50855E-03     43.5790E-03    -10.7176E-03    -32.8382E-03    -21.7225E-03     32.4632E-03    -10.7176E-03     53.8655E-03    -11.7029E+06    -75.1135E+06    -127.327E+06    -94.1910E+06    -44.8387E+06    -75.1135E+06    -51.9717E+06         25.1105
            2032     7.90468E-03     116.689E-03     22.5557E-03     1.63694E-03    -22.6501E-03     5.12059E-03    -5.21505E-03     1.63694E-03     17.1849E-03     55.3773E-03    -12.4863E-03    -42.8784E-03    -28.1330E-03     40.6319E-03    -12.4863E-03     70.1798E-03     1.45646E+06    -42.9861E+06    -100.159E+06    -68.2036E+06    -30.5539E+06    -42.9316E+06    -46.9163E+06         26.5093
            2033     8.87545E-03     116.771E-03     34.4322E-03     2.91122E-03    -34.1347E-03     23.2209E-03    -22.9235E-03     2.91122E-03     3.65565E-03     69.3074E-03    -14.6233E-03    -54.6195E-03    -36.1072E-03     50.7951E-03    -14.6233E-03     88.3492E-03     16.5366E+06    -5.17936E+06    -62.7762E+06    -39.5459E+06    -10.4059E+06    -1.46722E+06    -34.6559E+06         28.1478
            2034     9.83819E-03     116.872E-03     25.1754E-03     4.50393E-03    -27.4323E-03     16.3162E-03    -18.5731E-03     4.50393E-03    -4.83660E-03     84.7965E-03    -17.1595E-03    -67.5726E-03    -45.7783E-03     63.0023E-03    -17.1595E-03     106.673E-03     38.2178E+06     20.5771E+06    -34.9060E+06    -18.5036E+06     4.50373E+06     37.8888E+06    -23.8405E+06         30.0186
            2035     10.7923E-03     116.992E-03     22.4519E-03     4.60493E-03    -24.1210E-03    -217.755E-06    -1.45135E-03     4.60493E-03    -29.9511E-03     101.859E-03    -20.0892E-03    -81.7545E-03    -57.5528E-03     77.6570E-03    -20.0892E-03     124.175E-03     62.3495E+06     34.3039E+06    -22.7431E+06    -9.04184E+06     20.6027E+06     62.3495E+06    -22.4988E+06         32.1767
            2036     11.7344E-03     117.132E-03     28.6881E-03     3.73580E-03    -27.6035E-03    -5.52141E-03     6.60605E-03     3.73580E-03    -7.00420E-03     120.495E-03    -23.4739E-03    -97.0636E-03    -71.6643E-03     95.0958E-03    -23.4739E-03     139.594E-03     69.4287E+06     33.0754E+06    -30.3398E+06    -11.1779E+06     13.9136E+06     69.4287E+06    -26.8908E+06         34.7830
            2037     12.6634E-03     117.285E-03     21.1048E-03     2.87552E-03    -19.4916E-03    -7.63293E-03     9.24617E-03     2.87552E-03     13.7563E-03     140.358E-03    -27.3535E-03    -113.056E-03    -87.8468E-03     115.149E-03    -27.3535E-03     151.490E-03     67.8420E+06     31.4441E+06    -37.6491E+06    -13.5097E+06     7.30469E+06     67.8420E+06    -31.5244E+06         37.9478
            2038     13.5772E-03     117.450E-03     23.0444E-03     2.47570E-03    -20.7636E-03    -480.922E-06     2.76173E-03     2.47570E-03     7.99214E-03     158.861E-03    -31.7421E-03    -127.176E-03    -104.077E-03     135.762E-03    -31.7421E-03     155.494E-03     69.8693E+06     45.4095E+06    -33.0783E+06    -9.67667E+06     22.0079E+06     69.8693E+06    -34.5504E+06         41.6464
            2039     14.4768E-03     117.613E-03     20.2915E-03     2.52449E-03    -20.7143E-03     2.93864E-03    -3.36143E-03     2.52449E-03     12.1154E-03     172.156E-03    -36.5916E-03    -135.612E-03    -119.463E-03     156.008E-03    -36.5916E-03     134.731E-03     52.7042E+06     26.2237E+06    -42.8889E+06    -19.7508E+06     3.08567E+06     52.7042E+06    -23.0745E+06         45.7524
            2040     15.3540E-03     117.729E-03     18.6140E-03     2.76286E-03    -21.8117E-03     7.42785E-03    -10.6256E-03     2.76286E-03     17.8319E-03     183.265E-03    -41.7335E-03    -141.534E-03    -130.011E-03     171.742E-03    -41.7335E-03     119.997E-03     43.9485E+06     15.5939E+06    -41.8457E+06    -30.7129E+06     4.46107E+06     43.9485E+06    -320.875E+03         49.7863
            2041     16.2344E-03     117.868E-03     23.8656E-03     3.28587E-03    -27.9633E-03     15.0776E-03    -19.1753E-03     3.28587E-03     36.4987E-03     187.107E-03    -46.9517E-03    -140.192E-03    -133.065E-03     179.980E-03    -46.9517E-03     88.3506E-03     91.5769E+06     36.3223E+06    -25.6638E+06    -18.2439E+06     28.9024E+06     91.5769E+06     123.654E+03         53.0545
            2042     992.050E-06     117.506E-03     41.5630E-03     21.6686E-03    -57.8292E-03     3.08208E-03    -19.3483E-03     21.6686E-03    -91.9960E-03     16.0281E-03    -7.89186E-03    -8.13590E-03    -8.03887E-03     16.0105E-03    -7.97130E-03     665.108E-06    -62.8848E+06    -94.9217E+06    -104.939E+06    -98.9250E+06    -68.0383E+06    -95.7825E+06    -12.3280E+06         21.4651
            2043     1.98470E-03     117.512E-03     38.7683E-03     8.93111E-03    -49.2870E-03    -4.33253E-03    -6.18620E-03     8.93111E-03    -6.95895E-03     16.9740E-03    -8.18789E-03    -8.78549E-03    -8.66823E-03     16.8567E-03    -8.18789E-03     2.56417E-03    -43.5581E+06    -86.9864E+06    -107.242E+06    -96.8063E+06    -53.9940E+06    -86.9864E+06    -22.4799E+06         21.6267
            2044     2.97528E-03     117.522E-03     36.4116E-03     3.55237E-03    -44.0107E-03    -8.25850E-03     659.446E-06     3.55237E-03     709.098E-06     18.6573E-03    -8.57496E-03    -10.0783E-03    -9.62837E-03     18.2074E-03    -8.57496E-03     6.05596E-03    -28.3883E+06    -75.6055E+06    -109.716E+06    -93.0056E+06    -45.0982E+06    -75.6055E+06    -32.1094E+06         21.9450
            2045     3.96608E-03     117.540E-03     22.8873E-03     2.59116E-03    -28.4142E-03     10.8310E-03    -16.3579E-03     2.59116E-03    -2.37631E-03     21.4196E-03    -9.10067E-03    -12.3164E-03    -11.1077E-03     20.2110E-03    -9.10067E-03     11.4670E-03    -16.7658E+06    -64.3766E+06    -111.940E+06    -88.0488E+06    -40.6566E+06    -64.3766E+06    -40.6191E+06         22.4502
            2046     4.95427E-03     117.565E-03     26.1140E-03     4.98553E-03    -32.2222E-03     18.2680E-03    -24.3761E-03     4.98553E-03     16.6826E-03     25.9209E-03    -9.81050E-03    -16.1162E-03    -13.4359E-03     23.2407E-03    -9.81050E-03     19.6009E-03    -9.29349E+06    -54.0093E+06    -116.335E+06    -85.8931E+06    -39.7357E+06    -54.0093E+06    -48.1179E+06         23.1569
            2047     5.94030E-03     117.605E-03     27.4536E-03     5.20399E-03    -34.7642E-03    -8.78064E-03     1.47004E-03     5.20399E-03    -2.67330E-03     32.5197E-03    -10.7230E-03    -21.7771E-03    -16.6705E-03     27.4131E-03    -10.7230E-03     31.0251E-03    -2.21750E+06    -49.1939E+06    -121.601E+06    -86.4941E+06    -37.3240E+06    -49.1939E+06    -54.2518E+06         24.0839
            2048     6.92234E-03     117.658E-03     23.4037E-03     2.42470E-03    -27.0330E-03    -21.3448E-03     17.7155E-03     2.42470E-03     5.60870E-03     41.5092E-03    -11.9094E-03    -29.5852E-03    -21.1754E-03     33.0995E-03    -11.9094E-03     45.5506E-03     4.65127E+06    -45.3778E+06    -125.311E+06    -85.2242E+06    -35.4353E+06    -45.3778E+06    -59.6636E+06         25.2469
            2049     7.89955E-03     117.729E-03     21.5764E-03     981.621E-06    -23.0985E-03     4.30743E-03    -5.82954E-03     981.621E-06     1.37362E-03     53.1745E-03    -13.4329E-03    -39.7557E-03    -27.3204E-03     40.7392E-03    -13.4329E-03     63.1030E-03     14.5148E+06    -36.2609E+06    -122.534E+06    -80.1636E+06    -27.8561E+06    -36.2609E+06    -62.9749E+06         26.6535
            2050     8.86959E-03     117.819E-03     23.9072E-03     1.50957E-03    -25.6714E-03     10.4050E-03    -12.1692E-03     1.50957E-03    -23.3588E-03     67.1017E-03    -15.3417E-03    -51.7362E-03    -35.0481E-03     50.4136E-03    -15.3417E-03     82.5173E-03     16.6867E+06    -18.3592E+06    -106.684E+06    -67.2563E+06    -22.7405E+06    -18.3592E+06    -57.3611E+06         28.3025
            2051     9.83321E-03     117.932E-03     17.1795E-03     1.60328E-03    -18.7317E-03     2.19829E-03    -3.75053E-03     1.60328E-03    -24.0559E-03     82.6383E-03    -17.7249E-03    -64.9294E-03    -44.5185E-03     62.2274E-03    -17.7249E-03     101.860E-03     31.6398E+06     10.3352E+06    -75.0620E+06    -44.4593E+06    -5.21609E+06     16.5884E+06    -44.2377E+06         30.1784
            2052     10.7876E-03     118.066E-03     22.9566E-03     1.55016E-03    -20.1687E-03     10.3982E-03    -7.61029E-03     1.55016E-03    -30.6843E-03     99.7524E-03    -20.5791E-03    -79.1918E-03    -56.0184E-03     76.5790E-03    -20.5791E-03     120.109E-03     62.2553E+06     28.2402E+06    -40.5116E+06    -21.3803E+06     15.2969E+06     56.0673E+06    -30.5783E+06         32.3677
            2053     11.7321E-03     118.223E-03     27.8037E-03     2.01132E-03    -23.9808E-03     11.9801E-03    -8.15720E-03     2.01132E-03     1.97313E-03     118.232E-03    -23.8491E-03    -94.4067E-03    -69.7199E-03     93.5451E-03    -23.8491E-03     136.124E-03     78.7698E+06     28.1342E+06    -18.7018E+06    -7.00563E+06     16.4380E+06     78.7698E+06    -19.7190E+06         35.0612
            2054     12.6635E-03     118.397E-03     23.8307E-03     2.42223E-03    -22.1432E-03     7.94346E-03    -6.25595E-03     2.42223E-03     8.35391E-03     137.925E-03    -27.5441E-03    -110.435E-03    -85.2569E-03     112.747E-03    -27.5441E-03     149.798E-03     81.6755E+06     29.5919E+06    -16.5568E+06    -5.43510E+06     18.4703E+06     81.6755E+06    -19.6767E+06         38.3272
            2055     13.5793E-03     118.589E-03     29.7758E-03     2.55177E-03    -28.3504E-03     4.98776E-03    -3.56230E-03     2.55177E-03    -12.9974E-03     156.333E-03    -31.6956E-03    -124.625E-03    -100.922E-03     132.629E-03    -31.6956E-03     155.845E-03     75.5006E+06     35.0252E+06    -30.9269E+06    -19.0221E+06     23.1204E+06     75.5006E+06    -18.4732E+06         42.1134
            2056     14.4802E-03     118.773E-03     27.9855E-03     2.45931E-03    -30.1579E-03     2.13907E-03    -4.31142E-03     2.45931E-03    -10.4731E-03     171.332E-03    -36.3899E-03    -134.920E-03    -116.789E-03     153.201E-03    -36.3899E-03     143.026E-03     64.5435E+06     16.1280E+06    -48.5907E+06    -26.0342E+06    -6.42854E+06     64.5435E+06    -13.3114E+06         46.3009
            2057     15.3668E-03     118.929E-03     25.4300E-03     2.38113E-03    -30.4680E-03     6.18098E-03    -11.2191E-03     2.38113E-03    -20.2070E-03     185.349E-03    -41.4345E-03    -143.917E-03    -130.887E-03     172.318E-03    -41.4345E-03     127.993E-03     55.3141E+06     10.9937E+06    -33.9520E+06    -9.68644E+06    -13.2718E+06     55.3141E+06    -10.0879E+06         50.3901
            2058     16.2364E-03     119.061E-03     31.5695E-03     2.43340E-03    -38.9660E-03     8.18541E-03    -15.5820E-03     2.43340E-03    -22.2891E-03     190.593E-03    -46.7056E-03    -143.953E-03    -136.449E-03     183.090E-03    -46.7056E-03     94.1696E-03     98.7384E+06     48.9407E+06    -15.8707E+06     9.60815E+06     23.4619E+06     98.7384E+06    -1.07396E+06         53.6806
            2059     989.494E-06     118.525E-03     63.9379E-03     15.8488E-03    -66.2404E-03    -33.9079E-03     31.6053E-03     15.8488E-03    -89.1989E-03     23.2506E-03    -11.4620E-03    -11.7890E-03    -11.7693E-03     23.2433E-03    -11.4744E-03    -777.917E-06    -33.3988E+06    -43.9955E+06    -60.3861E+06    -47.3376E+06    -46.4473E+06    -43.9955E+06    -10.3314E+06         21.9230
            2060     1.97725E-03     118.531E-03     41.0641E-03    -7.99649E-03    -25.4908E-03    -3.30895E-03     18.8823E-03    -7.99649E-03    -10.3807E-03     24.5280E-03    -11.8726E-03    -12.6559E-03    -12.6359E-03     24.5080E-03    -11.8726E-03    -470.975E-06    -18.4193E+06    -38.0271E+06    -61.5225E+06    -46.4949E+06    -33.4469E+06    -38.0271E+06    -19.4317E+06         22.0637
            2061     2.96504E-03     118.543E-03     36.0440E-03    -3.36778E-03    -27.6667E-03     17.9970E-03    -9.61970E-03    -3.36778E-03    -21.3599E-03     26.1371E-03    -12.3879E-03    -13.7553E-03    -13.6879E-03     26.0698E-03    -12.3879E-03     1.02666E-03    -4.92516E+06    -27.2340E+06    -66.2619E+06    -45.7297E+06    -25.4574E+06    -27.2340E+06    -28.0724E+06         22.3356
            2062     3.95078E-03     118.561E-03     31.3384E-03     2.32779E-03    -30.1769E-03     19.8059E-03    -18.6444E-03     2.32779E-03    -12.7495E-03     28.3249E-03    -13.0108E-03    -15.3186E-03    -15.0722E-03     28.0784E-03    -13.0108E-03     4.12932E-03     1.62112E+06    -16.4295E+06    -71.9848E+06    -46.1431E+06    -24.2206E+06    -16.4295E+06    -34.6912E+06         22.7788
            2063     4.93586E-03     118.591E-03     25.5140E-03     4.48038E-03    -30.5657E-03     4.94738E-03    -9.99905E-03     4.48038E-03     1.04855E-03     31.3520E-03    -13.7281E-03    -17.6169E-03    -16.8606E-03     30.5958E-03    -13.7281E-03     9.46677E-03     6.08398E+06    -9.41753E+06    -77.1259E+06    -46.7253E+06    -24.3166E+06    -9.41753E+06    -39.6075E+06         23.4265
            2064     5.91844E-03     118.632E-03     23.5767E-03     3.75243E-03    -29.9201E-03    -3.74294E-03    -2.60039E-03     3.75243E-03    -347.425E-06     35.7392E-03    -14.5844E-03    -21.1426E-03    -19.2288E-03     33.8254E-03    -14.5844E-03     17.8834E-03     12.4227E+06    -3.94018E+06    -81.5916E+06    -47.2036E+06    -23.1270E+06    -2.77846E+06    -44.4462E+06         24.3055
            2065     6.89894E-03     118.691E-03     21.2681E-03     2.46880E-03    -27.2996E-03    -5.27151E-03    -759.984E-06     2.46880E-03    -12.4542E-03     42.1970E-03    -15.6248E-03    -26.5920E-03    -22.5816E-03     38.1867E-03    -15.6248E-03     30.0208E-03     18.7312E+06     2.15077E+06    -87.7312E+06    -49.6446E+06    -20.6953E+06     3.49062E+06    -50.0719E+06         25.4349
            2066     7.87518E-03     118.767E-03     18.8492E-03     1.21535E-03    -22.1688E-03    -9.82741E-03     6.50788E-03     1.21535E-03    -10.0990E-03     51.5338E-03    -16.9040E-03    -34.6543E-03    -27.4430E-03     44.3225E-03    -16.9040E-03     46.1143E-03     22.3515E+06     3.07585E+06    -93.6299E+06    -55.9359E+06    -18.8261E+06     6.55944E+06    -52.8089E+06         26.8273
            2067     8.84663E-03     118.867E-03     20.3372E-03    -170.894E-06    -20.1659E-03    -12.6870E-03     12.8583E-03    -170.894E-06     4.54451E-03     63.8637E-03    -18.4905E-03    -45.3358E-03    -34.0998E-03     52.6277E-03    -18.4905E-03     65.3052E-03     23.4272E+06     1.74444E+06    -101.799E+06    -63.8808E+06    -19.1318E+06     6.38515E+06    -55.5978E+06         28.4796
            2068     9.80964E-03     118.990E-03     16.1645E-03    -796.408E-06    -13.6179E-03     928.234E-06     1.61835E-03    -796.408E-06     3.96089E-03     78.7166E-03    -20.4886E-03    -58.2118E-03    -42.7580E-03     63.2628E-03    -20.4886E-03     86.0887E-03     28.6057E+06     11.2987E+06    -102.529E+06    -64.9696E+06    -11.5383E+06     13.8833E+06    -56.5971E+06         30.3764
            2069     10.7641E-03     119.139E-03     15.5024E-03    -96.6529E-06    -11.0679E-03     13.7584E-03    -9.32392E-03    -96.6529E-06    -1.46433E-03     95.9686E-03    -23.0096E-03    -72.9777E-03    -53.8077E-03     76.7985E-03    -23.0096E-03     106.920E-03     43.1490E+06     24.4261E+06    -83.7306E+06    -54.6000E+06     1.48345E+06     36.9611E+06    -47.7240E+06         32.6138
            2070     11.7071E-03     119.311E-03     21.2901E-03     997.918E-06    -15.0701E-03     13.5009E-03    -7.28088E-03     997.918E-06     20.1932E-03     114.730E-03    -26.0269E-03    -88.7222E-03    -67.0090E-03     93.0167E-03    -26.0269E-03     125.523E-03     58.4398E+06     21.4528E+06    -57.1843E+06    -37.8461E+06     2.11459E+06     58.4398E+06    -33.2434E+06         35.3842
            2071     12.6380E-03     119.506E-03     28.1851E-03     1.61636E-03    -23.0071E-03     7.32782E-03    -2.14989E-03     1.61636E-03     10.5458E-03     133.780E-03    -29.4894E-03    -104.307E-03    -81.2505E-03     110.723E-03    -29.4894E-03     140.739E-03     76.8619E+06     22.6408E+06    -35.7616E+06    -26.6424E+06     13.5215E+06     76.8619E+06    -15.6338E+06         38.7423
            2072     13.5597E-03     119.714E-03     30.6603E-03     1.68282E-03    -28.7748E-03     1.74178E-03     143.701E-06     1.68282E-03    -15.0986E-03     150.513E-03    -33.3167E-03    -117.114E-03    -94.8666E-03     128.266E-03    -33.3167E-03     147.512E-03     86.7775E+06     21.5842E+06    -25.9341E+06    -21.0618E+06     16.7119E+06     86.7775E+06    -1.98085E+06         42.6265
            2073     14.4693E-03     119.927E-03     26.9855E-03     1.46956E-03    -27.6921E-03    -167.919E-06    -538.677E-06     1.46956E-03    -21.6193E-03     162.284E-03    -37.4877E-03    -124.701E-03    -106.282E-03     143.865E-03    -37.4877E-03     140.048E-03     88.5255E+06     17.4013E+06    -29.1203E+06    -13.8710E+06     2.15198E+06     88.5255E+06    -4.27514E+06         46.8967
            2074     15.3631E-03     120.108E-03     27.8387E-03     966.387E-06    -31.1982E-03    -8.44676E-03     5.08725E-03     966.387E-06    -22.4826E-03     176.732E-03    -41.8080E-03    -134.932E-03    -119.421E-03     161.221E-03    -41.8080E-03     134.875E-03     66.0965E+06     14.2559E+06    -39.2365E+06    -9.74659E+06    -15.2341E+06     66.0965E+06    -16.4187E+06         51.0538
            2075     16.2432E-03     120.272E-03     30.1098E-03     199.527E-06    -38.8322E-03    -12.5990E-03     3.87657E-03     199.527E-06    -19.0067E-03     190.584E-03    -46.5639E-03    -144.051E-03    -134.421E-03     180.954E-03    -46.5639E-03     105.475E-03     86.1512E+06     41.8185E+06    -42.7987E+06    -6.34645E+06     5.36620E+06     86.1512E+06    -9.90912E+06         54.4080
            2076     983.649E-06     119.553E-03     93.1070E-03     42.7553E-03    -111.841E-03    -59.7948E-03     28.7659E-03     55.0498E-03     17.7640E-03     34.6750E-03    -17.0648E-03    -17.6102E-03    -17.2959E-03     34.6489E-03    -17.3531E-03    -2.20136E-03     2.48962E+06    -3.05579E+06    -33.1105E+06    -2.17537E+06    -28.4455E+06    -3.05579E+06    -9.98951E+06         22.5745
            2077     1.96653E-03     119.561E-03     40.1787E-03    -2.99935E-03    -25.6533E-03     166.324E-06     12.9734E-03    -1.61371E-03     27.8978E-03     36.1849E-03    -17.6123E-03    -18.5711E-03    -18.5229E-03     36.1367E-03    -17.6123E-03    -3.19185E-03     10.7564E+06     2.85838E+06    -27.4735E+06    -2.68319E+06    -15.4366E+06     4.26106E+06    -16.0210E+06         22.7091
            2078     2.94761E-03     119.574E-03     33.6702E-03     1.72198E-03    -28.9817E-03     17.3639E-03    -12.6754E-03     1.72198E-03     31.7103E-03     38.4674E-03    -18.2796E-03    -20.1947E-03    -20.1316E-03     38.4043E-03    -18.2796E-03    -3.56077E-03     18.9181E+06     9.39536E+06    -29.6145E+06    -3.73572E+06    -11.1848E+06     13.6195E+06    -20.2671E+06         22.9418
            2079     3.92741E-03     119.596E-03     33.3622E-03     3.74671E-03    -35.5212E-03    -2.12209E-03    -36.8971E-06     3.74671E-03     9.25631E-03     41.1568E-03    -19.1418E-03    -22.0220E-03    -21.9516E-03     41.0863E-03    -19.1418E-03    -3.01718E-03     24.9563E+06     14.9265E+06    -34.2093E+06    -6.38192E+06    -11.1438E+06     23.1992E+06    -23.9585E+06         23.3027
            2080     4.90447E-03     119.626E-03     26.4658E-03     1.84365E-03    -31.2522E-03    -9.72568E-03     4.93927E-03     1.84365E-03     2.78889E-03     44.0751E-03    -20.0900E-03    -23.9664E-03    -23.8672E-03     43.9759E-03    -20.0900E-03    -904.009E-06     31.7017E+06     17.0591E+06    -40.0224E+06    -9.35082E+06    -12.1981E+06     30.2873E+06    -28.4510E+06         23.8362
            2081     5.88030E-03     119.671E-03     24.2601E-03     1.11400E-03    -27.8670E-03     7.04841E-03    -10.6553E-03     1.11400E-03     3.21323E-03     47.4058E-03    -21.1291E-03    -26.2665E-03    -25.9949E-03     47.1342E-03    -21.1291E-03     3.21552E-03     36.8474E+06     18.9091E+06    -44.7330E+06    -13.1433E+06    -11.6188E+06     35.7856E+06    -31.7271E+06         24.5993
            2082     6.85324E-03     119.731E-03     26.9171E-03     1.95698E-03    -32.5002E-03     7.18441E-03    -12.7676E-03     1.95698E-03     3.62387E-03     51.7019E-03    -22.2964E-03    -29.4109E-03    -28.5895E-03     50.8805E-03    -22.2964E-03     10.0509E-03     40.0131E+06     18.9358E+06    -48.9044E+06    -19.2748E+06    -10.6939E+06     40.0131E+06    -32.7896E+06         25.6490
            2083     7.82412E-03     119.812E-03     22.7763E-03     1.56740E-03    -25.8226E-03    -11.1569E-03     8.11061E-03     1.56740E-03     11.2033E-03     57.4793E-03    -23.6120E-03    -33.8899E-03    -31.9156E-03     55.5049E-03    -23.6120E-03     19.8878E-03     43.8274E+06     18.5145E+06    -53.7493E+06    -25.3498E+06    -9.88500E+06     43.8274E+06    -34.4380E+06         27.0035
            2084     8.79040E-03     119.916E-03     19.2878E-03     274.363E-06    -15.1687E-03    -10.6969E-03     14.8160E-03     274.363E-06     14.4695E-03     65.1577E-03    -25.1341E-03    -39.9775E-03    -36.1237E-03     61.3039E-03    -25.1341E-03     32.8490E-03     48.4043E+06     20.8631E+06     -58.009E+06    -29.3788E+06    -7.76709E+06     48.4043E+06    -36.9890E+06         28.6505
            2085     9.75262E-03     120.049E-03     18.3332E-03    -364.704E-06    -11.3543E-03    -3.82566E-03     10.8046E-03    -364.704E-06     2.90527E-03     75.2847E-03    -26.8709E-03    -48.3854E-03    -41.9405E-03     68.8398E-03    -26.8709E-03     48.9336E-03     49.5246E+06     24.8896E+06    -65.6974E+06    -36.4243E+06    -4.38354E+06     49.5246E+06    -40.0154E+06         30.5717
            2086     10.7079E-03     120.207E-03     23.8272E-03    -469.036E-06    -15.2754E-03     1.51660E-03     7.03520E-03    -469.036E-06    -18.5194E-03     88.1123E-03    -28.9386E-03    -59.2332E-03    -49.6813E-03     78.5604E-03    -28.9386E-03     67.8073E-03     47.4169E+06     20.5643E+06    -72.4137E+06    -48.2273E+06    -3.62214E+06     47.4169E+06    -38.8576E+06         32.8587
            2087     11.6535E-03     120.396E-03     28.9024E-03    -39.8990E-06    -20.5879E-03     14.1417E-03    -5.82723E-03    -39.8990E-06    -3.85864E-03     103.548E-03    -31.4314E-03    -72.1811E-03    -59.4105E-03     90.7773E-03    -31.4314E-03     88.2862E-03     46.8623E+06     10.3663E+06    -77.0228E+06    -59.7428E+06    -6.91373E+06     46.8623E+06    -32.4802E+06         35.7013
            2088     12.5888E-03     120.604E-03     27.7383E-03     813.221E-06    -22.4831E-03     14.0994E-03    -8.84422E-03     813.221E-06     24.8935E-03     120.835E-03    -34.2606E-03    -86.5827E-03    -70.9107E-03     105.163E-03    -34.2606E-03     108.281E-03     58.6578E+06     12.7420E+06    -73.9339E+06    -56.6575E+06    -4.53441E+06     58.6578E+06    -24.8243E+06         39.1533
            2089     13.5097E-03     120.836E-03     28.7005E-03     1.16965E-03    -24.9814E-03    -833.117E-06     4.55219E-03     1.16965E-03     8.11254E-03     135.295E-03    -37.2999E-03    -97.8723E-03    -80.4323E-03     117.855E-03    -37.2999E-03     122.332E-03     77.1401E+06     14.9852E+06    -48.7829E+06    -36.2331E+06     2.43550E+06     77.1401E+06    -14.0986E+06         43.1505
            2090     14.4232E-03     121.059E-03     24.3287E-03     833.996E-06    -21.3582E-03    -6.74515E-03     9.71557E-03     833.996E-06    -14.4274E-03     144.497E-03    -40.4065E-03    -103.965E-03    -86.9638E-03     127.495E-03    -40.4065E-03     125.280E-03     92.4788E+06     17.1855E+06    -26.8828E+06    -15.3598E+06     5.66244E+06     92.4788E+06    -6.76284E+06         47.5215
            2091     15.3428E-03     121.260E-03     24.3038E-03     538.482E-06    -22.8087E-03    -2.70526E-03     4.20046E-03     538.482E-06     11.1363E-03     158.665E-03    -43.5578E-03    -115.181E-03    -98.6373E-03     142.121E-03    -43.5578E-03     130.372E-03     89.4696E+06     18.6098E+06    -29.9534E+06    -4.57757E+06    -6.76597E+06     89.4696E+06    -3.27699E+06         51.7649
            2092     16.2497E-03     121.456E-03     24.9280E-03     625.691E-06    -27.1613E-03    -220.336E-06    -2.01300E-03     625.691E-06     24.6958E-03     179.173E-03    -47.1759E-03    -132.165E-03    -120.201E-03     167.209E-03    -47.1759E-03     114.886E-03     95.9653E+06     49.2882E+06    -44.7600E+06     2.07103E+06     2.45724E+06     95.9653E+06    -6.52245E+06         55.2349
            2093     975.841E-06     120.596E-03     85.6784E-03     53.6735E-03    -104.582E-03    -6.45152E-03    -44.4568E-03     85.6784E-03     86.0243E-03     49.8573E-03    -24.5459E-03    -25.3112E-03    -25.0003E-03     49.8222E-03    -24.8218E-03    -3.15516E-03     42.1052E+06     37.7608E+06    -14.0263E+06     38.7885E+06    -11.9987E+06     39.0499E+06    -8.68037E+06         23.2196
            2094     1.95171E-03     120.604E-03     37.3552E-03     20.7382E-03    -42.5622E-03    -7.60256E-03    -7.33561E-03     30.4694E-03     6.20528E-03     51.5419E-03    -25.2205E-03    -26.3232E-03    -26.2545E-03     51.4733E-03    -25.2205E-03    -4.51634E-03     41.6028E+06     35.6118E+06    -7.61963E+06     34.3901E+06    -3.89131E+06     39.0961E+06    -10.3766E+06         23.3632
            2095     2.92510E-03     120.621E-03     30.7941E-03     14.4764E-03    -47.3205E-03    -25.6440E-03     9.11759E-03     14.4764E-03     8.05273E-03     54.7824E-03    -26.0529E-03    -28.7482E-03    -28.6298E-03     54.6640E-03    -26.0529E-03    -6.24734E-03     45.5802E+06     34.4385E+06    -7.99334E+06     29.7592E+06    -3.31404E+06     45.5802E+06    -11.1389E+06         23.5919
            2096     3.89529E-03     120.644E-03     28.1621E-03     4.04784E-03    -39.5552E-03    -25.8571E-03     14.4640E-03     4.04784E-03    -322.238E-09     58.8075E-03    -27.2474E-03    -31.5710E-03    -31.4042E-03     58.6407E-03    -27.2474E-03    -7.73546E-03     54.9334E+06     32.3717E+06    -9.15107E+06     26.2306E+06    -3.01001E+06     54.9334E+06    -12.0165E+06         23.9054
            2097     4.86331E-03     120.680E-03     32.8311E-03    -458.654E-06    -39.0140E-03    -7.27101E-03     1.08810E-03    -458.654E-06    -10.8727E-03     63.3950E-03    -28.6703E-03    -34.7177E-03    -34.5073E-03     63.1846E-03    -28.6703E-03    -8.89024E-03     65.3600E+06     29.8473E+06    -11.5015E+06     21.6406E+06    -3.29478E+06     65.3600E+06    -13.5672E+06         24.3219
            2098     5.82701E-03     120.726E-03     29.8499E-03    -278.143E-06    -35.7284E-03     11.2124E-03    -17.0909E-03    -278.143E-06    -12.1329E-03     68.3716E-03    -30.2687E-03    -38.1264E-03    -37.8642E-03     68.1094E-03    -30.2687E-03    -9.67677E-03     71.8147E+06     27.6747E+06    -16.1761E+06     16.4366E+06    -4.93805E+06     71.8147E+06    -15.1288E+06         24.9229
            2099     6.78779E-03     120.790E-03     22.9101E-03     883.474E-06    -23.9780E-03     5.67252E-03    -6.74037E-03     883.474E-06     14.8381E-03     73.6512E-03    -32.0586E-03    -41.6392E-03    -41.2888E-03     73.3009E-03    -32.0586E-03    -9.85756E-03     76.3017E+06     24.0656E+06    -17.7623E+06     11.8267E+06    -5.52346E+06     76.3017E+06    -15.8898E+06         25.8444
            2100     7.74327E-03     120.873E-03     16.4924E-03     796.226E-06    -12.5924E-03    -3.30853E-03     7.20856E-03     796.226E-06     9.48328E-03     78.6957E-03    -33.9740E-03    -44.7350E-03    -44.2213E-03     78.1820E-03    -33.9740E-03    -9.06861E-03     81.6165E+06     23.1677E+06    -18.1632E+06     8.00972E+06    -3.00518E+06     81.6165E+06    -17.0778E+06         27.1407
            2101     8.69570E-03     120.981E-03     12.1912E-03     248.400E-06    -6.54206E-03    -2.05895E-03     7.70806E-03     248.400E-06    -10.5538E-03     83.5005E-03    -35.9707E-03    -47.5199E-03    -46.6802E-03     82.6608E-03    -35.9707E-03    -7.05104E-03     84.1318E+06     20.8002E+06    -19.5690E+06     3.05882E+06    -1.82771E+06     84.1318E+06    -17.4725E+06         28.7759
            2102     9.64434E-03     121.113E-03     20.4156E-03    -195.609E-06    -10.6188E-03    -4.10582E-03     13.9026E-03    -195.609E-06    -6.72674E-03     88.2128E-03    -38.0732E-03    -50.2178E-03    -48.8148E-03     86.8099E-03    -38.0732E-03    -3.26436E-03     84.8175E+06     19.6930E+06    -23.3575E+06    -5.21271E+06     1.54826E+06     84.8175E+06    -14.9027E+06         30.7097
            2103     10.5878E-03     121.278E-03     28.3664E-03    -395.173E-06    -16.9972E-03    -1.42177E-03     12.7909E-03    -395.173E-06    -9.93642E-03     92.6396E-03    -40.1893E-03    -52.5455E-03    -50.2430E-03     90.3370E-03    -40.1893E-03     3.30864E-03     83.0577E+06     13.4340E+06    -26.6682E+06    -12.5597E+06    -674.476E+03     83.0577E+06    -12.0380E+06         33.0284
            2104     11.5304E-03     121.467E-03     32.0149E-03    -121.004E-06    -28.8508E-03     2.31102E-03     853.117E-06    -121.004E-06     4.07726E-03     97.6705E-03    -42.0025E-03    -55.7828E-03    -51.8327E-03     94.0627E-03    -42.3448E-03     14.1439E-03     80.3440E+06     12.5528E+06    -32.8319E+06    -14.2960E+06    -5.98312E+06     80.3440E+06    -9.19874E+06         35.9195
            2105     12.4689E-03     121.691E-03     29.7231E-03     166.258E-06    -28.9992E-03     3.70721E-03    -2.98332E-03     166.258E-06     27.6239E-03     102.028E-03    -40.2105E-03    -61.8768E-03    -52.4311E-03     96.7303E-03    -44.3588E-03     29.4626E-03     81.2625E+06     19.9417E+06    -35.3464E+06    -12.6626E+06    -2.74212E+06     81.2625E+06    -12.7504E+06         39.4430
            2106     13.4073E-03     121.929E-03     27.7303E-03     211.945E-06    -22.5397E-03     5.65725E-03    -466.699E-06     211.945E-06     2.90290E-03     102.900E-03    -35.0085E-03    -67.8458E-03    -49.6574E-03     95.6416E-03    -45.9388E-03     46.2713E-03     77.4249E+06     18.3110E+06    -38.1641E+06    -13.5112E+06    -6.34195E+06     77.4249E+06    -11.6409E+06         43.5556
            2107     14.3544E-03     122.165E-03     25.1545E-03     388.694E-06    -17.4355E-03     7.70066E-03     18.2901E-06     388.694E-06    -19.9876E-03     108.400E-03    -36.7191E-03    -71.6925E-03    -52.8543E-03     100.126E-03    -47.2834E-03     60.0252E-03     86.1747E+06     29.6235E+06    -33.4033E+06    -10.9229E+06     7.14306E+06     86.1747E+06    -10.5935E+06         48.0746
            2108     15.2868E-03     122.383E-03     19.8897E-03     1.00096E-03    -14.4285E-03     13.8384E-03    -8.37720E-03     1.00096E-03    -5.34237E-03     126.615E-03    -45.4696E-03    -81.2422E-03    -69.6534E-03     118.466E-03    -48.9095E-03     67.8303E-03     86.9020E+06     28.1410E+06    -43.8084E+06    -805.993E+03    -14.8614E+06     86.9020E+06    -3.95588E+06         52.4202
            2109     16.2020E-03     122.610E-03     23.4797E-03     1.95076E-03    -22.6204E-03     19.0935E-03    -18.2342E-03     1.95076E-03    -9.02417E-03     126.098E-03    -35.9324E-03    -90.4685E-03    -69.4158E-03     119.602E-03    -50.4899E-03     64.0648E-03     91.5266E+06     57.3434E+06    -44.3291E+06     20.9202E+06    -7.90592E+06     91.5266E+06     546.442E+03         55.9541


