********************************************************************************
Field Output Report, written Mon May  5 21:36:58 2025

Source 1
---------

   ODB: D:/AISI_1020/Vel_10/1020_2a_16_rd_500_cal_0_v_10_fric_050.odb
   Step: Step-1
   Frame: Increment   8831364: Step Time =    1.136

Loc 1 : Nodal values from source 1

Output sorted by column "Node Label".

Field Output reported at nodes for region: DIE_2A_16_D0_36-1.Region_1
   Computation algorithm: EXTRAPOLATE_COMPUTE_AVERAGE
   Averaged at nodes
   Averaging regions: ODB_REGIONS

      Node Label     COORD.COOR1     COORD.COOR2
                          @Loc 1          @Loc 1
-------------------------------------------------
               1     19.4799E-03     202.964E-03


Field Output reported at nodes for region: DIE_2A_16_D0_36-1.Region_2
   Computation algorithm: EXTRAPOLATE_COMPUTE_AVERAGE
   Averaged at nodes
   Averaging regions: ODB_REGIONS

      Node Label     COORD.COOR1     COORD.COOR2
                          @Loc 1          @Loc 1
-------------------------------------------------
               1     19.4799E-03     202.964E-03


Field Output reported at nodes for part: WIRE_1-1
   Computation algorithm: EXTRAPOLATE_COMPUTE_AVERAGE
   Averaged at nodes
   Averaging regions: ODB_REGIONS

      Node Label     COORD.COOR1     COORD.COOR2    ER.Max. Prin    ER.Mid. Prin    ER.Min. Prin         ER.ER11         ER.ER22         ER.ER33         ER.ER12    PE.Max. Prin    PE.Mid. Prin    PE.Min. Prin         PE.PE11         PE.PE22         PE.PE33         PE.PE12     S.Max. Prin     S.Mid. Prin     S.Min. Prin           S.S11           S.S22           S.S33           S.S12            TEMP
                          @Loc 1          @Loc 1          @Loc 1          @Loc 1          @Loc 1          @Loc 1          @Loc 1          @Loc 1          @Loc 1          @Loc 1          @Loc 1          @Loc 1          @Loc 1          @Loc 1          @Loc 1          @Loc 1          @Loc 1          @Loc 1          @Loc 1          @Loc 1          @Loc 1          @Loc 1          @Loc 1          @Loc 1
-----------------------------------------------------------------------------------------------------------------------------------------------------------------------------------------------------------------------------------------------------------------------------------------------------------------------------------------------------------------------------------------------------------------
               1     17.0473E-03     61.6711E-03     117.500E-03     88.6850E-03    -353.585E-03     98.1669E-03    -352.884E-03     107.318E-03    -26.9521E-03     108.049E-03    -53.0961E-03    -55.0497E-03    -52.9964E-03     107.949E-03    -55.0497E-03     8.00439E-03     172.851E+06     128.120E+06    -3.82476E+06    -3.82385E+06     172.850E+06     128.120E+06     336.964E+03         46.4022
               2    -1.05808E-06     61.2596E-03         1.58143    -359.936E-03        -1.35965        -1.35168    -367.907E-03         1.58143    -170.547E-03     109.840E-03    -54.7518E-03    -55.1005E-03    -54.8977E-03     109.839E-03    -54.9537E-03     235.118E-06    -77.9566E+06    -79.7433E+06    -250.494E+06    -77.9657E+06    -250.485E+06    -79.7433E+06    -475.310E+03         28.1519
               3     3.53717E-06     29.8023E-09     208.775E-03     133.467E-03    -566.329E-03     136.239E-03    -493.792E-03     133.467E-03     451.496E-03     224.129E-03    -111.298E-03    -112.833E-03    -112.830E-03     224.127E-03    -111.298E-03     1.86661E-03    -84.4054E+06    -85.9082E+06    -254.661E+06    -86.0192E+06    -254.550E+06    -84.4054E+06     4.32569E+06         37.3728
               4     16.7217E-03     29.8023E-09     171.262E-03     150.573E-03    -590.564E-03     170.595E-03    -589.897E-03     150.573E-03    -45.0754E-03     178.728E-03    -70.0469E-03    -108.846E-03    -96.1469E-03     166.029E-03    -70.0469E-03     118.162E-03     173.902E+06     152.644E+06     15.0206E+06     16.1514E+06     172.771E+06     152.644E+06     13.3559E+06         45.3138
               5     17.1099E-03     123.653E-03     25.1931E-03     2.53043E-03    -36.4222E-03     24.1814E-03    -35.4105E-03     2.53043E-03    -15.6600E-03     44.5800E-03     7.46693E-03    -52.0501E-03     7.62624E-03     44.4207E-03    -52.0501E-03    -4.85261E-03     30.8695E+06     4.57044E+06    -61.0083E+06    -60.6975E+06     30.5587E+06     4.57044E+06     5.33409E+06         40.7835
               6     8.06957E-06     121.581E-03     60.2373E-03    -26.4386E-03    -96.0474E-03    -94.6886E-03     58.8785E-03    -26.4386E-03    -29.0175E-03     58.4283E-03    -27.1008E-03    -31.3286E-03    -31.2191E-03     58.3188E-03    -27.1008E-03    -6.26614E-03     59.4095E+06     58.1873E+06    -17.8712E+06      55.123E+06    -14.8069E+06     59.4095E+06    -14.9558E+06         23.4069
               7     16.0994E-03     61.6639E-03     114.449E-03     90.1666E-03    -354.168E-03     96.3496E-03    -353.621E-03     107.719E-03    -18.9862E-03     112.821E-03    -54.0981E-03    -58.7936E-03    -53.2695E-03     108.274E-03    -55.0749E-03     43.2366E-03     173.791E+06     127.854E+06    -7.75846E+06    -7.74946E+06     173.782E+06     127.854E+06     822.147E+03         45.1234
               8     15.1505E-03     61.5764E-03     113.349E-03     97.2080E-03    -362.483E-03     101.442E-03    -361.813E-03     108.445E-03    -18.4929E-03     114.045E-03    -55.1079E-03    -59.0778E-03    -53.3100E-03     108.277E-03    -55.1079E-03     59.6202E-03     171.462E+06     117.751E+06    -16.0265E+06    -16.0119E+06     171.447E+06     117.751E+06     676.154E+03         42.2467
               9     14.2034E-03     61.5327E-03     125.606E-03     105.383E-03    -383.508E-03     121.950E-03    -382.854E-03     108.385E-03    -18.5219E-03     111.696E-03    -54.9983E-03    -56.9092E-03    -53.2837E-03     108.070E-03    -54.9983E-03     48.3790E-03     162.094E+06     79.2785E+06    -23.9695E+06    -23.9610E+06     162.085E+06     79.2785E+06    -236.858E+03         39.1667
              10     13.2555E-03     61.4704E-03     122.173E-03     105.931E-03    -380.628E-03     119.910E-03    -380.023E-03     107.590E-03     11.2675E-03     111.825E-03    -54.7438E-03    -57.1140E-03    -53.5440E-03     108.255E-03    -54.7438E-03     47.9753E-03     134.123E+06     24.5796E+06    -28.8187E+06    -28.7981E+06     134.103E+06     24.5796E+06     413.711E+03         36.5596
              11     12.3077E-03     61.4274E-03     108.370E-03     93.4894E-03    -353.570E-03     93.3870E-03    -352.840E-03     107.742E-03     4.76840E-03     110.597E-03    -54.7151E-03    -55.8214E-03    -53.8931E-03     108.669E-03    -54.7151E-03     35.3083E-03     57.8926E+06    -2.74833E+06    -30.4234E+06    -30.3816E+06     56.3944E+06    -1.29192E+06     375.243E+03         34.6884
              12     11.3604E-03     61.3947E-03     112.156E-03     95.8251E-03    -360.402E-03     98.8109E-03    -359.961E-03     108.728E-03    -3.41779E-03     110.255E-03    -54.9141E-03    -55.3825E-03    -54.2184E-03     109.091E-03    -54.9141E-03     27.4941E-03    -3.58739E+06    -18.3333E+06    -49.0722E+06    -31.7026E+06    -33.3872E+06    -5.90308E+06    -439.716E+03         33.4142
              13     10.4136E-03     61.3682E-03     125.535E-03     108.123E-03    -385.182E-03     124.743E-03    -384.699E-03     108.432E-03     11.9302E-03     110.040E-03    -55.0534E-03    -55.1526E-03    -54.4317E-03     109.319E-03    -55.0534E-03     21.6015E-03    -8.13588E+06    -34.4562E+06    -93.4791E+06    -34.4650E+06    -93.4702E+06    -8.13588E+06    -112.604E+03         32.4241
              14     9.46636E-03     61.3480E-03     123.362E-03     106.972E-03    -382.072E-03     122.166E-03    -380.876E-03     106.972E-03    -22.8485E-03     110.204E-03    -55.1293E-03    -55.2229E-03    -54.7340E-03     109.715E-03    -55.1293E-03     17.9334E-03    -4.90351E+06    -38.2191E+06    -132.974E+06    -38.2247E+06    -132.969E+06    -4.90351E+06     302.641E+03         31.5609
              15     8.52054E-03     61.3296E-03     110.860E-03     103.947E-03    -367.518E-03     106.122E-03    -365.091E-03     106.257E-03    -16.5990E-03     110.207E-03    -55.0216E-03    -55.1993E-03    -54.7139E-03     109.833E-03    -55.1324E-03     15.6609E-03    -8.80807E+06    -42.0113E+06    -160.514E+06    -42.0162E+06    -160.509E+06    -8.80807E+06     638.202E+03         30.8091
              16     7.57342E-03     61.3141E-03     111.733E-03     95.6978E-03    -359.101E-03     96.3020E-03    -354.933E-03     106.961E-03     25.0173E-03     110.000E-03    -54.8948E-03    -55.1837E-03    -54.6184E-03     109.723E-03    -55.1837E-03     13.4567E-03    -15.3907E+06    -45.5526E+06    -183.929E+06    -45.5581E+06    -183.924E+06    -15.3907E+06     360.192E+03         30.1750
              17     6.62602E-03     61.3008E-03     111.860E-03     91.0102E-03    -355.197E-03     90.6891E-03    -351.992E-03     108.976E-03    -6.10723E-03     110.157E-03    -54.9854E-03    -55.2463E-03    -54.8297E-03     109.954E-03    -55.1993E-03     11.5118E-03    -18.1136E+06    -49.1265E+06    -206.082E+06    -49.1338E+06    -206.075E+06    -18.1136E+06     64.8520E+03         29.6615
              18     5.68019E-03     61.2893E-03     122.362E-03     93.3007E-03    -367.153E-03     99.8626E-03    -362.638E-03     111.286E-03    -30.9980E-03     110.349E-03    -55.0832E-03    -55.2699E-03    -54.9952E-03     110.214E-03    -55.2228E-03     9.38895E-03    -22.7759E+06    -53.7220E+06    -224.121E+06    -53.7468E+06    -224.097E+06    -22.7759E+06     1.20956E+06         29.2476
              19     4.73288E-03     61.2801E-03     137.212E-03     102.397E-03    -390.144E-03     120.157E-03    -382.061E-03     111.369E-03     11.4244E-03     110.241E-03    -55.0424E-03    -55.2729E-03    -54.9741E-03     110.147E-03    -55.2476E-03     7.84768E-03    -32.0981E+06    -58.9672E+06    -235.268E+06    -59.0042E+06    -235.231E+06    -32.0981E+06     2.36993E+06         28.9216
              20     3.78571E-03     61.2712E-03     140.656E-03     106.945E-03    -394.425E-03     134.943E-03    -388.711E-03     106.945E-03     4.23249E-03     110.253E-03    -55.0581E-03    -55.2571E-03    -55.0688E-03     110.188E-03    -55.1807E-03     6.53254E-03    -45.5508E+06    -64.4011E+06    -239.873E+06    -64.4196E+06    -239.854E+06    -45.5508E+06     1.08896E+06         28.6590
              21     2.84043E-03     61.2662E-03     120.840E-03     99.2958E-03    -363.783E-03     113.920E-03    -358.863E-03     101.296E-03     30.4303E-03     110.313E-03    -55.0973E-03    -55.1985E-03    -55.1164E-03     110.275E-03    -55.1412E-03     4.95786E-03    -58.1247E+06    -69.8037E+06    -243.513E+06    -69.8116E+06    -243.505E+06    -58.1247E+06     426.187E+03         28.4377
              22     1.89309E-03     61.2612E-03     105.119E-03     97.3515E-03    -346.017E-03     88.9191E-03    -335.052E-03     102.586E-03     34.4969E-03     110.208E-03    -55.0252E-03    -55.1195E-03    -55.0726E-03     110.192E-03    -55.0562E-03     2.97358E-03    -67.4315E+06    -74.2300E+06    -248.587E+06    -74.2394E+06    -248.577E+06    -67.4315E+06     965.406E+03         28.2750
              23     946.817E-06     61.2602E-03     845.646E-03    -130.206E-03    -855.828E-03    -631.718E-03    -352.382E-03     843.713E-03    -97.8313E-03     110.013E-03    -54.8688E-03    -55.1086E-03    -54.9964E-03     110.010E-03    -54.9782E-03     990.972E-06    -75.1042E+06    -77.9591E+06    -249.554E+06    -77.0732E+06    -249.546E+06    -75.9975E+06     160.638E+03         28.1825
              24     664.788E-09     60.1453E-03         1.59680    -389.539E-03        -1.35011        -1.34349    -396.151E-03         1.59680    -137.285E-03     110.498E-03    -54.8182E-03    -55.6901E-03    -55.4876E-03     110.498E-03    -55.0201E-03     98.1549E-06    -79.7637E+06    -81.9502E+06    -250.558E+06    -81.6893E+06    -250.556E+06    -80.0265E+06     538.399E+03         28.1631
              25     634.236E-09     59.0269E-03         1.55349    -383.476E-03        -1.33181        -1.33047    -384.823E-03         1.55349     24.2689E-03     111.111E-03    -54.7721E-03    -56.3248E-03    -56.3239E-03     111.110E-03    -54.7721E-03     782.614E-06    -77.1868E+06    -81.7696E+06    -249.101E+06    -79.1375E+06    -249.074E+06    -79.8459E+06     1.70179E+06         28.1610
              26     1.00372E-06     57.9111E-03         1.45863    -221.716E-03        -1.39471        -1.37684    -239.587E-03         1.45863     254.129E-03     110.859E-03    -54.9847E-03    -55.8776E-03    -55.8656E-03     110.857E-03    -54.9949E-03     1.06595E-03    -73.9028E+06    -79.0382E+06    -247.170E+06    -76.4097E+06    -247.140E+06    -76.5619E+06     928.303E+03         28.1508
              27    -981.984E-09     56.7944E-03         1.45115    -302.510E-03        -1.29809        -1.27854    -322.054E-03         1.45115     268.044E-03     109.965E-03    -54.7189E-03    -55.2507E-03    -54.7173E-03     109.963E-03    -55.2507E-03     983.401E-06    -72.5996E+06    -76.0364E+06    -246.705E+06    -75.0955E+06    -246.686E+06    -73.5600E+06    -1.74632E+06         28.1338
              28    -13.2804E-09     55.6803E-03         1.44914    -505.794E-03        -1.10776        -1.05911    -554.448E-03         1.44914     260.361E-03     109.528E-03    -54.1783E-03    -55.3537E-03    -54.8307E-03     109.526E-03    -54.6998E-03     962.706E-06    -74.3591E+06    -75.6168E+06    -247.648E+06    -74.3772E+06    -247.630E+06    -75.6168E+06    -701.366E+03         28.1321
              29     1.24159E-06     54.5646E-03         1.26360    -323.267E-03        -1.11252    -998.845E-03    -436.944E-03         1.26360     552.213E-03     109.949E-03    -54.5793E-03    -55.3704E-03    -55.3675E-03     109.946E-03    -54.5793E-03     1.36587E-03    -71.1970E+06    -73.1030E+06    -245.021E+06    -72.8416E+06    -244.985E+06    -71.4942E+06     2.15393E+06         28.1594
              30    -993.663E-09     53.4509E-03         1.16839    -176.459E-03        -1.17167        -1.01107    -337.059E-03         1.16839     726.272E-03     110.460E-03    -55.0005E-03    -55.4543E-03    -55.4521E-03     110.458E-03    -55.0005E-03     390.868E-06    -68.8720E+06    -72.4509E+06    -242.303E+06    -70.5540E+06    -242.230E+06    -70.8422E+06    -161.145E+03         28.1757
              31     1.56697E-06     52.3336E-03         1.18180    -327.473E-03        -1.04835    -886.123E-03    -489.700E-03         1.18180     598.790E-03     110.573E-03    -54.8493E-03    -55.7110E-03    -55.7086E-03     110.571E-03    -54.8493E-03     461.310E-06    -72.5783E+06    -75.9027E+06    -245.635E+06    -73.9851E+06    -245.582E+06    -74.5484E+06    -810.476E+03         28.1709
              32    -525.901E-09     51.2175E-03         1.01401    -305.717E-03    -890.924E-03    -752.393E-03    -444.248E-03         1.01401     495.349E-03     110.216E-03    -54.6042E-03    -55.5910E-03    -55.1472E-03     110.214E-03    -55.0459E-03     994.900E-06    -70.3458E+06    -73.0582E+06    -244.238E+06    -71.7244E+06    -244.214E+06    -71.7039E+06     35.3337E+03         28.1644
              33    -331.864E-09     50.1026E-03     821.475E-03    -89.0731E-03    -908.180E-03    -690.287E-03    -306.965E-03     821.475E-03     718.092E-03     109.734E-03    -54.3673E-03    -55.3559E-03    -54.9142E-03     109.734E-03    -54.8090E-03     233.414E-06    -74.4669E+06    -76.5181E+06    -247.956E+06    -75.1740E+06    -247.942E+06    -75.8250E+06    -550.056E+03         28.1552
              34     1.37197E-06     48.9881E-03     771.721E-03     780.750E-06    -944.763E-03    -592.907E-03    -351.075E-03     771.721E-03     904.480E-03     109.920E-03    -54.4681E-03    -55.4455E-03    -55.4426E-03     109.917E-03    -54.4681E-03     1.02700E-03    -75.7664E+06    -76.8764E+06    -247.235E+06    -76.8842E+06    -247.227E+06    -75.7664E+06     1.12804E+06         28.1394
              35    -560.629E-09     47.8710E-03     747.885E-03    -35.6506E-03    -887.610E-03    -435.990E-03    -487.271E-03     747.885E-03     834.488E-03     110.344E-03    -54.7516E-03    -55.5936E-03    -55.5900E-03     110.340E-03    -54.7516E-03     1.47625E-03    -73.9408E+06    -76.0148E+06    -245.695E+06    -76.0803E+06    -245.630E+06    -73.9408E+06    -1.58895E+06         28.1261
              36     1.35574E-06     46.7562E-03     651.096E-03     6.96278E-03    -836.141E-03    -286.908E-03    -542.270E-03     651.096E-03     802.982E-03     110.592E-03    -55.0504E-03    -55.5472E-03    -55.4572E-03     110.587E-03    -55.1356E-03     1.66684E-03    -76.8607E+06    -82.3055E+06    -251.445E+06    -78.5845E+06    -251.378E+06    -80.6484E+06    -3.02290E+06         28.1355
              37    -1.57105E-06     45.6398E-03     521.938E-03     29.0532E-03    -735.040E-03    -246.150E-03    -459.836E-03     521.938E-03     731.822E-03     110.811E-03    -55.2079E-03    -55.6073E-03    -55.5175E-03     110.806E-03    -55.2931E-03     708.140E-06    -75.1813E+06    -80.6408E+06    -250.262E+06    -76.9517E+06    -250.163E+06    -78.9690E+06     2.04490E+06         28.1554
              38     2.19479E-06     44.5245E-03     338.723E-03     43.3738E-03    -576.830E-03    -223.930E-03    -309.526E-03     338.723E-03     612.923E-03     110.670E-03    -55.0239E-03    -55.6467E-03    -55.6430E-03     110.666E-03    -55.0239E-03     570.406E-06    -76.3670E+06    -78.2326E+06    -250.444E+06    -78.3729E+06    -250.304E+06    -76.3670E+06     762.974E+03         28.1588
              39    -1.61244E-06     43.4073E-03     247.188E-03     133.142E-03    -570.833E-03    -81.2167E-03    -298.678E-03     189.392E-03     716.923E-03     110.478E-03    -54.8632E-03    -55.6348E-03    -55.1685E-03     110.475E-03    -55.3262E-03     1.30069E-03    -75.7288E+06     -78.398E+06    -249.703E+06    -75.9844E+06    -249.641E+06    -78.2042E+06    -954.381E+03         28.1570
              40     702.271E-09     42.2923E-03     301.583E-03     234.819E-03    -729.141E-03     86.7787E-03    -523.305E-03     243.787E-03     797.264E-03     110.198E-03    -54.3612E-03    -55.8643E-03    -55.4007E-03     110.198E-03    -54.8242E-03     648.011E-06    -74.0733E+06    -80.0199E+06    -249.490E+06    -77.5587E+06    -249.476E+06    -76.5488E+06     851.223E+03         28.1583
              41     1.29555E-06     41.1755E-03     278.314E-03     256.131E-03    -721.824E-03     185.926E-03    -638.403E-03     265.099E-03     496.847E-03     109.546E-03    -54.2232E-03    -55.3403E-03    -55.3360E-03     109.542E-03    -54.2232E-03     1.49287E-03    -70.2694E+06    -77.4967E+06    -247.371E+06    -73.7651E+06    -247.346E+06    -74.0256E+06    -1.69695E+06         28.1542
              42    -1.18513E-06     40.0629E-03     248.000E-03     41.1681E-03    -464.446E-03     231.831E-03    -448.277E-03     41.1681E-03     209.848E-03     109.821E-03    -54.7976E-03    -55.0342E-03    -54.8706E-03     109.817E-03    -54.9572E-03     1.30406E-03    -70.9157E+06    -75.9094E+06    -247.891E+06    -72.2524E+06    -247.792E+06    -74.6719E+06     1.09643E+06         28.1519
              43     895.921E-09     38.9466E-03     296.219E-03    -119.377E-03    -338.018E-03     278.901E-03    -320.700E-03    -119.377E-03     206.345E-03     111.043E-03    -55.0709E-03    -55.9802E-03    -55.8195E-03     111.042E-03    -55.2305E-03     766.522E-06    -76.5071E+06    -77.7506E+06    -251.847E+06    -77.8358E+06    -251.761E+06    -76.5071E+06     1.62268E+06         28.1605
              44     531.865E-09     37.8292E-03     381.079E-03    -75.7847E-03    -482.567E-03     368.279E-03    -469.767E-03    -75.7847E-03     201.428E-03     111.188E-03    -55.0974E-03    -56.0972E-03    -55.8441E-03     111.185E-03    -55.3475E-03     1.40903E-03    -73.2267E+06    -73.8454E+06    -249.238E+06    -73.8688E+06    -249.215E+06    -73.2267E+06     156.227E+03         28.1693
              45    -996.987E-09     36.7117E-03     457.937E-03    -114.572E-03    -528.429E-03     452.377E-03    -522.869E-03    -114.572E-03     141.838E-03     110.440E-03    -54.9964E-03    -55.4555E-03    -55.2010E-03     110.436E-03    -55.2465E-03     1.70874E-03    -71.9250E+06    -72.8139E+06    -246.992E+06    -72.8332E+06    -246.973E+06    -71.9250E+06     382.698E+03         28.1728
              46     1.39186E-06     35.5970E-03     505.623E-03    -246.912E-03    -429.564E-03     480.370E-03    -404.311E-03    -246.912E-03     253.459E-03     110.243E-03    -54.6674E-03    -55.6000E-03    -55.5966E-03     110.239E-03    -54.6674E-03     1.47873E-03    -72.1872E+06    -73.4953E+06    -247.028E+06    -72.4779E+06    -247.013E+06    -73.2192E+06    -1.58569E+06         28.1791
              47    -55.8753E-09     34.4827E-03     542.536E-03    -260.013E-03    -476.612E-03     518.261E-03    -452.337E-03    -260.013E-03     227.679E-03     110.504E-03    -54.7230E-03    -55.7944E-03    -55.4439E-03     110.501E-03    -55.0708E-03     1.34060E-03    -74.4437E+06    -75.9982E+06    -249.694E+06    -74.4634E+06    -249.674E+06    -75.9982E+06     92.8316E+03         28.1814
              48    -607.001E-09     33.3656E-03     614.675E-03    -275.457E-03    -539.991E-03     612.165E-03    -537.481E-03    -275.457E-03     95.6226E-03     111.043E-03    -55.1056E-03    -55.9303E-03    -55.5805E-03     111.041E-03    -55.4534E-03     1.00036E-03    -77.7295E+06    -80.8832E+06    -252.571E+06    -80.4246E+06    -252.507E+06    -78.2520E+06    -1.15768E+06         28.1670
              49     1.54188E-06     32.2493E-03     657.453E-03    -343.519E-03    -510.172E-03     653.493E-03    -506.212E-03    -343.519E-03     13.3065E-03     110.903E-03    -55.0908E-03    -55.7978E-03    -55.7934E-03     110.899E-03    -55.0908E-03     1.42441E-03    -77.7801E+06    -83.9292E+06    -254.763E+06    -80.4715E+06    -254.702E+06    -81.2980E+06    -1.32969E+06         28.1464
              50    -1.16447E-06     31.1314E-03     639.814E-03    -321.490E-03    -529.640E-03     637.897E-03    -527.723E-03    -321.490E-03    -86.2874E-03     110.067E-03    -54.8261E-03    -55.2226E-03    -55.2176E-03     110.062E-03    -54.8261E-03     1.68976E-03    -75.5862E+06    -79.1534E+06    -250.097E+06    -75.6669E+06    -250.016E+06    -79.1534E+06     3.30904E+06         28.1337
              51     1.48798E-06     30.0191E-03     630.228E-03    -348.362E-03    -494.082E-03     621.144E-03    -480.493E-03    -352.866E-03    -158.955E-03     109.790E-03    -54.7058E-03    -55.0690E-03    -54.8703E-03     109.788E-03    -54.9027E-03     1.08602E-03    -75.1894E+06    -77.2337E+06    -247.408E+06    -77.3107E+06    -247.282E+06    -75.2387E+06     396.901E+03         28.1249
              52    -1.85869E-06     28.9039E-03     583.006E-03    -383.735E-03    -416.716E-03     568.797E-03    -369.527E-03    -416.716E-03    -231.733E-03     110.292E-03    -54.8207E-03    -55.4762E-03    -55.2780E-03     110.291E-03    -55.0176E-03     917.393E-06     -73.244E+06    -77.5469E+06    -246.906E+06    -75.2932E+06    -246.851E+06    -75.5519E+06    -2.46614E+06         28.1170
              53     2.69697E-06     27.7856E-03     607.395E-03    -296.517E-03    -525.913E-03     592.461E-03    -482.503E-03    -324.993E-03    -254.845E-03     110.428E-03    -54.7375E-03    -55.6920E-03    -55.6888E-03     110.425E-03    -54.7375E-03     1.31168E-03    -73.3639E+06    -77.7092E+06    -248.875E+06    -75.4041E+06    -248.872E+06    -75.6718E+06    -6.70809E+03         28.1073
              54    -1.73339E-06     26.6721E-03     647.364E-03    -217.403E-03    -651.191E-03     624.185E-03    -628.012E-03    -217.403E-03    -342.358E-03     109.748E-03    -54.5130E-03    -55.2256E-03    -55.0050E-03     109.744E-03    -54.7296E-03     1.57085E-03    -73.5863E+06    -77.1587E+06    -250.396E+06    -75.6420E+06    -250.378E+06    -75.1213E+06     1.57528E+06         28.0970
              55     1.30301E-06     25.5555E-03     574.432E-03    -272.495E-03    -505.453E-03     541.662E-03    -472.594E-03    -272.585E-03    -363.946E-03     109.650E-03    -54.5576E-03    -55.0986E-03    -54.8781E-03     109.646E-03    -54.7742E-03     1.56186E-03    -74.2908E+06    -76.7039E+06    -248.074E+06    -75.1861E+06    -248.057E+06    -75.8259E+06     1.11795E+06         28.0929
              56    -696.939E-09     24.4423E-03     488.443E-03    -319.549E-03    -356.844E-03     468.195E-03    -336.506E-03    -319.638E-03    -221.064E-03     109.589E-03    -54.6140E-03    -54.9893E-03    -54.9860E-03     109.586E-03    -54.6140E-03     1.39163E-03    -80.0616E+06    -81.3699E+06    -250.999E+06    -81.4315E+06    -250.937E+06    -80.0616E+06    -2.39772E+06         28.0842
              57     796.765E-09     23.3259E-03     450.404E-03    -199.925E-03    -467.478E-03     427.178E-03    -444.252E-03    -199.925E-03    -249.898E-03     108.970E-03    -54.0004E-03    -54.9875E-03    -54.9841E-03     108.966E-03    -54.0004E-03     1.40377E-03    -81.9168E+06    -82.3519E+06    -251.606E+06    -82.4225E+06    -251.535E+06    -81.9168E+06    -1.41343E+06         28.0650
              58     975.516E-09     22.2121E-03     500.299E-03    -108.708E-03    -592.354E-03     478.165E-03    -570.220E-03    -108.708E-03    -200.816E-03     108.789E-03    -53.8254E-03    -54.9696E-03    -54.7559E-03     108.784E-03    -54.0334E-03     1.93065E-03    -78.4587E+06    -79.1344E+06    -248.656E+06    -78.4841E+06    -248.636E+06    -79.1295E+06     1.86419E+06         28.0400
              59    -1.36454E-06     21.1006E-03     450.324E-03    -63.5176E-03    -569.404E-03     444.946E-03    -564.025E-03    -63.5176E-03     102.424E-03     108.655E-03    -54.0660E-03    -54.5973E-03    -54.0616E-03     108.651E-03    -54.5973E-03     247.964E-06    -76.7417E+06    -79.2698E+06    -248.688E+06    -76.7534E+06    -248.676E+06    -79.2698E+06     817.700E+03         28.0031
              60     765.466E-09     19.9860E-03     253.596E-03     55.8924E-03    -536.935E-03     240.774E-03    -524.113E-03     55.8924E-03    -5.98527E-03     108.288E-03    -53.7224E-03    -54.5567E-03    -54.2298E-03     108.285E-03    -54.0456E-03     112.721E-06    -80.5007E+06    -83.8796E+06    -250.867E+06    -82.0226E+06    -250.866E+06    -82.3581E+06    -94.8456E+03         27.9445
              61     219.332E-09     18.8724E-03     251.066E-03     44.3473E-03    -521.735E-03     230.549E-03    -501.218E-03     44.3473E-03    -247.207E-03     107.849E-03    -53.6035E-03    -54.2161E-03    -54.1124E-03     107.847E-03    -53.7050E-03     1.03060E-03    -78.0338E+06    -80.2339E+06    -247.717E+06    -79.5750E+06    -247.697E+06    -78.7125E+06     1.36990E+06         27.8570
              62    -441.269E-09     17.7590E-03     261.289E-03     15.9026E-03    -496.382E-03     248.214E-03    -483.307E-03     15.9026E-03    -150.551E-03     105.895E-03    -52.7965E-03    -53.1001E-03    -52.9985E-03     105.895E-03    -52.8980E-03     214.285E-06    -74.0208E+06    -75.0318E+06    -242.363E+06    -74.3733E+06    -242.343E+06    -74.6995E+06     1.06833E+06         27.7236
              63     842.755E-09     16.6494E-03     180.932E-03     107.308E-03    -519.356E-03     178.545E-03    -516.969E-03     107.308E-03     52.8647E-03     103.006E-03    -51.1033E-03    -51.8999E-03    -51.8993E-03     103.005E-03    -51.1033E-03     443.705E-06    -75.6956E+06    -76.5381E+06    -242.325E+06    -76.5459E+06    -242.317E+06    -75.6956E+06    -994.018E+03         27.5100
              64     303.269E-09     15.5451E-03     200.088E-03     122.601E-03    -517.593E-03     183.441E-03    -500.947E-03     122.601E-03    -81.9525E-03     99.8505E-03    -49.5981E-03    -50.2306E-03    -50.1895E-03     99.8475E-03    -49.6361E-03    -411.858E-06    -74.9705E+06    -76.2002E+06    -241.672E+06    -75.4905E+06    -241.663E+06    -75.6900E+06    -297.728E+03         27.1941
              65    -391.739E-09     14.4436E-03     195.070E-03     111.248E-03    -522.772E-03     177.124E-03    -504.827E-03     111.248E-03    -67.8436E-03     94.8048E-03    -47.3406E-03    -47.4570E-03    -47.4143E-03     94.8001E-03    -47.3786E-03    -1.65012E-03    -71.4459E+06    -72.3665E+06    -238.626E+06    -71.6504E+06    -238.623E+06    -72.1653E+06     712.625E+03         26.7702
              66     527.545E-09     13.3465E-03     186.229E-03     154.974E-03    -566.509E-03     177.093E-03    -562.775E-03     160.375E-03     61.8767E-03     87.2517E-03    -43.5163E-03    -43.7276E-03    -43.7203E-03     87.2444E-03    -43.5163E-03    -1.92028E-03    -70.4272E+06    -73.0811E+06    -240.149E+06    -70.6304E+06    -240.147E+06    -72.8799E+06    -100.060E+03         26.2400
              67    -300.439E-09     12.2623E-03     189.699E-03     107.801E-03    -503.370E-03     97.2140E-03    -492.783E-03     189.699E-03    -105.099E-03     77.8754E-03    -38.8566E-03    -39.0044E-03    -38.9899E-03     77.8609E-03    -38.8566E-03    -2.56229E-03    -64.7033E+06    -70.2176E+06    -236.342E+06    -67.8746E+06    -236.232E+06    -67.1560E+06     2.65305E+06         25.6615
              68     358.268E-09     11.1875E-03     177.748E-03     31.5320E-03    -412.608E-03     90.2309E-03    -401.587E-03     108.029E-03    -118.844E-03     68.6852E-03    -34.0280E-03    -34.6585E-03    -34.6335E-03     68.6601E-03    -34.0280E-03    -3.18037E-03    -55.1234E+06    -60.5917E+06    -227.507E+06    -58.2968E+06    -227.396E+06    -57.5302E+06     2.44253E+06         25.1806
              69     779.809E-09     10.1228E-03     213.469E-03     125.630E-03    -525.601E-03     187.467E-03    -517.719E-03     143.750E-03     87.6658E-03     60.5626E-03    -29.8566E-03    -30.7118E-03    -30.4443E-03     60.5346E-03    -30.0961E-03    -3.19182E-03    -54.8804E+06    -60.3292E+06    -224.664E+06    -57.9325E+06    -224.653E+06    -57.2872E+06     172.091E+03         24.9506
              70    -1.21842E-06     9.06652E-03     273.236E-03     152.122E-03    -642.032E-03     144.390E-03    -634.300E-03     273.236E-03     89.1683E-03     54.7765E-03    -27.1861E-03    -27.5935E-03    -27.3336E-03     54.7562E-03    -27.4257E-03    -2.56887E-03    -56.0624E+06    -60.2162E+06    -223.054E+06    -59.1231E+06    -223.035E+06    -57.1742E+06    -283.590E+03         25.0414
              71     1.51920E-06     8.01231E-03     270.479E-03     62.9783E-03    -569.793E-03     167.101E-03    -569.410E-03     165.973E-03    -29.3183E-03     54.1629E-03    -26.9506E-03    -27.2134E-03    -27.2036E-03     54.1531E-03    -26.9506E-03    -531.653E-06    -54.4695E+06    -56.3731E+06    -221.865E+06    -55.3359E+06    -221.791E+06    -55.5813E+06     1.26774E+06         25.4694
              72    -1.32118E-06     6.95661E-03     208.562E-03     72.0650E-03    -502.113E-03     184.389E-03    -477.939E-03     72.0650E-03     167.057E-03     61.6019E-03    -30.6194E-03    -30.9832E-03    -30.7082E-03     61.5957E-03    -30.8881E-03     1.50302E-03    -52.9848E+06    -55.0548E+06    -223.358E+06    -55.1306E+06    -223.282E+06    -52.9848E+06     1.20669E+06         26.2563
              73     824.371E-09     5.89072E-03     235.883E-03     149.650E-03    -610.501E-03     160.031E-03    -534.649E-03     149.650E-03     481.510E-03     80.3540E-03    -39.4050E-03    -40.9533E-03    -40.6546E-03     80.3239E-03    -39.6738E-03     3.61600E-03    -55.6920E+06    -58.6351E+06    -224.581E+06    -57.0009E+06    -224.550E+06    -57.3570E+06    -2.26239E+06         27.4486
              74     1.56997E-06     4.79195E-03     296.738E-03     132.074E-03    -634.712E-03     185.296E-03    -523.270E-03     132.074E-03     601.888E-03     109.561E-03    -53.8014E-03    -55.7588E-03    -55.0138E-03     109.494E-03    -54.4793E-03     6.64465E-03    -63.6523E+06    -66.2695E+06    -232.043E+06    -63.7828E+06    -231.912E+06    -66.2695E+06    -4.31649E+06         29.1285
              75    -2.89772E-06     3.66130E-03     372.110E-03     59.3193E-03    -643.032E-03     128.054E-03    -398.976E-03     59.3193E-03     843.278E-03     146.616E-03    -72.7873E-03    -73.8308E-03    -72.7108E-03     146.540E-03    -73.8308E-03     8.14031E-03    -75.3187E+06    -77.3695E+06    -246.515E+06    -76.5305E+06    -246.402E+06    -76.2710E+06    -3.16422E+06         31.3549
              76     2.19419E-06     2.47822E-03     438.512E-03     143.400E-03    -818.170E-03     186.723E-03    -566.381E-03     143.400E-03     950.158E-03     185.397E-03    -92.5090E-03    -92.8776E-03    -92.4534E-03     185.338E-03    -92.8746E-03     7.97787E-03    -81.8872E+06    -84.1372E+06    -254.874E+06    -82.9859E+06    -254.874E+06    -83.0387E+06    -102.335E+03         33.9051
              77    -2.34399E-06     1.25241E-03     317.603E-03     187.205E-03    -733.281E-03     213.869E-03    -629.547E-03     187.205E-03     626.748E-03     213.936E-03    -106.575E-03    -107.346E-03    -107.321E-03     213.912E-03    -106.575E-03     4.72094E-03    -81.9762E+06    -83.8790E+06    -255.104E+06    -82.7831E+06    -255.049E+06    -83.1276E+06     2.10272E+06         36.2881
              78     891.003E-06     29.8023E-09     188.106E-03     138.832E-03    -547.167E-03     150.366E-03    -509.427E-03     138.832E-03     270.889E-03     222.443E-03    -110.401E-03    -112.020E-03    -111.156E-03     222.430E-03    -111.253E-03     3.62418E-03    -77.2788E+06    -85.0876E+06    -249.774E+06    -85.1898E+06    -249.672E+06    -77.2788E+06     4.09927E+06         37.2473
              79     1.78688E-03     29.8023E-09     179.277E-03     149.830E-03    -552.917E-03     172.993E-03    -546.633E-03     149.830E-03     130.633E-03     217.006E-03    -106.713E-03    -110.293E-03    -106.675E-03     216.968E-03    -110.293E-03     6.82332E-03    -70.6324E+06    -79.0333E+06    -243.027E+06    -79.1985E+06    -242.862E+06    -70.6324E+06    -1.21080E+06         36.9010
              80     2.68499E-03     29.8023E-09     175.317E-03     157.122E-03    -559.122E-03     170.068E-03    -554.241E-03     157.489E-03     95.3180E-03     208.187E-03    -100.155E-03    -108.025E-03    -100.073E-03     208.106E-03    -108.025E-03     9.83184E-03    -70.8341E+06    -73.8547E+06    -242.391E+06    -74.0125E+06    -242.233E+06    -70.8341E+06    -1.32370E+06         36.3800
              81     3.59261E-03     29.8023E-09     159.054E-03     155.647E-03    -534.435E-03     155.268E-03    -534.057E-03     159.054E-03    -10.6851E-03     197.552E-03    -92.4215E-03    -105.081E-03    -92.2839E-03     197.415E-03    -105.081E-03     12.5357E-03    -69.8854E+06    -72.5865E+06    -241.228E+06    -71.8107E+06    -240.980E+06    -70.9094E+06    -2.38093E+06         35.7279
              82     4.50709E-03     29.8023E-09     156.630E-03     137.689E-03    -516.096E-03     136.981E-03    -515.388E-03     156.630E-03    -42.8501E-03     186.309E-03    -84.5242E-03    -101.747E-03    -84.3410E-03     186.126E-03    -101.747E-03     14.0567E-03    -68.4930E+06    -70.8053E+06    -238.257E+06    -68.7203E+06    -238.030E+06    -70.8053E+06    -2.95409E+06         35.0300
              83     5.42984E-03     29.8023E-09     152.994E-03     133.897E-03    -507.099E-03     133.283E-03    -506.485E-03     152.994E-03    -5.52354E-03     174.916E-03    -76.6778E-03    -98.1854E-03    -76.4524E-03     174.691E-03    -98.1854E-03     15.0126E-03    -64.3031E+06    -68.7789E+06    -240.468E+06    -64.7035E+06    -240.068E+06    -68.7789E+06    -4.63995E+06         34.3753
              84     6.35921E-03     29.8023E-09     150.970E-03     146.935E-03    -513.385E-03     146.469E-03    -512.918E-03     150.970E-03     35.0802E-03     164.032E-03    -69.4276E-03    -94.4850E-03    -69.1465E-03     163.751E-03    -94.4850E-03     16.1511E-03    -56.6950E+06    -73.1588E+06    -241.102E+06    -57.0953E+06    -240.701E+06    -73.1588E+06    -7.19544E+06         33.8242
              85     7.29593E-03     29.8023E-09     150.845E-03     149.679E-03    -519.120E-03     149.202E-03    -518.316E-03     150.518E-03     45.5343E-03     153.816E-03    -63.0617E-03    -90.7473E-03    -62.7360E-03     153.490E-03    -90.7473E-03     16.7804E-03    -46.5959E+06    -88.7031E+06    -229.168E+06    -47.4444E+06    -228.320E+06    -88.7031E+06    -9.87914E+06         33.4650
              86     8.23834E-03     29.8023E-09     150.545E-03     148.670E-03    -521.431E-03     147.156E-03    -519.590E-03     150.218E-03     68.6702E-03     144.472E-03    -57.5842E-03    -87.0886E-03    -57.2163E-03     144.105E-03    -87.0886E-03     17.2008E-03    -35.9037E+06    -105.652E+06    -198.975E+06    -36.8639E+06    -198.015E+06    -105.652E+06    -11.6663E+06         33.3859
              87     9.18520E-03     29.8023E-09     150.784E-03     148.361E-03    -524.755E-03     147.947E-03    -523.467E-03     149.909E-03     42.2183E-03     136.368E-03    -53.0609E-03    -83.6393E-03    -52.6400E-03     135.947E-03    -83.6393E-03     17.8203E-03    -26.0567E+06    -115.925E+06    -149.283E+06    -27.2740E+06    -148.065E+06    -115.925E+06    -10.3501E+06         33.6236
              88     10.1364E-03     29.8023E-09     150.508E-03     145.389E-03    -524.667E-03     146.170E-03    -524.574E-03     149.633E-03     11.9047E-03     129.651E-03    -49.4227E-03    -80.4360E-03    -48.9426E-03     129.171E-03    -80.4360E-03     18.4977E-03    -19.8847E+06    -83.0254E+06    -114.271E+06    -20.9810E+06    -82.5121E+06    -113.688E+06    -7.61533E+06         34.1910
              89     11.0899E-03     29.8023E-09     149.270E-03     145.014E-03    -521.444E-03     144.627E-03    -521.057E-03     149.270E-03    -8.76900E-03     124.229E-03    -46.7291E-03    -77.5567E-03    -46.1708E-03     123.671E-03    -77.5567E-03     19.4827E-03     12.8609E+06    -32.7622E+06    -98.2482E+06    -18.1303E+06    -1.77094E+06    -98.2482E+06    -4.09703E+06         35.1024
              90     12.0456E-03     29.8023E-09     153.074E-03     149.201E-03    -524.940E-03     152.749E-03    -524.628E-03     149.213E-03    -14.8303E-03     119.954E-03    -44.9940E-03    -75.1142E-03    -44.3263E-03     119.286E-03    -75.1142E-03     20.9143E-03     81.0082E+06    -17.8271E+06    -54.8603E+06    -17.3486E+06     80.5296E+06    -54.8603E+06    -2.38666E+06         36.3751
              91     13.0021E-03     29.8023E-09     153.466E-03     149.498E-03    -523.333E-03     153.392E-03    -523.260E-03     149.498E-03    -3.55475E-03     117.773E-03    -44.7428E-03    -73.2050E-03    -43.8837E-03     116.914E-03    -73.2050E-03     23.5029E-03     132.035E+06     15.7921E+06    -19.4212E+06    -17.1814E+06     132.005E+06     13.5822E+06     877.160E+03         38.0052
              92     13.9569E-03     29.8023E-09     156.881E-03     149.879E-03    -530.612E-03     156.826E-03    -530.556E-03     149.879E-03    -8.02656E-03     116.955E-03    -45.3293E-03    -71.6427E-03    -44.1800E-03     115.806E-03    -71.6427E-03     27.1450E-03     162.611E+06     84.8736E+06    -9.76562E+06    -9.47021E+06     162.316E+06     84.8736E+06    -5.61463E+06         39.9581
              93     14.9108E-03     29.8023E-09     157.068E-03     146.072E-03    -537.790E-03     151.469E-03    -536.291E-03     150.172E-03     45.4351E-03     122.415E-03    -52.0785E-03    -70.3852E-03    -49.8091E-03     120.146E-03    -70.3852E-03     38.8692E-03     177.039E+06     139.304E+06    -130.702E+03     269.191E+03     176.639E+06     139.304E+06    -2.09270E+06         42.1376
              94     15.8523E-03     29.8023E-09     160.745E-03     146.300E-03    -561.920E-03     154.813E-03    -560.088E-03     150.400E-03     22.3433E-03     153.502E-03    -64.3204E-03    -89.3737E-03    -75.7575E-03     145.539E-03    -69.9743E-03     83.4201E-03     174.679E+06     155.212E+06     8.60148E+06     9.27411E+06     174.007E+06     155.212E+06     9.72421E+06         44.2898
              95     16.8387E-03     1.22282E-03     161.879E-03     148.894E-03    -555.392E-03     155.836E-03    -551.988E-03     151.534E-03    -86.2542E-03     155.568E-03    -67.8779E-03    -87.8226E-03    -72.3001E-03     140.046E-03    -67.8779E-03     116.684E-03     172.314E+06     141.744E+06    -11.3042E+06     -9.5679E+06     170.577E+06     141.744E+06     17.6603E+06         44.9373
              96     16.9087E-03     2.32843E-03     155.730E-03     149.619E-03    -531.470E-03     150.020E-03    -528.400E-03     152.259E-03    -62.8619E-03     128.748E-03    -63.8401E-03    -65.0927E-03    -50.8678E-03     114.523E-03    -63.8401E-03     100.055E-03     175.572E+06     139.052E+06    -10.5979E+06    -9.36486E+06     174.339E+06     139.052E+06     13.2384E+06         44.4313
              97     16.9605E-03     3.43705E-03     155.769E-03     152.047E-03    -546.286E-03     155.021E-03    -545.789E-03     152.298E-03    -25.5324E-03     129.848E-03    -60.2854E-03    -69.7474E-03    -62.9038E-03     123.005E-03    -60.2854E-03     69.6968E-03     178.706E+06     141.686E+06    -2.22564E+06     -1.9608E+06     178.441E+06     141.686E+06     6.72994E+06         44.3110
              98     17.0000E-03     4.58254E-03     152.942E-03     144.966E-03    -523.679E-03     142.997E-03    -521.710E-03     152.942E-03    -69.5403E-03     137.448E-03    -57.5050E-03    -80.0323E-03    -77.2482E-03     134.664E-03    -57.5050E-03     48.2474E-03     177.787E+06     140.394E+06    -4.40446E+06    -4.17442E+06     177.557E+06     140.394E+06     5.98165E+06         44.4076
              99     17.0241E-03     5.73838E-03     153.056E-03     136.726E-03    -490.436E-03     134.400E-03    -488.110E-03     153.056E-03    -75.6195E-03     140.518E-03    -55.8104E-03    -84.8262E-03    -83.1214E-03     138.813E-03    -55.8104E-03     38.9082E-03     174.954E+06     137.686E+06    -3.77120E+06    -3.72900E+06     174.911E+06     137.686E+06     315.731E+03         44.6162
             100     17.0381E-03     6.89206E-03     152.782E-03     132.557E-03    -483.208E-03     131.697E-03    -482.347E-03     152.782E-03    -29.5735E-03     139.088E-03    -54.9533E-03    -84.3160E-03    -83.0141E-03     137.786E-03    -54.9533E-03     33.9801E-03     175.394E+06     137.281E+06    -6.13141E+06    -6.09072E+06     175.354E+06     137.281E+06    -2.68185E+06         44.8524
             101     17.0446E-03     8.04649E-03     159.539E-03     142.271E-03    -498.444E-03     147.761E-03    -498.286E-03     153.890E-03     17.2289E-03     134.861E-03    -54.6169E-03    -80.4206E-03    -79.2036E-03     133.644E-03    -54.6169E-03     32.2688E-03     177.250E+06     138.935E+06    -360.204E+03    -331.207E+03     177.221E+06     138.935E+06    -2.03079E+06         45.0586
             102     17.0471E-03     9.18727E-03     164.987E-03     153.967E-03    -520.406E-03     164.126E-03    -519.545E-03     153.967E-03    -16.9461E-03     130.832E-03    -54.5519E-03    -76.4116E-03    -75.2509E-03     129.672E-03    -54.5519E-03     30.9149E-03     173.076E+06     133.919E+06    -4.74581E+06    -4.71944E+06     173.050E+06     133.919E+06    -1.95487E+06         45.2140
             103     17.0448E-03     10.3246E-03     156.796E-03     147.144E-03    -523.969E-03     150.945E-03    -522.399E-03     151.425E-03     2.42509E-03     127.321E-03    -54.6542E-03    -72.7398E-03    -71.7049E-03     126.286E-03    -54.6542E-03     28.7030E-03     170.213E+06     131.931E+06    -3.73650E+06    -3.71319E+06     170.190E+06     131.931E+06    -1.30791E+06         45.3185
             104     17.0468E-03     11.4580E-03     150.638E-03     135.907E-03    -504.161E-03     134.609E-03    -502.863E-03     150.638E-03     56.9454E-03     122.706E-03    -54.8025E-03    -67.9638E-03    -67.0459E-03     121.788E-03    -54.8025E-03     26.3806E-03     169.211E+06     130.541E+06    -3.23884E+06    -3.23614E+06     169.208E+06     130.541E+06    -360.545E+03         45.3836
             105     17.0456E-03     12.5815E-03     152.165E-03     132.490E-03    -485.098E-03     130.184E-03    -482.792E-03     152.165E-03     71.1222E-03     118.415E-03    -54.9319E-03    -63.5601E-03    -62.8229E-03     117.677E-03    -54.9319E-03     23.0813E-03     168.277E+06     129.575E+06    -2.98833E+06    -2.98373E+06     168.273E+06     129.575E+06    -47.3062E+03         45.4262
             106     17.0457E-03     13.7064E-03     169.767E-03     142.771E-03    -514.807E-03     158.664E-03    -512.931E-03     151.996E-03     51.4328E-03     114.687E-03    -55.0245E-03    -59.7257E-03    -59.1746E-03     114.135E-03    -55.0245E-03     19.5269E-03     167.818E+06     128.034E+06    -4.47198E+06    -4.46952E+06     167.816E+06     128.034E+06     611.318E+03         45.4631
             107     17.0462E-03     14.8207E-03     173.255E-03     149.771E-03    -539.198E-03     172.395E-03    -538.338E-03     149.771E-03     37.8134E-03     111.581E-03    -55.0767E-03    -56.5641E-03    -56.2147E-03     111.231E-03    -55.0767E-03     15.1291E-03     167.897E+06     127.756E+06    -3.31952E+06    -3.31909E+06     167.897E+06     127.756E+06     182.683E+03         45.5056
             108     17.0457E-03     15.9379E-03     154.142E-03     136.003E-03    -508.376E-03     140.450E-03    -507.111E-03     148.429E-03     56.7106E-03     109.900E-03    -54.6547E-03    -55.2565E-03    -54.6045E-03     109.687E-03    -55.0933E-03     11.8325E-03     167.448E+06     127.293E+06    -3.50947E+06    -3.50607E+06     167.445E+06     127.293E+06     529.920E+03         45.5564
             109     17.0463E-03     17.0528E-03     152.094E-03     135.905E-03    -487.944E-03     138.120E-03    -486.397E-03     148.331E-03     60.6587E-03     108.693E-03    -53.6651E-03    -55.0796E-03    -53.4946E-03     108.523E-03    -55.0796E-03     10.5030E-03     166.945E+06     126.282E+06    -3.99016E+06    -3.98674E+06     166.942E+06     126.282E+06     492.251E+03         45.6137
             110     17.0469E-03     18.1682E-03     151.684E-03     146.734E-03    -498.137E-03     149.295E-03    -496.935E-03     147.921E-03     47.6474E-03     108.022E-03    -53.0784E-03    -55.0875E-03    -52.9227E-03     107.866E-03    -55.0875E-03     10.0099E-03     167.154E+06     126.942E+06    -3.07952E+06    -3.07942E+06     167.154E+06     126.942E+06    -122.262E+03         45.6730
             111     17.0469E-03     19.2848E-03     146.611E-03     135.678E-03    -491.564E-03     134.920E-03    -490.806E-03     146.611E-03     38.2514E-03     108.108E-03    -53.0449E-03    -55.0749E-03    -52.8889E-03     107.952E-03    -55.0749E-03     10.0223E-03     167.584E+06     127.317E+06    -3.25799E+06    -3.24417E+06     167.570E+06     127.317E+06     1.01254E+06         45.7306
             112     17.0475E-03     20.3980E-03     158.238E-03     135.983E-03    -508.588E-03     146.549E-03    -506.645E-03     145.729E-03     70.9463E-03     108.131E-03    -53.0375E-03    -55.0433E-03    -52.9037E-03     107.997E-03    -55.0433E-03     9.25652E-03     167.234E+06     125.931E+06    -4.51788E+06    -4.50124E+06     167.217E+06     125.931E+06     590.728E+03         45.7833
             113     17.0474E-03     21.5143E-03     164.986E-03     145.861E-03    -528.324E-03     163.546E-03    -526.883E-03     145.861E-03     58.0049E-03     107.992E-03    -53.0664E-03    -55.0415E-03    -52.9549E-03     107.880E-03    -55.0415E-03     8.47225E-03     168.447E+06     126.166E+06    -4.29715E+06    -4.29220E+06     168.442E+06     126.166E+06    -72.8542E+03         45.8296
             114     17.0477E-03     22.6291E-03     153.189E-03     145.702E-03    -513.071E-03     152.900E-03    -512.783E-03     145.702E-03     4.31053E-03     108.103E-03    -53.1784E-03    -55.0319E-03    -53.0772E-03     108.001E-03    -55.0319E-03     8.07378E-03     169.410E+06     127.537E+06    -3.09733E+06    -3.09510E+06     169.407E+06     127.537E+06     305.996E+03         45.8694
             115     17.0477E-03     23.7451E-03     147.800E-03     144.663E-03    -483.912E-03     147.658E-03    -483.770E-03     144.663E-03    -4.54628E-03     107.801E-03    -52.9066E-03    -55.0117E-03    -52.8089E-03     107.703E-03    -55.0117E-03     7.91710E-03     169.788E+06     127.922E+06    -3.11331E+06    -3.10168E+06     169.776E+06     127.922E+06     883.021E+03         45.9023
             116     17.0481E-03     24.8596E-03     145.806E-03     133.349E-03    -480.017E-03     132.336E-03    -476.737E-03     143.540E-03     70.2749E-03     107.534E-03    -52.5973E-03    -54.9884E-03    -52.4881E-03     107.425E-03    -54.9884E-03     8.35481E-03     171.220E+06     127.840E+06    -3.71122E+06    -3.69921E+06     171.208E+06     127.840E+06     782.967E+03         45.9292
             117     17.0477E-03     25.9748E-03     146.859E-03     133.225E-03    -494.846E-03     133.344E-03    -491.521E-03     143.416E-03     73.6915E-03     107.899E-03    -52.8917E-03    -54.9891E-03    -52.7916E-03     107.798E-03    -54.9891E-03     7.99122E-03     170.999E+06     128.361E+06    -3.92535E+06    -3.92479E+06     170.998E+06     128.361E+06    -247.988E+03         45.9520
             118     17.0480E-03     27.0900E-03     148.176E-03     143.333E-03    -481.459E-03     145.873E-03    -479.156E-03     143.333E-03    -41.8306E-03     108.137E-03    -53.1655E-03    -54.9835E-03    -53.0758E-03     108.047E-03    -54.9835E-03     7.59989E-03     171.177E+06     128.851E+06    -3.31134E+06    -3.31112E+06     171.177E+06     128.851E+06     106.180E+03         45.9719
             119     17.0482E-03     28.2057E-03     143.343E-03     131.385E-03    -472.929E-03     130.560E-03    -470.704E-03     141.944E-03    -49.4504E-03     108.287E-03    -53.3358E-03    -54.9547E-03    -53.2433E-03     108.194E-03    -54.9547E-03     7.72994E-03     172.280E+06     128.495E+06    -4.07537E+06    -4.07424E+06     172.279E+06     128.495E+06     422.224E+03         45.9897
             120     17.0474E-03     29.3225E-03     151.042E-03     129.472E-03    -487.202E-03     139.093E-03    -485.812E-03     140.031E-03     45.5876E-03     108.071E-03    -53.1704E-03    -54.9548E-03    -53.0743E-03     107.975E-03    -54.9548E-03     7.86451E-03     172.689E+06     128.504E+06    -4.48205E+06    -4.48074E+06     172.688E+06     128.504E+06     101.270E+03         46.0055
             121     17.0480E-03     30.4367E-03     152.621E-03     139.417E-03    -495.723E-03     151.233E-03    -494.335E-03     139.417E-03     45.3629E-03     107.570E-03    -52.7134E-03    -55.0038E-03    -52.6202E-03     107.476E-03    -55.0038E-03     7.71900E-03     173.006E+06     129.283E+06    -3.51622E+06    -3.51411E+06     173.004E+06     129.283E+06     205.308E+03         46.0210
             122     17.0480E-03     31.5514E-03     141.561E-03     130.229E-03    -478.528E-03     130.685E-03    -476.791E-03     139.368E-03    -42.4655E-03     107.647E-03    -52.8086E-03    -55.0336E-03    -52.7202E-03     107.558E-03    -55.0336E-03     7.52898E-03     172.170E+06     128.738E+06    -4.00858E+06    -3.99575E+06     172.157E+06     128.738E+06    -596.003E+03         46.0372
             123     17.0484E-03     32.6670E-03     138.256E-03     128.090E-03    -466.092E-03     126.358E-03    -464.360E-03     138.256E-03    -45.3917E-03     108.011E-03    -53.0425E-03    -55.0012E-03    -52.9476E-03     107.916E-03    -55.0012E-03     7.81780E-03     172.968E+06     129.915E+06    -2.34653E+06    -2.33113E+06     172.953E+06     129.915E+06    -372.481E+03         46.0533
             124     17.0481E-03     33.7837E-03     141.772E-03     136.223E-03    -470.807E-03     140.592E-03    -470.656E-03     137.252E-03     13.3890E-03     107.985E-03    -53.0038E-03    -54.9684E-03    -52.9000E-03     107.881E-03    -54.9684E-03     8.16759E-03     173.556E+06     129.180E+06    -3.82428E+06    -3.81997E+06     173.552E+06     129.180E+06     568.550E+03         46.0683
             125     17.0476E-03     34.8989E-03     148.318E-03     136.459E-03    -483.123E-03     147.910E-03    -482.715E-03     136.459E-03    -4.38902E-03     107.962E-03    -52.9485E-03    -54.9864E-03    -52.8384E-03     107.852E-03    -54.9864E-03     8.41612E-03     172.323E+06     128.274E+06    -4.80046E+06    -4.79613E+06     172.318E+06     128.274E+06     568.921E+03         46.0838
             126     17.0477E-03     36.0134E-03     142.370E-03     121.463E-03    -457.349E-03     127.379E-03    -455.926E-03     135.031E-03    -53.3158E-03     108.133E-03    -53.1184E-03    -55.0049E-03    -53.0222E-03     108.037E-03    -55.0049E-03     7.85708E-03     173.143E+06     129.894E+06    -2.94537E+06    -2.94068E+06     173.139E+06     129.894E+06     430.628E+03         46.1011
             127     17.0475E-03     37.1287E-03     134.232E-03     120.438E-03    -433.558E-03     118.832E-03    -431.952E-03     134.232E-03    -12.7374E-03     108.032E-03    -53.1159E-03    -55.0115E-03    -53.0353E-03     107.951E-03    -55.0115E-03     7.20286E-03     174.557E+06     129.514E+06    -3.29578E+06    -3.29389E+06     174.555E+06     129.514E+06     182.513E+03         46.1193
             128     17.0478E-03     38.2446E-03     149.767E-03     133.418E-03    -461.832E-03     149.097E-03    -461.389E-03     133.644E-03     20.4889E-03     107.782E-03    -52.8134E-03    -55.0268E-03    -52.7386E-03     107.707E-03    -55.0268E-03     6.92875E-03     174.684E+06     129.374E+06    -3.99321E+06    -3.99004E+06     174.681E+06     129.374E+06    -19.5399E+03         46.1364
             129     17.0477E-03     39.3586E-03     148.235E-03     122.286E-03    -466.246E-03     138.405E-03    -466.243E-03     132.112E-03    -1.32361E-03     107.817E-03    -52.8346E-03    -55.0006E-03    -52.7535E-03     107.736E-03    -55.0006E-03     7.20738E-03     174.285E+06     129.354E+06    -4.15392E+06    -4.15060E+06     174.281E+06     129.354E+06    -1.44419E+03         46.1519
             130     17.0480E-03     40.4757E-03     134.509E-03     121.382E-03    -456.447E-03     124.531E-03    -456.296E-03     131.209E-03     14.1260E-03     107.899E-03    -52.9652E-03    -55.0021E-03    -52.8704E-03     107.804E-03    -55.0021E-03     7.80462E-03     174.071E+06     129.468E+06    -3.71521E+06    -3.70318E+06     174.059E+06     129.468E+06    -575.001E+03         46.1656
             131     17.0475E-03     41.5909E-03     139.863E-03     131.047E-03    -441.250E-03     139.516E-03    -440.903E-03     131.047E-03     28.2813E-03     108.065E-03    -53.1096E-03    -55.0259E-03    -52.9978E-03     107.953E-03    -55.0259E-03     8.47387E-03     173.575E+06     129.846E+06    -3.44001E+06    -3.41596E+06     173.551E+06     129.846E+06     139.722E+03         46.1782
             132     17.0475E-03     42.7064E-03     135.668E-03     113.573E-03    -413.530E-03     118.727E-03    -413.169E-03     130.154E-03     27.7012E-03     108.112E-03    -53.1048E-03    -55.0410E-03    -53.0037E-03     108.011E-03    -55.0410E-03     8.02011E-03     172.999E+06     128.734E+06    -3.91733E+06    -3.90019E+06     172.982E+06     128.734E+06     546.508E+03         46.1911
             133     17.0476E-03     43.8207E-03     128.303E-03     107.802E-03    -422.534E-03     107.266E-03    -421.998E-03     128.303E-03     33.1968E-03     107.970E-03    -53.0088E-03    -55.0429E-03    -52.9158E-03     107.877E-03    -55.0429E-03     7.70910E-03     173.680E+06     128.080E+06    -3.99263E+06    -3.98761E+06     173.675E+06     128.080E+06    -178.498E+03         46.2050
             134     17.0478E-03     44.9374E-03     145.745E-03     122.818E-03    -453.335E-03     139.533E-03    -451.043E-03     126.739E-03     69.4969E-03     108.118E-03    -53.1648E-03    -55.0277E-03    -53.0695E-03     108.023E-03    -55.0277E-03     7.82388E-03     174.409E+06     128.899E+06    -3.47324E+06    -3.47014E+06     174.406E+06     128.899E+06     5.29494E+03         46.2195
             135     17.0478E-03     46.0523E-03     150.499E-03     126.140E-03    -458.747E-03     147.777E-03    -456.025E-03     126.140E-03     79.7614E-03     108.098E-03    -53.1494E-03    -55.0192E-03    -53.0547E-03     108.003E-03    -55.0192E-03     7.79554E-03     173.819E+06     129.272E+06    -3.89976E+06    -3.89626E+06     173.816E+06     129.272E+06     50.0655E+03         46.2332
             136     17.0477E-03     47.1688E-03     130.060E-03     114.278E-03    -428.102E-03     118.811E-03    -427.282E-03     124.707E-03     34.9105E-03     108.071E-03    -53.0951E-03    -55.0409E-03    -52.9945E-03     107.970E-03    -55.0409E-03     8.04405E-03     173.453E+06     129.664E+06    -3.67340E+06    -3.66674E+06     173.447E+06     129.664E+06    -224.594E+03         46.2450
             137     17.0471E-03     48.2837E-03     122.442E-03     103.455E-03    -407.090E-03     103.406E-03    -407.041E-03     122.442E-03     9.96185E-03     108.266E-03    -53.2431E-03    -55.0895E-03    -53.1457E-03     108.169E-03    -55.0895E-03     7.92702E-03     173.060E+06     129.127E+06    -3.72805E+06    -3.72335E+06     173.055E+06     129.127E+06    -604.819E+03         46.2551
             138     17.0466E-03     49.3995E-03     123.333E-03     113.658E-03    -411.888E-03     113.254E-03    -410.368E-03     122.216E-03     45.7398E-03     108.403E-03    -53.4084E-03    -55.0976E-03    -53.3114E-03     108.306E-03    -55.0976E-03     7.91929E-03     172.574E+06     128.267E+06    -3.89461E+06    -3.88922E+06     172.568E+06     128.267E+06    -649.680E+03         46.2642
             139     17.0463E-03     50.5158E-03     136.668E-03     122.823E-03    -428.773E-03     134.964E-03    -427.070E-03     122.823E-03     24.2920E-03     108.402E-03    -53.4046E-03    -55.1129E-03    -53.2958E-03     108.294E-03    -55.1129E-03     8.37004E-03     173.395E+06     129.295E+06    -2.85651E+06    -2.84595E+06     173.385E+06     129.295E+06    -11.9205E+03         46.2732
             140     17.0465E-03     51.6322E-03     135.739E-03     120.665E-03    -431.200E-03     135.148E-03    -430.609E-03     120.665E-03    -36.1208E-03     108.056E-03    -53.0482E-03    -55.1204E-03    -52.9244E-03     107.932E-03    -55.1204E-03     8.92839E-03     173.576E+06     129.168E+06    -3.59809E+06    -3.59282E+06     173.571E+06     129.168E+06     582.070E+03         46.2828
             141     17.0465E-03     52.7471E-03     120.197E-03     105.606E-03    -395.023E-03     106.930E-03    -393.999E-03     117.849E-03     4.05229E-03     107.978E-03    -52.9478E-03    -55.1051E-03    -52.8310E-03     107.861E-03    -55.1051E-03     8.66049E-03     172.608E+06     127.623E+06    -4.37133E+06    -4.37114E+06     172.608E+06     127.623E+06    -183.549E+03         46.2935
             142     17.0455E-03     53.8620E-03     125.217E-03     104.777E-03    -387.680E-03     109.648E-03    -384.354E-03     117.020E-03     77.9528E-03     108.345E-03    -53.2594E-03    -55.1380E-03    -53.1583E-03     108.244E-03    -55.1380E-03     8.07558E-03     172.015E+06     127.613E+06    -3.68944E+06    -3.68929E+06     172.015E+06     127.613E+06    -160.490E+03         46.3058
             143     17.0466E-03     54.9775E-03     132.833E-03     116.147E-03    -415.056E-03     130.152E-03    -412.375E-03     116.147E-03     52.6616E-03     108.565E-03    -53.4231E-03    -55.1326E-03    -53.3220E-03     108.464E-03    -55.1326E-03     8.08563E-03     172.209E+06     128.343E+06    -3.59009E+06    -3.58996E+06     172.209E+06     128.343E+06    -153.514E+03         46.3201
             144     17.0465E-03     56.0943E-03     122.484E-03     100.577E-03    -394.201E-03     108.510E-03    -393.645E-03     113.996E-03    -23.3257E-03     108.418E-03    -53.4047E-03    -55.1125E-03    -53.3063E-03     108.319E-03    -55.1125E-03     7.96365E-03     172.346E+06     128.415E+06    -4.06891E+06    -4.06876E+06     172.346E+06     128.415E+06    -1.60410E+03         46.3346
             145     17.0465E-03     57.2099E-03     112.151E-03     94.4817E-03    -366.096E-03     93.5026E-03    -365.117E-03     112.151E-03    -2.45407E-03     107.841E-03    -52.9100E-03    -55.1212E-03    -52.8114E-03     107.742E-03    -55.1212E-03     7.94431E-03     172.875E+06     128.752E+06    -3.44522E+06    -3.44227E+06     172.873E+06     128.752E+06     584.271E+03         46.3486
             146     17.0473E-03     58.3239E-03     129.600E-03     106.745E-03    -388.857E-03     123.662E-03    -387.170E-03     110.995E-03     57.4336E-03     107.828E-03    -52.8864E-03    -55.1229E-03    -52.7761E-03     107.718E-03    -55.1229E-03     8.41652E-03     173.487E+06     129.257E+06    -2.48792E+06    -2.48025E+06     173.479E+06     129.257E+06    -145.807E+03         46.3624
             147     17.0467E-03     59.4416E-03     128.174E-03     106.274E-03    -397.340E-03     123.592E-03    -396.054E-03     109.569E-03     42.1965E-03     108.283E-03    -53.3337E-03    -55.0986E-03    -53.2168E-03     108.166E-03    -55.0986E-03     8.68625E-03     172.987E+06     128.918E+06    -3.85070E+06    -3.84414E+06     172.980E+06     128.918E+06    -253.059E+03         46.3753
             148     17.0468E-03     60.5563E-03     108.179E-03     86.2494E-03    -362.136E-03     85.5366E-03    -361.423E-03     108.179E-03    -19.1156E-03     108.259E-03    -53.2784E-03    -55.0495E-03    -53.1624E-03     108.143E-03    -55.0495E-03     8.65244E-03     172.726E+06     128.935E+06    -3.38040E+06    -3.37775E+06     172.723E+06     128.935E+06     672.119E+03         46.3879
             149     17.0473E-03     62.7877E-03     120.445E-03     106.214E-03    -361.691E-03     120.434E-03    -361.680E-03     106.214E-03    -1.97401E-03     107.770E-03    -52.7750E-03    -55.0632E-03    -52.6726E-03     107.667E-03    -55.0632E-03     8.09469E-03     173.935E+06     127.748E+06    -4.39080E+06    -4.38838E+06     173.932E+06     127.748E+06    -399.383E+03         46.4183
             150     17.0475E-03     63.9018E-03     108.826E-03     92.5813E-03    -345.106E-03     94.7931E-03    -343.268E-03     104.777E-03     39.9075E-03     107.848E-03    -52.8132E-03    -55.0492E-03    -52.6993E-03     107.735E-03    -55.0492E-03     8.55296E-03     174.344E+06     128.559E+06    -3.94621E+06    -3.93501E+06     174.332E+06     128.559E+06     427.887E+03         46.4365
             151     17.0476E-03     65.0177E-03     105.281E-03     90.9072E-03    -344.881E-03     91.2187E-03    -343.015E-03     103.103E-03     33.4607E-03     108.184E-03    -53.1187E-03    -54.9998E-03    -53.0127E-03     108.078E-03    -54.9998E-03     8.26125E-03     174.189E+06     129.573E+06    -4.03053E+06    -4.01952E+06     174.178E+06     129.573E+06     446.704E+03         46.4563
             152     17.0480E-03     66.1328E-03     115.339E-03     100.783E-03    -366.929E-03     115.205E-03    -366.795E-03     100.783E-03    -15.4661E-03     107.969E-03    -52.8356E-03    -54.9785E-03    -52.7441E-03     107.877E-03    -54.9785E-03     7.66605E-03     174.687E+06       130.7E+06    -2.80563E+06    -2.80196E+06     174.684E+06       130.7E+06    -80.5116E+03         46.4756
             153     17.0479E-03     67.2482E-03     112.945E-03     98.9960E-03    -356.864E-03     112.828E-03    -356.747E-03     98.9960E-03    -13.6394E-03     107.723E-03    -52.6054E-03    -55.0192E-03    -52.5054E-03     107.623E-03    -55.0192E-03     7.98259E-03     173.732E+06     129.595E+06    -3.55439E+06    -3.55211E+06     173.729E+06     129.595E+06     92.9887E+03         46.4935
             154     17.0480E-03     68.3633E-03     99.7237E-03     78.9695E-03    -315.327E-03     80.0152E-03    -314.802E-03     98.1531E-03     15.5265E-03     107.861E-03    -52.8079E-03    -55.0492E-03    -52.7014E-03     107.755E-03    -55.0492E-03     8.26545E-03     173.538E+06     128.991E+06    -4.20612E+06    -4.20531E+06     173.537E+06     128.991E+06    -259.621E+03         46.5101
             155     17.0477E-03     69.4789E-03     102.600E-03     77.9701E-03    -314.683E-03     82.8611E-03    -314.128E-03     97.1536E-03     12.7624E-03     107.961E-03    -52.9910E-03    -55.0772E-03    -52.8892E-03     107.859E-03    -55.0772E-03     8.09054E-03     173.049E+06     129.153E+06    -3.49539E+06    -3.49358E+06     173.048E+06     129.153E+06    -389.709E+03         46.5261
             156     17.0475E-03     70.5938E-03     118.414E-03     94.5314E-03    -349.795E-03     116.706E-03    -348.086E-03     94.5314E-03    -46.5982E-03     108.066E-03    -53.1154E-03    -55.0905E-03    -53.0188E-03     107.969E-03    -55.0905E-03     7.88186E-03     172.419E+06     129.278E+06    -3.08938E+06    -3.08401E+06     172.414E+06     129.278E+06     162.201E+03         46.5430
             157     17.0473E-03     71.7099E-03     109.944E-03     81.6260E-03    -335.820E-03     98.1206E-03    -333.877E-03     91.5068E-03    -25.9052E-03     108.265E-03    -53.2266E-03    -55.0896E-03    -53.1251E-03     108.164E-03    -55.0896E-03     8.07605E-03     173.568E+06     129.149E+06    -4.02009E+06    -4.01601E+06     173.564E+06     129.149E+06     345.384E+03         46.5601
             158     17.0467E-03     72.8261E-03     90.5841E-03     79.0484E-03    -301.329E-03     78.7383E-03    -301.019E-03     90.5841E-03     19.4802E-03     108.136E-03    -53.1729E-03    -55.1161E-03    -53.0702E-03     108.033E-03    -55.1161E-03     8.12056E-03     174.315E+06     128.676E+06    -4.28691E+06    -4.28479E+06     174.313E+06     128.676E+06     162.828E+03         46.5765
             159     17.0475E-03     73.9394E-03     94.3915E-03     88.6655E-03    -298.120E-03     92.6689E-03    -298.052E-03     90.3204E-03    -299.790E-06     107.735E-03    -52.8841E-03    -55.1044E-03    -52.7874E-03     107.639E-03    -55.1044E-03     7.87352E-03     174.625E+06     129.194E+06    -3.87667E+06    -3.87502E+06     174.624E+06     129.194E+06     311.587E+03         46.5920
             160     17.0479E-03     75.0567E-03     92.8739E-03     81.2362E-03    -299.267E-03     83.5687E-03    -297.529E-03     88.8028E-03    -40.6181E-03     107.774E-03    -52.8273E-03    -55.0511E-03    -52.7102E-03     107.657E-03    -55.0511E-03     8.65666E-03     174.927E+06     129.513E+06    -3.52434E+06    -3.52426E+06     174.927E+06     129.513E+06    -117.131E+03         46.6061
             161     17.0473E-03     76.1722E-03     89.1706E-03     79.0650E-03    -294.221E-03     79.8965E-03    -292.514E-03     86.6315E-03    -33.5902E-03     107.992E-03    -53.0102E-03    -55.0506E-03    -52.8949E-03     107.877E-03    -55.0506E-03     8.59378E-03     174.857E+06     129.539E+06    -3.53087E+06    -3.52825E+06     174.855E+06     129.539E+06    -532.060E+03         46.6203
             162     17.0475E-03     77.2853E-03     95.1183E-03     84.3003E-03    -296.928E-03     95.1062E-03    -296.916E-03     84.3003E-03     4.29644E-03     108.280E-03    -53.2886E-03    -55.0739E-03    -53.1892E-03     108.180E-03    -55.0739E-03     8.01187E-03     174.026E+06     129.039E+06    -4.00322E+06    -3.99731E+06     174.020E+06     129.039E+06     61.3640E+03         46.6362
             163     17.0471E-03     78.4042E-03     89.3794E-03     59.1422E-03    -264.772E-03     67.2622E-03    -264.613E-03     81.1005E-03    -6.32489E-03     108.495E-03    -53.4171E-03    -55.0709E-03    -53.3074E-03     108.385E-03    -55.0709E-03     8.41613E-03     174.165E+06     128.355E+06    -4.08217E+06    -4.07755E+06     174.161E+06     128.355E+06     201.450E+03         46.6533
             164     17.0469E-03     79.5185E-03     78.4460E-03     44.8778E-03    -241.474E-03     44.4159E-03    -241.012E-03     78.4460E-03    -22.7724E-03     108.154E-03    -53.1933E-03    -55.0489E-03    -53.0710E-03     108.032E-03    -55.0489E-03     8.88256E-03     175.887E+06     128.464E+06    -3.62183E+06    -3.60321E+06     175.868E+06     128.464E+06     908.056E+03         46.6710
             165     17.0471E-03     80.6343E-03     108.658E-03     65.9061E-03    -292.966E-03     96.5578E-03    -292.476E-03     77.5160E-03    -26.8670E-03     107.839E-03    -52.9705E-03    -55.0383E-03    -52.8620E-03     107.730E-03    -55.0383E-03     8.32888E-03     175.909E+06     128.230E+06    -4.17965E+06    -4.15494E+06     175.884E+06     128.230E+06     433.603E+03         46.6903
             166     17.0479E-03     81.7481E-03     108.455E-03     77.2058E-03    -291.489E-03     108.239E-03    -291.273E-03     77.2058E-03    -17.8517E-03     107.929E-03    -52.9507E-03    -55.0182E-03    -52.8659E-03     107.844E-03    -55.0182E-03     7.37657E-03     175.788E+06     129.301E+06    -3.12645E+06    -3.11893E+06     175.781E+06     129.301E+06    -703.852E+03         46.7105
             167     17.0480E-03     82.8647E-03     76.1202E-03     59.7099E-03    -233.587E-03     58.5549E-03    -232.325E-03     76.0139E-03    -29.8243E-03     108.086E-03    -53.0850E-03    -55.0186E-03    -52.9914E-03     107.992E-03    -55.0186E-03     7.73576E-03     176.147E+06     129.181E+06    -2.83848E+06    -2.83715E+06     176.146E+06     129.181E+06     440.077E+03         46.7292
             168     17.0477E-03     83.9814E-03     85.0107E-03     56.6821E-03    -238.194E-03     66.4316E-03    -235.919E-03     72.9862E-03     2.34637E-03     107.773E-03    -52.9449E-03    -55.0324E-03    -52.8320E-03     107.660E-03    -55.0324E-03     8.51655E-03     176.457E+06     127.127E+06    -4.15895E+06    -4.15758E+06     176.456E+06     127.127E+06     453.140E+03         46.7445
             169     17.0477E-03     85.0952E-03     82.3973E-03     69.0929E-03    -260.942E-03     79.9006E-03    -259.725E-03     70.3728E-03     37.7509E-03     107.591E-03    -52.7740E-03    -55.0128E-03    -52.6618E-03     107.479E-03    -55.0128E-03     8.47727E-03     176.605E+06     127.229E+06    -3.55662E+06    -3.55541E+06     176.604E+06     127.229E+06    -180.938E+03         46.7576
             170     17.0477E-03     86.2105E-03     69.3735E-03     61.2365E-03    -231.845E-03     59.3782E-03    -229.987E-03     69.3735E-03    -18.9708E-03     107.818E-03    -52.9034E-03    -55.0066E-03    -52.7978E-03     107.713E-03    -55.0066E-03     8.23521E-03     176.533E+06     126.900E+06    -4.61973E+06    -4.61831E+06     176.532E+06     126.900E+06    -491.541E+03         46.7692
             171     17.0481E-03     87.3259E-03     74.1942E-03     60.5560E-03    -209.492E-03     65.0909E-03    -207.246E-03     67.4131E-03    -47.4613E-03     107.933E-03    -53.0169E-03    -55.0410E-03    -52.9198E-03     107.836E-03    -55.0410E-03     7.89884E-03     176.308E+06     127.084E+06    -2.86841E+06    -2.86698E+06     176.307E+06     127.084E+06    -489.619E+03         46.7786
             172     17.0480E-03     88.4404E-03     72.3606E-03     64.5972E-03    -226.676E-03     68.2572E-03    -222.572E-03     64.5972E-03     27.8330E-03     107.891E-03    -52.9957E-03    -55.0161E-03    -52.8876E-03     107.783E-03    -55.0161E-03     8.31679E-03     175.908E+06     127.150E+06    -2.61136E+06    -2.61028E+06     175.907E+06     127.150E+06    -253.879E+03         46.7868
             173     17.0487E-03     89.5577E-03     66.7987E-03     62.8334E-03    -223.877E-03     63.1073E-03    -220.186E-03     62.8334E-03     54.7808E-03     107.668E-03    -52.8149E-03    -54.9541E-03    -52.6826E-03     107.536E-03    -54.9541E-03     9.20485E-03     175.721E+06     126.597E+06    -3.63291E+06    -3.63023E+06     175.719E+06     126.597E+06     534.491E+03         46.7945
             174     17.0484E-03     90.6729E-03     68.7730E-03     60.2797E-03    -213.703E-03     65.4587E-03    -210.388E-03     60.2797E-03    -33.3062E-03     107.658E-03    -52.7279E-03    -54.9351E-03    -52.5964E-03     107.526E-03    -54.9351E-03     9.17647E-03     177.623E+06     126.444E+06    -4.22117E+06    -4.19989E+06     177.602E+06     126.444E+06     1.80289E+06         46.8012
             175     17.0487E-03     91.7861E-03     63.0595E-03     47.8731E-03    -200.526E-03     49.7721E-03    -196.915E-03     57.5492E-03    -28.3084E-03     107.581E-03    -52.6501E-03    -54.9418E-03    -52.5414E-03     107.472E-03    -54.9418E-03     8.32648E-03     181.655E+06     127.607E+06    -4.13769E+06    -4.11792E+06     181.635E+06     127.607E+06     992.348E+03         46.8071
             176     17.0492E-03     92.9019E-03     56.4273E-03     46.4739E-03    -170.180E-03     46.2070E-03    -169.636E-03     56.1501E-03     7.23768E-03     107.492E-03    -52.6629E-03    -54.9433E-03    -52.5459E-03     107.375E-03    -54.9433E-03     8.61316E-03     182.222E+06     128.505E+06    -3.20823E+06    -3.20564E+06     182.219E+06     128.505E+06     39.2077E+03         46.8111
             177     17.0492E-03     94.0169E-03     70.2977E-03     53.9622E-03    -205.685E-03     70.1860E-03    -205.573E-03     53.9622E-03    -4.41607E-03     107.430E-03    -52.6428E-03    -54.9401E-03    -52.5221E-03     107.310E-03    -54.9401E-03     8.76319E-03     180.835E+06     127.966E+06    -3.93196E+06    -3.92479E+06     180.827E+06     127.966E+06    -360.257E+03         46.8129
             178     17.0495E-03     95.1307E-03     69.8200E-03     51.7847E-03    -207.178E-03     67.2883E-03    -204.647E-03     51.7847E-03    -30.3336E-03     107.054E-03    -52.1904E-03    -54.9221E-03    -52.0856E-03     106.949E-03    -54.9221E-03     8.16340E-03     180.301E+06     130.451E+06    -3.57565E+06    -3.56829E+06     180.293E+06     130.451E+06    -338.196E+03         46.8131
             179     17.0502E-03     96.2449E-03     51.6510E-03     27.1101E-03    -133.595E-03     23.3640E-03    -127.872E-03     49.6739E-03    -58.3327E-03     106.869E-03    -51.9222E-03    -54.8946E-03    -51.8075E-03     106.754E-03    -54.8946E-03     8.52835E-03     181.540E+06     133.069E+06    -2.78330E+06    -2.77210E+06     181.529E+06     133.069E+06     1.32695E+06         46.8123
             180     17.0506E-03     97.3601E-03     56.9777E-03     24.5457E-03    -144.953E-03     29.0974E-03    -139.637E-03     47.1094E-03     6.42584E-03     106.583E-03    -51.6594E-03    -54.9185E-03    -51.5328E-03     106.456E-03    -54.9185E-03     8.94797E-03     183.559E+06     133.201E+06    -4.54250E+06    -4.53192E+06     183.548E+06     133.201E+06     629.855E+03         46.8090
             181     17.0520E-03     98.4722E-03     80.4392E-03     45.3942E-03    -199.442E-03     77.9820E-03    -196.985E-03     45.3942E-03     17.6544E-03     106.043E-03    -51.1812E-03    -54.8970E-03    -51.0554E-03     105.917E-03    -54.8970E-03     8.88839E-03     184.209E+06     135.087E+06     -3.4645E+06    -3.46322E+06     184.208E+06     135.087E+06    -470.760E+03         46.8017
             182     17.0540E-03     99.5848E-03     68.5790E-03     38.1803E-03    -180.230E-03     60.1416E-03    -177.015E-03     43.4022E-03    -45.8233E-03     105.419E-03    -50.6599E-03    -54.8023E-03    -50.5341E-03     105.294E-03    -54.8023E-03     8.85511E-03     181.661E+06     133.595E+06    -4.51760E+06    -4.51682E+06     181.660E+06     133.595E+06    -377.532E+03         46.7871
             183     17.0563E-03     100.697E-03     41.8838E-03     26.7146E-03    -127.076E-03     21.1605E-03    -121.522E-03     41.8838E-03    -5.30965E-03     104.443E-03    -49.8040E-03    -54.6637E-03    -49.6561E-03     104.295E-03    -54.6637E-03     9.53284E-03     180.073E+06     132.256E+06    -4.10193E+06    -4.09994E+06     180.071E+06     132.256E+06    -582.477E+03         46.7607
             184     17.0602E-03     101.807E-03     52.3471E-03     30.9412E-03    -133.516E-03     39.0970E-03    -130.213E-03     40.8885E-03     9.44903E-03     103.625E-03    -49.1684E-03    -54.4639E-03    -49.0142E-03     103.471E-03    -54.4639E-03     9.69983E-03     178.961E+06     132.780E+06    -3.58575E+06    -3.57761E+06     178.953E+06     132.780E+06    -1.15096E+06         46.7197
             185     17.0644E-03     102.916E-03     59.3314E-03     37.5783E-03    -159.815E-03     57.3352E-03    -157.818E-03     37.5783E-03    -40.8398E-03     102.752E-03    -48.6423E-03    -54.1319E-03    -48.4725E-03     102.583E-03    -54.1319E-03     10.1026E-03     174.242E+06     126.612E+06    -3.03907E+06    -3.02869E+06     174.232E+06     126.612E+06    -1.34709E+06         46.6652
             186     17.0735E-03     104.023E-03     43.7387E-03     23.5795E-03    -126.824E-03     31.6090E-03    -124.559E-03     33.4442E-03    -37.7741E-03     101.705E-03    -48.0713E-03    -53.6432E-03    -47.8723E-03     101.506E-03    -53.6432E-03     10.9088E-03     167.979E+06     118.424E+06    -5.37637E+06    -5.37187E+06     167.974E+06     118.424E+06    -822.425E+03         46.6084
             187     17.0834E-03     105.129E-03     31.2119E-03     19.0130E-03    -93.7930E-03     16.4298E-03    -91.2099E-03     31.2119E-03     6.55850E-03     101.339E-03    -48.4652E-03    -52.8863E-03    -48.2477E-03     101.122E-03    -52.8863E-03     11.4022E-03     161.143E+06     100.690E+06    -2.72849E+06    -2.71295E+06     161.127E+06     100.690E+06    -1.31353E+06         46.5712
             188     17.0989E-03     106.234E-03     35.2438E-03     27.3059E-03    -96.8962E-03     30.7053E-03    -94.6917E-03     29.6400E-03     8.18710E-03     103.745E-03    -50.2475E-03    -53.5231E-03    -51.6747E-03     103.591E-03    -51.9417E-03     9.39533E-03     148.803E+06     78.3326E+06    -9.40777E+06    -9.00645E+06     148.401E+06     78.3326E+06    -6.70896E+06         46.5813
             189     17.1083E-03     107.345E-03     33.2131E-03     23.5737E-03    -96.8512E-03     28.2628E-03    -95.9366E-03     27.6093E-03    -2.30542E-03     110.435E-03    -51.0535E-03    -59.3912E-03    -59.3371E-03     110.380E-03    -51.0535E-03     5.90396E-03     132.305E+06     70.8799E+06     5.23857E+06     5.63724E+06     131.907E+06     70.8799E+06    -6.38566E+06         46.6619
             190     17.1169E-03     108.471E-03     29.6168E-03     22.4023E-03    -93.4566E-03     24.8864E-03    -92.7617E-03     26.4379E-03     18.0535E-03     120.423E-03    -50.4377E-03    -69.9917E-03    -69.9642E-03     120.396E-03    -50.4377E-03     4.53280E-03     111.465E+06     71.0726E+06    -9.57143E+06    -8.29573E+06     110.189E+06     71.0726E+06    -10.5198E+06         46.8240
             191     17.1152E-03     109.608E-03     27.8032E-03     24.4131E-03    -91.6405E-03     24.4415E-03    -88.2787E-03     24.4131E-03    -17.3800E-03     130.302E-03    -50.1304E-03    -80.1765E-03    -80.1597E-03     130.285E-03    -50.1304E-03     3.69852E-03     101.765E+06     67.9386E+06    -4.54388E+06    -2.30340E+06     79.5550E+06     87.9078E+06    -12.6284E+06         47.0605
             192     17.1198E-03     110.752E-03     21.0888E-03     20.2146E-03    -83.4292E-03     16.5960E-03    -79.5995E-03     20.8776E-03    -14.1232E-03     137.799E-03    -49.8715E-03    -87.9300E-03    -87.8874E-03     137.757E-03    -49.8715E-03     5.72145E-03     85.0767E+06     50.3445E+06    -8.92902E+06     -5.3906E+06     46.8060E+06     85.0767E+06    -13.8675E+06         47.3371
             193     17.1180E-03     111.909E-03     40.0956E-03     18.1422E-03    -88.5038E-03     36.9443E-03    -86.0154E-03     18.8052E-03    -11.7411E-03     145.300E-03    -49.6039E-03    -95.6976E-03    -95.5891E-03     145.192E-03    -49.6039E-03     10.1138E-03     81.3033E+06     54.7176E+06    -30.8846E+06     7.22585E+06     16.6071E+06     81.3033E+06    -10.6952E+06         47.5953
             194     17.1219E-03     113.073E-03     47.2227E-03     17.3732E-03    -82.5901E-03     43.1612E-03    -78.5286E-03     17.3732E-03    -44.1700E-03     153.491E-03    -49.3694E-03    -104.126E-03    -103.934E-03     153.298E-03    -49.3694E-03     13.9948E-03     71.3564E+06     25.0367E+06    -48.5018E+06    -7.62796E+06    -15.8372E+06     71.3564E+06    -12.8539E+06         47.7744
             195     17.1180E-03     114.244E-03     23.5662E-03    -70.2851E-06    -42.2736E-03     4.57152E-03    -38.3563E-03     15.0071E-03    -23.3634E-03     161.296E-03    -49.1746E-03    -112.127E-03    -111.858E-03     161.027E-03    -49.1746E-03     17.1323E-03     70.0497E+06     32.5482E+06    -79.6128E+06     -283.52E+03    -46.7811E+06     70.0497E+06    -9.63881E+06         47.8266
             196     17.1228E-03     115.428E-03     17.8499E-03    -2.47229E-03    -46.7617E-03    -9.18503E-03    -34.8043E-03     12.6051E-03     36.1790E-03     169.657E-03    -48.9635E-03    -120.693E-03    -120.122E-03     169.086E-03    -48.9635E-03     25.0102E-03     67.7402E+06     12.9174E+06    -90.5021E+06    -1.97782E+06    -75.6069E+06     67.7402E+06    -11.0730E+06         47.7121
             197     17.1189E-03     116.623E-03     27.7174E-03     11.4018E-03    -73.8995E-03     7.99637E-03    -54.1784E-03     11.4018E-03     80.1091E-03     179.956E-03    -48.6372E-03    -131.316E-03    -130.016E-03     178.656E-03    -48.6372E-03     39.6308E-03     62.3474E+06     7.25076E+06    -119.525E+06    -4.36802E+06    -104.628E+06     59.0690E+06    -10.4602E+06         47.3871
             198     17.1264E-03     117.839E-03     21.4756E-03     7.72100E-03    -53.5182E-03     8.43372E-03    -43.1601E-03     10.4048E-03     33.0567E-03     187.067E-03    -48.3577E-03    -138.708E-03    -136.787E-03     185.145E-03    -48.3577E-03     49.8464E-03     59.5528E+06     5.68592E+06    -113.878E+06     8.54473E+06    -113.458E+06     56.2744E+06     1.84005E+06         46.7924
             199     17.1209E-03     119.044E-03     7.58365E-03     2.30571E-03    -31.9333E-03     1.25417E-03    -30.8817E-03     7.58365E-03    -6.56835E-03     189.934E-03    -48.3300E-03    -141.601E-03    -139.242E-03     187.575E-03    -48.3300E-03     55.6488E-03     66.4819E+06    -21.0706E+06    -115.127E+06    -21.3572E+06    -114.840E+06     66.4819E+06    -3.99969E+06         45.8715
             200     17.1279E-03     120.250E-03     12.5308E-03     2.55927E-03    -33.9280E-03    -3.97268E-03    -20.0186E-03     5.15340E-03     28.7140E-03     190.971E-03    -48.2266E-03    -142.740E-03    -139.711E-03     187.942E-03    -48.2266E-03     63.1514E-03     81.7745E+06     2.74239E+06    -132.241E+06     2.35324E+06    -131.852E+06     81.7745E+06    -6.35929E+06         44.6121
             201     17.1288E-03     121.468E-03     23.1444E-03     4.50009E-03    -33.8194E-03    -6.21423E-03    -4.46079E-03     4.50009E-03    -2.71409E-03     182.570E-03    -48.2142E-03    -134.355E-03    -129.147E-03     177.362E-03    -48.2142E-03     78.9320E-03     79.4022E+06     17.8023E+06    -113.502E+06     27.6943E+06    -103.862E+06     59.8704E+06     22.3377E+06         42.9957
             202     17.1266E-03     122.692E-03     26.0158E-03     3.41759E-03    -34.6379E-03     10.0223E-03    -18.6444E-03     3.41759E-03    -37.6547E-03     109.617E-03    -20.4424E-03    -89.1782E-03    -55.8466E-03     106.044E-03    -50.2009E-03     42.8940E-03     62.1866E+06     29.5053E+06    -71.6274E+06     7.11334E+06    -16.5541E+06     29.5053E+06     29.6862E+06         41.4371
             203     16.0177E-03     123.628E-03     23.9576E-03     2.44265E-03    -21.6833E-03     9.03604E-03    -6.76173E-03     2.44265E-03    -12.7369E-03     80.9205E-03    -22.7915E-03    -58.1316E-03    -28.2891E-03     80.8365E-03    -52.5500E-03    -1.16499E-03     40.6499E+06    -21.8185E+06    -58.7241E+06    -56.0855E+06    -11.3075E+06     27.5004E+06     4.68078E+06         39.8715
             204     15.1063E-03     123.374E-03     16.8702E-03     2.77454E-03    -4.91511E-03    -2.74958E-03     14.7047E-03     2.77454E-03    -10.9390E-03     103.084E-03    -45.2383E-03    -57.8531E-03    -50.6627E-03     102.927E-03    -52.2715E-03     7.46649E-03     58.6804E+06    -7.49181E+06    -61.1867E+06    -53.3463E+06     1.52106E+06     41.8271E+06    -16.0747E+06         37.9855
             205     14.1448E-03     123.119E-03     23.4744E-03     2.89665E-03    -21.7310E-03     18.2686E-03    -16.5252E-03     2.89665E-03    -6.55771E-03     84.8597E-03    -33.5850E-03    -51.2785E-03    -33.3070E-03     84.5817E-03    -51.2785E-03     948.817E-06     44.7217E+06    -1.82099E+06    -67.2554E+06    -48.3425E+06    -3.88064E+06     27.8685E+06    -23.6722E+06         35.9525
             206     13.1981E-03     122.881E-03     27.4898E-03     1.88344E-03    -32.6814E-03     26.7448E-03    -31.9363E-03     1.88344E-03    -8.45981E-03     84.5335E-03    -33.8426E-03    -50.6894E-03    -33.3466E-03     84.0375E-03    -50.6894E-03    -14.9014E-03     46.1314E+06     7.78867E+06    -52.7288E+06    -38.2788E+06     -6.6614E+06     46.1314E+06    -11.8403E+06         33.9081
             207     12.2653E-03     122.656E-03     16.3707E-03     1.44493E-03    -21.8267E-03     2.00913E-03    -7.46508E-03     1.44493E-03    -19.9746E-03     92.1211E-03    -42.5455E-03    -49.5728E-03    -41.6041E-03     91.1797E-03    -49.5728E-03    -22.3754E-03     52.5875E+06     9.91003E+06    -45.1939E+06    -36.5729E+06     1.28903E+06     52.5875E+06    -10.8371E+06         32.0516
             208     11.3430E-03     122.447E-03     20.7515E-03     3.00625E-03    -32.7813E-03    -17.8713E-03     5.84156E-03     3.00625E-03    -47.0416E-03     96.7934E-03    -47.0833E-03    -49.6764E-03    -47.5539E-03     95.5116E-03    -47.9240E-03    -27.1753E-03     54.1417E+06     3.28529E+06    -39.9990E+06    -28.6587E+06    -8.05507E+06     54.1417E+06    -14.8579E+06         30.3878
             209     10.4228E-03     122.264E-03     17.2678E-03     2.22727E-03    -29.4041E-03    -15.3928E-03    -23.8853E-06     5.50767E-03    -29.4468E-03     98.7647E-03    -46.0095E-03    -52.7424E-03    -51.2991E-03     97.3213E-03    -46.0095E-03    -29.4340E-03     66.2043E+06     13.6547E+06    -32.7078E+06    -17.2882E+06    -1.76487E+06     66.2043E+06    -14.7763E+06         28.8944
             210     9.49882E-03     122.110E-03     13.4217E-03     3.51785E-03    -9.38207E-03     5.68704E-03    -4.92782E-03     6.79824E-03     7.59879E-03     99.4443E-03    -43.7925E-03    -55.6662E-03    -54.2692E-03     98.0473E-03    -43.7925E-03    -29.2982E-03     68.8168E+06     5.22022E+06    -22.9366E+06    -9.02309E+06     -8.6933E+06     68.8168E+06    -9.63774E+06         27.6411
             211     8.57637E-03     121.976E-03     35.7911E-03     5.40461E-03    -13.8603E-03     30.2306E-03    -8.29982E-03     5.40461E-03     28.0259E-03     96.3577E-03    -41.3832E-03    -54.9703E-03    -53.8089E-03     95.1962E-03    -41.3832E-03    -26.3659E-03     75.6978E+06     12.1212E+06    -15.4446E+06    -2.28313E+06    -1.04028E+06     75.6978E+06    -9.69194E+06         26.6974
             212     7.64663E-03     121.868E-03     43.6255E-03     1.72244E-03    -24.9331E-03     37.0726E-03    -18.3803E-03     1.72244E-03     14.4170E-03     90.9858E-03    -39.0178E-03    -51.9812E-03    -51.1043E-03     90.1089E-03    -39.0178E-03    -22.2956E-03     73.3332E+06     10.0406E+06    -12.6821E+06     1.75003E+06    -4.39149E+06     73.3332E+06    -9.20852E+06         25.9992
             213     6.70973E-03     121.782E-03     33.3052E-03    -2.06193E-03    -22.8361E-03     21.8579E-03    -11.3888E-03    -2.06193E-03    -35.2117E-03     85.4154E-03    -36.7089E-03    -48.6953E-03    -48.0340E-03     84.7541E-03    -36.7089E-03    -18.7558E-03     67.7794E+06     14.3046E+06    -9.23365E+06     6.66079E+06    -1.58980E+06     67.7794E+06    -8.57699E+06         25.4189
             214     5.76721E-03     121.715E-03     25.1685E-03    -3.83633E-03    -22.2975E-03     2.22476E-03     646.233E-06    -3.83633E-03    -47.2153E-03     79.1716E-03    -34.5264E-03    -44.6196E-03    -44.1558E-03     78.7079E-03    -34.5264E-03    -15.0726E-03     58.5706E+06     14.7294E+06    -5.47323E+06     11.0159E+06    -1.75975E+06     58.5706E+06    -7.06358E+06         24.9116
             215     4.81746E-03     121.662E-03     20.0194E-03    -2.99945E-03    -35.6765E-03    -9.90186E-03    -5.75522E-03    -2.99945E-03    -55.5392E-03     72.6753E-03    -32.6515E-03    -40.0161E-03    -39.7155E-03     72.3748E-03    -32.6515E-03    -11.5812E-03     56.6156E+06     20.2257E+06    -3.37294E+06     15.9657E+06     887.105E+03     56.6156E+06    -8.36487E+06         24.4776
             216     3.86238E-03     121.624E-03     16.4214E-03    -431.215E-06    -32.3362E-03    -10.9834E-03    -4.93142E-03    -431.215E-06    -48.2946E-03     67.3166E-03    -31.0192E-03    -36.2901E-03    -36.0988E-03     67.1252E-03    -31.0192E-03    -8.85408E-03     52.9229E+06     25.2353E+06    -5.28720E+06     22.6236E+06    -2.67543E+06     52.9229E+06    -8.46227E+06         24.1113
             217     2.90119E-03     121.597E-03     31.0599E-03     13.2418E-06    -30.3348E-03     7.18539E-03    -6.46029E-03     13.2418E-06    -57.6537E-03     62.7507E-03    -29.5336E-03    -33.2140E-03    -33.1028E-03     62.6395E-03    -29.5336E-03    -6.46225E-03     42.4512E+06     33.1104E+06    -715.032E+03     31.5442E+06     851.193E+03     42.4512E+06    -7.03235E+06         23.8101
             218     1.93743E-03     121.578E-03     51.6889E-03    -12.8426E-03    -53.8144E-03     35.0151E-03    -37.1406E-03    -12.8426E-03    -15.6294E-03     58.1025E-03    -28.0355E-03    -30.0652E-03    -29.3604E-03     58.0297E-03    -28.6674E-03    -5.04598E-03     47.0762E+06     43.8388E+06    -2.62742E+06     42.3904E+06    -1.17900E+06     47.0762E+06    -8.05731E+06         23.5834
             219     966.928E-06     121.566E-03     56.9066E-03    -25.5277E-03    -82.0231E-03    -23.4066E-03    -1.70992E-03    -25.5277E-03     11.1919E-03     57.0712E-03    -27.1637E-03    -29.9096E-03    -29.1877E-03     56.9813E-03    -27.7957E-03    -5.54523E-03     58.1053E+06     54.3382E+06    -9.71346E+06     52.0875E+06    -7.46268E+06     58.1053E+06    -11.7422E+06         23.4491
             220    -4.12788E-06     120.508E-03     111.963E-03    -30.5423E-03    -106.745E-03     5.71688E-03    -499.343E-06    -30.5423E-03     98.9355E-03     49.7713E-03    -22.9959E-03    -26.7754E-03    -25.0217E-03     49.6832E-03    -24.6615E-03    -5.13228E-03     47.9395E+06     46.1711E+06    -27.4250E+06     43.5520E+06    -24.8059E+06     47.9395E+06    -13.6000E+06         23.1138
             221     781.321E-09     119.470E-03     108.268E-03    -4.78403E-03    -124.070E-03     7.57533E-03    -37.2624E-03     9.10110E-03     181.342E-03     35.0825E-03    -16.5644E-03    -18.5176E-03    -16.8179E-03     35.0484E-03    -18.2300E-03    -2.26173E-03     14.8762E+06     4.35316E+06    -52.6768E+06     12.1643E+06    -51.1221E+06     5.51039E+06    -9.89047E+06         22.4373
             222    -359.909E-09     118.438E-03     60.9118E-03     15.3291E-03    -93.7350E-03    -18.8542E-03    -27.8541E-03     29.2142E-03     109.478E-03     24.7898E-03    -12.1289E-03    -12.6609E-03    -12.4157E-03     24.7889E-03    -12.3732E-03    -363.029E-06    -37.0289E+06    -53.8276E+06    -77.9767E+06    -46.0674E+06    -76.3711E+06    -46.3948E+06    -5.09570E+06         21.7467
             223    -19.5121E-09     117.418E-03     118.070E-03     43.2244E-03    -161.956E-03     99.9999E-03    -143.886E-03     43.2244E-03    -50.3689E-03     17.2849E-03    -8.46615E-03    -8.81859E-03    -8.45905E-03     17.2777E-03    -8.81859E-03     438.471E-06    -83.6203E+06    -109.702E+06    -113.219E+06    -107.202E+06    -96.2396E+06    -103.100E+06    -8.71743E+06         21.2462
             224    -276.250E-09     116.404E-03     107.760E-03     48.7828E-03    -179.061E-03     77.5981E-03    -148.899E-03     48.7828E-03    -28.9615E-03     12.6041E-03    -6.18170E-03    -6.42263E-03    -6.15013E-03     12.5725E-03    -6.42263E-03     1.44260E-03    -117.752E+06    -168.942E+06    -170.564E+06    -165.296E+06    -121.398E+06    -170.564E+06    -6.87813E+06         20.9962
             225    -50.5126E-09     115.393E-03     96.9232E-03     14.7160E-03    -104.205E-03     10.7598E-03     47.0391E-03    -50.3647E-03     56.4264E-03     12.1872E-03    -5.95831E-03    -6.22927E-03    -6.02515E-03     12.1159E-03    -6.09112E-03     2.26495E-03    -137.894E+06    -215.015E+06    -217.674E+06    -216.838E+06    -137.938E+06    -215.807E+06     1.80233E+06         21.0260
             226     258.321E-09     114.380E-03     114.986E-03     10.2609E-03    -121.709E-03     4.96879E-03     15.0411E-03    -16.4724E-03     30.0503E-03     17.2511E-03    -8.54568E-03    -8.70536E-03    -8.60424E-03     17.1500E-03    -8.54568E-03     3.22381E-03    -123.622E+06    -188.443E+06    -191.913E+06    -188.859E+06    -125.074E+06    -190.046E+06     6.45315E+06         21.3490
             227    -358.501E-09     113.360E-03     94.9640E-03     20.6585E-03    -137.351E-03     49.9090E-03    -130.644E-03     59.0059E-03     61.7244E-03     26.8331E-03    -13.2182E-03    -13.6141E-03    -13.5308E-03     26.7499E-03    -13.2182E-03     3.53969E-03    -80.7573E+06    -106.688E+06    -112.845E+06    -105.313E+06    -92.3752E+06    -102.601E+06     5.59502E+06         21.9648
             228     1.12343E-06     112.326E-03     94.2193E-03    -6.56120E-03    -101.501E-03     28.1850E-03    -31.6473E-03    -10.3803E-03     28.3746E-03     38.5343E-03    -19.0164E-03    -19.5169E-03    -19.4279E-03     38.4453E-03    -19.0164E-03     4.51906E-03    -29.6322E+06    -35.5368E+06    -79.0494E+06    -35.4077E+06    -78.9630E+06    -29.8477E+06     1.75956E+06         22.8040
             229    -988.541E-09     111.281E-03     123.890E-03    -30.2046E-03    -109.075E-03    -15.6946E-03     34.3287E-03    -34.0237E-03     166.925E-03     51.4484E-03    -25.5301E-03    -25.9189E-03    -25.5652E-03     51.3573E-03    -25.7927E-03     5.15843E-03     7.58031E+06     6.55323E+06    -72.4113E+06     7.39559E+06    -72.2265E+06     6.55323E+06    -1.05644E+06         23.7354
             230     421.931E-09     110.222E-03     168.221E-03     29.2185E-03    -199.846E-03     91.8514E-03    -123.476E-03     29.2185E-03     199.255E-03     65.3078E-03    -32.2703E-03    -33.0394E-03    -32.7143E-03     65.2455E-03    -32.5329E-03     4.93962E-03     21.7587E+06     17.6030E+06    -70.6575E+06     21.3906E+06    -70.2894E+06     17.6030E+06     1.04182E+06         24.6717
             231     465.643E-09     109.146E-03     178.163E-03    -3.71758E-03    -190.975E-03     132.130E-03    -144.942E-03    -3.71758E-03     182.252E-03     78.3030E-03    -38.6212E-03    -39.6832E-03    -39.6362E-03     78.2560E-03    -38.6212E-03     4.60553E-03     31.6505E+06     22.6873E+06    -75.2523E+06     25.6954E+06    -74.9163E+06     28.3064E+06     5.73550E+06         25.5596
             232     650.443E-09     108.060E-03     237.512E-03    -55.9672E-03    -210.129E-03     136.677E-03     11.6230E-03    -176.885E-03     300.496E-03     88.0141E-03    -43.6053E-03    -44.4111E-03    -44.1362E-03     87.9894E-03    -43.8555E-03     3.56685E-03     38.6720E+06     27.2817E+06    -78.0432E+06     32.8830E+06    -77.8734E+06     32.9008E+06     356.163E+03         26.3078
             233    -1.22090E-06     106.963E-03     307.119E-03    -104.484E-03    -246.796E-03     226.117E-03    -44.8769E-03    -225.402E-03     309.854E-03     94.6207E-03    -47.0969E-03    -47.5290E-03    -47.0800E-03     94.6038E-03    -47.5290E-03     3.09490E-03     26.4291E+06     16.3420E+06    -93.9211E+06     22.0431E+06    -93.8510E+06     20.6580E+06    -2.60829E+06         26.8747
             234     924.663E-09     105.860E-03     368.049E-03    -191.020E-03    -252.528E-03     340.384E-03    -224.864E-03    -191.020E-03     220.772E-03     100.120E-03    -49.5670E-03    -50.5574E-03    -50.3531E-03     100.097E-03    -49.7488E-03     3.64817E-03     20.0573E+06     13.7234E+06    -101.088E+06     15.6951E+06    -101.042E+06     18.0394E+06    -2.19888E+06         27.2994
             235     559.827E-09     104.753E-03     441.882E-03    -141.821E-03    -357.955E-03     436.665E-03    -176.719E-03    -317.841E-03     113.587E-03     104.307E-03    -51.6468E-03    -52.6656E-03    -52.6482E-03     104.289E-03    -51.6468E-03     3.07056E-03     8.20829E+06     4.49736E+06    -114.148E+06     6.17071E+06    -113.803E+06     6.19040E+06    -5.76382E+06         27.5989
             236    -138.795E-09     103.643E-03     479.512E-03    -42.2805E-03    -485.762E-03     473.792E-03    -36.5610E-03    -485.762E-03     107.480E-03     107.248E-03    -53.1948E-03    -54.0629E-03    -54.0580E-03     107.244E-03    -53.1948E-03     1.76729E-03    -8.55799E+06    -14.3488E+06    -134.632E+06    -10.5644E+06    -134.319E+06    -12.6557E+06    -3.53128E+06         27.7903
             237     1.32683E-06     102.528E-03     612.923E-03    -74.4550E-03    -593.278E-03     557.107E-03    -18.6393E-03    -593.278E-03     343.579E-03     109.358E-03    -54.3223E-03    -55.0414E-03    -55.0389E-03     109.355E-03    -54.3223E-03     1.19553E-03    -11.2750E+06    -17.5134E+06    -145.905E+06    -13.9458E+06    -145.375E+06    -15.3728E+06    -5.18847E+06         27.9060
             238    -1.17365E-06     101.413E-03     704.312E-03    -159.791E-03    -600.593E-03     633.834E-03    -89.3130E-03    -600.593E-03     456.710E-03     109.624E-03    -54.7036E-03    -54.9103E-03    -54.7645E-03     109.623E-03    -54.8491E-03     448.019E-06    -36.4680E+06    -38.6290E+06    -169.870E+06    -39.1931E+06    -169.286E+06    -36.4883E+06    -7.87012E+06         27.9537
             239     887.705E-09     100.297E-03     735.980E-03    -279.153E-03    -536.396E-03     703.794E-03    -246.967E-03    -536.396E-03     351.555E-03     109.511E-03    -54.6044E-03    -54.9056E-03    -54.7592E-03     109.510E-03    -54.7498E-03     646.908E-06    -57.6072E+06    -59.2322E+06    -191.098E+06    -57.6972E+06    -191.008E+06    -59.2322E+06    -3.39438E+06         27.9652
             240    -608.963E-09     99.1829E-03     829.109E-03    -314.466E-03    -586.847E-03     798.024E-03    -283.381E-03    -586.847E-03     371.033E-03     110.004E-03    -54.7454E-03    -55.2728E-03    -55.2718E-03     110.003E-03    -54.7454E-03     584.189E-06    -61.1626E+06    -63.8202E+06    -198.211E+06    -61.2008E+06    -198.172E+06    -63.8202E+06    -2.21428E+06         27.9841
             241     1.31097E-06     98.0661E-03     775.810E-03    -190.636E-03    -666.247E-03     730.884E-03    -145.711E-03    -666.247E-03     398.704E-03     110.323E-03    -54.7550E-03    -55.5599E-03    -55.5562E-03     110.319E-03    -54.7550E-03     1.12430E-03    -67.1050E+06    -72.8803E+06    -209.135E+06    -71.8849E+06    -209.078E+06    -68.1579E+06    -2.62973E+06         28.0081
             242    -429.799E-09     96.9490E-03     754.413E-03    -87.7383E-03    -734.990E-03     719.697E-03    -53.0215E-03    -734.990E-03     315.111E-03     110.464E-03    -55.0028E-03    -55.4483E-03    -55.4427E-03     110.458E-03    -55.0028E-03     1.90723E-03    -76.7912E+06    -86.8512E+06    -226.661E+06    -81.7116E+06    -226.463E+06    -82.1287E+06    -5.19269E+06         28.0252
             243     383.178E-09     95.8347E-03     908.191E-03    -162.856E-03    -801.179E-03     865.113E-03    -119.778E-03    -801.179E-03     404.124E-03     110.523E-03    -55.1118E-03    -55.4157E-03    -55.4138E-03     110.521E-03    -55.1118E-03     784.163E-06     -86.833E+06    -95.0495E+06    -243.902E+06    -89.8818E+06    -243.732E+06    -92.1705E+06    -4.61743E+06         28.0310
             244     206.155E-09     94.7189E-03     988.628E-03    -299.858E-03    -761.703E-03     929.623E-03    -240.852E-03    -761.703E-03     534.776E-03     110.020E-03    -54.6137E-03    -55.4106E-03    -55.4100E-03     110.019E-03    -54.6137E-03     452.845E-06    -90.1255E+06    -97.6688E+06    -255.725E+06    -93.0658E+06    -255.663E+06    -94.7898E+06    -3.11660E+06         28.0233
             245     700.936E-09     93.6024E-03     989.469E-03    -313.525E-03    -742.167E-03     962.572E-03    -286.628E-03    -742.167E-03     341.656E-03     109.377E-03    -54.3988E-03    -54.9759E-03    -54.9709E-03     109.372E-03    -54.3988E-03     1.66757E-03    -92.8564E+06    -101.601E+06    -261.063E+06    -96.9981E+06    -261.001E+06    -97.5207E+06    -604.043E+03         28.0199
             246    -529.193E-09     92.4893E-03     982.697E-03    -262.251E-03    -808.152E-03     978.613E-03    -258.167E-03    -808.152E-03     103.096E-03     109.695E-03    -54.4997E-03    -55.1916E-03    -55.1872E-03     109.691E-03    -54.4997E-03     1.09776E-03    -89.1529E+06    -95.0354E+06    -258.971E+06    -93.2543E+06    -258.949E+06    -90.9556E+06     1.59644E+06         28.0334
             247     1.67679E-06     91.3746E-03     932.067E-03    -147.359E-03    -875.677E-03     923.149E-03    -138.441E-03    -875.677E-03     131.066E-03     110.383E-03    -54.6895E-03    -55.6912E-03    -55.6910E-03     110.383E-03    -54.6895E-03     178.486E-06    -87.1066E+06    -89.7378E+06    -259.719E+06    -87.1237E+06    -259.702E+06    -89.7378E+06    -844.848E+03         28.0519
             248    -953.977E-09     90.2585E-03     889.225E-03    -135.057E-03    -856.875E-03     879.485E-03    -125.317E-03    -856.875E-03     173.116E-03     110.684E-03    -55.0063E-03    -55.6837E-03    -55.3879E-03     110.684E-03    -55.3019E-03     190.737E-06    -88.9045E+06    -93.5598E+06    -264.710E+06    -92.7533E+06    -264.688E+06    -89.7331E+06    -1.90016E+06         28.0628
             249     441.553E-09     89.1424E-03     878.050E-03    -253.239E-03    -735.701E-03     877.020E-03    -252.210E-03    -735.701E-03     19.5337E-03     110.639E-03    -54.7076E-03    -55.9467E-03    -55.6509E-03     110.639E-03    -55.0031E-03     164.009E-06    -85.8334E+06    -98.2875E+06    -267.164E+06    -89.6832E+06    -267.141E+06    -94.4608E+06     515.433E+03         28.0625
             250     1.23619E-06     88.0251E-03     876.010E-03    -300.569E-03    -665.202E-03     874.884E-03    -299.443E-03    -665.202E-03    -68.3108E-03     109.704E-03    -54.1870E-03    -55.5163E-03    -55.1294E-03     109.702E-03    -54.5728E-03     818.394E-06    -81.8284E+06    -98.6383E+06    -263.525E+06    -90.0286E+06    -263.507E+06    -90.4558E+06     987.905E+03         28.0494
             251    -1.85957E-06     86.9124E-03     820.638E-03    -321.081E-03    -599.577E-03     815.783E-03    -316.227E-03    -599.577E-03    -139.968E-03     109.172E-03    -54.1809E-03    -54.9762E-03    -54.1790E-03     109.170E-03    -54.9762E-03     1.09923E-03    -79.6816E+06    -90.8580E+06    -261.497E+06    -87.8649E+06    -261.497E+06    -82.6756E+06    -170.235E+03         28.0444
             252     1.05112E-06     85.7963E-03     742.781E-03    -329.272E-03    -505.468E-03     689.293E-03    -275.784E-03    -505.468E-03    -395.252E-03     109.717E-03    -54.1529E-03    -55.5796E-03    -55.1688E-03     109.715E-03    -54.5625E-03     884.401E-06    -83.4972E+06    -87.7001E+06    -260.073E+06    -83.5468E+06    -260.024E+06    -87.7001E+06     2.13356E+06         28.0652
             253     861.909E-09     84.6816E-03     672.061E-03    -235.137E-03    -517.777E-03     580.131E-03    -143.207E-03    -517.777E-03    -547.388E-03     109.498E-03    -54.0110E-03    -55.5066E-03    -55.5059E-03     109.497E-03    -54.0110E-03     700.928E-06    -81.6052E+06    -85.7335E+06    -254.230E+06    -84.5753E+06    -254.179E+06    -82.8141E+06     2.35362E+06         28.0889
             254     86.0851E-09     83.5684E-03     565.523E-03    -225.509E-03    -427.690E-03     491.455E-03    -151.441E-03    -427.690E-03    -459.617E-03     109.639E-03    -54.5011E-03    -55.1348E-03    -54.9775E-03     109.637E-03    -54.6562E-03     1.10626E-03    -82.0182E+06    -85.4009E+06    -253.013E+06    -84.9430E+06    -253.008E+06    -82.4814E+06    -281.151E+03         28.0979
             255    -387.250E-09     82.4518E-03     474.572E-03    -172.345E-03    -407.191E-03     388.496E-03    -311.201E-03    -182.260E-03    -517.976E-03     110.381E-03    -54.8794E-03    -55.4971E-03    -55.3401E-03     110.379E-03    -55.0346E-03     691.332E-06    -84.5520E+06    -86.9631E+06    -254.214E+06    -84.5575E+06    -254.209E+06    -86.9631E+06    -259.322E+03         28.0985
             256     1.25529E-06     81.3358E-03     436.594E-03    -59.1225E-03    -487.012E-03     272.617E-03    -323.036E-03    -59.1225E-03    -686.850E-03     109.912E-03    -54.5329E-03    -55.3772E-03    -55.3744E-03     109.909E-03    -54.5329E-03     888.713E-06    -80.9698E+06    -86.4363E+06    -256.223E+06    -84.4955E+06    -256.216E+06    -82.9176E+06    -376.299E+03         28.0986
             257    -492.697E-09     80.2210E-03     399.155E-03     71.9601E-03    -565.346E-03     118.565E-03    -284.755E-03     71.9601E-03    -871.909E-03     109.884E-03    -54.4535E-03    -55.4357E-03    -55.4327E-03     109.881E-03    -54.4535E-03     1.23953E-03    -74.8575E+06    -83.4704E+06    -254.443E+06    -78.3868E+06    -254.432E+06    -79.9518E+06    -1.37228E+06         28.1039
             258     1.56165E-06     79.1069E-03     368.127E-03     231.601E-03    -715.300E-03    -32.6436E-03    -314.530E-03     231.601E-03        -1.04218     110.521E-03    -54.8848E-03    -55.6440E-03    -55.6438E-03     110.521E-03    -54.8848E-03     235.325E-06    -72.7243E+06    -80.3287E+06    -254.993E+06    -75.2395E+06    -254.988E+06    -77.8186E+06    -510.698E+03         28.1082
             259    -1.22824E-06     77.9904E-03     407.685E-03     287.967E-03    -807.965E-03    -148.829E-03    -251.451E-03     287.967E-03        -1.20621     110.166E-03    -54.7358E-03    -55.4427E-03    -54.8943E-03     110.165E-03    -55.2838E-03     302.747E-06    -79.8723E+06    -83.4097E+06    -257.434E+06    -83.4103E+06    -257.433E+06    -79.8723E+06     304.271E+03         28.1049
             260     199.841E-09     76.8743E-03     466.537E-03     213.519E-03    -801.315E-03    -257.513E-03    -260.157E-03     396.411E-03        -1.08495     109.851E-03    -54.4486E-03    -55.4135E-03    -54.8643E-03     109.850E-03    -54.9966E-03     883.780E-06    -79.9664E+06    -83.4038E+06    -257.907E+06    -81.0040E+06    -257.896E+06    -82.3764E+06    -804.805E+03         28.1003
             261     573.917E-09     75.7596E-03     570.335E-03     137.681E-03    -843.709E-03    -403.483E-03    -302.546E-03     570.335E-03    -971.542E-03     110.103E-03    -54.5591E-03    -55.5437E-03    -55.5409E-03     110.100E-03    -54.5591E-03     1.33806E-03    -77.7008E+06    -80.4616E+06    -254.794E+06    -77.8052E+06    -254.690E+06    -80.4616E+06     1.88824E+06         28.1027
             262     497.043E-09     74.6433E-03     724.878E-03     119.476E-03    -988.545E-03    -544.748E-03    -324.321E-03     724.878E-03        -1.08581     110.305E-03    -54.6276E-03    -55.6677E-03    -55.6650E-03     110.302E-03    -54.6276E-03     1.30982E-03    -75.4107E+06    -77.3945E+06    -247.859E+06    -77.1404E+06    -247.763E+06    -75.7615E+06     2.40935E+06         28.1094
             263     430.304E-09     73.5284E-03     810.415E-03     45.8933E-03    -999.920E-03    -635.872E-03    -318.155E-03     810.415E-03    -990.163E-03     110.053E-03    -54.7214E-03    -55.3209E-03    -55.3201E-03     110.052E-03    -54.7214E-03     429.744E-06    -76.4281E+06    -79.0707E+06    -248.469E+06    -78.0806E+06    -248.449E+06    -77.4376E+06    -1.64314E+06         28.1156
             264    -205.407E-09     72.4147E-03     945.722E-03    -58.2832E-03        -1.01321    -778.151E-03    -293.337E-03     945.722E-03    -815.446E-03     109.589E-03    -54.6944E-03    -54.8926E-03    -54.8926E-03     109.589E-03    -54.6944E-03    -65.6797E-06    -76.4633E+06    -79.3280E+06    -247.376E+06    -78.3967E+06    -247.297E+06    -77.4728E+06     1.05066E+06         28.1215
             265     385.743E-09     71.2979E-03         1.10597    -74.3762E-03        -1.16243    -934.914E-03    -301.889E-03         1.10597    -884.430E-03     110.092E-03    -54.6651E-03    -55.4248E-03    -55.4224E-03     110.089E-03    -54.6651E-03     901.440E-06    -69.2348E+06    -73.0736E+06    -243.319E+06    -71.1526E+06    -243.257E+06    -71.2184E+06     1.88854E+06         28.1228
             266     892.178E-09     70.1827E-03         1.18592    -18.3932E-03        -1.30407        -1.01277    -309.691E-03         1.18592        -1.07616     110.768E-03    -55.0329E-03    -55.7318E-03    -55.7192E-03     110.766E-03    -55.0431E-03     1.05615E-03    -74.2104E+06    -76.5355E+06    -247.253E+06    -74.5881E+06    -247.217E+06    -76.1940E+06    -2.07963E+06         28.1119
             267    -917.549E-09     69.0664E-03         1.27873    -76.8971E-03        -1.33216        -1.08578    -323.272E-03         1.27873    -989.048E-03     109.968E-03    -54.9310E-03    -55.0363E-03    -54.9298E-03     109.967E-03    -55.0363E-03    -412.524E-06    -79.7013E+06    -80.0713E+06    -252.150E+06    -80.1058E+06    -252.087E+06    -79.7298E+06    -128.390E+03         28.0927
             268     736.928E-09     67.9530E-03         1.39426    -108.185E-03        -1.42375        -1.20117    -330.765E-03         1.39426    -985.291E-03     109.338E-03    -54.3037E-03    -55.0347E-03    -54.9373E-03     109.335E-03    -54.3988E-03     52.7554E-06    -77.0053E+06    -78.2570E+06    -250.145E+06    -78.2680E+06    -250.106E+06    -77.0338E+06     612.489E+03         28.0845
             269     466.660E-09     66.8364E-03         1.47032    -150.535E-03        -1.47367        -1.23647    -387.741E-03         1.47032        -1.01503     110.268E-03    -54.7114E-03    -55.5459E-03    -55.5430E-03     110.265E-03    -54.7114E-03     1.37436E-03    -74.0945E+06    -75.5703E+06    -247.516E+06    -75.3305E+06    -247.503E+06    -74.3471E+06    -572.788E+03         28.1031
             270    -104.624E-09     65.7211E-03         1.51137    -240.801E-03        -1.42322        -1.24091    -423.113E-03         1.51137    -850.763E-03     110.946E-03    -55.2748E-03    -55.6593E-03    -55.6576E-03     110.945E-03    -55.2748E-03     692.464E-06    -74.3813E+06    -74.9076E+06    -246.572E+06    -74.3833E+06    -246.570E+06    -74.9076E+06     535.617E+03         28.1323
             271     448.522E-09     64.6046E-03         1.52784    -219.324E-03        -1.46339        -1.34570    -337.007E-03         1.52784    -713.114E-03     110.438E-03    -55.1007E-03    -55.3367E-03    -55.3352E-03     110.437E-03    -55.1007E-03     650.722E-06    -77.0941E+06    -77.9900E+06    -246.870E+06    -77.1072E+06    -246.857E+06    -77.9900E+06     1.19289E+06         28.1370
             272    -377.191E-09     63.4881E-03         1.50188    -203.759E-03        -1.44330        -1.34883    -298.225E-03         1.50188    -654.033E-03     109.753E-03    -54.6059E-03    -55.1563E-03    -55.1548E-03     109.752E-03    -54.6059E-03     834.697E-06    -76.1166E+06    -77.6124E+06    -245.222E+06    -77.0121E+06    -245.200E+06    -76.7389E+06     185.226E+03         28.1288
             273     1.33656E-06     62.3752E-03         1.52424    -306.197E-03        -1.35740        -1.30225    -361.342E-03         1.52424    -391.266E-03     109.568E-03    -54.4621E-03    -55.1092E-03    -55.1084E-03     109.567E-03    -54.4621E-03     620.822E-06    -76.4415E+06    -78.8390E+06    -247.751E+06    -77.3318E+06    -247.735E+06    -77.9654E+06    -1.68643E+06         28.1356
             274     16.0985E-03     60.5475E-03     108.997E-03     82.1857E-03    -355.181E-03     81.2718E-03    -354.267E-03     108.997E-03     8.98706E-03     112.923E-03    -54.1991E-03    -58.8068E-03    -53.4614E-03     108.463E-03    -55.0846E-03     43.1623E-03     173.682E+06     128.228E+06    -7.35432E+06    -7.34111E+06     173.668E+06     128.228E+06     571.116E+03         45.1117
             275     15.1514E-03     60.4616E-03     113.584E-03     91.9890E-03    -362.394E-03     94.2322E-03    -361.371E-03     110.319E-03     4.48862E-03     114.033E-03    -55.1284E-03    -59.0531E-03    -53.3510E-03     108.331E-03    -55.1284E-03     59.4493E-03     171.565E+06     117.522E+06    -15.0865E+06    -15.0606E+06     171.539E+06     117.522E+06     587.396E+03         42.2395
             276     14.2026E-03     60.4163E-03     125.891E-03     105.070E-03    -384.160E-03     119.794E-03    -383.544E-03     110.551E-03    -23.3677E-03     111.738E-03    -55.0239E-03    -56.9022E-03    -53.2557E-03     108.092E-03    -55.0239E-03     48.5676E-03     162.214E+06     79.4590E+06    -23.4420E+06    -23.4181E+06     162.190E+06     79.4590E+06     1.09383E+06         39.1623
             277     13.2552E-03     60.3557E-03     127.542E-03     106.863E-03    -386.353E-03     123.684E-03    -385.493E-03     109.861E-03     12.8420E-03     111.804E-03    -54.7592E-03    -57.0814E-03    -53.5081E-03     108.230E-03    -54.7592E-03     48.0200E-03     134.547E+06     23.9253E+06    -30.1431E+06    -30.1181E+06     134.522E+06     23.9253E+06    -100.472E+03         36.5569
             278     12.3073E-03     60.3117E-03     121.315E-03     102.187E-03    -374.503E-03     112.891E-03    -373.250E-03     109.359E-03    -385.457E-06     110.495E-03    -54.7187E-03    -55.7384E-03    -53.8080E-03     108.565E-03    -54.7187E-03     35.2793E-03     57.5226E+06    -3.88484E+06    -33.2029E+06    -33.1663E+06     56.7461E+06    -3.14500E+06    -1.33000E+06         34.6885
             279     11.3607E-03     60.2786E-03     116.727E-03     101.831E-03    -370.028E-03     108.520E-03    -369.303E-03     109.312E-03    -19.2860E-03     110.266E-03    -54.9119E-03    -55.4284E-03    -54.2841E-03     109.122E-03    -54.9119E-03     27.2605E-03    -5.26526E+06    -20.1957E+06    -51.3900E+06    -35.1420E+06    -34.1280E+06    -7.58095E+06    -452.681E+03         33.4174
             280     10.4135E-03     60.2530E-03     115.992E-03     106.976E-03    -376.269E-03     113.270E-03    -375.727E-03     109.157E-03     21.9991E-03     110.075E-03    -55.0396E-03    -55.2130E-03    -54.4876E-03     109.350E-03    -55.0396E-03     21.7201E-03    -10.5488E+06    -37.0665E+06    -93.4299E+06    -37.0774E+06    -93.4190E+06    -10.5488E+06    -154.165E+03         32.4266
             281     9.46691E-03     60.2318E-03     116.797E-03     105.811E-03    -376.617E-03     112.573E-03    -375.365E-03     108.782E-03     7.95012E-03     110.076E-03    -55.0110E-03    -55.2051E-03    -54.5809E-03     109.571E-03    -55.1303E-03     18.1993E-03    -6.83984E+06    -39.1076E+06    -133.800E+06    -39.1225E+06    -133.785E+06    -6.83984E+06     224.661E+03         31.5608
             282     8.51956E-03     60.2139E-03     113.385E-03     95.5099E-03    -363.268E-03     98.0073E-03    -361.633E-03     109.253E-03    -12.3678E-03     110.135E-03    -54.9382E-03    -55.2056E-03    -54.5974E-03     109.750E-03    -55.1609E-03     15.8976E-03    -8.57151E+06    -42.1166E+06    -160.716E+06    -42.1245E+06    -160.708E+06    -8.57151E+06     832.575E+03         30.8095
             283     7.57284E-03     60.1991E-03     113.211E-03     89.3750E-03    -356.964E-03     89.3005E-03    -355.001E-03     111.323E-03     302.457E-06     110.167E-03    -55.0127E-03    -55.2189E-03    -54.7479E-03     109.880E-03    -55.1965E-03     13.7257E-03    -15.1596E+06    -46.3440E+06    -183.072E+06    -46.3554E+06    -183.061E+06    -15.1596E+06     693.799E+03         30.1774
             284     6.62645E-03     60.1851E-03     126.453E-03     98.1372E-03    -377.735E-03     109.778E-03    -375.912E-03     112.990E-03    -20.0533E-03     110.266E-03    -55.0749E-03    -55.2558E-03    -54.9356E-03     110.058E-03    -55.1864E-03     11.6986E-03    -20.2877E+06    -51.8318E+06    -206.214E+06    -51.8446E+06    -206.201E+06    -20.2877E+06     894.332E+03         29.6650
             285     5.67932E-03     60.1735E-03     147.407E-03     105.237E-03    -405.720E-03     140.026E-03    -403.887E-03     110.784E-03    -7.26564E-03     110.400E-03    -55.1626E-03    -55.2560E-03    -55.0712E-03     110.258E-03    -55.2056E-03     9.62839E-03    -26.9873E+06    -57.4393E+06    -224.898E+06    -57.4460E+06    -224.891E+06    -26.9873E+06     1.01332E+06         29.2501
             286     4.73346E-03     60.1648E-03     146.102E-03     104.675E-03    -403.779E-03     140.846E-03    -398.523E-03     104.675E-03     38.0167E-03     110.203E-03    -55.0902E-03    -55.2128E-03    -55.0020E-03     110.106E-03    -55.2033E-03     8.01161E-03    -37.0716E+06    -61.7551E+06    -234.847E+06    -61.7679E+06    -234.834E+06    -37.0716E+06     993.060E+03         28.9216
             287     3.78681E-03     60.1565E-03     124.033E-03     88.3694E-03    -363.917E-03     108.121E-03    -359.614E-03     99.9782E-03     29.7938E-03     109.966E-03    -54.8811E-03    -55.1647E-03    -54.8202E-03     109.899E-03    -55.1586E-03     6.58174E-03    -47.2210E+06    -64.8475E+06    -238.373E+06    -64.8607E+06    -238.360E+06    -47.2210E+06     990.185E+03         28.6593
             288     2.83891E-03     60.1499E-03     108.636E-03     74.8309E-03    -332.689E-03     79.4587E-03    -331.531E-03     102.850E-03     32.0703E-03     110.219E-03    -54.9631E-03    -55.2291E-03    -54.9298E-03     110.180E-03    -55.2228E-03     5.07305E-03    -54.9074E+06    -68.4553E+06    -244.105E+06    -68.4646E+06    -244.096E+06    -54.9074E+06     1.07558E+06         28.4420
             289     1.89331E-03     60.1462E-03     114.957E-03     93.5352E-03    -359.780E-03     88.1175E-03    -352.429E-03     113.023E-03    -50.7525E-03     110.402E-03    -55.0949E-03    -55.2551E-03    -55.0832E-03     110.384E-03    -55.2488E-03     3.20126E-03    -63.5082E+06    -73.1109E+06    -247.511E+06    -73.1266E+06    -247.495E+06    -63.5082E+06     1.33712E+06         28.2845
             290     946.401E-06     60.1442E-03     859.974E-03    -138.206E-03    -870.310E-03    -619.720E-03    -386.862E-03     858.041E-03    -145.026E-03     110.436E-03    -54.9625E-03    -55.4688E-03    -55.2942E-03     110.433E-03    -55.1338E-03     1.03141E-03    -74.4193E+06    -78.6826E+06    -247.932E+06    -78.5609E+06    -247.922E+06    -74.5507E+06     922.265E+03         28.1942
             291     16.0993E-03     59.4306E-03     123.309E-03     100.199E-03    -387.323E-03     112.836E-03    -386.109E-03     109.458E-03     31.4133E-03     112.777E-03    -54.2280E-03    -58.6635E-03    -53.3540E-03     108.350E-03    -55.1105E-03     42.9672E-03     173.498E+06     128.483E+06    -7.47712E+06    -7.46962E+06     173.490E+06     128.483E+06    -321.907E+03         45.1014
             292     15.1508E-03     59.3469E-03     114.207E-03     94.6437E-03    -368.744E-03     98.5276E-03    -368.079E-03     109.658E-03     17.8637E-03     113.987E-03    -55.1317E-03    -58.9709E-03    -53.2589E-03     108.275E-03    -55.1317E-03     59.5981E-03     169.906E+06     116.743E+06    -15.4662E+06    -15.4484E+06     169.888E+06     116.743E+06     861.532E+03         42.2327
             293     14.2031E-03     59.3008E-03     110.693E-03     88.3856E-03    -352.953E-03     88.2869E-03    -352.855E-03     110.693E-03     6.08240E-03     111.854E-03    -55.0375E-03    -56.9756E-03    -53.2901E-03     108.168E-03    -55.0375E-03     48.9038E-03     161.932E+06     80.0828E+06    -22.7515E+06    -22.7223E+06     161.903E+06     80.0828E+06     2.24486E+06         39.1573
             294     13.2553E-03     59.2399E-03     117.839E-03     96.8699E-03    -366.740E-03     101.943E-03    -365.747E-03     111.773E-03     29.6945E-03     111.931E-03    -54.7654E-03    -57.2194E-03    -53.6435E-03     108.355E-03    -54.7654E-03     48.0822E-03     137.998E+06     26.2534E+06    -27.9423E+06    -27.9065E+06     137.962E+06     26.2534E+06     913.200E+03         36.5534
             295     12.3081E-03     59.1962E-03     129.693E-03     111.506E-03    -393.098E-03     128.420E-03    -391.825E-03     111.506E-03     14.8387E-03     110.579E-03    -54.7201E-03    -55.8677E-03    -53.9222E-03     108.634E-03    -54.7201E-03     35.4503E-03     58.0564E+06     -3.0467E+06    -31.8971E+06    -31.7794E+06     57.1988E+06    -2.30686E+06    -1.13101E+06         34.6857
             296     11.3602E-03     59.1630E-03     123.580E-03     109.935E-03    -387.579E-03     122.717E-03    -387.175E-03     110.394E-03    -26.9970E-03     110.201E-03    -54.9245E-03    -55.3941E-03    -54.2513E-03     109.058E-03    -54.9245E-03     27.2051E-03    -6.37656E+06    -18.9576E+06    -50.2165E+06    -33.7416E+06    -35.1466E+06    -6.66261E+06    -1.35259E+06         33.4144
             297     10.4135E-03     59.1371E-03     113.776E-03     107.538E-03    -378.081E-03     111.163E-03    -377.798E-03     109.868E-03    -7.50619E-03     109.951E-03    -54.9567E-03    -55.1908E-03    -54.3840E-03     109.235E-03    -55.0476E-03     21.5749E-03    -8.98771E+06    -35.2273E+06    -93.6651E+06    -35.2680E+06    -93.6244E+06    -8.98771E+06    -542.795E+03         32.4232
             298     9.46636E-03     59.1165E-03     112.785E-03     105.420E-03    -376.532E-03     107.925E-03    -376.195E-03     109.942E-03     14.9113E-03     109.916E-03    -54.8804E-03    -55.1724E-03    -54.3932E-03     109.410E-03    -55.1533E-03     18.2048E-03    -6.33941E+06    -38.7527E+06    -135.293E+06    -38.7716E+06    -135.275E+06    -6.33941E+06     171.965E+03         31.5572
             299     8.51933E-03     59.0988E-03     112.968E-03     95.5484E-03    -367.294E-03     96.6023E-03    -366.222E-03     110.842E-03     40.1750E-03     110.180E-03    -54.9732E-03    -55.2016E-03    -54.5919E-03     109.798E-03    -55.2016E-03     15.7985E-03    -8.03013E+06    -42.8831E+06    -161.034E+06    -42.9039E+06    -161.013E+06    -8.03013E+06     1.03117E+06         30.8086
             300     7.57273E-03     59.0827E-03     119.766E-03     99.0318E-03    -378.357E-03     105.206E-03    -376.791E-03     112.026E-03     51.2865E-03     110.331E-03    -55.1382E-03    -55.2468E-03    -54.8807E-03     110.051E-03    -55.2244E-03     13.5656E-03    -14.6416E+06    -47.2313E+06    -182.797E+06    -47.2587E+06    -182.770E+06    -14.6416E+06     1.72228E+06         30.1796
             301     6.62624E-03     59.0696E-03     130.245E-03     109.867E-03    -397.856E-03     128.204E-03    -397.116E-03     111.168E-03     14.8559E-03     110.331E-03    -55.1271E-03    -55.2383E-03    -54.9599E-03     110.124E-03    -55.1982E-03     11.6674E-03    -21.5185E+06    -51.8730E+06    -205.808E+06    -51.8874E+06    -205.794E+06    -21.5185E+06     1.39084E+06         29.6676
             302     5.67982E-03     59.0582E-03     133.894E-03     101.982E-03    -390.997E-03     127.072E-03    -390.541E-03     108.348E-03    -27.4329E-03     110.347E-03    -55.1026E-03    -55.2405E-03    -54.9779E-03     110.201E-03    -55.2195E-03     9.76764E-03    -28.4114E+06    -56.0980E+06    -224.424E+06    -56.1037E+06    -224.419E+06    -28.4114E+06     948.087E+03         29.2515
             303     4.73280E-03     59.0487E-03     126.899E-03     94.7028E-03    -377.824E-03     113.806E-03    -376.073E-03     106.045E-03    -20.9541E-03     110.257E-03    -55.1310E-03    -55.2374E-03    -55.0391E-03     110.156E-03    -55.2280E-03     8.15147E-03    -38.4610E+06    -60.9053E+06    -234.419E+06    -60.9117E+06    -234.413E+06    -38.4610E+06     756.205E+03         28.9226
             304     3.78625E-03     59.0416E-03     122.894E-03     88.0546E-03    -366.981E-03     103.784E-03    -365.406E-03     105.589E-03    -15.0736E-03     110.087E-03    -54.9885E-03    -55.1811E-03    -54.9463E-03     110.019E-03    -55.1547E-03     6.67611E-03    -49.1218E+06    -65.7997E+06    -238.088E+06    -65.8058E+06    -238.082E+06    -49.1218E+06     451.689E+03         28.6621
             305     2.83981E-03     59.0350E-03     128.277E-03     81.3672E-03    -364.595E-03     98.3811E-03    -360.718E-03     107.387E-03     43.0183E-03     110.066E-03    -54.7920E-03    -55.2591E-03    -54.7731E-03     110.027E-03    -55.2389E-03     5.00819E-03    -55.3493E+06    -70.0704E+06    -244.240E+06    -70.0736E+06    -244.237E+06    -55.3493E+06     282.714E+03         28.4467
             306     1.89209E-03     59.0300E-03     130.027E-03     92.9652E-03    -380.320E-03     104.105E-03    -371.885E-03     110.453E-03    -11.3345E-03     110.349E-03    -54.9374E-03    -55.3903E-03    -54.9211E-03     110.333E-03    -55.3903E-03     3.08873E-03    -62.2061E+06    -74.3849E+06    -247.036E+06    -74.3978E+06    -247.023E+06    -62.2061E+06     326.476E+03         28.2884
             307     946.005E-06     59.0289E-03     839.962E-03    -138.814E-03    -861.801E-03    -609.857E-03    -383.541E-03     832.745E-03    -55.7726E-03     110.852E-03    -54.9559E-03    -55.8931E-03    -55.7286E-03     110.848E-03    -55.1167E-03     1.40092E-03    -72.4322E+06    -79.2127E+06    -246.449E+06    -77.9090E+06    -246.423E+06    -73.7618E+06     1.05694E+06         28.1944
             308     16.0987E-03     58.3169E-03     128.380E-03     108.490E-03    -393.205E-03     125.286E-03    -392.236E-03     110.615E-03     17.3923E-03     112.674E-03    -54.0162E-03    -58.7681E-03    -53.1082E-03     108.132E-03    -55.1345E-03     43.3750E-03     172.855E+06     128.353E+06    -7.23123E+06    -7.22608E+06     172.850E+06     128.353E+06    -17.1614E+03         45.0900
             309     15.1502E-03     58.2303E-03     122.222E-03     105.167E-03    -386.558E-03     117.073E-03    -386.330E-03     110.088E-03    -7.57179E-03     114.140E-03    -55.1487E-03    -59.1006E-03    -53.3180E-03     108.357E-03    -55.1487E-03     59.7788E-03     168.957E+06     116.588E+06    -16.1200E+06    -16.1153E+06     168.952E+06     116.588E+06     186.672E+03         42.2242
             310     14.2025E-03     58.1858E-03     116.246E-03     93.4857E-03    -366.553E-03     99.2982E-03    -366.431E-03     110.312E-03     4.86419E-03     111.926E-03    -55.0397E-03    -57.0745E-03    -53.3718E-03     108.223E-03    -55.0397E-03     48.9323E-03     161.377E+06     78.9416E+06    -22.9497E+06    -22.9404E+06     161.368E+06     78.9416E+06     719.039E+03         39.1511
             311     13.2547E-03     58.1239E-03     114.531E-03     93.5055E-03    -362.886E-03     96.2685E-03    -362.299E-03     111.181E-03     24.2043E-03     112.070E-03    -54.7679E-03    -57.3684E-03    -53.7313E-03     108.433E-03    -54.7679E-03     48.4681E-03     139.747E+06     26.6854E+06    -27.5817E+06    -27.5589E+06     139.724E+06     26.6854E+06     1.70416E+06         36.5490
             312     12.3073E-03     58.0806E-03     118.601E-03     103.361E-03    -377.727E-03     109.490E-03    -376.997E-03     111.742E-03     25.4571E-03     110.759E-03    -54.7211E-03    -56.0334E-03    -54.0923E-03     108.817E-03    -54.7211E-03     35.4489E-03     59.7510E+06    -2.22209E+06    -31.1757E+06    -31.0615E+06     59.6368E+06    -2.22209E+06     271.830E+03         34.6815
             313     11.3611E-03     58.0472E-03     118.281E-03     108.608E-03    -385.246E-03     114.901E-03    -384.936E-03     111.679E-03     2.70634E-03     110.164E-03    -54.8604E-03    -55.3840E-03    -54.1709E-03     109.011E-03    -54.9210E-03     27.3329E-03    -8.44688E+06    -21.2971E+06    -50.7555E+06    -34.8085E+06    -35.8793E+06    -9.81175E+06    -1.25647E+06         33.4093
             314     10.4136E-03     58.0217E-03     115.428E-03     104.194E-03    -380.605E-03     107.679E-03    -380.415E-03     111.754E-03    -4.93300E-03     109.807E-03    -54.8722E-03    -55.0871E-03    -54.1770E-03     109.077E-03    -55.0524E-03     21.7518E-03    -12.0984E+06    -37.9766E+06    -94.8915E+06    -38.0233E+06    -94.8448E+06    -12.0984E+06    -567.648E+03         32.4188
             315     9.46623E-03     58.0016E-03     116.382E-03     103.563E-03    -383.340E-03     107.651E-03    -383.260E-03     112.214E-03    -4.67046E-03     110.033E-03    -54.9852E-03    -55.1703E-03    -54.4682E-03     109.516E-03    -55.1703E-03     18.4088E-03    -9.06281E+06    -40.1861E+06    -135.880E+06    -40.2112E+06    -135.855E+06    -9.06281E+06     84.9999E+03         31.5542
             316     8.51941E-03     57.9825E-03     126.129E-03     110.269E-03    -399.499E-03     123.940E-03    -398.861E-03     111.819E-03     10.9557E-03     110.275E-03    -55.0641E-03    -55.2051E-03    -54.6774E-03     109.888E-03    -55.2051E-03     15.9042E-03    -9.95067E+06    -43.1661E+06    -161.894E+06    -43.1870E+06    -161.873E+06    -9.95067E+06      983.83E+03         30.8064
             317     7.57274E-03     57.9673E-03     130.059E-03     109.980E-03    -401.062E-03     129.086E-03    -400.089E-03     109.980E-03     3.09923E-03     110.223E-03    -55.0547E-03    -55.2324E-03    -54.7749E-03     109.944E-03    -55.2324E-03     13.5604E-03    -15.1300E+06    -46.0694E+06    -182.660E+06    -46.0901E+06    -182.640E+06    -15.1300E+06     1.28562E+06         30.1783
             318     6.62582E-03     57.9537E-03     115.902E-03     102.342E-03    -378.323E-03     108.718E-03    -377.603E-03     108.806E-03    -21.1577E-03     110.325E-03    -55.1004E-03    -55.2559E-03    -54.9092E-03     110.116E-03    -55.2382E-03     11.7104E-03    -21.1170E+06    -48.9954E+06    -205.326E+06    -49.0026E+06    -205.319E+06    -21.1170E+06     941.158E+03         29.6666
             319     5.67928E-03     57.9426E-03     110.551E-03     91.1063E-03    -361.786E-03     90.0344E-03    -360.714E-03     110.551E-03    -38.7291E-03     110.465E-03    -55.1297E-03    -55.2944E-03    -54.9999E-03     110.318E-03    -55.2766E-03     9.83865E-03    -26.7370E+06    -53.0848E+06    -224.391E+06    -53.0921E+06    -224.383E+06    -26.7370E+06     1.08418E+06         29.2521
             320     4.73264E-03     57.9333E-03     115.062E-03     88.9159E-03    -364.909E-03     87.4839E-03    -363.477E-03     115.062E-03    -2.62159E-03     110.412E-03    -55.1841E-03    -55.3112E-03    -55.0842E-03     110.312E-03    -55.3112E-03     8.08610E-03    -33.8415E+06    -57.3966E+06    -234.021E+06    -57.4056E+06    -234.012E+06    -33.8415E+06     1.19550E+06         28.9264
             321     3.78612E-03     57.9255E-03     137.196E-03     104.061E-03    -400.728E-03     122.331E-03    -399.029E-03     117.227E-03    -9.84574E-03     110.363E-03    -55.1914E-03    -55.2286E-03    -55.1494E-03     110.301E-03    -55.2083E-03     6.35457E-03    -45.6642E+06    -62.3014E+06    -237.737E+06    -62.3135E+06    -237.725E+06    -45.6642E+06     961.244E+03         28.6682
             322     2.83960E-03     57.9199E-03     167.073E-03     107.930E-03    -433.680E-03     160.043E-03    -426.651E-03     107.930E-03     53.1722E-03     110.203E-03    -54.9833E-03    -55.2223E-03    -54.9679E-03     110.167E-03    -55.2020E-03     4.79546E-03    -55.6268E+06    -67.4145E+06    -243.199E+06    -67.4232E+06    -243.190E+06    -55.6268E+06     312.339E+03         28.4526
             323     1.89307E-03     57.9151E-03     157.990E-03     84.1080E-03    -400.586E-03     144.577E-03    -387.173E-03     84.1080E-03     515.439E-06     110.196E-03    -54.9237E-03    -55.2926E-03    -54.9066E-03     110.179E-03    -55.2926E-03     3.19606E-03    -63.0141E+06    -71.9624E+06    -247.029E+06    -71.9666E+06    -247.025E+06    -63.0141E+06    -449.328E+03         28.2886
             324     946.091E-06     57.9115E-03     798.505E-03    -76.3749E-03    -879.478E-03    -626.607E-03    -294.538E-03     763.798E-03     42.3604E-03     110.619E-03    -55.0159E-03    -55.6139E-03    -55.4521E-03     110.614E-03    -55.1725E-03     1.67549E-03    -70.9076E+06    -76.6416E+06    -246.297E+06    -75.3313E+06    -246.278E+06    -72.2371E+06     153.442E+03         28.1870
             325     16.0977E-03     57.2011E-03     116.350E-03     101.160E-03    -376.079E-03     104.312E-03    -375.318E-03     112.436E-03     1.76258E-03     112.706E-03    -54.0373E-03    -58.7874E-03    -53.1857E-03     108.210E-03    -55.1429E-03     42.9835E-03     173.359E+06     127.886E+06    -7.74273E+06    -7.73971E+06     173.356E+06     127.886E+06     374.795E+03         45.0776
             326     15.1506E-03     57.1145E-03     122.540E-03     110.133E-03    -391.356E-03     119.698E-03    -390.956E-03     112.575E-03    -7.31085E-03     114.066E-03    -55.1806E-03    -59.0013E-03    -53.2732E-03     108.338E-03    -55.1806E-03     59.4814E-03     169.514E+06     117.125E+06    -16.4790E+06    -16.4755E+06     169.510E+06     117.125E+06    -335.882E+03         42.2145
             327     14.2025E-03     57.0704E-03     127.153E-03     112.005E-03    -399.001E-03     126.823E-03    -398.671E-03     112.005E-03    -17.9278E-03     111.932E-03    -55.0542E-03    -57.0637E-03    -53.3751E-03     108.244E-03    -55.0542E-03     48.8311E-03     160.085E+06     78.9231E+06    -24.2085E+06    -24.2063E+06     160.083E+06     78.9231E+06    -257.607E+03         39.1441
             328     13.2546E-03     57.0082E-03     122.870E-03     105.698E-03    -388.923E-03     116.254E-03    -388.076E-03     111.468E-03    -10.7228E-03     112.155E-03    -54.7773E-03    -57.4532E-03    -53.8252E-03     108.527E-03    -54.7773E-03     48.4248E-03     138.745E+06     27.0462E+06    -28.8536E+06    -28.8411E+06     138.732E+06     27.0462E+06     648.532E+03         36.5446
             329     12.3079E-03     56.9642E-03     114.044E-03     101.249E-03    -377.305E-03     102.254E-03    -376.004E-03     111.738E-03    -11.8514E-03     110.613E-03    -54.7577E-03    -55.8801E-03    -53.9672E-03     108.700E-03    -54.7577E-03     35.1436E-03     61.4679E+06     850.066E+03    -31.5455E+06    -31.4451E+06     61.3676E+06     850.066E+03     1.29688E+06         34.6797
             330     11.3602E-03     56.9321E-03     113.250E-03     105.506E-03    -382.385E-03     105.596E-03    -381.643E-03     112.418E-03    -4.37459E-03     110.051E-03    -54.8736E-03    -55.2559E-03    -54.0556E-03     108.911E-03    -54.9342E-03     27.1902E-03    -7.99278E+06    -18.7879E+06    -51.8378E+06    -34.2570E+06    -35.2657E+06    -9.09591E+06     701.473E+03         33.4097
             331     10.4126E-03     56.9068E-03     114.327E-03     96.0455E-03    -377.062E-03     96.6583E-03    -376.843E-03     113.495E-03     11.3561E-03     109.998E-03    -54.9656E-03    -55.1577E-03    -54.3367E-03     109.266E-03    -55.0548E-03     21.7840E-03    -13.2350E+06    -37.6348E+06    -95.2790E+06    -37.6675E+06    -95.2463E+06    -13.2350E+06    -42.9174E+03         32.4198
             332     9.46591E-03     56.8856E-03     116.599E-03     96.1139E-03    -381.382E-03     95.8445E-03    -379.787E-03     115.273E-03    -22.4516E-03     110.204E-03    -55.0698E-03    -55.2336E-03    -54.6249E-03     109.698E-03    -55.1726E-03     18.2205E-03    -10.0524E+06    -41.0902E+06    -135.880E+06    -41.1311E+06    -135.839E+06    -10.0524E+06     15.8642E+03         31.5540
             333     8.51942E-03     56.8669E-03     134.491E-03     111.651E-03    -412.753E-03     129.059E-03    -411.224E-03     115.553E-03    -37.2035E-03     110.157E-03    -54.9369E-03    -55.2048E-03    -54.5577E-03     109.778E-03    -55.2048E-03     15.7464E-03    -11.6220E+06    -43.6645E+06    -162.651E+06    -43.6766E+06    -162.639E+06    -11.6220E+06    -156.339E+03         30.8043
             334     7.57247E-03     56.8518E-03     135.985E-03     113.553E-03    -412.262E-03     134.761E-03    -411.038E-03     113.553E-03     743.920E-06     110.098E-03    -54.8980E-03    -55.2480E-03    -54.6156E-03     109.816E-03    -55.2480E-03     13.6145E-03    -16.6187E+06    -46.2719E+06    -182.670E+06    -46.2731E+06    -182.669E+06    -16.6187E+06    -56.3196E+03         30.1756
             335     6.62568E-03     56.8381E-03     117.410E-03     106.969E-03    -385.020E-03     109.900E-03    -383.026E-03     112.484E-03    -19.6723E-03     110.284E-03    -55.0421E-03    -55.2745E-03    -54.8333E-03     110.075E-03    -55.2745E-03     11.6884E-03    -21.0406E+06    -49.2614E+06    -205.566E+06    -49.2638E+06    -205.563E+06    -21.0406E+06     447.157E+03         29.6648
             336     5.67891E-03     56.8269E-03     115.579E-03     100.740E-03    -377.642E-03     100.539E-03    -375.682E-03     113.820E-03    -25.8942E-03     110.553E-03    -55.2153E-03    -55.3201E-03    -55.0721E-03     110.410E-03    -55.3201E-03     9.70187E-03    -26.0084E+06    -53.4334E+06    -224.779E+06    -53.4426E+06    -224.770E+06    -26.0084E+06     1.19380E+06         29.2525
             337     4.73253E-03     56.8175E-03     118.250E-03     100.416E-03    -378.819E-03     99.9212E-03    -376.670E-03     116.596E-03     29.0411E-03     110.522E-03    -55.2718E-03    -55.3324E-03    -55.1733E-03     110.424E-03    -55.3324E-03     8.04057E-03    -34.3055E+06    -58.1482E+06    -233.095E+06    -58.1581E+06    -233.085E+06    -34.3055E+06     616.485E+03         28.9292
             338     3.78613E-03     56.8098E-03     130.250E-03     106.902E-03    -396.630E-03     114.222E-03    -392.515E-03     118.815E-03    -28.6050E-03     110.439E-03    -55.2133E-03    -55.2665E-03    -55.1695E-03     110.375E-03    -55.2467E-03     6.43577E-03    -44.2582E+06    -61.6892E+06    -237.814E+06    -61.6997E+06    -237.804E+06    -44.2582E+06     448.073E+03         28.6725
             339     2.83974E-03     56.8042E-03     153.603E-03     110.690E-03    -423.947E-03     139.624E-03    -414.629E-03     115.351E-03     29.6045E-03     110.490E-03    -55.1947E-03    -55.3110E-03    -55.2652E-03     110.454E-03    -55.2049E-03     4.76648E-03    -54.6093E+06    -64.9520E+06    -241.945E+06    -64.9732E+06    -241.923E+06    -54.6093E+06     1.26614E+06         28.4597
             340     1.89323E-03     56.8000E-03     158.210E-03     101.335E-03    -417.057E-03     133.932E-03    -395.346E-03     103.903E-03    -38.7393E-03     110.308E-03    -55.0553E-03    -55.2795E-03    -55.2004E-03     110.290E-03    -55.1166E-03     3.39660E-03    -62.6862E+06    -68.9526E+06    -245.989E+06    -68.9668E+06    -245.974E+06    -62.6862E+06     522.480E+03         28.2917
             341     946.770E-06     56.7961E-03     801.304E-03    -104.219E-03    -849.741E-03    -580.226E-03    -346.243E-03     773.814E-03     10.3313E-03     110.074E-03    -54.8374E-03    -55.2324E-03    -54.9069E-03     110.067E-03    -55.1558E-03     1.94538E-03    -69.3196E+06    -73.6949E+06    -247.345E+06    -73.2256E+06    -247.334E+06    -69.7999E+06    -987.603E+03         28.1771
             342     16.0995E-03     56.0853E-03     118.496E-03     102.781E-03    -387.365E-03     106.532E-03    -386.872E-03     114.252E-03    -5.68792E-03     112.873E-03    -54.2773E-03    -58.6505E-03    -53.3407E-03     108.417E-03    -55.1312E-03     42.7692E-03     173.565E+06     128.152E+06    -7.69347E+06    -7.69136E+06     173.563E+06     128.152E+06     433.835E+03         45.0655
             343     15.1502E-03     55.9999E-03     117.106E-03     107.083E-03    -385.312E-03     109.119E-03    -384.968E-03     114.726E-03    -4.30409E-03     113.960E-03    -55.1735E-03    -58.8435E-03    -53.1446E-03     108.261E-03    -55.1735E-03     59.3425E-03     169.931E+06     118.156E+06    -15.9640E+06    -15.9546E+06     169.922E+06     118.156E+06     771.245E+03         42.2055
             344     14.2019E-03     55.9544E-03     124.149E-03     108.489E-03    -395.773E-03     117.351E-03    -395.422E-03     114.935E-03    -24.6246E-03     112.009E-03    -55.0478E-03    -57.0841E-03    -53.3860E-03     108.311E-03    -55.0478E-03     48.9266E-03     160.513E+06     80.2266E+06    -23.8556E+06    -23.8350E+06     160.492E+06     80.2266E+06    -345.306E+03         39.1376
             345     13.2552E-03     55.8922E-03     128.199E-03     111.131E-03    -403.678E-03     123.924E-03    -402.967E-03     114.694E-03    -20.4844E-03     112.081E-03    -54.7825E-03    -57.3379E-03    -53.7276E-03     108.471E-03    -54.7825E-03     48.2658E-03     137.349E+06     27.1397E+06    -29.1430E+06    -29.1268E+06     137.333E+06     27.1397E+06    -564.930E+03         36.5410
             346     12.3074E-03     55.8485E-03     121.849E-03     112.281E-03    -398.309E-03     118.268E-03    -396.835E-03     114.388E-03    -37.4679E-03     110.399E-03    -54.7827E-03    -55.6084E-03    -53.7242E-03     108.515E-03    -54.7827E-03     34.8220E-03     60.6410E+06     2.32794E+06    -32.1997E+06    -32.1070E+06     60.5483E+06     2.32794E+06     840.895E+03         34.6799
             347     11.3600E-03     55.8170E-03     115.467E-03     107.298E-03    -389.812E-03     107.059E-03    -388.783E-03     114.677E-03    -37.4109E-03     110.156E-03    -54.9385E-03    -55.2786E-03    -54.1678E-03     109.045E-03    -54.9385E-03     26.8452E-03    -6.30048E+06    -16.2681E+06    -51.8641E+06    -34.0231E+06    -34.0479E+06    -6.36163E+06     1.05305E+06         33.4126
             348     10.4131E-03     55.7907E-03     121.003E-03     102.016E-03    -392.229E-03     107.180E-03    -391.834E-03     115.444E-03     12.7393E-03     110.202E-03    -55.0381E-03    -55.2865E-03    -54.5744E-03     109.490E-03    -55.0381E-03     21.5379E-03    -11.4810E+06    -35.9697E+06    -95.1428E+06    -36.0199E+06    -95.0927E+06    -11.4810E+06     783.855E+03         32.4220
             349     9.46664E-03     55.7696E-03     123.858E-03     104.088E-03    -397.764E-03     110.002E-03    -395.966E-03     116.146E-03    -7.44963E-03     110.141E-03    -55.0255E-03    -55.2246E-03    -54.5930E-03     109.645E-03    -55.1606E-03     18.0451E-03    -7.59907E+06    -38.4511E+06    -134.967E+06    -38.4746E+06    -134.943E+06    -7.59907E+06     157.997E+03         31.5546
             350     8.51942E-03     55.7517E-03     125.466E-03     107.872E-03    -401.738E-03     114.127E-03    -399.087E-03     116.560E-03    -4.15124E-03     110.109E-03    -54.9062E-03    -55.2061E-03    -54.5334E-03     109.736E-03    -55.2061E-03     15.6211E-03    -9.97426E+06    -41.8993E+06    -162.744E+06    -41.9084E+06    -162.735E+06    -9.97426E+06    -659.988E+03         30.8045
             351     7.57234E-03     55.7361E-03     127.538E-03     111.701E-03    -404.977E-03     119.413E-03    -401.637E-03     116.485E-03     69.2443E-03     110.101E-03    -54.8752E-03    -55.2688E-03    -54.6024E-03     109.828E-03    -55.2688E-03     13.3609E-03    -14.8548E+06    -45.8883E+06    -183.168E+06    -45.8910E+06    -183.166E+06    -14.8548E+06    -302.294E+03         30.1753
             352     6.62547E-03     55.7224E-03     122.147E-03     116.087E-03    -402.768E-03     119.152E-03    -399.773E-03     116.087E-03     17.4175E-03     110.219E-03    -54.9607E-03    -55.2990E-03    -54.7616E-03     110.020E-03    -55.2990E-03     11.4206E-03    -19.4795E+06    -50.5576E+06    -206.185E+06    -50.5593E+06    -206.184E+06    -19.4795E+06     252.097E+03         29.6646
             353     5.67892E-03     55.7112E-03     120.523E-03     115.610E-03    -397.797E-03     118.892E-03    -396.166E-03     115.610E-03    -21.4084E-03     110.460E-03    -55.1191E-03    -55.3323E-03    -54.9756E-03     110.316E-03    -55.3323E-03     9.71174E-03    -25.9288E+06    -54.4623E+06    -224.781E+06    -54.4700E+06    -224.773E+06    -25.9288E+06     306.592E+03         29.2529
             354     4.73240E-03     55.7015E-03     118.908E-03     110.593E-03    -390.407E-03     111.701E-03    -388.363E-03     115.756E-03     18.2717E-03     110.498E-03    -55.2118E-03    -55.3457E-03    -55.1113E-03     110.397E-03    -55.3457E-03     8.12151E-03    -36.1232E+06    -58.3659E+06    -232.038E+06    -58.3791E+06    -232.025E+06    -36.1232E+06     247.406E+03         28.9301
             355     3.78568E-03     55.6945E-03     118.456E-03     107.905E-03    -386.945E-03     100.220E-03    -379.260E-03     118.456E-03    -68.2741E-03     110.539E-03    -55.2517E-03    -55.3312E-03    -55.2349E-03     110.473E-03    -55.2818E-03     6.57238E-03    -47.2228E+06    -63.1068E+06    -238.343E+06    -63.1134E+06    -238.337E+06    -47.2228E+06     105.433E+03         28.6752
             356     2.83932E-03     55.6878E-03     127.386E-03     108.383E-03    -395.727E-03     87.6291E-03    -374.972E-03     127.386E-03     32.8178E-03     110.682E-03    -55.2565E-03    -55.4462E-03    -55.4078E-03     110.644E-03    -55.2565E-03     4.96117E-03    -55.4378E+06    -65.8898E+06    -241.728E+06    -65.9041E+06    -241.714E+06    -55.4378E+06     483.232E+03         28.4641
             357     1.89350E-03     55.6843E-03     148.865E-03     116.990E-03    -425.784E-03     89.7101E-03    -398.504E-03     148.865E-03     2.64341E-03     110.520E-03    -55.1089E-03    -55.4293E-03    -55.4111E-03     110.502E-03    -55.1089E-03     3.37466E-03    -61.1042E+06    -68.0868E+06    -244.838E+06    -68.1142E+06    -244.811E+06    -61.1042E+06     1.04865E+06         28.2956
             358     947.047E-06     55.6810E-03     806.419E-03    -189.306E-03    -778.732E-03    -478.899E-03    -489.140E-03     806.419E-03     21.7593E-03     109.941E-03    -54.5850E-03    -55.3529E-03    -55.0861E-03     109.935E-03    -54.8458E-03     1.80131E-03    -68.9588E+06    -72.5932E+06    -247.340E+06    -71.9866E+06    -247.317E+06    -69.5877E+06     188.227E+03         28.1777
             359     16.0981E-03     54.9701E-03     124.419E-03     112.771E-03    -402.624E-03     119.705E-03    -401.215E-03     116.076E-03     18.1337E-03     113.113E-03    -54.2925E-03    -58.8226E-03    -53.5113E-03     108.657E-03    -55.1472E-03     42.9015E-03     172.612E+06     128.533E+06    -7.50327E+06    -7.50223E+06     172.611E+06     128.533E+06     172.302E+03         45.0530
             360     15.1509E-03     54.8845E-03     116.286E-03     108.927E-03    -390.556E-03     108.844E-03    -390.473E-03     116.286E-03    -9.71965E-03     114.240E-03    -55.1593E-03    -59.1317E-03    -53.4166E-03     108.525E-03    -55.1593E-03     59.5749E-03     170.255E+06     119.142E+06    -14.9487E+06    -14.9408E+06     170.247E+06     119.142E+06     657.482E+03         42.1967
             361     14.2031E-03     54.8391E-03     119.079E-03     109.147E-03    -393.677E-03     111.384E-03    -393.598E-03     116.764E-03    -9.59233E-03     112.035E-03    -55.0360E-03    -57.1392E-03    -53.4010E-03     108.297E-03    -55.0360E-03     49.1924E-03     162.290E+06     80.8249E+06    -22.3213E+06    -22.2974E+06     162.266E+06     80.8249E+06     65.4205E+03         39.1316
             362     13.2550E-03     54.7759E-03     123.618E-03     112.156E-03    -400.428E-03     117.773E-03    -399.364E-03     116.937E-03     20.9148E-03     111.879E-03    -54.7836E-03    -57.1471E-03    -53.5646E-03     108.297E-03    -54.7836E-03     47.9244E-03     136.266E+06     27.1018E+06    -28.3695E+06    -28.3454E+06     136.242E+06     27.1018E+06    -473.514E+03         36.5376
             363     12.3075E-03     54.7339E-03     122.058E-03     113.768E-03    -400.581E-03     117.480E-03    -399.138E-03     116.903E-03     14.2819E-03     110.379E-03    -54.7725E-03    -55.5412E-03    -53.6938E-03     108.532E-03    -54.7725E-03     34.5426E-03     59.5406E+06     2.47011E+06    -32.0009E+06    -31.9367E+06     59.1081E+06     2.83832E+06     429.762E+03         34.6782
             364     11.3600E-03     54.7006E-03     118.482E-03     112.087E-03    -395.837E-03     112.922E-03    -395.273E-03     117.083E-03    -12.3163E-03     110.240E-03    -54.9372E-03    -55.3126E-03    -54.1765E-03     109.104E-03    -54.9372E-03     27.1590E-03    -4.94698E+06    -17.0437E+06    -51.3233E+06    -35.1442E+06    -33.1860E+06    -4.98383E+06     1.18899E+06         33.4107
             365     10.4133E-03     54.6750E-03     130.881E-03     113.718E-03    -412.323E-03     127.379E-03    -411.900E-03     116.797E-03     6.51427E-03     110.125E-03    -55.0297E-03    -55.2017E-03    -54.4665E-03     109.390E-03    -55.0297E-03     21.8868E-03    -12.5100E+06    -37.5249E+06    -94.1699E+06    -37.5647E+06    -94.1301E+06    -12.5100E+06     159.865E+03         32.4203
             366     9.46616E-03     54.6542E-03     138.603E-03     115.158E-03    -421.712E-03     138.280E-03    -421.389E-03     115.158E-03     1.09520E-03     110.158E-03    -55.0871E-03    -55.1724E-03    -54.5952E-03     109.644E-03    -55.1509E-03     18.3453E-03    -8.80584E+06    -38.9560E+06    -134.533E+06    -38.9644E+06    -134.525E+06    -8.80584E+06    -529.415E+03         31.5550
             367     8.51925E-03     54.6361E-03     124.593E-03     94.5445E-03    -386.813E-03     103.152E-03    -385.451E-03     114.624E-03     13.3315E-03     110.255E-03    -55.0458E-03    -55.2122E-03    -54.6847E-03     109.881E-03    -55.1987E-03     15.6575E-03    -9.66400E+06    -42.3026E+06    -162.770E+06    -42.3069E+06    -162.766E+06    -9.66400E+06    -94.6335E+03         30.8066
             368     7.57290E-03     54.6203E-03     117.981E-03     90.6534E-03    -377.024E-03     88.8520E-03    -374.261E-03     117.019E-03     34.7324E-03     110.136E-03    -54.9425E-03    -55.2645E-03    -54.6699E-03     109.864E-03    -55.2645E-03     13.3688E-03    -15.4583E+06    -46.4361E+06    -183.785E+06    -46.4394E+06    -183.782E+06    -15.4583E+06     5.11640E+03         30.1767
             369     6.62602E-03     54.6073E-03     123.845E-03     112.778E-03    -404.311E-03     115.511E-03    -402.264E-03     119.065E-03    -7.51241E-03     110.159E-03    -54.9318E-03    -55.2935E-03    -54.7274E-03     109.955E-03    -55.2935E-03     11.5645E-03    -20.1580E+06    -50.5334E+06    -206.255E+06    -50.5354E+06    -206.253E+06    -20.1580E+06     244.439E+03         29.6634
             370     5.67887E-03     54.5953E-03     124.506E-03     116.809E-03    -409.144E-03     121.336E-03    -408.355E-03     119.190E-03    -35.4301E-03     110.347E-03    -55.0033E-03    -55.3282E-03    -54.8583E-03     110.202E-03    -55.3282E-03     9.74378E-03    -28.1353E+06    -55.2231E+06    -224.386E+06    -55.2273E+06    -224.382E+06    -28.1353E+06    -274.586E+03         29.2499
             371     4.73189E-03     54.5864E-03     129.208E-03     112.702E-03    -407.107E-03     120.727E-03    -404.794E-03     118.870E-03     11.4765E-03     110.443E-03    -55.1520E-03    -55.3607E-03    -55.0521E-03     110.343E-03    -55.3607E-03     8.09643E-03    -37.7325E+06    -58.8298E+06    -232.252E+06    -58.8408E+06    -232.241E+06    -37.7325E+06    -442.345E+03         28.9285
             372     3.78569E-03     54.5778E-03     128.819E-03     108.012E-03    -399.756E-03     109.796E-03    -392.699E-03     119.979E-03    -43.2917E-03     110.575E-03    -55.2901E-03    -55.3415E-03    -55.2660E-03     110.512E-03    -55.3029E-03     6.37173E-03    -46.9895E+06    -61.7556E+06    -237.752E+06    -61.7638E+06    -237.744E+06    -46.9895E+06     21.1553E+03         28.6767
             373     2.83933E-03     54.5726E-03     130.798E-03     107.889E-03    -403.439E-03     85.8463E-03    -378.917E-03     128.318E-03     73.9910E-03     110.648E-03    -55.2806E-03    -55.3779E-03    -55.3425E-03     110.612E-03    -55.2806E-03     4.81592E-03    -55.7362E+06    -65.3202E+06    -241.783E+06    -65.3218E+06    -241.781E+06    -55.7362E+06    -195.796E+03         28.4639
             374     1.89273E-03     54.5674E-03     185.236E-03     110.559E-03    -463.729E-03     121.754E-03    -429.553E-03     139.865E-03     6.84864E-03     110.577E-03    -55.2004E-03    -55.3831E-03    -55.3664E-03     110.560E-03    -55.2004E-03     3.08789E-03    -62.0022E+06    -68.6510E+06    -245.428E+06    -68.6651E+06    -245.414E+06    -62.0022E+06     443.154E+03         28.2978
             375     946.664E-06     54.5667E-03     746.867E-03    -106.515E-03    -811.100E-03    -415.974E-03    -458.751E-03     703.977E-03     144.646E-03     110.252E-03    -54.8640E-03    -55.3835E-03    -55.3791E-03     110.247E-03    -54.8640E-03     1.64400E-03    -67.9533E+06    -71.5184E+06    -245.777E+06    -71.4004E+06    -245.746E+06    -68.1019E+06     1.69958E+06         28.1952
             376     16.0985E-03     53.8538E-03     121.745E-03     110.056E-03    -393.642E-03     112.817E-03    -391.822E-03     117.164E-03     42.0621E-03     113.072E-03    -54.2131E-03    -58.9429E-03    -53.6126E-03     108.680E-03    -55.1524E-03     42.6635E-03     172.588E+06     128.057E+06    -7.59224E+06    -7.58923E+06     172.585E+06     128.057E+06    -405.965E+03         45.0401
             377     15.1503E-03     53.7688E-03     117.888E-03     114.679E-03    -399.699E-03     114.990E-03    -399.528E-03     117.406E-03     1.56300E-03     114.397E-03    -55.1558E-03    -59.3555E-03    -53.6904E-03     108.732E-03    -55.1558E-03     59.4881E-03     170.183E+06     119.532E+06    -15.2919E+06    -15.2884E+06     170.179E+06     119.532E+06    -397.405E+03         42.1871
             378     14.2026E-03     53.7233E-03     119.830E-03     115.589E-03    -403.522E-03     117.706E-03    -403.323E-03     117.514E-03    -14.4965E-03     112.060E-03    -55.0324E-03    -57.1963E-03    -53.4346E-03     108.298E-03    -55.0324E-03     49.3658E-03     162.634E+06     81.4314E+06    -22.3310E+06    -22.3265E+06     162.630E+06     81.4314E+06     330.996E+03         39.1256
             379     13.2552E-03     53.6607E-03     121.138E-03     116.105E-03    -404.381E-03     118.594E-03    -403.239E-03     117.507E-03     14.2670E-03     111.809E-03    -54.7868E-03    -57.0994E-03    -53.4940E-03     108.204E-03    -54.7868E-03     48.0721E-03     136.439E+06     27.6029E+06    -27.5666E+06    -27.5550E+06     136.427E+06     27.6029E+06     298.064E+03         36.5338
             380     12.3075E-03     53.6182E-03     118.934E-03     114.474E-03    -398.669E-03     114.780E-03    -397.650E-03     117.609E-03     22.0452E-03     110.435E-03    -54.7731E-03    -55.6259E-03    -53.7427E-03     108.552E-03    -54.7731E-03     34.9016E-03     58.5182E+06     1.55814E+06    -30.9350E+06    -30.8721E+06     57.4484E+06     2.56494E+06     602.705E+03         34.6750
             381     11.3602E-03     53.5853E-03     119.564E-03     115.828E-03    -399.978E-03     117.415E-03    -399.746E-03     117.746E-03    -5.28448E-03     110.195E-03    -54.9488E-03    -55.2825E-03    -54.1321E-03     109.045E-03    -54.9488E-03     27.2906E-03    -4.48481E+06    -17.0000E+06    -49.1261E+06    -33.2372E+06    -32.8890E+06    -4.48481E+06     1.32135E+06         33.4079
             382     10.4126E-03     53.5593E-03     127.099E-03     116.921E-03    -408.544E-03     126.025E-03    -407.923E-03     117.374E-03    -20.6883E-03     110.039E-03    -55.0422E-03    -55.1318E-03    -54.4137E-03     109.321E-03    -55.0422E-03     21.6038E-03    -11.4110E+06    -36.0157E+06    -91.7452E+06    -36.0540E+06    -91.7068E+06    -11.4110E+06     284.701E+03         32.4196
             383     9.46621E-03     53.5387E-03     132.432E-03     107.837E-03    -406.509E-03     123.088E-03    -406.028E-03     116.700E-03    -21.8637E-03     110.188E-03    -55.0940E-03    -55.2033E-03    -54.6622E-03     109.692E-03    -55.1389E-03     18.0411E-03    -10.0653E+06    -39.7555E+06    -135.220E+06    -39.7636E+06    -135.212E+06    -10.0653E+06    -672.437E+03         31.5567
             384     8.51960E-03     53.5198E-03     125.456E-03     93.6513E-03    -386.426E-03     101.278E-03    -385.952E-03     117.356E-03     3.91372E-03     110.183E-03    -54.9575E-03    -55.2084E-03    -54.6049E-03     109.817E-03    -55.1950E-03     15.4806E-03    -10.7528E+06    -43.0878E+06    -163.369E+06    -43.0914E+06    -163.366E+06    -10.7528E+06    -280.844E+03         30.8090
             385     7.57240E-03     53.5055E-03     120.228E-03     94.9357E-03    -382.304E-03     94.0820E-03    -381.167E-03     119.945E-03    -19.5019E-03     110.121E-03    -54.9169E-03    -55.2588E-03    -54.6388E-03     109.843E-03    -55.2588E-03     13.5198E-03    -16.8437E+06    -46.0567E+06    -183.799E+06    -46.0586E+06    -183.798E+06    -16.8437E+06    -64.3360E+03         30.1781
             386     6.62549E-03     53.4914E-03     124.437E-03     112.131E-03    -404.903E-03     112.897E-03    -403.506E-03     122.274E-03    -21.3440E-03     110.260E-03    -55.0329E-03    -55.2845E-03    -54.8246E-03     110.051E-03    -55.2845E-03     11.6595E-03    -20.8711E+06    -49.2976E+06    -206.740E+06    -49.3010E+06    -206.737E+06    -20.8711E+06    -183.589E+03         29.6637
             387     5.67893E-03     53.4804E-03     133.673E-03     119.518E-03    -419.737E-03     129.931E-03    -418.803E-03     122.326E-03    -8.66319E-03     110.400E-03    -55.0851E-03    -55.3235E-03    -54.9425E-03     110.257E-03    -55.3235E-03     9.67452E-03    -26.8843E+06    -53.5678E+06    -223.201E+06    -53.5746E+06    -223.194E+06    -26.8843E+06     149.127E+03         29.2495
             388     4.73245E-03     53.4702E-03     141.617E-03     117.663E-03    -424.363E-03     136.490E-03    -421.617E-03     120.044E-03     39.9686E-03     110.406E-03    -55.1679E-03    -55.3327E-03    -55.0682E-03     110.306E-03    -55.3327E-03     8.07910E-03    -37.6300E+06    -58.1532E+06    -231.888E+06    -58.1628E+06    -231.879E+06    -37.6300E+06    -506.550E+03         28.9274
             389     3.78571E-03     53.4624E-03     134.685E-03     111.453E-03    -412.548E-03     124.223E-03    -408.174E-03     117.541E-03     8.57965E-03     110.479E-03    -55.2523E-03    -55.2904E-03    -55.2010E-03     110.419E-03    -55.2813E-03     6.24762E-03    -47.2588E+06    -61.9661E+06    -238.498E+06    -61.9763E+06    -238.488E+06    -47.2588E+06    -1.10043E+06         28.6746
             390     2.83933E-03     53.4562E-03     140.740E-03     110.000E-03    -420.285E-03     119.522E-03    -405.155E-03     116.088E-03     78.0827E-03     110.529E-03    -55.2614E-03    -55.2790E-03    -55.2469E-03     110.497E-03    -55.2616E-03     4.53542E-03    -54.7131E+06    -65.4881E+06    -241.869E+06    -65.4930E+06    -241.864E+06    -54.7131E+06    -187.716E+03         28.4604
             391     1.89306E-03     53.4522E-03     186.139E-03     108.271E-03    -468.418E-03     137.005E-03    -419.284E-03     108.271E-03    -85.6811E-03     110.479E-03    -55.1924E-03    -55.2760E-03    -55.2074E-03     110.465E-03    -55.2473E-03     2.81826E-03    -61.6216E+06    -69.3273E+06    -245.845E+06    -69.3282E+06    -245.844E+06    -61.6216E+06     35.1249E+03         28.2970
             392     946.395E-06     53.4500E-03     692.693E-03    -37.7016E-03    -832.898E-03    -432.899E-03    -379.728E-03     634.722E-03     155.984E-03     110.488E-03    -55.0816E-03    -55.3838E-03    -55.3254E-03     110.485E-03    -55.1365E-03     1.09575E-03    -67.3284E+06    -71.9617E+06    -245.073E+06    -71.0136E+06    -245.036E+06    -68.3135E+06    -245.501E+03         28.2048
             393     16.0976E-03     52.7373E-03     120.096E-03     111.885E-03    -400.972E-03     113.312E-03    -400.310E-03     118.007E-03     14.0974E-03     112.881E-03    -54.0626E-03    -58.8759E-03    -53.4305E-03     108.514E-03    -55.1412E-03     42.8071E-03     172.952E+06     127.584E+06    -8.05616E+06    -8.05315E+06     172.949E+06     127.584E+06    -486.599E+03         45.0289
             394     15.1507E-03     52.6528E-03     119.653E-03     117.602E-03    -406.620E-03     118.756E-03    -406.292E-03     118.171E-03     179.369E-06     114.434E-03    -55.1707E-03    -59.3356E-03    -53.7244E-03     108.823E-03    -55.1707E-03     59.1804E-03     169.881E+06     119.379E+06    -16.0425E+06    -16.0350E+06     169.874E+06     119.379E+06    -782.689E+03         42.1788
             395     14.2030E-03     52.6075E-03     119.014E-03     111.030E-03    -400.849E-03     111.250E-03    -400.502E-03     118.447E-03    -18.2833E-03     112.050E-03    -55.0321E-03    -57.1741E-03    -53.4643E-03     108.340E-03    -55.0321E-03     49.0169E-03     162.060E+06     81.8867E+06     -23.515E+06    -23.5104E+06     162.055E+06     81.8867E+06    -454.113E+03         39.1207
             396     13.2548E-03     52.5454E-03     120.383E-03     109.563E-03    -401.134E-03     110.608E-03    -400.864E-03     119.067E-03    -4.30122E-03     111.793E-03    -54.7903E-03    -57.0814E-03    -53.5070E-03     108.219E-03    -54.7903E-03     47.8839E-03     136.129E+06     27.6611E+06    -28.0491E+06    -28.0462E+06     136.126E+06     27.6611E+06     189.331E+03         36.5323
             397     12.3072E-03     52.5026E-03     125.331E-03     116.688E-03    -410.159E-03     122.511E-03    -409.996E-03     119.346E-03    -3.52982E-03     110.462E-03    -54.7834E-03    -55.6670E-03    -53.8029E-03     108.598E-03    -54.7834E-03     34.7061E-03     57.5414E+06     847.135E+03    -31.0509E+06    -31.0288E+06     56.8808E+06     1.48574E+06     671.861E+03         34.6772
             398     11.3602E-03     52.4694E-03     127.320E-03     118.989E-03    -411.249E-03     126.600E-03    -410.529E-03     118.989E-03    -29.8967E-03     110.219E-03    -54.9388E-03    -55.3369E-03    -54.2169E-03     109.099E-03    -54.9388E-03     26.9349E-03    -5.96354E+06    -17.8865E+06    -49.0930E+06    -33.7086E+06    -33.1375E+06    -6.09686E+06     913.727E+03         33.4129
             399     10.4136E-03     52.4441E-03     122.582E-03     112.229E-03    -398.827E-03     114.698E-03    -397.634E-03     118.920E-03    -28.9537E-03     110.040E-03    -55.0238E-03    -55.1681E-03    -54.4541E-03     109.326E-03    -55.0238E-03     21.5747E-03    -11.6912E+06    -35.7738E+06    -90.3910E+06    -35.8129E+06    -90.3519E+06    -11.6912E+06     930.080E+03         32.4242
             400     9.46665E-03     52.4220E-03     120.225E-03     99.5538E-03    -384.288E-03     98.9989E-03    -383.733E-03     120.225E-03    -4.75691E-03     110.060E-03    -55.0010E-03    -55.1734E-03    -54.5541E-03     109.562E-03    -55.1229E-03     18.0270E-03    -10.0198E+06    -38.6559E+06    -134.772E+06    -38.6656E+06    -134.762E+06    -10.0198E+06     237.946E+03         31.5600
             401     8.51933E-03     52.4050E-03     127.986E-03     107.822E-03    -402.781E-03     113.348E-03    -402.123E-03     121.802E-03     26.6279E-03     110.114E-03    -54.8995E-03    -55.1937E-03    -54.5417E-03     109.756E-03    -55.1937E-03     15.3047E-03    -10.9889E+06    -42.1912E+06    -163.698E+06    -42.1928E+06    -163.696E+06    -10.9889E+06    -391.382E+03         30.8120
             402     7.57241E-03     52.3895E-03     135.989E-03     118.254E-03    -422.265E-03     131.352E-03    -421.056E-03     121.682E-03     9.54608E-03     110.148E-03    -54.9441E-03    -55.2541E-03    -54.6773E-03     109.881E-03    -55.2541E-03     13.2308E-03    -16.4639E+06    -45.9353E+06    -183.237E+06    -45.9381E+06    -183.234E+06    -16.4639E+06    -504.382E+03         30.1808
             403     6.62595E-03     52.3759E-03     128.991E-03     116.594E-03    -413.251E-03     123.381E-03    -411.913E-03     120.868E-03     11.1269E-03     110.312E-03    -55.0883E-03    -55.2777E-03    -54.9012E-03     110.115E-03    -55.2681E-03     11.3529E-03    -21.4803E+06    -49.4886E+06    -206.963E+06    -49.4928E+06    -206.959E+06    -21.4803E+06    -680.919E+03         29.6673
             404     5.67920E-03     52.3644E-03     129.482E-03     116.353E-03    -415.511E-03     124.376E-03    -414.350E-03     120.298E-03     7.36453E-03     110.496E-03    -55.1768E-03    -55.3078E-03    -55.0499E-03     110.359E-03    -55.2982E-03     9.45788E-03    -26.4965E+06    -52.8724E+06    -223.090E+06    -52.8829E+06    -223.079E+06    -26.4965E+06    -480.092E+03         29.2533
             405     4.73243E-03     52.3546E-03     134.174E-03     116.034E-03    -421.336E-03     127.121E-03    -417.383E-03     119.134E-03     37.6241E-03     110.357E-03    -55.1151E-03    -55.2966E-03    -55.0179E-03     110.260E-03    -55.2966E-03     7.98859E-03    -35.1835E+06    -57.7158E+06    -231.192E+06    -57.7287E+06    -231.179E+06    -35.1835E+06    -101.350E+03         28.9266
             406     3.78611E-03     52.3464E-03     141.702E-03     116.238E-03    -432.078E-03     133.076E-03    -423.451E-03     116.238E-03    -15.9916E-03     110.329E-03    -55.1345E-03    -55.2522E-03    -55.0863E-03     110.266E-03    -55.2370E-03     6.39622E-03    -46.5975E+06    -62.3468E+06    -239.252E+06    -62.3557E+06    -239.243E+06    -46.5975E+06    -489.285E+03         28.6693
             407     2.83959E-03     52.3406E-03     154.047E-03     109.443E-03    -439.319E-03     137.665E-03    -422.938E-03     109.443E-03     37.9542E-03     110.434E-03    -55.2026E-03    -55.2435E-03    -55.1899E-03     110.403E-03    -55.2248E-03     4.46706E-03    -56.0889E+06    -66.1635E+06    -242.933E+06    -66.1737E+06    -242.922E+06    -56.0889E+06    -845.699E+03         28.4550
             408     1.89284E-03     52.3366E-03     150.892E-03     109.716E-03    -436.408E-03     89.8967E-03    -375.412E-03     109.716E-03    -107.208E-03     110.357E-03    -55.1156E-03    -55.2376E-03    -55.1063E-03     110.344E-03    -55.2342E-03     2.79422E-03    -61.8626E+06    -68.9656E+06    -245.051E+06    -68.9727E+06    -245.044E+06    -61.8626E+06    -633.954E+03         28.2922
             409     946.363E-06     52.3345E-03     664.427E-03    -106.393E-03    -743.745E-03    -419.220E-03    -414.736E-03     648.246E-03     79.6929E-03     110.462E-03    -54.9630E-03    -55.4906E-03    -55.3896E-03     110.458E-03    -55.0597E-03     1.24808E-03    -68.4985E+06    -72.7474E+06    -245.790E+06    -71.7898E+06    -245.763E+06    -69.4835E+06    -688.290E+03         28.2001
             410     16.0986E-03     51.6220E-03     131.835E-03     120.407E-03    -426.622E-03     131.428E-03    -426.215E-03     120.407E-03    -20.2685E-03     112.890E-03    -54.1192E-03    -58.7938E-03    -53.3463E-03     108.479E-03    -55.1553E-03     43.0877E-03     173.203E+06     128.298E+06    -7.67949E+06    -7.67046E+06     173.194E+06     128.298E+06    -278.948E+03         45.0201
             411     15.1501E-03     51.5362E-03     126.036E-03     120.073E-03    -421.009E-03     125.396E-03    -420.369E-03     120.073E-03    -25.7877E-03     114.454E-03    -55.1751E-03    -59.2613E-03    -53.6594E-03     108.852E-03    -55.1751E-03     58.9311E-03     169.694E+06     118.860E+06    -16.2580E+06    -16.2470E+06     169.683E+06     118.860E+06    -939.663E+03         42.1736
             412     14.2027E-03     51.4922E-03     124.629E-03     113.475E-03    -412.880E-03     117.395E-03    -412.309E-03     120.138E-03    -17.0383E-03     112.091E-03    -55.0149E-03    -57.1924E-03    -53.5952E-03     108.494E-03    -55.0149E-03     48.2610E-03     161.823E+06     81.0100E+06    -24.0447E+06    -24.0341E+06     161.813E+06     81.0100E+06    -934.289E+03         39.1190
             413     13.2553E-03     51.4300E-03     123.071E-03     108.580E-03    -406.447E-03     110.925E-03    -406.374E-03     120.653E-03     2.50155E-03     111.771E-03    -54.7677E-03    -57.0821E-03    -53.5710E-03     108.260E-03    -54.7677E-03     47.5123E-03     135.035E+06     26.5709E+06    -29.4845E+06    -29.4765E+06     135.027E+06     26.5709E+06    -361.933E+03         36.5348
             414     12.3081E-03     51.3870E-03     127.906E-03     115.578E-03    -416.811E-03     122.154E-03    -416.469E-03     120.989E-03     9.14819E-03     110.374E-03    -54.7621E-03    -55.5996E-03    -53.7395E-03     108.514E-03    -54.7621E-03     34.6520E-03     57.0385E+06     634.437E+03    -33.0595E+06    -33.0383E+06     56.5312E+06     1.12063E+06     587.075E+03         34.6845
             415     11.3607E-03     51.3540E-03     131.847E-03     120.525E-03    -422.693E-03     130.963E-03    -421.810E-03     120.525E-03    -4.18480E-03     110.132E-03    -54.9118E-03    -55.2752E-03    -54.1468E-03     109.004E-03    -54.9118E-03     27.0449E-03    -5.93866E+06    -17.7250E+06    -49.9827E+06    -34.8764E+06    -32.6980E+06    -6.07199E+06     342.935E+03         33.4219
             416     10.4133E-03     51.3281E-03     124.687E-03     113.843E-03    -407.544E-03     116.349E-03    -405.645E-03     120.282E-03     16.1677E-03     109.972E-03    -54.9911E-03    -55.1196E-03    -54.3787E-03     109.245E-03    -55.0044E-03     21.7638E-03    -12.1313E+06    -36.2791E+06    -90.4018E+06    -36.2884E+06    -90.3924E+06    -12.1313E+06     369.443E+03         32.4306
             417     9.46627E-03     51.3072E-03     121.126E-03     109.064E-03    -398.399E-03     107.727E-03    -397.062E-03     121.126E-03     30.9229E-03     110.018E-03    -54.9870E-03    -55.1241E-03    -54.4900E-03     109.517E-03    -55.1194E-03     18.0992E-03    -9.78912E+06    -38.5151E+06    -134.107E+06    -38.5266E+06    -134.095E+06    -9.78912E+06     650.332E+03         31.5636
             418     8.51953E-03     51.2892E-03     127.713E-03     116.165E-03    -412.483E-03     121.446E-03    -411.839E-03     121.788E-03     23.9546E-03     110.218E-03    -55.0256E-03    -55.1884E-03    -54.6741E-03     109.856E-03    -55.1782E-03     15.3997E-03    -11.1677E+06    -41.9017E+06    -163.091E+06    -41.9046E+06    -163.088E+06    -11.1677E+06     134.189E+03         30.8149
             419     7.57312E-03     51.2738E-03     139.544E-03     120.659E-03    -428.080E-03     138.590E-03    -427.126E-03     120.659E-03     13.0164E-03     110.218E-03    -55.0743E-03    -55.2459E-03    -54.8175E-03     109.950E-03    -55.2357E-03     13.2411E-03    -16.3345E+06    -46.2944E+06    -182.852E+06    -46.2969E+06    -182.850E+06    -16.3345E+06    -301.528E+03         30.1841
             420     6.62599E-03     51.2604E-03     136.886E-03     117.858E-03    -422.697E-03     135.812E-03    -422.040E-03     118.276E-03     2.05474E-03     110.222E-03    -55.0569E-03    -55.2543E-03    -54.8657E-03     110.021E-03    -55.2447E-03     11.4896E-03    -20.9495E+06    -50.6444E+06    -206.140E+06    -50.6534E+06    -206.131E+06    -20.9495E+06    -809.298E+03         29.6696
             421     5.67965E-03     51.2484E-03     122.833E-03     110.527E-03    -404.361E-03     115.187E-03    -403.369E-03     117.181E-03    -8.98091E-03     110.436E-03    -55.1517E-03    -55.2684E-03    -55.0182E-03     110.293E-03    -55.2588E-03     9.66515E-03    -27.8370E+06    -55.0283E+06    -224.472E+06    -55.0416E+06    -224.458E+06    -27.8370E+06    -852.184E+03         29.2530
             422     4.73322E-03     51.2395E-03     120.860E-03     109.607E-03    -403.404E-03     106.374E-03    -397.864E-03     118.551E-03     46.5621E-03     110.341E-03    -55.1128E-03    -55.2587E-03    -55.0134E-03     110.242E-03    -55.2587E-03     8.08108E-03    -35.4332E+06    -58.9833E+06    -231.376E+06    -59.0030E+06    -231.356E+06    -35.4332E+06    -600.890E+03         28.9224
             423     3.78596E-03     51.2309E-03     137.443E-03     117.480E-03    -430.697E-03     116.218E-03    -412.274E-03     120.282E-03    -49.0960E-03     110.193E-03    -55.0267E-03    -55.2095E-03    -54.9759E-03     110.127E-03    -55.1942E-03     6.52043E-03    -44.7149E+06    -62.8064E+06    -239.057E+06    -62.8201E+06    -239.043E+06    -44.7149E+06    -571.855E+03         28.6620
             424     2.83952E-03     51.2248E-03     151.770E-03     120.997E-03    -449.312E-03     119.595E-03    -417.231E-03     121.091E-03     23.4278E-03     110.332E-03    -55.1133E-03    -55.2232E-03    -55.1006E-03     110.300E-03    -55.2040E-03     4.47919E-03    -55.9893E+06    -66.0380E+06    -243.149E+06    -66.0443E+06    -243.143E+06    -55.9893E+06    -595.199E+03         28.4471
             425     1.89316E-03     51.2214E-03     176.330E-03     123.452E-03    -477.677E-03     115.277E-03    -416.623E-03     123.452E-03    -79.2048E-03     110.354E-03    -55.1099E-03    -55.2494E-03    -55.1737E-03     110.342E-03    -55.1737E-03     2.71442E-03    -65.0388E+06    -69.4521E+06    -245.331E+06    -69.4622E+06    -245.321E+06    -65.0388E+06      -995.7E+03         28.2852
             426     946.434E-06     51.2187E-03     606.819E-03    -90.0957E-03    -698.671E-03    -318.892E-03    -432.824E-03     569.768E-03     24.7923E-03     110.272E-03    -54.8346E-03    -55.4416E-03    -55.1750E-03     110.268E-03    -55.0972E-03     1.47623E-03    -69.7023E+06    -72.4319E+06    -246.520E+06    -71.7694E+06    -246.503E+06    -70.3814E+06    -592.975E+03         28.1936
             427     16.0986E-03     50.5069E-03     133.001E-03     121.699E-03    -427.483E-03     130.421E-03    -425.826E-03     122.621E-03     25.3833E-03     113.063E-03    -54.2879E-03    -58.8282E-03    -53.5015E-03     108.591E-03    -55.1420E-03     43.1056E-03     173.576E+06     128.639E+06    -7.22883E+06    -7.20469E+06     173.552E+06     128.639E+06     215.501E+03         45.0130
             428     15.1510E-03     50.4203E-03     127.421E-03     119.033E-03    -422.645E-03     122.809E-03    -421.457E-03     122.457E-03    -4.13135E-03     114.416E-03    -55.1471E-03    -59.2498E-03    -53.5818E-03     108.748E-03    -55.1471E-03     59.1973E-03     170.396E+06     118.611E+06    -16.1571E+06    -16.1263E+06     170.365E+06     118.611E+06    -436.036E+03         42.1707
             429     14.2036E-03     50.3757E-03     130.180E-03     119.886E-03    -425.609E-03     127.245E-03    -425.175E-03     122.388E-03    -17.1792E-03     112.016E-03    -54.9790E-03    -57.1008E-03    -53.5425E-03     108.457E-03    -54.9790E-03     48.0070E-03     161.979E+06     80.5403E+06    -23.9536E+06    -23.9355E+06     161.961E+06     80.5403E+06    -1.09622E+06         39.1193
             430     13.2559E-03     50.3148E-03     136.443E-03     119.149E-03    -429.681E-03     133.635E-03    -429.625E-03     121.901E-03    -1.38631E-03     111.738E-03    -54.7487E-03    -57.0545E-03    -53.5157E-03     108.199E-03    -54.7487E-03     47.8144E-03     133.795E+06     25.6443E+06    -29.5692E+06    -29.5603E+06     133.786E+06     25.6443E+06    -356.328E+03         36.5384
             431     12.3079E-03     50.2714E-03     131.761E-03     118.357E-03    -424.241E-03     128.482E-03    -423.853E-03     121.248E-03     5.31227E-03     110.405E-03    -54.7538E-03    -55.6514E-03    -53.7224E-03     108.476E-03    -54.7538E-03     35.2355E-03     56.8154E+06     711.736E+03    -32.7166E+06    -32.7106E+06     56.3232E+06     1.19793E+06     234.187E+03         34.6902
             432     11.3607E-03     50.2387E-03     125.226E-03     116.006E-03    -416.991E-03     119.806E-03    -416.590E-03     121.026E-03     9.96545E-03     110.101E-03    -54.8981E-03    -55.2705E-03    -54.1347E-03     108.965E-03    -54.8981E-03     27.1317E-03    -5.53439E+06    -17.5079E+06    -49.8429E+06    -35.2390E+06    -32.1032E+06    -5.54299E+06     190.741E+03         33.4268
             433     10.4136E-03     50.2126E-03     123.289E-03     115.267E-03    -413.310E-03     115.870E-03    -411.970E-03     121.346E-03     18.2565E-03     109.913E-03    -54.9754E-03    -55.0651E-03    -54.3336E-03     109.195E-03    -54.9886E-03     21.5922E-03    -13.0915E+06    -37.7217E+06    -90.6861E+06    -37.7251E+06    -90.6826E+06    -13.0915E+06    -137.588E+03         32.4338
             434     9.46649E-03     50.1918E-03     128.010E-03     120.233E-03    -421.584E-03     124.440E-03    -419.264E-03     121.483E-03    -9.31989E-03     110.020E-03    -54.9878E-03    -55.1086E-03    -54.4932E-03     109.524E-03    -55.1073E-03     18.0213E-03    -10.5669E+06    -39.6148E+06    -133.932E+06    -39.6202E+06    -133.927E+06    -10.5669E+06    -88.9306E+03         31.5658
             435     8.51955E-03     50.1733E-03     127.639E-03     120.862E-03    -419.779E-03     126.003E-03    -418.369E-03     121.088E-03    -4.12163E-03     110.165E-03    -54.9879E-03    -55.1886E-03    -54.6277E-03     109.795E-03    -55.1783E-03     15.5767E-03    -11.1613E+06    -42.1649E+06    -163.020E+06    -42.1703E+06    -163.014E+06    -11.1613E+06     279.147E+03         30.8167
             436     7.57269E-03     50.1582E-03     125.881E-03     114.539E-03    -409.341E-03     118.009E-03    -407.951E-03     121.022E-03    -10.8881E-03     110.233E-03    -55.0998E-03    -55.2522E-03    -54.8340E-03     109.957E-03    -55.2419E-03     13.4717E-03    -15.5108E+06    -45.6154E+06    -182.215E+06    -45.6173E+06    -182.213E+06    -15.5108E+06     204.441E+03         30.1862
             437     6.62646E-03     50.1448E-03     131.551E-03     114.181E-03    -414.357E-03     123.676E-03    -413.365E-03     121.064E-03    -30.0038E-03     110.235E-03    -55.0916E-03    -55.2371E-03    -54.8857E-03     110.029E-03    -55.2371E-03     11.6173E-03    -20.0655E+06    -50.6584E+06    -205.754E+06    -50.6733E+06    -205.739E+06    -20.0655E+06     76.2565E+03         29.6705
             438     5.67928E-03     50.1333E-03     126.589E-03     117.080E-03    -411.611E-03     121.110E-03    -409.989E-03     120.937E-03    -38.7706E-03     110.332E-03    -55.0825E-03    -55.2267E-03    -54.9345E-03     110.184E-03    -55.2267E-03     9.85883E-03    -28.3785E+06    -56.0772E+06    -225.017E+06    -56.1124E+06    -224.982E+06    -28.3785E+06    -606.596E+03         29.2508
             439     4.73258E-03     50.1235E-03     122.616E-03     110.118E-03    -401.824E-03     106.512E-03    -398.218E-03     122.616E-03    -6.26700E-03     110.367E-03    -55.1363E-03    -55.2608E-03    -55.0861E-03     110.264E-03    -55.2080E-03     8.20469E-03    -39.1117E+06    -60.0757E+06    -230.992E+06    -60.1076E+06    -230.960E+06    -39.1117E+06    -1.50395E+06         28.9181
             440     3.78674E-03     50.1158E-03     132.753E-03     117.255E-03    -421.085E-03     108.371E-03    -406.011E-03     126.564E-03    -82.2191E-03     110.215E-03    -55.0605E-03    -55.1989E-03    -55.0486E-03     110.151E-03    -55.1461E-03     6.48278E-03    -47.0826E+06    -63.8487E+06    -238.870E+06    -63.8714E+06    -238.847E+06    -47.0826E+06    -1.67880E+06         28.6562
             441     2.83956E-03     50.1092E-03     166.370E-03     129.112E-03    -468.334E-03     127.136E-03    -429.193E-03     129.205E-03     65.8969E-03     110.278E-03    -55.0971E-03    -55.1734E-03    -55.0679E-03     110.245E-03    -55.1694E-03     4.54213E-03    -54.9804E+06    -67.3042E+06    -244.519E+06    -67.3226E+06    -244.501E+06    -54.9804E+06    -1.29688E+06         28.4395
             442     1.89302E-03     50.1054E-03     225.225E-03     118.072E-03    -515.908E-03     163.890E-03    -454.573E-03     118.072E-03    -43.5607E-03     110.352E-03    -55.0945E-03    -55.2209E-03    -55.2081E-03     110.341E-03    -55.0961E-03     2.57129E-03    -63.7079E+06    -70.2104E+06    -245.710E+06    -70.2306E+06    -245.689E+06    -63.7079E+06    -179.324E+03         28.2769
             443     947.052E-06     50.1034E-03     540.213E-03     8.76076E-03    -722.386E-03    -250.936E-03    -386.511E-03     464.035E-03     133.604E-03     110.034E-03    -54.6960E-03    -55.3112E-03    -55.0880E-03     110.031E-03    -54.9169E-03     969.903E-06    -71.0868E+06    -74.1967E+06    -247.849E+06    -73.5375E+06    -247.829E+06    -71.7659E+06    -2.28052E+03         28.1849
             444     16.0991E-03     49.3909E-03     123.049E-03     113.796E-03    -412.854E-03     112.585E-03    -411.085E-03     122.491E-03     54.6513E-03     113.135E-03    -54.2765E-03    -58.9073E-03    -53.5865E-03     108.659E-03    -55.1211E-03     42.9559E-03     173.640E+06     128.056E+06    -7.50922E+06    -7.49033E+06     173.621E+06     128.056E+06     23.9821E+03         45.0061
             445     15.1510E-03     49.3046E-03     123.054E-03     114.258E-03    -412.898E-03     113.217E-03    -411.856E-03     123.054E-03     31.2945E-03     114.263E-03    -55.1312E-03    -59.1261E-03    -53.4221E-03     108.559E-03    -55.1312E-03     59.4334E-03     171.497E+06     118.900E+06    -15.1451E+06    -15.1013E+06     171.453E+06     118.900E+06     464.093E+03         42.1675
             446     14.2030E-03     49.2596E-03     127.312E-03     116.510E-03    -418.117E-03     120.308E-03    -418.046E-03     123.443E-03    -1.45985E-03     111.767E-03    -54.9804E-03    -56.8673E-03    -53.2729E-03     108.173E-03    -54.9804E-03     48.2152E-03     162.014E+06     80.0910E+06    -23.7256E+06    -23.6931E+06     161.982E+06     80.0910E+06    -269.096E+03         39.1185
             447     13.2551E-03     49.2001E-03     135.356E-03     120.498E-03    -432.378E-03     132.578E-03    -432.333E-03     123.231E-03    -1.53817E-03     111.819E-03    -54.7464E-03    -57.1523E-03    -53.6202E-03     108.287E-03    -54.7464E-03     47.7560E-03     133.420E+06     23.9540E+06    -30.1376E+06    -30.1310E+06     133.413E+06     23.9540E+06    -725.719E+03         36.5395
             448     12.3079E-03     49.1557E-03     131.008E-03     120.132E-03    -429.673E-03     128.308E-03    -429.592E-03     122.752E-03    -7.85759E-03     110.475E-03    -54.7525E-03    -55.7414E-03    -53.8297E-03     108.563E-03    -54.7525E-03     35.1124E-03     56.4923E+06    -974.688E+03    -33.0034E+06    -32.9968E+06     55.7353E+06    -224.417E+03    -299.206E+03         34.6914
             449     11.3609E-03     49.1230E-03     123.186E-03     110.356E-03    -411.157E-03     110.061E-03    -410.862E-03     123.186E-03    -14.5981E-03     110.100E-03    -54.9159E-03    -55.2560E-03    -54.1223E-03     108.966E-03    -54.9159E-03     27.1035E-03    -4.35831E+06    -17.5995E+06    -48.8365E+06    -34.7889E+06    -31.6385E+06    -4.36690E+06     55.7368E+03         33.4251
             450     10.4137E-03     49.0973E-03     126.029E-03     112.897E-03    -416.368E-03     114.251E-03    -415.978E-03     124.285E-03    -18.6317E-03     109.980E-03    -55.0010E-03    -55.0990E-03    -54.3764E-03     109.258E-03    -55.0010E-03     21.6768E-03    -11.5294E+06    -36.7498E+06    -90.5483E+06    -36.7541E+06    -90.5440E+06    -11.5294E+06    -240.197E+03         32.4316
             451     9.46664E-03     49.0760E-03     136.843E-03     123.303E-03    -436.089E-03     134.655E-03    -434.898E-03     124.300E-03    -39.2505E-03     109.995E-03    -54.9809E-03    -55.1104E-03    -54.5001E-03     109.495E-03    -55.0914E-03     18.0854E-03    -11.3844E+06    -39.7589E+06    -134.478E+06    -39.7655E+06    -134.471E+06    -11.3844E+06    -129.902E+03         31.5661
             452     8.51971E-03     49.0580E-03     136.926E-03     123.013E-03    -434.179E-03     134.935E-03    -432.362E-03     123.186E-03    -382.389E-06     110.053E-03    -54.9193E-03    -55.1653E-03    -54.5493E-03     109.683E-03    -55.1653E-03     15.5621E-03    -13.1603E+06    -43.3788E+06    -162.919E+06    -43.3902E+06    -162.908E+06    -13.1603E+06    -59.1257E+03         30.8178
             453     7.57275E-03     49.0424E-03     126.080E-03     112.741E-03    -412.626E-03     114.087E-03    -411.033E-03     123.140E-03     1.16958E-03     110.126E-03    -54.9919E-03    -55.2406E-03    -54.7173E-03     109.851E-03    -55.2406E-03     13.4212E-03    -17.7550E+06    -46.5990E+06    -182.709E+06    -46.6085E+06    -182.700E+06    -17.7550E+06     59.4959E+03         30.1872
             454     6.62589E-03     49.0288E-03     125.164E-03     105.957E-03    -404.871E-03     105.147E-03    -404.061E-03     125.164E-03    -25.6184E-03     110.299E-03    -55.0897E-03    -55.2721E-03    -54.9294E-03     110.097E-03    -55.2305E-03     11.5121E-03    -20.9185E+06    -50.1506E+06    -205.518E+06    -50.1622E+06    -205.507E+06    -20.9185E+06     645.327E+03         29.6721
             455     5.67970E-03     49.0179E-03     127.720E-03     116.081E-03    -418.337E-03     114.598E-03    -416.854E-03     127.720E-03    -9.92237E-03     110.467E-03    -55.1255E-03    -55.2904E-03    -55.0700E-03     110.322E-03    -55.2008E-03     9.77061E-03    -27.1655E+06    -54.0974E+06    -222.748E+06    -54.1263E+06    -222.719E+06    -27.1655E+06    -689.853E+03         29.2515
             456     4.73304E-03     49.0074E-03     140.046E-03     119.707E-03    -432.989E-03     128.643E-03    -430.751E-03     128.872E-03     13.6611E-03     110.320E-03    -55.0768E-03    -55.2740E-03    -55.0786E-03     110.221E-03    -55.1734E-03     8.03231E-03    -37.5387E+06    -58.3315E+06    -230.719E+06    -58.3568E+06    -230.694E+06    -37.5387E+06    -1.70686E+06         28.9171
             457     3.78615E-03     49.0002E-03     151.400E-03     120.923E-03    -444.107E-03     139.158E-03    -438.371E-03     127.429E-03    -50.6608E-03     110.245E-03    -55.0684E-03    -55.2362E-03    -55.1240E-03     110.183E-03    -55.1191E-03     6.33065E-03    -47.8620E+06    -62.7212E+06    -239.586E+06    -62.7375E+06    -239.570E+06    -47.8620E+06    -1.21088E+06         28.6537
             458     2.84006E-03     48.9941E-03     165.332E-03     122.626E-03    -459.102E-03     142.430E-03    -436.200E-03     122.626E-03     68.4962E-03     110.317E-03    -55.1152E-03    -55.1890E-03    -55.1509E-03     110.283E-03    -55.1188E-03     4.68800E-03    -55.9426E+06    -68.1604E+06    -245.970E+06    -68.1794E+06    -245.951E+06    -55.9426E+06    -1.36965E+06         28.4348
             459     1.89356E-03     48.9897E-03     194.721E-03     112.366E-03    -476.814E-03     140.101E-03    -422.194E-03     112.366E-03    -69.9741E-03     110.151E-03    -54.9905E-03    -55.1110E-03    -55.0330E-03     110.139E-03    -55.0561E-03     2.59361E-03    -62.7100E+06    -72.2618E+06    -247.835E+06    -72.2860E+06    -247.811E+06    -62.7100E+06    -651.180E+03         28.2694
             460     946.626E-06     48.9884E-03     491.021E-03     53.1045E-03    -714.578E-03    -227.980E-03    -381.047E-03     438.574E-03     238.771E-03     109.980E-03    -54.6775E-03    -55.2791E-03    -55.2123E-03     109.978E-03    -54.7414E-03     1.21284E-03    -70.9716E+06    -74.8888E+06    -247.128E+06    -74.9088E+06    -247.108E+06    -70.9716E+06     685.800E+03         28.1723
             461     16.0988E-03     48.2751E-03     122.929E-03     108.400E-03    -409.987E-03     107.821E-03    -409.408E-03     122.929E-03     4.81569E-03     112.979E-03    -54.1902E-03    -58.8247E-03    -53.4416E-03     108.520E-03    -55.1135E-03     42.8534E-03     173.323E+06     128.224E+06    -7.84972E+06    -7.84180E+06     173.315E+06     128.224E+06    -422.818E+03         44.9985
             462     15.1517E-03     48.1888E-03     130.763E-03     116.564E-03    -423.227E-03     123.058E-03    -422.435E-03     123.478E-03    -9.12405E-03     114.097E-03    -55.1319E-03    -58.9927E-03    -53.3271E-03     108.431E-03    -55.1319E-03     59.1384E-03     170.885E+06     118.032E+06    -15.6771E+06    -15.6520E+06     170.859E+06     118.032E+06     319.450E+03         42.1631
             463     14.2029E-03     48.1456E-03     130.903E-03     119.019E-03    -425.529E-03     126.214E-03    -425.272E-03     123.450E-03    -4.49101E-03     111.725E-03    -54.9861E-03    -56.8330E-03    -53.2754E-03     108.167E-03    -54.9861E-03     47.9491E-03     162.827E+06     79.2065E+06    -22.7700E+06    -22.7348E+06     162.791E+06     79.2065E+06     677.692E+03         39.1167
             464     13.2555E-03     48.0830E-03     123.913E-03     112.737E-03    -413.668E-03     112.881E-03    -413.645E-03     123.745E-03     6.16278E-03     111.796E-03    -54.7448E-03    -57.1277E-03    -53.6510E-03     108.320E-03    -54.7448E-03     47.3392E-03     134.252E+06     23.7337E+06    -28.5672E+06    -28.5496E+06     134.234E+06     23.7337E+06    -126.137E+03         36.5393
             465     12.3085E-03     48.0410E-03     124.808E-03     108.467E-03    -412.698E-03     107.651E-03    -411.881E-03     124.808E-03     21.0008E-03     110.413E-03    -54.7475E-03    -55.7156E-03    -53.8197E-03     108.518E-03    -54.7475E-03     35.0376E-03     55.9002E+06    -2.33509E+06    -32.3002E+06    -32.2928E+06     55.1425E+06    -1.58482E+06    -660.268E+03         34.6912
             466     11.3606E-03     48.0074E-03     129.301E-03     112.576E-03    -422.090E-03     114.885E-03    -421.069E-03     125.970E-03     10.6463E-03     110.097E-03    -54.9096E-03    -55.2741E-03    -54.1236E-03     108.947E-03    -54.9096E-03     27.2606E-03    -5.34613E+06    -18.7959E+06    -48.0590E+06    -34.3831E+06    -31.6057E+06    -6.21215E+06    -683.537E+03         33.4234
             467     10.4137E-03     47.9817E-03     136.650E-03     120.738E-03    -435.542E-03     130.806E-03    -435.207E-03     126.247E-03    -2.10488E-03     109.954E-03    -54.9929E-03    -55.0942E-03    -54.3794E-03     109.241E-03    -54.9944E-03     21.5428E-03    -12.2049E+06    -36.4023E+06    -90.9394E+06    -36.4208E+06    -90.9209E+06    -12.2049E+06    -188.352E+03         32.4297
             468     9.46668E-03     47.9607E-03     137.035E-03     121.320E-03    -434.961E-03     132.510E-03    -434.806E-03     125.691E-03     1.64751E-03     109.996E-03    -55.0165E-03    -55.0958E-03    -54.5353E-03     109.497E-03    -55.0779E-03     18.0757E-03    -12.2981E+06    -39.2532E+06    -135.040E+06    -39.2611E+06    -135.032E+06    -12.2981E+06     443.420E+03         31.5659
             469     8.51979E-03     47.9426E-03     132.747E-03     116.056E-03    -425.061E-03     122.207E-03    -424.000E-03     125.535E-03     28.2639E-03     110.081E-03    -54.9558E-03    -55.1475E-03    -54.5857E-03     109.711E-03    -55.1475E-03     15.5649E-03    -12.4455E+06    -42.1168E+06    -161.920E+06    -42.1257E+06    -161.911E+06    -12.4455E+06    -110.974E+03         30.8181
             470     7.57306E-03     47.9267E-03     135.382E-03     116.806E-03    -428.944E-03     124.520E-03    -427.107E-03     125.831E-03     4.51095E-03     110.090E-03    -54.9487E-03    -55.2120E-03    -54.6781E-03     109.819E-03    -55.2120E-03     13.3126E-03    -16.7444E+06    -45.3002E+06    -183.801E+06    -45.3090E+06    -183.793E+06    -16.7444E+06    -229.327E+03         30.1874
             471     6.62607E-03     47.9136E-03     135.598E-03     113.909E-03    -428.111E-03     122.055E-03    -426.892E-03     126.233E-03    -11.2446E-03     110.279E-03    -55.0610E-03    -55.2445E-03    -54.9049E-03     110.081E-03    -55.2028E-03     11.3927E-03    -19.7523E+06    -48.8090E+06    -205.247E+06    -48.8134E+06    -205.242E+06    -19.7523E+06    -87.5123E+03         29.6729
             472     5.67952E-03     47.9014E-03     130.946E-03     116.254E-03    -424.264E-03     119.220E-03    -423.457E-03     127.172E-03     26.9481E-03     110.478E-03    -55.1511E-03    -55.2824E-03    -55.1004E-03     110.338E-03    -55.1928E-03     9.58901E-03    -24.2352E+06    -52.9833E+06    -220.614E+06    -52.9850E+06    -220.612E+06    -24.2352E+06    -437.522E+03         29.2526
             473     4.73321E-03     47.8927E-03     142.450E-03     124.053E-03    -439.672E-03     138.734E-03    -438.467E-03     126.564E-03     37.3108E-03     110.266E-03    -55.0811E-03    -55.2186E-03    -55.0309E-03     110.168E-03    -55.1707E-03     8.02324E-03    -35.9325E+06    -58.6809E+06    -231.423E+06    -58.6875E+06    -231.416E+06    -35.9325E+06    -475.780E+03         28.9173
             474     3.78658E-03     47.8843E-03     144.866E-03     121.450E-03    -436.979E-03     138.700E-03    -432.756E-03     123.392E-03    -32.9090E-03     110.135E-03    -55.0139E-03    -55.1917E-03    -55.0133E-03     110.070E-03    -55.1274E-03     6.48549E-03    -47.9443E+06    -64.2617E+06    -240.434E+06    -64.2677E+06    -240.428E+06    -47.9443E+06    -201.258E+03         28.6513
             475     2.83991E-03     47.8786E-03     137.029E-03     111.524E-03    -417.128E-03     112.699E-03    -404.515E-03     123.241E-03     35.8699E-03     110.199E-03    -55.0247E-03    -55.1961E-03    -55.0582E-03     110.163E-03    -55.1259E-03     4.86391E-03    -57.9011E+06    -68.2927E+06    -245.668E+06    -68.2941E+06    -245.667E+06    -57.9011E+06    -219.730E+03         28.4323
             476     1.89328E-03     47.8746E-03     158.917E-03     122.415E-03    -449.842E-03     103.627E-03    -404.326E-03     132.189E-03    -111.035E-03     110.106E-03    -54.9794E-03    -55.1229E-03    -54.9702E-03     110.091E-03    -55.1170E-03     2.90882E-03    -64.8853E+06    -71.9379E+06    -249.081E+06    -71.9759E+06    -249.043E+06    -64.8853E+06    -1.96305E+06         28.2670
             477     946.487E-06     47.8733E-03     463.171E-03     51.8565E-03    -687.596E-03    -165.078E-03    -451.115E-03     443.624E-03     209.652E-03     110.204E-03    -54.8539E-03    -55.3668E-03    -55.2709E-03     110.200E-03    -54.9458E-03     1.58389E-03    -70.5707E+06    -75.0047E+06    -247.868E+06    -75.0743E+06    -247.798E+06    -70.5707E+06    -2.48711E+06         28.1637
             478     16.0998E-03     47.1591E-03     128.728E-03     118.080E-03    -428.604E-03     121.285E-03    -427.919E-03     124.837E-03     4.70504E-03     112.725E-03    -54.1130E-03    -58.6569E-03    -53.2407E-03     108.282E-03    -55.0859E-03     42.7677E-03     173.396E+06     128.509E+06    -7.62730E+06    -7.61679E+06     173.385E+06     128.509E+06    -313.016E+03         44.9900
             479     15.1509E-03     47.0743E-03     133.303E-03     123.111E-03    -434.128E-03     131.104E-03    -433.622E-03     124.803E-03    -22.5711E-03     114.031E-03    -55.1204E-03    -58.9374E-03    -53.2943E-03     108.388E-03    -55.1204E-03     58.9818E-03     170.493E+06     117.118E+06    -15.8286E+06    -15.8154E+06     170.480E+06     117.118E+06    -295.013E+03         42.1576
             480     14.2038E-03     47.0289E-03     132.987E-03     124.258E-03    -432.828E-03     132.595E-03    -432.587E-03     124.409E-03    -6.39201E-03     111.797E-03    -54.9559E-03    -56.9118E-03    -53.3119E-03     108.198E-03    -54.9559E-03     48.2004E-03     162.319E+06     77.9608E+06    -23.2489E+06    -23.2264E+06     162.297E+06     77.9608E+06     107.045E+03         39.1132
             481     13.2560E-03     46.9684E-03     128.139E-03     116.101E-03    -421.080E-03     119.817E-03    -421.033E-03     124.376E-03    -368.602E-06     111.720E-03    -54.7165E-03    -57.0566E-03    -53.5352E-03     108.199E-03    -54.7165E-03     47.5723E-03     134.728E+06     23.5773E+06    -27.8536E+06    -27.8336E+06     134.708E+06     23.5773E+06     292.171E+03         36.5373
             482     12.3076E-03     46.9251E-03     129.302E-03     111.134E-03    -419.628E-03     113.843E-03    -418.029E-03     124.994E-03     37.1836E-03     110.429E-03    -54.7331E-03    -55.7375E-03    -53.8466E-03     108.539E-03    -54.7331E-03     34.9892E-03     56.8278E+06    -1.84879E+06    -30.3103E+06    -30.2869E+06     56.1692E+06    -1.21359E+06    -430.300E+03         34.6913
             483     11.3613E-03     46.8920E-03     132.111E-03     119.816E-03    -430.765E-03     124.868E-03    -429.106E-03     125.400E-03     35.3761E-03     110.143E-03    -54.8923E-03    -55.3363E-03    -54.1979E-03     109.004E-03    -54.8923E-03     27.1144E-03    -4.81310E+06    -18.6538E+06    -48.3290E+06    -33.5022E+06    -32.6147E+06    -5.67912E+06     37.0491E+03         33.4239
             484     10.4139E-03     46.8661E-03     135.250E-03     122.234E-03    -434.365E-03     131.938E-03    -433.868E-03     125.050E-03     15.0112E-03     109.872E-03    -54.9701E-03    -55.0446E-03    -54.3396E-03     109.172E-03    -54.9748E-03     21.3437E-03    -10.6820E+06    -37.8022E+06    -91.8926E+06    -37.9197E+06    -91.7751E+06    -10.6820E+06     1.19913E+06         32.4286
             485     9.46674E-03     46.8454E-03     130.353E-03     113.739E-03    -419.369E-03     118.663E-03    -418.965E-03     125.025E-03     19.4749E-03     109.966E-03    -55.0272E-03    -55.0526E-03    -54.5357E-03     109.467E-03    -55.0454E-03     18.0775E-03    -11.0654E+06    -41.1244E+06    -133.273E+06    -41.1587E+06    -133.238E+06    -11.0654E+06    -193.912E+03         31.5644
             486     8.52004E-03     46.8267E-03     126.262E-03     110.921E-03    -414.993E-03     109.648E-03    -413.720E-03     126.262E-03     34.8280E-03     110.105E-03    -54.9710E-03    -55.1267E-03    -54.6105E-03     109.737E-03    -55.1194E-03     15.5002E-03    -11.3835E+06    -42.8899E+06    -161.701E+06    -42.9200E+06    -161.671E+06    -11.3835E+06    -1.24112E+06         30.8168
             487     7.57305E-03     46.8117E-03     134.234E-03     120.463E-03    -437.261E-03     124.976E-03    -434.873E-03     127.332E-03    -281.860E-06     110.126E-03    -54.9858E-03    -55.1799E-03    -54.7144E-03     109.855E-03    -55.1799E-03     13.3566E-03    -14.6459E+06    -45.3090E+06    -184.274E+06    -45.3174E+06    -184.266E+06    -14.6459E+06    -784.395E+03         30.1855
             488     6.62661E-03     46.7975E-03     140.275E-03     126.666E-03    -447.623E-03     138.125E-03    -445.473E-03     126.666E-03    -1.79549E-03     110.226E-03    -55.0840E-03    -55.1643E-03    -54.8778E-03     110.020E-03    -55.1643E-03     11.6194E-03    -18.5684E+06    -48.8817E+06    -205.141E+06    -48.8887E+06    -205.134E+06    -18.5684E+06    -868.483E+03         29.6699
             489     5.67994E-03     46.7862E-03     133.398E-03     125.474E-03    -433.903E-03     130.125E-03    -430.630E-03     125.474E-03    -4.57276E-03     110.244E-03    -55.0431E-03    -55.1855E-03    -54.9032E-03     110.104E-03    -55.1855E-03     9.55588E-03    -23.0167E+06    -53.6518E+06    -221.798E+06    -53.6624E+06    -221.787E+06    -23.0167E+06    -46.4821E+03         29.2506
             490     4.73296E-03     46.7769E-03     130.015E-03     122.725E-03    -421.727E-03     125.163E-03    -419.257E-03     125.107E-03    -23.7954E-03     110.129E-03    -54.9679E-03    -55.1980E-03    -54.8689E-03     110.030E-03    -55.1980E-03     8.06975E-03    -33.5107E+06    -59.1227E+06    -231.526E+06    -59.1302E+06    -231.518E+06    -33.5107E+06     860.832E+03         28.9173
             491     3.78636E-03     46.7693E-03     135.322E-03     120.473E-03    -421.846E-03     127.502E-03    -418.350E-03     124.798E-03    -44.3041E-03     110.062E-03    -54.9211E-03    -55.1948E-03    -54.8496E-03     109.991E-03    -55.1948E-03     6.81675E-03    -46.8191E+06    -64.4677E+06    -240.180E+06    -64.4704E+06    -240.177E+06    -46.8191E+06     534.419E+03         28.6509
             492     2.83947E-03     46.7631E-03     145.450E-03     116.105E-03    -429.092E-03     107.771E-03    -403.130E-03     127.822E-03     89.9888E-03     110.159E-03    -54.9241E-03    -55.2547E-03    -54.8829E-03     110.117E-03    -55.2547E-03     5.13698E-03    -58.0849E+06    -68.5282E+06    -244.539E+06    -68.5351E+06    -244.532E+06    -58.0849E+06    -453.288E+03         28.4343
             493     1.89270E-03     46.7594E-03     175.379E-03     133.509E-03    -480.829E-03     94.7598E-03    -409.984E-03     143.284E-03    -95.5298E-03     110.426E-03    -55.1009E-03    -55.3078E-03    -55.0970E-03     110.409E-03    -55.2945E-03     3.18890E-03    -66.4929E+06    -71.9995E+06    -248.301E+06    -72.0435E+06    -248.257E+06    -66.4929E+06    -1.17287E+06         28.2740
             494     946.407E-06     46.7573E-03     424.549E-03     81.1821E-03    -682.441E-03    -92.6009E-03    -487.358E-03     403.249E-03     156.435E-03     110.607E-03    -55.1609E-03    -55.4505E-03    -55.3741E-03     110.601E-03    -55.2314E-03     1.89226E-03    -73.6489E+06    -78.2281E+06    -251.409E+06    -76.4053E+06    -251.338E+06    -75.5428E+06    -2.11358E+06         28.1729
             495     16.0994E-03     46.0446E-03     144.013E-03     125.625E-03    -451.479E-03     142.648E-03    -450.114E-03     125.625E-03     40.8370E-03     112.715E-03    -54.1194E-03    -58.6325E-03    -53.2557E-03     108.273E-03    -55.0543E-03     42.6417E-03     173.713E+06     127.969E+06    -7.59885E+06    -7.59079E+06     173.705E+06     127.969E+06    -255.030E+03         44.9799
             496     15.1523E-03     45.9580E-03     131.385E-03     116.513E-03    -429.045E-03     122.528E-03    -428.851E-03     125.176E-03     12.2420E-03     113.882E-03    -55.0953E-03    -58.7927E-03    -53.1408E-03     108.230E-03    -55.0953E-03     59.0052E-03     169.970E+06     115.721E+06    -16.0124E+06    -16.0025E+06     169.961E+06     115.721E+06    -201.108E+03         42.1495
             497     14.2033E-03     45.9144E-03     126.820E-03     111.971E-03    -418.290E-03     112.807E-03    -418.001E-03     125.695E-03     5.96602E-03     111.696E-03    -54.9714E-03    -56.7933E-03    -53.1632E-03     108.066E-03    -54.9714E-03     48.3660E-03     161.233E+06     79.0657E+06    -24.7459E+06    -24.7276E+06     161.214E+06     79.0657E+06     226.978E+03         39.1057
             498     13.2552E-03     45.8524E-03     135.333E-03     120.990E-03    -436.533E-03     130.056E-03    -436.317E-03     126.051E-03    -16.8135E-03     111.877E-03    -54.7212E-03    -57.1930E-03    -53.6601E-03     108.344E-03    -54.7212E-03     47.6482E-03     136.028E+06     26.8143E+06    -30.5759E+06    -30.5445E+06     135.996E+06     26.8143E+06    -292.280E+03         36.5306
             499     12.3090E-03     45.8098E-03     142.394E-03     125.361E-03    -449.080E-03     141.516E-03    -448.202E-03     125.361E-03     11.7248E-03     110.464E-03    -54.7200E-03    -55.7777E-03    -53.9084E-03     108.595E-03    -54.7200E-03     34.8009E-03     58.1417E+06    -1.10709E+06    -33.9113E+06    -33.8611E+06     56.6677E+06     316.748E+03    -396.817E+03         34.6854
             500     11.3611E-03     45.7761E-03     134.818E-03     124.258E-03    -438.405E-03     133.460E-03    -437.189E-03     124.400E-03     1.93678E-03     110.002E-03    -54.8907E-03    -55.2137E-03    -54.0776E-03     108.865E-03    -54.8907E-03     27.0919E-03    -4.66398E+06    -19.7339E+06    -51.3646E+06    -36.2720E+06    -34.8265E+06    -4.66398E+06     732.788E+03         33.4177
             501     10.4140E-03     45.7511E-03     125.870E-03     117.417E-03    -419.624E-03     117.976E-03    -418.642E-03     124.328E-03     2.18623E-03     109.897E-03    -54.9719E-03    -55.0592E-03    -54.3431E-03     109.184E-03    -54.9751E-03     21.5321E-03    -7.92265E+06    -37.1755E+06    -90.9913E+06    -37.2826E+06    -90.8842E+06    -7.92265E+06     824.607E+03         32.4214
             502     9.46714E-03     45.7296E-03     126.961E-03     114.251E-03    -418.228E-03     115.344E-03    -417.481E-03     125.120E-03     12.1967E-03     109.945E-03    -54.9481E-03    -55.0874E-03    -54.5022E-03     109.442E-03    -55.0306E-03     18.1424E-03    -7.41135E+06    -38.7181E+06    -130.333E+06    -38.7510E+06    -130.300E+06    -7.41135E+06    -672.280E+03         31.5579
             503     8.52019E-03     45.7114E-03     130.121E-03     119.932E-03    -431.757E-03     122.491E-03    -429.989E-03     125.793E-03     30.2387E-03     110.006E-03    -54.8879E-03    -55.1059E-03    -54.5191E-03     109.630E-03    -55.0986E-03     15.6796E-03    -11.1629E+06    -43.0319E+06    -162.157E+06    -43.0655E+06    -162.123E+06    -11.1629E+06    -1.61490E+06         30.8117
             504     7.57348E-03     45.6961E-03     129.516E-03     115.095E-03    -430.497E-03     114.325E-03    -426.949E-03     126.738E-03    -1.97010E-03     110.103E-03    -54.9710E-03    -55.1633E-03    -54.6830E-03     109.815E-03    -55.1633E-03     13.7527E-03    -16.0415E+06    -47.2010E+06    -184.615E+06    -47.2208E+06    -184.595E+06    -16.0415E+06    -1.55915E+06         30.1802
             505     6.62643E-03     45.6822E-03     132.674E-03     114.146E-03    -433.669E-03     115.658E-03    -430.936E-03     128.429E-03    -16.5189E-03     110.114E-03    -54.9934E-03    -55.1547E-03    -54.7756E-03     109.897E-03    -55.1547E-03     11.9349E-03    -20.1441E+06    -50.5074E+06    -205.711E+06    -50.5221E+06    -205.697E+06    -20.1441E+06    -1.23326E+06         29.6655
             506     5.67962E-03     45.6708E-03     137.775E-03     124.880E-03    -442.836E-03     130.431E-03    -439.893E-03     129.281E-03    -6.24371E-03     110.152E-03    -54.9777E-03    -55.1962E-03    -54.8280E-03     110.002E-03    -55.1962E-03     9.89077E-03    -26.0815E+06    -54.9464E+06    -224.128E+06    -54.9572E+06    -224.118E+06    -26.0815E+06    -128.125E+03         29.2502
             507     4.73296E-03     45.6619E-03     138.532E-03     126.354E-03    -436.646E-03     133.619E-03    -434.115E-03     128.735E-03    -14.1213E-03     110.110E-03    -54.9256E-03    -55.2393E-03    -54.8241E-03     110.008E-03    -55.2393E-03     8.13958E-03    -34.3359E+06    -59.5237E+06    -231.792E+06    -59.5346E+06    -231.781E+06    -34.3359E+06     981.313E+03         28.9217
             508     3.78578E-03     45.6537E-03     143.425E-03     124.341E-03    -436.544E-03     138.988E-03    -434.489E-03     126.723E-03    -24.3471E-03     110.092E-03    -54.8494E-03    -55.2845E-03    -54.7819E-03     110.024E-03    -55.2845E-03     6.62829E-03    -44.7923E+06    -63.6992E+06    -238.784E+06    -63.7052E+06    -238.778E+06    -44.7923E+06     673.266E+03         28.6581
             509     2.83895E-03     45.6479E-03     166.152E-03     123.071E-03    -458.477E-03     135.657E-03    -427.982E-03     123.071E-03     140.987E-03     110.373E-03    -54.9723E-03    -55.3748E-03    -54.9330E-03     110.334E-03    -55.3748E-03     5.00650E-03     -56.262E+06    -68.6658E+06    -243.464E+06    -68.6741E+06    -243.456E+06     -56.262E+06    -251.647E+03         28.4421
             510     1.89231E-03     45.6430E-03     205.710E-03     123.307E-03    -504.932E-03     113.785E-03    -413.007E-03     123.307E-03    -98.7559E-03     110.693E-03    -55.2076E-03    -55.4264E-03    -55.2046E-03     110.676E-03    -55.4132E-03     3.12971E-03    -66.1518E+06    -73.8478E+06    -249.103E+06    -73.8659E+06    -249.085E+06    -66.1518E+06    -128.997E+03         28.2829
             511     946.189E-06     45.6412E-03     374.565E-03     77.3551E-03    -634.891E-03    -72.6402E-03    -434.128E-03     323.798E-03     82.7376E-03     110.823E-03    -55.2776E-03    -55.5332E-03    -55.4421E-03     110.817E-03    -55.3628E-03     1.43968E-03    -73.0852E+06    -78.3186E+06    -251.625E+06    -76.4848E+06    -251.565E+06    -74.9791E+06     1.19035E+06         28.1879
             512     16.1005E-03     44.9284E-03     140.971E-03     124.352E-03    -447.142E-03     137.437E-03    -445.729E-03     126.473E-03     24.1853E-03     112.857E-03    -54.1157E-03    -58.7507E-03    -53.3170E-03     108.355E-03    -55.0471E-03     42.9616E-03     173.197E+06     127.515E+06    -8.16723E+06    -8.16240E+06     173.193E+06     127.515E+06    -107.525E+03         44.9676
             513     15.1515E-03     44.8435E-03     134.956E-03     117.633E-03    -432.915E-03     125.823E-03    -432.455E-03     126.305E-03    -3.55138E-03     114.047E-03    -55.0784E-03    -59.0095E-03    -53.3118E-03     108.349E-03    -55.0784E-03     59.2125E-03     169.156E+06     115.876E+06    -16.6858E+06    -16.6742E+06     169.145E+06     115.876E+06     214.619E+03         42.1395
             514     14.2036E-03     44.7988E-03     130.480E-03     111.931E-03    -427.088E-03     115.125E-03    -426.626E-03     126.824E-03    -9.94877E-03     111.693E-03    -54.9696E-03    -56.8739E-03    -53.2553E-03     108.074E-03    -54.9696E-03     48.2735E-03      162.21E+06     80.0740E+06    -23.4451E+06    -23.4216E+06     162.186E+06     80.0740E+06     452.426E+03         39.0974
             515     13.2563E-03     44.7367E-03     133.168E-03     116.023E-03    -434.923E-03     121.353E-03    -434.566E-03     127.481E-03    -25.8480E-03     111.787E-03    -54.7236E-03    -57.1003E-03    -53.5305E-03     108.217E-03    -54.7236E-03     47.9178E-03     136.964E+06     27.7445E+06    -29.0401E+06    -28.9972E+06     136.921E+06     27.7445E+06     89.9524E+03         36.5224
             516     12.3085E-03     44.6940E-03     140.224E-03     121.679E-03    -443.843E-03     134.265E-03    -443.706E-03     127.500E-03    -1.59239E-03     110.433E-03    -54.7175E-03    -55.7508E-03    -53.8402E-03     108.523E-03    -54.7175E-03     35.1467E-03     58.0039E+06    -1.40276E+06    -33.2360E+06    -33.1819E+06     55.9800E+06     567.179E+03     112.782E+03         34.6761
             517     11.3615E-03     44.6616E-03     134.760E-03     126.203E-03    -440.907E-03     133.193E-03    -440.225E-03     127.088E-03    -19.2494E-03     110.029E-03    -54.8788E-03    -55.2742E-03    -54.1156E-03     108.871E-03    -54.8788E-03     27.3858E-03    -5.99417E+06    -19.9071E+06    -50.5500E+06    -35.4174E+06    -35.0396E+06    -5.99417E+06    -508.120E+03         33.4078
             518     10.4140E-03     44.6348E-03     128.841E-03     122.998E-03    -430.775E-03     123.822E-03    -429.852E-03     127.094E-03    -20.1665E-03     109.854E-03    -54.9050E-03    -55.0750E-03    -54.2782E-03     109.115E-03    -54.9633E-03     21.9079E-03    -10.0346E+06    -36.1151E+06    -89.6599E+06    -36.1735E+06    -89.6014E+06    -10.0346E+06    -1.52633E+06         32.4114
             519     9.46723E-03     44.6144E-03     132.403E-03     123.410E-03    -434.349E-03     126.647E-03    -432.548E-03     127.364E-03    -31.9997E-03     109.880E-03    -54.8647E-03    -55.0929E-03    -54.3941E-03     109.359E-03    -55.0433E-03     18.4426E-03    -8.28445E+06    -37.5344E+06    -130.414E+06    -37.5594E+06    -130.389E+06    -8.28445E+06    -1.01349E+06         31.5497
             520     8.52002E-03     44.5962E-03     133.716E-03     126.101E-03    -440.133E-03     130.195E-03    -437.813E-03     127.303E-03    -9.37109E-03     109.999E-03    -54.8524E-03    -55.1167E-03    -54.4562E-03     109.602E-03    -55.1167E-03     16.1093E-03    -10.7533E+06    -40.6551E+06    -162.011E+06    -40.6599E+06    -162.006E+06    -10.7533E+06    -351.126E+03         30.8062
             521     7.57283E-03     44.5803E-03     130.403E-03     116.806E-03    -430.873E-03     116.390E-03    -427.969E-03     127.916E-03    -16.0842E-03     110.130E-03    -54.9549E-03    -55.1853E-03    -54.6541E-03     109.829E-03    -55.1853E-03     14.0435E-03    -16.0656E+06    -45.5175E+06    -184.467E+06    -45.5312E+06    -184.454E+06    -16.0656E+06    -594.904E+03         30.1767
             522     6.62631E-03     44.5668E-03     129.867E-03     115.346E-03    -429.290E-03     113.064E-03    -427.008E-03     129.867E-03    -30.6427E-03     110.112E-03    -54.9490E-03    -55.1953E-03    -54.7338E-03     109.897E-03    -55.1953E-03     11.8554E-03    -21.0752E+06    -50.8813E+06    -206.591E+06    -50.8941E+06    -206.579E+06    -21.0752E+06    -788.671E+03         29.6658
             523     5.67909E-03     44.5557E-03     138.588E-03     126.219E-03    -444.585E-03     133.603E-03    -444.212E-03     130.831E-03     26.1772E-03     110.158E-03    -54.9111E-03    -55.2528E-03    -54.7599E-03     110.007E-03    -55.2528E-03     9.95798E-03    -27.5317E+06    -55.5902E+06    -225.167E+06    -55.5940E+06    -225.164E+06    -27.5317E+06    -538.035E+03         29.2555
             524     4.73250E-03     44.5457E-03     148.188E-03     128.660E-03    -450.454E-03     147.843E-03    -450.109E-03     128.660E-03     18.6464E-03     110.305E-03    -55.0274E-03    -55.3221E-03    -54.9399E-03     110.200E-03    -55.3051E-03     8.25115E-03    -36.4888E+06    -59.8436E+06    -232.782E+06    -59.8499E+06    -232.776E+06    -36.4888E+06    -5.88753E+03         28.9307
             525     3.78601E-03     44.5391E-03     142.280E-03     124.589E-03    -439.999E-03     141.647E-03    -439.366E-03     124.589E-03    -14.4204E-03     110.390E-03    -55.0881E-03    -55.3504E-03    -55.0602E-03     110.326E-03    -55.3141E-03     6.46716E-03    -45.5229E+06    -64.3018E+06    -237.945E+06    -64.3192E+06    -237.928E+06    -45.5229E+06     704.966E+03         28.6696
             526     2.83917E-03     44.5318E-03     164.409E-03     117.519E-03    -461.737E-03     147.043E-03    -444.371E-03     117.519E-03     124.342E-03     110.485E-03    -55.0972E-03    -55.3428E-03    -55.0813E-03     110.450E-03    -55.3236E-03     4.73762E-03    -56.9510E+06    -69.4319E+06    -243.342E+06    -69.4447E+06    -243.329E+06    -56.9510E+06     878.061E+03         28.4532
             527     1.89288E-03     44.5277E-03     211.593E-03     99.4017E-03    -493.189E-03     152.079E-03    -433.675E-03     99.4017E-03    -75.8612E-03     110.581E-03    -55.1807E-03    -55.3206E-03    -55.1668E-03     110.566E-03    -55.3196E-03     3.05635E-03    -66.1102E+06    -73.4707E+06    -248.657E+06    -73.4761E+06    -248.652E+06    -66.1102E+06     73.5745E+03         28.2899
             528     946.303E-06     44.5244E-03     283.690E-03     64.7933E-03    -536.359E-03    -40.2570E-03    -360.087E-03     212.468E-03     84.9204E-03     110.657E-03    -55.1408E-03    -55.4959E-03    -55.4474E-03     110.651E-03    -55.1835E-03     1.43766E-03    -72.4763E+06    -76.6278E+06    -250.651E+06    -76.7021E+06    -250.577E+06    -72.4763E+06     148.962E+03         28.1918
             529     16.0988E-03     43.8139E-03     128.934E-03     118.266E-03    -429.479E-03     117.854E-03    -428.810E-03     128.677E-03     13.3646E-03     112.827E-03    -54.0508E-03    -58.7964E-03    -53.2802E-03     108.328E-03    -55.0679E-03     42.9150E-03     173.048E+06     127.687E+06    -8.10580E+06    -8.08605E+06     173.028E+06     127.687E+06     418.757E+03         44.9543
             530     15.1518E-03     43.7269E-03     135.849E-03     128.768E-03    -445.948E-03     135.265E-03    -445.525E-03     128.928E-03    -3.10006E-03     114.223E-03    -55.0751E-03    -59.2278E-03    -53.4908E-03     108.486E-03    -55.0751E-03     59.5819E-03     169.967E+06     117.315E+06    -16.0684E+06    -16.0183E+06     169.917E+06     117.315E+06    -21.5073E+03         42.1292
             531     14.2044E-03     43.6837E-03     139.543E-03     127.220E-03    -453.438E-03     137.973E-03    -453.187E-03     128.538E-03    -15.5862E-03     111.866E-03    -54.9347E-03    -57.1240E-03    -53.4398E-03     108.181E-03    -54.9347E-03     48.7919E-03     162.421E+06     78.8933E+06    -22.7136E+06    -22.6689E+06     162.376E+06     78.8933E+06    -541.538E+03         39.0901
             532     13.2558E-03     43.6216E-03     132.807E-03     119.816E-03    -441.305E-03     123.842E-03    -440.989E-03     128.465E-03    -24.2929E-03     111.653E-03    -54.7185E-03    -56.9997E-03    -53.3846E-03     108.038E-03    -54.7185E-03     48.2076E-03     136.140E+06     25.6276E+06    -27.4887E+06    -27.4632E+06     136.115E+06     25.6276E+06     776.724E+03         36.5165
             533     12.3080E-03     43.5784E-03     129.342E-03     112.925E-03    -428.731E-03     111.987E-03    -427.793E-03     129.342E-03     16.4875E-03     110.319E-03    -54.7303E-03    -55.6344E-03    -53.6955E-03     108.380E-03    -54.7303E-03     35.3667E-03     57.7816E+06    -1.62175E+06    -30.5406E+06    -30.5163E+06     56.5761E+06    -440.453E+03     431.187E+03         34.6709
             534     11.3609E-03     43.5454E-03     131.181E-03     119.318E-03    -433.153E-03     118.721E-03    -431.921E-03     130.546E-03     4.78792E-03     110.154E-03    -54.8905E-03    -55.3912E-03    -54.2235E-03     108.986E-03    -54.8905E-03     27.5064E-03    -5.66004E+06    -19.0637E+06    -48.1570E+06    -32.8788E+06    -33.1972E+06    -6.80480E+06    -1.15094E+06         33.4037
             535     10.4142E-03     43.5202E-03     138.802E-03     128.734E-03    -449.157E-03     135.748E-03    -448.245E-03     130.876E-03    -7.72651E-03     109.806E-03    -54.8507E-03    -55.0856E-03    -54.2168E-03     109.060E-03    -54.9731E-03     22.0300E-03    -11.2942E+06    -35.9427E+06    -89.8172E+06    -36.0076E+06    -89.7522E+06    -11.2942E+06    -1.52845E+06         32.4082
             536     9.46626E-03     43.4988E-03     139.787E-03     128.764E-03    -452.721E-03     136.299E-03    -450.878E-03     130.409E-03    -17.8962E-03     109.798E-03    -54.8181E-03    -55.0577E-03    -54.2883E-03     109.268E-03    -55.0577E-03     18.5994E-03    -10.8306E+06    -39.3318E+06    -132.213E+06    -39.3562E+06    -132.189E+06    -10.8306E+06    -1.06327E+06         31.5470
             537     8.51953E-03     43.4809E-03     133.965E-03     127.405E-03    -447.791E-03     128.417E-03    -445.089E-03     130.251E-03     6.38105E-03     110.107E-03    -54.9396E-03    -55.1262E-03    -54.5375E-03     109.705E-03    -55.1262E-03     16.2360E-03    -12.9716E+06    -42.7051E+06    -162.396E+06    -42.7107E+06    -162.390E+06    -12.9716E+06     116.710E+03         30.8053
             538     7.57282E-03     43.4650E-03     139.061E-03     128.787E-03    -451.668E-03     135.739E-03    -449.574E-03     130.016E-03     9.39310E-03     110.201E-03    -54.9942E-03    -55.2088E-03    -54.6965E-03     109.903E-03    -55.2088E-03     13.9581E-03    -16.5456E+06    -46.3154E+06    -183.935E+06    -46.3210E+06    -183.929E+06    -16.5456E+06     389.447E+03         30.1782
             539     6.62576E-03     43.4512E-03     136.692E-03     128.020E-03    -444.643E-03     134.614E-03    -443.820E-03     129.275E-03    -15.8820E-03     110.186E-03    -54.9656E-03    -55.2540E-03    -54.7553E-03     109.975E-03    -55.2540E-03     11.7348E-03    -20.0803E+06    -50.4397E+06    -206.429E+06    -50.4473E+06    -206.421E+06    -20.0803E+06    -133.514E+03         29.6693
             540     5.67932E-03     43.4404E-03     132.194E-03     127.017E-03    -435.788E-03     129.937E-03    -435.294E-03     128.780E-03     11.6219E-03     110.290E-03    -54.9671E-03    -55.3117E-03    -54.8166E-03     110.140E-03    -55.3117E-03     9.93375E-03    -25.9935E+06    -55.4862E+06    -224.914E+06    -55.4945E+06    -224.906E+06    -25.9935E+06    -434.390E+03         29.2600
             541     4.73201E-03     43.4306E-03     140.975E-03     126.883E-03    -441.232E-03     139.974E-03    -440.767E-03     127.419E-03     4.44473E-03     110.430E-03    -55.0799E-03    -55.3650E-03    -54.9917E-03     110.325E-03    -55.3480E-03     8.29662E-03    -35.9962E+06    -60.9043E+06    -233.725E+06    -60.9095E+06    -233.720E+06    -35.9962E+06    -479.607E+03         28.9363
             542     3.78570E-03     43.4221E-03     136.345E-03     124.151E-03    -437.589E-03     135.112E-03    -437.101E-03     124.896E-03    -15.1594E-03     110.603E-03    -55.2336E-03    -55.4025E-03    -55.2697E-03     110.537E-03    -55.3003E-03     6.55783E-03    -48.5932E+06    -65.4593E+06    -239.117E+06    -65.4730E+06    -239.104E+06    -48.5932E+06     509.142E+03         28.6754
             543     2.83993E-03     43.4169E-03     142.872E-03     120.505E-03    -449.638E-03     135.629E-03    -443.140E-03     121.250E-03     59.4566E-03     110.531E-03    -55.1930E-03    -55.3381E-03    -55.2481E-03     110.494E-03    -55.2462E-03     4.87369E-03    -58.5552E+06    -68.0666E+06    -242.233E+06    -68.0798E+06    -242.219E+06    -58.5552E+06     1.00491E+06         28.4570
             544     1.89288E-03     43.4114E-03     190.574E-03     105.723E-03    -492.943E-03     158.493E-03    -460.862E-03     105.723E-03    -107.994E-03     110.364E-03    -55.1035E-03    -55.2275E-03    -55.0931E-03     110.346E-03    -55.2198E-03     3.37887E-03    -65.1111E+06    -71.5619E+06    -248.064E+06    -71.5678E+06    -248.058E+06    -65.1111E+06     914.788E+03         28.2918
             545     946.580E-06     43.4091E-03     234.419E-03     112.858E-03    -543.689E-03     44.2370E-03    -381.632E-03     140.983E-03     171.480E-03     110.439E-03    -54.9921E-03    -55.4420E-03    -55.1404E-03     110.432E-03    -55.2867E-03     1.98414E-03    -72.0035E+06    -76.3355E+06    -250.846E+06    -75.1325E+06    -250.811E+06    -73.2412E+06     65.1066E+03         28.1915
             546     16.0999E-03     42.6973E-03     133.613E-03     122.028E-03    -424.807E-03     124.927E-03    -424.411E-03     130.318E-03     16.1394E-03     112.753E-03    -54.1071E-03    -58.6843E-03    -53.3184E-03     108.355E-03    -55.0752E-03     42.5706E-03     173.356E+06     128.170E+06    -7.77993E+06    -7.73810E+06     173.314E+06     128.170E+06     185.599E+03         44.9423
             547     15.1510E-03     42.6126E-03     134.360E-03     130.373E-03    -443.240E-03     134.129E-03    -443.009E-03     130.373E-03     6.37113E-03     113.923E-03    -55.0866E-03    -58.9173E-03    -53.2695E-03     108.280E-03    -55.0915E-03     59.1309E-03     170.904E+06     117.651E+06    -15.6198E+06    -15.5475E+06     170.832E+06     117.651E+06    -403.964E+03         42.1203
             548     14.2025E-03     42.5669E-03     138.253E-03     130.015E-03    -453.682E-03     138.182E-03    -453.611E-03     130.015E-03    -2.23932E-03     111.770E-03    -54.9450E-03    -56.9691E-03    -53.3106E-03     108.117E-03    -54.9499E-03     48.6169E-03     161.588E+06     78.4737E+06    -23.7812E+06    -23.7238E+06     161.531E+06     78.4737E+06    -563.326E+03         39.0834
             549     13.2562E-03     42.5068E-03     137.027E-03     127.365E-03    -452.231E-03     134.580E-03    -452.035E-03     129.617E-03    -6.98867E-03     111.847E-03    -54.7370E-03    -57.1912E-03    -53.6363E-03     108.292E-03    -54.7370E-03     47.8706E-03     134.998E+06     26.1319E+06    -28.8452E+06    -28.8258E+06     134.979E+06     26.1319E+06     4.90223E+03         36.5131
             550     12.3081E-03     42.4634E-03     132.650E-03     115.019E-03    -435.151E-03     115.700E-03    -433.212E-03     130.029E-03     42.7466E-03     110.291E-03    -54.7485E-03    -55.6168E-03    -53.6999E-03     108.375E-03    -54.7485E-03     35.1822E-03     58.1308E+06     438.402E+03    -31.2306E+06    -31.2146E+06     58.1148E+06     438.402E+03     479.778E+03         34.6706
             551     11.3606E-03     42.4298E-03     131.479E-03     112.999E-03    -430.596E-03     110.031E-03    -427.628E-03     131.479E-03     11.4458E-03     109.903E-03    -54.8468E-03    -55.1841E-03    -53.9800E-03     108.760E-03    -54.9082E-03     27.1301E-03    -6.13315E+06    -19.5156E+06    -49.2999E+06    -34.8152E+06    -32.2593E+06    -7.87417E+06     10.7283E+03         33.4059
             552     10.4133E-03     42.4048E-03     142.633E-03     126.512E-03    -452.247E-03     135.168E-03    -450.504E-03     132.234E-03    -7.28634E-03     109.792E-03    -54.8706E-03    -55.0626E-03    -54.2104E-03     109.072E-03    -55.0032E-03     21.6394E-03    -12.3861E+06    -38.1441E+06    -89.9319E+06    -38.1695E+06    -89.9066E+06    -12.3861E+06    -751.909E+03         32.4131
             553     9.46661E-03     42.3841E-03     150.030E-03     129.628E-03    -464.667E-03     147.711E-03    -463.993E-03     131.273E-03     14.2432E-03     109.892E-03    -54.8836E-03    -55.0887E-03    -54.3650E-03     109.373E-03    -55.0887E-03     18.4102E-03    -11.1291E+06    -41.4169E+06    -133.486E+06    -41.4436E+06    -133.460E+06    -11.1291E+06    -149.958E+03         31.5522
             554     8.51913E-03     42.3651E-03     144.441E-03     128.207E-03    -462.747E-03     140.197E-03    -460.148E-03     129.852E-03     44.2854E-03     110.063E-03    -54.8785E-03    -55.1473E-03    -54.4825E-03     109.667E-03    -55.1473E-03     16.1144E-03    -14.1210E+06    -45.1342E+06    -162.605E+06    -45.1709E+06    -162.568E+06    -14.1210E+06    -76.3865E+03         30.8089
             555     7.57245E-03     42.3492E-03     142.601E-03     122.632E-03    -454.614E-03     133.492E-03    -451.825E-03     128.953E-03     36.4660E-03     110.133E-03    -54.9282E-03    -55.2309E-03    -54.6312E-03     109.836E-03    -55.2309E-03     13.9374E-03    -18.2396E+06    -47.7057E+06    -183.755E+06    -47.7295E+06    -183.731E+06    -18.2396E+06    -863.171E+03         30.1824
             556     6.62571E-03     42.3359E-03     137.361E-03     121.231E-03    -445.963E-03     129.692E-03    -445.631E-03     128.568E-03    -12.6669E-03     110.255E-03    -55.0230E-03    -55.2766E-03    -54.8112E-03     110.043E-03    -55.2766E-03     11.7871E-03    -21.4983E+06    -50.8773E+06    -206.750E+06    -50.8834E+06    -206.744E+06    -21.4983E+06     161.014E+03         29.6746
             557     5.67844E-03     42.3244E-03     134.107E-03     126.591E-03    -445.418E-03     132.317E-03    -445.180E-03     128.143E-03    -3.28685E-03     110.477E-03    -55.1695E-03    -55.3154E-03    -55.0229E-03     110.331E-03    -55.3154E-03     9.78977E-03    -27.5763E+06    -56.3157E+06    -224.492E+06    -56.3331E+06    -224.475E+06    -27.5763E+06     900.571E+03         29.2650
             558     4.73270E-03     42.3151E-03     135.974E-03     120.530E-03    -437.957E-03     128.171E-03    -437.382E-03     127.758E-03     10.4178E-03     110.450E-03    -55.1554E-03    -55.3227E-03    -55.0527E-03     110.347E-03    -55.3227E-03     8.22631E-03    -37.9628E+06    -62.0470E+06    -233.451E+06    -62.0620E+06    -233.436E+06    -37.9628E+06     323.825E+03         28.9398
             559     3.78575E-03     42.3065E-03     132.273E-03     119.106E-03    -434.607E-03     121.312E-03    -433.185E-03     128.645E-03    -14.3622E-03     110.479E-03    -55.1672E-03    -55.3541E-03    -55.1638E-03     110.409E-03    -55.2881E-03     6.69484E-03    -50.5734E+06    -66.2964E+06    -239.275E+06    -66.3083E+06    -239.263E+06    -50.5734E+06    -747.188E+03         28.6760
             560     2.83916E-03     42.3004E-03     131.992E-03     125.053E-03    -445.437E-03     118.535E-03    -438.735E-03     131.808E-03     38.3425E-03     110.621E-03    -55.2480E-03    -55.3997E-03    -55.3508E-03     110.586E-03    -55.2618E-03     4.71797E-03    -59.6596E+06    -68.5574E+06    -243.496E+06     -68.572E+06    -243.482E+06    -59.6596E+06    -138.388E+03         28.4543
             561     1.89327E-03     42.2968E-03     171.123E-03     120.759E-03    -482.230E-03     113.886E-03    -445.063E-03     140.829E-03    -126.382E-03     110.421E-03    -55.1244E-03    -55.2832E-03    -55.2038E-03     110.405E-03    -55.1875E-03     3.22040E-03    -64.3405E+06    -71.4471E+06    -247.461E+06    -71.4598E+06    -247.448E+06    -64.3405E+06     1.46037E+06         28.2891
             562     946.246E-06     42.2928E-03     254.708E-03     175.055E-03    -620.947E-03     99.6373E-03    -486.521E-03     195.700E-03     200.250E-03     110.233E-03    -54.7001E-03    -55.5384E-03    -55.2382E-03     110.227E-03    -54.9946E-03     1.66354E-03    -70.0744E+06    -76.8800E+06    -249.912E+06    -75.6581E+06    -249.896E+06    -71.3122E+06     1.29095E+06         28.1917
             563     16.0992E-03     41.5817E-03     136.663E-03     130.892E-03    -444.665E-03     136.409E-03    -444.411E-03     130.892E-03     6.04184E-03     112.665E-03    -54.1087E-03    -58.6333E-03    -53.2965E-03     108.286E-03    -55.0668E-03     42.6706E-03     173.690E+06     128.652E+06    -7.41500E+06    -7.37552E+06     173.650E+06     128.652E+06    -200.174E+03         44.9312
             564     15.1521E-03     41.4973E-03     132.571E-03     128.619E-03    -444.278E-03     130.220E-03    -444.074E-03     130.766E-03     1.58653E-03     113.829E-03    -55.0898E-03    -58.8612E-03    -53.2469E-03     108.219E-03    -55.0947E-03     58.9289E-03     170.507E+06     116.954E+06    -15.8509E+06    -15.8030E+06     170.459E+06     116.954E+06    -72.0812E+03         42.1123
             565     14.2039E-03     41.4524E-03     131.798E-03     128.005E-03    -444.386E-03     128.133E-03    -443.625E-03     130.909E-03    -9.86885E-03     111.644E-03    -54.9556E-03    -56.8357E-03    -53.1762E-03     107.989E-03    -54.9605E-03     48.5621E-03     161.804E+06     77.9639E+06    -23.2973E+06    -23.2531E+06     161.760E+06     77.9639E+06     144.521E+03         39.0780
             566     13.2550E-03     41.3900E-03     134.082E-03     129.948E-03    -450.110E-03     132.273E-03    -449.367E-03     131.013E-03    -8.49205E-03     111.858E-03    -54.7380E-03    -57.1630E-03    -53.6096E-03     108.305E-03    -54.7380E-03     47.8212E-03     134.525E+06     25.0331E+06    -29.0085E+06    -28.9798E+06     134.496E+06     25.0331E+06    -290.743E+03         36.5107
             567     12.3088E-03     41.3479E-03     138.759E-03     126.250E-03    -450.566E-03     132.492E-03    -449.021E-03     130.973E-03     50.8554E-03     110.384E-03    -54.7547E-03    -55.6821E-03    -53.7662E-03     108.468E-03    -54.7547E-03     35.2183E-03     57.7258E+06     684.088E+03    -32.6186E+06    -32.5960E+06     57.2891E+06     1.09823E+06     295.624E+03         34.6712
             568     11.3609E-03     41.3146E-03     140.823E-03     122.979E-03    -449.456E-03     130.085E-03    -446.713E-03     130.973E-03     3.44589E-03     109.849E-03    -54.8351E-03    -55.0984E-03    -53.8482E-03     108.684E-03    -54.9207E-03     27.3805E-03    -4.57092E+06    -17.0285E+06    -48.9710E+06    -34.1535E+06    -31.2497E+06    -5.16718E+06     611.744E+03         33.4088
             569     10.4135E-03     41.2893E-03     142.016E-03     127.162E-03    -453.438E-03     135.888E-03    -450.890E-03     130.742E-03    -3.10958E-03     109.820E-03    -54.8928E-03    -55.0248E-03    -54.1696E-03     109.096E-03    -55.0248E-03     21.6622E-03    -10.3022E+06    -37.3653E+06    -90.3532E+06    -37.4802E+06    -90.2382E+06    -10.3022E+06     1.08469E+06         32.4188
             570     9.46621E-03     41.2682E-03     145.974E-03     129.709E-03    -459.249E-03     144.617E-03    -457.892E-03     129.709E-03     30.3917E-03     109.968E-03    -54.9397E-03    -55.1088E-03    -54.4230E-03     109.451E-03    -55.1088E-03     18.3989E-03    -10.3139E+06    -42.0396E+06    -133.399E+06    -42.1911E+06    -133.248E+06    -10.3139E+06     816.629E+03         31.5599
             571     8.51954E-03     41.2501E-03     142.750E-03     124.265E-03    -454.978E-03     136.849E-03    -453.284E-03     128.472E-03     37.7109E-03     110.002E-03    -54.8087E-03    -55.1647E-03    -54.4067E-03     109.600E-03    -55.1647E-03     16.2223E-03    -15.5624E+06    -44.8467E+06    -160.991E+06    -44.9060E+06    -160.932E+06    -15.5624E+06    -1.25029E+06         30.8159
             572     7.57202E-03     41.2338E-03     137.368E-03     117.707E-03    -445.491E-03     124.692E-03    -443.342E-03     128.235E-03     15.9132E-03     110.101E-03    -54.8903E-03    -55.2522E-03    -54.5951E-03     109.806E-03    -55.2522E-03     13.8866E-03    -21.0244E+06    -47.9910E+06    -185.435E+06    -48.0140E+06    -185.412E+06    -21.0244E+06    -1.09151E+06         30.1886
             573     6.62517E-03     41.2203E-03     143.266E-03     121.543E-03    -450.398E-03     136.215E-03    -449.668E-03     127.864E-03    -13.8465E-03     110.337E-03    -55.1000E-03    -55.2849E-03    -54.8915E-03     110.129E-03    -55.2849E-03     11.6980E-03     -24.515E+06    -53.1210E+06    -208.446E+06    -53.1296E+06    -208.437E+06     -24.515E+06     702.032E+03         29.6812
             574     5.67932E-03     41.2087E-03     141.986E-03     120.733E-03    -447.784E-03     135.118E-03    -446.710E-03     126.527E-03     33.6305E-03     110.540E-03    -55.2236E-03    -55.3232E-03    -55.0758E-03     110.392E-03    -55.3232E-03     9.84552E-03    -30.3762E+06    -57.1583E+06    -223.672E+06    -57.1809E+06    -223.650E+06    -30.3762E+06     969.374E+03         29.2715
             575     4.73213E-03     41.1995E-03     132.082E-03     107.066E-03    -428.815E-03     110.433E-03    -427.594E-03     127.494E-03     32.8031E-03     110.543E-03    -55.2378E-03    -55.3776E-03    -55.1898E-03     110.438E-03    -55.3213E-03     8.27886E-03    -38.6714E+06    -59.9680E+06    -231.768E+06    -59.9847E+06    -231.751E+06    -38.6714E+06    -82.1790E+03         28.9436
             576     3.78591E-03     41.1910E-03     132.507E-03     107.926E-03    -434.079E-03     106.093E-03    -432.246E-03     132.507E-03    -31.3209E-03     110.449E-03    -55.1894E-03    -55.3471E-03    -55.1776E-03     110.381E-03    -55.2909E-03     6.64055E-03    -47.9931E+06    -63.7208E+06    -238.788E+06    -63.7334E+06    -238.775E+06    -47.9931E+06    -792.796E+03         28.6771
             577     2.83952E-03     41.1842E-03     140.651E-03     120.346E-03    -453.501E-03     111.751E-03    -444.907E-03     140.651E-03     46.2138E-03     110.569E-03    -55.2258E-03    -55.3568E-03    -55.2607E-03     110.534E-03    -55.2868E-03     4.71361E-03    -56.2985E+06    -68.4197E+06    -245.173E+06    -68.4366E+06    -245.156E+06    -56.2985E+06    -555.873E+03         28.4549
             578     1.89312E-03     41.1805E-03     161.755E-03     129.827E-03    -475.672E-03     96.6906E-03    -442.536E-03     161.755E-03    -84.8827E-03     110.571E-03    -55.1382E-03    -55.4195E-03    -55.4048E-03     110.557E-03    -55.1382E-03     2.98713E-03    -63.8103E+06    -71.7085E+06    -247.710E+06    -71.7201E+06    -247.698E+06    -63.8103E+06     550.383E+03         28.2892
             579     947.149E-06     41.1783E-03     228.170E-03     195.510E-03    -606.909E-03     134.342E-03    -539.133E-03     221.562E-03     76.0363E-03     110.006E-03    -54.6266E-03    -55.3965E-03    -55.3906E-03     110.000E-03    -54.6266E-03     1.84674E-03    -69.2746E+06    -75.0644E+06    -248.178E+06    -73.2045E+06    -248.160E+06    -71.1527E+06    -215.974E+03         28.1893
             580     16.1000E-03     40.4664E-03     134.053E-03     125.584E-03    -454.960E-03     128.221E-03    -454.863E-03     131.319E-03     2.38360E-03     112.529E-03    -54.0281E-03    -58.5644E-03    -53.0785E-03     108.061E-03    -55.0466E-03     42.7180E-03     173.843E+06     128.086E+06    -7.72677E+06    -7.70443E+06     173.820E+06     128.086E+06    -214.723E+03         44.9201
             581     15.1508E-03     40.3813E-03     132.745E-03     124.484E-03    -446.731E-03     125.422E-03    -446.585E-03     131.662E-03     1.88375E-03     113.939E-03    -55.0813E-03    -58.9936E-03    -53.2854E-03     108.231E-03    -55.0813E-03     59.3665E-03     170.156E+06     115.503E+06    -15.6715E+06    -15.6444E+06     170.129E+06     115.503E+06    -117.357E+03         42.1042
             582     14.2033E-03     40.3370E-03     132.307E-03     122.632E-03    -442.701E-03     121.331E-03    -441.400E-03     132.307E-03    -30.0034E-03     111.776E-03    -54.9571E-03    -56.9915E-03    -53.3058E-03     108.090E-03    -54.9571E-03     48.7781E-03     161.809E+06     77.9352E+06    -23.0479E+06    -23.0210E+06     161.782E+06     77.9352E+06     26.5903E+03         39.0731
             583     13.2561E-03     40.2747E-03     132.976E-03     128.702E-03    -446.461E-03     127.339E-03    -445.098E-03     132.976E-03    -22.4202E-03     111.654E-03    -54.7352E-03    -56.9346E-03    -53.3379E-03     108.058E-03    -54.7352E-03     48.0475E-03     134.335E+06     24.2835E+06    -28.3602E+06    -28.3243E+06     134.299E+06     24.2835E+06     551.586E+03         36.5079
             584     12.3072E-03     40.2319E-03     145.216E-03     131.901E-03    -460.740E-03     143.622E-03    -460.101E-03     132.856E-03     30.2966E-03     110.288E-03    -54.7639E-03    -55.5380E-03    -53.6263E-03     108.377E-03    -54.7639E-03     35.1039E-03     57.2035E+06    -768.148E+03    -31.8020E+06    -31.7684E+06     56.7558E+06    -354.009E+03     233.958E+03         34.6706
             585     11.3604E-03     40.2000E-03     159.240E-03     131.406E-03    -476.852E-03     157.702E-03    -475.314E-03     131.406E-03    -19.7329E-03     110.026E-03    -54.9155E-03    -55.1906E-03    -53.9953E-03     108.855E-03    -54.9397E-03     27.5494E-03    -5.45409E+06    -17.1436E+06    -49.3538E+06    -34.6090E+06    -31.7060E+06    -5.63662E+06     539.144E+03         33.4109
             586     10.4131E-03     40.1735E-03     147.838E-03     129.625E-03    -465.100E-03     145.305E-03    -462.568E-03     129.625E-03    -22.7351E-03     109.917E-03    -54.9528E-03    -55.0724E-03    -54.2432E-03     109.171E-03    -55.0362E-03     21.9804E-03    -10.8740E+06    -36.3749E+06    -91.6709E+06    -36.5399E+06    -91.5059E+06    -10.8740E+06     1.85894E+06         32.4230
             587     9.46622E-03     40.1529E-03     133.356E-03     120.128E-03    -442.361E-03     121.968E-03    -440.146E-03     129.301E-03    -1.88465E-03     109.980E-03    -54.9412E-03    -55.1304E-03    -54.4255E-03     109.465E-03    -55.1304E-03     18.3832E-03    -7.95743E+06    -38.2931E+06    -130.146E+06    -38.4386E+06    -130.000E+06    -7.95743E+06     1.05847E+06         31.5673
             588     8.51873E-03     40.1343E-03     132.721E-03     117.019E-03    -439.465E-03     118.033E-03    -438.156E-03     130.399E-03     9.71298E-03     110.153E-03    -54.9284E-03    -55.1852E-03    -54.5313E-03     109.756E-03    -55.1852E-03     16.1237E-03    -12.6809E+06    -43.0361E+06    -160.112E+06    -43.0803E+06    -160.068E+06    -12.6809E+06    -248.154E+03         30.8260
             589     7.57238E-03     40.1186E-03     146.198E-03     126.306E-03    -457.663E-03     140.523E-03    -456.195E-03     130.513E-03    -9.37201E-03     110.238E-03    -55.0053E-03    -55.2556E-03    -54.7138E-03     109.947E-03    -55.2556E-03     13.8199E-03    -20.9653E+06    -48.6847E+06    -187.441E+06    -48.6977E+06    -187.428E+06    -20.9653E+06     607.308E+03         30.1969
             590     6.62574E-03     40.1042E-03     152.881E-03     128.261E-03    -462.676E-03     151.529E-03    -461.323E-03     128.261E-03    -36.3622E-03     110.269E-03    -55.0257E-03    -55.3026E-03    -54.8182E-03     110.061E-03    -55.3026E-03     11.6523E-03    -24.4249E+06    -52.6732E+06    -209.046E+06    -52.6906E+06    -209.028E+06    -24.4249E+06     791.791E+03         29.6853
             591     5.67842E-03     40.0931E-03     136.841E-03     115.224E-03    -436.756E-03     123.680E-03    -435.272E-03     126.901E-03     28.1634E-03     110.469E-03    -55.1414E-03    -55.3403E-03    -54.9903E-03     110.318E-03    -55.3403E-03     9.98196E-03    -30.3793E+06    -55.8768E+06    -222.308E+06    -55.8902E+06    -222.294E+06    -30.3793E+06    -274.755E+03         29.2726
             592     4.73246E-03     40.0831E-03     131.718E-03     109.564E-03    -435.756E-03     109.439E-03    -433.096E-03     129.184E-03    -3.18269E-03     110.619E-03    -55.2822E-03    -55.4168E-03    -55.2616E-03     110.509E-03    -55.3277E-03     8.47746E-03    -39.4844E+06    -59.5664E+06    -230.396E+06    -59.5884E+06    -230.374E+06    -39.4844E+06    -1.37457E+06         28.9444
             593     3.78616E-03     40.0750E-03     138.607E-03     117.119E-03    -453.452E-03     119.059E-03    -449.690E-03     132.905E-03    -26.2151E-03     110.526E-03    -55.2203E-03    -55.3907E-03    -55.2426E-03     110.459E-03    -55.3016E-03     6.57860E-03    -45.4770E+06    -62.4449E+06    -240.498E+06    -62.4635E+06    -240.480E+06    -45.4770E+06    -950.868E+03         28.6787
             594     2.83929E-03     40.0692E-03     140.976E-03     123.162E-03    -458.685E-03     118.581E-03    -450.937E-03     137.808E-03     87.0902E-03     110.495E-03    -55.2015E-03    -55.2937E-03    -55.1733E-03     110.456E-03    -55.2828E-03     5.05734E-03    -53.7868E+06    -65.9357E+06    -244.814E+06    -65.9441E+06    -244.806E+06    -53.7868E+06     58.3470E+03         28.4579
             595     1.89293E-03     40.0642E-03     167.368E-03     130.088E-03    -485.595E-03     136.872E-03    -467.309E-03     142.298E-03    -29.5833E-03     110.563E-03    -55.1751E-03    -55.3805E-03    -55.3557E-03     110.545E-03    -55.1821E-03     3.11906E-03    -63.1025E+06    -69.8287E+06    -247.731E+06    -69.8710E+06    -247.688E+06    -63.1025E+06    -1.08455E+06         28.2917
             596     946.954E-06     40.0632E-03     220.877E-03     86.9829E-03    -486.234E-03     194.686E-03    -465.451E-03     92.3907E-03    -4.37412E-03     110.209E-03    -54.9570E-03    -55.2698E-03    -55.1788E-03     110.205E-03    -55.0438E-03     1.50918E-03    -68.8714E+06    -73.3724E+06    -248.698E+06    -71.5792E+06    -248.613E+06    -70.7495E+06    -542.482E+03         28.1887
             597     16.0993E-03     39.3525E-03     140.317E-03     120.143E-03    -453.812E-03     128.038E-03    -453.646E-03     132.256E-03     5.10874E-03     112.633E-03    -53.9655E-03    -58.6603E-03    -53.0588E-03     108.114E-03    -55.0485E-03     42.7158E-03     174.150E+06     128.203E+06    -8.03959E+06    -8.03018E+06     174.140E+06     128.203E+06    -417.585E+03         44.9089
             598     15.1513E-03     39.2655E-03     133.377E-03     121.363E-03    -444.607E-03     121.690E-03    -444.330E-03     132.772E-03     12.1333E-03     114.035E-03    -55.0884E-03    -59.0017E-03    -53.2639E-03     108.297E-03    -55.0884E-03     59.4258E-03     169.819E+06     115.259E+06    -15.8745E+06    -15.8606E+06     169.805E+06     115.259E+06    -376.503E+03         42.0972
             599     14.2036E-03     39.2211E-03     134.130E-03     122.486E-03    -444.534E-03     122.432E-03    -443.876E-03     133.526E-03    -9.25216E-03     111.714E-03    -54.9883E-03    -56.8775E-03    -53.2609E-03     108.098E-03    -54.9883E-03     48.2991E-03     161.020E+06     78.8259E+06    -23.6627E+06    -23.6372E+06     160.994E+06     78.8259E+06     355.687E+03         39.0681
             600     13.2551E-03     39.1601E-03     134.234E-03     125.903E-03    -445.583E-03     125.214E-03    -444.894E-03     134.234E-03    -5.50186E-03     111.648E-03    -54.7722E-03    -56.9037E-03    -53.3288E-03     108.073E-03    -54.7722E-03     47.9612E-03     134.740E+06     26.8223E+06    -29.3732E+06    -29.3230E+06     134.690E+06     26.8223E+06     287.075E+03         36.5047
             601     12.3078E-03     39.1166E-03     146.300E-03     132.668E-03    -464.330E-03     144.489E-03    -464.020E-03     134.169E-03     19.7841E-03     110.267E-03    -54.7776E-03    -55.5073E-03    -53.6213E-03     108.381E-03    -54.7776E-03     34.7750E-03     57.5991E+06    -349.563E+03    -32.1614E+06    -32.0601E+06     56.5338E+06     614.455E+03     376.265E+03         34.6711
             602     11.3599E-03     39.0843E-03     156.047E-03     127.374E-03    -472.727E-03     149.269E-03    -471.701E-03     133.127E-03    -17.2458E-03     109.948E-03    -54.8724E-03    -55.1915E-03    -53.9885E-03     108.842E-03    -54.9694E-03     26.7805E-03    -4.26249E+06    -18.6484E+06    -49.9531E+06    -35.1359E+06    -33.2831E+06    -4.44502E+06     1.59988E+06         33.4142
             603     10.4130E-03     39.0583E-03     143.754E-03     121.129E-03    -457.405E-03     131.129E-03    -456.245E-03     132.596E-03    -37.1532E-03     109.833E-03    -54.8872E-03    -55.0966E-03    -54.1949E-03     109.104E-03    -55.0604E-03     21.7447E-03    -10.7062E+06    -37.9570E+06    -90.1307E+06    -38.0721E+06    -90.0157E+06    -10.7062E+06     473.937E+03         32.4272
             604     9.46581E-03     39.0374E-03     134.485E-03     118.637E-03    -444.429E-03     118.560E-03    -443.391E-03     133.524E-03    -30.7039E-03     110.066E-03    -55.0063E-03    -55.1657E-03    -54.5112E-03     109.553E-03    -55.1475E-03     18.3412E-03    -7.69693E+06    -39.6344E+06    -129.498E+06    -39.6676E+06    -129.465E+06    -7.69693E+06    -236.331E+03         31.5738
             605     8.51937E-03     39.0186E-03     141.117E-03     125.406E-03    -453.194E-03     130.811E-03    -452.061E-03     134.578E-03    -18.1913E-03     110.304E-03    -55.0374E-03    -55.2249E-03    -54.6683E-03     109.916E-03    -55.2067E-03     15.9401E-03    -8.31261E+06    -42.3944E+06    -161.229E+06    -42.4520E+06    -161.172E+06    -8.31261E+06     1.83221E+06         30.8348
             606     7.57240E-03     39.0026E-03     150.266E-03     130.080E-03    -464.849E-03     145.072E-03    -463.745E-03     134.169E-03    -26.6543E-03     110.230E-03    -54.9899E-03    -55.2617E-03    -54.6980E-03     109.938E-03    -55.2617E-03     13.8486E-03    -17.6604E+06    -46.5727E+06    -186.681E+06    -46.6221E+06    -186.631E+06    -17.6604E+06     1.82837E+06         30.2037
             607     6.62545E-03     38.9891E-03     143.949E-03     126.683E-03    -456.004E-03     136.172E-03    -454.899E-03     133.355E-03    -50.0007E-03     110.237E-03    -55.0156E-03    -55.3016E-03    -54.8013E-03     110.023E-03    -55.3016E-03     11.8359E-03    -24.9488E+06    -50.1780E+06    -207.333E+06    -50.1895E+06    -207.321E+06    -24.9488E+06     78.0847E+03         29.6876
             608     5.67903E-03     38.9774E-03     151.046E-03     124.072E-03    -464.654E-03     140.869E-03    -462.943E-03     132.538E-03     17.1523E-03     110.472E-03    -55.1622E-03    -55.3395E-03    -55.0090E-03     110.319E-03    -55.3395E-03     10.0446E-03    -29.7474E+06    -53.5676E+06    -221.614E+06    -53.5791E+06    -221.602E+06    -29.7474E+06    -927.189E+03         29.2730
             609     4.73202E-03     38.9671E-03     161.468E-03     123.679E-03    -484.244E-03     152.659E-03    -481.318E-03     129.563E-03     3.22084E-03     110.514E-03    -55.1645E-03    -55.3785E-03    -55.0886E-03     110.405E-03    -55.3457E-03     8.42512E-03    -37.5187E+06    -57.8007E+06    -230.381E+06    -57.8305E+06    -230.351E+06    -37.5187E+06    -926.354E+03         28.9459
             610     3.78562E-03     38.9592E-03     142.733E-03     125.582E-03    -474.221E-03     137.622E-03    -469.251E-03     125.723E-03     27.2724E-03     110.567E-03    -55.1807E-03    -55.4199E-03    -55.1961E-03     110.500E-03    -55.3371E-03     6.61897E-03    -46.9235E+06    -63.3146E+06    -241.862E+06    -63.3410E+06    -241.835E+06    -46.9235E+06    -996.850E+03         28.6810
             611     2.83943E-03     38.9537E-03     134.899E-03     123.085E-03    -460.013E-03     127.059E-03    -452.666E-03     123.578E-03     92.3994E-03     110.614E-03    -55.2329E-03    -55.3668E-03    -55.2492E-03     110.575E-03    -55.3106E-03     5.09125E-03    -57.1759E+06    -67.5599E+06    -245.829E+06    -67.5685E+06    -245.820E+06    -57.1759E+06    -303.034E+03         28.4620
             612     1.89287E-03     38.9484E-03     161.678E-03     114.733E-03    -463.254E-03     146.482E-03    -448.410E-03     115.085E-03    -67.5861E-03     110.425E-03    -55.0878E-03    -55.3244E-03    -55.0765E-03     110.407E-03    -55.3183E-03     3.14296E-03    -65.7889E+06    -70.9138E+06    -246.366E+06    -70.9691E+06    -246.311E+06    -65.7889E+06    -91.6979E+03         28.2983
             613     945.938E-06     38.9474E-03     240.156E-03    -6.08113E-03    -402.919E-03     220.642E-03    -383.405E-03    -6.08113E-03     5.46120E-03     110.705E-03    -55.0438E-03    -55.6853E-03    -55.4153E-03     110.702E-03    -55.3105E-03     1.32380E-03    -72.7379E+06    -75.5572E+06    -250.455E+06    -75.6513E+06    -250.361E+06    -72.7379E+06     428.159E+03         28.1964
             614     16.0992E-03     38.2367E-03     145.554E-03     127.023E-03    -462.095E-03     138.655E-03    -461.688E-03     133.515E-03     24.1634E-03     112.665E-03    -53.9501E-03    -58.7391E-03    -53.1193E-03     108.152E-03    -55.0568E-03     42.5940E-03     174.648E+06     128.407E+06    -7.79560E+06    -7.79270E+06     174.646E+06     128.407E+06    -37.7070E+03         44.8960
             615     15.1515E-03     38.1505E-03     138.068E-03     126.740E-03    -459.037E-03     130.984E-03    -458.699E-03     133.486E-03     16.8355E-03     113.950E-03    -55.0869E-03    -58.9544E-03    -53.1901E-03     108.185E-03    -55.0869E-03     59.6396E-03     169.553E+06     115.493E+06    -16.3610E+06    -16.3535E+06     169.545E+06     115.493E+06     10.2596E+03         42.0886
             616     14.2031E-03     38.1057E-03     138.717E-03     128.930E-03    -451.209E-03     133.823E-03    -450.952E-03     133.567E-03     12.6072E-03     111.654E-03    -54.9963E-03    -56.8367E-03    -53.1955E-03     108.013E-03    -54.9963E-03     48.4968E-03     160.193E+06     77.2340E+06    -24.2513E+06    -24.2240E+06     160.165E+06     77.2340E+06     277.739E+03         39.0620
             617     13.2557E-03     38.0448E-03     138.126E-03     127.338E-03    -446.095E-03     131.770E-03    -445.982E-03     133.580E-03     8.93170E-03     111.830E-03    -54.7804E-03    -57.0899E-03    -53.5306E-03     108.271E-03    -54.7804E-03     47.8967E-03     135.499E+06     26.5353E+06    -29.4182E+06    -29.3675E+06     135.448E+06     26.5353E+06     189.038E+03         36.5014
             618     12.3079E-03     38.0013E-03     138.665E-03     125.417E-03    -449.237E-03     130.092E-03    -448.975E-03     133.728E-03     16.3574E-03     110.377E-03    -54.7723E-03    -55.6413E-03    -53.7478E-03     108.483E-03    -54.7723E-03     34.9165E-03     57.5331E+06    -1.26977E+06    -33.3029E+06    -33.2073E+06     55.1121E+06     1.05563E+06     444.464E+03         34.6714
             619     11.3610E-03     37.9689E-03     139.339E-03     116.524E-03    -446.302E-03     121.168E-03    -446.010E-03     134.402E-03     10.6897E-03     109.904E-03    -54.8600E-03    -55.1722E-03    -53.9639E-03     108.794E-03    -54.9574E-03     26.7899E-03    -3.76437E+06    -19.5027E+06    -48.9791E+06    -34.7055E+06    -33.7764E+06    -3.76437E+06     981.021E+03         33.4167
             620     10.4131E-03     37.9435E-03     135.930E-03     115.026E-03    -444.728E-03     114.922E-03    -444.624E-03     135.930E-03     1.81241E-03     109.777E-03    -54.8719E-03    -55.0469E-03    -54.1496E-03     109.055E-03    -55.0469E-03     21.6767E-03    -8.46108E+06    -35.8352E+06    -86.6439E+06    -35.8886E+06    -86.5905E+06    -8.46108E+06    -13.0244E+03         32.4302
             621     9.46608E-03     37.9215E-03     142.396E-03     127.751E-03    -462.983E-03     132.939E-03    -462.890E-03     137.115E-03     11.0870E-03     110.041E-03    -54.9746E-03    -55.1481E-03    -54.4753E-03     109.524E-03    -55.1299E-03     18.3971E-03    -8.06014E+06    -39.6260E+06    -132.102E+06    -39.6437E+06    -132.084E+06    -8.06014E+06    -357.615E+03         31.5766
             622     8.51917E-03     37.9027E-03     147.166E-03     136.782E-03    -472.397E-03     146.621E-03    -471.852E-03     136.782E-03     7.90609E-03     110.210E-03    -54.9486E-03    -55.2237E-03    -54.5809E-03     109.824E-03    -55.2056E-03     15.9108E-03    -8.85943E+06    -42.8689E+06    -162.834E+06    -42.9131E+06    -162.790E+06    -8.85943E+06     1.10959E+06         30.8372
             623     7.57230E-03     37.8878E-03     141.553E-03     129.497E-03    -455.525E-03     133.038E-03    -453.964E-03     136.450E-03     15.8032E-03     110.185E-03    -54.9452E-03    -55.2785E-03    -54.6519E-03     109.892E-03    -55.2785E-03     13.8736E-03    -15.2580E+06    -45.2822E+06    -185.031E+06    -45.3387E+06    -184.975E+06    -15.2580E+06     1.67968E+06         30.2054
             624     6.62545E-03     37.8731E-03     138.457E-03     127.836E-03    -450.922E-03     127.516E-03    -449.516E-03     137.372E-03    -9.83748E-03     110.327E-03    -55.1068E-03    -55.2925E-03    -54.8896E-03     110.110E-03    -55.2925E-03     11.9380E-03    -23.9911E+06    -49.0690E+06    -204.811E+06    -49.0873E+06    -204.793E+06    -23.9911E+06     379.557E+03         29.6888
             625     5.67867E-03     37.8616E-03     163.456E-03     133.572E-03    -488.921E-03     159.236E-03    -487.284E-03     136.155E-03     53.8845E-06     110.494E-03    -55.1868E-03    -55.3382E-03    -55.0319E-03     110.339E-03    -55.3382E-03     10.0899E-03    -30.1040E+06    -54.0688E+06    -221.855E+06    -54.0811E+06    -221.843E+06    -30.1040E+06    -638.068E+03         29.2751
             626     4.73250E-03     37.8514E-03     174.706E-03     130.036E-03    -507.440E-03     172.130E-03    -504.864E-03     130.036E-03    -11.9515E-03     110.387E-03    -55.0619E-03    -55.3560E-03    -54.9572E-03     110.283E-03    -55.3560E-03     8.26162E-03    -39.0847E+06    -59.3859E+06    -231.701E+06    -59.4037E+06    -231.684E+06    -39.0847E+06     497.523E+03         28.9483
             627     3.78535E-03     37.8439E-03     143.145E-03     118.989E-03    -471.851E-03     134.129E-03    -468.538E-03     124.692E-03     2.63370E-03     110.463E-03    -55.1084E-03    -55.3915E-03    -55.0911E-03     110.396E-03    -55.3415E-03     6.64495E-03    -51.2840E+06    -63.9312E+06    -240.154E+06    -63.9435E+06    -240.142E+06    -51.2840E+06     249.247E+03         28.6827
             628     2.83920E-03     37.8367E-03     133.425E-03     109.762E-03    -448.489E-03     115.142E-03    -445.716E-03     125.272E-03     5.72430E-03     110.655E-03    -55.2290E-03    -55.4286E-03    -55.2408E-03     110.617E-03    -55.3786E-03     4.91571E-03    -58.1604E+06    -67.0754E+06    -247.440E+06    -67.0813E+06    -247.434E+06    -58.1604E+06    -879.596E+03         28.4651
             629     1.89263E-03     37.8341E-03     152.144E-03     108.050E-03    -450.595E-03     116.348E-03    -437.371E-03     130.621E-03    -141.078E-03     110.563E-03    -55.1456E-03    -55.4235E-03    -55.1376E-03     110.548E-03    -55.4164E-03     3.05761E-03    -63.9365E+06    -70.2912E+06    -246.967E+06    -70.3107E+06    -246.948E+06    -63.9365E+06     785.994E+03         28.3044
             630     945.817E-06     37.8302E-03     271.030E-03     16.4643E-03    -466.989E-03     239.403E-03    -448.126E-03     29.2288E-03    -10.8672E-03     110.863E-03    -55.1065E-03    -55.7933E-03    -55.4830E-03     110.857E-03    -55.4114E-03     1.84813E-03    -70.4445E+06    -73.0457E+06    -248.704E+06    -73.0756E+06    -248.674E+06    -70.4445E+06     1.18935E+06         28.2047
             631     16.0999E-03     37.1215E-03     138.416E-03     125.601E-03    -447.937E-03     128.351E-03    -446.709E-03     134.438E-03     13.3698E-03     112.605E-03    -54.0941E-03    -58.6138E-03    -53.2044E-03     108.143E-03    -55.0419E-03     42.4347E-03     174.496E+06     128.184E+06    -7.71724E+06    -7.70280E+06     174.482E+06     128.184E+06     674.337E+03         44.8802
             632     15.1510E-03     37.0352E-03     139.564E-03     132.320E-03    -460.335E-03     136.700E-03    -459.780E-03     134.628E-03     7.40912E-03     113.687E-03    -55.0708E-03    -58.7489E-03    -53.0532E-03     107.991E-03    -55.0708E-03     59.2119E-03     169.754E+06     114.905E+06    -16.5593E+06    -16.5373E+06     169.732E+06     114.905E+06     487.796E+03         42.0759
             633     14.2030E-03     36.9908E-03     144.335E-03     133.986E-03    -463.250E-03     143.482E-03    -462.765E-03     134.354E-03    -17.2107E-03     111.614E-03    -54.9584E-03    -56.8239E-03    -53.1851E-03     107.975E-03    -54.9584E-03     48.4513E-03     160.370E+06     75.6481E+06    -24.0024E+06    -23.9863E+06     160.354E+06     75.6481E+06    -495.508E+03         39.0535
             634     13.2552E-03     36.9286E-03     145.319E-03     132.678E-03    -460.806E-03     143.481E-03    -460.086E-03     133.797E-03    -21.4921E-03     111.815E-03    -54.7493E-03    -57.1132E-03    -53.5730E-03     108.275E-03    -54.7493E-03     47.7180E-03     134.791E+06     24.9717E+06    -28.8799E+06    -28.8575E+06     134.768E+06     24.9717E+06     134.926E+03         36.4968
             635     12.3081E-03     36.8862E-03     136.364E-03     122.967E-03    -445.144E-03     125.013E-03    -444.689E-03     133.863E-03    -9.32893E-03     110.323E-03    -54.7697E-03    -55.5937E-03    -53.7071E-03     108.437E-03    -54.7697E-03     34.9106E-03     56.9465E+06    -683.682E+03    -31.7751E+06    -31.7411E+06     55.4380E+06     790.838E+03     658.723E+03         34.6691
             636     11.3602E-03     36.8530E-03     135.156E-03     119.316E-03    -444.637E-03     119.408E-03    -444.455E-03     134.882E-03     10.8906E-03     109.978E-03    -54.9270E-03    -55.1820E-03    -54.0496E-03     108.846E-03    -54.9274E-03     27.0233E-03    -6.21075E+06    -18.9441E+06    -47.6313E+06    -33.9187E+06    -32.6566E+06    -6.21075E+06    -647.984E+03         33.4163
             637     10.4136E-03     36.8280E-03     140.945E-03     126.278E-03    -462.234E-03     131.329E-03    -462.055E-03     135.716E-03     13.6318E-03     109.886E-03    -54.9756E-03    -55.0452E-03    -54.2775E-03     109.153E-03    -55.0099E-03     21.8823E-03    -10.4845E+06    -35.7710E+06    -87.2566E+06    -35.8528E+06    -87.1748E+06    -10.4845E+06    -340.203E+03         32.4311
             638     9.46653E-03     36.8055E-03     145.290E-03     130.898E-03    -474.052E-03     140.096E-03    -473.604E-03     135.644E-03     28.1649E-03     109.935E-03    -54.9063E-03    -55.1116E-03    -54.3758E-03     109.405E-03    -55.1116E-03     18.5987E-03    -7.83993E+06    -38.5659E+06    -132.850E+06    -38.5796E+06    -132.836E+06    -7.83993E+06     820.519E+03         31.5765
             639     8.51925E-03     36.7876E-03     140.195E-03     132.060E-03    -464.684E-03     135.770E-03    -463.543E-03     135.344E-03     48.2468E-03     110.085E-03    -54.8604E-03    -55.1992E-03    -54.4748E-03     109.699E-03    -55.1992E-03     15.8955E-03     -9.5704E+06    -42.4455E+06    -163.392E+06    -42.4539E+06    -163.383E+06     -9.5704E+06     594.625E+03         30.8359
             640     7.57221E-03     36.7716E-03     137.161E-03     130.551E-03    -452.763E-03     130.487E-03    -451.141E-03     135.604E-03     49.2178E-03     110.236E-03    -55.0129E-03    -55.2777E-03    -54.7215E-03     109.945E-03    -55.2777E-03     13.8279E-03    -15.2243E+06    -46.4933E+06    -184.987E+06    -46.5144E+06    -184.966E+06    -15.2243E+06     1.04547E+06         30.2040
             641     6.62561E-03     36.7578E-03     140.808E-03     132.980E-03    -458.255E-03     136.510E-03    -456.822E-03     135.844E-03    -7.46457E-03     110.309E-03    -55.1090E-03    -55.2772E-03    -54.8913E-03     110.091E-03    -55.2772E-03     11.9610E-03    -24.0553E+06    -50.9692E+06    -203.447E+06    -51.0209E+06    -203.395E+06    -24.0553E+06     1.68101E+06         29.6874
             642     5.67908E-03     36.7452E-03     147.757E-03     122.083E-03    -461.988E-03     132.864E-03    -461.046E-03     136.035E-03    -24.2775E-03     110.394E-03    -55.1080E-03    -55.3125E-03    -54.9557E-03     110.241E-03    -55.3125E-03     9.96687E-03    -32.4062E+06    -56.3550E+06    -221.830E+06    -56.3939E+06    -221.791E+06    -32.4062E+06     1.35875E+06         29.2736
             643     4.73200E-03     36.7362E-03     152.851E-03     111.664E-03    -466.824E-03     125.313E-03    -465.175E-03     137.552E-03    -29.7847E-03     110.366E-03    -55.0724E-03    -55.3415E-03    -54.9685E-03     110.262E-03    -55.3415E-03     8.26979E-03    -40.1170E+06    -60.9551E+06    -232.010E+06    -60.9645E+06    -232.000E+06    -40.1170E+06     483.995E+03         28.9467
             644     3.78589E-03     36.7276E-03     147.742E-03     121.556E-03    -475.233E-03     126.891E-03    -473.423E-03     140.597E-03    -12.2847E-03     110.388E-03    -55.0918E-03    -55.3477E-03    -55.0203E-03     110.316E-03    -55.3477E-03     6.81663E-03    -50.2798E+06    -63.6004E+06    -238.721E+06    -63.6094E+06    -238.712E+06    -50.2798E+06     190.907E+03         28.6817
             645     2.83878E-03     36.7213E-03     146.137E-03     125.342E-03    -477.127E-03     123.957E-03    -475.742E-03     146.137E-03    -12.4871E-03     110.658E-03    -55.2458E-03    -55.4227E-03    -55.2183E-03     110.621E-03    -55.4137E-03     4.79218E-03    -58.2108E+06    -66.6604E+06    -247.881E+06    -66.6675E+06    -247.874E+06    -58.2108E+06    -382.911E+03         28.4662
             646     1.89250E-03     36.7173E-03     163.259E-03     129.059E-03    -488.871E-03     133.116E-03    -485.182E-03     155.513E-03    -87.4540E-03     110.823E-03    -55.3351E-03    -55.4771E-03    -55.4160E-03     110.809E-03    -55.3824E-03     2.92171E-03    -62.1963E+06    -69.3348E+06    -247.912E+06    -69.3442E+06    -247.902E+06    -62.1963E+06    -740.273E+03         28.3076
             647     946.843E-06     36.7148E-03     317.281E-03     10.5161E-03    -514.222E-03     298.923E-03    -508.628E-03     23.2806E-03     15.7521E-03     110.647E-03    -55.1719E-03    -55.4872E-03    -55.3563E-03     110.641E-03    -55.2970E-03     1.94344E-03    -67.6711E+06    -71.4141E+06    -247.033E+06    -71.4287E+06    -247.018E+06    -67.6711E+06     58.6437E+03         28.2086
             648     16.0996E-03     36.0055E-03     139.096E-03     120.127E-03    -452.108E-03     122.664E-03    -450.976E-03     135.426E-03    -7.45452E-03     112.747E-03    -54.1032E-03    -58.7115E-03    -53.3724E-03     108.351E-03    -55.0465E-03     42.4983E-03     174.226E+06     129.270E+06    -7.26491E+06    -7.24722E+06     174.208E+06     129.270E+06     638.234E+03         44.8634
             649     15.1522E-03     35.9208E-03     137.101E-03     126.646E-03    -455.368E-03     126.996E-03    -454.759E-03     136.142E-03     4.18324E-03     113.866E-03    -55.0732E-03    -58.9372E-03    -53.3033E-03     108.232E-03    -55.0732E-03     59.0617E-03     171.050E+06     116.496E+06    -15.5988E+06    -15.5697E+06     171.021E+06     116.496E+06     566.006E+03         42.0626
             650     14.2035E-03     35.8752E-03     141.840E-03     134.670E-03    -468.309E-03     139.659E-03    -467.864E-03     136.405E-03    -28.9193E-03     111.585E-03    -54.9332E-03    -56.8072E-03    -53.1667E-03     107.944E-03    -54.9332E-03     48.4705E-03     161.118E+06     76.1069E+06    -23.2690E+06    -23.2510E+06     161.100E+06     76.1069E+06    -94.3608E+03         39.0443
             651     13.2558E-03     35.8133E-03     145.556E-03     135.371E-03    -473.229E-03     144.100E-03    -472.528E-03     136.126E-03    -21.5125E-03     111.594E-03    -54.7289E-03    -56.9122E-03    -53.4099E-03     108.092E-03    -54.7289E-03     47.3689E-03     133.378E+06     25.2636E+06    -28.6405E+06    -28.6333E+06     133.371E+06     25.2636E+06    -142.117E+03         36.4912
             652     12.3079E-03     35.7707E-03     146.058E-03     132.257E-03    -468.685E-03     142.120E-03    -468.187E-03     135.696E-03    -1.26720E-03     110.165E-03    -54.7713E-03    -55.4542E-03    -53.5980E-03     108.309E-03    -54.7713E-03     34.6208E-03     56.2009E+06     1.57278E+06    -31.6474E+06    -31.6251E+06     56.0654E+06     1.68592E+06     189.760E+03         34.6657
             653     11.3609E-03     35.7379E-03     143.933E-03     131.861E-03    -466.064E-03     140.001E-03    -465.571E-03     135.301E-03    -1.84879E-03     109.909E-03    -54.9033E-03    -55.1409E-03    -53.9769E-03     108.773E-03    -54.9309E-03     27.0792E-03    -6.12760E+06    -17.6321E+06    -48.4157E+06    -34.4037E+06    -31.4556E+06    -6.31614E+06    -387.750E+03         33.4133
             654     10.4133E-03     35.7124E-03     143.032E-03     133.211E-03    -471.179E-03     140.598E-03    -470.386E-03     134.852E-03    -17.5099E-03     109.880E-03    -54.9480E-03    -55.0472E-03    -54.2413E-03     109.138E-03    -55.0119E-03     22.0014E-03    -11.5340E+06    -37.2695E+06    -89.4737E+06    -37.3607E+06    -89.3826E+06    -11.5340E+06    -254.542E+03         32.4287
             655     9.46627E-03     35.6909E-03     139.636E-03     129.039E-03    -464.271E-03     133.158E-03    -463.434E-03     134.680E-03    -4.15575E-03     109.977E-03    -54.9467E-03    -55.1168E-03    -54.4076E-03     109.437E-03    -55.1168E-03     18.7608E-03    -8.20512E+06    -39.7527E+06    -132.804E+06    -39.7695E+06    -132.787E+06    -8.20512E+06     649.697E+03         31.5753
             656     8.51923E-03     35.6725E-03     135.481E-03     128.976E-03    -455.554E-03     128.401E-03    -454.662E-03     135.164E-03     20.0833E-03     110.159E-03    -54.9471E-03    -55.1925E-03    -54.5541E-03     109.766E-03    -55.1925E-03     16.0465E-03    -9.76683E+06    -42.8229E+06    -163.262E+06    -42.8325E+06    -163.253E+06    -9.76683E+06     989.225E+03         30.8347
             657     7.57253E-03     35.6562E-03     143.383E-03     133.034E-03    -466.900E-03     140.773E-03    -466.478E-03     135.223E-03     12.8655E-03     110.261E-03    -55.0578E-03    -55.2528E-03    -54.7646E-03     109.967E-03    -55.2528E-03     13.8746E-03    -15.7882E+06    -46.7065E+06    -185.433E+06    -46.7149E+06    -185.424E+06    -15.7882E+06     957.453E+03         30.2019
             658     6.62574E-03     35.6420E-03     144.545E-03     133.782E-03    -471.883E-03     143.582E-03    -471.356E-03     134.217E-03    -26.4893E-03     110.249E-03    -55.0674E-03    -55.2672E-03    -54.8506E-03     110.032E-03    -55.2672E-03     11.9233E-03    -22.1079E+06    -49.8425E+06    -203.756E+06    -49.8791E+06    -203.720E+06    -22.1079E+06     1.47823E+06         29.6842
             659     5.67880E-03     35.6300E-03     137.768E-03     113.012E-03    -446.825E-03     114.426E-03    -445.755E-03     135.284E-03    -472.308E-06     110.332E-03    -55.0426E-03    -55.3099E-03    -54.8919E-03     110.181E-03    -55.3099E-03     9.91813E-03    -28.6006E+06    -52.8394E+06    -220.392E+06    -52.8798E+06    -220.352E+06    -28.6006E+06     1.80807E+06         29.2696
             660     4.73252E-03     35.6205E-03     141.136E-03     101.406E-03    -443.741E-03     99.8539E-03    -442.189E-03     141.136E-03    -3.21435E-03     110.392E-03    -55.0677E-03    -55.3591E-03    -54.9634E-03     110.288E-03    -55.3591E-03     8.28537E-03    -34.4259E+06    -57.1930E+06    -230.858E+06    -57.2109E+06    -230.840E+06    -34.4259E+06     921.801E+03         28.9429
             661     3.78526E-03     35.6121E-03     156.419E-03     128.119E-03    -491.382E-03     128.940E-03    -483.339E-03     147.556E-03     57.8977E-03     110.459E-03    -55.1130E-03    -55.3759E-03    -55.0429E-03     110.389E-03    -55.3759E-03     6.74389E-03    -44.3433E+06    -63.3967E+06    -239.178E+06    -63.4102E+06    -239.165E+06    -44.3433E+06     537.303E+03         28.6791
             662     2.83918E-03     35.6058E-03     168.959E-03     143.315E-03    -514.039E-03     155.199E-03    -505.706E-03     148.741E-03     89.5071E-03     110.667E-03    -55.2586E-03    -55.3903E-03    -55.2291E-03     110.628E-03    -55.3812E-03     4.98283E-03    -57.5251E+06    -68.2578E+06    -246.247E+06    -68.2645E+06    -246.240E+06    -57.5251E+06    -244.081E+03         28.4636
             663     1.89296E-03     35.6011E-03     172.057E-03     137.511E-03    -505.047E-03     166.125E-03    -502.998E-03     141.394E-03    -27.3709E-03     110.789E-03    -55.3048E-03    -55.4538E-03    -55.4370E-03     110.772E-03    -55.3050E-03     3.13073E-03    -65.8802E+06    -70.7602E+06    -248.997E+06    -70.5938E+06    -248.985E+06    -66.0592E+06    -1.44239E+06         28.3064
             664     946.334E-06     35.5990E-03     339.702E-03    -55.8746E-03    -467.041E-03     326.316E-03    -453.655E-03    -55.8746E-03     94.9218E-03     110.532E-03    -54.9668E-03    -55.5728E-03    -55.5679E-03     110.527E-03    -54.9668E-03     1.77673E-03    -70.2238E+06    -72.6927E+06    -248.668E+06    -72.0134E+06    -248.652E+06    -70.9188E+06    -1.65552E+06         28.2121
             665     16.0992E-03     34.8891E-03     143.799E-03     129.890E-03    -473.134E-03     136.600E-03    -472.510E-03     136.465E-03     17.6058E-03     112.650E-03    -54.0178E-03    -58.6840E-03    -53.3298E-03     108.315E-03    -55.0367E-03     42.4855E-03     173.738E+06     128.615E+06    -8.10923E+06    -8.10445E+06     173.733E+06     128.615E+06    -84.6662E+03         44.8482
             666     15.1515E-03     34.8051E-03     138.195E-03     125.829E-03    -465.255E-03     126.700E-03    -464.722E-03     136.790E-03     9.36363E-03     113.976E-03    -55.0748E-03    -59.0780E-03    -53.5017E-03     108.399E-03    -55.0748E-03     58.8827E-03     171.236E+06     117.973E+06    -14.9847E+06    -14.9725E+06     171.224E+06     117.973E+06     50.7418E+03         42.0514
             667     14.2041E-03     34.7601E-03     137.658E-03     132.121E-03    -472.098E-03     132.375E-03    -471.957E-03     137.263E-03    -7.66567E-03     111.703E-03    -54.9241E-03    -56.9793E-03    -53.2915E-03     108.015E-03    -54.9241E-03     48.8000E-03     161.889E+06     77.4180E+06    -22.1577E+06    -22.1349E+06     161.866E+06     77.4180E+06     677.773E+03         39.0360
             668     13.2559E-03     34.6983E-03     140.277E-03     134.281E-03    -473.842E-03     136.962E-03    -473.674E-03     137.429E-03     15.7320E-03     111.581E-03    -54.7031E-03    -56.9274E-03    -53.3798E-03     108.033E-03    -54.7031E-03     47.6495E-03     132.986E+06     24.9541E+06    -27.8206E+06    -27.8044E+06     132.970E+06     24.9541E+06     349.675E+03         36.4858
             669     12.3085E-03     34.6555E-03     145.131E-03     134.471E-03    -474.685E-03     142.094E-03    -474.447E-03     137.270E-03     13.7312E-03     110.063E-03    -54.7531E-03    -55.3807E-03    -53.5191E-03     108.202E-03    -54.7531E-03     34.6434E-03     56.2204E+06     2.20176E+06    -31.3024E+06    -31.2851E+06     56.0991E+06     2.30572E+06     131.963E+03         34.6626
             670     11.3605E-03     34.6230E-03     148.025E-03     136.286E-03    -477.185E-03     147.116E-03    -476.682E-03     136.693E-03    -19.3361E-03     109.777E-03    -54.8835E-03    -55.0304E-03    -53.8407E-03     108.631E-03    -54.9279E-03     27.1879E-03    -4.88764E+06    -16.6741E+06    -48.4233E+06    -34.2044E+06    -30.7044E+06    -5.07618E+06     157.899E+03         33.4105
             671     10.4133E-03     34.5968E-03     142.474E-03     126.340E-03    -461.289E-03     131.535E-03    -460.560E-03     136.550E-03    -33.9225E-03     109.858E-03    -54.9439E-03    -55.0124E-03    -54.2064E-03     109.120E-03    -55.0123E-03     21.8969E-03    -11.3003E+06    -37.0063E+06    -89.9379E+06    -37.0208E+06    -89.9234E+06    -11.3003E+06     139.413E+03         32.4252
             672     9.46616E-03     34.5753E-03     137.679E-03     121.620E-03    -452.239E-03     121.144E-03    -451.764E-03     137.679E-03    -24.9531E-03     110.040E-03    -55.0077E-03    -55.1069E-03    -54.4854E-03     109.517E-03    -55.1068E-03     18.4948E-03    -8.42989E+06    -39.9060E+06    -133.257E+06    -39.9149E+06    -133.248E+06    -8.42989E+06     357.711E+03         31.5722
             673     8.51942E-03     34.5562E-03     149.104E-03     132.462E-03    -474.624E-03     143.103E-03    -474.472E-03     138.311E-03    -12.5428E-03     110.146E-03    -54.9420E-03    -55.1828E-03    -54.5524E-03     109.757E-03    -55.1828E-03     15.9755E-03    -9.25374E+06    -43.3578E+06    -163.454E+06    -43.3660E+06    -163.446E+06    -9.25374E+06     852.946E+03         30.8321
             674     7.57251E-03     34.5406E-03     157.463E-03     136.798E-03    -490.779E-03     157.461E-03    -490.777E-03     136.798E-03    -947.170E-06     110.205E-03    -54.9910E-03    -55.2489E-03    -54.6899E-03     109.904E-03    -55.2489E-03     14.0720E-03    -14.7604E+06    -47.0036E+06    -185.024E+06    -47.0111E+06    -185.017E+06    -14.7604E+06     731.921E+03         30.1988
             675     6.62584E-03     34.5262E-03     144.816E-03     133.408E-03    -478.144E-03     143.108E-03    -477.971E-03     134.943E-03    -12.4523E-03     110.229E-03    -55.0378E-03    -55.2625E-03    -54.8167E-03     110.008E-03    -55.2625E-03     12.0003E-03    -21.5436E+06    -50.2064E+06    -204.057E+06    -50.2099E+06    -204.054E+06    -21.5436E+06     71.0375E+03         29.6813
             676     5.67928E-03     34.5147E-03     137.166E-03     125.677E-03    -460.861E-03     126.386E-03    -459.501E-03     135.097E-03     23.2691E-03     110.298E-03    -55.0154E-03    -55.3057E-03    -54.8635E-03     110.146E-03    -55.3057E-03     9.99829E-03    -28.4142E+06    -53.3442E+06    -220.424E+06    -53.3522E+06    -220.416E+06    -28.4142E+06     650.366E+03         29.2669
             677     4.73200E-03     34.5045E-03     143.242E-03     123.231E-03    -465.822E-03     124.453E-03    -460.874E-03     137.072E-03    -29.3656E-03     110.449E-03    -55.1351E-03    -55.3516E-03    -55.0276E-03     110.340E-03    -55.3501E-03     8.44193E-03    -34.2872E+06    -57.9148E+06    -229.980E+06    -57.9340E+06    -229.961E+06    -34.2872E+06     1.77589E+06         28.9402
             678     3.78609E-03     34.4965E-03     156.130E-03     132.233E-03    -490.645E-03     138.952E-03    -479.424E-03     138.190E-03     25.3071E-03     110.496E-03    -55.1830E-03    -55.3558E-03    -55.1172E-03     110.429E-03    -55.3543E-03     6.61805E-03    -42.5788E+06    -62.9793E+06    -238.110E+06    -62.9908E+06    -238.099E+06    -42.5788E+06     1.01833E+06         28.6765
             679     2.83907E-03     34.4899E-03     161.051E-03     135.362E-03    -494.856E-03     151.402E-03    -485.208E-03     135.362E-03     84.7879E-03     110.531E-03    -55.1855E-03    -55.3463E-03    -55.1455E-03     110.491E-03    -55.3463E-03     5.10760E-03    -54.8926E+06    -67.5064E+06    -244.670E+06    -67.5075E+06    -244.669E+06    -54.8926E+06    -73.1784E+03         28.4589
             680     1.89247E-03     34.4850E-03     153.855E-03     121.745E-03    -462.158E-03     139.334E-03    -456.334E-03     130.442E-03    -60.1976E-03     110.626E-03    -55.2509E-03    -55.3790E-03    -55.2938E-03     110.608E-03    -55.3179E-03     3.26269E-03    -66.0772E+06    -71.3658E+06    -249.459E+06    -71.1931E+06    -249.452E+06    -66.2562E+06    -687.686E+03         28.3006
             681     946.697E-06     34.4829E-03     346.942E-03    -74.5932E-03    -458.180E-03     322.470E-03    -442.406E-03    -65.8958E-03     59.7070E-03     110.601E-03    -55.0057E-03    -55.6229E-03    -55.4241E-03     110.596E-03    -55.2000E-03     1.69325E-03    -72.5564E+06    -74.4517E+06    -251.082E+06    -73.5105E+06    -251.067E+06    -73.5126E+06    -531.347E+03         28.2107
             682     16.1000E-03     33.7741E-03     142.775E-03     136.618E-03    -473.371E-03     141.640E-03    -472.750E-03     137.133E-03     32.0625E-03     112.504E-03    -54.0331E-03    -58.5269E-03    -53.1845E-03     108.144E-03    -55.0154E-03     42.4098E-03     173.784E+06     128.270E+06    -8.11672E+06    -8.10895E+06     173.777E+06     128.270E+06    -246.640E+03         44.8351
             683     15.1521E-03     33.6890E-03     141.015E-03     133.645E-03    -473.227E-03     136.409E-03    -472.026E-03     137.051E-03     2.93820E-03     113.784E-03    -55.0638E-03    -58.8849E-03    -53.3095E-03     108.209E-03    -55.0638E-03     58.6946E-03     169.625E+06     116.090E+06    -16.2278E+06    -16.2212E+06     169.618E+06     116.090E+06    -794.452E+03         42.0422
             684     14.2037E-03     33.6450E-03     138.227E-03     132.452E-03    -471.754E-03     132.670E-03    -470.995E-03     137.250E-03    -25.2381E-03     111.728E-03    -54.9369E-03    -56.9782E-03    -53.2925E-03     108.042E-03    -54.9369E-03     48.7343E-03     160.823E+06     77.4105E+06    -23.2288E+06    -23.2180E+06     160.812E+06     77.4105E+06     472.572E+03         39.0292
             685     13.2561E-03     33.5825E-03     137.979E-03     133.061E-03    -470.802E-03     133.035E-03    -470.380E-03     137.583E-03     15.5864E-03     111.668E-03    -54.7166E-03    -57.0080E-03    -53.4216E-03     108.082E-03    -54.7166E-03     47.9279E-03     134.007E+06     26.3464E+06    -28.4393E+06    -28.4222E+06     133.990E+06     26.3464E+06     1.03854E+06         36.4803
             686     12.3082E-03     33.5406E-03     137.915E-03     134.291E-03    -470.863E-03     133.930E-03    -470.501E-03     137.915E-03     12.6097E-03     110.152E-03    -54.7515E-03    -55.4642E-03    -53.5954E-03     108.283E-03    -54.7515E-03     34.7082E-03      57.276E+06     2.64995E+06    -31.6458E+06    -31.6189E+06     57.0790E+06     2.82011E+06     255.104E+03         34.6587
             687     11.3609E-03     33.5077E-03     141.115E-03     134.074E-03    -471.905E-03     136.684E-03    -471.542E-03     138.142E-03     1.79344E-03     109.847E-03    -54.9002E-03    -55.0720E-03    -53.9110E-03     108.705E-03    -54.9191E-03     27.1700E-03    -4.01086E+06    -16.5904E+06    -48.5050E+06    -34.3282E+06    -30.7672E+06    -4.01086E+06     363.525E+03         33.4079
             688     10.4134E-03     33.4813E-03     143.842E-03     126.399E-03    -466.184E-03     131.347E-03    -465.833E-03     138.545E-03     11.9936E-03     109.882E-03    -54.9714E-03    -55.0088E-03    -54.2519E-03     109.144E-03    -54.9903E-03     21.9021E-03    -10.3736E+06    -37.2334E+06    -89.8680E+06    -37.2783E+06    -89.8231E+06    -10.3736E+06     697.244E+03         32.4224
             689     9.46681E-03     33.4598E-03     148.124E-03     127.475E-03    -472.293E-03     136.523E-03    -472.207E-03     138.989E-03     7.86402E-03     109.980E-03    -54.9564E-03    -55.0942E-03    -54.4570E-03     109.462E-03    -55.0758E-03     18.4058E-03    -8.27762E+06    -40.3440E+06    -133.525E+06    -40.3479E+06    -133.521E+06    -8.27762E+06     461.847E+03         31.5681
             690     8.51964E-03     33.4413E-03     155.739E-03     132.994E-03    -486.545E-03     149.557E-03    -485.822E-03     138.453E-03     22.2069E-03     110.041E-03    -54.8514E-03    -55.1649E-03    -54.4609E-03     109.650E-03    -55.1649E-03     15.9931E-03    -9.06578E+06    -43.7079E+06    -163.574E+06    -43.7121E+06    -163.570E+06    -9.06578E+06     431.270E+03         30.8272
             691     7.57246E-03     33.4250E-03     151.163E-03     132.711E-03    -483.997E-03     145.850E-03    -483.234E-03     137.262E-03     26.2558E-03     110.120E-03    -54.8869E-03    -55.2447E-03    -54.5811E-03     109.814E-03    -55.2447E-03     14.1702E-03    -14.4808E+06    -47.4831E+06    -184.155E+06    -47.4869E+06    -184.152E+06    -14.4808E+06     210.012E+03         30.1933
             692     6.62566E-03     33.4104E-03     140.363E-03     130.735E-03    -472.045E-03     134.039E-03    -471.923E-03     136.938E-03     1.92668E-03     110.160E-03    -54.9559E-03    -55.2755E-03    -54.7340E-03     109.938E-03    -55.2755E-03     12.0174E-03    -21.5637E+06    -51.7492E+06    -203.893E+06    -51.7500E+06    -203.892E+06    -21.5637E+06    -220.174E+03         29.6767
             693     5.67873E-03     33.3996E-03     140.025E-03     133.236E-03    -473.310E-03     134.722E-03    -472.173E-03     137.402E-03     5.38150E-03     110.391E-03    -55.1121E-03    -55.3339E-03    -54.9573E-03     110.236E-03    -55.3339E-03     10.1050E-03    -29.3862E+06    -56.2395E+06    -222.318E+06    -56.2472E+06    -222.310E+06    -29.3862E+06     597.558E+03         29.2634
             694     4.73260E-03     33.3889E-03     147.094E-03     137.386E-03    -482.422E-03     140.193E-03    -475.521E-03     137.386E-03    -74.0609E-03     110.504E-03    -55.1993E-03    -55.3477E-03    -55.0883E-03     110.392E-03    -55.3463E-03     8.57551E-03    -38.1100E+06    -60.1426E+06    -229.648E+06    -60.1537E+06    -229.637E+06    -38.1100E+06     1.18759E+06         28.9365
             695     3.78567E-03     33.3804E-03     149.778E-03     128.311E-03    -473.165E-03     133.214E-03    -466.008E-03     137.718E-03    -45.3378E-03     110.479E-03    -55.1868E-03    -55.3351E-03    -55.1313E-03     110.410E-03    -55.3216E-03     6.70518E-03    -47.1714E+06    -63.4760E+06    -236.195E+06    -63.4803E+06    -236.190E+06    -47.1714E+06     301.395E+03         28.6741
             696     2.83947E-03     33.3748E-03     145.507E-03     127.289E-03    -466.874E-03     129.949E-03    -464.063E-03     140.036E-03     14.3845E-03     110.495E-03    -55.1570E-03    -55.3498E-03    -55.1282E-03     110.454E-03    -55.3378E-03     5.15514E-03    -56.2022E+06    -67.6859E+06    -244.622E+06    -67.7013E+06    -244.607E+06    -56.2022E+06     776.798E+03         28.4584
             697     1.89294E-03     33.3688E-03     147.423E-03     130.820E-03    -473.842E-03     126.426E-03    -468.951E-03     146.927E-03    -60.0368E-03     110.444E-03    -55.0903E-03    -55.3762E-03    -55.0704E-03     110.424E-03    -55.3762E-03     3.46158E-03    -65.0266E+06    -73.0276E+06    -248.702E+06    -73.0431E+06    -248.687E+06    -65.0266E+06     916.538E+03         28.2973
             698     945.999E-06     33.3675E-03     383.382E-03    -74.4502E-03    -507.883E-03     365.916E-03    -503.183E-03    -61.6832E-03     13.0656E-03     110.762E-03    -55.1112E-03    -55.6822E-03    -55.3439E-03     110.757E-03    -55.4438E-03     1.72876E-03    -73.3764E+06    -78.3867E+06    -251.668E+06    -78.1581E+06    -251.635E+06    -73.6377E+06    -553.364E+03         28.2001
             699     16.1004E-03     32.6592E-03     142.154E-03     133.291E-03    -476.152E-03     135.889E-03    -474.970E-03     138.375E-03    -2.73241E-03     112.458E-03    -54.0450E-03    -58.4570E-03    -53.0093E-03     107.990E-03    -55.0243E-03     42.6755E-03     174.543E+06     129.300E+06    -6.25282E+06    -6.22413E+06     174.515E+06     129.300E+06     149.529E+03         44.8221
             700     15.1515E-03     32.5736E-03     144.537E-03     138.403E-03    -484.146E-03     143.341E-03    -482.951E-03     138.403E-03    -12.1014E-03     113.761E-03    -55.0730E-03    -58.7907E-03    -53.0719E-03     108.042E-03    -55.0730E-03     59.3784E-03     170.022E+06     115.856E+06    -15.8175E+06    -15.7964E+06     170.001E+06     115.856E+06     307.044E+03         42.0326
             701     14.2040E-03     32.5295E-03     140.732E-03     136.371E-03    -474.907E-03     137.768E-03    -473.949E-03     138.377E-03    -39.1063E-03     111.832E-03    -54.9675E-03    -57.0258E-03    -53.3246E-03     108.131E-03    -54.9675E-03     48.9107E-03     159.174E+06     76.5851E+06    -24.6850E+06    -24.6842E+06     159.174E+06     76.5851E+06     210.395E+03         39.0219
             702     13.2557E-03     32.4676E-03     141.427E-03     135.736E-03    -471.435E-03     138.328E-03    -471.082E-03     138.481E-03     2.66509E-03     111.756E-03    -54.7383E-03    -57.0810E-03    -53.5068E-03     108.181E-03    -54.7383E-03     47.8919E-03     134.355E+06     26.3617E+06    -29.7445E+06    -29.7371E+06     134.347E+06     26.3617E+06     616.787E+03         36.4749
             703     12.3083E-03     32.4250E-03     143.435E-03     137.558E-03    -476.535E-03     142.301E-03    -476.224E-03     138.382E-03     4.36707E-03     110.285E-03    -54.7534E-03    -55.5906E-03    -53.7275E-03     108.422E-03    -54.7534E-03     34.6644E-03     57.9221E+06     1.89789E+06    -33.4044E+06    -33.3497E+06     57.6956E+06     2.06969E+06     637.940E+03         34.6544
             704     11.3610E-03     32.3923E-03     143.352E-03     134.534E-03    -476.335E-03     139.243E-03    -475.886E-03     138.194E-03     16.6816E-03     109.978E-03    -54.9066E-03    -55.2032E-03    -54.0586E-03     108.836E-03    -54.9087E-03     27.2247E-03    -5.13630E+06    -18.3768E+06    -49.5276E+06    -36.5904E+06    -31.3140E+06    -5.13630E+06     579.004E+03         33.4041
             705     10.4139E-03     32.3658E-03     147.277E-03     134.311E-03    -479.912E-03     143.128E-03    -479.338E-03     137.887E-03     35.5604E-03     109.838E-03    -54.9365E-03    -55.0159E-03    -54.2219E-03     109.078E-03    -54.9708E-03     22.2310E-03    -11.2297E+06    -38.6446E+06    -89.5530E+06    -38.6936E+06    -89.5041E+06    -11.2297E+06     194.243E+03         32.4186
             706     9.46669E-03     32.3444E-03     150.251E-03     134.869E-03    -483.083E-03     147.254E-03    -482.319E-03     137.102E-03     967.915E-06     109.955E-03    -54.9329E-03    -55.0824E-03    -54.4230E-03     109.426E-03    -55.0640E-03     18.5657E-03    -8.09393E+06    -40.1864E+06    -133.661E+06    -40.1896E+06    -133.657E+06    -8.09393E+06     135.460E+03         31.5641
             707     8.51954E-03     32.3262E-03     143.523E-03     128.783E-03    -473.818E-03     134.231E-03    -472.456E-03     136.713E-03    -198.888E-06     110.097E-03    -54.9158E-03    -55.1449E-03    -54.5274E-03     109.709E-03    -55.1449E-03     15.9586E-03    -8.74596E+06    -43.3286E+06    -163.145E+06    -43.3300E+06    -163.143E+06    -8.74596E+06     207.669E+03         30.8227
             708     7.57279E-03     32.3095E-03     137.712E-03     125.036E-03    -466.150E-03     124.109E-03    -465.223E-03     137.712E-03     13.3438E-03     110.056E-03    -54.8653E-03    -55.2045E-03    -54.5694E-03     109.760E-03    -55.2045E-03     13.9200E-03    -14.8479E+06    -46.7890E+06    -183.200E+06    -46.7990E+06     -183.19E+06    -14.8479E+06    -577.597E+03         30.1879
             709     6.62560E-03     32.2955E-03     140.015E-03     129.217E-03    -474.454E-03     129.786E-03    -474.271E-03     139.263E-03     634.972E-06     110.100E-03    -54.9088E-03    -55.2727E-03    -54.6964E-03     109.888E-03    -55.2727E-03     11.7754E-03    -19.3312E+06    -50.6833E+06    -205.357E+06    -50.7032E+06    -205.337E+06    -19.3312E+06     34.7595E+03         29.6698
             710     5.67905E-03     32.2830E-03     145.442E-03     136.760E-03    -488.780E-03     141.389E-03    -487.793E-03     139.827E-03     9.41349E-03     110.357E-03    -55.0601E-03    -55.3469E-03    -54.9087E-03     110.206E-03    -55.3469E-03     9.97854E-03    -27.6079E+06    -56.3265E+06    -223.209E+06    -56.3432E+06    -223.192E+06    -27.6079E+06     1.27101E+06         29.2557
             711     4.73243E-03     32.2734E-03     147.206E-03     138.878E-03    -487.310E-03     142.738E-03    -483.323E-03     139.359E-03    -31.7088E-03     110.392E-03    -55.0948E-03    -55.3341E-03    -54.9825E-03     110.280E-03    -55.3341E-03     8.58593E-03    -41.6632E+06    -61.5575E+06    -228.705E+06    -61.5662E+06    -228.696E+06    -41.6632E+06     1.02447E+06         28.9303
             712     3.78581E-03     32.2648E-03     144.155E-03     127.558E-03    -466.793E-03     123.863E-03    -460.114E-03     141.171E-03     17.3075E-03     110.421E-03    -55.1426E-03    -55.3167E-03    -55.0813E-03     110.348E-03    -55.3047E-03     6.89646E-03    -52.2305E+06    -65.9245E+06    -235.540E+06    -65.9396E+06    -235.525E+06    -52.2305E+06     897.662E+03         28.6705
             713     2.83933E-03     32.2582E-03     148.014E-03     124.162E-03    -465.451E-03     119.835E-03    -461.125E-03     148.014E-03     42.9070E-03     110.543E-03    -55.1873E-03    -55.3482E-03    -55.1583E-03     110.502E-03    -55.3362E-03     5.14792E-03    -58.4989E+06    -69.9556E+06    -244.958E+06    -69.9877E+06    -244.926E+06    -58.4989E+06     954.123E+03         28.4589
             714     1.89251E-03     32.2544E-03     162.916E-03     140.154E-03    -501.537E-03     145.961E-03    -499.373E-03     154.945E-03    -40.6745E-03     110.497E-03    -55.1231E-03    -55.3672E-03    -55.1151E-03     110.477E-03    -55.3555E-03     3.47729E-03    -64.5170E+06    -73.6549E+06    -247.434E+06    -73.6811E+06    -247.408E+06    -64.5170E+06     1.03269E+06         28.2971
             715     945.989E-06     32.2500E-03     415.291E-03    -97.2357E-03    -517.851E-03     407.741E-03    -514.370E-03    -93.1662E-03    -18.1622E-03     110.692E-03    -55.0995E-03    -55.6031E-03    -55.4573E-03     110.685E-03    -55.2379E-03     2.00450E-03    -72.6338E+06    -79.6607E+06    -250.627E+06    -77.9389E+06    -250.590E+06    -74.3928E+06    -2.15922E+03         28.1881
             716     16.0998E-03     31.5444E-03     142.425E-03     132.942E-03    -478.138E-03     134.208E-03    -476.506E-03     139.527E-03     7.70221E-03     112.417E-03    -53.9429E-03    -58.5671E-03    -52.9618E-03     107.924E-03    -55.0554E-03     42.7003E-03     173.812E+06     128.646E+06    -7.43305E+06    -7.40811E+06     173.787E+06     128.646E+06     166.043E+03         44.8079
             717     15.1513E-03     31.4589E-03     145.061E-03     137.603E-03    -481.834E-03     142.001E-03    -480.789E-03     139.619E-03     11.3602E-03     113.972E-03    -55.0855E-03    -58.9618E-03    -53.2106E-03     108.221E-03    -55.0855E-03     59.6029E-03     170.457E+06     116.757E+06    -15.5372E+06    -15.5080E+06     170.428E+06     116.757E+06     1.18918E+06         42.0216
             718     14.2029E-03     31.4133E-03     146.129E-03     138.751E-03    -482.112E-03     144.925E-03    -481.523E-03     139.367E-03    -3.83287E-03     111.847E-03    -54.9621E-03    -57.0635E-03    -53.4365E-03     108.220E-03    -54.9621E-03     48.4932E-03     160.190E+06     77.1553E+06    -23.4253E+06    -23.4137E+06     160.178E+06     77.1553E+06     767.367E+03         39.0134
             719     13.2561E-03     31.3524E-03     145.199E-03     134.805E-03    -476.996E-03     140.480E-03    -476.604E-03     139.132E-03     17.3544E-03     111.726E-03    -54.7353E-03    -57.0580E-03    -53.5525E-03     108.221E-03    -54.7353E-03     47.5073E-03     134.000E+06     26.2308E+06    -29.4014E+06    -29.3949E+06     133.994E+06     26.2308E+06     373.157E+03         36.4694
             720     12.3082E-03     31.3093E-03     144.204E-03     132.754E-03    -478.272E-03     137.682E-03    -478.148E-03     139.151E-03    -2.77069E-03     110.315E-03    -54.7474E-03    -55.6218E-03    -53.7547E-03     108.447E-03    -54.7474E-03     34.6878E-03     57.4634E+06     2.19512E+06    -33.5203E+06    -33.4733E+06     57.1326E+06     2.47897E+06     1.10800E+06         34.6517
             721     11.3611E-03     31.2771E-03     148.254E-03     136.313E-03    -486.914E-03     144.981E-03    -486.326E-03     138.998E-03    -13.5129E-03     109.984E-03    -54.8962E-03    -55.2181E-03    -54.0868E-03     108.852E-03    -54.8962E-03     27.0924E-03    -5.14000E+06    -18.0458E+06    -48.7971E+06    -36.0918E+06    -30.7511E+06    -5.14000E+06     758.990E+03         33.4016
             722     10.4138E-03     31.2506E-03     149.631E-03     135.634E-03    -483.942E-03     145.978E-03    -483.122E-03     138.467E-03    -7.27153E-03     109.771E-03    -54.8818E-03    -55.0026E-03    -54.1585E-03     109.015E-03    -54.9691E-03     22.1885E-03    -11.2550E+06    -38.5439E+06    -88.5629E+06    -38.5587E+06    -88.5480E+06    -11.2550E+06    -338.840E+03         32.4155
             723     9.46657E-03     31.2289E-03     142.558E-03     133.275E-03    -471.364E-03     135.488E-03    -469.359E-03     138.341E-03    -44.9700E-03     109.949E-03    -54.9560E-03    -55.0643E-03    -54.4209E-03     109.407E-03    -55.0579E-03     18.8081E-03    -9.87294E+06    -41.6696E+06    -134.026E+06    -41.6815E+06    -134.014E+06    -9.87294E+06    -706.637E+03         31.5612
             724     8.52003E-03     31.2099E-03     146.772E-03     133.133E-03    -474.370E-03     138.636E-03    -471.650E-03     138.549E-03    -27.9090E-03     110.195E-03    -55.0390E-03    -55.1251E-03    -54.6509E-03     109.800E-03    -55.1186E-03     16.0694E-03    -10.3192E+06    -44.3357E+06    -163.035E+06    -44.3458E+06    -163.025E+06    -10.3192E+06    -548.529E+03         30.8205
             725     7.57304E-03     31.1942E-03     146.710E-03     130.383E-03    -476.475E-03     136.900E-03    -474.971E-03     138.690E-03     26.8574E-03     110.093E-03    -54.9496E-03    -55.1679E-03    -54.6571E-03     109.801E-03    -55.1679E-03     13.8538E-03    -15.4232E+06    -48.0574E+06    -182.979E+06    -48.0768E+06    -182.960E+06    -15.4232E+06    -197.100E+03         30.1856
             726     6.62623E-03     31.1799E-03     140.043E-03     132.110E-03    -475.383E-03     132.332E-03    -474.853E-03     139.291E-03     9.71913E-03     110.049E-03    -54.9184E-03    -55.2131E-03    -54.6991E-03     109.830E-03    -55.2131E-03     11.9741E-03    -22.6483E+06    -53.4896E+06    -207.233E+06    -53.5185E+06    -207.204E+06    -22.6483E+06     741.035E+03         29.6652
             727     5.67942E-03     31.1678E-03     144.906E-03     134.828E-03    -480.350E-03     138.976E-03    -479.437E-03     139.845E-03     11.8775E-03     110.184E-03    -54.9530E-03    -55.2750E-03    -54.8000E-03     110.030E-03    -55.2750E-03     9.99923E-03    -31.0538E+06    -58.0219E+06    -223.400E+06    -58.0362E+06    -223.386E+06    -31.0538E+06     1.33696E+06         29.2498
             728     4.73225E-03     31.1580E-03     152.075E-03     135.996E-03    -486.426E-03     144.241E-03    -482.034E-03     139.438E-03    -34.1709E-03     110.214E-03    -54.9651E-03    -55.2927E-03    -54.8575E-03     110.106E-03    -55.2927E-03     8.40299E-03    -41.9357E+06    -62.0076E+06    -227.643E+06    -62.0241E+06    -227.627E+06    -41.9357E+06     1.52088E+06         28.9256
             729     3.78575E-03     31.1487E-03     157.272E-03     134.196E-03    -484.512E-03     142.852E-03    -474.296E-03     138.402E-03     44.7446E-03     110.352E-03    -55.0814E-03    -55.2989E-03    -55.0085E-03     110.279E-03    -55.2989E-03     6.87994E-03    -51.0257E+06    -65.8403E+06    -235.365E+06    -65.8661E+06    -235.339E+06    -51.0257E+06     1.51239E+06         28.6652
             730     2.83907E-03     31.1432E-03     150.286E-03     125.843E-03    -469.084E-03     128.157E-03    -460.855E-03     139.743E-03     49.4246E-03     110.635E-03    -55.2334E-03    -55.3752E-03    -55.2523E-03     110.596E-03    -55.3172E-03     4.99212E-03    -56.9192E+06    -69.7394E+06    -243.498E+06    -69.7613E+06    -243.476E+06    -56.9192E+06     549.615E+03         28.4523
             731     1.89311E-03     31.1374E-03     154.275E-03     122.686E-03    -474.605E-03     127.551E-03    -471.500E-03     146.304E-03    -63.5114E-03     110.593E-03    -55.2141E-03    -55.3665E-03    -55.3364E-03     110.576E-03    -55.2274E-03     3.24845E-03    -64.9821E+06    -73.8491E+06    -247.410E+06    -73.8655E+06    -247.393E+06    -64.9821E+06     311.735E+03         28.2896
             732     946.965E-06     31.1354E-03     403.360E-03    -98.7055E-03    -509.406E-03     387.360E-03    -506.848E-03    -85.2632E-03    -65.0676E-03     110.267E-03    -54.9982E-03    -55.2777E-03    -55.2704E-03     110.260E-03    -54.9982E-03     2.09319E-03    -73.1367E+06    -77.5840E+06    -249.617E+06    -75.8485E+06    -249.569E+06    -74.9204E+06     1.96964E+06         28.1775
             733     16.0991E-03     30.4291E-03     145.998E-03     134.356E-03    -481.805E-03     139.626E-03    -480.473E-03     139.395E-03     37.4375E-03     112.624E-03    -53.8992E-03    -58.8334E-03    -53.2854E-03     108.222E-03    -55.0444E-03     42.5257E-03     172.916E+06     127.884E+06    -8.59758E+06    -8.58983E+06     172.909E+06     127.884E+06     127.635E+03         44.7939
             734     15.1514E-03     30.3431E-03     141.364E-03     133.866E-03    -476.108E-03     135.033E-03    -475.407E-03     139.496E-03     6.04421E-03     114.070E-03    -55.0684E-03    -59.1228E-03    -53.4974E-03     108.445E-03    -55.0684E-03     59.0391E-03     169.854E+06     116.756E+06    -16.6298E+06    -16.6109E+06     169.835E+06     116.756E+06     460.625E+03         42.0115
             735     14.2044E-03     30.2979E-03     144.522E-03     137.763E-03    -486.355E-03     142.287E-03    -485.889E-03     139.533E-03    -2.48491E-03     111.627E-03    -54.9352E-03    -56.8854E-03    -53.2584E-03     108.000E-03    -54.9352E-03     48.3674E-03     160.954E+06     77.5493E+06    -23.0544E+06    -23.0370E+06     160.936E+06     77.5493E+06     780.393E+03         39.0057
             736     13.2560E-03     30.2369E-03     142.718E-03     133.426E-03    -482.183E-03     136.073E-03    -481.709E-03     139.597E-03     13.3658E-03     111.736E-03    -54.7261E-03    -57.0854E-03    -53.5591E-03     108.210E-03    -54.7261E-03     47.5910E-03     133.504E+06     26.7593E+06    -28.0385E+06    -28.0280E+06     133.493E+06     26.7593E+06     736.251E+03         36.4638
             737     12.3085E-03     30.1941E-03     140.371E-03     125.090E-03    -470.702E-03     124.738E-03    -470.349E-03     140.371E-03    -7.03052E-03     110.367E-03    -54.7367E-03    -55.6917E-03    -53.8343E-03     108.510E-03    -54.7367E-03     34.6307E-03     57.0415E+06     3.48737E+06    -31.1238E+06    -31.0912E+06     56.7220E+06     3.77436E+06     1.02064E+06         34.6492
             738     11.3612E-03     30.1612E-03     145.651E-03     125.852E-03    -473.964E-03     129.141E-03    -473.154E-03     141.552E-03    -38.8676E-03     109.954E-03    -54.8822E-03    -55.2028E-03    -54.0885E-03     108.839E-03    -54.8822E-03     26.8468E-03    -3.52732E+06    -16.3748E+06    -46.6717E+06    -33.4681E+06    -29.5784E+06    -3.52732E+06     930.135E+03         33.4014
             739     10.4141E-03     30.1358E-03     152.972E-03     133.851E-03    -487.852E-03     143.344E-03    -486.467E-03     142.094E-03    -11.7638E-03     109.771E-03    -54.8796E-03    -54.9999E-03    -54.1878E-03     109.039E-03    -54.9597E-03     21.8362E-03    -9.62403E+06    -36.1799E+06    -87.6619E+06    -36.1926E+06    -87.6492E+06    -9.62403E+06     451.177E+03         32.4151
             740     9.46680E-03     30.1137E-03     160.640E-03     138.551E-03    -496.791E-03     155.700E-03    -494.685E-03     141.383E-03    -21.0994E-03     109.871E-03    -54.9040E-03    -55.0430E-03    -54.3683E-03     109.329E-03    -55.0366E-03     18.8293E-03    -10.0296E+06    -40.2232E+06    -133.668E+06    -40.2392E+06    -133.652E+06    -10.0296E+06    -106.640E+03         31.5593
             741     8.51964E-03     30.0942E-03     160.421E-03     135.680E-03    -492.817E-03     153.518E-03    -490.157E-03     139.923E-03     7.80765E-03     110.122E-03    -55.0007E-03    -55.0987E-03    -54.6120E-03     109.727E-03    -55.0923E-03     16.0581E-03    -12.4019E+06    -45.3284E+06    -163.439E+06    -45.3401E+06    -163.427E+06    -12.4019E+06    -348.860E+03         30.8177
             742     7.57315E-03     30.0786E-03     147.367E-03     131.277E-03    -479.453E-03     136.469E-03    -476.625E-03     139.347E-03     34.2769E-03     110.186E-03    -55.0495E-03    -55.1615E-03    -54.7605E-03     109.897E-03    -55.1615E-03     13.7893E-03    -16.9031E+06    -50.4795E+06    -184.296E+06    -50.4909E+06    -184.284E+06    -16.9031E+06     686.957E+03         30.1830
             743     6.62628E-03     30.0644E-03     141.014E-03     134.188E-03    -478.094E-03     132.808E-03    -475.772E-03     140.071E-03    -33.7754E-03     110.093E-03    -54.9691E-03    -55.1852E-03    -54.7497E-03     109.874E-03    -55.1852E-03     11.9745E-03    -22.4910E+06    -54.2488E+06    -206.832E+06    -54.2596E+06    -206.821E+06    -22.4910E+06     842.288E+03         29.6637
             744     5.67930E-03     30.0525E-03     148.275E-03     135.595E-03    -483.260E-03     140.739E-03    -480.740E-03     140.612E-03    -4.92236E-03     110.190E-03    -55.0091E-03    -55.2174E-03    -54.8562E-03     110.037E-03    -55.2174E-03     10.0012E-03    -29.0374E+06    -57.1375E+06    -223.176E+06    -57.1424E+06    -223.172E+06    -29.0374E+06     108.956E+03         29.2491
             745     4.73309E-03     30.0420E-03     155.458E-03     136.902E-03    -486.683E-03     147.377E-03    -481.561E-03     139.862E-03    -30.1264E-03     110.225E-03    -55.0335E-03    -55.2528E-03    -54.9324E-03     110.124E-03    -55.2528E-03     8.10367E-03    -36.0222E+06    -60.4087E+06    -228.628E+06    -60.4236E+06    -228.613E+06    -36.0222E+06     754.779E+03         28.9236
             746     3.78580E-03     30.0341E-03     166.300E-03     136.786E-03    -497.051E-03     155.370E-03    -486.121E-03     136.786E-03     47.9864E-03     110.188E-03    -54.9701E-03    -55.2505E-03    -54.9031E-03     110.121E-03    -55.2505E-03     6.63221E-03    -47.3090E+06    -64.7568E+06    -234.167E+06    -64.7815E+06    -234.142E+06    -47.3090E+06     1.27806E+06         28.6598
             747     2.83959E-03     30.0261E-03     169.429E-03     127.209E-03    -490.141E-03     156.692E-03    -480.199E-03     130.004E-03     43.4990E-03     110.444E-03    -55.1135E-03    -55.3010E-03    -55.1297E-03     110.402E-03    -55.2430E-03     5.15018E-03    -58.9658E+06    -68.9688E+06    -242.558E+06    -68.9900E+06    -242.537E+06    -58.9658E+06     654.316E+03         28.4420
             748     1.89316E-03     30.0226E-03     146.796E-03     108.479E-03    -458.929E-03     127.873E-03    -456.243E-03     124.716E-03    -44.8261E-03     110.523E-03    -55.1504E-03    -55.3568E-03    -55.3348E-03     110.505E-03    -55.1538E-03     3.44736E-03    -65.6499E+06    -73.1901E+06    -247.798E+06    -73.2107E+06    -247.777E+06    -65.6499E+06     597.100E+03         28.2754
             749     946.619E-06     30.0188E-03     380.350E-03    -125.679E-03    -468.193E-03     362.197E-03    -461.230E-03    -114.489E-03    -68.4014E-03     110.126E-03    -54.9019E-03    -55.2286E-03    -55.1235E-03     110.119E-03    -55.0004E-03     1.93231E-03    -71.5970E+06    -76.4082E+06    -248.013E+06    -76.4602E+06    -247.936E+06    -71.6216E+06     710.183E+03         28.1655
             750     16.0997E-03     29.3125E-03     152.327E-03     131.667E-03    -489.504E-03     143.295E-03    -488.776E-03     139.971E-03     16.9661E-03     112.761E-03    -54.1187E-03    -58.6962E-03    -53.3803E-03     108.337E-03    -55.0109E-03     42.6276E-03     173.189E+06     127.887E+06    -8.32263E+06    -8.31839E+06     173.185E+06     127.887E+06     414.909E+03         44.7813
             751     15.1527E-03     29.2272E-03     146.932E-03     129.621E-03    -479.985E-03     136.236E-03    -479.750E-03     140.081E-03    -19.3698E-03     113.929E-03    -55.0568E-03    -58.9810E-03    -53.3244E-03     108.272E-03    -55.0568E-03     59.1535E-03     169.765E+06     116.582E+06    -16.1989E+06    -16.1919E+06     169.758E+06     116.582E+06     389.620E+03         42.0031
             752     14.2033E-03     29.1836E-03     140.726E-03     128.820E-03    -474.980E-03     128.095E-03    -474.256E-03     140.726E-03    -37.2563E-03     111.703E-03    -54.9315E-03    -56.9559E-03    -53.2720E-03     108.019E-03    -54.9315E-03     48.7506E-03     160.547E+06     77.6317E+06    -23.4809E+06    -23.4708E+06     160.537E+06     77.6317E+06     205.783E+03         38.9992
             753     13.2558E-03     29.1207E-03     144.043E-03     135.664E-03    -486.107E-03     137.210E-03    -485.023E-03     141.413E-03    -3.90357E-03     111.792E-03    -54.7161E-03    -57.1386E-03    -53.5973E-03     108.250E-03    -54.7161E-03     47.6272E-03     133.063E+06     26.9367E+06    -28.5427E+06    -28.5346E+06     133.055E+06     26.9367E+06     362.010E+03         36.4590
             754     12.3088E-03     29.0787E-03     145.770E-03     132.995E-03    -486.298E-03     136.031E-03    -485.443E-03     141.879E-03     3.93469E-03     110.353E-03    -54.7191E-03    -55.6801E-03    -53.8291E-03     108.502E-03    -54.7191E-03     34.6292E-03     56.6140E+06     3.20449E+06    -31.0771E+06    -31.0509E+06     56.4791E+06     3.31323E+06     482.473E+03         34.6468
             755     11.3615E-03     29.0457E-03     147.207E-03     129.480E-03    -485.592E-03     133.553E-03    -484.953E-03     142.495E-03    -11.8211E-03     110.046E-03    -54.8630E-03    -55.3076E-03    -54.1773E-03     108.916E-03    -54.8630E-03     27.0093E-03    -2.95463E+06    -16.2212E+06    -46.2415E+06    -33.0694E+06    -29.2773E+06    -3.07078E+06     780.764E+03         33.4013
             756     10.4144E-03     29.0204E-03     155.454E-03     137.140E-03    -496.265E-03     148.559E-03    -494.779E-03     142.550E-03     42.7027E-03     109.941E-03    -54.9164E-03    -55.1294E-03    -54.3859E-03     109.222E-03    -54.9414E-03     21.6591E-03    -7.56319E+06    -35.5526E+06    -87.0447E+06    -35.5814E+06    -87.0160E+06    -7.56319E+06     967.655E+03         32.4155
             757     9.46731E-03     28.9985E-03     163.339E-03     134.088E-03    -494.782E-03     153.968E-03    -492.934E-03     141.611E-03     12.6733E-03     109.871E-03    -54.8700E-03    -55.0736E-03    -54.4147E-03     109.348E-03    -55.0061E-03     18.4805E-03    -7.49894E+06    -38.5767E+06    -133.529E+06    -38.5962E+06    -133.509E+06    -7.49894E+06     1.27745E+06         31.5572
             758     8.52028E-03     28.9790E-03     153.351E-03     128.754E-03    -476.002E-03     139.715E-03    -474.689E-03     141.076E-03    -1.04842E-03     109.901E-03    -54.8263E-03    -55.0539E-03    -54.4466E-03     109.521E-03    -55.0539E-03     15.7416E-03    -10.4042E+06    -42.7166E+06    -163.939E+06    -42.7421E+06    -163.913E+06    -10.4042E+06     1.51340E+06         30.8122
             759     7.57314E-03     28.9633E-03     143.597E-03     133.290E-03    -471.407E-03     133.215E-03    -469.468E-03     141.733E-03     15.9092E-03     110.086E-03    -54.9821E-03    -55.1338E-03    -54.7046E-03     109.809E-03    -55.1338E-03     13.4878E-03    -13.9146E+06    -47.2152E+06    -183.936E+06    -47.2293E+06    -183.922E+06    -13.9146E+06     869.783E+03         30.1772
             760     6.62673E-03     28.9492E-03     149.567E-03     138.547E-03    -485.818E-03     143.691E-03    -483.586E-03     142.191E-03    -34.6144E-03     110.154E-03    -55.0388E-03    -55.1662E-03    -54.8284E-03     109.944E-03    -55.1662E-03     11.7507E-03    -18.6975E+06    -51.6330E+06    -205.920E+06    -51.6363E+06    -205.917E+06    -18.6975E+06    -183.572E+03         29.6599
             761     5.68010E-03     28.9372E-03     157.236E-03     140.929E-03    -496.643E-03     154.767E-03    -494.174E-03     140.929E-03     14.2620E-03     110.186E-03    -55.0307E-03    -55.1808E-03    -54.8733E-03     110.029E-03    -55.1808E-03     10.1617E-03    -26.8686E+06    -56.5293E+06    -222.400E+06    -56.5333E+06    -222.396E+06    -26.8686E+06    -757.122E+03         29.2447
             762     4.73304E-03     28.9264E-03     150.529E-03     138.821E-03    -483.916E-03     144.968E-03    -478.719E-03     139.185E-03    -9.48314E-03     110.243E-03    -55.0903E-03    -55.2088E-03    -55.0117E-03     110.137E-03    -55.1815E-03     8.28803E-03    -34.7468E+06    -60.6409E+06    -229.837E+06    -60.6502E+06    -229.827E+06    -34.7468E+06    -921.381E+03         28.9166
             763     3.78708E-03     28.9187E-03     154.984E-03     137.086E-03    -484.413E-03     146.708E-03    -476.501E-03     137.451E-03     17.5293E-03     110.129E-03    -54.9801E-03    -55.1802E-03    -54.9403E-03     110.061E-03    -55.1529E-03     6.62301E-03    -45.3239E+06    -63.6899E+06    -234.791E+06    -63.7108E+06    -234.770E+06    -45.3239E+06     423.721E+03         28.6520
             764     2.83939E-03     28.9114E-03     178.616E-03     129.036E-03    -504.835E-03     172.655E-03    -498.874E-03     129.036E-03     29.1103E-03     110.054E-03    -54.8992E-03    -55.1452E-03    -54.8574E-03     110.012E-03    -55.1452E-03     5.17106E-03    -58.4604E+06    -67.6322E+06    -242.217E+06    -67.6729E+06    -242.176E+06    -58.4604E+06     1.59457E+06         28.4325
             765     1.89278E-03     28.9060E-03     161.785E-03     108.997E-03    -474.421E-03     160.098E-03    -472.734E-03     108.997E-03    -33.9717E-03     110.219E-03    -54.9639E-03    -55.2346E-03    -55.0210E-03     110.200E-03    -55.1591E-03     3.35577E-03    -65.0870E+06    -70.8404E+06    -246.881E+06    -70.8938E+06    -246.828E+06    -65.0870E+06     612.442E+03         28.2641
             766     946.857E-06     28.9041E-03     359.806E-03    -143.757E-03    -427.691E-03     352.689E-03    -404.084E-03    -160.247E-03    -112.077E-03     110.329E-03    -54.9179E-03    -55.4099E-03    -55.2175E-03     110.324E-03    -55.1051E-03     1.67205E-03    -69.5750E+06    -74.6233E+06    -246.377E+06    -73.5232E+06    -246.323E+06    -70.7289E+06    -1.29760E+06         28.1559
             767     16.1008E-03     28.1978E-03     151.347E-03     136.638E-03    -485.114E-03     144.286E-03    -483.333E-03     141.918E-03    -5.84248E-03     112.657E-03    -54.1990E-03    -58.4817E-03    -53.2251E-03     108.210E-03    -55.0084E-03     42.5721E-03     172.988E+06     128.027E+06    -7.69319E+06    -7.69001E+06     172.985E+06     128.027E+06     513.431E+03         44.7678
             768     15.1507E-03     28.1122E-03     150.653E-03     134.949E-03    -484.123E-03     142.808E-03    -483.253E-03     141.924E-03     5.32482E-03     113.810E-03    -55.0562E-03    -58.8569E-03    -53.1971E-03     108.150E-03    -55.0562E-03     59.0120E-03     169.807E+06     116.336E+06    -15.6639E+06    -15.6580E+06     169.801E+06     116.336E+06     340.331E+03         41.9939
             769     14.2043E-03     28.0677E-03     142.374E-03     131.398E-03    -476.802E-03     130.613E-03    -476.017E-03     142.374E-03    -39.4893E-03     111.814E-03    -54.9290E-03    -57.0648E-03    -53.4177E-03     108.167E-03    -54.9290E-03     48.5197E-03     160.812E+06     77.2740E+06    -23.5667E+06    -23.5583E+06     160.804E+06     77.2740E+06     140.357E+03         38.9935
             770     13.2567E-03     28.0055E-03     147.371E-03     138.832E-03    -492.928E-03     141.861E-03    -491.419E-03     142.833E-03     8.67115E-03     111.746E-03    -54.7079E-03    -57.0901E-03    -53.5510E-03     108.207E-03    -54.7079E-03     47.6381E-03     133.145E+06     26.5860E+06    -29.1897E+06    -29.1825E+06     133.138E+06     26.5860E+06     164.667E+03         36.4555
             771     12.3083E-03     27.9633E-03     155.022E-03     142.420E-03    -504.485E-03     154.062E-03    -503.525E-03     142.420E-03     27.8715E-03     110.291E-03    -54.7108E-03    -55.6111E-03    -53.7573E-03     108.437E-03    -54.7108E-03     34.6117E-03     55.9614E+06     2.37976E+06    -32.6918E+06    -32.6838E+06     55.9533E+06     2.37976E+06     123.246E+03         34.6444
             772     11.3612E-03     27.9298E-03     155.247E-03     141.399E-03    -500.316E-03     154.692E-03    -499.761E-03     141.399E-03    -7.93289E-03     110.090E-03    -54.8562E-03    -55.3587E-03    -54.2255E-03     108.957E-03    -54.8562E-03     27.0840E-03    -4.29612E+06    -17.9586E+06    -47.5673E+06    -35.5510E+06    -29.8163E+06    -4.45463E+06     609.647E+03         33.3995
             773     10.4146E-03     27.9045E-03     149.463E-03     129.821E-03    -478.164E-03     137.151E-03    -477.036E-03     141.005E-03     25.0645E-03     110.063E-03    -54.9257E-03    -55.2462E-03    -54.5137E-03     109.330E-03    -54.9257E-03     21.8729E-03    -8.29224E+06    -38.5771E+06    -87.0838E+06    -38.6218E+06    -87.0391E+06    -8.29224E+06     1.27762E+06         32.4142
             774     9.46814E-03     27.8828E-03     145.112E-03     116.831E-03    -458.592E-03     117.745E-03    -456.833E-03     142.438E-03    -9.84253E-03     109.994E-03    -54.9190E-03    -55.1473E-03    -54.5584E-03     109.464E-03    -54.9777E-03     18.6320E-03    -7.74390E+06    -42.0133E+06    -133.569E+06    -42.0444E+06    -133.538E+06    -7.74390E+06     1.51353E+06         31.5546
             775     8.52078E-03     27.8644E-03     154.447E-03     129.073E-03    -480.286E-03     138.106E-03    -478.923E-03     144.052E-03    -19.2986E-03     109.877E-03    -54.8225E-03    -55.0196E-03    -54.4538E-03     109.483E-03    -54.9944E-03     16.0390E-03    -11.1381E+06    -44.4118E+06    -162.977E+06    -44.4424E+06    -162.946E+06    -11.1381E+06     1.02112E+06         30.8070
             776     7.57380E-03     27.8471E-03     171.068E-03     142.153E-03    -507.747E-03     169.736E-03    -506.969E-03     142.708E-03     44.3077E-03     109.867E-03    -54.8204E-03    -55.0433E-03    -54.5375E-03     109.584E-03    -55.0433E-03     13.5877E-03    -14.0224E+06    -45.9431E+06    -183.135E+06    -45.9644E+06    -183.114E+06    -14.0224E+06    -201.936E+03         30.1714
             777     6.62679E-03     27.8337E-03     162.384E-03     133.940E-03    -490.320E-03     155.657E-03    -489.503E-03     139.850E-03     14.1157E-03     110.011E-03    -54.9618E-03    -55.1047E-03    -54.7500E-03     109.800E-03    -55.1047E-03     11.7954E-03    -17.8512E+06    -49.6494E+06    -205.779E+06    -49.6589E+06    -205.770E+06    -17.8512E+06    -284.776E+03         29.6534
             778     5.67996E-03     27.8214E-03     148.163E-03     121.918E-03    -469.369E-03     129.436E-03    -468.244E-03     139.519E-03     15.5305E-03     110.165E-03    -55.0546E-03    -55.1570E-03    -54.8950E-03     110.006E-03    -55.1570E-03     10.2178E-03    -27.5175E+06    -54.7936E+06    -221.387E+06    -54.8028E+06    -221.378E+06    -27.5175E+06    -343.913E+03         29.2347
             779     4.73356E-03     27.8113E-03     148.627E-03     129.235E-03    -478.146E-03     132.057E-03    -473.631E-03     141.291E-03    -21.7183E-03     110.124E-03    -55.0178E-03    -55.1580E-03    -54.9352E-03     110.014E-03    -55.1307E-03     8.48350E-03    -38.6981E+06    -60.0218E+06    -229.940E+06    -60.0324E+06    -229.929E+06    -38.6981E+06    -1.17239E+06         28.9036
             780     3.78645E-03     27.8028E-03     152.198E-03     137.739E-03    -487.828E-03     143.725E-03    -483.663E-03     142.047E-03    -25.2343E-03     110.175E-03    -55.0041E-03    -55.1833E-03    -55.0402E-03     110.105E-03    -55.0770E-03     6.73972E-03    -47.3586E+06    -64.7765E+06    -237.534E+06    -64.7844E+06    -237.526E+06    -47.3586E+06    -481.118E+03         28.6394
             781     2.84075E-03     27.7967E-03     161.613E-03     129.018E-03    -493.035E-03     146.840E-03    -490.159E-03     140.915E-03    -15.7430E-03     110.029E-03    -54.8884E-03    -55.1055E-03    -54.9263E-03     109.988E-03    -55.0266E-03     5.16381E-03    -56.1324E+06    -67.5182E+06    -241.862E+06    -67.5431E+06    -241.837E+06    -56.1324E+06     1.11897E+06         28.4198
             782     1.89337E-03     27.7905E-03     169.029E-03     118.966E-03    -496.354E-03     145.258E-03    -491.938E-03     138.321E-03    -75.6201E-03     109.829E-03    -54.7735E-03    -55.0241E-03    -54.7545E-03     109.810E-03    -55.0241E-03     3.28225E-03    -64.2092E+06    -69.3936E+06    -244.299E+06    -69.4362E+06    -244.256E+06    -64.2092E+06     552.636E+03         28.2515
             783     945.759E-06     27.7887E-03     388.934E-03    -91.3242E-03    -510.326E-03     367.999E-03    -486.555E-03    -94.1606E-03    -161.903E-03     110.167E-03    -54.7737E-03    -55.3924E-03    -55.2463E-03     110.163E-03    -54.9152E-03     1.65630E-03    -70.3876E+06    -74.0664E+06    -247.227E+06    -72.9322E+06    -247.207E+06    -71.5416E+06    -375.974E+03         28.1452
             784     16.0995E-03     27.0825E-03     147.779E-03     136.911E-03    -476.086E-03     139.393E-03    -474.268E-03     143.479E-03     608.594E-06     112.793E-03    -54.1134E-03    -58.7334E-03    -53.4056E-03     108.374E-03    -55.0224E-03     42.4971E-03     172.612E+06     128.651E+06    -7.23652E+06    -7.23330E+06     172.609E+06     128.651E+06     242.000E+03         44.7519
             785     15.1533E-03     26.9971E-03     154.362E-03     136.860E-03    -483.873E-03     146.953E-03    -483.159E-03     143.556E-03     13.6961E-03     113.952E-03    -55.0482E-03    -59.0355E-03    -53.3802E-03     108.296E-03    -55.0482E-03     59.1606E-03     170.368E+06     116.808E+06    -15.4318E+06    -15.4176E+06     170.354E+06     116.808E+06     604.120E+03         41.9827
             786     14.2038E-03     26.9519E-03     152.948E-03     142.376E-03    -490.109E-03     151.706E-03    -489.706E-03     143.214E-03    -28.8923E-03     111.641E-03    -54.9041E-03    -56.9008E-03    -53.2228E-03     107.963E-03    -54.9041E-03     48.6916E-03     160.962E+06     75.5716E+06    -23.5080E+06    -23.4934E+06     160.947E+06     75.5716E+06     891.626E+03         38.9868
             787     13.2558E-03     26.8903E-03     145.675E-03     140.546E-03    -480.552E-03     142.449E-03    -479.740E-03     142.960E-03     1.62375E-03     111.727E-03    -54.6879E-03    -57.0817E-03    -53.4959E-03     108.141E-03    -54.6879E-03     47.9896E-03     133.333E+06     24.6125E+06    -29.1533E+06    -29.1464E+06     133.326E+06     24.6125E+06     627.350E+03         36.4513
             788     12.3092E-03     26.8475E-03     151.592E-03     138.325E-03    -483.487E-03     145.947E-03    -482.397E-03     142.880E-03    -35.7300E-06     110.433E-03    -54.7086E-03    -55.7663E-03    -53.8744E-03     108.541E-03    -54.7086E-03     34.9587E-03     56.8256E+06     1.93641E+06    -32.6599E+06    -32.6523E+06     56.0638E+06     2.69071E+06     327.614E+03         34.6408
             789     11.3618E-03     26.8150E-03     151.946E-03     135.226E-03    -484.636E-03     143.277E-03    -483.551E-03     142.810E-03    -46.0566E-03     110.113E-03    -54.8566E-03    -55.3927E-03    -54.2503E-03     108.971E-03    -54.8566E-03     27.2181E-03    -4.63836E+06    -17.9989E+06    -48.1574E+06    -35.4918E+06    -30.6221E+06    -4.68072E+06     681.103E+03         33.3954
             790     10.4146E-03     26.7883E-03     151.001E-03     127.393E-03    -479.191E-03     134.022E-03    -478.129E-03     143.311E-03     3.65212E-03     109.982E-03    -54.9283E-03    -55.1945E-03    -54.4543E-03     109.242E-03    -54.9283E-03     21.9647E-03    -8.74938E+06    -38.3037E+06    -88.3451E+06    -38.3703E+06    -88.2785E+06    -8.74938E+06     1.80583E+06         32.4103
             791     9.46746E-03     26.7678E-03     158.723E-03     125.936E-03    -489.367E-03     139.391E-03    -488.119E-03     144.020E-03     411.363E-06     110.099E-03    -54.9666E-03    -55.2151E-03    -54.6839E-03     109.568E-03    -54.9666E-03     18.6686E-03    -7.16266E+06    -41.7709E+06    -132.482E+06    -41.8228E+06    -132.430E+06    -7.16266E+06     1.84625E+06         31.5520
             792     8.52109E-03     26.7486E-03     163.478E-03     133.825E-03    -505.831E-03     152.633E-03    -504.898E-03     143.738E-03    -6.91042E-03     110.010E-03    -54.8886E-03    -55.0865E-03    -54.6229E-03     109.611E-03    -54.9524E-03     16.1767E-03    -13.1962E+06    -45.3386E+06    -159.718E+06    -45.3807E+06    -159.676E+06    -13.1962E+06    -834.778E+03         30.8054
             793     7.57420E-03     26.7327E-03     168.488E-03     135.575E-03    -509.562E-03     161.557E-03    -509.048E-03     141.992E-03     34.3014E-03     109.834E-03    -54.8378E-03    -55.0046E-03    -54.5429E-03     109.540E-03    -55.0046E-03     13.8849E-03    -17.8091E+06    -48.4279E+06    -184.106E+06    -48.4678E+06    -184.066E+06    -17.8091E+06    -1.74956E+06         30.1699
             794     6.62697E-03     26.7182E-03     159.669E-03     130.804E-03    -492.815E-03     149.657E-03    -492.117E-03     140.118E-03    -9.53205E-03     109.972E-03    -54.9440E-03    -55.0855E-03    -54.7602E-03     109.755E-03    -55.0528E-03     11.9019E-03    -21.0192E+06    -52.1719E+06    -206.938E+06    -52.1797E+06    -206.930E+06    -21.0192E+06     100.439E+03         29.6506
             795     5.68050E-03     26.7061E-03     149.958E-03     122.649E-03    -475.776E-03     131.102E-03    -474.522E-03     140.251E-03    -7.45054E-03     110.098E-03    -55.0229E-03    -55.1138E-03    -54.9068E-03     109.949E-03    -55.0811E-03     9.84532E-03    -31.1456E+06    -56.6595E+06    -219.972E+06    -56.6684E+06    -219.963E+06    -31.1456E+06    -148.343E+03         29.2284
             796     4.73352E-03     26.6962E-03     150.967E-03     128.768E-03    -484.518E-03     137.116E-03    -483.346E-03     141.447E-03    -2.79669E-03     109.960E-03    -54.9503E-03    -55.0706E-03    -54.8469E-03     109.856E-03    -55.0706E-03     8.23965E-03    -42.1170E+06    -61.0200E+06    -230.497E+06    -61.0256E+06    -230.491E+06    -42.1170E+06    -594.530E+03         28.8938
             797     3.78701E-03     26.6876E-03     146.292E-03     133.093E-03    -487.713E-03     133.530E-03    -484.888E-03     143.030E-03     26.7888E-03     109.972E-03    -54.9172E-03    -55.1012E-03    -54.9252E-03     109.901E-03    -55.0223E-03     6.77208E-03    -50.3896E+06    -65.5533E+06    -238.510E+06    -65.5547E+06    -238.508E+06    -50.3896E+06    -89.5188E+03         28.6288
             798     2.84001E-03     26.6810E-03     149.354E-03     123.749E-03    -483.821E-03     118.377E-03    -478.449E-03     149.354E-03     28.4856E-03     110.047E-03    -54.9203E-03    -55.0959E-03    -55.0112E-03     110.006E-03    -54.9637E-03     5.17786E-03    -56.9694E+06    -68.5671E+06    -241.284E+06    -68.5694E+06    -241.282E+06    -56.9694E+06    -472.404E+03         28.4089
             799     1.89377E-03     26.6769E-03     165.905E-03     129.900E-03    -506.793E-03     120.299E-03    -497.193E-03     165.905E-03    -126.952E-06     109.825E-03    -54.8203E-03    -54.9724E-03    -54.8910E-03     109.803E-03    -54.8791E-03     3.68794E-03    -63.9936E+06    -71.2621E+06    -243.959E+06    -71.2680E+06    -243.953E+06    -63.9936E+06     35.6973E+03         28.2397
             800     947.467E-06     26.6721E-03     412.332E-03    -39.4005E-03    -588.740E-03     374.735E-03    -570.492E-03    -20.0516E-03    -153.486E-03     109.726E-03    -54.6391E-03    -55.0881E-03    -54.9183E-03     109.718E-03    -54.8001E-03     2.20408E-03    -70.9905E+06    -75.1634E+06    -248.439E+06    -74.4092E+06    -248.425E+06    -71.7580E+06     1.18203E+06         28.1340
             801     16.1001E-03     25.9664E-03     145.598E-03     128.247E-03    -484.947E-03     128.262E-03    -483.240E-03     143.876E-03     32.7162E-03     112.780E-03    -53.9855E-03    -58.8163E-03    -53.2918E-03     108.304E-03    -55.0342E-03     42.9522E-03     172.257E+06     128.181E+06    -7.91088E+06    -7.90850E+06     172.255E+06     128.181E+06    -11.0156E+03         44.7342
             802     15.1512E-03     25.8815E-03     153.379E-03     132.313E-03    -486.553E-03     141.150E-03    -486.463E-03     144.451E-03    -5.15976E-03     114.110E-03    -55.0539E-03    -59.1667E-03    -53.4402E-03     108.384E-03    -55.0539E-03     59.5866E-03     169.684E+06     116.157E+06    -16.0667E+06    -16.0549E+06     169.672E+06     116.157E+06     844.540E+03         41.9693
             803     14.2042E-03     25.8375E-03     156.782E-03     142.658E-03    -495.513E-03     154.517E-03    -494.852E-03     144.262E-03    -28.8118E-03     111.708E-03    -54.9059E-03    -56.9717E-03    -53.2498E-03     107.986E-03    -54.9059E-03     49.0038E-03     160.967E+06     75.0522E+06    -23.2510E+06    -23.2356E+06     160.951E+06     75.0522E+06     1.31498E+06         38.9768
             804     13.2563E-03     25.7748E-03     147.582E-03     141.714E-03    -486.764E-03     144.474E-03    -485.933E-03     143.990E-03    -11.4402E-03     111.793E-03    -54.6891E-03    -57.1569E-03    -53.5270E-03     108.163E-03    -54.6891E-03     48.3072E-03     134.040E+06     23.6150E+06    -28.4612E+06    -28.4521E+06     134.031E+06     23.6150E+06     1.06983E+06         36.4442
             805     12.3080E-03     25.7324E-03     144.375E-03     136.879E-03    -481.280E-03     135.934E-03    -480.335E-03     144.375E-03    -11.3001E-03     110.577E-03    -54.7067E-03    -55.9210E-03    -54.0091E-03     108.665E-03    -54.7067E-03     35.1545E-03     57.4296E+06     1.04045E+06    -32.0704E+06    -32.0510E+06     56.3018E+06     2.14883E+06     838.180E+03         34.6354
             806     11.3616E-03     25.6990E-03     145.248E-03     134.949E-03    -483.402E-03     133.140E-03    -481.592E-03     145.248E-03    -13.3506E-03     110.213E-03    -54.8439E-03    -55.5025E-03    -54.3708E-03     109.081E-03    -54.8439E-03     27.0863E-03    -5.08859E+06    -17.8133E+06    -48.3794E+06    -34.8787E+06    -31.3140E+06    -5.08859E+06     824.152E+03         33.3897
             807     10.4147E-03     25.6738E-03     154.827E-03     140.574E-03    -498.128E-03     148.227E-03    -496.607E-03     145.652E-03     29.2699E-03     109.991E-03    -54.9122E-03    -55.1925E-03    -54.4639E-03     109.262E-03    -54.9122E-03     21.8060E-03    -9.60260E+06    -36.8597E+06    -89.4344E+06    -36.9082E+06    -89.3858E+06    -9.60260E+06     1.34517E+06         32.4043
             808     9.46790E-03     25.6515E-03     165.558E-03     144.556E-03    -513.629E-03     164.312E-03    -512.383E-03     144.556E-03    -15.3468E-03     110.070E-03    -54.9628E-03    -55.1814E-03    -54.6519E-03     109.546E-03    -54.9691E-03     18.5134E-03    -5.83126E+06    -38.1546E+06    -130.493E+06    -38.1897E+06    -130.458E+06    -5.83126E+06     1.07730E+06         31.5479
             809     8.52109E-03     25.6335E-03     155.519E-03     131.738E-03    -493.298E-03     142.011E-03    -491.743E-03     143.692E-03    -38.2851E-03     110.055E-03    -54.9258E-03    -55.1212E-03    -54.6931E-03     109.670E-03    -54.9689E-03     15.8792E-03    -9.84135E+06    -41.0503E+06    -157.000E+06    -41.0911E+06    -156.959E+06    -9.84135E+06    -359.267E+03         30.8041
             810     7.57392E-03     25.6176E-03     145.225E-03     124.109E-03    -477.352E-03     123.212E-03    -476.455E-03     145.225E-03    -15.0861E-03     110.060E-03    -54.9804E-03    -55.1344E-03    -54.7956E-03     109.770E-03    -55.0286E-03     13.8166E-03    -16.1742E+06    -47.1357E+06    -185.768E+06    -47.1742E+06    -185.730E+06    -16.1742E+06    -289.636E+03         30.1696
             811     6.62758E-03     25.6032E-03     159.485E-03     137.271E-03    -500.421E-03     149.927E-03    -500.026E-03     146.433E-03    -16.3165E-03     110.027E-03    -54.9879E-03    -55.1078E-03    -54.8686E-03     109.813E-03    -55.0128E-03     11.8275E-03    -22.5617E+06    -53.1097E+06    -207.602E+06    -53.1118E+06    -207.600E+06    -22.5617E+06     345.350E+03         29.6498
             812     5.68080E-03     25.5910E-03     173.284E-03     143.815E-03    -516.592E-03     173.018E-03    -516.326E-03     143.815E-03    -11.7529E-03     109.934E-03    -54.9353E-03    -55.0133E-03    -54.8228E-03     109.789E-03    -54.9806E-03     9.73628E-03    -31.8200E+06    -57.8488E+06    -219.360E+06    -57.8542E+06    -219.354E+06    -31.8200E+06     185.875E+03         29.2250
             813     4.73426E-03     25.5814E-03     156.725E-03     138.876E-03    -497.037E-03     155.352E-03    -496.652E-03     139.864E-03    -16.8326E-03     109.843E-03    -54.9229E-03    -54.9851E-03    -54.8275E-03     109.742E-03    -54.9787E-03     8.15534E-03    -41.5966E+06    -62.9752E+06    -231.405E+06    -62.9816E+06    -231.399E+06    -41.5966E+06     424.756E+03         28.8875
             814     3.78707E-03     25.5721E-03     146.636E-03     132.366E-03    -481.921E-03     138.002E-03    -479.280E-03     138.359E-03     24.5285E-03     109.702E-03    -54.8300E-03    -54.9393E-03    -54.7682E-03     109.634E-03    -54.9329E-03     6.64597E-03    -52.8667E+06    -66.9492E+06    -236.813E+06    -66.9554E+06    -236.807E+06    -52.8667E+06    -265.209E+03         28.6220
             815     2.84028E-03     25.5663E-03     155.712E-03     124.495E-03    -486.536E-03     139.113E-03    -483.645E-03     138.203E-03     58.9054E-03     109.777E-03    -54.7840E-03    -54.9766E-03    -54.7977E-03     109.738E-03    -54.9233E-03     5.04307E-03    -61.2241E+06    -70.4075E+06    -241.085E+06    -70.4288E+06    -241.064E+06    -61.2241E+06    -1.63061E+06         28.4023
             816     1.89352E-03     25.5608E-03     162.053E-03     120.699E-03    -487.488E-03     139.651E-03    -481.737E-03     137.348E-03     56.4903E-03     109.870E-03    -54.8258E-03    -54.9912E-03    -54.8965E-03     109.848E-03    -54.8979E-03     3.81392E-03    -64.8703E+06    -73.5693E+06    -246.227E+06    -73.5865E+06    -246.210E+06    -64.8703E+06    -1.29356E+06         28.2331
             817     946.453E-06     25.5587E-03     370.588E-03    -75.8521E-03    -496.692E-03     341.119E-03    -475.126E-03    -67.9497E-03    -145.590E-03     109.768E-03    -54.7150E-03    -55.0373E-03    -54.9066E-03     109.758E-03    -54.8351E-03     2.46129E-03    -70.4002E+06    -75.7421E+06    -247.808E+06    -74.9842E+06    -247.798E+06    -71.1677E+06     320.725E+03         28.1289
             818     16.0989E-03     24.8510E-03     145.054E-03     134.748E-03    -483.771E-03     134.301E-03    -482.081E-03     143.810E-03     32.1930E-03     112.477E-03    -53.8466E-03    -58.6708E-03    -52.9771E-03     107.978E-03    -55.0421E-03     43.1473E-03     171.537E+06     126.739E+06    -8.24437E+06    -8.23674E+06     171.529E+06     126.739E+06     608.116E+03         44.7142
             819     15.1516E-03     24.7654E-03     144.665E-03     128.952E-03    -483.124E-03     128.985E-03    -483.046E-03     144.555E-03    -1.89917E-03     114.014E-03    -55.0712E-03    -59.0228E-03    -53.3124E-03     108.304E-03    -55.0712E-03     59.3402E-03     168.874E+06     115.091E+06    -16.5694E+06    -16.5675E+06     168.872E+06     115.091E+06     181.050E+03         41.9532
             820     14.2033E-03     24.7216E-03     148.182E-03     132.919E-03    -491.908E-03     134.985E-03    -491.188E-03     145.396E-03    -28.9405E-03     111.932E-03    -54.9213E-03    -57.1834E-03    -53.4895E-03     108.238E-03    -54.9213E-03     48.8462E-03     160.904E+06     75.1556E+06    -23.2868E+06    -23.2809E+06     160.898E+06     75.1556E+06     559.479E+03         38.9631
             821     13.2555E-03     24.6599E-03     157.867E-03     144.048E-03    -507.908E-03     154.555E-03    -506.010E-03     145.462E-03     6.46738E-03     112.069E-03    -54.6961E-03    -57.4627E-03    -53.8506E-03     108.457E-03    -54.6961E-03     48.2355E-03     134.111E+06     23.7953E+06    -28.4813E+06    -28.4567E+06     134.087E+06     23.7953E+06     1.57550E+06         36.4345
             822     12.3089E-03     24.6161E-03     157.777E-03     141.877E-03    -501.779E-03     153.503E-03    -500.447E-03     144.819E-03     24.7720E-03     110.524E-03    -54.6949E-03    -55.9054E-03    -54.0359E-03     108.654E-03    -54.6949E-03     34.7581E-03     57.2110E+06     619.738E+03    -32.4161E+06    -32.3685E+06     56.8093E+06     973.824E+03     1.69027E+06         34.6299
             823     11.3618E-03     24.5833E-03     147.936E-03     138.886E-03    -490.245E-03     140.986E-03    -489.005E-03     144.596E-03     23.2062E-03     110.146E-03    -54.8152E-03    -55.4717E-03    -54.3601E-03     109.034E-03    -54.8152E-03     26.8572E-03    -6.23578E+06    -18.7366E+06    -48.7953E+06    -35.4884E+06    -31.0482E+06    -7.23106E+06     1.30130E+06         33.3844
             824     10.4150E-03     24.5578E-03     148.919E-03     133.770E-03    -489.624E-03     136.312E-03    -488.350E-03     145.102E-03     23.0801E-03     110.092E-03    -54.8703E-03    -55.3032E-03    -54.5771E-03     109.366E-03    -54.8703E-03     21.7812E-03    -12.5799E+06    -37.9401E+06    -89.0481E+06    -37.9754E+06    -89.0127E+06    -12.5799E+06     445.734E+03         32.3964
             825     9.46795E-03     24.5363E-03     152.124E-03     133.945E-03    -493.770E-03     139.330E-03    -492.855E-03     145.824E-03    -26.8039E-03     109.979E-03    -54.9377E-03    -55.1055E-03    -54.5779E-03     109.459E-03    -54.9460E-03     18.4356E-03    -8.60235E+06    -40.1423E+06    -129.128E+06    -40.1503E+06    -129.120E+06    -8.60235E+06    -559.628E+03         31.5387
             826     8.52081E-03     24.5169E-03     155.722E-03     133.694E-03    -496.136E-03     140.393E-03    -493.636E-03     146.522E-03    -4.78210E-03     110.039E-03    -54.9562E-03    -55.1062E-03    -54.7183E-03     109.659E-03    -54.9645E-03     15.7638E-03    -10.7128E+06    -43.6852E+06    -157.909E+06    -43.7106E+06    -157.884E+06    -10.7128E+06     704.670E+03         30.7958
             827     7.57471E-03     24.5014E-03     158.087E-03     132.615E-03    -495.732E-03     140.220E-03    -492.563E-03     147.314E-03     29.9593E-03     110.169E-03    -54.9868E-03    -55.2405E-03    -54.9549E-03     109.884E-03    -54.9868E-03     13.7128E-03    -17.5285E+06    -48.0459E+06    -185.859E+06    -48.0717E+06    -185.834E+06    -17.5285E+06     1.69185E+06         30.1616
             828     6.62810E-03     24.4868E-03     161.539E-03     133.459E-03    -500.095E-03     145.676E-03    -498.654E-03     147.881E-03     21.0389E-03     109.963E-03    -54.9431E-03    -55.0699E-03    -54.8466E-03     109.754E-03    -54.9566E-03     11.6990E-03    -21.5377E+06    -52.4084E+06    -206.743E+06    -52.4132E+06    -206.738E+06    -21.5377E+06     459.557E+03         29.6410
             829     5.68113E-03     24.4755E-03     167.405E-03     132.575E-03    -508.777E-03     152.225E-03    -508.666E-03     147.644E-03    -5.26708E-03     109.827E-03    -54.8840E-03    -54.9465E-03    -54.7388E-03     109.681E-03    -54.9452E-03     9.79590E-03    -26.5564E+06    -57.0090E+06    -220.372E+06    -57.0240E+06    -220.357E+06    -26.5564E+06     946.513E+03         29.2162
             830     4.73417E-03     24.4651E-03     165.702E-03     139.705E-03    -514.646E-03     158.158E-03    -513.509E-03     146.111E-03    -33.7225E-03     109.744E-03    -54.8672E-03    -54.9423E-03    -54.7695E-03     109.640E-03    -54.9359E-03     8.22618E-03    -37.2967E+06    -62.0350E+06    -230.283E+06    -62.0502E+06    -230.268E+06    -37.2967E+06     1.24678E+06         28.8789
             831     3.78772E-03     24.4577E-03     167.321E-03     141.957E-03    -518.484E-03     166.195E-03    -517.357E-03     141.957E-03    -31.5267E-03     109.602E-03    -54.7830E-03    -54.8795E-03    -54.7200E-03     109.532E-03    -54.8731E-03     6.72272E-03    -51.5208E+06    -66.8617E+06    -235.281E+06    -66.8670E+06    -235.276E+06    -51.5208E+06    -213.512E+03         28.6133
             832     2.84050E-03     24.4509E-03     171.681E-03     132.490E-03    -510.882E-03     171.465E-03    -510.666E-03     132.490E-03     6.14066E-03     109.630E-03    -54.7481E-03    -54.8819E-03    -54.7096E-03     109.587E-03    -54.8776E-03     5.22949E-03    -62.2202E+06    -70.3457E+06    -241.094E+06    -70.3682E+06    -241.072E+06    -62.2202E+06    -1.57327E+06         28.3940
             833     1.89328E-03     24.4467E-03     164.201E-03     113.526E-03    -481.824E-03     163.529E-03    -481.152E-03     113.526E-03    -7.14595E-03     109.751E-03    -54.7968E-03    -54.9204E-03    -54.8284E-03     109.731E-03    -54.8690E-03     3.50567E-03    -68.1301E+06    -74.1476E+06    -247.283E+06    -74.1551E+06    -247.264E+06    -68.1416E+06    -1.44455E+06         28.2257
             834     946.925E-06     24.4422E-03     322.156E-03    -109.256E-03    -409.451E-03     311.496E-03    -398.746E-03    -109.300E-03    -128.184E-03     109.718E-03    -54.7289E-03    -54.9754E-03    -54.9565E-03     109.710E-03    -54.7406E-03     2.02759E-03    -75.3150E+06    -78.9219E+06    -250.100E+06    -78.9423E+06    -250.068E+06    -75.3265E+06    -1.47020E+06         28.1211
             835     16.0998E-03     23.7364E-03     149.372E-03     144.551E-03    -489.411E-03     149.291E-03    -489.330E-03     144.551E-03     1.01202E-03     112.527E-03    -53.9965E-03    -58.5599E-03    -53.0173E-03     108.037E-03    -55.0490E-03     42.8724E-03     171.562E+06     127.391E+06    -6.95708E+06    -6.94470E+06     171.550E+06     127.391E+06     936.101E+03         44.6897
             836     15.1507E-03     23.6496E-03     152.402E-03     134.496E-03    -486.973E-03     142.338E-03    -486.942E-03     144.527E-03     3.88045E-03     113.939E-03    -55.0660E-03    -58.8508E-03    -53.1641E-03     108.253E-03    -55.0660E-03     59.1070E-03     169.737E+06     116.032E+06    -15.4693E+06    -15.4599E+06     169.727E+06     116.032E+06     750.865E+03         41.9326
             837     14.2031E-03     23.6063E-03     149.594E-03     128.843E-03    -481.233E-03     133.103E-03    -480.871E-03     144.972E-03    -18.7516E-03     112.054E-03    -54.9223E-03    -57.2436E-03    -53.6193E-03     108.430E-03    -54.9223E-03     48.4329E-03     160.002E+06     74.9422E+06    -24.2572E+06    -24.2535E+06     159.999E+06     74.9422E+06     520.530E+03         38.9450
             838     13.2566E-03     23.5430E-03     155.225E-03     139.110E-03    -495.310E-03     147.516E-03    -493.698E-03     145.207E-03     19.2200E-03     112.123E-03    -54.7007E-03    -57.5208E-03    -53.9666E-03     108.568E-03    -54.7007E-03     47.9069E-03     132.835E+06     24.3122E+06    -29.8955E+06    -29.8751E+06     132.814E+06     24.3122E+06     1.29752E+06         36.4208
             839     12.3090E-03     23.5009E-03     158.958E-03     144.589E-03    -503.163E-03     157.564E-03    -501.768E-03     144.589E-03     26.9271E-03     110.473E-03    -54.6957E-03    -55.8581E-03    -53.9815E-03     108.597E-03    -54.6957E-03     34.8495E-03     57.3841E+06     2.40460E+06    -32.4096E+06    -32.3274E+06     57.3019E+06     2.40460E+06     2.04109E+06         34.6205
             840     11.3617E-03     23.4680E-03     148.424E-03     140.911E-03    -496.449E-03     144.926E-03    -496.111E-03     144.073E-03    -4.98312E-03     110.179E-03    -54.8167E-03    -55.5042E-03    -54.3737E-03     109.049E-03    -54.8167E-03     27.0741E-03    -4.98833E+06    -17.5359E+06    -48.3724E+06    -34.6435E+06    -30.2143E+06    -6.03889E+06     1.66903E+06         33.3744
             841     10.4150E-03     23.4420E-03     148.710E-03     133.236E-03    -494.720E-03     137.040E-03    -494.203E-03     144.388E-03     7.04246E-03     110.125E-03    -54.8521E-03    -55.3721E-03    -54.6591E-03     109.412E-03    -54.8521E-03     21.5631E-03    -11.6940E+06    -37.0195E+06    -87.4285E+06    -37.0627E+06    -87.3853E+06    -11.6940E+06     706.010E+03         32.3834
             842     9.46820E-03     23.4214E-03     152.621E-03     133.045E-03    -496.539E-03     140.316E-03    -496.113E-03     144.924E-03     12.9593E-03     110.018E-03    -54.8889E-03    -55.1985E-03    -54.6987E-03     109.520E-03    -54.8909E-03     18.0641E-03    -10.3840E+06    -41.1917E+06    -129.286E+06    -41.2149E+06    -129.263E+06    -10.3840E+06     305.794E+03         31.5238
             843     8.52153E-03     23.4026E-03     157.123E-03     140.806E-03    -503.013E-03     151.624E-03    -501.403E-03     144.694E-03     55.2026E-03     109.985E-03    -54.9042E-03    -55.0913E-03    -54.7111E-03     109.608E-03    -54.9078E-03     15.7126E-03    -13.3526E+06    -46.3452E+06    -160.534E+06    -46.3848E+06    -160.494E+06    -13.3526E+06     1.48756E+06         30.7802
             844     7.57465E-03     23.3862E-03     157.070E-03     138.138E-03    -501.117E-03     148.265E-03    -498.134E-03     143.961E-03     60.2534E-03     110.004E-03    -54.9167E-03    -55.1221E-03    -54.8374E-03     109.721E-03    -54.9184E-03     13.6209E-03    -18.9811E+06    -50.3340E+06    -183.922E+06    -50.3609E+06    -183.895E+06    -18.9811E+06     1.52618E+06         30.1448
             845     6.62798E-03     23.3727E-03     149.294E-03     120.419E-03    -480.154E-03     122.960E-03    -478.639E-03     145.238E-03     13.0531E-03     109.903E-03    -54.9038E-03    -55.0256E-03    -54.8236E-03     109.701E-03    -54.9038E-03     11.4790E-03    -20.6643E+06    -54.0305E+06    -205.662E+06    -54.0372E+06    -205.656E+06    -20.6643E+06      572.77E+03         29.6228
             846     5.68138E-03     23.3608E-03     149.246E-03     120.220E-03    -479.951E-03     120.110E-03    -479.842E-03     149.246E-03    -12.6875E-03     109.766E-03    -54.8376E-03    -54.9335E-03    -54.7084E-03     109.620E-03    -54.9172E-03     9.76253E-03    -25.4571E+06    -58.6541E+06    -221.328E+06    -58.6704E+06    -221.311E+06    -25.4571E+06     772.916E+03         29.2001
             847     4.73454E-03     23.3508E-03     163.815E-03     141.641E-03    -513.650E-03     151.697E-03    -511.563E-03     151.672E-03    -10.7168E-03     109.603E-03    -54.7591E-03    -54.9073E-03    -54.6550E-03     109.499E-03    -54.9073E-03     8.21673E-03    -38.1133E+06    -63.5811E+06    -228.972E+06    -63.5931E+06    -228.960E+06    -38.1133E+06     584.638E+03         28.8660
             848     3.78712E-03     23.3426E-03     171.653E-03     136.040E-03    -510.920E-03     153.635E-03    -508.272E-03     151.411E-03     8.07643E-03     109.548E-03    -54.7428E-03    -54.8481E-03    -54.6758E-03     109.481E-03    -54.8481E-03     6.59019E-03    -52.1793E+06    -67.2297E+06    -234.078E+06    -67.2303E+06    -234.077E+06    -52.1793E+06    -14.0617E+03         28.6012
             849     2.84047E-03     23.3366E-03     177.631E-03     135.308E-03    -513.083E-03     153.941E-03    -504.764E-03     150.678E-03    -52.9432E-03     109.718E-03    -54.7868E-03    -54.9372E-03    -54.8564E-03     109.674E-03    -54.8235E-03     5.33010E-03    -62.8068E+06    -71.3560E+06    -241.048E+06    -71.3629E+06    -241.042E+06    -62.8068E+06    -105.238E+03         28.3817
             850     1.89413E-03     23.3304E-03     183.444E-03     142.262E-03    -520.209E-03     174.379E-03    -511.143E-03     142.262E-03    -31.1443E-03     109.686E-03    -54.7205E-03    -54.9572E-03    -54.9370E-03     109.665E-03    -54.7205E-03     3.34525E-03    -70.9677E+06    -75.9802E+06    -248.771E+06    -75.9775E+06    -248.762E+06    -70.9792E+06     253.431E+03         28.2121
             851     947.043E-06     23.3287E-03     314.691E-03    -32.8032E-03    -484.736E-03     301.681E-03    -471.726E-03    -32.8032E-03    -92.4732E-03     109.258E-03    -54.3231E-03    -54.9396E-03    -54.9349E-03     109.253E-03    -54.3231E-03     1.67507E-03    -78.7682E+06    -80.2020E+06    -251.212E+06    -80.2282E+06    -251.175E+06    -78.7798E+06    -447.000E+03         28.1040
             852     16.0999E-03     22.6209E-03     153.341E-03     145.487E-03    -509.629E-03     153.045E-03    -509.333E-03     145.487E-03     13.1325E-03     112.768E-03    -54.1248E-03    -58.7060E-03    -53.3183E-03     108.307E-03    -55.0516E-03     42.8730E-03     171.056E+06     126.904E+06    -7.37319E+06    -7.36550E+06     171.049E+06     126.904E+06     755.955E+03         44.6590
             853     15.1518E-03     22.5350E-03     157.179E-03     144.909E-03    -510.142E-03     156.955E-03    -509.918E-03     144.909E-03     7.50408E-03     114.034E-03    -55.0387E-03    -59.0334E-03    -53.3567E-03     108.357E-03    -55.0387E-03     59.2004E-03     169.539E+06     115.605E+06    -15.6465E+06    -15.6278E+06     169.520E+06     115.605E+06     1.62022E+06         41.9057
             854     14.2039E-03     22.4886E-03     155.672E-03     139.120E-03    -502.307E-03     149.686E-03    -501.576E-03     144.376E-03    -29.4150E-03     111.885E-03    -54.9080E-03    -57.1234E-03    -53.4891E-03     108.250E-03    -54.9080E-03     48.4837E-03     160.406E+06     75.5615E+06    -23.2814E+06    -23.2655E+06     160.390E+06     75.5615E+06     1.55969E+06         38.9207
             855     13.2562E-03     22.4272E-03     148.282E-03     127.260E-03    -484.063E-03     129.918E-03    -483.184E-03     144.746E-03    -11.0138E-03     111.932E-03    -54.6931E-03    -57.3233E-03    -53.7781E-03     108.386E-03    -54.6931E-03     47.7960E-03     132.504E+06     24.8694E+06    -28.9239E+06    -28.9180E+06     132.498E+06     24.8694E+06     921.863E+03         36.3974
             856     12.3086E-03     22.3846E-03     147.192E-03     132.842E-03    -490.148E-03     133.754E-03    -489.649E-03     145.780E-03    -3.97768E-03     110.622E-03    -54.6808E-03    -55.9840E-03    -54.1222E-03     108.760E-03    -54.6808E-03     34.7074E-03     56.9666E+06     2.97716E+06    -32.2774E+06    -32.2195E+06     56.4828E+06     3.40303E+06     1.27574E+06         34.5976
             857     11.3622E-03     22.3516E-03     155.068E-03     145.108E-03    -509.819E-03     153.886E-03    -509.510E-03     145.981E-03    -24.3991E-03     110.287E-03    -54.8028E-03    -55.6173E-03    -54.5267E-03     109.197E-03    -54.8028E-03     26.5888E-03    -3.75685E+06    -16.0048E+06    -47.3333E+06    -33.9805E+06    -29.3023E+06    -3.81212E+06     1.39038E+06         33.3511
             858     10.4152E-03     22.3259E-03     159.486E-03     144.904E-03    -513.557E-03     159.034E-03    -513.270E-03     145.069E-03    -4.07251E-03     110.034E-03    -54.8358E-03    -55.3335E-03    -54.6480E-03     109.349E-03    -54.8358E-03     21.1562E-03    -9.68647E+06    -35.8822E+06    -86.2700E+06    -35.9055E+06    -86.2467E+06    -9.68647E+06     800.976E+03         32.3595
             859     9.46853E-03     22.3048E-03     155.737E-03     143.985E-03    -507.690E-03     153.607E-03    -505.560E-03     143.985E-03    -26.5868E-03     110.079E-03    -54.8664E-03    -55.3161E-03    -54.8372E-03     109.601E-03    -54.8664E-03     17.7067E-03    -7.95546E+06    -38.6157E+06    -130.514E+06    -38.6455E+06    -130.484E+06    -7.95546E+06     1.47903E+06         31.5000
             860     8.52194E-03     22.2867E-03     151.345E-03     137.088E-03    -497.511E-03     142.646E-03    -495.323E-03     143.598E-03    -15.7435E-03     109.988E-03    -54.8841E-03    -55.1051E-03    -54.7501E-03     109.635E-03    -54.8867E-03     15.1980E-03    -8.79497E+06    -41.8112E+06    -161.303E+06    -41.8650E+06    -161.249E+06    -8.79497E+06     2.50652E+06         30.7562
             861     7.57497E-03     22.2706E-03     147.134E-03     132.014E-03    -492.263E-03     134.227E-03    -491.689E-03     144.347E-03    -4.34092E-03     109.770E-03    -54.8392E-03    -54.9609E-03    -54.6291E-03     109.504E-03    -54.9051E-03     13.1808E-03    -13.8833E+06    -46.0599E+06    -181.987E+06    -46.0937E+06    -181.954E+06    -13.8833E+06     1.77894E+06         30.1202
             862     6.62834E-03     22.2570E-03     156.193E-03     129.324E-03    -497.857E-03     139.169E-03    -496.989E-03     145.481E-03     1.65053E-03     109.787E-03    -54.8081E-03    -55.0009E-03    -54.7482E-03     109.597E-03    -54.8714E-03     11.1112E-03    -20.1499E+06    -51.3194E+06    -205.110E+06    -51.3286E+06    -205.101E+06    -20.1499E+06     784.334E+03         29.5986
             863     5.68136E-03     22.2461E-03     161.069E-03     131.945E-03    -501.067E-03     146.103E-03    -500.059E-03     145.903E-03     1.30323E-03     109.782E-03    -54.8319E-03    -54.9470E-03    -54.7714E-03     109.648E-03    -54.8733E-03     9.36717E-03    -26.8646E+06    -56.7514E+06    -221.475E+06    -56.7673E+06    -221.459E+06    -26.8646E+06     839.716E+03         29.1792
             864     4.73439E-03     22.2362E-03     155.062E-03     128.964E-03    -490.770E-03     135.181E-03    -488.927E-03     147.001E-03     24.5826E-03     109.535E-03    -54.7521E-03    -54.8540E-03    -54.6568E-03     109.440E-03    -54.8540E-03     7.85510E-03    -37.6494E+06    -62.3509E+06    -228.064E+06    -62.3630E+06    -228.052E+06    -37.6494E+06     652.681E+03         28.8484
             865     3.78788E-03     22.2284E-03     155.988E-03     114.424E-03    -478.747E-03     115.161E-03    -476.329E-03     152.833E-03     74.9396E-03     109.545E-03    -54.6998E-03    -54.8886E-03    -54.7579E-03     109.484E-03    -54.7696E-03     6.28537E-03    -52.6204E+06    -68.0747E+06    -234.181E+06    -68.0866E+06    -234.169E+06    -52.6204E+06     701.615E+03         28.5819
             866     2.84075E-03     22.2215E-03     170.423E-03     122.948E-03    -497.666E-03     119.401E-03    -488.849E-03     165.153E-03    -26.5276E-03     109.639E-03    -54.6894E-03    -54.9275E-03    -54.8800E-03     109.600E-03    -54.6986E-03     4.94576E-03    -63.5287E+06    -72.5309E+06    -241.602E+06    -72.5482E+06    -241.585E+06    -63.5287E+06     1.24963E+06         28.3610
             867     1.89398E-03     22.2158E-03     193.432E-03     152.916E-03    -542.033E-03     156.557E-03    -530.463E-03     178.220E-03     14.2010E-03     109.401E-03    -54.5815E-03    -54.7818E-03    -54.7645E-03     109.384E-03    -54.5815E-03     3.06146E-03    -68.5713E+06    -76.0960E+06    -248.248E+06    -76.1102E+06    -248.233E+06    -68.5713E+06     510.270E+03         28.1910
             868     947.467E-06     22.2146E-03     351.920E-03     30.3789E-03    -579.092E-03     330.031E-03    -564.299E-03     37.4743E-03    -26.2746E-03     109.019E-03    -54.1722E-03    -54.8347E-03    -54.7254E-03     109.013E-03    -54.2762E-03     1.85857E-03    -74.7531E+06    -78.4751E+06    -248.905E+06    -78.1584E+06    -248.886E+06    -75.0885E+06     741.603E+03         28.0803
             869     16.0993E-03     21.5057E-03     156.113E-03     145.242E-03    -520.190E-03     154.895E-03    -519.312E-03     145.581E-03     36.5689E-03     112.907E-03    -54.0774E-03    -58.9341E-03    -53.4627E-03     108.423E-03    -55.0649E-03     43.2414E-03     169.962E+06     126.076E+06    -8.23019E+06    -8.22219E+06     169.954E+06     126.076E+06     518.713E+03         44.6218
             870     15.1521E-03     21.4203E-03     149.793E-03     141.580E-03    -512.178E-03     145.827E-03    -511.920E-03     145.287E-03     6.28612E-03     114.262E-03    -55.0544E-03    -59.3445E-03    -53.5665E-03     108.484E-03    -55.0544E-03     60.0372E-03     168.843E+06     115.747E+06    -15.5249E+06    -15.5096E+06     168.827E+06     115.747E+06     1.32706E+06         41.8719
             871     14.2041E-03     21.3747E-03     151.899E-03     141.690E-03    -510.128E-03     147.662E-03    -509.425E-03     145.224E-03    -22.9775E-03     111.925E-03    -54.9148E-03    -57.2308E-03    -53.4810E-03     108.175E-03    -54.9148E-03     49.3380E-03     160.969E+06     76.4658E+06    -21.9406E+06    -21.9165E+06     160.945E+06     76.4658E+06     1.85909E+06         38.8867
             872     13.2563E-03     21.3123E-03     148.793E-03     131.313E-03    -494.926E-03     133.182E-03    -493.658E-03     145.656E-03     2.33640E-03     112.138E-03    -54.6772E-03    -57.5510E-03    -53.9718E-03     108.559E-03    -54.6772E-03     48.0500E-03     133.527E+06     24.7810E+06    -27.0540E+06    -27.0320E+06     133.505E+06     24.7810E+06     1.73896E+06         36.3616
             873     12.3096E-03     21.2695E-03     146.909E-03     128.592E-03    -490.892E-03     126.912E-03    -489.211E-03     146.909E-03    -9.54320E-03     110.878E-03    -54.6390E-03    -56.2670E-03    -54.4022E-03     109.014E-03    -54.6390E-03     34.7953E-03     56.8486E+06     1.79148E+06    -30.9340E+06    -30.9020E+06     56.3907E+06     2.21736E+06     1.26600E+06         34.5613
             874     11.3628E-03     21.2359E-03     155.668E-03     143.002E-03    -509.754E-03     149.889E-03    -508.566E-03     147.593E-03    -24.3969E-03     110.388E-03    -54.7391E-03    -55.7655E-03    -54.6890E-03     109.312E-03    -54.7391E-03     26.4055E-03    -4.84437E+06    -16.7204E+06    -45.7139E+06    -33.8238E+06    -28.5721E+06    -4.88273E+06     1.18396E+06         33.3155
             875     10.4159E-03     21.2115E-03     157.377E-03     142.961E-03    -508.728E-03     152.773E-03    -508.445E-03     147.282E-03     805.156E-06     110.017E-03    -54.7690E-03    -55.3991E-03    -54.7364E-03     109.354E-03    -54.7690E-03     20.8124E-03    -10.8625E+06    -36.8738E+06    -86.0462E+06    -36.9241E+06    -85.9958E+06    -10.8625E+06     1.22394E+06         32.3231
             876     9.46913E-03     21.1898E-03     151.467E-03     139.175E-03    -496.083E-03     141.273E-03    -494.126E-03     147.412E-03    -47.3865E-03     109.938E-03    -54.8069E-03    -55.2711E-03    -54.8070E-03     109.474E-03    -54.8069E-03     17.4204E-03    -9.98541E+06    -40.6600E+06    -132.233E+06    -40.7018E+06    -132.191E+06    -9.98541E+06     1.66356E+06         31.4611
             877     8.52284E-03     21.1718E-03     153.237E-03     137.374E-03    -496.478E-03     140.253E-03    -494.371E-03     148.251E-03    -27.7994E-03     109.903E-03    -54.7974E-03    -55.1213E-03    -54.7861E-03     109.569E-03    -54.7984E-03     14.7954E-03    -11.9937E+06    -43.3183E+06    -160.534E+06    -43.3583E+06    -160.494E+06    -11.9937E+06     1.69433E+06         30.7153
             878     7.57609E-03     21.1555E-03     158.585E-03     142.062E-03    -510.219E-03     151.597E-03    -509.740E-03     148.572E-03    -5.22685E-03     109.665E-03    -54.7531E-03    -54.9614E-03    -54.6497E-03     109.417E-03    -54.8174E-03     12.7132E-03    -15.7415E+06    -45.1574E+06    -180.842E+06    -45.1886E+06    -180.811E+06    -15.7415E+06     1.56588E+06         30.0793
             879     6.62841E-03     21.1423E-03     168.018E-03     146.968E-03    -527.377E-03     167.179E-03    -526.537E-03     146.968E-03     476.992E-06     109.596E-03    -54.7266E-03    -54.9064E-03    -54.6721E-03     109.425E-03    -54.7899E-03     10.5102E-03    -20.8818E+06    -49.1280E+06    -205.315E+06    -49.1663E+06    -205.276E+06    -20.8818E+06     1.88714E+06         29.5604
             880     5.68190E-03     21.1309E-03     163.338E-03     140.985E-03    -516.562E-03     157.642E-03    -514.326E-03     144.445E-03    -26.8027E-03     109.673E-03    -54.7681E-03    -54.8993E-03    -54.7848E-03     109.562E-03    -54.7710E-03     8.51987E-03    -27.4039E+06    -54.9068E+06    -221.193E+06    -54.9464E+06    -221.153E+06    -27.4039E+06     1.87023E+06         29.1455
             881     4.73530E-03     21.1217E-03     150.186E-03     123.803E-03    -486.088E-03     126.303E-03    -483.684E-03     145.281E-03    -13.8288E-03     109.471E-03    -54.7099E-03    -54.8581E-03    -54.7643E-03     109.393E-03    -54.7259E-03     7.10763E-03    -36.2882E+06    -60.2740E+06    -227.069E+06    -60.3012E+06    -227.042E+06    -36.2882E+06     1.75376E+06         28.8165
             882     3.78784E-03     21.1133E-03     160.014E-03     122.727E-03    -491.335E-03     132.015E-03    -489.980E-03     149.371E-03     34.6018E-03     109.336E-03    -54.5829E-03    -54.8312E-03    -54.7649E-03     109.283E-03    -54.5959E-03     5.87079E-03    -48.3684E+06    -65.8191E+06    -234.694E+06    -65.8455E+06    -234.667E+06    -48.3684E+06     1.60740E+06         28.5450
             883     2.84188E-03     21.1065E-03     166.508E-03     127.235E-03    -496.067E-03     138.591E-03    -494.986E-03     154.071E-03     29.5204E-03     109.203E-03    -54.5198E-03    -54.6914E-03    -54.6601E-03     109.172E-03    -54.5198E-03     4.44234E-03    -59.0239E+06    -70.3659E+06    -240.773E+06    -70.4007E+06    -240.738E+06    -59.0239E+06     1.99242E+06         28.3216
             884     1.89450E-03     21.1026E-03     166.887E-03     132.966E-03    -504.460E-03     130.830E-03    -500.530E-03     165.093E-03     42.0230E-03     108.930E-03    -54.4259E-03    -54.4913E-03    -54.4788E-03     108.917E-03    -54.4259E-03     2.73053E-03    -67.0572E+06    -74.2811E+06    -245.751E+06    -74.3109E+06    -245.721E+06    -67.0572E+06     781.515E+03         28.1540
             885     946.881E-06     21.0992E-03     311.954E-03     41.1155E-03    -548.434E-03     291.934E-03    -542.331E-03     55.0337E-03     68.4264E-03     108.754E-03    -54.2199E-03    -54.5266E-03    -54.2561E-03     108.749E-03    -54.4855E-03     1.06491E-03    -73.9080E+06    -77.9422E+06    -248.655E+06    -76.6901E+06    -248.643E+06    -75.1721E+06    -84.4116E+03         28.0438
             886     16.0993E-03     20.3884E-03     152.982E-03     140.506E-03    -506.671E-03     146.786E-03    -505.687E-03     145.718E-03     34.8493E-03     112.828E-03    -54.0765E-03    -58.7847E-03    -53.2870E-03     108.334E-03    -55.0794E-03     43.5650E-03     169.844E+06     126.408E+06    -7.69566E+06    -7.68010E+06     169.828E+06     126.408E+06     508.768E+03         44.5773
             887     15.1508E-03     20.3029E-03     149.202E-03     142.033E-03    -500.172E-03     145.440E-03    -500.118E-03     145.740E-03     5.08689E-03     114.223E-03    -55.0856E-03    -59.2832E-03    -53.5094E-03     108.449E-03    -55.0856E-03     59.9623E-03     168.610E+06     115.973E+06    -15.5142E+06    -15.5067E+06     168.602E+06     115.973E+06     387.563E+03         41.8290
             888     14.2032E-03     20.2576E-03     148.391E-03     138.758E-03    -496.135E-03     141.014E-03    -495.938E-03     145.939E-03    -5.67168E-03     112.292E-03    -54.9417E-03    -57.5721E-03    -53.8271E-03     108.547E-03    -54.9417E-03     49.4133E-03     159.705E+06     75.9841E+06    -23.0708E+06    -23.0585E+06     159.692E+06     75.9841E+06     1.07846E+06         38.8415
             889     13.2563E-03     20.1952E-03     149.818E-03     140.473E-03    -502.382E-03     142.593E-03    -500.917E-03     146.233E-03     30.0680E-03     112.482E-03    -54.6712E-03    -57.9081E-03    -54.3410E-03     108.915E-03    -54.6712E-03     48.0594E-03     133.565E+06     24.2347E+06    -27.7795E+06    -27.7461E+06     133.531E+06     24.2347E+06     2.11993E+06         36.3142
             890     12.3094E-03     20.1519E-03     150.158E-03     139.852E-03    -502.105E-03     140.699E-03    -499.366E-03     146.573E-03    -782.443E-06     111.050E-03    -54.5903E-03    -56.4795E-03    -54.6391E-03     109.210E-03    -54.5903E-03     34.5924E-03     57.5578E+06     787.803E+03    -30.5507E+06    -30.4958E+06     57.5030E+06     787.803E+03     1.96788E+06         34.5134
             891     11.3628E-03     20.1195E-03     147.426E-03     133.762E-03    -490.892E-03     131.742E-03    -488.871E-03     147.426E-03    -16.0445E-03     110.579E-03    -54.6677E-03    -56.0322E-03    -54.9948E-03     109.542E-03    -54.6677E-03     25.9051E-03    -5.12104E+06    -17.7514E+06    -45.4957E+06    -33.6192E+06    -28.3190E+06    -6.42992E+06     1.91418E+06         33.2675
             892     10.4167E-03     20.0943E-03     150.545E-03     135.828E-03    -490.517E-03     137.051E-03    -489.782E-03     148.586E-03     36.0399E-03     110.119E-03    -54.6688E-03    -55.6259E-03    -55.0161E-03     109.509E-03    -54.6688E-03     19.9593E-03    -11.9498E+06    -36.9348E+06    -86.5936E+06    -37.1166E+06    -86.4118E+06    -11.9498E+06     2.55217E+06         32.2725
             893     9.47014E-03     20.0749E-03     155.192E-03     140.982E-03    -497.550E-03     146.741E-03    -497.336E-03     149.219E-03     10.1375E-03     109.816E-03    -54.6868E-03    -55.2707E-03    -54.8485E-03     109.393E-03    -54.6868E-03     16.6068E-03    -11.3848E+06    -40.1826E+06    -132.049E+06    -40.2578E+06    -131.974E+06    -11.3848E+06     2.48700E+06         31.4032
             894     8.52307E-03     20.0562E-03     156.274E-03     143.323E-03    -501.920E-03     149.235E-03    -500.867E-03     149.309E-03     34.8135E-03     109.755E-03    -54.6382E-03    -55.1171E-03    -54.8198E-03     109.457E-03    -54.6382E-03     13.8836E-03    -14.8185E+06    -44.0696E+06    -159.445E+06    -44.1041E+06    -159.410E+06    -14.8185E+06     1.53789E+06         30.6514
             895     7.57659E-03     20.0410E-03     158.672E-03     143.599E-03    -508.570E-03     151.744E-03    -507.152E-03     149.109E-03     10.5942E-03     109.616E-03    -54.6071E-03    -55.0539E-03    -54.8499E-03     109.412E-03    -54.6071E-03     11.4956E-03    -19.7480E+06    -49.1076E+06    -181.110E+06    -49.1332E+06    -181.085E+06    -19.7480E+06     1.45171E+06         30.0142
             896     6.63055E-03     20.0275E-03     159.574E-03     135.883E-03    -505.799E-03     145.172E-03    -504.749E-03     149.235E-03    -9.24318E-03     109.300E-03    -54.5489E-03    -54.7928E-03    -54.6529E-03     109.160E-03    -54.5489E-03     9.51165E-03    -24.5846E+06    -53.0291E+06    -205.028E+06    -53.0715E+06    -204.986E+06    -24.5846E+06     1.99570E+06         29.4958
             897     5.68314E-03     20.0164E-03     154.876E-03     131.118E-03    -496.458E-03     132.357E-03    -493.970E-03     151.149E-03    -33.0419E-03     109.224E-03    -54.5061E-03    -54.7277E-03    -54.6353E-03     109.131E-03    -54.5061E-03     7.72792E-03    -30.8465E+06    -55.9671E+06    -220.525E+06    -56.0112E+06    -220.481E+06    -30.8465E+06     1.98017E+06         29.0825
             898     4.73612E-03     20.0073E-03     163.902E-03     139.206E-03    -508.288E-03     147.553E-03    -506.113E-03     153.380E-03    -36.0262E-03     109.140E-03    -54.4598E-03    -54.8184E-03    -54.7559E-03     109.078E-03    -54.4598E-03     6.36734E-03    -37.1251E+06    -60.5522E+06    -226.868E+06    -60.5848E+06    -226.836E+06    -37.1251E+06     1.99671E+06         28.7544
             899     3.79000E-03     19.9999E-03     178.153E-03     147.573E-03    -521.435E-03     173.939E-03    -520.826E-03     151.178E-03    -9.08926E-03     108.788E-03    -54.3191E-03    -54.5791E-03    -54.5385E-03     108.747E-03    -54.3191E-03     5.09067E-03    -46.8271E+06    -65.5492E+06    -233.888E+06    -65.5929E+06    -233.844E+06    -46.8271E+06     2.11916E+06         28.4816
             900     2.84178E-03     19.9931E-03     174.104E-03     143.364E-03    -512.401E-03     173.320E-03    -511.617E-03     143.364E-03     4.40535E-03     108.492E-03    -54.1977E-03    -54.3169E-03    -54.2470E-03     108.470E-03    -54.2450E-03     3.74821E-03    -58.5604E+06    -69.6740E+06    -240.169E+06    -69.7251E+06    -240.117E+06    -58.5604E+06     2.38386E+06         28.2571
             901     1.89485E-03     19.9890E-03     152.037E-03     128.369E-03    -479.374E-03     140.214E-03    -476.932E-03     137.751E-03    -22.0551E-03     108.359E-03    -54.1131E-03    -54.2338E-03    -54.1532E-03     108.349E-03    -54.1834E-03     2.47099E-03    -66.5892E+06    -73.2458E+06    -243.662E+06    -73.3003E+06    -243.607E+06    -66.5892E+06     2.42017E+06         28.0908
             902     947.901E-06     19.9867E-03     195.361E-03     87.1267E-03    -495.760E-03     177.601E-03    -487.382E-03     96.5088E-03    -50.2482E-03     108.318E-03    -53.9147E-03    -54.3816E-03    -54.1925E-03     108.313E-03    -54.0994E-03     962.718E-06    -75.0440E+06    -79.4904E+06    -248.296E+06    -78.5929E+06    -248.264E+06    -75.9727E+06     1.10638E+06         27.9834
             903     16.0988E-03     19.2748E-03     149.701E-03     141.255E-03    -493.421E-03     143.846E-03    -493.033E-03     146.722E-03     18.9928E-03     112.902E-03    -54.0802E-03    -58.8884E-03    -53.4133E-03     108.442E-03    -55.0952E-03     43.7952E-03     169.519E+06     126.751E+06    -7.39988E+06    -7.38625E+06     169.505E+06     126.751E+06     694.358E+03         44.5257
             904     15.1510E-03     19.1890E-03     152.190E-03     144.970E-03    -496.476E-03     150.388E-03    -496.462E-03     146.759E-03    -1.02073E-03     114.481E-03    -55.0831E-03    -59.5483E-03    -53.8670E-03     108.800E-03    -55.0831E-03     59.4937E-03     168.229E+06     115.695E+06    -15.4795E+06    -15.4717E+06     168.221E+06     115.695E+06     470.106E+03         41.7776
             905     14.2037E-03     19.1425E-03     151.292E-03     141.331E-03    -497.238E-03     145.434E-03    -496.816E-03     146.766E-03    -23.8237E-03     112.532E-03    -54.9105E-03    -57.8321E-03    -54.2145E-03     108.914E-03    -54.9105E-03     48.6547E-03     158.901E+06     75.0757E+06    -23.3098E+06    -23.3052E+06     158.896E+06     75.0757E+06     819.478E+03         38.7864
             906     13.2568E-03     19.0793E-03     152.962E-03     143.184E-03    -504.590E-03     148.225E-03    -503.500E-03     146.832E-03    -1.78491E-03     112.651E-03    -54.5998E-03    -58.1201E-03    -54.7089E-03     109.240E-03    -54.5998E-03     47.0044E-03     132.811E+06     23.7235E+06    -28.3703E+06    -28.3518E+06     132.793E+06     23.7235E+06     1.41390E+06         36.2535
             907     12.3104E-03     19.0368E-03     150.878E-03     144.623E-03    -505.110E-03     147.268E-03    -503.697E-03     146.820E-03    -8.10340E-03     111.228E-03    -54.4855E-03    -56.7384E-03    -55.0476E-03     109.537E-03    -54.4855E-03     33.1536E-03     58.1314E+06     20.4674E+03    -31.4213E+06    -31.3196E+06     58.0298E+06     20.4674E+03     2.05647E+06         34.4479
             908     11.3646E-03     19.0033E-03     147.350E-03     136.342E-03    -490.865E-03     135.056E-03    -489.578E-03     147.350E-03    -22.4984E-03     110.622E-03    -54.5326E-03    -56.2027E-03    -55.2917E-03     109.711E-03    -54.5326E-03     24.2646E-03    -4.95295E+06    -18.4255E+06    -47.3838E+06    -33.9006E+06    -28.9593E+06    -7.90224E+06     2.46888E+06         33.1958
             909     10.4183E-03     18.9794E-03     150.190E-03     139.027E-03    -494.984E-03     140.297E-03    -494.296E-03     148.231E-03     17.1747E-03     110.127E-03    -54.5052E-03    -55.7961E-03    -55.2855E-03     109.616E-03    -54.5052E-03     18.2291E-03    -12.0054E+06    -35.7094E+06    -86.9868E+06    -35.9522E+06    -86.7439E+06    -12.0054E+06     3.20524E+06         32.1926
             910     9.47203E-03     18.9587E-03     156.233E-03     147.851E-03    -510.052E-03     155.030E-03    -509.243E-03     148.244E-03    -5.10264E-03     109.867E-03    -54.4844E-03    -55.5357E-03    -55.2029E-03     109.534E-03    -54.4844E-03     14.7108E-03    -10.4959E+06    -38.7914E+06    -130.597E+06    -38.9472E+06    -130.441E+06    -10.4959E+06     3.57780E+06         31.3156
             911     8.52581E-03     18.9413E-03     155.899E-03     145.989E-03    -511.826E-03     152.862E-03    -510.408E-03     147.609E-03     9.93137E-03     109.563E-03    -54.3758E-03    -55.2028E-03    -54.9826E-03     109.343E-03    -54.3758E-03     11.9224E-03    -14.8212E+06    -43.4717E+06    -158.952E+06    -43.5790E+06    -158.844E+06    -14.8212E+06     3.38323E+06         30.5572
             912     7.57931E-03     18.9251E-03     150.037E-03     139.175E-03    -500.987E-03     140.334E-03    -499.886E-03     147.777E-03     5.20366E-03     109.121E-03    -54.2750E-03    -54.8972E-03    -54.7572E-03     108.980E-03    -54.2750E-03     9.47252E-03    -20.5868E+06    -48.4565E+06    -181.086E+06    -48.5424E+06    -181.000E+06    -20.5868E+06     3.18516E+06         29.9159
             913     6.63219E-03     18.9131E-03     149.851E-03     130.029E-03    -491.926E-03     127.082E-03    -488.979E-03     149.851E-03     34.0447E-03     108.749E-03    -54.1836E-03    -54.6256E-03    -54.5284E-03     108.651E-03    -54.1836E-03     7.86819E-03    -26.4472E+06    -53.5670E+06    -203.743E+06    -53.6206E+06    -203.690E+06    -26.4472E+06     2.31224E+06         29.3950
             914     5.68524E-03     18.9019E-03     155.669E-03     133.219E-03    -499.445E-03     132.466E-03    -496.190E-03     153.167E-03     34.2459E-03     108.541E-03    -54.1076E-03    -54.4765E-03    -54.4084E-03     108.473E-03    -54.1076E-03     6.55864E-03    -36.1470E+06    -58.7235E+06    -219.990E+06    -58.7618E+06    -219.951E+06    -36.1470E+06     1.51611E+06         28.9794
             915     4.73838E-03     18.8919E-03     168.360E-03     147.257E-03    -521.622E-03     159.076E-03    -519.446E-03     154.365E-03     9.83669E-03     108.286E-03    -54.0416E-03    -54.3861E-03    -54.3414E-03     108.241E-03    -54.0416E-03     5.33007E-03    -42.8149E+06    -62.2973E+06    -226.661E+06    -62.3311E+06    -226.627E+06    -42.8149E+06     1.70094E+06         28.6518
             916     3.79053E-03     18.8846E-03     169.454E-03     151.940E-03    -526.655E-03     167.210E-03    -524.412E-03     151.940E-03     39.7132E-03     108.074E-03    -53.9109E-03    -54.2405E-03    -54.2130E-03     108.047E-03    -53.9109E-03     4.09923E-03    -49.3471E+06    -65.6255E+06    -233.528E+06    -65.6714E+06    -233.482E+06    -49.3471E+06     2.27952E+06         28.3832
             917     2.84393E-03     18.8791E-03     166.640E-03     142.894E-03    -517.329E-03     159.529E-03    -515.450E-03     148.126E-03    -23.7850E-06     107.720E-03    -53.7438E-03    -53.9701E-03    -53.8868E-03     107.707E-03    -53.8145E-03     2.76823E-03    -58.1601E+06    -68.6980E+06    -239.745E+06    -68.7362E+06    -239.707E+06    -58.1601E+06     2.13491E+06         28.1624
             918     1.89540E-03     18.8753E-03     163.665E-03     135.983E-03    -513.536E-03     153.719E-03    -511.382E-03     143.775E-03    -22.7780E-03     107.372E-03    -53.5697E-03    -53.7895E-03    -53.5639E-03     107.367E-03    -53.7895E-03     1.87582E-03    -64.3156E+06    -72.6970E+06    -241.484E+06    -72.7518E+06    -241.429E+06    -64.3156E+06     2.78496E+06         27.9979
             919     947.134E-06     18.8730E-03     203.587E-03     90.2718E-03    -515.800E-03     189.768E-03    -504.540E-03     92.8310E-03    -136.529E-03     107.603E-03    -53.5611E-03    -54.0165E-03    -53.8136E-03     107.600E-03    -53.7610E-03     1.28461E-03    -72.3323E+06    -77.8628E+06    -245.186E+06    -77.5780E+06    -245.132E+06    -72.6717E+06     2.58077E+06         27.8938
             920     16.0985E-03     18.1572E-03     151.854E-03     142.905E-03    -494.790E-03     146.132E-03    -494.166E-03     148.003E-03     25.3127E-03     113.238E-03    -54.0855E-03    -59.2483E-03    -53.7125E-03     108.707E-03    -55.0901E-03     44.2524E-03     169.024E+06     126.967E+06    -6.85820E+06    -6.85300E+06     169.019E+06     126.967E+06     313.333E+03         44.4695
             921     15.1514E-03     18.0710E-03     153.294E-03     141.876E-03    -495.959E-03     146.869E-03    -495.825E-03     148.168E-03    -8.42053E-03     115.265E-03    -55.0619E-03    -60.2985E-03    -54.5680E-03     109.534E-03    -55.0619E-03     59.8812E-03     167.809E+06     116.849E+06    -14.8721E+06    -14.8578E+06     167.795E+06     116.849E+06     1.20415E+06         41.7207
             922     14.2049E-03     18.0254E-03     154.862E-03     146.337E-03    -507.193E-03     152.692E-03    -506.811E-03     148.125E-03    -24.7614E-03     113.258E-03    -54.8346E-03    -58.6150E-03    -55.0686E-03     109.712E-03    -54.8346E-03     48.4059E-03     158.835E+06     75.9630E+06    -22.4318E+06    -22.4188E+06     158.822E+06     75.9630E+06     1.40133E+06         38.7218
             923     13.2586E-03     17.9627E-03     151.964E-03     147.421E-03    -511.867E-03     150.937E-03    -511.332E-03     147.912E-03    -1.80311E-03     113.191E-03    -54.4332E-03    -58.8445E-03    -55.5967E-03     109.943E-03    -54.4332E-03     45.8715E-03     132.632E+06     22.5165E+06    -27.7851E+06    -27.7700E+06     132.617E+06     22.5165E+06     1.34576E+06         36.1757
             924     12.3132E-03     17.9195E-03     148.403E-03     145.567E-03    -505.924E-03     145.527E-03    -505.411E-03     147.931E-03     11.0421E-03     111.474E-03    -54.2587E-03    -57.2291E-03    -55.7451E-03     109.991E-03    -54.2587E-03     31.0664E-03     57.8591E+06    -944.629E+03    -30.6588E+06    -30.5543E+06     57.7546E+06    -944.629E+03     2.00487E+06         34.3561
             925     11.3673E-03     17.8865E-03     148.172E-03     145.634E-03    -504.213E-03     145.204E-03    -503.784E-03     148.172E-03    -17.0167E-03     110.690E-03    -54.2468E-03    -56.5329E-03    -55.7963E-03     109.954E-03    -54.2468E-03     21.6639E-03    -5.30711E+06    -17.9274E+06    -46.7773E+06    -32.9555E+06    -29.1987E+06    -7.85754E+06     2.81354E+06         33.0938
             926     10.4216E-03     17.8631E-03     148.487E-03     145.003E-03    -504.547E-03     144.712E-03    -504.256E-03     148.487E-03    -5.88894E-03     110.121E-03    -54.1409E-03    -56.0957E-03    -55.7387E-03     109.764E-03    -54.1409E-03     15.0590E-03    -13.0221E+06    -35.4189E+06    -87.7876E+06    -35.7549E+06    -87.4516E+06    -13.0221E+06     3.66175E+06         32.0815
             927     9.47583E-03     17.8436E-03     150.917E-03     143.741E-03    -506.372E-03     144.471E-03    -505.087E-03     148.901E-03    -30.1090E-03     109.627E-03    -54.0385E-03    -55.7179E-03    -55.5101E-03     109.419E-03    -54.0385E-03     11.4621E-03    -12.2392E+06    -38.5682E+06    -130.481E+06    -38.8194E+06    -130.230E+06    -12.2392E+06     4.69011E+06         31.1913
             928     8.52983E-03     17.8258E-03     158.359E-03     146.513E-03    -517.141E-03     154.230E-03    -515.354E-03     148.856E-03    -15.0389E-03     108.958E-03    -53.8706E-03    -55.1144E-03    -54.9842E-03     108.828E-03    -53.8706E-03     8.94282E-03    -16.0199E+06    -42.6367E+06    -157.941E+06    -42.8744E+06    -157.703E+06    -16.0199E+06     5.11651E+06         30.4194
             929     7.58301E-03     17.8124E-03     157.344E-03     145.175E-03    -516.847E-03     153.403E-03    -515.999E-03     148.267E-03     6.71913E-03     108.265E-03    -53.7345E-03    -54.6024E-03    -54.5270E-03     108.189E-03    -53.7345E-03     6.71723E-03    -22.3660E+06    -46.8765E+06    -179.986E+06    -47.0388E+06    -179.823E+06    -22.3660E+06     4.55552E+06         29.7701
             930     6.63593E-03     17.7996E-03     152.283E-03     141.836E-03    -510.296E-03     143.392E-03    -507.875E-03     148.306E-03     29.0715E-03     107.892E-03    -53.6236E-03    -54.3741E-03    -54.3293E-03     107.848E-03    -53.6236E-03     5.12719E-03    -26.0897E+06    -50.9778E+06    -202.261E+06    -51.0950E+06    -202.144E+06    -26.0897E+06     4.17164E+06         29.2454
             931     5.68886E-03     17.7889E-03     159.580E-03     144.956E-03    -516.558E-03     151.955E-03    -512.311E-03     148.334E-03     9.06606E-03     107.504E-03    -53.5062E-03    -54.0497E-03    -54.0202E-03     107.474E-03    -53.5062E-03     4.01779E-03    -34.3623E+06    -56.4962E+06    -218.560E+06    -56.5875E+06    -218.469E+06    -34.3623E+06     3.16824E+06         28.8264
             932     4.74086E-03     17.7801E-03     157.562E-03     144.075E-03    -509.293E-03     150.328E-03    -505.716E-03     147.732E-03    -4.77384E-03     106.970E-03    -53.3779E-03    -53.6720E-03    -53.6526E-03     106.950E-03    -53.3779E-03     3.22035E-03    -44.9018E+06    -61.4335E+06    -226.245E+06    -61.4846E+06    -226.194E+06    -44.9018E+06     1.89821E+06         28.4974
             933     3.79338E-03     17.7726E-03     149.968E-03     139.050E-03    -493.975E-03     138.026E-03    -491.769E-03     148.786E-03     44.4640E-03     106.664E-03    -53.1907E-03    -53.4994E-03    -53.4429E-03     106.653E-03    -53.2361E-03     2.39859E-03    -51.3084E+06    -64.7931E+06    -232.523E+06    -64.8192E+06    -232.497E+06    -51.3084E+06     1.62262E+06         28.2329
             934     2.84496E-03     17.7675E-03     154.674E-03     140.543E-03    -504.107E-03     141.442E-03    -502.185E-03     151.854E-03     3.48377E-03     106.436E-03    -53.0741E-03    -53.3488E-03    -53.2750E-03     106.431E-03    -53.1429E-03     1.58758E-03    -57.3596E+06    -68.5150E+06    -238.754E+06    -68.5325E+06    -238.736E+06    -57.3596E+06     1.47555E+06         28.0177
             935     1.89714E-03     17.7647E-03     169.022E-03     145.404E-03    -539.325E-03     162.415E-03    -537.951E-03     150.637E-03    -3.14869E-03     106.167E-03    -52.9069E-03    -53.2647E-03    -53.1130E-03     106.165E-03    -53.0563E-03     1.15093E-03    -63.0204E+06    -71.9047E+06    -240.825E+06    -71.9270E+06    -240.803E+06    -63.0204E+06     1.32916E+06         27.8583
             936     948.520E-06     17.7609E-03     220.263E-03     81.7943E-03    -529.087E-03     213.582E-03    -522.405E-03     81.7943E-03    -70.1475E-03     105.983E-03    -52.7902E-03    -53.2064E-03    -53.0287E-03     105.982E-03    -52.9670E-03     613.825E-06    -69.9202E+06    -74.2491E+06    -241.593E+06    -73.9341E+06    -241.569E+06    -70.2595E+06     1.15895E+06         27.7587
             937     16.0987E-03     17.0429E-03     150.549E-03     136.467E-03    -493.976E-03     137.556E-03    -493.184E-03     148.668E-03     33.1883E-03     113.941E-03    -54.3685E-03    -59.6159E-03    -54.3762E-03     109.408E-03    -55.0758E-03     44.6375E-03     168.894E+06     126.351E+06    -8.01307E+06    -8.01114E+06     168.892E+06     126.351E+06     148.272E+03         44.4122
             938     15.1515E-03     16.9535E-03     154.098E-03     143.062E-03    -509.552E-03     147.964E-03    -509.406E-03     149.051E-03    -9.37829E-03     116.103E-03    -55.0083E-03    -61.1755E-03    -55.5608E-03     110.488E-03    -55.0083E-03     59.2263E-03     167.031E+06     116.233E+06    -16.1742E+06    -16.1626E+06     167.019E+06     116.233E+06     135.002E+03         41.6629
             939     14.2060E-03     16.9078E-03     156.901E-03     148.841E-03    -517.664E-03     156.734E-03    -517.496E-03     148.841E-03    -18.6841E-03     114.199E-03    -54.6964E-03    -59.6943E-03    -56.4374E-03     110.942E-03    -54.6964E-03     46.6551E-03     158.332E+06     77.1715E+06    -23.0948E+06    -23.0712E+06     158.308E+06     77.1715E+06     1.16874E+06         38.6522
             940     13.2620E-03     16.8438E-03     151.636E-03     145.183E-03    -511.890E-03     147.887E-03    -511.581E-03     148.623E-03     8.61734E-03     113.898E-03    -54.1645E-03    -59.8347E-03    -56.9189E-03     110.982E-03    -54.1645E-03     43.5176E-03     132.917E+06     22.9111E+06    -27.7113E+06    -27.6885E+06     132.894E+06     22.9111E+06     1.57486E+06         36.0841
             941     12.3175E-03     16.8026E-03     151.109E-03     144.320E-03    -511.576E-03     146.096E-03    -511.021E-03     148.779E-03     11.6056E-03     112.024E-03    -53.8621E-03    -58.1611E-03    -56.9569E-03     110.820E-03    -53.8621E-03     27.9310E-03     56.8761E+06    -2.55645E+06    -30.5799E+06    -30.4716E+06     56.7677E+06    -2.55645E+06     1.84972E+06         34.2388
             942     11.3729E-03     16.7699E-03     152.532E-03     147.506E-03    -513.547E-03     150.855E-03    -513.182E-03     148.817E-03    -13.4537E-03     111.065E-03    -53.7320E-03    -57.4230E-03    -56.9158E-03     110.557E-03    -53.7320E-03     17.7002E-03    -6.20908E+06    -17.4186E+06    -45.9822E+06    -32.1033E+06    -29.2972E+06    -8.20940E+06     3.19595E+06         32.9639
             943     10.4285E-03     16.7467E-03     150.650E-03     146.078E-03    -508.578E-03     147.507E-03    -508.152E-03     148.795E-03     10.9140E-03     109.959E-03    -53.5019E-03    -56.6100E-03    -56.4261E-03     109.775E-03    -53.5019E-03     10.5425E-03    -12.6138E+06    -33.3410E+06    -88.2082E+06    -33.7524E+06    -87.7968E+06    -12.6138E+06     4.15532E+06         31.9447
             944     9.48297E-03     16.7280E-03     150.770E-03     144.274E-03    -504.427E-03     145.034E-03    -503.458E-03     149.042E-03    -4.98712E-03     108.947E-03    -53.2960E-03    -55.7959E-03    -55.7128E-03     108.864E-03    -53.2960E-03     6.83537E-03    -11.7989E+06    -35.2640E+06    -130.941E+06    -35.5234E+06    -130.681E+06    -11.7989E+06     4.88569E+06         31.0297
             945     8.53653E-03     16.7113E-03     155.981E-03     139.399E-03    -503.643E-03     144.551E-03    -502.311E-03     149.497E-03     2.83810E-03     107.967E-03    -53.0448E-03    -54.9705E-03    -54.9293E-03     107.926E-03    -53.0448E-03     4.01976E-03    -13.3431E+06    -37.7010E+06    -157.365E+06    -38.0074E+06    -157.059E+06    -13.3431E+06     5.94671E+06         30.2313
             946     7.58964E-03     16.6989E-03     156.721E-03     142.135E-03    -512.840E-03     147.936E-03    -511.810E-03     149.890E-03     8.00576E-03     107.074E-03    -52.8339E-03    -54.3457E-03    -54.3253E-03     107.054E-03    -52.8339E-03     1.96964E-03    -18.2246E+06    -41.4198E+06    -178.158E+06    -41.7185E+06    -177.859E+06    -18.2246E+06     6.26649E+06         29.5683
             947     6.64248E-03     16.6864E-03     154.415E-03     149.763E-03    -520.436E-03     153.595E-03    -519.616E-03     149.763E-03     4.95315E-03     106.318E-03    -52.6332E-03    -53.8193E-03    -53.8060E-03     106.305E-03    -52.6332E-03     808.218E-06    -23.1676E+06    -46.5619E+06    -200.650E+06    -46.7688E+06    -200.443E+06    -23.1676E+06     5.48242E+06         29.0350
             948     5.69461E-03     16.6771E-03     158.594E-03     149.050E-03    -519.883E-03     154.796E-03    -516.085E-03     149.050E-03    -40.6086E-03     105.663E-03    -52.4557E-03    -53.2697E-03    -53.2617E-03     105.655E-03    -52.4557E-03     122.627E-06    -27.7130E+06    -51.2024E+06    -216.308E+06    -51.3458E+06    -216.165E+06    -27.7130E+06     4.86228E+06         28.6092
             949     4.74642E-03     16.6686E-03     155.951E-03     139.803E-03    -504.565E-03     141.112E-03    -499.379E-03     149.455E-03    -30.9312E-03     104.905E-03    -52.2854E-03    -52.6943E-03    -52.6886E-03     104.899E-03    -52.2854E-03    -77.7167E-06    -37.6909E+06    -56.4456E+06    -224.158E+06    -56.5610E+06    -224.043E+06    -37.6909E+06     3.82838E+06         28.2767
             950     3.79717E-03     16.6621E-03     160.265E-03     136.061E-03    -505.329E-03     140.194E-03    -500.989E-03     151.791E-03    -14.3694E-03     104.268E-03    -52.0579E-03    -52.2424E-03    -52.1650E-03     104.264E-03    -52.1308E-03    -265.221E-06    -48.6086E+06    -61.9798E+06    -231.805E+06    -62.0379E+06    -231.747E+06    -48.6086E+06     2.45201E+06         28.0115
             951     2.84784E-03     16.6575E-03     177.440E-03     144.193E-03    -530.475E-03     168.261E-03    -527.375E-03     150.271E-03    -19.1512E-03     104.213E-03    -51.9848E-03    -52.2260E-03    -52.1507E-03     104.210E-03    -52.0577E-03    -293.989E-06    -56.3099E+06    -65.9944E+06    -237.062E+06    -66.0129E+06    -237.043E+06    -56.3099E+06     1.63451E+06         27.7956
             952     1.89862E-03     16.6534E-03     170.606E-03     133.566E-03    -516.080E-03     158.461E-03    -513.901E-03     143.532E-03    -1.78887E-03     104.172E-03    -51.9060E-03    -52.2776E-03    -52.2756E-03     104.170E-03    -51.9060E-03    -263.964E-06    -62.0894E+06    -70.0098E+06    -239.540E+06    -70.0170E+06    -239.532E+06    -62.0894E+06     213.012E+03         27.6383
             953     950.190E-06     16.6516E-03     168.739E-03     113.581E-03    -506.285E-03     156.050E-03    -503.562E-03     123.548E-03    -5.93378E-03     103.516E-03    -51.4613E-03    -52.0629E-03    -52.0615E-03     103.515E-03    -51.4613E-03     93.6276E-06    -70.0480E+06    -74.2010E+06    -240.645E+06    -74.2068E+06    -240.639E+06    -70.0480E+06    -879.644E+03         27.5433
             954     16.0991E-03     15.9240E-03     151.433E-03     140.677E-03    -511.240E-03     142.888E-03    -510.594E-03     148.576E-03     30.7470E-03     115.325E-03    -54.8197E-03    -60.5203E-03    -55.9181E-03     110.942E-03    -55.0390E-03     44.9266E-03     168.936E+06     126.659E+06    -7.91734E+06    -7.91524E+06     168.934E+06     126.659E+06     401.985E+03         44.3579
             955     15.1548E-03     15.8365E-03     150.751E-03     141.801E-03    -510.783E-03     143.658E-03    -510.749E-03     148.860E-03    -1.33858E-03     117.512E-03    -54.8450E-03    -62.7659E-03    -57.4320E-03     112.178E-03    -54.8450E-03     58.0772E-03     166.488E+06     115.916E+06    -16.4981E+06    -16.4925E+06     166.483E+06     115.916E+06     61.7571E+03         41.6095
             956     14.2110E-03     15.7878E-03     152.660E-03     138.478E-03    -504.478E-03     141.687E-03    -504.291E-03     149.263E-03    -17.6208E-03     115.203E-03    -54.3916E-03    -61.0244E-03    -58.1492E-03     112.328E-03    -54.3916E-03     44.2615E-03     157.270E+06     76.5975E+06    -23.3742E+06    -23.3545E+06     157.250E+06     76.5975E+06     247.141E+03         38.5865
             957     13.2677E-03     15.7261E-03     154.670E-03     141.334E-03    -508.103E-03     146.084E-03    -507.878E-03     149.695E-03    -5.92792E-03     114.770E-03    -53.7091E-03    -61.1370E-03    -58.6845E-03     112.318E-03    -53.7091E-03     39.9144E-03     132.971E+06     22.8433E+06    -27.5400E+06    -27.5113E+06     132.942E+06     22.8433E+06     1.06523E+06         35.9913
             958     12.3247E-03     15.6835E-03     156.952E-03     146.778E-03    -517.293E-03     153.717E-03    -517.006E-03     149.727E-03     1.68449E-03     112.876E-03    -53.2244E-03    -59.6427E-03    -58.7817E-03     112.015E-03    -53.2244E-03     23.3839E-03     57.2440E+06    -2.83218E+06    -29.8949E+06    -29.8043E+06     57.1534E+06    -2.83218E+06     1.57941E+06         34.1117
             959     11.3825E-03     15.6532E-03     156.096E-03     149.332E-03    -520.588E-03     155.835E-03    -520.327E-03     149.332E-03    -12.7897E-03     111.393E-03    -52.9051E-03    -58.6050E-03    -58.3318E-03     111.120E-03    -52.9051E-03     12.2548E-03    -6.81061E+06    -17.7619E+06    -46.3249E+06    -31.3191E+06    -30.5198E+06    -9.05857E+06     2.65316E+06         32.8122
             960     10.4386E-03     15.6311E-03     159.305E-03     148.599E-03    -524.180E-03     159.022E-03    -523.897E-03     148.599E-03     9.17027E-03     109.643E-03    -52.5153E-03    -57.3386E-03    -57.2788E-03     109.583E-03    -52.5153E-03     4.81092E-03    -12.4651E+06    -32.4660E+06    -88.2450E+06    -32.8359E+06    -87.8750E+06    -12.4651E+06     4.27189E+06         31.7748
             961     9.49374E-03     15.6142E-03     156.804E-03     144.706E-03    -514.828E-03     153.334E-03    -514.499E-03     147.848E-03     8.95652E-03     108.207E-03    -52.1615E-03    -56.2642E-03    -56.2398E-03     108.182E-03    -52.1615E-03     749.272E-06    -12.8900E+06    -35.2535E+06    -130.648E+06    -35.5386E+06    -130.362E+06    -12.8900E+06     5.12275E+06         30.8299
             962     8.54805E-03     15.5990E-03     149.567E-03     133.758E-03    -498.007E-03     134.794E-03    -497.785E-03     148.309E-03     5.55509E-03     106.714E-03    -51.7207E-03    -55.1008E-03    -55.0680E-03     106.681E-03    -51.7207E-03    -2.45476E-03    -15.4258E+06    -37.8584E+06    -157.607E+06    -38.1577E+06    -157.307E+06    -15.4258E+06     5.88249E+06         30.0007
             963     7.60138E-03     15.5870E-03     149.962E-03     135.811E-03    -502.180E-03     135.469E-03    -501.823E-03     149.946E-03     6.50209E-03     105.135E-03    -51.3382E-03    -53.8979E-03    -53.8517E-03     105.088E-03    -51.3382E-03    -4.28723E-03    -16.9438E+06    -39.9958E+06    -176.925E+06    -40.3664E+06    -176.555E+06    -16.9438E+06     7.06739E+06         29.3152
             964     6.65318E-03     15.5763E-03     151.839E-03     147.242E-03    -513.882E-03     146.629E-03    -512.593E-03     151.163E-03     31.2118E-03     103.764E-03    -51.0272E-03    -52.8442E-03    -52.7898E-03     103.709E-03    -51.0272E-03    -4.94614E-03    -20.0054E+06    -43.4491E+06    -198.605E+06    -43.7958E+06    -198.258E+06    -20.0054E+06      7.1617E+06         28.7602
             965     5.70408E-03     15.5687E-03     152.740E-03     148.362E-03    -514.982E-03     146.461E-03    -512.282E-03     151.941E-03    -7.54078E-03     102.659E-03    -50.7802E-03    -51.9547E-03    -51.9022E-03     102.607E-03    -50.7802E-03    -4.90038E-03    -26.2168E+06    -48.7874E+06    -214.640E+06    -49.0276E+06    -214.400E+06    -26.2168E+06     6.16663E+06         28.3166
             966     4.75425E-03     15.5608E-03     160.367E-03     144.596E-03    -518.263E-03     147.175E-03    -513.451E-03     152.976E-03     20.4647E-03     101.697E-03    -50.5726E-03    -51.1927E-03    -51.1509E-03     101.655E-03    -50.5726E-03    -4.38482E-03    -34.9986E+06    -54.2012E+06    -221.941E+06    -54.3913E+06    -221.751E+06    -34.9986E+06     5.60873E+06         27.9749
             967     3.80389E-03     15.5551E-03     174.013E-03     146.311E-03    -532.833E-03     162.186E-03    -527.002E-03     152.306E-03     8.91332E-03     101.049E-03    -50.3168E-03    -50.7162E-03    -50.6570E-03     101.017E-03    -50.3442E-03    -3.86320E-03    -45.2460E+06    -59.1085E+06    -229.536E+06    -59.2577E+06    -229.387E+06    -45.2460E+06     4.71354E+06         27.7050
             968     2.85297E-03     15.5502E-03     177.827E-03     144.409E-03    -532.471E-03     169.864E-03    -527.386E-03     147.287E-03    -4.49862E-03     100.673E-03    -50.1724E-03    -50.4846E-03    -50.4165E-03     100.652E-03    -50.2201E-03    -3.05006E-03    -54.9239E+06    -64.1757E+06    -234.582E+06    -64.2408E+06    -234.517E+06    -54.9239E+06     2.44471E+06         27.4826
             969     1.90254E-03     15.5461E-03     160.985E-03     130.470E-03    -496.764E-03     144.152E-03    -492.775E-03     143.314E-03     28.8225E-03     100.353E-03    -50.0765E-03    -50.2784E-03    -50.2287E-03     100.342E-03    -50.1152E-03    -2.30849E-03    -61.0580E+06    -68.2331E+06    -237.247E+06    -68.2438E+06    -237.236E+06    -61.0580E+06     662.941E+03         27.3205
             970     950.920E-06     15.5449E-03     173.186E-03     122.890E-03    -494.231E-03     153.350E-03    -484.362E-03     132.857E-03    -63.7373E-03     100.059E-03    -49.8149E-03    -50.2145E-03    -50.1719E-03     100.054E-03    -49.8523E-03    -1.20044E-03    -69.0986E+06    -73.1087E+06    -239.783E+06    -72.7598E+06    -239.772E+06    -69.4583E+06     31.4273E+03         27.2261
             971     16.1009E-03     14.8048E-03     164.604E-03     149.202E-03    -528.928E-03     163.484E-03    -528.010E-03     149.404E-03     3.69064E-03     117.346E-03    -54.9421E-03    -62.4356E-03    -58.1570E-03     113.068E-03    -54.9421E-03     46.3355E-03     168.783E+06     127.256E+06    -7.70967E+06    -7.70858E+06     168.782E+06     127.256E+06     373.131E+03         44.3110
             972     15.1586E-03     14.7136E-03     152.662E-03     142.345E-03    -507.009E-03     145.310E-03    -506.516E-03     149.204E-03    -13.2425E-03     119.622E-03    -54.5715E-03    -65.1715E-03    -60.1225E-03     114.573E-03    -54.5715E-03     56.9955E-03     166.310E+06     117.250E+06    -15.3652E+06    -15.3608E+06     166.305E+06     117.250E+06     331.979E+03         41.5659
             973     14.2171E-03     14.6674E-03     149.927E-03     134.009E-03    -495.676E-03     133.694E-03    -495.361E-03     149.927E-03    -17.6743E-03     116.906E-03    -53.9104E-03    -63.2567E-03    -60.7410E-03     114.390E-03    -53.9104E-03     41.9035E-03     156.886E+06     76.7758E+06    -22.5424E+06    -22.5301E+06     156.873E+06     76.7758E+06     157.549E+03         38.5324
             974     13.2766E-03     14.6038E-03     157.812E-03     141.313E-03    -511.824E-03     148.165E-03    -511.438E-03     150.573E-03    -17.7579E-03     116.207E-03    -53.0084E-03    -63.3655E-03    -61.3571E-03     114.198E-03    -53.0084E-03     36.0255E-03     132.989E+06     21.7219E+06    -28.0263E+06    -27.9968E+06     132.959E+06     21.7219E+06     340.550E+03         35.9110
             975     12.3372E-03     14.5630E-03     159.578E-03     150.321E-03    -524.120E-03     159.378E-03    -523.920E-03     150.321E-03     14.5958E-03     113.773E-03    -52.2921E-03    -61.5795E-03    -61.0366E-03     113.231E-03    -52.2921E-03     18.2368E-03     58.0869E+06    -3.33520E+06    -30.2705E+06    -30.2139E+06     58.0303E+06    -3.33520E+06     832.418E+03         33.9959
             976     11.3958E-03     14.5336E-03     153.592E-03     147.855E-03    -517.811E-03     150.690E-03    -517.004E-03     149.951E-03    -10.6330E-03     111.699E-03    -51.7292E-03    -60.1052E-03    -59.9907E-03     111.584E-03    -51.7292E-03     5.99474E-03    -6.75429E+06    -18.0237E+06    -48.0640E+06    -31.4489E+06    -31.9771E+06    -9.41606E+06     2.01943E+06         32.6609
             977     10.4535E-03     14.5154E-03     158.625E-03     145.300E-03    -519.190E-03     153.442E-03    -518.481E-03     149.774E-03    -23.0286E-03     109.550E-03    -51.0953E-03    -58.6309E-03    -58.5990E-03     109.518E-03    -51.0953E-03    -2.03671E-03    -12.7282E+06    -32.8890E+06    -88.9052E+06    -33.2317E+06    -88.5625E+06    -12.7282E+06     4.18691E+06         31.5916
             978     9.50986E-03     14.4991E-03     157.562E-03     144.020E-03    -517.572E-03     151.693E-03    -517.223E-03     149.540E-03    -13.9451E-03     107.432E-03    -50.5056E-03    -57.1438E-03    -57.0498E-03     107.338E-03    -50.5056E-03    -6.51813E-03    -12.3531E+06    -35.4864E+06    -130.398E+06    -35.9082E+06    -129.977E+06    -12.3531E+06     6.26980E+06         30.6132
             979     8.56482E-03     14.4871E-03     153.824E-03     142.876E-03    -513.537E-03     146.093E-03    -512.601E-03     149.671E-03    -30.8303E-03     105.032E-03    -49.8177E-03    -55.2986E-03    -55.1228E-03     104.857E-03    -49.8177E-03    -9.80928E-03    -16.7223E+06    -38.9514E+06    -156.850E+06    -39.3579E+06    -156.444E+06    -16.7223E+06     6.80709E+06         29.7479
             980     7.61737E-03     14.4777E-03     153.642E-03     141.472E-03    -511.074E-03     143.989E-03    -510.232E-03     150.283E-03    -22.6394E-03     102.609E-03    -49.1985E-03    -53.4102E-03    -53.1820E-03     102.380E-03    -49.1985E-03    -11.2703E-03    -20.7328E+06    -42.1182E+06    -176.306E+06    -42.4452E+06    -175.979E+06    -20.7328E+06     6.34649E+06         29.0251
             981     6.66836E-03     14.4696E-03     152.931E-03     144.718E-03    -509.645E-03     145.588E-03    -508.652E-03     151.069E-03     13.3362E-03     100.408E-03    -48.7377E-03    -51.7270E-03    -51.4880E-03     100.169E-03    -48.7377E-03    -11.4644E-03    -22.4833E+06    -44.1302E+06    -198.144E+06    -44.5056E+06    -197.769E+06    -22.4833E+06     7.39355E+06         28.4355
             982     5.71788E-03     14.4626E-03     159.711E-03     147.557E-03    -517.650E-03     154.973E-03    -516.492E-03     151.136E-03     1.67486E-03     98.6218E-03    -48.3670E-03    -50.3221E-03    -50.1026E-03     98.4023E-03    -48.3670E-03    -10.8963E-03    -26.7281E+06    -47.6851E+06    -212.404E+06    -48.1234E+06    -211.966E+06    -26.7281E+06     8.39591E+06         27.9616
             983     4.76597E-03     14.4572E-03     175.229E-03     146.196E-03    -532.002E-03     170.770E-03    -529.928E-03     148.581E-03     29.4730E-03     97.3408E-03    -48.0360E-03    -49.3170E-03    -49.1386E-03     97.1624E-03    -48.0360E-03    -9.69530E-03    -34.7021E+06    -53.2677E+06    -219.486E+06    -53.5991E+06    -219.155E+06    -34.7021E+06     7.24165E+06         27.5951
             984     3.81366E-03     14.4514E-03     169.540E-03     141.328E-03    -523.474E-03     165.269E-03    -521.501E-03     143.624E-03     32.8654E-03     96.3544E-03    -47.7028E-03    -48.6234E-03    -48.4998E-03     96.2309E-03    -47.7028E-03    -8.05670E-03    -44.4125E+06    -58.7773E+06    -225.573E+06    -58.9790E+06    -225.372E+06    -44.4125E+06     5.63853E+06         27.3100
             985     2.86146E-03     14.4478E-03     150.543E-03     118.978E-03    -487.967E-03     122.516E-03    -485.523E-03     144.562E-03     19.7720E-03     95.4465E-03    -47.4607E-03    -47.9830E-03    -47.8850E-03     95.3688E-03    -47.4809E-03    -6.33792E-03    -54.7979E+06    -62.9205E+06    -230.833E+06    -63.0579E+06    -230.695E+06    -54.7979E+06     4.08465E+06         27.0755
             986     1.90703E-03     14.4449E-03     164.429E-03     128.504E-03    -511.471E-03     137.538E-03    -507.868E-03     151.792E-03     5.87424E-03     94.7974E-03    -47.2878E-03    -47.4946E-03    -47.3611E-03     94.7572E-03    -47.3811E-03    -4.48507E-03    -61.8409E+06    -67.3907E+06    -235.621E+06    -67.4565E+06    -235.555E+06    -61.8409E+06     2.09249E+06         26.9014
             987     953.819E-06     14.4431E-03     187.852E-03     133.304E-03    -537.807E-03     177.425E-03    -527.381E-03     133.304E-03    -62.1528E-03     94.7300E-03    -47.2874E-03    -47.4186E-03    -47.3120E-03     94.7154E-03    -47.3794E-03    -2.60336E-03     -67.619E+06    -71.3524E+06    -237.991E+06    -70.9987E+06    -237.985E+06    -67.9787E+06     805.888E+03         26.8022
             988     16.1029E-03     13.6812E-03     166.078E-03     147.223E-03    -518.820E-03     159.989E-03    -517.344E-03     151.835E-03     1.11476E-03     120.057E-03    -54.7983E-03    -65.2859E-03    -61.1435E-03     115.915E-03    -54.7983E-03     47.9369E-03     168.944E+06     128.331E+06    -7.24540E+06    -7.24217E+06     168.940E+06     128.331E+06     191.692E+03         44.2765
             989     15.1644E-03     13.5920E-03     161.846E-03     150.230E-03    -521.333E-03     160.019E-03    -520.790E-03     151.515E-03    -22.3769E-03     122.166E-03    -54.2226E-03    -68.0919E-03    -63.4036E-03     117.477E-03    -54.2226E-03     55.4872E-03     166.236E+06     118.428E+06    -15.0442E+06    -15.0366E+06     166.228E+06     118.428E+06     67.4591E+03         41.5402
             990     14.2262E-03     13.5445E-03     163.846E-03     146.039E-03    -520.868E-03     157.964E-03    -520.119E-03     151.172E-03    -28.6348E-03     119.413E-03    -53.3065E-03    -66.4200E-03    -64.2725E-03     117.265E-03    -53.3065E-03     39.4268E-03     157.403E+06     79.9742E+06    -22.6223E+06    -22.6029E+06     157.383E+06     79.9742E+06     68.9400E+03         38.4978
             991     13.2896E-03     13.4819E-03     162.477E-03     140.184E-03    -517.470E-03     150.876E-03    -516.693E-03     151.008E-03    -37.4494E-03     118.056E-03    -52.1244E-03    -66.1872E-03    -64.5700E-03     116.438E-03    -52.1244E-03     32.3062E-03     133.301E+06     23.9740E+06    -26.8057E+06    -26.7849E+06     133.280E+06     23.9740E+06    -452.553E+03         35.8535
             992     12.3514E-03     13.4425E-03     155.522E-03     143.919E-03    -513.480E-03     148.160E-03    -513.359E-03     151.160E-03     2.04682E-03     114.983E-03    -51.1184E-03    -64.0716E-03    -63.7474E-03     114.659E-03    -51.1184E-03     13.1757E-03     57.4314E+06    -3.69927E+06    -29.4103E+06    -29.3570E+06     57.3781E+06    -3.69927E+06     483.278E+03         33.9085
             993     11.4133E-03     13.4155E-03     153.702E-03     148.987E-03    -511.809E-03     150.537E-03    -511.004E-03     151.347E-03    -17.6475E-03     112.477E-03    -50.2242E-03    -62.3736E-03    -62.3021E-03     112.405E-03    -50.2242E-03    -309.933E-06    -6.89091E+06    -18.3877E+06    -47.9279E+06    -31.9288E+06    -32.2418E+06    -9.03586E+06     2.43190E+06         32.5385
             994     10.4728E-03     13.4000E-03     153.809E-03     137.264E-03    -499.833E-03     138.049E-03    -498.856E-03     152.047E-03    -17.1282E-03     109.648E-03    -49.2498E-03    -60.4752E-03    -60.3283E-03     109.501E-03    -49.2498E-03    -9.01727E-03    -13.5922E+06    -34.3727E+06    -90.2116E+06    -34.7732E+06    -89.8111E+06    -13.5922E+06     4.32514E+06         31.4313
             995     9.53091E-03     13.3872E-03     156.067E-03     140.541E-03    -505.982E-03     142.696E-03    -505.298E-03     153.228E-03    -13.9791E-03     106.404E-03    -48.3539E-03    -58.2007E-03    -57.8781E-03     106.082E-03    -48.3539E-03    -13.8463E-03    -12.7294E+06    -36.1836E+06    -130.939E+06    -36.6256E+06    -130.497E+06    -12.7294E+06     6.41737E+06         30.4139
             996     8.58564E-03     13.3793E-03     161.352E-03     153.407E-03    -526.941E-03     160.211E-03    -525.800E-03     153.407E-03    -34.1357E-03     102.965E-03    -47.3887E-03    -55.6158E-03    -55.1240E-03     102.474E-03    -47.3887E-03    -17.1915E-03    -16.9133E+06    -37.3570E+06    -154.530E+06    -37.7685E+06    -154.118E+06    -16.9133E+06     6.70108E+06         29.5034
             997     7.63832E-03     13.3724E-03     158.940E-03     150.470E-03    -520.937E-03     155.487E-03    -519.915E-03     152.901E-03    -13.2478E-03     99.7441E-03    -46.5034E-03    -53.1399E-03    -52.5561E-03     99.1604E-03    -46.5034E-03    -18.4791E-03    -21.3185E+06    -39.7885E+06    -175.904E+06    -40.1654E+06    -175.528E+06    -21.3185E+06     6.67318E+06         28.7282
             998     6.68838E-03     13.3679E-03     162.627E-03     149.786E-03    -518.617E-03     159.878E-03    -518.298E-03     152.216E-03    -5.07383E-03     96.6404E-03    -45.8081E-03    -50.7919E-03    -50.1915E-03     96.0400E-03    -45.8081E-03    -18.4000E-03    -23.4772E+06    -43.8756E+06    -198.259E+06    -44.3488E+06    -197.785E+06    -23.4772E+06     8.21891E+06         28.0921
             999     5.73593E-03     13.3631E-03     177.897E-03     149.309E-03    -533.530E-03     177.833E-03    -533.465E-03     149.309E-03    -10.5612E-03     93.9042E-03    -45.2018E-03    -48.7279E-03    -48.1826E-03     93.3589E-03    -45.2018E-03    -17.2302E-03    -28.6076E+06    -47.7408E+06    -210.253E+06    -48.2300E+06    -209.764E+06    -28.6076E+06     8.87379E+06         27.5766
            1000     4.78247E-03     13.3588E-03     175.911E-03     140.984E-03    -525.609E-03     172.312E-03    -525.144E-03     144.118E-03     13.4011E-03     91.7286E-03    -44.6830E-03    -47.0443E-03    -46.6108E-03     91.2950E-03    -44.6830E-03    -15.1426E-03    -34.0686E+06    -51.0419E+06    -216.622E+06    -51.4944E+06    -216.170E+06    -34.0686E+06     8.58503E+06         27.1654
            1001     3.82748E-03     13.3554E-03     153.870E-03     129.814E-03    -495.611E-03     142.084E-03    -495.198E-03     141.188E-03     21.0058E-03     89.9036E-03    -44.2435E-03    -45.6608E-03    -45.3622E-03     89.6050E-03    -44.2435E-03    -12.3702E-03    -43.1533E+06    -55.4675E+06    -221.730E+06    -55.8086E+06    -221.389E+06    -43.1533E+06     7.20369E+06         26.8440
            1002     2.87079E-03     13.3518E-03     149.826E-03     116.496E-03    -483.220E-03     120.808E-03    -482.852E-03     145.146E-03     13.2766E-03     88.6832E-03    -43.9335E-03    -44.7351E-03    -44.5492E-03     88.4973E-03    -43.9335E-03    -9.66228E-03    -52.4829E+06    -60.3644E+06    -226.827E+06    -60.5572E+06    -226.634E+06    -52.4829E+06     5.25114E+06         26.5886
            1003     1.91499E-03     13.3498E-03     170.878E-03     118.591E-03    -509.519E-03     131.414E-03    -506.610E-03     155.146E-03    -45.2683E-03     87.8385E-03    -43.6913E-03    -44.1099E-03    -43.9605E-03     87.7438E-03    -43.7459E-03    -6.72456E-03    -56.2215E+06    -64.1434E+06    -231.100E+06    -64.2598E+06    -230.983E+06    -56.2215E+06     3.67749E+06         26.3980
            1004     956.906E-06     13.3489E-03     184.706E-03     141.882E-03    -549.462E-03     161.452E-03    -545.054E-03     160.728E-03    -27.7364E-03     87.3431E-03    -43.5492E-03    -43.7787E-03    -43.6955E-03     87.3145E-03    -43.6039E-03    -3.48939E-03    -63.9327E+06    -69.4273E+06    -236.287E+06    -68.2455E+06    -236.243E+06    -65.1591E+06     1.32275E+06         26.2808
            1005     16.1074E-03     12.5545E-03     154.476E-03     136.800E-03    -498.532E-03     137.400E-03    -497.233E-03     152.577E-03     36.3123E-03     123.337E-03    -54.5956E-03    -68.7794E-03    -64.7277E-03     119.285E-03    -54.5956E-03     49.4254E-03     168.961E+06     129.150E+06    -7.15741E+06    -7.15305E+06     168.957E+06     129.150E+06    -128.324E+03         44.2523
            1006     15.1708E-03     12.4630E-03     161.969E-03     146.943E-03    -524.210E-03     155.653E-03    -523.833E-03     152.882E-03     13.8748E-03     125.141E-03    -53.7893E-03    -71.5380E-03    -67.1063E-03     120.710E-03    -53.7893E-03     54.7206E-03     166.355E+06     119.775E+06    -14.7241E+06    -14.6983E+06     166.329E+06     119.775E+06    -600.216E+03         41.5321
            1007     14.2369E-03     12.4151E-03     167.251E-03     151.339E-03    -534.004E-03     165.426E-03    -533.204E-03     152.363E-03    -9.12245E-03     122.087E-03    -52.5955E-03    -69.8377E-03    -67.9519E-03     120.201E-03    -52.5955E-03     37.6278E-03     158.438E+06     82.2463E+06    -20.8171E+06    -20.7834E+06     158.405E+06     82.2463E+06    -1.36326E+06         38.4835
            1008     13.3031E-03     12.3545E-03     159.815E-03     141.222E-03    -514.707E-03     148.342E-03    -514.127E-03     152.115E-03    -24.5739E-03     120.178E-03    -51.1064E-03    -69.3318E-03    -67.9918E-03     118.838E-03    -51.1064E-03     29.4452E-03     132.433E+06     25.1050E+06    -24.8385E+06    -24.8220E+06     132.416E+06     25.1050E+06    -1.17218E+06         35.8197
            1009     12.3695E-03     12.3177E-03     152.712E-03     141.967E-03    -505.033E-03     141.875E-03    -504.941E-03     152.712E-03    -8.64383E-03     116.760E-03    -49.7621E-03    -67.2308E-03    -67.0249E-03     116.554E-03    -49.7621E-03     9.04250E-03     56.2766E+06    -3.85703E+06    -27.8996E+06    -27.6473E+06     56.0243E+06    -3.85703E+06     1.37146E+06         33.8534
            1010     11.4334E-03     12.2948E-03     154.906E-03     151.803E-03    -513.431E-03     153.412E-03    -513.277E-03     153.144E-03    -7.73881E-03     113.572E-03    -48.4986E-03    -65.1846E-03    -65.0775E-03     113.465E-03    -48.4986E-03    -5.57092E-03    -4.79144E+06    -18.2982E+06    -47.5548E+06    -31.0884E+06    -31.8861E+06    -7.66990E+06     4.04172E+06         32.4557
            1011     10.4960E-03     12.2828E-03     161.845E-03     142.488E-03    -511.197E-03     150.745E-03    -510.870E-03     153.260E-03     13.2418E-03     109.688E-03    -47.1588E-03    -62.5555E-03    -62.2124E-03     109.344E-03    -47.1588E-03    -14.8408E-03    -12.5016E+06    -33.8184E+06    -90.9010E+06    -34.4023E+06    -90.3171E+06    -12.5016E+06     5.37434E+06         31.3142
            1012     9.55452E-03     12.2754E-03     162.497E-03     143.146E-03    -515.106E-03     151.828E-03    -514.745E-03     153.455E-03     7.09778E-03     105.356E-03    -45.9102E-03    -59.5456E-03    -58.9063E-03     104.717E-03    -45.9102E-03    -20.1209E-03    -13.8654E+06    -36.0765E+06    -130.028E+06    -36.4481E+06    -129.656E+06    -13.8654E+06     5.38512E+06         30.2585
            1013     8.61036E-03     12.2713E-03     157.649E-03     147.662E-03    -516.394E-03     150.926E-03    -515.691E-03     153.682E-03     18.7822E-03     100.914E-03    -44.6267E-03    -56.3109E-03    -55.3949E-03     99.9977E-03    -44.6267E-03    -23.6711E-03    -17.1491E+06    -37.7111E+06    -153.319E+06    -38.0379E+06    -152.993E+06    -17.1491E+06     5.59823E+06         29.3029
            1014     7.66243E-03     12.2703E-03     161.912E-03     147.737E-03    -519.058E-03     154.903E-03    -518.069E-03     153.757E-03     21.1794E-03     96.6772E-03    -43.4217E-03    -53.1159E-03    -52.0580E-03     95.6192E-03    -43.4217E-03    -24.8734E-03    -20.5282E+06    -40.0135E+06    -176.387E+06    -40.4894E+06    -175.911E+06    -20.5282E+06     7.74968E+06         28.4705
            1015     6.71178E-03     12.2693E-03     171.636E-03     152.340E-03    -531.376E-03     171.229E-03    -530.969E-03     152.340E-03    -1.69239E-03     92.6022E-03    -42.4238E-03    -50.0538E-03    -48.9901E-03     91.5385E-03    -42.4238E-03    -24.3591E-03    -22.1083E+06    -43.2462E+06    -197.736E+06    -43.8377E+06    -197.145E+06    -22.1083E+06     9.46674E+06         27.7720
            1016     5.75847E-03     12.2691E-03     174.830E-03     142.467E-03    -525.139E-03     167.021E-03    -524.407E-03     149.545E-03    -22.5742E-03     88.6349E-03    -41.5187E-03    -47.0976E-03    -46.1488E-03     87.6861E-03    -41.5187E-03    -22.4380E-03    -29.1074E+06    -46.4778E+06    -207.282E+06    -47.0164E+06    -206.743E+06    -29.1074E+06     9.21858E+06         27.1974
            1017     4.80195E-03     12.2667E-03     160.866E-03     133.237E-03    -503.959E-03     144.700E-03    -503.025E-03     148.468E-03    -10.6883E-03     85.2084E-03    -40.7561E-03    -44.4349E-03    -43.6806E-03     84.4541E-03    -40.7561E-03    -19.5205E-03    -36.5291E+06    -49.6377E+06    -213.858E+06    -50.0543E+06    -213.442E+06    -36.5291E+06     8.08353E+06         26.7284
            1018     3.84331E-03     12.2663E-03     150.806E-03     135.839E-03    -497.782E-03     135.152E-03    -497.094E-03     150.806E-03    -2.67883E-03     82.5212E-03    -40.1660E-03    -42.3408E-03    -41.8077E-03     81.9881E-03    -40.1660E-03    -16.0286E-03    -39.1123E+06    -51.5056E+06    -218.969E+06    -51.8832E+06    -218.592E+06    -39.1123E+06     7.81047E+06         26.3580
            1019     2.88389E-03     12.2636E-03     172.469E-03     143.795E-03    -531.008E-03     163.618E-03    -528.969E-03     150.608E-03    -33.5053E-03     80.7025E-03    -39.7304E-03    -40.9481E-03    -40.6167E-03     80.3711E-03    -39.7304E-03    -12.4631E-03    -44.6295E+06    -54.5194E+06    -221.883E+06    -54.7734E+06    -221.629E+06    -44.6295E+06     6.15828E+06         26.0738
            1020     1.92252E-03     12.2635E-03     181.777E-03     128.091E-03    -522.772E-03     161.099E-03    -518.239E-03     144.236E-03    -5.31421E-03     79.5336E-03    -39.3913E-03    -40.1104E-03    -39.9352E-03     79.3584E-03    -39.3913E-03    -8.79379E-03    -51.3517E+06     -58.874E+06    -226.334E+06    -58.9861E+06    -226.222E+06    -51.3517E+06     4.03665E+06         25.8607
            1021     962.256E-06     12.2623E-03     180.542E-03     107.768E-03    -494.936E-03     115.191E-03    -486.679E-03     164.862E-03    -42.4005E-03     78.4615E-03    -39.0475E-03    -39.3959E-03    -39.3387E-03     78.4043E-03    -39.0475E-03    -4.64132E-03    -58.9404E+06    -65.2930E+06     -232.21E+06    -64.1718E+06    -232.105E+06    -60.1668E+06     3.21168E+06         25.7161
            1022     16.1103E-03     11.4253E-03     151.043E-03     136.232E-03    -504.031E-03     135.320E-03    -503.118E-03     151.043E-03     24.9446E-03     127.054E-03    -54.3467E-03    -72.7303E-03    -68.7461E-03     123.070E-03    -54.3467E-03     50.9044E-03     169.659E+06     130.521E+06    -7.10830E+06    -7.08558E+06     169.637E+06     130.521E+06    -985.385E+03         44.2249
            1023     15.1794E-03     11.3339E-03     153.965E-03     138.203E-03    -508.474E-03     139.922E-03    -507.979E-03     151.751E-03     9.75648E-03     128.038E-03    -53.2987E-03    -74.9267E-03    -70.6926E-03     123.804E-03    -53.2987E-03     54.3665E-03     166.964E+06     121.149E+06    -14.0773E+06    -14.0296E+06     166.916E+06     121.149E+06    -2.29209E+06         41.5259
            1024     14.2478E-03     11.2862E-03     154.559E-03     141.016E-03    -509.225E-03     142.974E-03    -508.970E-03     152.345E-03     14.5506E-03     124.544E-03    -51.8250E-03    -73.0683E-03    -71.3538E-03     122.829E-03    -51.8250E-03     36.5090E-03     157.963E+06     80.6578E+06    -20.2528E+06    -20.2215E+06     157.931E+06     80.6578E+06    -2.13070E+06         38.4753
            1025     13.3177E-03     11.2282E-03     155.413E-03     144.711E-03    -512.006E-03     147.244E-03    -511.956E-03     152.831E-03     5.65604E-03     122.449E-03    -50.0222E-03    -72.6868E-03    -71.5313E-03     121.293E-03    -50.0222E-03     27.4085E-03     131.039E+06     21.9503E+06    -26.5250E+06    -26.4955E+06     131.009E+06     21.9503E+06    -270.739E+03         35.8004
            1026     12.3864E-03     11.1932E-03     155.752E-03     147.064E-03    -516.069E-03     149.235E-03    -515.658E-03     153.170E-03     11.0833E-03     118.634E-03    -48.3507E-03    -70.5269E-03    -70.3661E-03     118.474E-03    -48.3507E-03     5.85254E-03     55.0442E+06    -6.09212E+06    -30.4550E+06    -30.1952E+06     54.7844E+06    -6.09212E+06     1.74339E+06         33.8248
            1027     11.4545E-03     11.1757E-03     153.609E-03     146.764E-03    -509.429E-03     146.319E-03    -508.984E-03     153.609E-03     15.4712E-03     114.485E-03    -46.7510E-03    -67.8612E-03    -67.6752E-03     114.299E-03    -46.7510E-03    -9.55431E-03    -3.96977E+06    -18.7234E+06    -49.2036E+06    -31.4228E+06    -33.1630E+06    -7.31096E+06     4.57200E+06         32.4118
            1028     10.5181E-03     11.1694E-03     166.820E-03     149.853E-03    -525.002E-03     162.848E-03    -524.663E-03     153.486E-03    -2.55887E-03     109.676E-03    -45.0706E-03    -64.6175E-03    -64.0776E-03     109.136E-03    -45.0706E-03    -18.9405E-03    -9.00455E+06    -32.0135E+06    -88.9572E+06    -32.8244E+06    -88.1463E+06    -9.00455E+06     5.61505E+06         31.2484
            1029     9.57911E-03     11.1672E-03     167.743E-03     152.319E-03    -532.756E-03     167.462E-03    -532.475E-03     152.319E-03    -10.2582E-03     104.460E-03    -43.4716E-03    -61.0375E-03    -60.1055E-03     103.528E-03    -43.4716E-03    -24.5183E-03    -10.8280E+06    -34.6870E+06    -127.916E+06    -35.0050E+06    -127.598E+06    -10.8280E+06     4.79024E+06         30.1646
            1030     8.63549E-03     11.1701E-03     154.121E-03     141.960E-03    -510.969E-03     143.551E-03    -510.469E-03     152.031E-03     14.2379E-03     98.9510E-03    -41.8463E-03    -57.0971E-03    -55.8426E-03     97.6965E-03    -41.8463E-03    -27.7773E-03    -14.2924E+06    -37.4827E+06    -154.328E+06    -37.8175E+06    -153.993E+06    -14.2924E+06     5.77918E+06         29.1735
            1031     7.68815E-03     11.1739E-03     158.939E-03     142.726E-03    -518.383E-03     147.817E-03    -517.332E-03     152.797E-03    -14.6441E-03     93.5869E-03    -40.2921E-03    -53.1835E-03    -51.7586E-03     92.1620E-03    -40.2921E-03    -28.7373E-03    -18.2697E+06    -39.6609E+06    -176.682E+06    -40.1043E+06    -176.238E+06    -18.2697E+06     7.60481E+06         28.2942
            1032     6.73632E-03     11.1787E-03     163.851E-03     151.109E-03    -527.760E-03     161.793E-03    -527.030E-03     152.437E-03    -14.0524E-03     88.3149E-03    -38.9742E-03    -49.2541E-03    -47.8192E-03     86.8800E-03    -38.9742E-03    -27.9080E-03    -20.1083E+06    -41.9171E+06    -196.902E+06    -42.4285E+06    -196.391E+06    -20.1083E+06     8.80726E+06         27.5319
            1033     5.78083E-03     11.1820E-03     158.127E-03     135.311E-03    -503.393E-03     139.736E-03    -502.546E-03     152.855E-03    -5.03166E-03     83.2408E-03    -37.7573E-03    -45.4539E-03    -44.1624E-03     81.9493E-03    -37.7573E-03    -25.5842E-03    -24.1824E+06    -44.4136E+06    -204.612E+06    -44.9355E+06    -204.090E+06    -24.1824E+06     9.05144E+06         26.8880
            1034     4.82223E-03     11.1857E-03     156.675E-03     130.138E-03    -498.630E-03     129.155E-03    -497.647E-03     156.675E-03     1.27320E-03     78.7840E-03    -36.6908E-03    -42.0757E-03    -41.0336E-03     77.7419E-03    -36.6908E-03    -22.2501E-03    -30.8973E+06    -46.8264E+06    -209.695E+06    -47.2336E+06    -209.288E+06    -30.8973E+06     7.97884E+06         26.3614
            1035     3.86095E-03     11.1865E-03     172.827E-03     148.023E-03    -536.636E-03     160.853E-03    -535.854E-03     159.214E-03     2.32288E-03     75.1031E-03    -35.8491E-03    -39.2548E-03    -38.4991E-03     74.3475E-03    -35.8491E-03    -18.3932E-03    -36.9218E+06    -50.0925E+06    -216.121E+06    -50.3573E+06    -215.857E+06    -36.9218E+06     6.27636E+06         25.9474
            1036     2.89700E-03     11.1875E-03     185.654E-03     151.670E-03    -553.478E-03     179.896E-03    -550.909E-03     154.859E-03    -25.1558E-03     72.3089E-03    -35.2261E-03    -37.0852E-03    -36.6063E-03     71.8299E-03    -35.2261E-03    -14.2417E-03    -42.6139E+06    -52.2586E+06    -217.950E+06    -52.4799E+06    -217.729E+06    -42.6139E+06     5.80596E+06         25.6301
            1037     1.93275E-03     11.1866E-03     189.221E-03     137.662E-03    -531.899E-03     182.895E-03    -527.894E-03     139.982E-03     20.5861E-03     70.4390E-03    -34.7860E-03    -35.6479E-03    -35.4074E-03     70.1985E-03    -34.7860E-03    -9.83882E-03    -49.4791E+06    -55.6338E+06    -222.226E+06    -55.7840E+06    -222.076E+06    -49.4791E+06      4.7036E+06         25.3933
            1038     966.494E-06     11.1883E-03     185.561E-03     80.3960E-03    -466.198E-03     139.897E-03    -458.781E-03     118.645E-03    -31.4134E-03     69.2309E-03    -34.3129E-03    -34.9084E-03    -34.8265E-03     69.1491E-03    -34.3129E-03    -5.39919E-03    -54.3540E+06    -59.7258E+06    -227.086E+06    -58.6143E+06    -226.994E+06    -55.5574E+06     2.86301E+06         25.2373
            1039     16.1163E-03     10.2897E-03     157.567E-03     147.825E-03    -520.028E-03     152.267E-03    -518.373E-03     151.470E-03    -31.4353E-03     130.765E-03    -54.0891E-03    -76.6990E-03    -72.8132E-03     126.879E-03    -54.0891E-03     51.7926E-03     171.423E+06     132.650E+06    -6.79505E+06    -6.74409E+06     171.372E+06     132.650E+06    -2.54550E+06         44.1737
            1040     15.1863E-03     10.1987E-03     155.262E-03     140.470E-03    -508.045E-03     142.959E-03    -507.123E-03     151.851E-03    -37.9796E-03     130.778E-03    -52.8086E-03    -78.1088E-03    -74.0441E-03     126.713E-03    -52.8086E-03     54.1902E-03     167.769E+06     122.538E+06    -14.0103E+06    -13.9618E+06     167.720E+06     122.538E+06    -2.78125E+06         41.4957
            1041     14.2584E-03     10.1514E-03     155.472E-03     138.510E-03    -508.145E-03     141.089E-03    -507.841E-03     152.588E-03    -14.8481E-03     127.026E-03    -51.0834E-03    -76.2509E-03    -74.6630E-03     125.438E-03    -51.0834E-03     35.7020E-03     154.708E+06     79.5474E+06    -23.8585E+06    -23.8215E+06     154.671E+06     79.5474E+06    -220.459E+03         38.4507
            1042     13.3311E-03     10.0951E-03     159.534E-03     148.721E-03    -519.437E-03     155.003E-03    -519.107E-03     152.923E-03    -11.2200E-03     124.319E-03    -49.0138E-03    -75.5926E-03    -74.5897E-03     123.316E-03    -49.0138E-03     25.5355E-03     131.009E+06      21.299E+06    -30.8552E+06    -30.8060E+06     130.960E+06      21.299E+06     1.16997E+06         35.7767
            1043     12.4041E-03     10.0632E-03     156.583E-03     149.524E-03    -514.514E-03     152.821E-03    -514.083E-03     152.856E-03     17.9508E-03     119.592E-03    -47.0584E-03    -72.8096E-03    -72.6723E-03     119.455E-03    -47.0584E-03     3.45687E-03     55.0492E+06    -6.62451E+06    -33.7692E+06    -33.6718E+06     54.9517E+06    -6.62451E+06     1.24094E+06         33.8081
            1044     11.4731E-03     10.0524E-03     153.330E-03     146.628E-03    -509.158E-03     146.308E-03    -508.636E-03     153.129E-03     14.7225E-03     114.680E-03    -45.1896E-03    -69.6207E-03    -69.3939E-03     114.454E-03    -45.1896E-03    -11.6121E-03    -7.28147E+06    -20.3110E+06    -50.3298E+06    -34.1758E+06    -34.9390E+06    -8.80752E+06     2.38212E+06         32.3976
            1045     10.5393E-03     10.0520E-03     160.417E-03     140.685E-03    -512.955E-03     146.840E-03    -512.396E-03     153.705E-03    -27.3572E-03     109.217E-03    -43.2610E-03    -65.9289E-03    -65.3283E-03     108.616E-03    -43.2610E-03    -20.1258E-03    -7.48280E+06    -32.8176E+06    -87.1804E+06    -33.4271E+06    -86.5709E+06    -7.48280E+06     3.66137E+06         31.2291
            1046     9.60073E-03     10.0575E-03     162.722E-03     140.090E-03    -515.815E-03     148.082E-03    -515.381E-03     154.295E-03    -27.6569E-03     103.196E-03    -41.3783E-03    -61.8103E-03    -60.8246E-03     102.211E-03    -41.3783E-03    -25.2554E-03    -6.89246E+06    -34.1804E+06    -126.750E+06    -34.4451E+06    -126.485E+06    -6.89246E+06     4.53312E+06         30.1380
            1047     8.65772E-03     10.0680E-03     164.639E-03     146.078E-03    -525.021E-03     155.802E-03    -524.590E-03     154.484E-03    -25.5204E-03     96.8847E-03    -39.4677E-03    -57.3846E-03    -56.1268E-03     95.6269E-03    -39.4677E-03    -27.6850E-03    -10.4459E+06    -35.9012E+06    -154.537E+06    -36.1528E+06    -154.285E+06    -10.4459E+06     5.20575E+06         29.1344
            1048     7.70972E-03     10.0787E-03     163.064E-03     149.688E-03    -525.399E-03     157.497E-03    -524.300E-03     154.157E-03    -51.0234E-03     90.7259E-03    -37.6331E-03    -53.0119E-03    -51.6031E-03     89.3171E-03    -37.6331E-03    -28.2740E-03    -12.8777E+06    -37.9859E+06    -177.273E+06    -38.3166E+06    -176.942E+06    -12.8777E+06     6.67583E+06         28.2311
            1049     6.75790E-03     10.0898E-03     155.241E-03     145.649E-03    -511.808E-03     145.253E-03    -510.745E-03     154.574E-03    -9.51616E-03     84.6453E-03    -36.0411E-03    -48.5400E-03    -47.0938E-03     83.1991E-03    -36.0411E-03    -27.5864E-03    -13.3706E+06    -40.8049E+06    -195.350E+06    -41.1994E+06    -194.956E+06    -13.3706E+06     7.73756E+06         27.4293
            1050     5.80108E-03     10.1000E-03     156.729E-03     138.625E-03    -506.987E-03     138.238E-03    -506.601E-03     156.729E-03     17.7810E-03     78.6980E-03    -34.5614E-03    -44.0889E-03    -42.7681E-03     77.3772E-03    -34.5614E-03    -25.3147E-03    -15.1773E+06    -43.7568E+06    -202.510E+06    -44.0737E+06    -202.193E+06    -15.1773E+06     6.92320E+06         26.7383
            1051     4.84066E-03     10.1077E-03     164.363E-03     144.333E-03    -523.022E-03     149.238E-03    -522.797E-03     159.233E-03    -984.005E-06     73.3364E-03    -33.1877E-03    -40.1337E-03    -39.0601E-03     72.2628E-03    -33.1877E-03    -21.9325E-03    -22.1374E+06    -45.9561E+06    -206.471E+06    -46.2584E+06    -206.169E+06    -22.1374E+06     6.75241E+06         26.1737
            1052     3.87677E-03     10.1138E-03     179.598E-03     152.974E-03    -547.978E-03     173.971E-03    -547.653E-03     158.275E-03    -6.94227E-03     68.6652E-03    -32.0458E-03    -36.6162E-03    -35.8268E-03     67.8758E-03    -32.0458E-03    -18.1174E-03    -34.3432E+06    -48.6586E+06    -212.246E+06    -48.9326E+06    -211.972E+06    -34.3432E+06     6.35219E+06         25.7324
            1053     2.91054E-03     10.1174E-03     171.087E-03     148.378E-03    -532.657E-03     163.461E-03    -531.547E-03     154.893E-03     21.9407E-03     64.8419E-03    -31.2074E-03    -33.6188E-03    -33.1189E-03     64.3420E-03    -31.2074E-03    -13.8492E-03    -42.7210E+06    -52.4586E+06    -215.348E+06    -52.6332E+06    -215.173E+06    -42.7210E+06     4.51650E+06         25.3958
            1054     1.94060E-03     10.1202E-03     173.091E-03     129.152E-03    -514.327E-03     143.579E-03    -512.376E-03     156.714E-03     723.790E-06     62.2611E-03    -30.6738E-03    -31.5775E-03    -31.3344E-03     62.0180E-03    -30.6738E-03    -9.32995E-03    -45.1593E+06    -54.0579E+06    -218.133E+06    -54.1516E+06    -218.040E+06    -45.1593E+06     2.90507E+06         25.1527
            1055     970.470E-06     10.1209E-03     203.094E-03     121.752E-03    -523.781E-03     168.071E-03    -518.864E-03     151.858E-03     13.2202E-03     60.9576E-03    -30.1640E-03    -30.7871E-03    -30.5829E-03     60.8732E-03    -30.2838E-03    -5.19486E-03    -50.3103E+06    -56.9469E+06    -222.999E+06    -55.7778E+06    -222.965E+06    -51.5136E+06     1.24377E+06         25.0023
            1056     16.1187E-03     9.15160E-03     163.599E-03     153.776E-03    -522.702E-03     162.284E-03    -521.387E-03     153.776E-03    -18.8167E-03     134.081E-03    -53.8874E-03    -80.2482E-03    -76.3227E-03     130.155E-03    -53.8874E-03     53.3593E-03     172.305E+06     133.333E+06    -7.78646E+06    -7.70803E+06     172.226E+06     133.333E+06    -3.34636E+06         44.0786
            1057     15.1940E-03     9.06165E-03     158.397E-03     149.861E-03    -519.046E-03     153.686E-03    -518.108E-03     153.634E-03    -17.0742E-03     133.861E-03    -52.3716E-03    -81.5635E-03    -77.5073E-03     129.805E-03    -52.3716E-03     55.0999E-03     165.256E+06     121.562E+06    -16.9554E+06    -16.8520E+06     165.153E+06     121.562E+06    -1.41480E+06         41.4188
            1058     14.2689E-03     9.01490E-03     157.213E-03     145.871E-03    -514.309E-03     148.810E-03    -513.914E-03     153.880E-03    -27.7750E-03     129.275E-03    -50.4286E-03    -79.0514E-03    -77.4661E-03     127.689E-03    -50.4286E-03     36.1442E-03     153.608E+06     82.4366E+06    -26.2078E+06    -26.1398E+06     153.540E+06     82.4366E+06     1.51796E+06         38.3877
            1059     13.3451E-03     8.96096E-03     158.359E-03     144.597E-03    -512.209E-03     148.079E-03    -511.661E-03     154.330E-03    -36.8838E-03     125.013E-03    -48.2053E-03    -77.0603E-03    -76.0671E-03     124.020E-03    -48.2053E-03     25.7510E-03     131.844E+06     24.9093E+06    -31.6921E+06    -31.6307E+06     131.783E+06     24.9093E+06     1.27710E+06         35.7242
            1060     12.4171E-03     8.93516E-03     157.767E-03     148.515E-03    -515.461E-03     151.088E-03    -515.010E-03     154.742E-03    -21.9530E-03     119.076E-03    -46.1125E-03    -73.2333E-03    -73.0951E-03     118.938E-03    -46.1125E-03     4.25866E-03     56.6382E+06     -3.9672E+06    -34.2427E+06    -34.1007E+06     56.4163E+06    -3.88729E+06     959.210E+03         33.7684
            1061     11.4872E-03     8.93176E-03     160.968E-03     153.970E-03    -524.697E-03     159.495E-03    -523.954E-03     154.700E-03    -31.6617E-03     113.420E-03    -44.1264E-03    -69.4299E-03    -69.2762E-03     113.266E-03    -44.1264E-03    -9.30554E-03    -6.70561E+06    -20.0648E+06    -50.2657E+06    -35.5756E+06    -34.2940E+06    -7.16645E+06     194.123E+03         32.3774
            1062     10.5527E-03     8.93863E-03     159.605E-03     144.894E-03    -515.669E-03     149.114E-03    -515.028E-03     154.744E-03    -30.0314E-03     107.485E-03    -42.1160E-03    -65.3793E-03    -64.9785E-03     107.084E-03    -42.1160E-03    -15.9993E-03    -6.35011E+06    -36.7328E+06    -87.8884E+06    -36.8914E+06    -87.7298E+06    -6.35011E+06     925.932E+03         31.2365
            1063     9.61404E-03     8.95272E-03     158.479E-03     141.362E-03    -512.931E-03     144.022E-03    -512.680E-03     155.567E-03    -3.22451E-03     101.321E-03    -40.1480E-03    -61.1658E-03    -60.5202E-03     100.676E-03    -40.1480E-03    -19.8991E-03    -1.76463E+06    -36.9721E+06    -126.475E+06    -37.1210E+06    -126.326E+06    -1.76463E+06     2.03646E+06         30.1770
            1064     8.67068E-03     8.97097E-03     169.089E-03     151.463E-03    -531.623E-03     162.475E-03    -529.364E-03     155.818E-03     20.0064E-03     94.9121E-03    -38.1710E-03    -56.7555E-03    -55.9441E-03     94.1007E-03    -38.1710E-03    -21.6133E-03    -3.37272E+06    -37.7828E+06    -154.756E+06    -37.8805E+06    -154.659E+06    -3.37272E+06     2.96721E+06         29.2006
            1065     7.72299E-03     8.98934E-03     166.102E-03     150.978E-03    -527.470E-03     159.226E-03    -524.888E-03     155.271E-03     2.75410E-03     88.5323E-03    -36.2407E-03    -52.2648E-03    -51.3707E-03     87.6382E-03    -36.2407E-03    -21.8125E-03    -4.23423E+06    -39.1706E+06    -178.832E+06    -39.3596E+06    -178.643E+06    -4.23423E+06     4.80709E+06         28.3113
            1066     6.77028E-03     9.00840E-03     156.226E-03     141.098E-03    -506.850E-03     139.620E-03    -505.373E-03     156.226E-03     18.3624E-03     82.3107E-03    -34.4410E-03    -47.7848E-03    -46.8677E-03     81.3936E-03    -34.4410E-03    -21.2067E-03    -5.39986E+06    -41.2827E+06    -193.527E+06    -41.5060E+06    -193.304E+06    -5.39986E+06     5.64168E+06         27.5113
            1067     5.81372E-03     9.02514E-03     160.679E-03     146.955E-03    -516.998E-03     147.990E-03    -515.604E-03     158.251E-03     14.6693E-03     76.0144E-03    -32.7409E-03    -43.2300E-03    -42.3878E-03     75.1721E-03    -32.7409E-03    -19.4835E-03    -9.27506E+06    -44.4049E+06    -199.177E+06    -44.5543E+06    -199.028E+06    -9.27506E+06     4.47445E+06         26.8177
            1068     4.85207E-03     9.03931E-03     176.081E-03     156.902E-03    -542.106E-03     175.049E-03    -541.536E-03     157.362E-03    -15.5311E-03     69.9783E-03    -31.1650E-03    -38.8048E-03    -38.1173E-03     69.2908E-03    -31.1650E-03    -16.8181E-03    -17.5171E+06    -47.7538E+06    -205.312E+06    -47.8482E+06    -205.217E+06    -17.5171E+06     3.42712E+06         26.2490
            1069     3.88711E-03     9.04928E-03     173.298E-03     145.779E-03    -528.350E-03     164.222E-03    -527.923E-03     154.428E-03     923.321E-06     64.7145E-03    -29.8191E-03    -34.8843E-03    -34.3708E-03     64.2009E-03    -29.8191E-03    -13.9369E-03    -27.8718E+06    -48.9405E+06    -209.450E+06    -49.0940E+06    -209.296E+06    -27.8718E+06     3.27846E+06         25.8035
            1070     2.91781E-03     9.05864E-03     159.006E-03     136.746E-03    -510.925E-03     137.273E-03    -508.872E-03     156.426E-03     38.0457E-03     60.4173E-03    -28.7506E-03    -31.6445E-03    -31.3143E-03     60.0871E-03    -28.7506E-03    -10.7395E-03    -35.3210E+06    -48.3029E+06    -211.538E+06    -48.4049E+06    -211.436E+06    -35.3210E+06     1.99861E+06         25.4680
            1071     1.94710E-03     9.06304E-03     169.957E-03     131.469E-03    -515.848E-03     128.572E-03    -512.951E-03     169.957E-03     8.05620E-03     57.2111E-03    -28.0007E-03    -29.2123E-03    -29.0491E-03     57.0479E-03    -28.0007E-03    -7.17734E-03    -39.9497E+06    -50.5719E+06    -216.045E+06    -50.5756E+06    -216.041E+06    -39.9497E+06     704.629E+03         25.2322
            1072     973.995E-06     9.06530E-03     226.766E-03     138.751E-03    -579.123E-03     133.837E-03    -574.208E-03     226.766E-03     11.3626E-03     55.3572E-03    -27.4497E-03    -27.9118E-03    -27.7356E-03     55.3008E-03    -27.5694E-03    -3.97607E-03    -48.7840E+06    -56.7497E+06    -221.532E+06    -56.2046E+06    -221.522E+06    -49.3398E+06     146.924E+03         25.0898
            1073     16.1212E-03     8.01003E-03     157.651E-03     147.936E-03    -503.157E-03     151.354E-03    -502.848E-03     153.924E-03     24.8659E-03     137.630E-03    -53.8390E-03    -83.8301E-03    -79.6226E-03     133.423E-03    -53.8390E-03     55.9531E-03     171.959E+06     133.505E+06    -9.06181E+06    -8.96920E+06     171.866E+06     133.505E+06    -1.22877E+06         43.9271
            1074     15.1976E-03     7.92073E-03     155.351E-03     150.725E-03    -504.937E-03     151.716E-03    -504.576E-03     153.999E-03     24.4704E-03     136.305E-03    -52.1331E-03    -84.2466E-03    -79.8396E-03     131.898E-03    -52.1331E-03     58.3073E-03     162.658E+06     120.491E+06    -20.7860E+06    -20.6358E+06     162.508E+06     120.491E+06    -197.719E+03         41.2807
            1075     14.2764E-03     7.87680E-03     154.954E-03     139.903E-03    -497.630E-03     140.084E-03    -497.362E-03     154.505E-03    -4.28275E-03     130.174E-03    -50.0737E-03    -80.2624E-03    -78.3481E-03     128.260E-03    -50.0737E-03     39.7209E-03     153.620E+06     85.3098E+06    -26.7781E+06    -26.6848E+06     153.527E+06     85.3098E+06     374.042E+03         38.2724
            1076     13.3506E-03     7.82875E-03     155.697E-03     135.321E-03    -501.177E-03     134.989E-03    -500.845E-03     155.697E-03    -17.2754E-03     124.114E-03    -47.8594E-03    -76.4524E-03    -75.1232E-03     122.785E-03    -47.8594E-03     30.3430E-03     131.849E+06     27.2898E+06    -31.3812E+06    -31.3310E+06     131.799E+06     27.2898E+06     1.28765E+06         35.6281
            1077     12.4232E-03     7.80932E-03     159.475E-03     147.813E-03    -521.056E-03     149.992E-03    -520.442E-03     156.682E-03    -4.11401E-03     116.718E-03    -45.8862E-03    -71.0417E-03    -70.7852E-03     116.461E-03    -45.8862E-03     10.5801E-03     58.1533E+06    -1.30095E+06    -35.9446E+06    -35.7213E+06     57.8501E+06    -1.22104E+06     1.76886E+06         33.6819
            1078     11.4901E-03     7.81282E-03     165.087E-03     156.645E-03    -535.434E-03     164.081E-03    -534.429E-03     156.645E-03    -2.77618E-03     110.350E-03    -44.0879E-03    -66.3292E-03    -66.2452E-03     110.266E-03    -44.0879E-03     229.814E-06    -1.99043E+06    -20.2218E+06    -51.8609E+06    -40.0399E+06    -31.7885E+06    -2.24476E+06     25.5426E+03         32.3184
            1079     10.5533E-03     7.82730E-03     171.687E-03     155.667E-03    -540.058E-03     171.050E-03    -539.421E-03     155.667E-03    -4.09039E-03     104.582E-03    -42.2970E-03    -62.3347E-03    -62.1964E-03     104.444E-03    -42.2970E-03    -3.64048E-03    -2.00434E+06    -42.0350E+06    -88.5775E+06    -42.3998E+06    -88.2127E+06    -2.00434E+06    -2.15487E+06         31.2447
            1080     9.61241E-03     7.84794E-03     171.061E-03     154.180E-03    -538.265E-03     170.787E-03    -537.992E-03     154.180E-03    -4.52196E-03     99.2680E-03    -40.5419E-03    -58.7260E-03    -58.5177E-03     99.0598E-03    -40.5419E-03    -5.40204E-03     3.69597E+06    -43.0859E+06    -127.242E+06    -43.2232E+06    -127.105E+06     3.69597E+06    -2.34498E+06         30.2724
            1081     8.66831E-03     7.87269E-03     162.327E-03     149.295E-03    -527.363E-03     156.273E-03    -525.242E-03     153.228E-03     22.7238E-03     93.9273E-03    -38.7953E-03    -55.1322E-03    -54.8769E-03     93.6720E-03    -38.7953E-03    -6.13565E-03     4.72117E+06    -43.3485E+06    -156.295E+06    -43.4610E+06    -156.183E+06     4.72117E+06    -1.45408E+06         29.3789
            1082     7.71970E-03     7.89870E-03     156.188E-03     144.833E-03    -519.034E-03     145.518E-03    -517.128E-03     153.597E-03     25.6231E-03     88.3824E-03    -37.0128E-03    -51.3721E-03    -51.1037E-03     88.1139E-03    -37.0128E-03    -6.30511E-03     2.06463E+06    -43.5229E+06    -180.850E+06    -43.5957E+06    -180.777E+06     2.06463E+06     327.437E+03         28.5598
            1083     6.76745E-03     7.92344E-03     158.590E-03     146.118E-03    -521.644E-03     148.190E-03    -519.731E-03     154.605E-03     49.8454E-03     82.7825E-03    -35.1898E-03    -47.5549E-03    -47.2905E-03     82.5182E-03    -35.1898E-03    -6.50677E-03    -3.90325E+06    -43.6865E+06    -192.332E+06    -43.7691E+06    -192.249E+06    -3.90325E+06     848.973E+03         27.8132
            1084     5.81113E-03     7.94658E-03     164.543E-03     151.219E-03    -528.857E-03     158.351E-03    -526.321E-03     154.875E-03     21.2127E-03     77.0694E-03    -33.4241E-03    -43.6299E-03    -43.3869E-03     76.8264E-03    -33.4241E-03    -6.52384E-03    -8.51432E+06    -43.9445E+06    -197.259E+06    -44.0018E+06    -197.202E+06    -8.51432E+06     204.116E+03         27.1581
            1085     4.85131E-03     7.96746E-03     170.466E-03     148.567E-03    -530.531E-03     164.477E-03    -529.599E-03     153.624E-03    -9.09069E-03     71.2175E-03    -31.7870E-03    -39.4458E-03    -39.2491E-03     71.0209E-03    -31.7870E-03    -6.03614E-03    -10.7609E+06    -45.6541E+06    -203.989E+06    -45.7186E+06    -203.925E+06    -10.7609E+06    -939.941E+03         26.6166
            1086     3.88606E-03     7.98454E-03     164.129E-03     139.169E-03    -517.525E-03     149.955E-03    -517.150E-03     152.969E-03     25.9662E-03     65.7518E-03    -30.2736E-03    -35.5046E-03    -35.3540E-03     65.6012E-03    -30.2736E-03    -5.35449E-03    -21.8243E+06    -47.3664E+06    -207.949E+06    -47.4767E+06    -207.838E+06    -21.8243E+06    -3.03838E+06         26.1907
            1087     2.91881E-03     7.99706E-03     157.433E-03     134.583E-03    -511.686E-03     132.741E-03    -509.844E-03     157.433E-03     36.6393E-03     61.2718E-03    -28.9831E-03    -32.2931E-03    -32.1882E-03     61.1669E-03    -28.9831E-03    -4.50158E-03    -32.2377E+06    -47.9000E+06    -211.671E+06    -47.9955E+06    -211.576E+06    -32.2377E+06    -2.82697E+06         25.8708
            1088     1.94750E-03     8.00629E-03     173.691E-03     144.463E-03    -538.655E-03     151.180E-03    -536.664E-03     164.983E-03     13.5432E-03     57.5802E-03    -27.9907E-03    -29.5952E-03    -29.5449E-03     57.5300E-03    -27.9907E-03    -3.16727E-03    -37.9130E+06    -49.2236E+06    -217.088E+06    -49.2603E+06    -217.051E+06    -37.9130E+06    -953.925E+03         25.6479
            1089     974.190E-06     8.01069E-03     228.169E-03     109.299E-03    -564.875E-03     169.848E-03    -564.463E-03     167.208E-03    -32.2992E-03     55.0295E-03    -27.2561E-03    -27.7782E-03    -27.7618E-03     55.0132E-03    -27.2561E-03    -1.43749E-03    -48.1310E+06    -53.1932E+06    -220.879E+06    -52.6786E+06    -220.838E+06    -48.6869E+06     540.988E+03         25.5145
            1090     16.1190E-03     6.86718E-03     153.154E-03     140.908E-03    -494.231E-03     140.247E-03    -493.571E-03     153.154E-03    -21.3944E-03     141.121E-03    -54.1267E-03    -87.0495E-03    -81.9893E-03     136.061E-03    -54.1267E-03     61.3598E-03     173.067E+06     136.388E+06    -8.85965E+06    -8.72344E+06     172.931E+06     136.388E+06     1.79409E+06         43.7169
            1091     15.1972E-03     6.77247E-03     153.866E-03     148.469E-03    -509.726E-03     148.228E-03    -509.317E-03     153.698E-03     8.28115E-03     137.423E-03    -52.3916E-03    -85.2173E-03    -79.6458E-03     131.852E-03    -52.3916E-03     66.2760E-03     164.606E+06     124.049E+06    -18.4084E+06    -18.2334E+06     164.431E+06     124.049E+06     2.89538E+06         41.0769
            1092     14.2728E-03     6.73802E-03     154.374E-03     143.680E-03    -513.851E-03     143.581E-03    -513.584E-03     154.206E-03     4.26189E-03     129.033E-03    -50.4290E-03    -78.8445E-03    -75.9238E-03     126.113E-03    -50.4290E-03     48.1365E-03     152.040E+06     83.1896E+06    -29.0890E+06    -29.0104E+06     151.962E+06     83.1896E+06     197.718E+03         38.1050
            1093     13.3460E-03     6.69463E-03     154.936E-03     143.279E-03    -515.115E-03     143.151E-03    -514.986E-03     154.936E-03    -5.02011E-03     121.100E-03    -48.4824E-03    -72.8266E-03    -70.3716E-03     118.645E-03    -48.4824E-03     41.3890E-03     128.753E+06     26.8466E+06    -36.7608E+06    -36.6009E+06     128.594E+06     26.8466E+06     2.67905E+06         35.4990
            1094     12.4124E-03     6.68677E-03     156.409E-03     150.668E-03    -522.279E-03     151.029E-03    -521.726E-03     155.496E-03     3.99565E-03     112.269E-03    -46.9906E-03    -65.4838E-03    -64.3221E-03     111.107E-03    -46.9906E-03     25.8861E-03     59.9111E+06     2.46493E+06    -43.5137E+06    -43.2104E+06     59.6078E+06     2.46493E+06     3.39309E+06         33.5656
            1095     11.4735E-03     6.69740E-03     160.984E-03     154.907E-03    -533.237E-03     159.554E-03    -532.409E-03     155.509E-03     18.9842E-03     106.450E-03    -45.8422E-03    -60.6714E-03    -59.7180E-03     105.496E-03    -45.8422E-03     20.7606E-03     5.60368E+06    -20.3749E+06    -54.9644E+06    -46.7796E+06    -27.1045E+06     4.14837E+06    -1.38720E+06         32.2260
            1096     10.5312E-03     6.71840E-03     169.511E-03     148.172E-03    -535.654E-03     162.215E-03    -535.235E-03     155.049E-03     9.11489E-03     102.457E-03    -44.7067E-03    -57.8650E-03    -56.8575E-03     101.449E-03    -44.7067E-03     20.1043E-03     5.30064E+06    -45.2895E+06    -89.3076E+06    -46.9092E+06    -87.6879E+06     5.30064E+06    -6.93107E+06         31.2400
            1097     9.58649E-03     6.74371E-03     168.749E-03     139.705E-03    -525.425E-03     153.395E-03    -525.147E-03     154.780E-03    -25.3384E-03     99.2850E-03    -43.5289E-03    -55.8282E-03    -54.7958E-03     98.2526E-03    -43.5289E-03     19.9797E-03     10.8798E+06    -44.9691E+06    -129.836E+06    -46.1453E+06    -128.660E+06     10.8798E+06    -8.57677E+06         30.4098
            1098     8.63933E-03     6.77498E-03     162.396E-03     142.911E-03    -521.715E-03     149.431E-03    -520.882E-03     155.043E-03    -42.0597E-03     96.4070E-03    -42.2818E-03    -54.0915E-03    -53.1013E-03     95.4168E-03    -42.2818E-03     19.4295E-03     13.9885E+06    -45.4512E+06    -159.608E+06    -46.1163E+06    -158.943E+06     13.9885E+06    -7.93421E+06         29.6656
            1099     7.69127E-03     6.80602E-03     163.889E-03     150.098E-03    -531.782E-03     158.263E-03    -531.046E-03     154.987E-03    -37.4860E-03     93.1078E-03    -40.8674E-03    -52.2040E-03    -51.3129E-03     92.2167E-03    -40.8674E-03     18.2088E-03     8.21389E+06    -45.6982E+06    -182.976E+06    -46.2319E+06    -182.443E+06     8.21389E+06    -7.19208E+06         28.9831
            1100     6.74059E-03     6.83700E-03     170.007E-03     152.719E-03    -543.706E-03     167.738E-03    -542.392E-03     153.675E-03     6.58432E-03     89.0446E-03    -39.3301E-03    -49.7431E-03    -49.0030E-03     88.3045E-03    -39.3301E-03     16.0745E-03    -277.979E+03    -44.4666E+06    -193.308E+06    -44.9128E+06    -192.862E+06    -277.979E+03    -6.83215E+06         28.3525
            1101     5.78742E-03     6.86634E-03     168.070E-03     151.403E-03    -540.847E-03     166.361E-03    -539.138E-03     151.403E-03    -9.44177E-03     84.5829E-03    -37.7408E-03    -46.8520E-03    -46.2894E-03     84.0202E-03    -37.7408E-03     13.3875E-03    -5.49752E+06    -43.2354E+06    -198.529E+06    -43.6121E+06    -198.152E+06    -5.49752E+06    -6.56301E+06         27.7802
            1102     4.83062E-03     6.89315E-03     156.987E-03     136.995E-03    -519.597E-03     142.314E-03    -518.963E-03     151.034E-03    -12.6469E-03     79.7481E-03    -36.1339E-03    -43.6160E-03    -43.2274E-03     79.3594E-03    -36.1339E-03     10.5003E-03    -10.5490E+06    -43.5754E+06    -203.801E+06    -43.9334E+06    -203.443E+06    -10.5490E+06    -6.77274E+06         27.2927
            1103     3.87143E-03     6.91634E-03     154.183E-03     135.954E-03    -519.378E-03     135.753E-03    -519.177E-03     154.183E-03     16.9149E-03     74.5256E-03    -34.5600E-03    -40.0032E-03    -39.7552E-03     74.2776E-03    -34.5600E-03     7.86835E-03    -21.4396E+06    -46.1114E+06    -209.105E+06    -46.4110E+06    -208.805E+06    -21.4396E+06    -6.86567E+06         26.9076
            1104     2.90686E-03     6.93373E-03     160.595E-03     146.535E-03    -534.068E-03     148.659E-03    -533.594E-03     157.996E-03     19.1592E-03     69.7069E-03    -33.1313E-03    -36.5995E-03    -36.4574E-03     69.5647E-03    -33.1313E-03     5.47122E-03    -36.7258E+06    -51.3020E+06    -215.643E+06    -50.7673E+06    -215.424E+06    -37.4793E+06    -5.94261E+06         26.6195
            1105     1.94078E-03     6.94737E-03     185.141E-03     147.906E-03    -561.822E-03     172.653E-03    -556.607E-03     155.179E-03    -53.4141E-03     65.8714E-03    -31.9872E-03    -33.8794E-03    -33.8117E-03     65.8037E-03    -31.9872E-03     3.36182E-03    -44.3054E+06    -54.1151E+06    -220.037E+06    -53.4649E+06    -219.934E+06    -45.0589E+06    -3.71848E+06         26.4176
            1106     971.518E-06     6.95551E-03     207.058E-03     111.445E-03    -544.892E-03     190.187E-03    -528.021E-03     111.445E-03     15.2069E-03     62.9039E-03    -31.0566E-03    -31.8387E-03    -31.6798E-03     62.8793E-03    -31.1910E-03     2.01105E-03    -48.7358E+06    -54.4534E+06    -222.230E+06    -54.5063E+06    -222.177E+06    -48.7358E+06    -438.491E+03         26.2968
            1107     16.1055E-03     5.71783E-03     153.491E-03     140.173E-03    -502.560E-03     138.755E-03    -501.142E-03     153.491E-03    -55.4124E-03     142.387E-03    -55.0714E-03    -87.3981E-03    -80.7002E-03     135.689E-03    -55.0714E-03     70.2961E-03     172.118E+06     137.186E+06    -8.83594E+06    -8.73028E+06     172.013E+06     137.186E+06     2.10543E+06         43.4620
            1108     15.1812E-03     5.63275E-03     154.755E-03     148.934E-03    -523.828E-03     149.297E-03    -523.523E-03     154.087E-03    -10.6967E-03     137.127E-03    -53.5802E-03    -83.7257E-03    -75.7065E-03     129.107E-03    -53.5802E-03     80.0734E-03     165.353E+06     127.659E+06    -17.9043E+06    -17.7429E+06     165.192E+06     127.659E+06     4.52984E+06         40.8164
            1109     14.2540E-03     5.60187E-03     160.211E-03     153.897E-03    -536.829E-03     159.852E-03    -536.631E-03     154.058E-03    -7.46594E-03     126.243E-03    -52.0495E-03    -74.3937E-03    -68.9881E-03     120.837E-03    -52.0495E-03     63.4680E-03     150.316E+06     84.9081E+06    -29.9802E+06    -29.5417E+06     149.878E+06     84.9081E+06     6.16463E+06         37.9061
            1110     13.3178E-03     5.57108E-03     159.248E-03     151.292E-03    -533.929E-03     156.621E-03    -533.773E-03     153.763E-03    -11.4838E-03     116.587E-03    -50.7681E-03    -65.8953E-03    -60.5402E-03     111.232E-03    -50.7681E-03     59.8195E-03     126.617E+06     28.6743E+06    -44.1752E+06    -43.6043E+06     126.046E+06     28.6743E+06     7.64460E+06         35.3759
            1111     12.3742E-03     5.57225E-03     153.851E-03     149.321E-03    -525.840E-03     148.896E-03    -525.416E-03     153.851E-03    -20.2890E-03     108.237E-03    -50.1768E-03    -58.1913E-03    -53.9458E-03     103.991E-03    -50.1768E-03     50.0105E-03     64.7404E+06     7.95820E+06    -50.5671E+06    -50.2575E+06     64.4308E+06     7.95820E+06     2.53311E+06         33.4705
            1112     11.4259E-03     5.59048E-03     158.533E-03     151.754E-03    -528.479E-03     155.771E-03    -527.938E-03     153.975E-03    -10.3540E-03     105.246E-03    -50.0137E-03    -55.3665E-03    -51.0385E-03     100.918E-03    -50.0137E-03     49.3557E-03     14.3631E+06    -15.6608E+06    -59.5223E+06    -50.4529E+06    -21.8774E+06     11.5103E+06    -7.57442E+06         32.1491
            1113     10.4764E-03     5.61353E-03     158.694E-03     145.026E-03    -520.309E-03     149.172E-03    -519.897E-03     154.135E-03     17.7239E-03     104.653E-03    -49.8226E-03    -54.8503E-03    -50.4632E-03     100.266E-03    -49.8226E-03     49.9478E-03     14.2418E+06    -42.5853E+06    -93.2743E+06    -49.1492E+06    -86.7104E+06     14.2418E+06    -14.3146E+06         31.2467
            1114     9.52759E-03     5.64310E-03     155.342E-03     137.987E-03    -509.047E-03     137.055E-03    -508.068E-03     155.296E-03     22.8804E-03     104.708E-03    -49.5399E-03    -55.1987E-03    -50.9298E-03     100.439E-03    -49.5399E-03     49.7122E-03     17.6677E+06    -43.8437E+06    -135.416E+06    -47.5185E+06    -131.741E+06     17.6677E+06    -17.2533E+06         30.5795
            1115     8.57979E-03     5.67519E-03     161.852E-03     148.305E-03    -525.218E-03     152.299E-03    -523.864E-03     156.504E-03     7.38242E-03     104.782E-03    -49.0723E-03    -55.7432E-03    -51.7919E-03     100.831E-03    -49.0723E-03     48.1908E-03     19.8309E+06    -43.6491E+06    -166.826E+06    -46.1910E+06    -164.284E+06     19.8309E+06    -16.3661E+06         30.0400
            1116     7.63236E-03     5.70837E-03     169.829E-03     156.105E-03    -543.943E-03     167.747E-03    -541.861E-03     156.105E-03     12.7898E-03     104.174E-03    -48.3118E-03    -55.8520E-03    -52.3753E-03     100.697E-03    -48.3118E-03     45.3508E-03     12.8061E+06    -44.6507E+06    -186.787E+06    -46.3188E+06    -185.119E+06     12.8061E+06    -15.0155E+06         29.5665
            1117     6.68570E-03     5.74216E-03     169.716E-03     153.366E-03    -542.457E-03     166.855E-03    -540.795E-03     154.564E-03     18.2086E-03     102.489E-03    -47.3402E-03    -55.1708E-03    -52.2693E-03     99.5875E-03    -47.3402E-03     41.2461E-03     1.55004E+06    -44.9606E+06    -196.707E+06    -46.6346E+06    -195.033E+06     1.55004E+06    -15.2848E+06         29.1252
            1118     5.73749E-03     5.77562E-03     162.511E-03     150.998E-03    -535.792E-03     159.999E-03    -535.365E-03     153.083E-03    -19.8572E-03     99.8303E-03    -46.1826E-03    -53.6480E-03    -51.3907E-03     97.5730E-03    -46.1826E-03     35.9600E-03    -9.75928E+06    -45.4930E+06    -203.146E+06    -46.8575E+06    -201.782E+06    -9.75928E+06    -14.0194E+06         28.7029
            1119     4.78831E-03     5.80608E-03     155.849E-03     143.100E-03    -523.775E-03     145.592E-03    -523.567E-03     153.150E-03    -9.54310E-03     96.3484E-03    -44.8685E-03    -51.4683E-03    -49.8345E-03     94.7145E-03    -44.8685E-03     29.9935E-03    -21.5069E+06    -46.7296E+06    -207.704E+06    -47.5720E+06    -206.861E+06    -21.5069E+06    -11.4022E+06         28.3179
            1120     3.83584E-03     5.83423E-03     160.450E-03     141.588E-03    -527.196E-03     146.633E-03    -526.638E-03     154.848E-03    -8.49918E-03     92.2165E-03    -43.5192E-03    -48.7164E-03    -47.6327E-03     91.1328E-03    -43.5192E-03     23.8463E-03    -31.2717E+06    -49.4653E+06    -213.931E+06    -49.9457E+06    -213.450E+06    -31.2717E+06    -8.71506E+06         27.9989
            1121     2.88152E-03     5.85723E-03     170.505E-03     150.682E-03    -544.419E-03     161.724E-03    -539.734E-03     154.778E-03     55.0727E-03     87.8347E-03    -42.2182E-03    -45.6273E-03    -44.9947E-03     87.2021E-03    -42.2182E-03     17.6489E-03    -40.9735E+06    -53.3010E+06    -219.204E+06    -52.8286E+06    -218.923E+06    -41.7270E+06    -6.80579E+06         27.7525
            1122     1.92235E-03     5.87425E-03     181.743E-03     148.483E-03    -547.092E-03     156.113E-03    -525.941E-03     152.962E-03    -78.2019E-03     84.0358E-03    -41.1571E-03    -42.8695E-03    -42.5754E-03     83.7418E-03    -41.1571E-03     11.6163E-03    -48.3043E+06    -57.2130E+06    -225.372E+06    -55.7336E+06    -225.199E+06    -49.9565E+06    -5.24610E+06         27.5806
            1123     962.276E-06     5.88413E-03     212.712E-03     146.461E-03    -578.367E-03     153.305E-03    -523.438E-03     150.939E-03     93.8455E-03     81.3856E-03    -40.0608E-03    -41.3189E-03    -41.0893E-03     81.2904E-03    -40.1952E-03     6.19464E-03    -53.2152E+06    -59.2941E+06    -227.331E+06    -57.6344E+06    -227.260E+06    -54.9464E+06    -3.25234E+06         27.4813
            1124     16.0769E-03     4.57378E-03     153.264E-03     142.405E-03    -519.186E-03     141.341E-03    -518.122E-03     153.264E-03    -44.6000E-03     140.365E-03    -57.0238E-03    -83.4184E-03    -73.7619E-03     130.708E-03    -57.0238E-03     83.1839E-03     172.323E+06     137.149E+06    -10.0375E+06    -9.92027E+06     172.206E+06     137.149E+06     3.33786E+06         43.2130
            1125     15.1447E-03     4.49334E-03     154.329E-03     144.781E-03    -523.001E-03     145.198E-03    -522.918E-03     153.829E-03    -9.85022E-03     134.978E-03    -56.1321E-03    -78.9163E-03    -66.7039E-03     122.765E-03    -56.1321E-03     97.2929E-03     159.215E+06     125.476E+06    -22.0706E+06    -21.7419E+06     158.887E+06     125.476E+06     5.41368E+06         40.5488
            1126     14.2068E-03     4.47530E-03     160.061E-03     148.139E-03    -533.401E-03     154.019E-03    -533.296E-03     154.076E-03    -10.9083E-03     122.450E-03    -55.4686E-03    -67.0733E-03    -57.6955E-03     113.072E-03    -55.4686E-03     80.8639E-03     146.384E+06     93.1693E+06    -35.0786E+06    -34.0953E+06     145.401E+06     93.1693E+06     12.7766E+06         37.7449
            1127     13.2591E-03     4.45765E-03     163.135E-03     148.737E-03    -536.758E-03     157.524E-03    -536.364E-03     153.954E-03    -22.6686E-03     113.490E-03    -53.3985E-03    -60.1646E-03    -48.4095E-03     103.586E-03    -55.2498E-03     79.1651E-03     132.043E+06     44.8510E+06    -44.3752E+06    -43.5543E+06     131.222E+06     44.8510E+06     11.4278E+06         35.3426
            1128     12.3032E-03     4.46863E-03     158.256E-03     150.716E-03    -533.583E-03     154.544E-03    -532.948E-03     153.792E-03    -33.1935E-03     108.514E-03    -51.8164E-03    -56.7848E-03    -43.9356E-03     99.5362E-03    -55.6878E-03     73.1868E-03     74.4320E+06     16.1890E+06    -49.4382E+06    -48.4279E+06     73.4217E+06     16.1890E+06    -1.49743E+06         33.4875
            1129     11.3468E-03     4.48519E-03     156.111E-03     148.964E-03    -525.855E-03     150.804E-03    -525.470E-03     153.886E-03    -14.1415E-03     109.362E-03    -52.5380E-03    -56.8377E-03    -44.0398E-03     100.566E-03    -56.5396E-03     73.0038E-03     20.1907E+06    -10.1474E+06    -64.1450E+06    -49.2721E+06    -18.0162E+06     13.1867E+06    -15.7781E+06         32.1914
            1130     10.3929E-03     4.50761E-03     162.841E-03     148.333E-03    -528.211E-03     157.050E-03    -527.956E-03     153.868E-03     19.5598E-03     111.770E-03    -53.7817E-03    -57.9186E-03    -45.9939E-03     103.447E-03    -57.3836E-03     72.2038E-03     14.1374E+06    -35.7528E+06    -99.7383E+06    -48.1844E+06    -87.3067E+06     14.1374E+06    -23.0456E+06         31.3567
            1131     9.44165E-03     4.53351E-03     167.007E-03     150.988E-03    -533.616E-03     163.718E-03    -532.559E-03     153.220E-03     22.5233E-03     114.606E-03    -55.2738E-03    -59.3094E-03    -48.7683E-03     106.868E-03    -58.0768E-03     70.9292E-03     17.1234E+06    -39.9991E+06    -143.780E+06    -47.4640E+06    -136.315E+06     17.1234E+06    -26.0130E+06         30.8136
            1132     8.49396E-03     4.56322E-03     160.743E-03     151.534E-03    -526.885E-03     158.438E-03    -525.498E-03     152.452E-03     2.74086E-03     117.301E-03    -56.6977E-03    -60.6213E-03    -51.7826E-03     110.328E-03    -58.5639E-03     68.5233E-03     17.8549E+06    -41.8002E+06    -177.931E+06    -46.9704E+06    -172.761E+06     17.8549E+06    -25.4452E+06         30.4688
            1133     7.54901E-03     4.59456E-03     157.033E-03     150.235E-03    -521.013E-03     153.020E-03    -518.975E-03     152.210E-03     33.0186E-03     119.234E-03    -57.8190E-03    -61.4487E-03    -54.4519E-03     113.168E-03    -58.7494E-03     64.7922E-03     8.17653E+06    -42.7635E+06    -193.524E+06    -46.3898E+06    -189.897E+06     8.17653E+06    -22.6917E+06         30.2477
            1134     6.60591E-03     4.62788E-03     155.580E-03     144.797E-03    -517.996E-03     146.018E-03    -516.412E-03     152.774E-03     42.4691E-03     120.357E-03    -58.4143E-03    -61.9763E-03    -56.6250E-03     115.253E-03    -58.6612E-03     59.9752E-03    -7.63803E+06    -44.9708E+06    -202.312E+06    -47.8418E+06    -199.441E+06    -7.63803E+06    -20.9415E+06         30.0618
            1135     5.66550E-03     4.66195E-03     154.227E-03     143.964E-03    -516.052E-03     143.593E-03    -515.681E-03     154.227E-03     10.9303E-03     120.458E-03    -58.3377E-03    -62.1481E-03    -58.0719E-03     116.381E-03    -58.3377E-03     53.7861E-03    -22.3787E+06    -48.0075E+06    -210.821E+06    -50.1016E+06    -208.727E+06    -22.3787E+06    -18.1797E+06         29.8710
            1136     4.72396E-03     4.69555E-03     155.595E-03     151.353E-03    -524.538E-03     151.053E-03    -524.238E-03     155.595E-03     13.9629E-03     119.318E-03    -57.7296E-03    -61.5562E-03    -58.5284E-03     116.291E-03    -57.7296E-03     46.2112E-03    -35.2700E+06    -51.3763E+06    -215.774E+06    -52.6250E+06    -214.525E+06    -35.2700E+06    -14.1078E+06         29.6777
            1137     3.78270E-03     4.72618E-03     171.039E-03     153.388E-03    -543.302E-03     168.381E-03    -541.541E-03     154.286E-03    -44.5849E-03     117.350E-03    -57.0020E-03    -60.3079E-03    -58.2490E-03     115.291E-03    -57.0020E-03     37.7851E-03    -44.4997E+06    -53.7854E+06    -220.050E+06    -54.4800E+06    -219.356E+06    -44.4997E+06    -10.5373E+06         29.4938
            1138     2.83934E-03     4.75276E-03     190.795E-03     147.447E-03    -552.782E-03     178.175E-03    -540.163E-03     147.447E-03     74.5830E-03     114.884E-03    -56.2524E-03    -58.6269E-03    -57.3875E-03     113.645E-03    -56.2524E-03     28.8909E-03    -46.6417E+06    -55.2571E+06    -224.372E+06    -55.5777E+06    -224.051E+06    -46.6417E+06    -6.98697E+06         29.3332
            1139     1.89532E-03     4.77333E-03     176.529E-03     137.993E-03    -529.815E-03     142.626E-03    -500.390E-03     142.471E-03    -25.2059E-03     112.319E-03    -55.5324E-03    -56.7807E-03    -56.1884E-03     111.727E-03    -55.5324E-03     19.3936E-03    -50.3105E+06    -60.2594E+06    -231.778E+06    -59.4873E+06    -231.652E+06    -51.2093E+06    -4.24100E+06         29.2180
            1140     947.316E-06     4.78756E-03     227.119E-03     132.845E-03    -572.026E-03     148.371E-03    -497.757E-03     137.324E-03     151.581E-03     110.342E-03    -54.5021E-03    -55.8331E-03    -55.3033E-03     110.151E-03    -54.8410E-03     10.5550E-03    -58.9546E+06    -64.9235E+06    -234.087E+06    -62.8271E+06    -233.976E+06    -61.1619E+06    -3.85676E+06         29.1516
            1141     16.0258E-03     3.43267E-03     155.522E-03     148.508E-03    -536.880E-03     151.211E-03    -536.368E-03     152.307E-03    -29.3697E-03     136.296E-03    -60.1841E-03    -76.2286E-03    -62.1291E-03     122.196E-03    -60.1841E-03     100.790E-03     170.884E+06     137.004E+06    -10.5085E+06    -9.84002E+06     170.215E+06     137.004E+06     8.70925E+06         43.0859
            1142     15.0816E-03     3.36408E-03     153.964E-03     145.198E-03    -526.691E-03     146.296E-03    -526.309E-03     152.484E-03    -8.89499E-03     132.638E-03    -58.9279E-03    -73.7471E-03    -56.4214E-03     116.518E-03    -60.1341E-03     109.381E-03     155.539E+06     123.249E+06    -27.2017E+06    -26.2494E+06     154.586E+06     123.249E+06     11.4339E+06         40.4390
            1143     14.1330E-03     3.35509E-03     152.932E-03     144.850E-03    -522.737E-03     144.508E-03    -522.395E-03     152.932E-03     16.7395E-03     119.362E-03    -56.2942E-03    -63.0389E-03    -46.7637E-03     107.267E-03    -60.4741E-03     89.3209E-03     146.249E+06     101.857E+06    -36.0187E+06    -35.3025E+06     145.533E+06     101.857E+06     10.0466E+06         37.7830
            1144     13.1734E-03     3.35205E-03     157.008E-03     147.608E-03    -527.118E-03     150.632E-03    -526.446E-03     153.312E-03     5.37197E-03     113.832E-03    -52.3258E-03    -61.5172E-03    -40.2445E-03     101.486E-03    -61.2518E-03     87.1950E-03     139.427E+06     58.1845E+06    -34.2684E+06    -33.8498E+06     139.009E+06     58.1845E+06     4.98035E+06         35.5362
            1145     12.2123E-03     3.36153E-03     158.324E-03     152.081E-03    -531.704E-03     155.932E-03    -530.547E-03     153.315E-03     2.31867E-03     112.689E-03    -50.2925E-03    -62.4675E-03    -39.3244E-03     101.721E-03    -62.4675E-03     81.5966E-03     83.3633E+06     14.0469E+06    -34.2440E+06    -33.0550E+06     82.1744E+06     14.0469E+06    -4.92048E+06         33.7540
            1146     11.2537E-03     3.37631E-03     154.662E-03     149.845E-03    -523.390E-03     150.403E-03    -522.635E-03     153.350E-03     13.5053E-03     115.823E-03    -51.6387E-03    -64.1216E-03    -41.6349E-03     105.819E-03    -64.1216E-03     79.2275E-03     14.0062E+06    -12.0002E+06    -56.1026E+06    -37.9137E+06    -14.6425E+06    -1.54040E+06    -17.7645E+06         32.4796
            1147     10.2979E-03     3.39412E-03     161.238E-03     149.783E-03    -529.806E-03     157.679E-03    -529.752E-03     153.288E-03     10.1351E-03     119.912E-03    -53.9995E-03    -65.8820E-03    -44.9879E-03     110.900E-03    -65.8820E-03     76.9104E-03    -7.20770E+06    -29.1701E+06    -102.574E+06    -43.2894E+06    -88.4550E+06    -7.20770E+06    -27.6271E+06         31.6753
            1148     9.34677E-03     3.41615E-03     169.388E-03     152.236E-03    -540.376E-03     169.027E-03    -540.015E-03     152.236E-03     2.87625E-03     124.594E-03    -57.0417E-03    -67.5525E-03    -48.9262E-03     116.479E-03    -67.5525E-03     74.8197E-03    -5.15562E+06    -35.5941E+06    -152.175E+06    -45.6810E+06    -142.088E+06    -5.15562E+06    -32.0620E+06         31.2015
            1149     8.39928E-03     3.44054E-03     160.316E-03     147.128E-03    -524.692E-03     155.354E-03    -523.715E-03     151.114E-03    -27.7039E-03     129.395E-03    -60.3045E-03    -69.0868E-03    -53.0927E-03     122.183E-03    -69.0868E-03     72.3024E-03    -2.48133E+06    -39.0814E+06    -188.911E+06    -46.4941E+06    -181.499E+06    -2.48133E+06    -32.2541E+06         30.9761
            1150     7.45612E-03     3.46781E-03     151.218E-03     145.693E-03    -512.417E-03     144.868E-03    -511.592E-03     151.218E-03    -12.1001E-03     133.895E-03    -63.5716E-03    -70.3574E-03    -57.2839E-03     127.607E-03    -70.3574E-03     69.0789E-03    -13.3199E+06    -41.2793E+06    -204.351E+06    -46.6575E+06    -198.972E+06    -13.3199E+06     -28.921E+06         30.9584
            1151     6.51718E-03     3.49719E-03     156.288E-03     144.518E-03    -515.014E-03     148.776E-03    -514.762E-03     151.777E-03     7.76704E-03     138.005E-03    -66.4575E-03    -71.5806E-03    -61.2634E-03     132.663E-03    -71.4333E-03     64.9668E-03    -27.3461E+06    -44.2978E+06    -211.653E+06    -47.5798E+06    -208.371E+06    -27.3461E+06    -22.9095E+06         31.0383
            1152     5.58064E-03     3.52842E-03     157.555E-03     144.083E-03    -518.561E-03     149.034E-03    -518.219E-03     152.262E-03     9.74611E-03     141.568E-03    -68.6961E-03    -72.9005E-03    -64.9350E-03     137.219E-03    -72.3124E-03     59.6152E-03    -38.1412E+06    -49.3094E+06    -220.110E+06    -51.2175E+06    -218.202E+06    -38.1412E+06    -17.7377E+06         31.1287
            1153     4.64892E-03     3.55953E-03     159.095E-03     149.130E-03    -527.188E-03     155.609E-03    -526.877E-03     152.305E-03     22.9319E-03     144.264E-03    -70.3956E-03    -73.8015E-03    -67.9973E-03     140.949E-03    -72.8839E-03     52.7201E-03    -46.0882E+06    -54.1538E+06    -224.901E+06    -55.2754E+06    -223.779E+06    -46.0882E+06    -13.4848E+06         31.2139
            1154     3.71781E-03     3.59004E-03     168.329E-03     149.426E-03    -534.386E-03     166.176E-03    -532.949E-03     150.143E-03    -36.2039E-03     145.901E-03    -71.7037E-03    -74.1234E-03    -70.2685E-03     143.584E-03    -73.2423E-03     44.3643E-03    -51.7224E+06    -58.7452E+06    -226.700E+06    -59.3168E+06    -226.128E+06    -51.7224E+06    -9.24993E+06         31.2804
            1155     2.78824E-03     3.61672E-03     186.840E-03     143.890E-03    -548.080E-03     170.163E-03    -531.404E-03     143.890E-03     107.917E-03     146.732E-03    -72.5760E-03    -74.1505E-03    -71.8767E-03     145.320E-03    -73.4372E-03     34.6052E-03    -55.8490E+06    -62.9283E+06    -231.909E+06    -63.1729E+06    -231.664E+06    -55.8490E+06    -5.93557E+06         31.3156
            1156     1.85829E-03     3.63849E-03     211.489E-03     129.291E-03    -562.494E-03     170.305E-03    -521.310E-03     129.291E-03    -41.9634E-03     147.012E-03    -73.0221E-03    -73.9955E-03    -72.8570E-03     146.322E-03    -73.4707E-03     23.9094E-03    -58.5208E+06    -67.6997E+06    -236.150E+06    -67.7898E+06    -236.060E+06    -58.5208E+06    -3.54938E+06         31.3350
            1157     930.888E-06     3.65318E-03     296.997E-03     89.1765E-03    -603.991E-03     149.045E-03    -456.038E-03     89.1765E-03     230.474E-03     146.839E-03    -72.9601E-03    -73.8679E-03    -72.9435E-03     146.607E-03    -73.6521E-03     13.2964E-03    -67.7180E+06    -74.3119E+06    -240.709E+06    -73.9120E+06    -240.633E+06    -68.1941E+06    -2.71172E+06         31.3495
            1158     15.9489E-03     2.29204E-03     163.597E-03     150.698E-03    -541.905E-03     160.457E-03    -540.085E-03     152.017E-03    -50.0303E-03     133.447E-03    -64.1046E-03    -69.4179E-03    -53.3571E-03     117.386E-03    -64.1046E-03     108.458E-03     168.936E+06     135.562E+06    -16.6079E+06    -15.4410E+06     167.769E+06     135.562E+06     12.5114E+06         43.2361
            1159     15.0045E-03     2.23904E-03     163.626E-03     150.013E-03    -541.673E-03     161.788E-03    -541.270E-03     151.449E-03    -9.23732E-03     128.295E-03    -58.7209E-03    -69.5072E-03    -49.8677E-03     114.755E-03    -64.8203E-03     96.7223E-03     159.653E+06     129.857E+06    -21.4713E+06    -20.7604E+06     158.942E+06     129.857E+06     9.30254E+06         40.7091
            1160     14.0474E-03     2.24176E-03     159.643E-03     148.765E-03    -534.122E-03     157.001E-03    -533.626E-03     150.911E-03     10.1540E-03     117.332E-03    -51.2906E-03    -65.8715E-03    -41.6114E-03     107.653E-03    -65.8715E-03     77.5499E-03     154.902E+06     106.698E+06    -21.8462E+06    -21.5691E+06     154.625E+06     106.698E+06     1.39178E+06         38.2308
            1161     13.0871E-03     2.24258E-03     157.009E-03     147.332E-03    -529.983E-03     153.172E-03    -529.425E-03     150.610E-03     14.5036E-03     115.810E-03    -48.5334E-03    -67.2006E-03    -39.2146E-03     106.491E-03    -67.2006E-03     74.8687E-03     140.772E+06     44.4368E+06    -23.3286E+06    -23.1469E+06     140.590E+06     44.4368E+06    -4.20534E+06         36.1274
            1162     12.1269E-03     2.24866E-03     151.323E-03     144.781E-03    -521.386E-03     144.651E-03    -520.710E-03     150.778E-03     30.1329E-03     116.943E-03    -48.1094E-03    -68.8747E-03    -40.2365E-03     109.070E-03    -68.8747E-03     69.1302E-03     82.9500E+06    -8.51798E+06    -33.6463E+06    -24.4062E+06     82.5413E+06    -17.3493E+06    -4.86554E+06         34.4225
            1163     11.1686E-03     2.25775E-03     151.990E-03     147.572E-03    -521.696E-03     147.642E-03    -520.979E-03     151.203E-03     32.5774E-03     120.840E-03    -49.7481E-03    -71.0338E-03    -42.9300E-03     114.021E-03    -71.0338E-03     65.5340E-03     9.97097E+06    -30.2674E+06    -54.7940E+06    -28.0305E+06    -8.33270E+06    -38.7273E+06    -12.9524E+06         33.1496
            1164     10.2139E-03     2.26990E-03     152.349E-03     145.170E-03    -517.619E-03     145.542E-03    -517.314E-03     151.672E-03     11.2733E-03     125.750E-03    -52.3947E-03    -73.4231E-03    -46.3984E-03     119.753E-03    -73.4231E-03     62.9752E-03    -22.1466E+06    -48.2083E+06    -97.9246E+06    -33.3579E+06    -87.5082E+06    -47.4134E+06    -24.0533E+06         32.3135
            1165     9.26228E-03     2.28487E-03     155.715E-03     142.843E-03    -518.699E-03     145.985E-03    -518.430E-03     152.304E-03     6.53755E-03     131.592E-03    -55.8086E-03    -75.8958E-03    -50.4991E-03     126.283E-03    -75.8958E-03     60.9057E-03    -25.3778E+06    -54.7095E+06    -154.731E+06    -38.4955E+06    -146.453E+06    -49.8700E+06    -30.4848E+06         31.8445
            1166     8.31530E-03     2.30226E-03     155.876E-03     145.546E-03    -522.927E-03     148.080E-03    -522.484E-03     152.899E-03    -6.36129E-03     138.239E-03    -59.7699E-03    -78.4314E-03    -55.0755E-03     133.545E-03    -78.4314E-03     58.9691E-03    -27.4208E+06    -52.7898E+06    -196.301E+06    -43.0107E+06    -189.261E+06    -44.2402E+06    -32.3312E+06         31.6534
            1167     7.37285E-03     2.32242E-03     154.216E-03     148.744E-03    -524.796E-03     149.201E-03    -524.452E-03     153.416E-03    -7.12014E-03     145.099E-03    -64.1474E-03    -80.8600E-03    -60.0276E-03     140.979E-03    -80.8600E-03     56.8680E-03    -36.9299E+06    -52.6008E+06    -216.907E+06    -47.1801E+06    -211.951E+06    -47.3065E+06    -28.6928E+06         31.7257
            1168     6.43535E-03     2.34467E-03     160.485E-03     152.694E-03    -532.588E-03     159.821E-03    -532.405E-03     153.174E-03    -467.452E-06     152.124E-03    -68.8707E-03    -83.1987E-03    -65.3419E-03     148.595E-03    -83.1987E-03     54.1665E-03    -45.9614E+06    -53.6270E+06    -224.990E+06    -50.6375E+06    -222.259E+06    -51.6814E+06    -20.7803E+06         32.0051
            1169     5.50398E-03     2.36953E-03     169.082E-03     151.176E-03    -538.085E-03     168.940E-03    -537.943E-03     151.176E-03    -8.93534E-03     159.165E-03    -73.7557E-03    -85.4072E-03    -70.8427E-03     156.252E-03    -85.4072E-03     50.5938E-03    -51.2367E+06    -54.4057E+06    -229.430E+06    -53.8051E+06    -228.305E+06    -52.9621E+06    -13.4809E+06         32.3678
            1170     4.57615E-03     2.39424E-03     166.455E-03     147.820E-03    -531.498E-03     166.394E-03    -531.437E-03     147.820E-03     6.90434E-03     166.129E-03    -78.6663E-03    -87.4055E-03    -76.3964E-03     163.859E-03    -87.4055E-03     45.7528E-03    -53.5607E+06    -57.7890E+06    -231.816E+06    -58.3452E+06    -231.260E+06    -53.5607E+06    -9.18304E+06         32.7549
            1171     3.65488E-03     2.41894E-03     155.257E-03     133.423E-03    -506.048E-03     139.011E-03    -503.368E-03     146.990E-03    -43.1561E-03     172.428E-03    -83.2539E-03    -89.1105E-03    -81.6363E-03     170.810E-03    -89.1105E-03     39.3846E-03    -55.3734E+06    -62.5558E+06    -234.464E+06    -62.7892E+06    -234.230E+06    -55.3734E+06    -5.92670E+06         33.1312
            1172     2.73718E-03     2.44253E-03     163.792E-03     132.721E-03    -516.655E-03     132.454E-03    -503.658E-03     151.062E-03     66.8931E-03     177.404E-03    -86.9273E-03    -90.4890E-03    -85.9246E-03     176.402E-03    -90.4890E-03     31.4541E-03    -59.5724E+06    -67.7775E+06    -237.421E+06    -67.9039E+06    -237.295E+06    -59.5724E+06    -3.65963E+06         33.4454
            1173     1.82360E-03     2.46090E-03     212.161E-03     142.039E-03    -579.080E-03     146.008E-03    -527.383E-03     156.496E-03    -135.108E-03     181.308E-03    -89.7158E-03    -91.6229E-03    -89.2159E-03     180.808E-03    -91.6229E-03     22.2271E-03    -63.7045E+06    -71.2749E+06    -239.096E+06    -71.3685E+06    -239.003E+06    -63.7045E+06    -3.02328E+06         33.6842
            1174     909.303E-06     2.47390E-03     342.659E-03     141.458E-03    -716.178E-03     165.719E-03    -548.921E-03     151.140E-03     225.211E-03     184.242E-03    -91.7245E-03    -92.5111E-03    -91.5525E-03     184.069E-03    -92.5096E-03     12.6652E-03    -73.5102E+06    -77.6134E+06    -246.405E+06    -77.0801E+06    -246.362E+06    -74.0859E+06    -1.92579E+06         33.8459
            1175     15.8922E-03     1.14701E-03     164.836E-03     147.929E-03    -552.313E-03     158.974E-03    -549.821E-03     151.299E-03    -26.2598E-03     143.200E-03    -65.2281E-03    -78.0658E-03    -63.4880E-03     131.449E-03    -68.0551E-03     94.9335E-03     172.777E+06     145.581E+06    -6.79020E+06    -5.85189E+06     171.838E+06     145.581E+06     11.2105E+06         43.8449
            1176     14.9417E-03     1.12247E-03     164.849E-03     148.653E-03    -544.775E-03     162.008E-03    -543.984E-03     150.704E-03     17.6585E-03     123.595E-03    -54.7263E-03    -68.8112E-03    -48.7975E-03     117.628E-03    -68.7729E-03     59.9871E-03     169.800E+06     137.612E+06    -5.82524E+06    -5.59220E+06     169.567E+06     137.612E+06     650.434E+03         41.5509
            1177     13.9833E-03     1.12380E-03     162.165E-03     149.931E-03    -538.551E-03     161.969E-03    -538.355E-03     149.931E-03    -14.5686E-03     116.650E-03    -46.4974E-03    -70.0552E-03    -42.5256E-03     112.679E-03    -70.0552E-03     46.2516E-03     161.664E+06     95.7751E+06    -11.3694E+06    -11.0899E+06     161.384E+06     95.7751E+06    -4.22319E+06         39.2704
            1178     13.0246E-03     1.12415E-03     157.651E-03     147.934E-03    -529.660E-03     156.097E-03    -529.440E-03     149.268E-03    -9.68286E-03     117.253E-03    -45.7642E-03    -71.5878E-03    -42.1535E-03     113.643E-03    -71.5878E-03     43.3317E-03     135.941E+06     23.4271E+06    -19.0478E+06    -17.7709E+06     135.769E+06     22.3221E+06    -3.02487E+06         37.2751
            1179     12.0669E-03     1.12765E-03     151.067E-03     144.368E-03    -521.018E-03     146.122E-03    -520.842E-03     149.137E-03    -6.04366E-03     119.282E-03    -45.9414E-03    -73.4632E-03    -42.9903E-03     116.330E-03    -73.4632E-03     39.3756E-03     80.3338E+06    -20.7460E+06    -49.9093E+06    -22.2584E+06     80.0308E+06    -48.0939E+06    -3.03812E+06         35.6253
            1180     11.1107E-03     1.13231E-03     149.746E-03     143.947E-03    -521.317E-03     143.808E-03    -520.936E-03     149.504E-03     4.94735E-03     123.510E-03    -47.6382E-03    -75.8564E-03    -45.1642E-03     121.036E-03    -75.8564E-03     36.7770E-03     13.9053E+06    -38.5788E+06    -80.2152E+06    -22.1106E+06    -2.62501E+06    -80.1531E+06    -7.05993E+06         34.3506
            1181     10.1564E-03     1.13764E-03     150.810E-03     141.710E-03    -518.805E-03     142.081E-03    -518.497E-03     150.131E-03     10.0983E-03     128.764E-03    -50.3571E-03    -78.6115E-03    -48.2097E-03     126.617E-03    -78.6115E-03     35.0891E-03    -20.2127E+06    -77.0498E+06    -104.077E+06    -24.2089E+06    -84.7498E+06    -92.3812E+06    -13.9122E+06         33.4608
            1182     9.20554E-03     1.14504E-03     151.491E-03     140.818E-03    -517.444E-03     140.534E-03    -516.722E-03     151.053E-03     14.2270E-03     135.228E-03    -53.9312E-03    -81.5998E-03    -52.0435E-03     133.341E-03    -81.5998E-03     33.8262E-03    -26.1639E+06    -95.5903E+06    -151.478E+06    -29.8117E+06    -147.830E+06    -95.5903E+06    -18.7332E+06         32.9324
            1183     8.25816E-03     1.15443E-03     152.098E-03     146.876E-03    -521.223E-03     146.058E-03    -520.241E-03     151.935E-03     28.0445E-03     143.080E-03    -58.3181E-03    -84.8157E-03    -56.6579E-03     141.419E-03    -84.8157E-03     32.7412E-03    -34.7359E+06    -86.4294E+06    -198.845E+06    -38.0352E+06    -195.545E+06    -86.4294E+06    -20.6919E+06         32.7164
            1184     7.31601E-03     1.16533E-03     153.314E-03     150.808E-03    -522.920E-03     151.278E-03    -522.427E-03     152.350E-03     20.9418E-03     151.732E-03    -63.4618E-03    -88.1618E-03    -62.0015E-03     150.272E-03    -88.1618E-03     31.7535E-03    -44.8322E+06    -76.2624E+06    -225.936E+06    -47.2967E+06    -223.472E+06    -76.2624E+06    -18.2885E+06         32.7999
            1185     6.37958E-03     1.17713E-03     155.200E-03     150.384E-03    -525.790E-03     152.842E-03    -525.449E-03     152.401E-03     14.7035E-03     161.013E-03    -69.3858E-03    -91.5137E-03    -68.1247E-03     159.752E-03    -91.5137E-03     30.5036E-03    -53.8487E+06    -67.8006E+06    -236.711E+06    -55.1172E+06    -235.443E+06    -67.8006E+06    -12.7151E+06         33.1568
            1186     5.44859E-03     1.19069E-03     164.755E-03     142.594E-03    -526.420E-03     154.812E-03    -526.026E-03     152.142E-03    -12.8442E-03     170.826E-03    -76.0091E-03    -94.7980E-03    -74.9551E-03     169.772E-03    -94.7980E-03     28.7231E-03    -59.7461E+06    -64.0602E+06    -237.323E+06    -60.5952E+06    -236.824E+06    -63.7094E+06    -7.44958E+06         33.6774
            1187     4.52576E-03     1.20414E-03     163.523E-03     142.207E-03    -523.494E-03     153.679E-03    -523.121E-03     151.678E-03    -21.5860E-03     181.038E-03    -83.0696E-03    -97.9319E-03    -82.2424E-03     180.211E-03    -97.9319E-03     26.3509E-03    -62.3283E+06    -65.3352E+06    -236.330E+06    -64.4394E+06    -236.070E+06    -63.4845E+06    -4.80432E+06         34.2713
            1188     3.60891E-03     1.21745E-03     154.708E-03     138.206E-03    -513.554E-03     136.747E-03    -510.863E-03     153.477E-03    -40.0823E-03     191.006E-03    -90.1478E-03    -100.796E-03    -89.5547E-03     190.412E-03    -100.796E-03     23.0323E-03    -63.4112E+06    -67.7368E+06    -239.851E+06    -67.4204E+06    -239.655E+06    -63.9232E+06    -3.65694E+06         34.8856
            1189     2.69968E-03     1.23187E-03     167.155E-03     139.717E-03    -528.546E-03     141.473E-03    -521.388E-03     158.241E-03     48.8493E-03     199.899E-03    -96.6365E-03    -103.272E-03    -96.2572E-03     199.520E-03    -103.272E-03     18.6606E-03    -64.9270E+06    -70.6352E+06    -240.704E+06    -70.7649E+06    -240.574E+06    -64.9270E+06    -1.82731E+06         35.4423
            1190     1.79481E-03     1.24240E-03     182.349E-03     153.169E-03    -559.038E-03     140.834E-03    -531.980E-03     167.626E-03    -17.9653E-03     207.239E-03    -102.007E-03    -105.256E-03    -101.813E-03     207.045E-03    -105.256E-03     13.2663E-03    -67.0486E+06    -75.1429E+06    -241.477E+06    -75.2525E+06    -241.367E+06    -67.0486E+06    -1.33279E+06         35.8842
            1191     897.644E-06     1.24936E-03     251.749E-03     171.059E-03    -649.725E-03     167.773E-03    -575.431E-03     180.741E-03     214.210E-03     212.215E-03    -105.478E-03    -106.721E-03    -105.798E-03     212.150E-03    -106.336E-03     7.49368E-03    -75.1086E+06    -80.7599E+06    -249.621E+06      -80.26E+06    -249.545E+06    -75.6843E+06     987.739E+03         36.1806
            1192     946.882E-06     62.3746E-03     827.737E-03    -99.6389E-03    -869.488E-03    -592.539E-03    -367.665E-03     818.815E-03    -136.847E-03     109.860E-03    -54.6896E-03    -55.1332E-03    -55.1303E-03     109.857E-03    -54.6896E-03     1.23012E-03    -74.8403E+06    -77.9139E+06    -250.429E+06    -77.1635E+06    -250.417E+06    -75.6023E+06    -632.436E+03         28.1679
            1193     1.89356E-03     62.3772E-03     121.637E-03     104.658E-03    -366.838E-03     106.922E-03    -359.579E-03     112.114E-03     83.8472E-03     110.174E-03    -54.9685E-03    -55.1592E-03    -55.1223E-03     110.159E-03    -54.9910E-03     2.88149E-03    -69.0748E+06    -74.5121E+06    -248.900E+06    -74.5192E+06    -248.893E+06    -69.0748E+06    -172.979E+03         28.2649
            1194     2.83948E-03     62.3808E-03     123.743E-03     95.7567E-03    -361.947E-03     104.723E-03    -357.156E-03     109.986E-03    -5.56989E-03     110.319E-03    -55.0805E-03    -55.2156E-03    -55.1429E-03     110.282E-03    -55.1165E-03     4.84210E-03    -58.4976E+06    -70.1377E+06    -243.116E+06    -70.1461E+06    -243.108E+06    -58.4976E+06    -237.596E+03         28.4322
            1195     3.78684E-03     62.3880E-03     127.400E-03     91.7789E-03    -366.212E-03     107.882E-03    -363.888E-03     108.972E-03    -44.9492E-03     110.370E-03    -55.1585E-03    -55.2654E-03    -55.1710E-03     110.306E-03    -55.1890E-03     6.45758E-03    -46.2248E+06    -66.3238E+06    -242.224E+06    -66.3354E+06    -242.212E+06    -46.2248E+06     858.172E+03         28.6553
            1196     4.73252E-03     62.3949E-03     117.608E-03     91.5744E-03    -359.181E-03     97.3801E-03    -355.111E-03     107.732E-03    -37.5655E-03     110.326E-03    -55.1331E-03    -55.2862E-03    -55.0599E-03     110.228E-03    -55.2608E-03     8.00541E-03    -35.7251E+06    -60.2458E+06    -235.193E+06    -60.2767E+06    -235.162E+06    -35.7251E+06     1.12944E+06         28.9171
            1197     5.67898E-03     62.4052E-03     119.108E-03     93.9315E-03    -366.399E-03     103.288E-03    -363.016E-03     106.369E-03    -40.3425E-03     110.267E-03    -55.0191E-03    -55.2353E-03    -54.8794E-03     110.127E-03    -55.2353E-03     9.56542E-03    -25.1450E+06    -53.4251E+06    -222.656E+06    -53.4517E+06    -222.630E+06    -25.1450E+06     330.592E+03         29.2430
            1198     6.62653E-03     62.4161E-03     120.192E-03     103.147E-03    -376.429E-03     113.897E-03    -373.599E-03     106.612E-03     30.3323E-03     110.182E-03    -55.0020E-03    -55.2277E-03    -54.8110E-03     109.991E-03    -55.2277E-03     11.1863E-03    -17.5714E+06    -48.9782E+06    -206.710E+06    -48.9843E+06    -206.704E+06    -17.5714E+06     407.200E+03         29.6596
            1199     7.57300E-03     62.4295E-03     112.424E-03     102.599E-03    -367.411E-03     104.183E-03    -363.548E-03     106.978E-03     62.4635E-03     110.161E-03    -55.0120E-03    -55.2187E-03    -54.7495E-03     109.899E-03    -55.2187E-03     13.1141E-03    -13.6482E+06    -44.9668E+06    -184.245E+06    -44.9720E+06    -184.240E+06    -13.6482E+06     787.237E+03         30.1744
            1200     8.51942E-03     62.4453E-03     106.869E-03     99.4874E-03    -356.965E-03     98.5042E-03    -355.511E-03     106.398E-03     9.88192E-03     110.123E-03    -54.9425E-03    -55.1604E-03    -54.5933E-03     109.752E-03    -55.1382E-03     15.5718E-03    -8.81585E+06    -41.0766E+06    -160.537E+06    -41.0810E+06    -160.533E+06    -8.81585E+06     657.084E+03         30.8063
            1201     9.46672E-03     62.4640E-03     114.253E-03     95.6981E-03    -359.496E-03     103.837E-03    -359.259E-03     105.877E-03    -15.1066E-03     110.039E-03    -54.9958E-03    -55.1494E-03    -54.5418E-03     109.541E-03    -55.1051E-03     18.0765E-03    -6.04336E+06    -37.8870E+06    -132.520E+06    -37.8911E+06    -132.516E+06    -6.04336E+06     206.853E+03         31.5564
            1202     10.4134E-03     62.4837E-03     121.849E-03     98.4507E-03    -370.223E-03     113.840E-03    -369.861E-03     106.097E-03     1.43195E-03     110.047E-03    -55.0318E-03    -55.1653E-03    -54.4321E-03     109.314E-03    -55.0318E-03     21.7992E-03    -9.56112E+06    -34.9675E+06    -92.0493E+06    -35.0483E+06    -91.9684E+06    -9.56112E+06    -1.10931E+06         32.4194
            1203     11.3609E-03     62.5102E-03     123.912E-03     101.434E-03    -376.172E-03     118.162E-03    -375.844E-03     106.856E-03     3.64124E-03     110.183E-03    -54.9164E-03    -55.3403E-03    -54.1718E-03     109.015E-03    -54.9164E-03     27.5419E-03    -6.68082E+06    -18.2844E+06    -49.3687E+06    -32.5790E+06    -35.0741E+06    -6.68082E+06    -296.610E+03         33.4109
            1204     12.3081E-03     62.5430E-03     116.443E-03     97.1567E-03    -366.071E-03     105.850E-03    -365.556E-03     107.234E-03     2.66568E-03     110.580E-03    -54.7284E-03    -55.8578E-03    -53.9430E-03     108.665E-03    -54.7284E-03     35.2072E-03     56.6848E+06    -669.021E+03    -30.5219E+06    -30.4630E+06     55.1533E+06     803.507E+03     1.66866E+06         34.6889
            1205     13.2547E-03     62.5865E-03     108.628E-03     94.1336E-03    -353.590E-03     95.2553E-03    -352.830E-03     106.747E-03     3.19293E-03     111.862E-03    -54.7398E-03    -57.1818E-03    -53.6293E-03     108.309E-03    -54.7398E-03     47.8514E-03     135.411E+06     27.1529E+06    -27.7419E+06    -27.7078E+06     135.377E+06     27.1529E+06     1.44285E+06         36.5637
            1206     14.2025E-03     62.6472E-03     107.786E-03     93.4953E-03    -351.126E-03     94.8620E-03    -350.612E-03     105.905E-03     3.79625E-03     111.699E-03    -54.9724E-03    -56.9031E-03    -53.2287E-03     108.025E-03    -54.9724E-03     48.7630E-03     162.152E+06     79.8980E+06    -23.2457E+06    -23.2275E+06     162.134E+06     79.8980E+06     837.913E+03         39.1735
            1207     15.1514E-03     62.6928E-03     112.196E-03     101.036E-03    -360.644E-03     107.397E-03    -360.296E-03     105.487E-03     1.74933E-03     114.066E-03    -55.0824E-03    -59.0686E-03    -53.3359E-03     108.334E-03    -55.0824E-03     59.6577E-03     170.614E+06     116.829E+06    -16.7213E+06    -16.7162E+06     170.608E+06     116.829E+06     730.988E+03         42.2570
            1208     16.0987E-03     62.7780E-03     119.674E-03     105.849E-03    -364.873E-03     119.500E-03    -364.699E-03     105.849E-03    -10.2502E-03     112.655E-03    -53.9307E-03    -58.7553E-03    -53.1504E-03     108.194E-03    -55.0748E-03     42.8986E-03     174.129E+06     127.128E+06    -8.64517E+06    -8.64204E+06     174.126E+06     127.128E+06     123.238E+03         45.1376
            1209     946.846E-06     63.4904E-03     822.605E-03    -53.8561E-03    -912.033E-03    -607.242E-03    -335.005E-03     798.963E-03    -262.685E-03     109.980E-03    -54.8083E-03    -55.1602E-03    -55.1569E-03     109.977E-03    -54.8083E-03     1.32946E-03    -72.7492E+06    -76.1930E+06    -249.642E+06    -75.8956E+06    -249.629E+06    -73.0603E+06    -371.021E+03         28.1624
            1210     1.89317E-03     63.4921E-03     143.703E-03     99.1539E-03    -388.158E-03     132.863E-03    -381.539E-03     103.375E-03     19.6008E-03     110.374E-03    -55.0637E-03    -55.2504E-03    -55.2356E-03     110.359E-03    -55.0637E-03     2.93398E-03    -66.5710E+06    -73.0964E+06    -248.246E+06    -73.1059E+06    -248.236E+06    -66.5710E+06    -1.21652E+06         28.2597
            1211     2.84002E-03     63.4972E-03     126.725E-03     91.7282E-03    -365.912E-03     106.178E-03    -363.676E-03     110.039E-03    -42.3428E-03     110.416E-03    -55.0988E-03    -55.2766E-03    -55.1744E-03     110.381E-03    -55.1665E-03     4.72317E-03    -57.6139E+06    -69.3312E+06    -244.322E+06    -69.3410E+06    -244.312E+06    -57.6139E+06     -395.98E+03         28.4258
            1212     3.78559E-03     63.5030E-03     106.127E-03     82.1230E-03    -337.385E-03     80.1467E-03    -335.409E-03     106.127E-03    -18.0402E-03     110.203E-03    -55.0585E-03    -55.2048E-03    -54.9922E-03     110.137E-03    -55.2048E-03     6.49573E-03    -44.6567E+06    -64.0899E+06    -243.518E+06    -64.0943E+06    -243.514E+06    -44.6567E+06     374.022E+03         28.6481
            1213     4.73291E-03     63.5113E-03     110.788E-03     92.5829E-03    -355.176E-03     98.6292E-03    -352.932E-03     102.497E-03    -1.34888E-03     110.339E-03    -55.1580E-03    -55.2665E-03    -55.0658E-03     110.236E-03    -55.2549E-03     8.21790E-03    -36.2092E+06    -58.5517E+06    -234.037E+06    -58.5583E+06    -234.030E+06    -36.2092E+06    -493.686E+03         28.9117
            1214     5.67974E-03     63.5202E-03     119.306E-03     99.2051E-03    -370.561E-03     112.154E-03    -367.086E-03     102.882E-03    -26.4254E-03     110.369E-03    -55.1293E-03    -55.2553E-03    -54.9968E-03     110.225E-03    -55.2437E-03     9.70791E-03    -28.4608E+06    -54.5133E+06    -223.093E+06    -54.5197E+06    -223.087E+06    -28.4608E+06    -224.688E+03         29.2403
            1215     6.62584E-03     63.5320E-03     121.728E-03     100.614E-03    -372.490E-03     113.712E-03    -368.151E-03     104.291E-03    -10.4492E-03     110.244E-03    -55.0648E-03    -55.2208E-03    -54.8596E-03     110.039E-03    -55.2208E-03     11.5841E-03    -18.6583E+06    -50.1482E+06    -207.199E+06    -50.1517E+06    -207.195E+06    -18.6583E+06     675.070E+03         29.6577
            1216     7.57255E-03     63.5451E-03     125.222E-03     103.830E-03    -376.918E-03     121.763E-03    -375.528E-03     105.898E-03     25.1658E-03     110.257E-03    -55.0819E-03    -55.1970E-03    -54.7998E-03     109.975E-03    -55.1970E-03     13.5962E-03    -13.8482E+06    -45.2740E+06    -183.886E+06    -45.2783E+06    -183.882E+06    -13.8482E+06     587.566E+03         30.1730
            1217     8.51977E-03     63.5609E-03     117.044E-03     100.251E-03    -365.966E-03     110.066E-03    -365.761E-03     107.024E-03    -3.32348E-03     110.051E-03    -54.8912E-03    -55.1202E-03    -54.5163E-03     109.676E-03    -55.1202E-03     15.6672E-03     -9.3527E+06    -40.7895E+06    -160.843E+06    -40.7946E+06    -160.838E+06     -9.3527E+06     609.222E+03         30.8043
            1218     9.46683E-03     63.5787E-03     106.189E-03     86.3748E-03    -340.352E-03     86.2090E-03    -340.186E-03     106.189E-03    -1.87335E-03     109.894E-03    -54.8990E-03    -55.0993E-03    -54.4063E-03     109.395E-03    -55.0929E-03     18.0589E-03    -5.83934E+06    -37.5674E+06    -132.252E+06    -37.5726E+06    -132.247E+06    -5.83934E+06     634.387E+03         31.5531
            1219     10.4142E-03     63.6001E-03     108.888E-03     84.7768E-03    -342.000E-03     88.7162E-03    -341.520E-03     104.469E-03    -5.17651E-03     110.040E-03    -55.0143E-03    -55.1749E-03    -54.4414E-03     109.326E-03    -55.0343E-03     21.5546E-03    -7.69058E+06    -36.5811E+06    -91.0670E+06    -36.8475E+06    -90.8006E+06    -7.69058E+06     670.525E+03         32.4172
            1220     11.3604E-03     63.6252E-03     123.994E-03     99.7349E-03    -373.712E-03     118.835E-03    -373.135E-03     104.317E-03    -11.4017E-03     110.174E-03    -54.9231E-03    -55.3512E-03    -54.1995E-03     109.023E-03    -54.9231E-03     27.2790E-03    -6.90232E+06    -21.7956E+06    -52.1936E+06    -37.1622E+06    -36.8271E+06    -6.90232E+06     844.492E+03         33.4116
            1221     12.3077E-03     63.6590E-03     123.428E-03     102.383E-03    -376.073E-03     119.544E-03    -375.186E-03     105.380E-03    -52.8279E-06     110.394E-03    -54.7236E-03    -55.7019E-03    -53.7517E-03     108.444E-03    -54.7236E-03     35.4777E-03     55.5917E+06    -3.68966E+06    -34.9801E+06    -34.9390E+06     54.0650E+06    -2.20418E+06     490.662E+03         34.6926
            1222     13.2558E-03     63.7020E-03     108.159E-03     90.8803E-03    -348.332E-03     92.6845E-03    -347.345E-03     105.368E-03     4.18096E-03     111.795E-03    -54.7172E-03    -57.1471E-03    -53.5990E-03     108.247E-03    -54.7172E-03     47.8772E-03     135.756E+06     24.2589E+06    -29.8151E+06    -29.7990E+06     135.740E+06     24.2589E+06     579.275E+03         36.5707
            1223     14.2038E-03     63.7626E-03     106.418E-03     91.5200E-03    -345.997E-03     92.9389E-03    -345.458E-03     104.460E-03     3.84357E-03     111.815E-03    -54.9518E-03    -57.0339E-03    -53.3828E-03     108.164E-03    -54.9518E-03     48.6755E-03     161.837E+06     76.4911E+06    -23.3362E+06    -23.3111E+06     161.812E+06     76.4911E+06     1.22050E+06         39.1842
            1224     15.1509E-03     63.8087E-03     114.582E-03     102.871E-03    -361.886E-03     112.889E-03    -361.642E-03     104.321E-03     16.1087E-03     114.028E-03    -55.0634E-03    -59.0346E-03    -53.2888E-03     108.282E-03    -55.0634E-03     59.7116E-03     171.207E+06     115.975E+06    -15.2318E+06    -15.2122E+06     171.187E+06     115.975E+06     473.565E+03         42.2711
            1225     16.0990E-03     63.8940E-03     115.009E-03     98.5843E-03    -355.858E-03     107.983E-03    -354.929E-03     104.682E-03     21.7874E-03     112.617E-03    -53.9349E-03    -58.6875E-03    -53.0961E-03     108.144E-03    -55.0529E-03     43.1246E-03     174.643E+06     128.164E+06    -7.39309E+06    -7.37877E+06     174.629E+06     128.164E+06    -46.6405E+03         45.1546
            1226     946.480E-06     64.6052E-03     826.354E-03    -62.0731E-03    -917.459E-03    -620.940E-03    -343.873E-03     811.635E-03    -258.377E-03     110.483E-03    -55.1434E-03    -55.3211E-03    -55.2717E-03     110.480E-03    -55.1896E-03     1.24406E-03    -72.1637E+06    -75.9136E+06    -248.606E+06    -75.4765E+06    -248.595E+06    -72.6116E+06    -17.0143E+03         28.1672
            1227     1.89315E-03     64.6081E-03     130.753E-03     95.7710E-03    -380.948E-03     114.959E-03    -368.731E-03     99.3482E-03     64.3463E-03     110.419E-03    -55.0381E-03    -55.3219E-03    -55.0992E-03     110.405E-03    -55.2463E-03     2.90576E-03    -64.7773E+06    -72.8812E+06    -246.873E+06    -72.8883E+06    -246.866E+06    -64.7773E+06    -894.455E+03         28.2577
            1228     2.83887E-03     64.6128E-03     134.358E-03     98.1310E-03    -388.265E-03     120.029E-03    -381.469E-03     105.665E-03     24.6490E-03     110.227E-03    -54.9521E-03    -55.2818E-03    -54.9784E-03     110.192E-03    -55.2198E-03     4.78144E-03    -57.3636E+06    -69.1266E+06    -245.633E+06    -69.1368E+06    -245.623E+06    -57.3636E+06    -875.934E+03         28.4190
            1229     3.78673E-03     64.6181E-03     119.064E-03     93.7957E-03    -365.274E-03     98.9001E-03    -358.371E-03     107.056E-03     22.0910E-03     110.143E-03    -55.0150E-03    -55.2125E-03    -54.9745E-03     110.072E-03    -55.1821E-03     6.73062E-03    -46.3788E+06    -63.8162E+06    -243.048E+06    -63.8247E+06    -243.039E+06    -46.3788E+06    -922.740E+03         28.6413
            1230     4.73294E-03     64.6269E-03     107.828E-03     83.4979E-03    -342.193E-03     85.0177E-03    -340.027E-03     104.143E-03    -22.1899E-03     110.303E-03    -55.0796E-03    -55.2607E-03    -55.0194E-03     110.201E-03    -55.2187E-03     8.19425E-03    -36.3825E+06    -59.2760E+06    -234.476E+06    -59.2773E+06    -234.474E+06    -36.3825E+06    -324.244E+03         28.9079
            1231     5.67912E-03     64.6360E-03     108.865E-03     86.1790E-03    -343.246E-03     90.4976E-03    -340.022E-03     101.323E-03    -27.6129E-03     110.330E-03    -55.0947E-03    -55.2432E-03    -54.9645E-03     110.189E-03    -55.2316E-03     9.61027E-03    -27.7473E+06    -54.7854E+06    -224.644E+06    -54.7899E+06    -224.639E+06    -27.7473E+06     510.934E+03         29.2381
            1232     6.62647E-03     64.6471E-03     114.590E-03     97.1514E-03    -356.472E-03     106.820E-03    -352.378E-03     100.828E-03    -9.26890E-03     110.190E-03    -55.0489E-03    -55.1968E-03    -54.8361E-03     109.977E-03    -55.1968E-03     11.7969E-03    -20.3195E+06    -50.6916E+06    -206.663E+06    -50.6967E+06    -206.658E+06    -20.3195E+06     490.728E+03         29.6545
            1233     7.57334E-03     64.6610E-03     124.431E-03     102.530E-03    -370.899E-03     123.313E-03    -369.781E-03     102.530E-03     29.2710E-03     110.202E-03    -55.0489E-03    -55.1761E-03    -54.7618E-03     109.914E-03    -55.1761E-03     13.7322E-03    -14.7454E+06    -46.8373E+06    -183.638E+06    -46.8381E+06    -183.637E+06    -14.7454E+06    -31.6250E+03         30.1704
            1234     8.51960E-03     64.6762E-03     123.419E-03     102.528E-03    -371.693E-03     121.134E-03    -371.580E-03     104.700E-03    -3.75531E-03     110.163E-03    -55.0143E-03    -55.1404E-03    -54.6704E-03     109.796E-03    -55.1176E-03     15.5163E-03    -9.45978E+06    -42.7779E+06    -161.069E+06    -42.7806E+06    -161.066E+06    -9.45978E+06     158.582E+03         30.8040
            1235     9.46647E-03     64.6942E-03     115.315E-03     95.9005E-03    -358.057E-03     104.747E-03    -357.125E-03     105.536E-03     12.1724E-03     110.048E-03    -55.0186E-03    -55.1506E-03    -54.5647E-03     109.547E-03    -55.1033E-03     18.0890E-03    -6.34315E+06    -39.1553E+06    -133.238E+06    -39.2091E+06    -133.184E+06    -6.34315E+06     1.34221E+06         31.5534
            1236     10.4133E-03     64.7155E-03     107.699E-03     83.8845E-03    -340.748E-03     85.9057E-03    -339.713E-03     104.643E-03    -156.790E-06     109.942E-03    -54.9529E-03    -55.1166E-03    -54.3107E-03     109.234E-03    -55.0506E-03     21.4905E-03    -6.31702E+06    -36.4946E+06    -92.7678E+06    -36.8019E+06    -92.4605E+06    -6.31702E+06     3.12484E+06         32.4177
            1237     11.3607E-03     64.7412E-03     109.207E-03     82.1197E-03    -343.031E-03     87.8461E-03    -342.709E-03     103.159E-03    -19.9865E-03     110.015E-03    -54.8433E-03    -55.2639E-03    -54.0334E-03     108.862E-03    -54.9210E-03     27.2175E-03    -3.22062E+06    -20.1588E+06    -50.7296E+06    -34.4445E+06    -35.3178E+06    -4.34666E+06     2.11695E+06         33.4149
            1238     12.3084E-03     64.7738E-03     112.736E-03     94.7854E-03    -356.431E-03     104.047E-03    -355.485E-03     102.529E-03     19.4170E-03     110.377E-03    -54.7088E-03    -55.6985E-03    -53.7499E-03     108.429E-03    -54.7088E-03     35.5030E-03     57.0393E+06    -4.18956E+06    -32.1225E+06    -32.1035E+06     55.5510E+06    -2.72020E+06    -412.209E+03         34.6991
            1239     13.2558E-03     64.8177E-03     115.338E-03     99.2151E-03    -360.972E-03     110.431E-03    -359.598E-03     102.748E-03     10.4449E-03     111.895E-03    -54.7087E-03    -57.2324E-03    -53.6985E-03     108.361E-03    -54.7087E-03     47.7833E-03     134.422E+06     21.2060E+06    -29.3712E+06    -29.3589E+06     134.409E+06     21.2060E+06    -379.589E+03         36.5798
            1240     14.2024E-03     64.8786E-03     117.008E-03     99.6979E-03    -362.459E-03     112.697E-03    -361.681E-03     103.231E-03    -19.4559E-03     111.810E-03    -54.9562E-03    -56.9904E-03    -53.3840E-03     108.204E-03    -54.9562E-03     48.3242E-03     161.526E+06     72.8940E+06    -23.7552E+06    -23.7257E+06     161.497E+06     72.8940E+06     154.295E+03         39.1964
            1241     15.1512E-03     64.9235E-03     112.146E-03     98.7165E-03    -356.204E-03     107.054E-03    -355.963E-03     103.568E-03    -1.01952E-03     113.816E-03    -55.0603E-03    -58.7958E-03    -53.0118E-03     108.032E-03    -55.0603E-03     59.6198E-03     171.851E+06     114.055E+06    -15.4645E+06    -15.4246E+06     171.811E+06     114.055E+06     89.9586E+03         42.2867
            1242     16.0999E-03     65.0090E-03     107.687E-03     92.4169E-03    -347.047E-03     95.7951E-03    -346.104E-03     103.367E-03     19.0182E-03     112.684E-03    -54.0812E-03    -58.5585E-03    -53.0617E-03     108.128E-03    -55.0217E-03     43.2938E-03     175.048E+06     128.994E+06    -7.36497E+06    -7.34262E+06     175.026E+06     128.994E+06     352.388E+03         45.1730
            1243     945.998E-06     65.7213E-03     827.547E-03    -56.0766E-03    -927.220E-03    -562.734E-03    -413.148E-03     820.133E-03    -301.738E-03     110.759E-03    -55.1954E-03    -55.5282E-03    -55.3833E-03     110.755E-03    -55.3360E-03     1.39845E-03    -70.9999E+06    -73.6556E+06    -247.385E+06    -73.3963E+06    -247.381E+06    -71.2630E+06    -221.833E+03         28.1634
            1244     1.89207E-03     65.7240E-03     128.902E-03     101.071E-03    -386.978E-03     91.7166E-03    -370.209E-03     121.487E-03     90.2847E-03     110.271E-03    -54.9003E-03    -55.3058E-03    -54.8852E-03     110.256E-03    -55.3058E-03     3.01625E-03    -63.6076E+06    -70.4449E+06    -245.964E+06    -70.4480E+06    -245.961E+06    -63.6076E+06    -329.723E+03         28.2555
            1245     2.84037E-03     65.7274E-03     122.685E-03     85.9164E-03    -361.986E-03     90.2590E-03    -354.321E-03     110.677E-03     16.6794E-03     110.150E-03    -54.9065E-03    -55.2614E-03    -54.9078E-03     110.113E-03    -55.2227E-03     4.87853E-03    -55.6309E+06     -67.539E+06    -245.261E+06    -67.5493E+06    -245.250E+06    -55.6309E+06    -70.9077E+03         28.4155
            1246     3.78598E-03     65.7341E-03     118.541E-03     94.0615E-03    -363.557E-03     100.689E-03    -358.177E-03     106.533E-03     29.9524E-03     110.225E-03    -55.0349E-03    -55.2512E-03    -55.0366E-03     110.157E-03    -55.1821E-03     6.62432E-03    -47.2672E+06    -65.1645E+06    -242.998E+06    -65.1761E+06    -242.986E+06    -47.2672E+06    -609.093E+03         28.6363
            1247     4.73264E-03     65.7422E-03     107.570E-03     84.6358E-03    -338.687E-03     87.3108E-03    -337.897E-03     104.104E-03    -24.6106E-03     110.176E-03    -54.9495E-03    -55.2275E-03    -54.8782E-03     110.075E-03    -55.1971E-03     8.16039E-03    -37.5319E+06    -60.9615E+06    -235.340E+06    -60.9650E+06    -235.337E+06    -37.5319E+06    -615.402E+03         28.9038
            1248     5.68011E-03     65.7514E-03     111.391E-03     90.7475E-03    -344.668E-03     99.4861E-03    -344.231E-03     102.214E-03    -12.1539E-03     110.265E-03    -55.0022E-03    -55.2151E-03    -54.8824E-03     110.117E-03    -55.1871E-03     9.83706E-03    -27.6790E+06    -55.6073E+06    -225.933E+06    -55.6144E+06    -225.926E+06    -27.6790E+06     387.534E+03         29.2341
            1249     6.62619E-03     65.7629E-03     111.138E-03     98.1526E-03    -349.288E-03     105.504E-03    -347.766E-03     102.264E-03     26.3837E-03     110.235E-03    -55.0726E-03    -55.1901E-03    -54.8915E-03     110.026E-03    -55.1620E-03     11.7132E-03    -21.0104E+06    -50.6935E+06    -206.217E+06    -50.7030E+06    -206.207E+06    -21.0104E+06     871.998E+03         29.6505
            1250     7.57290E-03     65.7763E-03     107.291E-03     92.7850E-03    -340.621E-03     96.1189E-03    -338.815E-03     102.151E-03     45.1582E-03     110.152E-03    -55.0361E-03    -55.1679E-03    -54.7504E-03     109.867E-03    -55.1679E-03     13.6871E-03    -15.7890E+06    -47.1346E+06    -183.149E+06    -47.1389E+06    -183.145E+06    -15.7890E+06     288.532E+03         30.1671
            1251     8.52002E-03     65.7923E-03     113.284E-03     96.8112E-03    -353.816E-03     107.434E-03    -353.221E-03     102.066E-03    -2.26120E-03     110.174E-03    -55.0242E-03    -55.1551E-03    -54.7068E-03     109.802E-03    -55.0997E-03     15.6527E-03    -11.6286E+06    -44.5294E+06    -161.744E+06    -44.5341E+06    -161.739E+06    -11.6286E+06     299.709E+03         30.8023
            1252     9.46651E-03     65.8095E-03     121.073E-03     103.171E-03    -369.679E-03     120.134E-03    -368.740E-03     103.171E-03     7.54004E-03     110.128E-03    -55.0755E-03    -55.1605E-03    -54.6409E-03     109.608E-03    -55.0755E-03     18.4125E-03    -10.4005E+06    -41.1922E+06    -135.041E+06    -41.2463E+06    -134.987E+06    -10.4005E+06     1.19557E+06         31.5535
            1253     10.4137E-03     65.8316E-03     115.396E-03     95.3079E-03    -358.481E-03     105.140E-03    -356.939E-03     104.021E-03    -2.94325E-03     109.941E-03    -54.9501E-03    -55.1158E-03    -54.3144E-03     109.218E-03    -55.0278E-03     21.7488E-03    -10.1325E+06    -36.2830E+06    -94.1150E+06    -36.4024E+06    -93.9957E+06    -10.1325E+06     1.52586E+06         32.4198
            1254     11.3609E-03     65.8555E-03     105.801E-03     78.1310E-03    -331.185E-03     79.9569E-03    -330.297E-03     103.087E-03    -17.6125E-03     110.075E-03    -54.8201E-03    -55.3322E-03    -54.1094E-03     108.930E-03    -54.8978E-03     27.1501E-03    -4.50491E+06    -17.3004E+06    -48.4215E+06    -31.4500E+06    -33.1458E+06    -5.63095E+06     1.06342E+06         33.4198
            1255     12.3081E-03     65.8902E-03     102.712E-03     80.7418E-03    -328.792E-03     81.1006E-03    -327.783E-03     101.344E-03     32.5777E-03     110.502E-03    -54.7142E-03    -55.7945E-03    -53.8872E-03     108.595E-03    -54.7142E-03     35.1712E-03     56.7784E+06    -2.75913E+06    -29.4094E+06    -29.3673E+06     56.7314E+06    -2.75429E+06     905.031E+03         34.7062
            1256     13.2553E-03     65.9325E-03     115.598E-03     96.5006E-03    -355.195E-03     109.678E-03    -353.635E-03     100.861E-03     16.2444E-03     111.844E-03    -54.7200E-03    -57.1325E-03    -53.5684E-03     108.280E-03    -54.7200E-03     47.8546E-03     134.080E+06     20.7386E+06    -28.4045E+06    -28.3666E+06     134.042E+06     20.7386E+06     345.851E+03         36.5895
            1257     14.2038E-03     65.9954E-03     118.266E-03     97.5565E-03    -358.461E-03     113.337E-03    -357.483E-03     101.508E-03    -10.4820E-03     111.671E-03    -54.9581E-03    -56.7671E-03    -53.1445E-03     108.048E-03    -54.9581E-03     48.2621E-03     161.627E+06     73.7749E+06    -24.0774E+06    -24.0447E+06     161.595E+06     73.7749E+06    -181.618E+03         39.2092
            1258     15.1513E-03     66.0372E-03     104.840E-03     88.1562E-03    -338.729E-03     91.1624E-03    -338.348E-03     101.453E-03    -4.44730E-03     113.925E-03    -55.0715E-03    -58.8384E-03    -53.1060E-03     108.193E-03    -55.0715E-03     59.2714E-03     171.531E+06     114.064E+06    -16.7813E+06    -16.7414E+06     171.491E+06     114.064E+06    -42.1254E+03         42.3018
            1259     16.0997E-03     66.1251E-03     108.191E-03     91.5686E-03    -348.959E-03     98.7368E-03    -348.850E-03     100.913E-03    -11.7540E-03     112.734E-03    -53.9453E-03    -58.6829E-03    -53.0664E-03     108.188E-03    -55.0168E-03     43.0473E-03     175.044E+06     128.501E+06    -7.83268E+06    -7.81224E+06     175.024E+06     128.501E+06     14.6769E+03         45.1907
            1260     946.421E-06     66.8383E-03     808.680E-03    -18.1129E-03    -939.699E-03    -564.153E-03    -377.294E-03     792.315E-03    -369.782E-03     110.280E-03    -54.8431E-03    -55.3726E-03    -55.2736E-03     110.276E-03    -54.9375E-03     1.65913E-03    -67.9671E+06    -73.5840E+06    -246.869E+06    -73.4738E+06    -246.853E+06    -68.0934E+06     124.198E+03         28.1468
            1261     1.89369E-03     66.8385E-03     139.627E-03     93.4961E-03    -379.670E-03     94.6571E-03    -351.539E-03     110.335E-03     51.4596E-03     110.355E-03    -54.9568E-03    -55.3031E-03    -55.0902E-03     110.339E-03    -55.1542E-03     3.00473E-03    -61.6053E+06    -70.2867E+06    -246.634E+06    -70.2994E+06    -246.621E+06    -61.6053E+06     861.377E+03         28.2574
            1262     2.83909E-03     66.8432E-03     115.853E-03     80.2990E-03    -340.499E-03     82.6180E-03    -329.891E-03     102.926E-03    -61.2669E-03     110.397E-03    -55.0366E-03    -55.3724E-03    -55.1675E-03     110.358E-03    -55.2026E-03     4.98626E-03    -55.6344E+06    -67.3657E+06    -245.800E+06    -67.3804E+06    -245.785E+06    -55.6344E+06     1.43583E+06         28.4183
            1263     3.78619E-03     66.8498E-03     112.890E-03     92.5467E-03    -346.479E-03     103.267E-03    -344.197E-03     99.8873E-03     7.04700E-03     110.177E-03    -54.9565E-03    -55.2560E-03    -54.9299E-03     110.112E-03    -55.2173E-03     6.52545E-03    -43.6531E+06    -63.4536E+06    -241.732E+06    -63.4667E+06    -241.719E+06    -43.6531E+06     903.211E+03         28.6338
            1264     4.73325E-03     66.8571E-03     124.943E-03     100.741E-03    -366.291E-03     122.420E-03    -365.321E-03     102.293E-03    -14.5263E-03     110.100E-03    -54.8913E-03    -55.2010E-03    -54.7927E-03     110.001E-03    -55.2010E-03     8.01056E-03    -36.3247E+06    -59.3312E+06    -234.870E+06    -59.3361E+06    -234.865E+06    -36.3247E+06    -627.427E+03         28.9016
            1265     5.67960E-03     66.8668E-03     115.919E-03     97.3300E-03    -351.655E-03     105.794E-03    -348.619E-03     104.419E-03    -27.1699E-03     110.190E-03    -54.9754E-03    -55.1651E-03    -54.8537E-03     110.040E-03    -55.1370E-03     9.88978E-03    -30.6782E+06    -55.1365E+06    -227.312E+06    -55.1427E+06    -227.305E+06    -30.6782E+06    -610.132E+03         29.2319
            1266     6.62669E-03     66.8785E-03     105.480E-03     92.3976E-03    -334.416E-03     90.6797E-03    -330.816E-03     103.598E-03    -1.86896E-03     110.151E-03    -55.0382E-03    -55.1307E-03    -54.8619E-03     109.937E-03    -55.0931E-03     11.8446E-03    -24.1727E+06    -50.4440E+06    -207.063E+06    -50.4523E+06    -207.055E+06    -24.1727E+06     546.805E+03         29.6470
            1267     7.57345E-03     66.8918E-03     101.876E-03     91.2172E-03    -330.881E-03     89.0130E-03    -328.648E-03     101.848E-03     24.4379E-03     110.138E-03    -55.0573E-03    -55.1275E-03    -54.7802E-03     109.851E-03    -55.1180E-03     13.7172E-03    -18.2257E+06    -47.0858E+06    -183.041E+06    -47.1169E+06    -183.010E+06    -18.2257E+06     1.53591E+06         30.1638
            1268     8.52009E-03     66.9076E-03     102.931E-03     88.3994E-03    -333.184E-03     89.4570E-03    -331.723E-03     100.412E-03    -22.4399E-03     110.123E-03    -54.9877E-03    -55.1164E-03    -54.6452E-03     109.748E-03    -55.0837E-03     15.6889E-03    -12.5989E+06    -44.3029E+06    -161.484E+06    -44.3360E+06    -161.451E+06    -12.5989E+06     971.994E+03         30.8009
            1269     9.46698E-03     66.9256E-03     107.972E-03     94.0567E-03    -345.603E-03     101.667E-03    -345.090E-03     99.8493E-03    -9.21144E-03     110.085E-03    -55.0213E-03    -55.1588E-03    -54.6091E-03     109.576E-03    -55.0620E-03     18.2444E-03    -11.5656E+06    -40.3402E+06    -135.064E+06    -40.3677E+06    -135.036E+06    -11.5656E+06    -629.387E+03         31.5546
            1270     10.4140E-03     66.9463E-03     114.664E-03     100.143E-03    -357.622E-03     113.364E-03    -356.621E-03     100.442E-03    -18.2528E-03     110.131E-03    -55.0201E-03    -55.2680E-03    -54.5594E-03     109.422E-03    -55.0201E-03     21.5308E-03    -12.0883E+06    -36.1840E+06    -94.3980E+06    -36.2086E+06    -94.3735E+06    -12.0883E+06    -764.858E+03         32.4231
            1271     11.3605E-03     66.9721E-03     115.494E-03     92.6347E-03    -350.045E-03     105.992E-03    -349.041E-03     101.133E-03    -25.4997E-03     110.300E-03    -54.9168E-03    -55.4682E-03    -54.3436E-03     109.175E-03    -54.9168E-03     26.9638E-03    -6.47753E+06    -17.9607E+06    -50.0100E+06    -34.1687E+06    -33.4366E+06    -6.84293E+06     536.142E+03         33.4245
            1272     12.3076E-03     67.0051E-03     108.327E-03     88.1728E-03    -338.545E-03     94.5224E-03    -337.599E-03     101.032E-03     13.4265E-03     110.458E-03    -54.7545E-03    -55.7010E-03    -53.7966E-03     108.553E-03    -54.7545E-03     35.0808E-03     56.0708E+06    -2.67775E+06    -32.1748E+06    -32.1275E+06     56.0185E+06    -2.67291E+06     1.47706E+06         34.7123
            1273     13.2555E-03     67.0487E-03     107.100E-03     90.6042E-03    -338.290E-03     95.9270E-03    -337.121E-03     100.610E-03     8.51890E-03     111.598E-03    -54.7659E-03    -56.8426E-03    -53.3106E-03     108.066E-03    -54.7659E-03     47.6295E-03     135.192E+06     22.8295E+06    -28.8252E+06    -28.7784E+06     135.145E+06     22.8295E+06     1.24155E+06         36.5981
            1274     14.2032E-03     67.1093E-03     104.987E-03     85.0156E-03    -330.082E-03     88.8171E-03    -328.945E-03     100.049E-03     20.7824E-03     111.574E-03    -54.9696E-03    -56.6510E-03    -53.0778E-03     108.001E-03    -54.9696E-03     47.9347E-03     162.652E+06     76.2394E+06    -24.0084E+06    -23.9487E+06     162.592E+06     76.2394E+06     -33.447E+03         39.2211
            1275     15.1516E-03     67.1541E-03     101.582E-03     85.3342E-03    -329.172E-03     86.7019E-03    -328.173E-03     99.2147E-03     11.2494E-03     114.028E-03    -55.0825E-03    -58.9294E-03    -53.2533E-03     108.352E-03    -55.0825E-03     59.0676E-03     171.748E+06     115.211E+06    -16.2981E+06    -16.2516E+06     171.702E+06     115.211E+06    -627.530E+03         42.3163
            1276     16.0992E-03     67.2396E-03     108.228E-03     94.3945E-03    -346.727E-03     103.472E-03    -346.463E-03     98.8871E-03    -19.5749E-03     112.651E-03    -53.8497E-03    -58.7201E-03    -53.0201E-03     108.158E-03    -55.0567E-03     42.9852E-03     174.617E+06     128.439E+06    -7.78364E+06    -7.77000E+06     174.603E+06     128.439E+06    -158.915E+03         45.2075
            1277     947.336E-06     67.9521E-03     775.362E-03    -9.29859E-03    -904.810E-03    -563.102E-03    -317.569E-03     741.924E-03    -301.379E-03     109.785E-03    -54.6125E-03    -55.1206E-03    -55.0678E-03     109.779E-03    -54.6600E-03     1.11921E-03    -69.8588E+06    -75.1949E+06    -249.145E+06    -75.2149E+06    -249.111E+06    -69.8730E+06     1.42950E+06         28.1353
            1278     1.89320E-03     67.9548E-03     142.535E-03     90.7654E-03    -372.070E-03     95.4201E-03    -324.955E-03     90.7654E-03     123.382E-03     110.450E-03    -55.0446E-03    -55.3588E-03    -55.3422E-03     110.433E-03    -55.0446E-03     3.13035E-03    -60.3348E+06    -69.9240E+06    -247.879E+06    -69.9441E+06    -247.859E+06    -60.3348E+06     1.83093E+06         28.2563
            1279     2.83987E-03     67.9589E-03     125.842E-03     93.2034E-03    -356.462E-03     109.916E-03    -341.855E-03     94.5217E-03     16.9306E-03     110.466E-03    -55.1420E-03    -55.3771E-03    -55.2755E-03     110.428E-03    -55.2052E-03     4.95640E-03    -53.9978E+06    -65.3236E+06    -245.686E+06    -65.3385E+06    -245.671E+06    -53.9978E+06     1.45015E+06         28.4193
            1280     3.78620E-03     67.9647E-03     127.270E-03     97.4806E-03    -359.410E-03     112.222E-03    -345.681E-03     98.7988E-03     29.2555E-03     110.123E-03    -54.9989E-03    -55.1950E-03    -54.9354E-03     110.059E-03    -55.1946E-03     6.45664E-03    -43.8515E+06    -60.8031E+06    -240.775E+06    -60.8133E+06    -240.765E+06    -43.8515E+06     1.02898E+06         28.6347
            1281     4.73277E-03     67.9726E-03     123.452E-03     101.027E-03    -358.571E-03     114.714E-03    -350.594E-03     101.788E-03    -12.1507E-03     110.139E-03    -54.9860E-03    -55.1784E-03    -54.8884E-03     110.042E-03    -55.1784E-03     7.97124E-03    -34.8760E+06    -56.8642E+06    -234.290E+06    -56.8711E+06    -234.283E+06    -34.8760E+06     453.711E+03         28.9036
            1282     5.68001E-03     67.9820E-03     108.316E-03     91.2463E-03    -335.371E-03     91.1217E-03    -329.066E-03     102.135E-03    -10.5521E-03     110.217E-03    -55.0212E-03    -55.1389E-03    -54.8829E-03     110.070E-03    -55.1306E-03     9.78847E-03    -28.8912E+06    -53.7131E+06    -227.220E+06    -53.7208E+06    -227.212E+06    -28.8912E+06    -60.5595E+03         29.2325
            1283     6.62671E-03     67.9937E-03     100.446E-03     90.0080E-03    -325.060E-03     85.7375E-03    -320.479E-03     100.136E-03    -29.5782E-03     110.108E-03    -55.0055E-03    -55.1281E-03    -54.8179E-03     109.902E-03    -55.1103E-03     11.6043E-03    -24.2463E+06    -50.4216E+06    -208.248E+06    -50.4258E+06    -208.244E+06    -24.2463E+06    -156.325E+03         29.6459
            1284     7.57331E-03     68.0077E-03     100.912E-03     97.7411E-03    -335.431E-03     98.1763E-03    -333.960E-03     99.0051E-03     11.3799E-03     110.085E-03    -55.0326E-03    -55.1569E-03    -54.7707E-03     109.814E-03    -55.1473E-03     13.3505E-03    -17.3729E+06    -45.1946E+06    -184.147E+06    -45.2277E+06    -184.114E+06    -17.3729E+06     563.080E+03         30.1626
            1285     8.52011E-03     68.0230E-03     100.159E-03     91.5821E-03    -331.465E-03     92.2200E-03    -330.506E-03     98.5625E-03    -23.6132E-03     110.093E-03    -55.0044E-03    -55.1118E-03    -54.6378E-03     109.726E-03    -55.1118E-03     15.4882E-03    -10.1213E+06    -39.9985E+06    -160.366E+06    -40.0351E+06    -160.329E+06    -10.1213E+06     475.896E+03         30.8013
            1286     9.46711E-03     68.0411E-03     97.7034E-03     88.4579E-03    -325.861E-03     88.0029E-03    -325.406E-03     97.7034E-03     2.40619E-03     110.087E-03    -55.0217E-03    -55.1488E-03    -54.5991E-03     109.585E-03    -55.0696E-03     18.1313E-03    -8.30586E+06    -37.1225E+06    -133.283E+06    -37.1496E+06    -133.256E+06    -8.30586E+06    -494.661E+03         31.5565
            1287     10.4135E-03     68.0623E-03     103.143E-03     92.6600E-03    -334.841E-03     98.1993E-03    -334.477E-03     97.2393E-03     2.59738E-03     110.186E-03    -55.0050E-03    -55.3181E-03    -54.5870E-03     109.455E-03    -55.0050E-03     21.8208E-03    -12.0965E+06    -36.1872E+06    -95.1556E+06    -36.2140E+06    -95.1287E+06    -12.0965E+06    -599.716E+03         32.4253
            1288     11.3603E-03     68.0879E-03     114.110E-03     96.8038E-03    -349.156E-03     112.862E-03    -348.959E-03     97.8541E-03    -13.2279E-03     110.335E-03    -54.8993E-03    -55.4899E-03    -54.3372E-03     109.182E-03    -54.8993E-03     27.3576E-03    -7.76445E+06    -19.2278E+06    -50.3486E+06    -33.9241E+06    -35.2869E+06    -8.12985E+06     272.800E+03         33.4271
            1289     12.3076E-03     68.1206E-03     112.392E-03     98.8958E-03    -350.350E-03     112.281E-03    -350.239E-03     98.8958E-03    -9.27629E-03     110.462E-03    -54.7343E-03    -55.6895E-03    -53.7525E-03     108.525E-03    -54.7343E-03     35.3396E-03     56.1532E+06    -4.05641E+06    -30.9512E+06    -30.9074E+06     55.1779E+06    -3.12481E+06     1.25289E+06         34.7167
            1290     13.2552E-03     68.1638E-03     102.195E-03     90.1174E-03    -331.558E-03     92.9005E-03    -331.198E-03     99.0518E-03    -20.1940E-03     111.703E-03    -54.7508E-03    -56.9502E-03    -53.3975E-03     108.150E-03    -54.7508E-03     47.8674E-03     135.946E+06     23.1656E+06    -27.6758E+06    -27.6276E+06     135.898E+06     23.1656E+06     1.21636E+06         36.6044
            1291     14.2035E-03     68.2247E-03     105.616E-03     84.0564E-03    -327.619E-03     90.2508E-03    -326.625E-03     98.4268E-03     8.35164E-03     111.719E-03    -54.9659E-03    -56.8010E-03    -53.2089E-03     108.127E-03    -54.9659E-03     48.1653E-03     164.639E+06     78.4968E+06    -22.3754E+06    -22.3022E+06     164.566E+06     78.4968E+06     299.712E+03         39.2292
            1292     15.1510E-03     68.2694E-03     109.745E-03     92.8274E-03    -341.378E-03     103.422E-03    -340.492E-03     98.2633E-03     16.1459E-03     113.890E-03    -55.0722E-03    -58.7818E-03    -53.1255E-03     108.233E-03    -55.0722E-03     59.0403E-03     171.726E+06     115.472E+06    -16.1579E+06    -16.0965E+06     171.665E+06     115.472E+06    -329.299E+03         42.3276
            1293     16.1000E-03     68.3545E-03     103.367E-03     88.6978E-03    -330.596E-03     93.3350E-03    -330.156E-03     98.2896E-03     1.83147E-03     112.532E-03    -53.9417E-03    -58.5376E-03    -52.9740E-03     108.089E-03    -55.0623E-03     42.8166E-03     173.822E+06     127.569E+06    -8.44613E+06    -8.43126E+06     173.807E+06     127.569E+06    -401.746E+03         45.2223
            1294     946.827E-06     69.0669E-03     735.567E-03     12.0253E-03    -878.386E-03    -487.979E-03    -332.655E-03     689.841E-03    -289.814E-03     110.062E-03    -54.8608E-03    -55.1612E-03    -54.9808E-03     110.057E-03    -55.0364E-03     919.919E-06    -73.1244E+06    -76.0806E+06    -250.904E+06    -76.1053E+06    -250.865E+06    -73.1387E+06     169.112E+03         28.1355
            1295     1.89365E-03     69.0707E-03     152.152E-03     100.179E-03    -384.484E-03     101.208E-03    -334.382E-03     101.021E-03     131.722E-03     110.190E-03    -54.9075E-03    -55.2671E-03    -55.0569E-03     110.174E-03    -55.1019E-03     3.08960E-03    -61.2338E+06    -69.2835E+06    -248.754E+06    -69.2948E+06    -248.743E+06    -61.2338E+06     796.059E+03         28.2469
            1296     2.83970E-03     69.0745E-03     119.082E-03     96.7377E-03    -347.550E-03     98.2161E-03    -330.635E-03     100.689E-03     10.4943E-03     110.233E-03    -55.0835E-03    -55.2053E-03    -55.0980E-03     110.197E-03    -55.1548E-03     4.79575E-03    -54.1167E+06    -65.3439E+06    -246.248E+06    -65.3502E+06    -246.242E+06    -54.1167E+06     982.762E+03         28.4143
            1297     3.78644E-03     69.0805E-03     115.431E-03     96.4187E-03    -343.138E-03     93.6491E-03    -324.465E-03     99.5279E-03    -10.6396E-03     110.167E-03    -55.0918E-03    -55.1725E-03    -55.0764E-03     110.102E-03    -55.1225E-03     6.51645E-03    -46.1350E+06    -61.6523E+06    -240.579E+06    -61.6554E+06    -240.576E+06    -46.1350E+06     636.698E+03         28.6382
            1298     4.73327E-03     69.0878E-03     104.063E-03     97.2023E-03    -333.418E-03     90.1740E-03    -320.289E-03     97.9627E-03    -50.6006E-03     110.323E-03    -55.1199E-03    -55.2502E-03    -55.1013E-03     110.227E-03    -55.1724E-03     7.96344E-03    -34.4294E+06    -56.9554E+06    -233.988E+06    -56.9617E+06    -233.982E+06    -34.4294E+06     902.086E+03         28.9084
            1299     5.67958E-03     69.0976E-03     104.843E-03     93.3095E-03    -334.239E-03     96.8543E-03    -330.050E-03     97.1094E-03     9.05431E-03     110.442E-03    -55.1351E-03    -55.2184E-03    -55.0398E-03     110.300E-03    -55.1723E-03     9.60964E-03    -25.1539E+06    -52.9875E+06    -226.350E+06    -52.9963E+06    -226.342E+06    -25.1539E+06     1.08860E+06         29.2348
            1300     6.62603E-03     69.1093E-03     103.586E-03     94.1053E-03    -335.706E-03     98.3088E-03    -333.468E-03     97.1449E-03    -17.4576E-03     110.157E-03    -55.0154E-03    -55.1798E-03    -54.8187E-03     109.952E-03    -55.1715E-03     11.5891E-03    -22.4484E+06    -49.3860E+06    -208.158E+06    -49.3899E+06    -208.155E+06    -22.4484E+06     239.129E+03         29.6463
            1301     7.57298E-03     69.1230E-03     100.788E-03     95.7999E-03    -336.660E-03     98.4708E-03    -335.842E-03     97.2980E-03     29.6972E-03     109.955E-03    -54.8998E-03    -55.1910E-03    -54.6241E-03     109.680E-03    -55.1910E-03     13.4373E-03    -19.8181E+06    -45.7278E+06    -184.067E+06    -45.7514E+06    -184.044E+06    -19.8181E+06    -1.31504E+06         30.1623
            1302     8.51998E-03     69.1384E-03     98.8671E-03     94.3775E-03    -334.721E-03     95.4994E-03    -334.246E-03     97.2702E-03     1.59059E-03     110.027E-03    -54.9364E-03    -55.1198E-03    -54.5610E-03     109.652E-03    -55.1198E-03     15.6653E-03    -12.4154E+06    -41.1669E+06    -160.770E+06    -41.1969E+06    -160.740E+06    -12.4154E+06    -1.22864E+06         30.8010
            1303     9.46674E-03     69.1569E-03     97.5491E-03     92.3095E-03    -328.210E-03     92.3968E-03    -327.683E-03     96.9345E-03     3.71996E-03     110.066E-03    -55.0249E-03    -55.0962E-03    -54.5527E-03     109.556E-03    -55.0579E-03     18.2856E-03    -8.35962E+06    -37.1400E+06    -133.572E+06    -37.1554E+06    -133.557E+06    -8.35962E+06     454.372E+03         31.5564
            1304     10.4141E-03     69.1780E-03     97.1151E-03     91.8308E-03    -324.747E-03     92.0935E-03    -324.395E-03     96.5004E-03     7.35011E-03     110.010E-03    -54.9672E-03    -55.1357E-03    -54.3978E-03     109.272E-03    -54.9672E-03     21.9014E-03    -11.8865E+06    -34.4101E+06    -94.0622E+06    -34.4614E+06    -94.0109E+06    -11.8865E+06    -273.606E+03         32.4252
            1305     11.3613E-03     69.2038E-03     101.001E-03     94.1624E-03    -329.308E-03     98.6223E-03    -329.158E-03     96.3904E-03    -1.09164E-03     110.188E-03    -54.8551E-03    -55.3743E-03    -54.2212E-03     109.034E-03    -54.8551E-03     27.3541E-03    -9.19257E+06    -19.2508E+06    -51.0327E+06    -32.7844E+06    -37.4992E+06    -9.19257E+06    -109.192E+03         33.4276
            1306     12.3083E-03     69.2360E-03     102.783E-03     94.7099E-03    -332.374E-03     99.7532E-03    -331.217E-03     96.5820E-03     26.7026E-03     110.608E-03    -54.7150E-03    -55.8561E-03    -53.9527E-03     108.704E-03    -54.7150E-03     35.0927E-03     56.2861E+06    -3.58118E+06    -31.2216E+06    -31.1209E+06     54.7735E+06    -2.16927E+06     1.24579E+06         34.7194
            1307     13.2559E-03     69.2793E-03     100.918E-03     92.2341E-03    -330.841E-03     95.4176E-03    -329.712E-03     96.6064E-03     15.7777E-03     111.889E-03    -54.7504E-03    -57.1478E-03    -53.6504E-03     108.392E-03    -54.7504E-03     47.5198E-03     137.206E+06     24.8459E+06    -27.9684E+06    -27.9223E+06     137.160E+06     24.8459E+06     775.802E+03         36.6092
            1308     14.2030E-03     69.3405E-03     109.839E-03     93.5352E-03    -344.278E-03     106.393E-03    -344.122E-03     96.8243E-03    -1.78908E-03     111.631E-03    -54.9750E-03    -56.7423E-03    -53.1777E-03     108.082E-03    -54.9909E-03     47.8549E-03     164.449E+06     79.0748E+06    -22.6218E+06    -22.5718E+06     164.399E+06     79.0748E+06     693.527E+03         39.2349
            1309     15.1515E-03     69.3847E-03     109.606E-03     95.5329E-03    -345.521E-03     107.615E-03    -345.384E-03     97.3875E-03     4.49284E-03     113.839E-03    -55.0714E-03    -58.7659E-03    -53.0890E-03     108.178E-03    -55.0872E-03     58.9943E-03     172.248E+06     117.165E+06    -15.3642E+06    -15.3163E+06     172.200E+06     117.165E+06     403.147E+03         42.3357
            1310     16.0992E-03     69.4699E-03     102.053E-03     85.9586E-03    -324.642E-03     90.3118E-03    -324.347E-03     97.4051E-03     8.11354E-03     112.650E-03    -54.0239E-03    -58.6394E-03    -53.1320E-03     108.186E-03    -55.0670E-03     42.8633E-03     173.921E+06     128.359E+06      -7.538E+06    -7.51786E+06     173.901E+06     128.359E+06    -258.770E+03         45.2355
            1311     945.717E-06     70.1831E-03     677.939E-03     35.3825E-03    -843.498E-03    -459.580E-03    -308.136E-03     637.540E-03    -353.989E-03     110.518E-03    -54.9897E-03    -55.4998E-03    -55.3307E-03     110.515E-03    -55.1554E-03     1.36255E-03    -70.7426E+06    -75.0466E+06    -248.678E+06    -74.0842E+06    -248.648E+06    -71.7344E+06    -1.96791E+06         28.1459
            1312     1.89270E-03     70.1850E-03     157.564E-03     90.1041E-03    -370.644E-03     98.3139E-03    -312.237E-03     90.9462E-03     47.5357E-03     110.024E-03    -54.8044E-03    -55.2062E-03    -54.7891E-03     110.009E-03    -55.2062E-03     2.91977E-03    -63.7895E+06    -71.4332E+06    -250.708E+06    -71.4455E+06    -250.696E+06    -63.7895E+06    -761.500E+03         28.2450
            1313     2.84036E-03     70.1902E-03     130.274E-03     89.4355E-03    -345.675E-03     97.5531E-03    -316.905E-03     93.3868E-03    -54.6228E-03     109.970E-03    -54.8752E-03    -55.1316E-03    -54.8540E-03     109.934E-03    -55.1163E-03     4.85080E-03    -55.5412E+06    -66.7762E+06    -247.672E+06    -66.7795E+06    -247.668E+06    -55.5412E+06     574.926E+03         28.4129
            1314     3.78678E-03     70.1956E-03     104.996E-03     90.0025E-03    -325.759E-03     85.8462E-03    -309.718E-03     93.1117E-03     6.10290E-03     110.249E-03    -55.1041E-03    -55.2169E-03    -55.1532E-03     110.186E-03    -55.1041E-03     6.42775E-03    -44.1380E+06    -62.3306E+06    -240.307E+06    -62.3375E+06    -240.301E+06    -44.1380E+06     910.874E+03         28.6416
            1315     4.73282E-03     70.2041E-03     98.6106E-03     92.0188E-03    -325.313E-03     90.5067E-03    -317.209E-03     92.0188E-03    -53.6664E-03     110.497E-03    -55.1957E-03    -55.3393E-03    -55.2340E-03     110.400E-03    -55.2040E-03     7.98733E-03    -33.0318E+06    -57.7033E+06    -234.218E+06    -57.7092E+06    -234.212E+06    -33.0318E+06     785.488E+03         28.9113
            1316     5.67930E-03     70.2131E-03     112.384E-03     93.3455E-03    -342.397E-03     111.383E-03    -341.396E-03     93.3455E-03     2.80152E-03     110.470E-03    -55.1775E-03    -55.2458E-03    -55.0669E-03     110.322E-03    -55.2080E-03     9.83594E-03    -25.3867E+06    -52.0011E+06    -226.267E+06    -52.0055E+06    -226.262E+06    -25.3867E+06     668.341E+03         29.2363
            1317     6.62619E-03     70.2250E-03     112.901E-03     96.0011E-03    -347.061E-03     112.377E-03    -346.537E-03     96.0011E-03    -10.9939E-03     110.124E-03    -55.0111E-03    -55.2019E-03    -54.7996E-03     109.913E-03    -55.2019E-03     11.7861E-03    -21.4736E+06    -47.1700E+06    -207.543E+06    -47.1731E+06    -207.540E+06    -21.4736E+06     401.463E+03         29.6473
            1318     7.57312E-03     70.2382E-03     100.245E-03     92.0713E-03    -332.053E-03     94.5651E-03    -331.309E-03     97.0066E-03     30.3212E-03     109.974E-03    -54.9009E-03    -55.2113E-03    -54.6206E-03     109.693E-03    -55.2113E-03     13.5458E-03    -17.8427E+06    -44.3023E+06    -181.782E+06    -44.3213E+06    -181.763E+06    -17.8427E+06    -505.196E+03         30.1630
            1319     8.52005E-03     70.2541E-03     96.3122E-03     88.1084E-03    -322.452E-03     86.8731E-03    -321.217E-03     96.3122E-03    -357.318E-06     110.056E-03    -54.9429E-03    -55.1298E-03    -54.5677E-03     109.680E-03    -55.1298E-03     15.6756E-03    -12.5455E+06    -42.6803E+06    -161.655E+06    -42.7102E+06    -161.625E+06    -12.5455E+06    -1.30207E+06         30.8012
            1320     9.46720E-03     70.2722E-03     97.2068E-03     92.3628E-03    -325.152E-03     93.0687E-03    -324.282E-03     95.6314E-03    -7.71525E-03     110.070E-03    -55.0274E-03    -55.0993E-03    -54.5562E-03     109.572E-03    -55.0724E-03     18.0654E-03    -10.0881E+06    -39.1799E+06    -134.967E+06    -39.2371E+06    -134.910E+06    -10.0881E+06    -1.29898E+06         31.5555
            1321     10.4136E-03     70.2934E-03     102.356E-03     95.3293E-03    -330.726E-03     101.130E-03    -329.888E-03     95.7182E-03    -6.23051E-03     109.954E-03    -54.9934E-03    -55.0627E-03    -54.3626E-03     109.253E-03    -54.9934E-03     21.3528E-03    -10.7253E+06    -35.6231E+06    -93.7174E+06    -35.9004E+06    -93.4401E+06    -10.7253E+06     178.990E+03         32.4229
            1322     11.3610E-03     70.3187E-03     101.102E-03     94.1530E-03    -327.516E-03     98.3646E-03    -326.665E-03     96.0397E-03    -6.44973E-03     110.152E-03    -54.8738E-03    -55.3302E-03    -54.2228E-03     109.045E-03    -54.8738E-03     26.7753E-03    -8.59517E+06    -20.9396E+06    -53.1040E+06    -34.9047E+06    -39.0495E+06    -8.68457E+06     1.13118E+06         33.4259
            1323     12.3082E-03     70.3523E-03     95.8357E-03     89.9097E-03    -318.985E-03     88.3729E-03    -317.448E-03     95.8357E-03     43.7374E-03     110.571E-03    -54.7339E-03    -55.8033E-03    -53.9562E-03     108.724E-03    -54.7339E-03     34.5808E-03     55.5436E+06    -3.08099E+06    -33.3604E+06    -33.2586E+06     54.9615E+06    -2.60069E+06     695.639E+03         34.7208
            1324     13.2547E-03     70.3952E-03     99.8996E-03     91.0134E-03    -326.640E-03     93.2232E-03    -324.391E-03     95.4416E-03     8.12593E-03     111.735E-03    -54.7869E-03    -57.0044E-03    -53.4931E-03     108.224E-03    -54.7869E-03     47.4585E-03     137.696E+06     26.0620E+06    -29.6162E+06    -29.5806E+06     137.660E+06     26.0620E+06     407.767E+03         36.6143
            1325     14.2030E-03     70.4555E-03     102.856E-03     88.6712E-03    -329.295E-03     95.1882E-03    -328.250E-03     95.2936E-03    -21.6669E-03     111.594E-03    -54.9890E-03    -56.7344E-03    -53.1142E-03     107.990E-03    -55.0049E-03     48.1648E-03     164.182E+06     78.6230E+06    -23.1356E+06    -23.0995E+06     164.146E+06     78.6230E+06     124.632E+03         39.2433
            1326     15.1513E-03     70.4992E-03     97.9340E-03     82.3679E-03    -319.772E-03     85.1873E-03    -319.488E-03     94.8300E-03    -10.5799E-03     114.015E-03    -55.0829E-03    -58.9547E-03    -53.2648E-03     108.341E-03    -55.0988E-03     59.1266E-03     172.837E+06     117.807E+06    -15.0414E+06    -15.0179E+06     172.813E+06     117.807E+06     294.921E+03         42.3472
            1327     16.0997E-03     70.5860E-03     106.414E-03     88.6332E-03    -333.861E-03     99.4982E-03    -332.784E-03     94.4728E-03    -33.4472E-03     112.823E-03    -54.1013E-03    -58.7773E-03    -53.3168E-03     108.351E-03    -55.0888E-03     42.8632E-03     174.131E+06     129.511E+06    -6.98502E+06    -6.97147E+06     174.117E+06     129.511E+06     397.527E+03         45.2506
            1328     946.939E-06     71.2998E-03     628.099E-03     797.820E-06    -754.175E-03    -439.421E-03    -276.827E-03     590.970E-03    -248.034E-03     110.205E-03    -54.8485E-03    -55.3297E-03    -55.2882E-03     110.202E-03    -54.8861E-03     1.40465E-03    -68.8632E+06    -73.2394E+06    -247.334E+06    -72.2911E+06    -247.290E+06    -69.8550E+06     634.317E+03         28.1567
            1329     1.89298E-03     71.3001E-03     152.835E-03     78.8598E-03    -352.467E-03     90.3473E-03    -289.979E-03     78.8598E-03     76.1794E-03     110.299E-03    -54.9317E-03    -55.3424E-03    -55.1185E-03     110.283E-03    -55.1391E-03     3.07976E-03    -63.7175E+06    -71.5115E+06    -251.156E+06    -71.5275E+06    -251.140E+06    -63.7175E+06    -762.481E+03         28.2541
            1330     2.83968E-03     71.3047E-03     147.067E-03     86.3730E-03    -360.551E-03     114.039E-03    -327.523E-03     86.3730E-03     9.34691E-03     110.211E-03    -54.9212E-03    -55.3138E-03    -55.0299E-03     110.175E-03    -55.1686E-03     4.86414E-03    -54.8263E+06    -67.0062E+06    -248.350E+06    -67.0118E+06    -248.344E+06    -54.8263E+06    -624.250E+03         28.4195
            1331     3.78641E-03     71.3119E-03     123.155E-03     92.0563E-03    -345.931E-03     100.376E-03    -323.153E-03     92.0563E-03     60.9742E-03     110.156E-03    -54.9673E-03    -55.2181E-03    -54.9681E-03     110.094E-03    -55.1549E-03     6.35710E-03    -44.3572E+06    -61.9027E+06    -241.730E+06    -61.9114E+06    -241.721E+06    -44.3572E+06     615.707E+03         28.6442
            1332     4.73308E-03     71.3194E-03     106.148E-03     93.6553E-03    -330.351E-03     98.7713E-03    -322.973E-03     93.6553E-03    -28.1238E-03     110.357E-03    -55.0936E-03    -55.2704E-03    -55.0497E-03     110.256E-03    -55.2128E-03     8.14345E-03    -32.4532E+06    -57.2663E+06    -233.896E+06    -57.2766E+06    -233.886E+06    -32.4532E+06     1.19112E+06         28.9107
            1333     5.67981E-03     71.3289E-03     108.973E-03     87.4589E-03    -329.378E-03     99.4124E-03    -326.976E-03     94.6175E-03     26.1966E-03     110.433E-03    -55.1918E-03    -55.2221E-03    -55.0567E-03     110.284E-03    -55.2079E-03     9.90241E-03    -24.5193E+06    -52.9919E+06    -226.213E+06    -52.9951E+06    -226.210E+06    -24.5193E+06     470.275E+03         29.2368
            1334     6.62624E-03     71.3402E-03     105.887E-03     86.3601E-03    -325.248E-03     96.7464E-03    -324.894E-03     95.1473E-03    -338.769E-06     110.244E-03    -55.0948E-03    -55.2421E-03    -54.9040E-03     110.039E-03    -55.2278E-03     11.6027E-03    -20.0820E+06    -48.6521E+06    -206.424E+06    -48.6570E+06    -206.419E+06    -20.0820E+06    -335.762E+03         29.6499
            1335     7.57310E-03     71.3540E-03     99.5645E-03     90.0901E-03    -322.777E-03     93.8549E-03    -322.134E-03     95.1559E-03     28.6748E-03     110.120E-03    -55.0242E-03    -55.2462E-03    -54.7514E-03     109.847E-03    -55.2462E-03     13.3791E-03    -15.2628E+06    -44.2259E+06    -181.847E+06    -44.2322E+06    -181.841E+06    -15.2628E+06    -147.958E+03         30.1658
            1336     8.51978E-03     71.3696E-03     99.2987E-03     89.4029E-03    -320.692E-03     92.9360E-03    -319.863E-03     94.9365E-03     4.42499E-03     110.133E-03    -55.0279E-03    -55.1581E-03    -54.6523E-03     109.757E-03    -55.1581E-03     15.6688E-03    -8.88374E+06    -40.6310E+06    -160.632E+06    -40.6460E+06    -160.617E+06    -8.88374E+06     253.870E+03         30.8030
            1337     9.46625E-03     71.3881E-03     97.2842E-03     91.3842E-03    -320.093E-03     93.2425E-03    -319.410E-03     94.7429E-03     3.39832E-03     110.139E-03    -55.0814E-03    -55.1356E-03    -54.6014E-03     109.640E-03    -55.1159E-03     18.1070E-03    -7.96421E+06    -39.3718E+06    -134.481E+06    -39.4252E+06    -134.427E+06    -7.96421E+06    -775.516E+03         31.5554
            1338     10.4136E-03     71.4089E-03     100.787E-03     91.8375E-03    -324.767E-03     96.9736E-03    -323.880E-03     94.7632E-03    -3.95253E-03     110.063E-03    -55.0471E-03    -55.1474E-03    -54.4492E-03     109.365E-03    -55.0471E-03     21.3258E-03    -10.3256E+06    -37.1577E+06    -97.1015E+06    -37.4037E+06    -96.8555E+06    -10.3256E+06     151.336E+03         32.4205
            1339     11.3604E-03     71.4345E-03     99.7829E-03     87.8588E-03    -320.347E-03     92.1240E-03    -319.549E-03     94.7202E-03    -7.23144E-03     110.221E-03    -54.9082E-03    -55.3565E-03    -54.2142E-03     109.079E-03    -54.9082E-03     27.1580E-03    -6.67964E+06    -19.4505E+06    -53.0244E+06    -33.9035E+06    -38.4821E+06    -6.76904E+06     1.38292E+06         33.4237
            1340     12.3072E-03     71.4682E-03     95.5042E-03     85.6949E-03    -315.699E-03     86.5233E-03    -315.261E-03     94.2378E-03     17.8158E-03     110.399E-03    -54.7286E-03    -55.6126E-03    -53.7374E-03     108.524E-03    -54.7286E-03     34.8470E-03     55.6465E+06    -3.07646E+06    -31.0260E+06    -30.9138E+06     55.2695E+06    -2.81171E+06     344.677E+03         34.7221
            1341     13.2561E-03     71.5098E-03     96.7200E-03     88.9204E-03    -319.520E-03     90.4661E-03    -318.063E-03     93.7168E-03    -25.8062E-03     111.431E-03    -54.7710E-03    -56.7216E-03    -53.2501E-03     107.960E-03    -54.7710E-03     47.1304E-03     137.387E+06     25.8086E+06    -27.6820E+06    -27.6319E+06     137.337E+06     25.8086E+06     129.668E+03         36.6205
            1342     14.2041E-03     71.5709E-03     94.8022E-03     81.1120E-03    -309.763E-03     80.5388E-03    -307.453E-03     93.0654E-03    -7.92023E-03     111.617E-03    -54.9906E-03    -56.7486E-03    -53.1591E-03     108.027E-03    -54.9906E-03     48.1128E-03     164.337E+06     79.8171E+06    -23.2333E+06    -23.1951E+06     164.298E+06     79.8171E+06     282.839E+03         39.2553
            1343     15.1513E-03     71.6151E-03     93.1639E-03     77.5895E-03    -306.287E-03     77.2605E-03    -304.870E-03     92.0763E-03     6.12015E-03     114.214E-03    -55.0882E-03    -59.1376E-03    -53.4943E-03     108.571E-03    -55.0882E-03     59.1313E-03     172.185E+06     117.092E+06    -16.2932E+06    -16.2741E+06     172.166E+06     117.092E+06     243.724E+03         42.3638
            1344     16.0989E-03     71.7008E-03     101.841E-03     82.6093E-03    -324.678E-03     91.5797E-03    -323.342E-03     91.5347E-03    -29.8803E-03     112.964E-03    -54.1575E-03    -58.8146E-03    -53.4587E-03     108.539E-03    -55.0890E-03     42.7643E-03     174.689E+06     128.697E+06    -8.10004E+06    -8.09003E+06     174.679E+06     128.697E+06     375.157E+03         45.2679
            1345     946.897E-06     72.4135E-03     566.955E-03     20.5266E-03    -714.652E-03    -323.916E-03    -325.784E-03     522.529E-03    -242.675E-03     109.923E-03    -54.8500E-03    -55.0503E-03    -55.0475E-03     109.920E-03    -54.8500E-03     933.755E-06    -70.5688E+06    -75.9352E+06    -248.641E+06    -75.4781E+06    -248.593E+06    -71.0736E+06     1.37747E+06         28.1610
            1346     1.89385E-03     72.4165E-03     154.246E-03     80.6799E-03    -366.701E-03     98.4629E-03    -329.429E-03     99.1915E-03     86.2241E-03     110.457E-03    -55.0856E-03    -55.3419E-03    -55.3277E-03     110.443E-03    -55.0856E-03     2.90619E-03    -61.5097E+06    -70.7241E+06    -249.825E+06    -70.7373E+06    -249.812E+06    -61.5097E+06     644.154E+03         28.2669
            1347     2.83914E-03     72.4204E-03     118.974E-03     68.7617E-03    -320.407E-03     71.8064E-03    -299.645E-03     95.1666E-03     15.6273E-03     110.449E-03    -55.0962E-03    -55.3439E-03    -55.2125E-03     110.410E-03    -55.1888E-03     4.94049E-03    -55.3121E+06    -67.7740E+06    -248.390E+06    -67.7821E+06    -248.382E+06    -55.3121E+06    -181.545E+03         28.4323
            1348     3.78601E-03     72.4266E-03     131.500E-03     84.5484E-03    -347.530E-03     101.801E-03    -325.724E-03     92.4416E-03    -983.074E-06     110.127E-03    -54.9476E-03    -55.1870E-03    -54.8801E-03     110.059E-03    -55.1870E-03     6.63848E-03    -47.0196E+06    -64.1276E+06    -242.896E+06    -64.1374E+06    -242.886E+06    -47.0196E+06    -34.4565E+03         28.6496
            1349     4.73326E-03     72.4347E-03     126.077E-03     95.4953E-03    -351.710E-03     114.603E-03    -340.236E-03     95.4953E-03    -61.5631E-03     110.260E-03    -55.0542E-03    -55.2310E-03    -54.9556E-03     110.162E-03    -55.2310E-03     8.03661E-03    -34.7254E+06    -59.1222E+06    -234.523E+06    -59.1340E+06    -234.511E+06    -34.7254E+06     626.022E+03         28.9110
            1350     5.67970E-03     72.4448E-03     100.986E-03     81.0396E-03    -309.675E-03     83.0742E-03    -307.008E-03     96.2841E-03     16.9263E-03     110.419E-03    -55.1569E-03    -55.2474E-03    -55.0315E-03     110.279E-03    -55.2331E-03     9.57765E-03    -22.9305E+06    -54.0650E+06    -225.819E+06    -54.0728E+06    -225.811E+06    -22.9305E+06     1.04128E+06         29.2380
            1351     6.62630E-03     72.4560E-03     93.7725E-03     75.0085E-03    -296.578E-03     74.3246E-03    -295.894E-03     93.7725E-03    -17.1661E-03     110.283E-03    -55.0986E-03    -55.2519E-03    -54.9097E-03     110.080E-03    -55.2377E-03     11.5258E-03    -19.2912E+06    -49.8879E+06    -204.849E+06    -49.8958E+06    -204.841E+06    -19.2912E+06     96.5605E+03         29.6534
            1352     7.57269E-03     72.4696E-03     102.234E-03     89.1785E-03    -320.386E-03     98.1433E-03    -319.815E-03     92.6979E-03     17.5218E-03     110.208E-03    -55.0619E-03    -55.2528E-03    -54.7852E-03     109.932E-03    -55.2528E-03     13.4883E-03    -17.2258E+06    -47.2031E+06    -183.799E+06    -47.2157E+06    -183.786E+06    -17.2258E+06     270.704E+03         30.1689
            1353     8.51967E-03     72.4849E-03     107.095E-03     93.7318E-03    -330.440E-03     106.589E-03    -329.934E-03     93.7318E-03     12.7645E-03     110.155E-03    -55.0028E-03    -55.1797E-03    -54.6175E-03     109.770E-03    -55.1797E-03     15.8555E-03    -11.0102E+06    -44.2947E+06    -160.751E+06    -44.3107E+06    -160.735E+06    -11.0102E+06     1.17558E+06         30.8029
            1354     9.46689E-03     72.5041E-03     98.2514E-03     90.7633E-03    -320.357E-03     94.2650E-03    -320.030E-03     94.4236E-03     1.23518E-03     110.127E-03    -55.0700E-03    -55.1604E-03    -54.5663E-03     109.612E-03    -55.1496E-03     18.3841E-03    -7.68601E+06    -41.1259E+06    -132.678E+06    -41.1369E+06    -132.667E+06    -7.68601E+06     929.444E+03         31.5534
            1355     10.4131E-03     72.5243E-03     93.7996E-03     81.3874E-03    -307.462E-03     80.7611E-03    -306.835E-03     93.7996E-03    -8.56107E-03     110.102E-03    -55.0687E-03    -55.1974E-03    -54.4800E-03     109.385E-03    -55.0695E-03     21.5998E-03    -11.6010E+06    -38.7000E+06    -98.3574E+06    -38.7207E+06    -98.3367E+06    -11.6010E+06    -292.445E+03         32.4181
            1356     11.3604E-03     72.5503E-03     92.5843E-03     79.2363E-03    -303.660E-03     78.7630E-03    -303.187E-03     92.5843E-03    -5.11835E-03     110.032E-03    -54.9131E-03    -55.2106E-03    -54.0555E-03     108.877E-03    -54.9131E-03     27.3049E-03    -8.03355E+06    -20.5306E+06    -53.1977E+06    -35.0740E+06    -38.6543E+06    -8.03355E+06    -482.308E+03         33.4221
            1357     12.3085E-03     72.5832E-03     94.3950E-03     87.2557E-03    -313.846E-03     89.3873E-03    -313.434E-03     91.8517E-03     16.8289E-03     110.263E-03    -54.7138E-03    -55.5253E-03    -53.6188E-03     108.357E-03    -54.7138E-03     35.0831E-03     57.4665E+06    -3.17273E+06    -31.8594E+06    -31.6894E+06     55.6983E+06    -1.57457E+06     165.356E+03         34.7239
            1358     13.2548E-03     72.6257E-03     94.1529E-03     87.4421E-03    -312.624E-03     89.4163E-03    -312.055E-03     91.6096E-03    -5.18798E-03     111.743E-03    -54.7691E-03    -57.0091E-03    -53.5755E-03     108.310E-03    -54.7691E-03     47.0837E-03     137.304E+06     26.6911E+06    -29.2876E+06    -29.2323E+06     137.248E+06     26.6911E+06     354.641E+03         36.6265
            1359     14.2029E-03     72.6856E-03     93.7705E-03     83.1818E-03    -308.281E-03     84.1634E-03    -306.721E-03     91.2288E-03     17.5914E-03     111.708E-03    -55.0136E-03    -56.7839E-03    -53.2747E-03     108.204E-03    -55.0186E-03     47.6226E-03     164.057E+06     81.1583E+06    -23.6131E+06    -23.5734E+06     164.017E+06     81.1583E+06     431.342E+03         39.2653
            1360     15.1514E-03     72.7320E-03     95.0505E-03     87.0324E-03    -314.017E-03     89.5547E-03    -312.400E-03     90.9118E-03     13.2558E-03     114.069E-03    -55.1037E-03    -58.9866E-03    -53.3423E-03     108.430E-03    -55.1088E-03     59.0211E-03     172.065E+06     117.058E+06    -15.2131E+06    -15.1930E+06     172.045E+06     117.058E+06     542.271E+03         42.3770
            1361     16.0992E-03     72.8164E-03     92.3191E-03     84.9543E-03    -308.841E-03     86.0539E-03    -308.343E-03     90.7222E-03    -6.95543E-03     112.901E-03    -54.1435E-03    -58.8365E-03    -53.4291E-03     108.465E-03    -55.1151E-03     42.8343E-03     174.875E+06     128.376E+06    -7.56311E+06    -7.55592E+06     174.868E+06     128.376E+06     474.130E+03         45.2834
            1362     946.644E-06     73.5291E-03     487.185E-03     73.4776E-03    -699.964E-03    -253.874E-03    -341.166E-03     455.738E-03    -361.477E-03     110.223E-03    -54.9200E-03    -55.2800E-03    -55.2526E-03     110.218E-03    -54.9429E-03     1.37209E-03    -69.8253E+06    -75.5452E+06    -249.858E+06    -75.0611E+06    -249.837E+06    -70.3300E+06     167.379E+03         28.1621
            1363     1.89245E-03     73.5323E-03     138.709E-03     81.2730E-03    -357.320E-03     94.8399E-03    -331.963E-03     99.7846E-03     60.8336E-03     110.310E-03    -55.0646E-03    -55.2101E-03    -55.1019E-03     110.294E-03    -55.1570E-03     3.09929E-03    -61.6487E+06    -70.7355E+06    -250.576E+06    -70.7673E+06    -250.544E+06    -61.6487E+06     2.14130E+06         28.2779
            1364     2.84011E-03     73.5362E-03     103.493E-03     67.4198E-03    -308.636E-03     65.8383E-03    -297.385E-03     93.8246E-03    -19.4967E-03     110.325E-03    -55.0748E-03    -55.2133E-03    -55.0919E-03     110.289E-03    -55.1594E-03     4.82659E-03    -56.6475E+06    -67.7188E+06    -247.963E+06    -67.7417E+06    -247.940E+06    -56.6475E+06     1.51004E+06         28.4426
            1365     3.78645E-03     73.5420E-03     110.356E-03     78.8912E-03    -321.875E-03     85.7560E-03    -307.139E-03     88.7555E-03    -45.0569E-03     110.352E-03    -55.1297E-03    -55.2396E-03    -55.1198E-03     110.284E-03    -55.1816E-03     6.63826E-03    -46.1991E+06    -64.5653E+06    -242.519E+06    -64.5758E+06    -242.509E+06    -46.1991E+06     414.305E+03         28.6544
            1366     4.73248E-03     73.5504E-03     113.095E-03     87.3191E-03    -328.675E-03     98.9054E-03    -316.457E-03     89.2902E-03    -72.2217E-03     110.335E-03    -55.1262E-03    -55.2772E-03    -55.0440E-03     110.233E-03    -55.2575E-03     8.18345E-03    -35.4225E+06    -60.8864E+06    -235.591E+06    -60.8978E+06    -235.579E+06    -35.4225E+06     224.772E+03         28.9142
            1367     5.67930E-03     73.5601E-03     105.365E-03     82.4795E-03    -313.300E-03     95.3414E-03    -311.363E-03     90.5655E-03     5.59554E-03     110.322E-03    -55.0684E-03    -55.2511E-03    -54.9243E-03     110.178E-03    -55.2511E-03     9.71395E-03    -25.6532E+06    -55.1730E+06    -225.699E+06    -55.1803E+06    -225.692E+06    -25.6532E+06     185.718E+03         29.2411
            1368     6.62613E-03     73.5715E-03     105.117E-03     81.1589E-03    -310.589E-03     94.3516E-03    -309.801E-03     91.1358E-03    -31.2056E-03     110.219E-03    -55.0312E-03    -55.2481E-03    -54.8274E-03     110.016E-03    -55.2481E-03     11.5543E-03    -17.6921E+06    -49.2941E+06    -204.798E+06    -49.3125E+06    -204.780E+06    -17.6921E+06     867.937E+03         29.6560
            1369     7.57316E-03     73.5851E-03     101.813E-03     84.0403E-03    -310.537E-03     93.6216E-03    -309.788E-03     91.4821E-03     11.2007E-03     110.220E-03    -55.0220E-03    -55.2708E-03    -54.7472E-03     109.945E-03    -55.2708E-03     13.4321E-03    -12.7102E+06    -45.2567E+06    -185.007E+06    -45.2823E+06    -184.981E+06    -12.7102E+06     1.74354E+06         30.1699
            1370     8.51955E-03     73.6006E-03     100.663E-03     85.4821E-03    -312.180E-03     92.9969E-03    -310.693E-03     91.6611E-03    -317.870E-06     110.213E-03    -54.9996E-03    -55.1936E-03    -54.6170E-03     109.830E-03    -55.1936E-03     15.8107E-03    -8.91070E+06    -42.0981E+06    -161.142E+06    -42.1195E+06    -161.120E+06    -8.91070E+06     1.56682E+06         30.8014
            1371     9.46634E-03     73.6191E-03     93.7308E-03     86.5530E-03    -309.035E-03     87.8831E-03    -308.118E-03     91.4837E-03    -25.2080E-03     110.046E-03    -55.0170E-03    -55.1549E-03    -54.4997E-03     109.529E-03    -55.1549E-03     18.4174E-03    -5.83883E+06    -39.2496E+06    -133.059E+06    -39.3208E+06    -132.988E+06    -5.83883E+06     1.98664E+06         31.5503
            1372     10.4139E-03     73.6404E-03     93.7133E-03     79.4008E-03    -303.921E-03     81.5641E-03    -303.163E-03     90.7919E-03    -26.4838E-03     109.970E-03    -55.0079E-03    -55.1646E-03    -54.3724E-03     109.242E-03    -55.0721E-03     21.7617E-03    -8.93581E+06    -37.7992E+06    -95.4601E+06    -37.8696E+06    -95.3896E+06    -8.93581E+06     953.296E+03         32.4153
            1373     11.3605E-03     73.6654E-03     95.9166E-03     83.0044E-03    -308.800E-03     87.8996E-03    -307.978E-03     90.2000E-03    -18.4051E-03     109.946E-03    -54.8990E-03    -55.1490E-03    -54.0135E-03     108.810E-03    -54.8990E-03     27.1037E-03    -8.93471E+06    -23.7427E+06    -51.8447E+06    -36.8923E+06    -38.6952E+06    -8.93471E+06    -1.20625E+06         33.4209
            1374     12.3077E-03     73.6981E-03     94.1418E-03     87.0427E-03    -307.746E-03     90.7131E-03    -307.345E-03     90.0696E-03     19.2811E-03     110.330E-03    -54.6905E-03    -55.6265E-03    -53.6865E-03     108.390E-03    -54.6905E-03     35.3220E-03     57.3243E+06    -7.92704E+06    -34.4673E+06    -34.3766E+06     54.0824E+06    -4.77575E+06    -489.966E+03         34.7258
            1375     13.2566E-03     73.7417E-03     93.9093E-03     84.3046E-03    -303.676E-03     87.5853E-03    -302.988E-03     89.9405E-03    -154.122E-06     112.066E-03    -54.7346E-03    -57.3314E-03    -53.8343E-03     108.569E-03    -54.7346E-03     47.6835E-03     138.609E+06     24.2370E+06    -30.3711E+06    -30.3425E+06     138.580E+06     24.2370E+06    -345.546E+03         36.6313
            1376     14.2024E-03     73.8024E-03     100.282E-03     87.2882E-03    -311.301E-03     96.5572E-03    -310.292E-03     90.0042E-03     8.43065E-03     112.016E-03    -55.0087E-03    -57.0710E-03    -53.5590E-03     108.509E-03    -55.0138E-03     47.7226E-03     163.451E+06     80.0290E+06    -24.2582E+06    -24.2376E+06     163.430E+06     80.0290E+06    -460.103E+03         39.2709
            1377     15.1505E-03     73.8453E-03     98.4062E-03     87.5526E-03    -309.190E-03     94.8251E-03    -308.368E-03     90.3109E-03     12.5762E-03     114.042E-03    -55.1286E-03    -58.9571E-03    -53.2038E-03     108.294E-03    -55.1337E-03     59.4289E-03     171.499E+06     116.709E+06    -15.9743E+06    -15.9561E+06     171.481E+06     116.709E+06     630.762E+03         42.3841
            1378     16.0988E-03     73.9341E-03     92.9195E-03     86.7888E-03    -299.741E-03     89.0979E-03    -299.505E-03     90.3746E-03    -10.3587E-03     112.566E-03    -54.0076E-03    -58.7022E-03    -53.0474E-03     108.021E-03    -55.1177E-03     43.1153E-03     174.881E+06     128.525E+06    -7.68574E+06    -7.67889E+06     174.874E+06     128.525E+06     544.520E+03         45.2956
            1379     946.347E-06     74.6454E-03     424.912E-03     98.0960E-03    -663.051E-03    -247.638E-03    -293.202E-03     400.797E-03    -376.083E-03     110.267E-03    -54.8185E-03    -55.4015E-03    -55.3335E-03     110.262E-03    -54.8814E-03     1.70453E-03    -71.9711E+06    -76.3769E+06    -252.004E+06    -76.2551E+06    -251.950E+06    -72.1465E+06     1.60068E+06         28.1573
            1380     1.89366E-03     74.6472E-03     130.734E-03     78.4314E-03    -343.862E-03     85.3762E-03    -298.504E-03     78.4314E-03     82.6992E-03     110.213E-03    -55.0005E-03    -55.1545E-03    -55.0048E-03     110.195E-03    -55.1331E-03     3.16564E-03    -63.4466E+06    -71.3104E+06    -252.764E+06    -71.3358E+06    -252.738E+06    -63.4466E+06     1.45412E+06         28.2749
            1381     2.83958E-03     74.6514E-03     130.825E-03     85.1718E-03    -350.824E-03     115.339E-03    -335.338E-03     85.1718E-03    -332.914E-06     110.360E-03    -55.0912E-03    -55.2333E-03    -55.1269E-03     110.323E-03    -55.1607E-03     4.88887E-03    -54.5334E+06    -65.9293E+06    -247.941E+06    -65.9717E+06    -247.899E+06    -54.5334E+06     2.12812E+06         28.4389
            1382     3.78606E-03     74.6580E-03     107.004E-03     83.2550E-03    -321.806E-03     84.1325E-03    -305.218E-03     89.5380E-03     5.54256E-03     110.397E-03    -55.1537E-03    -55.2691E-03    -55.1580E-03     110.330E-03    -55.1982E-03     6.56035E-03    -43.7080E+06    -63.0662E+06    -242.398E+06    -63.0983E+06    -242.366E+06    -43.7080E+06     2.00961E+06         28.6532
            1383     4.73286E-03     74.6661E-03     91.9104E-03     81.0640E-03    -297.825E-03     71.8292E-03    -284.027E-03     87.3469E-03    -17.7696E-03     110.361E-03    -55.1329E-03    -55.2818E-03    -55.0489E-03     110.257E-03    -55.2620E-03     8.25923E-03    -32.6839E+06    -59.1525E+06    -235.317E+06    -59.1707E+06    -235.299E+06    -32.6839E+06     1.37485E+06         28.9170
            1384     5.67945E-03     74.6754E-03     102.774E-03     86.7233E-03    -312.849E-03     97.5325E-03    -307.608E-03     86.7233E-03     48.5451E-03     110.390E-03    -55.1083E-03    -55.2560E-03    -54.9588E-03     110.240E-03    -55.2560E-03     9.89812E-03    -25.1224E+06    -55.5520E+06    -224.985E+06    -55.5677E+06    -224.970E+06    -25.1224E+06     602.598E+03         29.2432
            1385     6.62604E-03     74.6875E-03     105.398E-03     88.7887E-03    -316.596E-03     105.130E-03    -316.328E-03     88.7887E-03    -20.5986E-03     110.222E-03    -55.0280E-03    -55.2552E-03    -54.8245E-03     110.019E-03    -55.2552E-03     11.5665E-03    -19.4753E+06    -52.2080E+06    -206.826E+06    -52.2297E+06    -206.804E+06    -19.4753E+06     1.06155E+06         29.6554
            1386     7.57257E-03     74.7007E-03     94.7735E-03     80.7153E-03    -297.565E-03     85.2720E-03    -296.999E-03     89.6508E-03     9.35863E-03     110.115E-03    -54.9469E-03    -55.2566E-03    -54.6723E-03     109.840E-03    -55.2566E-03     13.4055E-03    -14.1647E+06    -47.3920E+06    -184.932E+06    -47.4112E+06    -184.913E+06    -14.1647E+06     1.22538E+06         30.1675
            1387     8.51982E-03     74.7162E-03     88.6569E-03     77.9706E-03    -290.953E-03     76.4841E-03    -289.467E-03     88.6569E-03    -8.26499E-03     110.120E-03    -54.9425E-03    -55.1769E-03    -54.5602E-03     109.737E-03    -55.1769E-03     15.8141E-03    -9.32433E+06    -42.3784E+06    -161.246E+06    -42.3973E+06    -161.227E+06    -9.32433E+06     1.19788E+06         30.7985
            1388     9.46669E-03     74.7346E-03     91.6925E-03     84.1690E-03    -303.090E-03     85.5308E-03    -300.583E-03     87.8244E-03    -692.633E-06     109.991E-03    -54.9649E-03    -55.1345E-03    -54.4459E-03     109.472E-03    -55.1345E-03     18.4250E-03    -5.63310E+06    -38.0015E+06    -134.891E+06    -38.0768E+06    -134.816E+06    -5.63310E+06     2.16037E+06         31.5485
            1389     10.4137E-03     74.7556E-03     97.2007E-03     86.0132E-03    -309.945E-03     93.1677E-03    -307.816E-03     87.9178E-03     2.92439E-03     109.851E-03    -54.9317E-03    -55.0898E-03    -54.2371E-03     109.121E-03    -55.0543E-03     21.7934E-03    -5.86554E+06    -34.1968E+06    -93.5494E+06    -34.3563E+06    -93.3899E+06    -5.86554E+06     2.08493E+06         32.4152
            1390     11.3612E-03     74.7813E-03     96.5417E-03     86.1219E-03    -309.801E-03     93.2161E-03    -308.685E-03     88.3318E-03    -10.6336E-03     110.082E-03    -54.8521E-03    -55.3023E-03    -54.1458E-03     108.967E-03    -54.8939E-03     26.8886E-03    -4.64570E+06    -19.9701E+06    -49.7854E+06    -33.1138E+06    -36.6417E+06    -4.64570E+06     774.987E+03         33.4218
            1391     12.3088E-03     74.8126E-03     91.1424E-03     83.1186E-03    -301.470E-03     84.7229E-03    -300.279E-03     88.3472E-03     32.1257E-03     110.640E-03    -54.6970E-03    -55.9437E-03    -54.0072E-03     108.703E-03    -54.6970E-03     35.3095E-03     57.6893E+06    -6.96772E+06    -32.2899E+06    -32.2639E+06     54.4880E+06    -3.79239E+06    -1.10300E+06         34.7281
            1392     13.2547E-03     74.8585E-03     94.2132E-03     85.1491E-03    -303.809E-03     89.1165E-03    -301.731E-03     88.1679E-03    -12.4281E-03     111.812E-03    -54.7391E-03    -57.0710E-03    -53.5736E-03     108.315E-03    -54.7391E-03     47.6189E-03     138.067E+06     24.0227E+06    -28.9580E+06    -28.9396E+06     138.049E+06     24.0227E+06    -925.608E+03         36.6355
            1393     14.2037E-03     74.9176E-03     102.908E-03     88.5273E-03    -313.433E-03     100.723E-03    -311.248E-03     88.5273E-03    -6.28149E-03     111.859E-03    -54.9832E-03    -56.9222E-03    -53.3665E-03     108.303E-03    -54.9832E-03     48.0627E-03     162.821E+06     78.9301E+06    -24.6224E+06    -24.6131E+06     162.812E+06     78.9301E+06     221.191E+03         39.2763
            1394     15.1505E-03     74.9623E-03     98.3787E-03     86.2597E-03    -303.924E-03     94.6601E-03    -302.964E-03     89.0181E-03     17.8879E-03     114.180E-03    -55.0952E-03    -59.1096E-03    -53.3625E-03     108.433E-03    -55.0952E-03     59.6720E-03     170.666E+06     115.091E+06    -17.5996E+06    -17.5808E+06     170.648E+06     115.091E+06     85.9679E+03         42.3916
            1395     16.0997E-03     75.0464E-03     92.0329E-03     82.4307E-03    -296.517E-03     84.4886E-03    -295.514E-03     88.9724E-03    -28.6536E-03     112.539E-03    -53.9632E-03    -58.6086E-03    -53.0043E-03     108.047E-03    -55.0751E-03     43.2185E-03     175.114E+06     128.161E+06    -8.20954E+06    -8.19863E+06     175.103E+06     128.161E+06    -32.6712E+03         45.3072
            1396     946.745E-06     75.7603E-03     371.042E-03     109.175E-03    -611.175E-03    -164.393E-03    -292.067E-03     325.503E-03    -277.710E-03     110.141E-03    -54.7688E-03    -55.3233E-03    -55.2797E-03     110.137E-03    -54.8089E-03     1.49559E-03    -72.6155E+06    -77.7558E+06    -254.691E+06    -76.4311E+06    -254.635E+06    -73.9959E+06     1.25000E+06         28.1484
            1397     1.89287E-03     75.7623E-03     154.033E-03     82.2962E-03    -363.136E-03     88.6645E-03    -297.768E-03     82.2962E-03     89.2210E-03     110.231E-03    -55.0351E-03    -55.1363E-03    -55.0598E-03     110.212E-03    -55.0929E-03     3.16614E-03    -63.1398E+06    -73.1100E+06    -253.227E+06    -73.1189E+06    -253.218E+06    -63.1398E+06     894.538E+03         28.2643
            1398     2.83987E-03     75.7677E-03     139.870E-03     86.9896E-03    -353.929E-03     105.330E-03    -319.388E-03     86.9896E-03     6.71745E-03     110.383E-03    -55.1482E-03    -55.2093E-03    -55.1511E-03     110.342E-03    -55.1658E-03     5.14478E-03    -54.1599E+06    -68.5629E+06    -249.747E+06    -68.5924E+06    -249.718E+06    -54.1599E+06     1.89584E+06         28.4314
            1399     3.78625E-03     75.7733E-03     126.779E-03     86.2563E-03    -338.304E-03     94.7153E-03    -310.552E-03     90.5682E-03     36.1362E-03     110.309E-03    -55.1236E-03    -55.2177E-03    -55.0793E-03     110.242E-03    -55.1957E-03     6.55193E-03    -43.1931E+06    -63.1613E+06    -242.844E+06    -63.2068E+06    -242.799E+06    -43.1931E+06     2.63337E+06         28.6500
            1400     4.73278E-03     75.7817E-03     101.249E-03     80.9237E-03    -303.650E-03     78.1126E-03    -289.491E-03     89.9009E-03    -41.2116E-03     110.369E-03    -55.1594E-03    -55.2534E-03    -55.0560E-03     110.266E-03    -55.2534E-03     8.23654E-03    -31.8842E+06    -57.6754E+06    -235.057E+06    -57.7097E+06    -235.022E+06    -31.8842E+06     2.39161E+06         28.9149
            1401     5.67937E-03     75.7911E-03     90.8056E-03     80.7285E-03    -290.021E-03     78.0754E-03    -284.466E-03     87.9034E-03     21.2518E-03     110.476E-03    -55.1664E-03    -55.2800E-03    -55.0177E-03     110.327E-03    -55.2800E-03     9.87622E-03    -22.8817E+06    -53.6765E+06    -226.109E+06    -53.7457E+06    -226.040E+06    -22.8817E+06     3.01846E+06         29.2403
            1402     6.62597E-03     75.8031E-03     89.5794E-03     84.2450E-03    -292.198E-03     85.2479E-03    -290.572E-03     86.9506E-03    -22.0458E-03     110.194E-03    -54.9927E-03    -55.2794E-03    -54.7867E-03     109.988E-03    -55.2794E-03     11.6271E-03    -18.9250E+06    -51.0937E+06    -206.486E+06    -51.1532E+06    -206.426E+06    -18.9250E+06     2.41956E+06         29.6528
            1403     7.57307E-03     75.8160E-03     93.9221E-03     83.3594E-03    -296.944E-03     89.1149E-03    -295.717E-03     86.9399E-03     32.9047E-03     110.050E-03    -54.9275E-03    -55.2360E-03    -54.6415E-03     109.764E-03    -55.2360E-03     13.6745E-03    -16.5046E+06    -47.5961E+06    -183.632E+06    -47.6015E+06    -183.627E+06    -16.5046E+06     657.882E+03         30.1662
            1404     8.51964E-03     75.8318E-03     92.9150E-03     82.5344E-03    -298.527E-03     86.6740E-03    -296.794E-03     87.0417E-03     5.73166E-03     110.020E-03    -54.9138E-03    -55.1374E-03    -54.5301E-03     109.636E-03    -55.1374E-03     15.8596E-03    -12.7515E+06    -43.9247E+06    -162.855E+06    -43.9337E+06    -162.846E+06    -12.7515E+06     695.494E+03         30.7985
            1405     9.46681E-03     75.8497E-03     91.3249E-03     85.1212E-03    -301.310E-03     86.9036E-03    -298.787E-03     87.0194E-03     14.1038E-03     109.931E-03    -54.9331E-03    -55.0893E-03    -54.4190E-03     109.416E-03    -55.0893E-03     18.3247E-03    -10.0905E+06    -40.0785E+06    -134.916E+06    -40.0862E+06    -134.908E+06    -10.0905E+06     650.271E+03         31.5492
            1406     10.4141E-03     75.8712E-03     93.2745E-03     81.5772E-03    -299.258E-03     84.8176E-03    -296.137E-03     86.9130E-03     7.85067E-03     109.866E-03    -54.9275E-03    -55.0719E-03    -54.2672E-03     109.149E-03    -55.0152E-03     21.6157E-03    -9.60306E+06    -36.4104E+06    -94.3576E+06    -36.5124E+06    -94.2556E+06    -9.60306E+06     1.31442E+06         32.4164
            1407     11.3612E-03     75.8961E-03     89.0081E-03     79.6168E-03    -292.147E-03     80.2919E-03    -290.328E-03     86.5147E-03    -20.3921E-03     110.171E-03    -54.8382E-03    -55.3948E-03    -54.2304E-03     109.049E-03    -54.8800E-03     26.9401E-03    -3.54678E+06    -18.8793E+06    -50.1997E+06    -32.7968E+06    -34.5979E+06    -5.23116E+06     1.46700E+06         33.4242
            1408     12.3075E-03     75.9300E-03     91.6205E-03     83.8123E-03    -297.570E-03     87.9615E-03    -296.347E-03     86.2489E-03     25.8376E-03     110.624E-03    -54.7002E-03    -55.9123E-03    -53.9598E-03     108.671E-03    -54.7002E-03     35.4835E-03     57.9354E+06    -2.85453E+06    -30.4471E+06    -30.4272E+06     56.5580E+06    -1.49707E+06    -147.847E+03         34.7324
            1409     13.2557E-03     75.9727E-03     95.1087E-03     84.0232E-03    -300.959E-03     90.5366E-03    -298.747E-03     86.3836E-03    -16.2678E-03     111.689E-03    -54.7317E-03    -56.9774E-03    -53.4496E-03     108.161E-03    -54.7317E-03     47.7602E-03     135.382E+06     24.2560E+06    -29.0919E+06    -29.0748E+06     135.365E+06     24.2560E+06     95.3297E+03         36.6419
            1410     14.2037E-03     76.0328E-03     93.0435E-03     80.6951E-03    -294.690E-03     85.3400E-03    -292.689E-03     86.3985E-03    -18.1481E-03     111.646E-03    -54.9501E-03    -56.7156E-03    -53.1434E-03     108.074E-03    -54.9501E-03     48.0674E-03     163.338E+06     78.4214E+06    -23.7749E+06    -23.7654E+06     163.329E+06     78.4214E+06     708.552E+03         39.2843
            1411     15.1522E-03     76.0783E-03     97.4550E-03     82.9763E-03    -299.572E-03     93.2014E-03    -298.760E-03     86.4182E-03    -703.160E-06     114.149E-03    -55.0632E-03    -59.0442E-03    -53.4403E-03     108.545E-03    -55.0632E-03     59.0206E-03     171.393E+06     115.328E+06    -16.3922E+06    -16.3806E+06     171.382E+06     115.328E+06    -319.824E+03         42.4013
            1412     16.0990E-03     76.1615E-03     95.5958E-03     82.7977E-03    -300.361E-03     90.6199E-03    -299.169E-03     86.5810E-03    -33.3339E-03     112.810E-03    -54.0428E-03    -58.7704E-03    -53.3815E-03     108.441E-03    -55.0631E-03     42.7501E-03     174.663E+06     127.477E+06    -8.15958E+06    -8.15305E+06     174.656E+06     127.477E+06    -752.508E+03         45.3197
            1413     946.608E-06     76.8760E-03     329.509E-03     150.696E-03    -599.239E-03    -66.3639E-03    -294.812E-03     242.143E-03    -356.427E-03     110.080E-03    -54.7573E-03    -55.2992E-03    -55.0217E-03     110.077E-03    -55.0313E-03     1.41712E-03    -73.0202E+06    -79.6779E+06    -256.689E+06    -78.4837E+06    -256.678E+06    -74.2252E+06     310.541E+03         28.1456
            1414     1.89354E-03     76.8776E-03     154.199E-03     89.6813E-03    -360.999E-03     96.9549E-03    -303.756E-03     89.6813E-03     50.2777E-03     110.367E-03    -55.1053E-03    -55.2170E-03    -55.1803E-03     110.348E-03    -55.1230E-03     3.27914E-03    -62.6529E+06    -74.0959E+06    -254.163E+06    -74.1152E+06    -254.144E+06    -62.6529E+06     1.81328E+06         28.2609
            1415     2.83961E-03     76.8830E-03     111.966E-03     85.4342E-03    -317.635E-03     69.5604E-03    -278.139E-03     88.3441E-03    -27.0972E-03     110.338E-03    -55.0940E-03    -55.2288E-03    -55.0985E-03     110.299E-03    -55.1851E-03     5.06045E-03    -55.2422E+06    -69.5503E+06    -250.706E+06    -69.5668E+06    -250.690E+06    -55.2422E+06     1.59839E+06         28.4285
            1416     3.78618E-03     76.8892E-03     115.455E-03     82.3991E-03    -317.452E-03     86.4083E-03    -291.316E-03     85.3090E-03     16.2154E-03     110.197E-03    -55.0712E-03    -55.1880E-03    -55.0206E-03     110.131E-03    -55.1722E-03     6.53829E-03    -44.8124E+06    -63.9085E+06    -244.073E+06    -63.9290E+06    -244.053E+06    -44.8124E+06     1.59747E+06         28.6455
            1417     4.73290E-03     76.8968E-03     111.685E-03     81.6033E-03    -310.721E-03     95.0374E-03    -298.739E-03     86.2686E-03    -56.0800E-03     110.365E-03    -55.1636E-03    -55.2438E-03    -55.0630E-03     110.258E-03    -55.2372E-03     8.38301E-03    -33.7878E+06    -58.8824E+06    -236.350E+06    -58.9421E+06    -236.290E+06    -33.7878E+06     2.85311E+06         28.9077
            1418     5.67945E-03     76.9071E-03     93.6678E-03     79.6291E-03    -291.313E-03     83.1511E-03    -287.971E-03     86.8040E-03     12.8289E-03     110.404E-03    -55.1019E-03    -55.2571E-03    -54.9520E-03     110.254E-03    -55.2571E-03     9.92858E-03    -24.6857E+06    -53.9184E+06    -228.329E+06    -54.0143E+06    -228.233E+06    -24.6857E+06     3.59466E+06         29.2345
            1419     6.62637E-03     76.9181E-03     86.1955E-03     80.6784E-03    -285.071E-03     79.3019E-03    -283.510E-03     86.0109E-03    -14.1605E-03     110.150E-03    -54.9830E-03    -55.2526E-03    -54.7783E-03     109.946E-03    -55.2526E-03     11.5841E-03    -18.6432E+06    -48.2020E+06    -204.674E+06    -48.2813E+06    -204.594E+06    -18.6432E+06     3.01091E+06         29.6507
            1420     7.57310E-03     76.9317E-03     91.0618E-03     82.7218E-03    -294.460E-03     87.1805E-03    -293.483E-03     85.6259E-03     31.4392E-03     110.048E-03    -54.9305E-03    -55.2433E-03    -54.6483E-03     109.766E-03    -55.2433E-03     13.5888E-03    -14.6716E+06    -44.4668E+06    -182.307E+06    -44.4958E+06    -182.278E+06    -14.6716E+06     1.65948E+06         30.1688
            1421     8.52019E-03     76.9473E-03     91.7980E-03     85.7680E-03    -300.515E-03     89.9107E-03    -298.784E-03     85.9247E-03    -4.41650E-03     110.032E-03    -54.9353E-03    -55.1349E-03    -54.5489E-03     109.646E-03    -55.1349E-03     15.9000E-03    -11.4102E+06    -41.7752E+06    -163.265E+06    -41.7812E+06    -163.259E+06    -11.4102E+06     817.324E+03         30.8045
            1422     9.46684E-03     76.9655E-03     86.3316E-03     82.5415E-03    -292.390E-03     81.6788E-03    -291.090E-03     85.8942E-03    -12.0694E-03     110.021E-03    -54.9980E-03    -55.1111E-03    -54.5231E-03     109.509E-03    -55.0737E-03     18.3209E-03    -9.33064E+06    -39.0574E+06    -134.509E+06    -39.0672E+06    -134.499E+06    -9.33064E+06     724.711E+03         31.5545
            1423     10.4139E-03     76.9862E-03     88.8739E-03     77.5292E-03    -286.399E-03     79.4458E-03    -284.808E-03     85.3667E-03     2.62698E-03     109.992E-03    -54.9738E-03    -55.1334E-03    -54.3878E-03     109.275E-03    -55.0025E-03     21.6050E-03    -9.91716E+06    -35.9947E+06    -94.5244E+06    -36.0537E+06    -94.4653E+06    -9.91716E+06    -19.5339E+03         32.4209
            1424     11.3607E-03     77.0122E-03     88.3149E-03     77.1066E-03    -282.926E-03     78.6764E-03    -280.989E-03     84.8077E-03    -1.72273E-03     110.061E-03    -54.8623E-03    -55.2302E-03    -54.0818E-03     108.913E-03    -54.8623E-03     27.2231E-03    -4.98728E+06    -19.3000E+06    -49.3332E+06    -32.4416E+06    -34.5073E+06    -6.67166E+06    -390.386E+03         33.4299
            1425     12.3090E-03     77.0451E-03     89.8619E-03     79.5280E-03    -285.965E-03     83.7675E-03    -284.832E-03     84.4902E-03     23.3400E-03     110.405E-03    -54.6833E-03    -55.6901E-03    -53.7477E-03     108.463E-03    -54.6833E-03     35.4065E-03     57.4555E+06    -3.82609E+06    -29.9765E+06    -29.9367E+06     55.8368E+06    -2.24720E+06     1.35979E+06         34.7397
            1426     13.2561E-03     77.0881E-03     92.7766E-03     80.4179E-03    -287.537E-03     87.5160E-03    -286.359E-03     84.5008E-03    -9.93694E-03     111.858E-03    -54.7032E-03    -57.2004E-03    -53.7351E-03     108.393E-03    -54.7032E-03     47.3994E-03     135.769E+06     22.7597E+06    -28.0871E+06    -28.0452E+06     135.727E+06     22.7597E+06     1.18589E+06         36.6507
            1427     14.2033E-03     77.1489E-03     87.2064E-03     76.8284E-03    -280.475E-03     77.7368E-03    -278.479E-03     84.3023E-03    -569.819E-06     111.783E-03    -54.9534E-03    -56.8805E-03    -53.4237E-03     108.326E-03    -54.9534E-03     47.2831E-03     163.709E+06     78.1421E+06    -23.2843E+06    -23.2719E+06     163.697E+06     78.1421E+06     10.2373E+03         39.2945
            1428     15.1512E-03     77.1923E-03     90.6471E-03     76.9720E-03    -287.318E-03     81.8448E-03    -285.470E-03     83.9268E-03     1.03090E-03     113.949E-03    -55.0920E-03    -58.8360E-03    -53.2365E-03     108.349E-03    -55.0920E-03     58.6310E-03     172.134E+06     117.458E+06    -15.3571E+06    -15.3437E+06     172.120E+06     117.458E+06    -412.788E+03         42.4133
            1429     16.0994E-03     77.2797E-03     96.1847E-03     82.3130E-03    -297.497E-03     93.8109E-03    -296.865E-03     84.0553E-03    -19.4802E-03     112.825E-03    -54.1892E-03    -58.6635E-03    -53.3350E-03     108.389E-03    -55.0819E-03     42.7177E-03     174.648E+06     128.055E+06    -7.64527E+06    -7.63511E+06     174.638E+06     128.055E+06    -540.162E+03         45.3342
            1430     946.907E-06     77.9907E-03     296.045E-03     185.829E-03    -592.185E-03    -18.3754E-03    -277.765E-03     185.829E-03    -418.962E-03     110.297E-03    -54.9296E-03    -55.3476E-03    -55.0417E-03     110.292E-03    -55.2307E-03     1.36402E-03    -74.4739E+06    -79.4600E+06    -258.100E+06    -79.4633E+06    -258.097E+06    -74.4739E+06     305.034E+03         28.1488
            1431     1.89282E-03     77.9938E-03     143.188E-03     85.9227E-03    -339.795E-03     94.8522E-03    -291.460E-03     85.9227E-03     101.690E-03     110.375E-03    -55.0711E-03    -55.2659E-03    -55.1265E-03     110.358E-03    -55.1938E-03     3.21432E-03    -65.3738E+06    -72.4782E+06    -256.070E+06    -72.4896E+06    -256.058E+06    -65.3738E+06     775.896E+03         28.2612
            1432     2.83948E-03     77.9982E-03     96.7183E-03     82.7392E-03    -292.377E-03     70.6047E-03    -269.173E-03     85.6491E-03     4.29162E-03     110.234E-03    -55.0061E-03    -55.2259E-03    -55.0017E-03     110.195E-03    -55.1913E-03     4.97801E-03    -56.5142E+06    -67.5261E+06    -251.050E+06    -67.5479E+06    -251.029E+06    -56.5142E+06     1.57323E+06         28.4261
            1433     3.78650E-03     78.0045E-03     97.5817E-03     79.6026E-03    -292.139E-03     77.3926E-03    -274.860E-03     82.5125E-03     17.5778E-03     110.162E-03    -55.0603E-03    -55.1592E-03    -54.9975E-03     110.093E-03    -55.1526E-03     6.72389E-03    -45.1762E+06    -63.8897E+06    -245.295E+06    -63.9109E+06    -245.273E+06    -45.1762E+06     1.74303E+06         28.6410
            1434     4.73290E-03     78.0129E-03     105.530E-03     83.2287E-03    -305.114E-03     96.6663E-03    -296.250E-03     83.2287E-03    -23.2228E-03     110.289E-03    -55.0906E-03    -55.2231E-03    -54.9920E-03     110.184E-03    -55.2165E-03     8.30207E-03    -34.5762E+06    -59.0972E+06    -238.391E+06    -59.1420E+06    -238.346E+06    -34.5762E+06     2.12814E+06         28.9038
            1435     5.67975E-03     78.0221E-03     98.5015E-03     85.4245E-03    -300.404E-03     95.6225E-03    -297.525E-03     85.4245E-03     34.5167E-03     110.246E-03    -54.9930E-03    -55.2102E-03    -54.8430E-03     110.096E-03    -55.2102E-03     9.91994E-03    -25.8704E+06    -53.4419E+06    -229.019E+06    -53.5073E+06    -228.953E+06    -25.8704E+06     2.73995E+06         29.2327
            1436     6.62643E-03     78.0336E-03     87.5744E-03     79.1847E-03    -283.738E-03     80.5757E-03    -283.446E-03     85.8910E-03    -7.00696E-03     110.042E-03    -54.9615E-03    -55.1679E-03    -54.7505E-03     109.831E-03    -55.1679E-03     11.7461E-03    -20.4177E+06    -49.0468E+06    -204.585E+06    -49.1097E+06    -204.522E+06    -20.4177E+06     2.92329E+06         29.6505
            1437     7.57321E-03     78.0472E-03     84.6764E-03     71.6468E-03    -275.277E-03     71.5207E-03    -275.151E-03     84.6764E-03     12.5778E-03     110.026E-03    -54.9383E-03    -55.2037E-03    -54.6581E-03     109.746E-03    -55.2037E-03     13.5619E-03    -14.0391E+06    -45.4837E+06    -181.469E+06    -45.5393E+06    -181.413E+06    -14.0391E+06     2.55050E+06         30.1713
            1438     8.52019E-03     78.0622E-03     83.3460E-03     75.5865E-03    -280.122E-03     74.8418E-03    -279.377E-03     83.3460E-03    -13.3148E-03     110.068E-03    -54.9567E-03    -55.1504E-03    -54.5694E-03     109.680E-03    -55.1504E-03     15.8974E-03    -9.44951E+06    -42.2362E+06    -162.280E+06    -42.2595E+06    -162.257E+06    -9.44951E+06     1.28411E+06         30.8092
            1439     9.46731E-03     78.0814E-03     87.3090E-03     78.8733E-03    -285.691E-03     82.6566E-03    -284.976E-03     82.8112E-03    -14.5165E-03     110.108E-03    -55.0388E-03    -55.1616E-03    -54.6067E-03     109.594E-03    -55.0796E-03     18.3821E-03    -8.41949E+06    -38.1787E+06    -133.705E+06    -38.2097E+06    -133.674E+06    -8.41949E+06    -3.25995E+03         31.5615
            1440     10.4137E-03     78.1016E-03     95.9899E-03     80.6956E-03    -292.397E-03     92.9388E-03    -291.848E-03     83.1973E-03     2.61987E-03     110.057E-03    -54.9946E-03    -55.1748E-03    -54.4539E-03     109.336E-03    -54.9946E-03     21.6514E-03    -8.91209E+06    -33.8816E+06    -93.0678E+06    -33.9789E+06    -92.9706E+06    -8.91209E+06    -1.32454E+06         32.4306
            1441     11.3615E-03     78.1274E-03     93.4780E-03     80.8243E-03    -288.611E-03     89.3236E-03    -287.469E-03     83.8373E-03     10.3870E-03     110.117E-03    -54.8631E-03    -55.2684E-03    -54.1531E-03     109.002E-03    -54.8631E-03     26.9108E-03    -5.58257E+06    -19.5867E+06    -49.1424E+06    -32.0056E+06    -36.7236E+06    -5.58257E+06    -489.845E+03         33.4399
            1442     12.3082E-03     78.1598E-03     85.0480E-03     74.5453E-03    -274.111E-03     74.7421E-03    -272.962E-03     83.7021E-03     32.0227E-03     110.465E-03    -54.7066E-03    -55.7148E-03    -53.8272E-03     108.577E-03    -54.7066E-03     34.8600E-03     57.0750E+06    -3.83056E+06    -30.9152E+06    -30.8036E+06     53.5017E+06    -368.896E+03     1.82522E+06         34.7485
            1443     13.2556E-03     78.2048E-03     86.3199E-03     77.0490E-03    -277.628E-03     79.2433E-03    -276.695E-03     83.1928E-03    -915.451E-06     111.885E-03    -54.7435E-03    -57.1781E-03    -53.6723E-03     108.379E-03    -54.7435E-03     47.6096E-03     137.740E+06     26.7462E+06    -27.8596E+06    -27.8008E+06     137.681E+06     26.7462E+06     1.76346E+06         36.6599
            1444     14.2028E-03     78.2642E-03     89.8867E-03     81.3393E-03    -287.200E-03     85.8487E-03    -284.932E-03     83.1098E-03     17.8772E-03     111.897E-03    -54.9862E-03    -56.9997E-03    -53.4757E-03     108.373E-03    -54.9862E-03     47.7358E-03     165.404E+06     80.5699E+06    -22.3191E+06    -22.2728E+06     165.358E+06     80.5699E+06     52.6201E+03         39.3058
            1445     15.1506E-03     78.3082E-03     86.4048E-03     68.9022E-03    -274.505E-03     69.8177E-03    -271.770E-03     82.7551E-03     12.1947E-03     113.974E-03    -55.1110E-03    -58.9021E-03    -53.2399E-03     108.312E-03    -55.1110E-03     58.9490E-03     171.871E+06     117.661E+06    -14.3459E+06    -14.3032E+06     171.828E+06     117.661E+06    -263.775E+03         42.4270
            1446     16.0996E-03     78.3928E-03     85.8528E-03     58.6518E-03    -263.174E-03     61.8031E-03    -262.186E-03     81.7133E-03    -27.0584E-03     112.875E-03    -54.2640E-03    -58.6019E-03    -53.2858E-03     108.386E-03    -55.0909E-03     43.0961E-03     174.160E+06     128.329E+06    -6.95537E+06    -6.93263E+06     174.137E+06     128.329E+06     301.718E+03         45.3502
            1447     945.855E-06     79.1059E-03     251.824E-03     149.047E-03    -510.424E-03     14.0220E-03    -282.670E-03     159.096E-03    -386.023E-03     110.427E-03    -54.9774E-03    -55.4391E-03    -55.3502E-03     110.420E-03    -55.0594E-03     1.60200E-03    -70.8149E+06    -77.3143E+06    -256.529E+06    -74.7714E+06    -256.525E+06    -73.3621E+06    -646.375E+03         28.1502
            1448     1.89292E-03     79.1097E-03     126.872E-03     76.2201E-03    -310.205E-03     84.9783E-03    -278.360E-03     86.2688E-03     76.8074E-03     110.249E-03    -55.0204E-03    -55.1981E-03    -55.0016E-03     110.231E-03    -55.1981E-03     3.48495E-03    -66.0580E+06    -72.9108E+06    -256.795E+06    -72.9142E+06    -256.791E+06    -66.0580E+06    -671.702E+03         28.2600
            1449     2.83995E-03     79.1129E-03     109.734E-03     86.8379E-03    -309.641E-03     92.1140E-03    -292.022E-03     86.8379E-03     41.4584E-03     110.222E-03    -55.0494E-03    -55.1646E-03    -55.0140E-03     110.183E-03    -55.1613E-03     4.96273E-03    -58.4322E+06    -68.9787E+06    -253.509E+06    -68.9934E+06    -253.494E+06    -58.4322E+06     626.308E+03         28.4243
            1450     3.78621E-03     79.1205E-03     94.1335E-03     85.6028E-03    -293.339E-03     68.5209E-03    -267.726E-03     85.6028E-03     15.1088E-03     110.115E-03    -54.9998E-03    -55.1401E-03    -54.9346E-03     110.047E-03    -55.1368E-03     6.67534E-03    -46.9953E+06    -63.9833E+06    -246.088E+06    -64.0133E+06    -246.058E+06    -46.9953E+06     2.13405E+06         28.6402
            1451     4.73304E-03     79.1279E-03     88.7945E-03     77.8199E-03    -279.204E-03     70.7730E-03    -265.671E-03     82.3084E-03    -59.2614E-03     110.137E-03    -54.9558E-03    -55.1829E-03    -54.8496E-03     110.031E-03    -55.1829E-03     8.32371E-03    -35.6998E+06    -59.5466E+06    -238.617E+06    -59.5715E+06    -238.592E+06    -35.6998E+06     1.87574E+06         28.9047
            1452     5.67987E-03     79.1376E-03     93.8474E-03     77.0440E-03    -284.657E-03     86.6895E-03    -281.988E-03     81.5325E-03    -7.48107E-03     110.192E-03    -54.9905E-03    -55.1866E-03    -54.8405E-03     110.042E-03    -55.1866E-03     9.92271E-03    -25.4951E+06    -54.3130E+06    -230.157E+06    -54.3464E+06    -230.124E+06    -25.4951E+06     1.66875E+06         29.2344
            1453     6.62687E-03     79.1490E-03     92.8776E-03     78.1605E-03    -286.483E-03     87.1623E-03    -284.847E-03     82.2399E-03    -28.2603E-03     109.953E-03    -54.9028E-03    -55.1491E-03    -54.6933E-03     109.743E-03    -55.1491E-03     11.6915E-03    -18.2327E+06    -48.4627E+06    -205.378E+06    -48.5122E+06    -205.329E+06    -18.2327E+06     2.31923E+06         29.6512
            1454     7.57376E-03     79.1629E-03     85.0383E-03     70.5938E-03    -270.538E-03     73.5433E-03    -270.450E-03     82.0011E-03     7.14018E-03     110.024E-03    -54.9562E-03    -55.1595E-03    -54.6792E-03     109.743E-03    -55.1552E-03     13.5901E-03    -11.9419E+06    -43.5323E+06    -181.374E+06    -43.5787E+06    -181.328E+06    -11.9419E+06     2.41208E+06         30.1714
            1455     8.52027E-03     79.1779E-03     81.5531E-03     72.2785E-03    -267.598E-03     72.5072E-03    -267.240E-03     80.9670E-03    -11.4737E-03     110.209E-03    -55.0550E-03    -55.1821E-03    -54.7237E-03     109.819E-03    -55.1226E-03     15.9810E-03    -6.31262E+06    -39.3149E+06    -160.977E+06    -39.3475E+06    -160.945E+06    -6.31262E+06     1.65725E+06         30.8115
            1456     9.46716E-03     79.1968E-03     85.6752E-03     78.2879E-03    -277.650E-03     82.9045E-03    -277.183E-03     80.5913E-03    -3.34897E-03     110.121E-03    -55.0480E-03    -55.1766E-03    -54.6330E-03     109.606E-03    -55.0768E-03     18.3986E-03    -6.19948E+06    -36.7955E+06    -131.387E+06    -36.8277E+06    -131.354E+06    -6.19948E+06    -203.423E+03         31.5670
            1457     10.4141E-03     79.2177E-03     90.2687E-03     79.2442E-03    -283.017E-03     87.8641E-03    -282.351E-03     80.9833E-03    -8.40620E-03     110.088E-03    -54.9980E-03    -55.2293E-03    -54.5190E-03     109.381E-03    -55.0015E-03     21.4604E-03    -7.97598E+06    -36.1575E+06    -92.5718E+06    -36.2229E+06    -92.5063E+06    -7.97598E+06    -771.840E+03         32.4379
            1458     11.3607E-03     79.2428E-03     94.5583E-03     80.8889E-03    -285.255E-03     92.7054E-03    -284.199E-03     81.6853E-03    -4.65445E-03     110.329E-03    -54.8865E-03    -55.4768E-03    -54.3610E-03     109.213E-03    -54.8865E-03     26.9139E-03    -4.62563E+06    -23.2225E+06    -50.8567E+06    -34.6109E+06    -39.4683E+06    -4.62563E+06     514.913E+03         33.4471
            1459     12.3075E-03     79.2763E-03     95.4119E-03     78.0513E-03    -280.965E-03     90.3671E-03    -280.243E-03     82.3736E-03     25.2472E-03     110.501E-03    -54.7186E-03    -55.7214E-03    -53.8206E-03     108.600E-03    -54.7186E-03     34.9992E-03     57.0115E+06    -5.61831E+06    -31.5988E+06    -31.5137E+06     51.9887E+06    -680.624E+03     1.10683E+06         34.7554
            1460     13.2558E-03     79.3188E-03     87.4870E-03     69.4848E-03    -270.172E-03     73.7029E-03    -269.214E-03     82.3112E-03    -11.0244E-03     111.662E-03    -54.7359E-03    -56.9503E-03    -53.3736E-03     108.086E-03    -54.7359E-03     47.9623E-03     138.435E+06     26.6350E+06    -27.1062E+06    -27.0783E+06     138.407E+06     26.6350E+06     1.19266E+06         36.6683
            1461     14.2039E-03     79.3814E-03     85.4524E-03     68.7897E-03    -269.388E-03     71.2253E-03    -267.950E-03     81.5797E-03    -9.16330E-03     111.671E-03    -54.9630E-03    -56.7967E-03    -53.2443E-03     108.119E-03    -54.9630E-03     47.7388E-03     166.730E+06     80.9896E+06    -21.2471E+06    -21.1922E+06     166.675E+06     80.9896E+06     544.276E+03         39.3167
            1462     15.1520E-03     79.4227E-03     84.3527E-03     65.9248E-03    -263.595E-03     68.4294E-03    -262.450E-03     80.7030E-03     2.73420E-03     114.150E-03    -55.0919E-03    -59.1063E-03    -53.5081E-03     108.552E-03    -55.0919E-03     58.6149E-03     171.424E+06     116.592E+06    -15.2291E+06    -15.1774E+06     171.372E+06     116.592E+06     173.985E+03         42.4400
            1463     16.0988E-03     79.5099E-03     79.3343E-03     52.0579E-03    -247.079E-03     51.3254E-03    -246.346E-03     79.3343E-03    -21.3144E-03     112.973E-03    -54.1482E-03    -58.8754E-03    -53.4743E-03     108.500E-03    -55.0760E-03     43.3623E-03     173.851E+06     126.941E+06    -7.87182E+06    -7.84335E+06     173.823E+06     126.941E+06     708.581E+03         45.3660
            1464     947.067E-06     80.2229E-03     261.677E-03     69.0292E-03    -430.694E-03     93.3240E-03    -272.390E-03     79.0779E-03    -324.113E-03     110.085E-03    -54.7139E-03    -55.3778E-03    -55.3165E-03     110.079E-03    -54.7688E-03     1.84721E-03    -72.5828E+06    -80.5269E+06    -256.099E+06    -77.9865E+06    -256.092E+06    -75.1299E+06    -788.584E+03         28.1473
            1465     1.89337E-03     80.2238E-03     119.092E-03     68.7739E-03    -295.123E-03     75.9433E-03    -267.335E-03     84.1356E-03     28.2703E-03     110.334E-03    -55.0597E-03    -55.2442E-03    -55.1707E-03     110.316E-03    -55.1147E-03     3.35345E-03    -66.4167E+06    -75.4638E+06    -256.163E+06    -75.4672E+06    -256.159E+06    -66.4167E+06    -259.077E+03         28.2588
            1466     2.83945E-03     80.2295E-03     109.491E-03     76.8629E-03    -297.524E-03     82.9784E-03    -276.324E-03     82.1759E-03     9.94158E-03     110.242E-03    -55.0366E-03    -55.1778E-03    -55.0134E-03     110.204E-03    -55.1629E-03     4.96450E-03    -58.8863E+06    -71.2133E+06    -254.691E+06    -71.2170E+06    -254.687E+06    -58.8863E+06    -238.807E+03         28.4238
            1467     3.78621E-03     80.2349E-03     99.2585E-03     81.0829E-03    -294.319E-03     71.8303E-03    -266.891E-03     81.0829E-03    -9.99519E-03     109.987E-03    -54.8717E-03    -55.1397E-03    -54.8039E-03     109.916E-03    -55.1364E-03     6.75807E-03    -49.5266E+06    -66.1428E+06    -248.322E+06    -66.1556E+06    -248.309E+06    -49.5266E+06     759.201E+03         28.6391
            1468     4.73352E-03     80.2433E-03     85.2020E-03     73.8202E-03    -272.313E-03     62.6830E-03    -254.283E-03     78.3087E-03    -72.5670E-03     110.138E-03    -54.9572E-03    -55.1743E-03    -54.8488E-03     110.030E-03    -55.1743E-03     8.43085E-03    -35.9826E+06    -60.4572E+06    -238.580E+06    -60.4832E+06    -238.554E+06    -35.9826E+06     1.99131E+06         28.9023
            1469     5.68002E-03     80.2532E-03     82.5648E-03     70.0255E-03    -266.047E-03     72.4349E-03    -262.277E-03     76.3853E-03    -3.29342E-03     110.271E-03    -55.0466E-03    -55.1858E-03    -54.8992E-03     110.124E-03    -55.1858E-03     9.83174E-03    -24.5882E+06    -55.4063E+06    -230.268E+06    -55.4224E+06    -230.252E+06    -24.5882E+06     1.34252E+06         29.2326
            1470     6.62654E-03     80.2641E-03     92.8221E-03     74.9780E-03    -282.320E-03     88.4540E-03    -279.823E-03     76.8493E-03    -15.4189E-03     110.017E-03    -54.9404E-03    -55.1495E-03    -54.7347E-03     109.812E-03    -55.1495E-03     11.6010E-03    -20.4418E+06    -50.5538E+06    -206.849E+06    -50.5691E+06    -206.834E+06    -20.4418E+06     1.06576E+06         29.6507
            1471     7.57360E-03     80.2777E-03     95.9939E-03     77.5102E-03    -287.398E-03     93.9150E-03    -286.405E-03     78.5959E-03     27.2597E-03     110.008E-03    -54.9459E-03    -55.1325E-03    -54.6695E-03     109.728E-03    -55.1282E-03     13.5633E-03    -14.6502E+06    -46.1817E+06    -181.563E+06    -46.2125E+06    -181.532E+06    -14.6502E+06     1.83719E+06         30.1713
            1472     8.52055E-03     80.2937E-03     89.6647E-03     78.9015E-03    -280.794E-03     88.1365E-03    -280.352E-03     79.9872E-03    -3.48106E-03     110.210E-03    -55.0534E-03    -55.1780E-03    -54.7574E-03     109.823E-03    -55.0871E-03     15.9216E-03    -7.08629E+06    -42.1476E+06    -159.681E+06    -42.1745E+06    -159.654E+06    -7.08629E+06     1.45967E+06         30.8131
            1473     9.46699E-03     80.3125E-03     82.4062E-03     75.6306E-03    -270.812E-03     76.5295E-03    -269.560E-03     80.2556E-03     11.8355E-03     110.206E-03    -55.0876E-03    -55.2367E-03    -54.7299E-03     109.702E-03    -55.0911E-03     18.1967E-03    -5.01231E+06    -38.6072E+06    -130.204E+06    -38.6374E+06    -130.173E+06    -5.01231E+06     1.01509E+06         31.5690
            1474     10.4138E-03     80.3331E-03     79.6591E-03     71.8944E-03    -262.060E-03     70.6398E-03    -260.805E-03     79.6591E-03     12.6789E-03     110.116E-03    -55.0403E-03    -55.2310E-03    -54.5237E-03     109.413E-03    -55.0438E-03     21.4046E-03    -6.01476E+06    -36.4135E+06    -93.5299E+06    -36.4878E+06    -93.4555E+06    -6.01476E+06     1.50209E+06         32.4371
            1475     11.3607E-03     80.3590E-03     86.0279E-03     74.8392E-03    -267.982E-03     80.8136E-03    -267.217E-03     79.2883E-03     2.52502E-03     110.214E-03    -54.9100E-03    -55.3537E-03    -54.2256E-03     109.086E-03    -54.9100E-03     27.0321E-03    -3.74594E+06    -21.4826E+06    -53.0180E+06    -35.1533E+06    -39.3473E+06    -3.74594E+06     909.882E+03         33.4458
            1476     12.3083E-03     80.3910E-03     91.6910E-03     78.3505E-03    -279.275E-03     89.7133E-03    -278.607E-03     79.6599E-03     15.4573E-03     110.540E-03    -54.7093E-03    -55.7758E-03    -53.8693E-03     108.633E-03    -54.7093E-03     35.0934E-03     56.3573E+06    -4.65065E+06    -32.0838E+06    -32.0493E+06     52.9896E+06    -1.31746E+06    -568.024E+03         34.7581
            1477     13.2553E-03     80.4349E-03     85.0237E-03     70.9952E-03    -270.359E-03     75.1665E-03    -269.239E-03     79.7322E-03    -23.4322E-03     111.685E-03    -54.7348E-03    -56.9917E-03    -53.4677E-03     108.161E-03    -54.7348E-03     47.6417E-03     137.083E+06     24.2675E+06    -27.6016E+06    -27.5551E+06     137.037E+06     24.2675E+06    -4.69403E+03         36.6755
            1478     14.2034E-03     80.4953E-03     78.7122E-03     59.3573E-03    -254.044E-03     58.2310E-03    -252.918E-03     78.7122E-03    -23.1629E-03     111.385E-03    -54.9621E-03    -56.5420E-03    -53.0217E-03     107.865E-03    -54.9621E-03     47.5071E-03     165.272E+06     77.7008E+06    -22.7498E+06    -22.7177E+06     165.240E+06     77.7008E+06     1.41874E+06         39.3271
            1479     15.1510E-03     80.5395E-03     77.5168E-03     66.6708E-03    -263.372E-03     66.5477E-03    -263.249E-03     77.5168E-03     2.90657E-03     114.072E-03    -55.0700E-03    -59.0965E-03    -53.4143E-03     108.390E-03    -55.0700E-03     59.0328E-03     172.086E+06     115.335E+06    -16.1481E+06    -16.1106E+06     172.049E+06     115.335E+06     1.29398E+06         42.4535
            1480     16.0994E-03     80.6249E-03     92.8717E-03     71.2674E-03    -285.544E-03     86.5820E-03    -285.287E-03     77.3005E-03    -12.6462E-03     112.904E-03    -54.0254E-03    -59.0117E-03    -53.4426E-03     108.368E-03    -55.0593E-03     43.4238E-03     175.121E+06     126.960E+06    -8.33472E+06    -8.29968E+06     175.086E+06     126.960E+06     582.591E+03         45.3832
            1481     946.872E-06     81.3374E-03     282.960E-03     7.41714E-03    -397.750E-03     166.617E-03    -290.091E-03     16.1002E-03    -205.871E-03     110.089E-03    -54.7296E-03    -55.3575E-03    -55.2647E-03     110.084E-03    -54.8174E-03     1.51750E-03    -76.1486E+06    -82.9935E+06    -256.205E+06    -82.0234E+06    -256.201E+06    -77.1226E+06    -105.969E+03         28.1435
            1482     1.89300E-03     81.3406E-03     101.639E-03     68.3281E-03    -281.004E-03     46.3844E-03    -239.746E-03     82.3241E-03     43.8108E-03     110.170E-03    -54.9136E-03    -55.2286E-03    -55.0258E-03     110.153E-03    -55.0991E-03     3.19836E-03    -68.0964E+06    -77.3425E+06    -255.895E+06     -77.344E+06    -255.893E+06    -68.0964E+06     20.5952E+03         28.2577
            1483     2.83977E-03     81.3442E-03     92.6385E-03     66.3657E-03    -271.413E-03     61.9042E-03    -245.991E-03     71.6787E-03    -7.28711E-03     110.072E-03    -54.8915E-03    -55.1509E-03    -54.8879E-03     110.033E-03    -55.1155E-03     5.01789E-03    -59.3038E+06    -73.0619E+06    -255.288E+06    -73.0713E+06    -255.279E+06    -59.3038E+06     275.842E+03         28.4233
            1484     3.78700E-03     81.3504E-03     111.374E-03     72.8230E-03    -293.301E-03     95.2154E-03    -277.142E-03     72.8230E-03     21.9875E-03     110.037E-03    -54.9308E-03    -55.1263E-03    -54.8829E-03     109.965E-03    -55.1023E-03     6.80130E-03    -50.0538E+06    -69.3263E+06    -249.585E+06    -69.3356E+06    -249.576E+06    -50.0538E+06     637.145E+03         28.6369
            1485     4.73304E-03     81.3587E-03     94.4709E-03     75.8760E-03    -280.090E-03     85.1593E-03    -271.391E-03     76.4884E-03    -26.8545E-03     110.109E-03    -54.9909E-03    -55.1402E-03    -54.8798E-03     109.997E-03    -55.1402E-03     8.52527E-03    -40.1407E+06    -64.4642E+06    -239.639E+06    -64.4729E+06    -239.630E+06    -40.1407E+06     720.791E+03         28.8992
            1486     5.68002E-03     81.3684E-03     76.7562E-03     71.0200E-03    -255.870E-03     68.2765E-03    -253.048E-03     76.6784E-03     22.4232E-03     110.193E-03    -55.0133E-03    -55.1489E-03    -54.8596E-03     110.039E-03    -55.1489E-03     10.0325E-03    -27.7836E+06    -58.4468E+06    -229.952E+06    -58.4658E+06    -229.933E+06    -27.7836E+06     1.29921E+06         29.2314
            1487     6.62699E-03     81.3797E-03     82.7682E-03     69.3237E-03    -258.096E-03     74.9556E-03    -256.894E-03     75.9342E-03    -480.432E-06     110.125E-03    -55.0413E-03    -55.1414E-03    -54.8471E-03     109.916E-03    -55.1267E-03     11.7098E-03    -22.1207E+06    -54.2545E+06    -207.473E+06    -54.2742E+06    -207.453E+06    -22.1207E+06     1.56156E+06         29.6511
            1488     7.57344E-03     81.3934E-03     96.5094E-03     75.3674E-03    -279.660E-03     93.9151E-03    -278.631E-03     76.9319E-03     28.3485E-03     110.126E-03    -55.0258E-03    -55.1721E-03    -54.8000E-03     109.841E-03    -55.1132E-03     13.6622E-03    -18.0181E+06    -50.5013E+06    -182.217E+06    -50.5270E+06    -182.191E+06    -18.0181E+06     1.68136E+06         30.1714
            1489     8.52015E-03     81.4093E-03     95.2227E-03     78.8513E-03    -284.206E-03     94.6400E-03    -283.623E-03     78.8513E-03    -1.25019E-03     110.175E-03    -55.0348E-03    -55.1497E-03    -54.7308E-03     109.790E-03    -55.0685E-03     15.8971E-03    -11.1158E+06    -46.1914E+06    -158.557E+06    -46.2128E+06    -158.535E+06    -11.1158E+06     1.26831E+06         30.8120
            1490     9.46691E-03     81.4281E-03     83.3679E-03     75.9442E-03    -268.620E-03     78.1727E-03    -267.107E-03     79.6264E-03     12.0322E-03     110.113E-03    -55.0742E-03    -55.1718E-03    -54.6662E-03     109.609E-03    -55.0757E-03     18.1897E-03    -9.35761E+06    -41.9126E+06    -130.157E+06    -41.9522E+06    -130.117E+06    -9.35761E+06     313.012E+03         31.5660
            1491     10.4136E-03     81.4491E-03     79.0838E-03     68.2160E-03    -256.466E-03     66.7025E-03    -254.839E-03     78.9702E-03     12.3985E-03     110.003E-03    -55.0390E-03    -55.1402E-03    -54.4259E-03     109.290E-03    -55.0405E-03     21.5345E-03    -9.04539E+06    -37.0226E+06    -94.9445E+06    -37.0957E+06    -94.8714E+06    -9.04539E+06     798.639E+03         32.4316
            1492     11.3610E-03     81.4740E-03     77.7740E-03     63.8464E-03    -251.232E-03     63.2571E-03    -250.643E-03     77.7740E-03    -8.92566E-03     110.104E-03    -54.8991E-03    -55.2737E-03    -54.1429E-03     108.973E-03    -54.8991E-03     27.0558E-03    -4.93761E+06    -18.9116E+06    -51.7701E+06    -32.8541E+06    -37.2918E+06    -5.47343E+06     680.801E+03         33.4405
            1493     12.3080E-03     81.5073E-03     76.9976E-03     65.5575E-03    -253.074E-03     65.2819E-03    -252.459E-03     76.6589E-03     13.1949E-03     110.555E-03    -54.6889E-03    -55.8145E-03    -53.8834E-03     108.624E-03    -54.6889E-03     35.2986E-03     54.6515E+06    -3.19485E+06    -30.9703E+06    -30.9352E+06     54.3380E+06    -2.91657E+06    -528.119E+03         34.7586
            1494     13.2552E-03     81.5502E-03     83.5841E-03     71.6910E-03    -265.965E-03     78.1279E-03    -264.988E-03     76.1699E-03    -10.6998E-03     111.760E-03    -54.7139E-03    -57.0868E-03    -53.5295E-03     108.203E-03    -54.7139E-03     47.9156E-03     134.626E+06     21.4948E+06    -29.3127E+06    -29.2636E+06     134.576E+06     21.4948E+06    -47.3678E+03         36.6824
            1495     14.2032E-03     81.6105E-03     91.4935E-03     69.7617E-03    -272.281E-03     82.1291E-03    -269.482E-03     76.3266E-03     15.9456E-03     111.516E-03    -54.9530E-03    -56.6887E-03    -53.0981E-03     107.925E-03    -54.9530E-03     48.1020E-03     163.814E+06     73.9479E+06    -24.3583E+06    -24.3201E+06     163.776E+06     73.9479E+06     1.46197E+06         39.3389
            1496     15.1523E-03     81.6543E-03     84.5190E-03     67.8224E-03    -266.132E-03     73.5538E-03    -263.773E-03     76.4277E-03     38.4796E-03     113.972E-03    -55.0666E-03    -59.0201E-03    -53.2435E-03     108.196E-03    -55.0666E-03     59.6168E-03     173.054E+06     114.317E+06    -15.8150E+06    -15.7785E+06     173.017E+06     114.317E+06     1.84198E+06         42.4693
            1497     16.0994E-03     81.7422E-03     92.4127E-03     74.5149E-03    -277.660E-03     89.9415E-03    -277.462E-03     76.7883E-03    -4.69097E-03     112.751E-03    -54.0099E-03    -58.8426E-03    -53.2528E-03     108.195E-03    -55.0437E-03     43.0021E-03     176.251E+06     128.038E+06    -6.94337E+06    -6.92263E+06     176.230E+06     128.038E+06     433.632E+03         45.4022
            1498     945.940E-06     82.4530E-03     284.300E-03    -54.2741E-03    -338.736E-03     212.928E-03    -271.090E-03    -50.5484E-03    -149.506E-03     110.129E-03    -54.8115E-03    -55.3151E-03    -55.0368E-03     110.123E-03    -55.0839E-03     1.63329E-03    -76.8400E+06    -83.6411E+06    -255.330E+06    -82.4392E+06    -255.327E+06    -78.0456E+06    -361.164E+03         28.1414
            1499     1.89331E-03     82.4552E-03     93.2645E-03     67.2292E-03    -271.797E-03     54.9317E-03    -242.147E-03     75.9122E-03     44.4662E-03     109.860E-03    -54.7762E-03    -55.0689E-03    -54.7588E-03     109.842E-03    -55.0686E-03     3.31796E-03    -66.2882E+06    -77.5118E+06    -257.230E+06    -77.5212E+06    -257.221E+06    -66.2882E+06     177.712E+03         28.2537
            1500     2.84056E-03     82.4592E-03     94.2773E-03     71.1223E-03    -274.895E-03     76.1930E-03    -257.161E-03     71.4732E-03     9.16982E-03     110.045E-03    -54.9323E-03    -55.0871E-03    -54.9505E-03     110.006E-03    -55.0299E-03     4.98402E-03    -59.3897E+06    -72.9659E+06    -256.421E+06    -72.9829E+06    -256.404E+06    -59.3897E+06     1.23680E+06         28.4202
            1501     3.78638E-03     82.4658E-03     97.1575E-03     73.5169E-03    -277.693E-03     86.4171E-03    -267.303E-03     73.8678E-03     30.9195E-03     110.079E-03    -54.9985E-03    -55.1099E-03    -54.9871E-03     110.010E-03    -55.0530E-03     6.67266E-03    -49.3587E+06    -68.7303E+06    -249.336E+06    -68.7419E+06    -249.324E+06    -49.3587E+06     1.31346E+06         28.6353
            1502     4.73372E-03     82.4735E-03     93.6207E-03     76.1153E-03    -274.580E-03     89.5496E-03    -271.121E-03     76.7277E-03    -19.4342E-03     110.043E-03    -55.0002E-03    -55.1161E-03    -54.9016E-03     109.934E-03    -55.1064E-03     8.39659E-03    -39.5844E+06    -64.5488E+06    -240.173E+06    -64.5637E+06    -240.158E+06    -39.5844E+06     1.05383E+06         28.8987
            1503     5.68046E-03     82.4836E-03     83.4606E-03     72.9918E-03    -258.597E-03     77.6245E-03    -257.742E-03     77.9733E-03     20.8546E-03     110.176E-03    -55.0475E-03    -55.1457E-03    -54.9371E-03     110.024E-03    -55.1045E-03     9.98134E-03    -30.3374E+06    -60.2470E+06    -230.044E+06    -60.2764E+06    -230.014E+06    -30.3374E+06     673.902E+03         29.2312
            1504     6.62682E-03     82.4951E-03     77.3563E-03     69.6007E-03    -247.729E-03     69.0936E-03    -247.222E-03     77.3563E-03    -16.9716E-03     110.161E-03    -55.0838E-03    -55.1582E-03    -54.9250E-03     109.956E-03    -55.1119E-03     11.5955E-03    -23.0733E+06    -54.2561E+06    -207.962E+06    -54.2834E+06    -207.935E+06    -23.0733E+06     905.523E+03         29.6500
            1505     7.57351E-03     82.5091E-03     81.9685E-03     72.4770E-03    -257.816E-03     76.4528E-03    -256.575E-03     76.7518E-03     5.33973E-03     110.211E-03    -55.1017E-03    -55.1971E-03    -54.8849E-03     109.921E-03    -55.1245E-03     13.7753E-03    -18.6790E+06    -48.7175E+06    -182.266E+06    -48.7311E+06    -182.253E+06    -18.6790E+06     1.23984E+06         30.1680
            1506     8.52002E-03     82.5249E-03     84.1230E-03     72.8405E-03    -262.384E-03     79.1474E-03    -261.411E-03     76.8429E-03     10.0483E-03     110.185E-03    -55.0501E-03    -55.1350E-03    -54.7184E-03     109.790E-03    -55.0715E-03     16.1042E-03    -12.5904E+06    -43.4461E+06    -156.835E+06    -43.4819E+06    -156.799E+06    -12.5904E+06    -119.518E+03         30.8071
            1507     9.46676E-03     82.5437E-03     78.8853E-03     70.8649E-03    -256.238E-03     72.5677E-03    -255.764E-03     76.7082E-03     2.17100E-03     109.953E-03    -54.9983E-03    -55.0567E-03    -54.4876E-03     109.437E-03    -55.0511E-03     18.3905E-03    -9.65846E+06    -38.5590E+06    -130.377E+06    -38.6141E+06    -130.321E+06    -9.65846E+06    -739.286E+03         31.5619
            1508     10.4143E-03     82.5641E-03     77.3963E-03     68.6180E-03    -253.109E-03     68.6217E-03    -251.792E-03     76.0760E-03    -13.9883E-03     109.928E-03    -54.9686E-03    -55.1174E-03    -54.3602E-03     109.203E-03    -55.0000E-03     21.7296E-03    -10.5958E+06    -35.7301E+06    -95.5726E+06    -35.8079E+06    -95.4948E+06    -10.5958E+06    -693.014E+03         32.4288
            1509     11.3609E-03     82.5900E-03     76.4698E-03     64.9404E-03    -247.235E-03     64.9294E-03    -245.970E-03     75.2153E-03    -23.4316E-03     110.167E-03    -54.8683E-03    -55.3844E-03    -54.2411E-03     109.023E-03    -54.8683E-03     27.2209E-03    -6.92991E+06    -20.1675E+06    -51.9274E+06    -33.3782E+06    -37.3443E+06    -8.30233E+06    -435.706E+03         33.4394
            1510     12.3085E-03     82.6223E-03     78.9259E-03     64.6906E-03    -247.161E-03     68.3322E-03    -246.359E-03     74.4826E-03     20.4434E-03     110.412E-03    -54.6908E-03    -55.6894E-03    -53.7769E-03     108.500E-03    -54.6908E-03     35.1295E-03     53.8293E+06    -4.03878E+06    -31.5225E+06    -31.5041E+06     53.8109E+06    -4.03878E+06     818.528E+03         34.7607
            1511     13.2563E-03     82.6661E-03     85.8406E-03     68.4623E-03    -258.113E-03     78.7840E-03    -256.964E-03     74.3694E-03     13.0143E-06     111.607E-03    -54.7045E-03    -56.9181E-03    -53.4178E-03     108.106E-03    -54.7045E-03     47.4829E-03     134.277E+06     21.1557E+06    -29.5481E+06    -29.5270E+06     134.256E+06     21.1557E+06     956.128E+03         36.6888
            1512     14.2043E-03     82.7260E-03     94.5656E-03     73.3301E-03    -272.749E-03     90.0977E-03    -269.943E-03     74.9913E-03     14.5962E-03     111.759E-03    -54.9259E-03    -56.9250E-03    -53.3734E-03     108.208E-03    -54.9259E-03     47.9191E-03     163.669E+06     73.2820E+06    -24.1577E+06    -24.1067E+06     163.618E+06     73.2820E+06     239.804E+03         39.3499
            1513     15.1507E-03     82.7706E-03     97.8453E-03     73.6914E-03    -275.097E-03     91.0786E-03    -270.527E-03     75.8888E-03     7.98439E-03     113.905E-03    -55.0612E-03    -58.9578E-03    -53.2554E-03     108.203E-03    -55.0612E-03     59.2057E-03     173.213E+06     114.117E+06    -15.7109E+06    -15.6666E+06     173.168E+06     114.117E+06     446.547E+03         42.4847
            1514     16.1000E-03     82.8563E-03     85.6733E-03     65.8128E-03    -251.631E-03     72.3486E-03    -248.656E-03     76.1623E-03    -39.9407E-03     112.528E-03    -54.0752E-03    -58.5531E-03    -53.0929E-03     108.035E-03    -55.0420E-03     42.7690E-03     176.611E+06     127.794E+06    -6.99078E+06    -6.98407E+06     176.604E+06     127.794E+06     642.187E+03         45.4201
            1515     947.078E-06     83.5680E-03     347.872E-03    -83.9868E-03    -357.774E-03     300.348E-03    -209.159E-03    -185.077E-03    -146.876E-03     109.802E-03    -54.6004E-03    -55.1888E-03    -54.9993E-03     109.797E-03    -54.7849E-03     1.67021E-03    -78.8914E+06    -83.6502E+06    -255.969E+06    -83.0118E+06    -255.965E+06    -79.5333E+06    -265.335E+03         28.1380
            1516     1.89378E-03     83.5699E-03     116.898E-03     66.3206E-03    -284.541E-03     101.477E-03    -269.120E-03     66.3206E-03     30.8358E-03     110.003E-03    -54.8434E-03    -55.1412E-03    -54.9930E-03     109.988E-03    -54.9764E-03     3.03778E-03    -69.3776E+06    -78.9405E+06    -259.096E+06    -78.5412E+06    -259.085E+06    -69.7880E+06     804.866E+03         28.2454
            1517     2.83988E-03     83.5748E-03     90.1735E-03     75.5722E-03    -267.912E-03     80.9407E-03    -259.046E-03     75.9388E-03    -4.42226E-03     109.979E-03    -54.9110E-03    -55.0651E-03    -54.9061E-03     109.941E-03    -55.0319E-03     4.90368E-03    -58.9783E+06    -73.4022E+06    -256.279E+06    -73.4147E+06    -256.266E+06    -58.9783E+06     991.943E+03         28.4117
            1518     3.78715E-03     83.5807E-03     77.2122E-03     75.5801E-03    -255.262E-03     69.3831E-03    -247.799E-03     75.9466E-03    -321.498E-06     109.978E-03    -54.8917E-03    -55.1261E-03    -54.9307E-03     109.906E-03    -55.0159E-03     6.80243E-03    -48.6036E+06    -68.1869E+06    -250.213E+06    -68.1945E+06    -250.205E+06    -48.6036E+06     753.288E+03         28.6304
            1519     4.73333E-03     83.5888E-03     82.0216E-03     74.3242E-03    -257.183E-03     76.8298E-03    -252.936E-03     75.2686E-03    -25.8728E-03     110.264E-03    -55.0733E-03    -55.2317E-03    -55.0942E-03     110.156E-03    -55.1028E-03     8.41392E-03    -37.7426E+06    -62.5636E+06    -241.013E+06    -62.5845E+06    -240.992E+06    -37.7426E+06     1.83151E+06         28.8958
            1520     5.67992E-03     83.5989E-03     85.2310E-03     73.7936E-03    -257.591E-03     82.3323E-03    -256.831E-03     75.9324E-03     19.3392E-03     110.303E-03    -55.0915E-03    -55.2152E-03    -55.0223E-03     110.150E-03    -55.1319E-03     9.99942E-03    -30.4501E+06    -57.8313E+06    -227.824E+06    -57.8559E+06    -227.800E+06    -30.4501E+06     852.108E+03         29.2282
            1521     6.62674E-03     83.6110E-03     81.0351E-03     73.4450E-03    -251.858E-03     76.8301E-03    -250.670E-03     76.4613E-03    -29.6879E-03     110.136E-03    -55.0705E-03    -55.1759E-03    -54.8868E-03     109.921E-03    -55.1443E-03     11.8689E-03    -25.7808E+06    -53.5698E+06    -208.478E+06    -53.5994E+06    -208.448E+06    -25.7808E+06    -787.669E+03         29.6466
            1522     7.57344E-03     83.6247E-03     76.5437E-03     66.1061E-03    -242.520E-03     64.9287E-03    -240.580E-03     75.7812E-03    -14.7652E-03     110.089E-03    -55.0358E-03    -55.1637E-03    -54.7484E-03     109.788E-03    -55.1499E-03     14.0452E-03    -20.5376E+06    -47.7982E+06    -182.064E+06    -47.8395E+06    -182.023E+06    -20.5376E+06    -1.18233E+06         30.1635
            1523     8.52033E-03     83.6409E-03     74.0869E-03     57.3785E-03    -234.348E-03     56.5518E-03    -233.521E-03     74.0869E-03     8.11581E-03     110.065E-03    -54.9799E-03    -55.1012E-03    -54.5928E-03     109.658E-03    -55.0819E-03     16.3183E-03    -13.2083E+06    -42.8058E+06    -155.294E+06    -42.8548E+06    -155.245E+06    -13.2083E+06    -1.62936E+06         30.8020
            1524     9.46734E-03     83.6589E-03     72.4371E-03     60.3182E-03    -236.819E-03     60.2538E-03    -236.754E-03     72.4371E-03    -4.73133E-03     110.062E-03    -55.0081E-03    -55.1372E-03    -54.5744E-03     109.551E-03    -55.0593E-03     18.3315E-03    -8.98102E+06    -39.5125E+06    -131.518E+06    -39.5650E+06    -131.466E+06    -8.98102E+06    -1.13982E+06         31.5593
            1525     10.4141E-03     83.6799E-03     75.1139E-03     68.4564E-03    -248.462E-03     71.1124E-03    -247.724E-03     71.7200E-03    -11.0403E-03     109.990E-03    -54.9650E-03    -55.1504E-03    -54.4143E-03     109.284E-03    -54.9951E-03     21.4254E-03    -8.99592E+06    -36.7622E+06    -95.2841E+06    -36.8572E+06    -95.1891E+06    -8.99592E+06    -492.980E+03         32.4293
            1526     11.3617E-03     83.7056E-03     79.7638E-03     71.9065E-03    -254.838E-03     78.9792E-03    -254.053E-03     71.9065E-03    -16.2188E-03     110.086E-03    -54.8569E-03    -55.2980E-03    -54.1754E-03     108.964E-03    -54.8571E-03     26.9561E-03    -5.76957E+06    -21.4919E+06    -52.1146E+06    -34.8411E+06    -37.9288E+06    -6.60617E+06    -460.257E+03         33.4423
            1527     12.3080E-03     83.7382E-03     86.4436E-03     72.6493E-03    -261.681E-03     86.2071E-03    -261.444E-03     72.6493E-03     3.11812E-03     110.463E-03    -54.7052E-03    -55.7288E-03    -53.8592E-03     108.593E-03    -54.7052E-03     34.7642E-03     53.3253E+06    -3.66351E+06    -32.2974E+06    -32.2518E+06     51.5397E+06    -1.92349E+06     668.567E+03         34.7646
            1528     13.2559E-03     83.7806E-03     82.5789E-03     69.0381E-03    -257.754E-03     77.5230E-03    -256.908E-03     73.2479E-03    -11.2036E-03     111.772E-03    -54.7564E-03    -57.0322E-03    -53.6097E-03     108.350E-03    -54.7564E-03     46.9984E-03     135.160E+06     25.1230E+06    -28.2878E+06    -28.2668E+06     135.139E+06     25.1230E+06     1.24580E+06         36.6931
            1529     14.2030E-03     83.8419E-03     77.4722E-03     62.4923E-03    -246.988E-03     65.9729E-03    -246.061E-03     73.0649E-03    -9.08160E-03     111.663E-03    -54.9414E-03    -56.8021E-03    -53.2854E-03     108.157E-03    -54.9525E-03     47.6285E-03     165.384E+06     75.7348E+06    -22.8139E+06    -22.7801E+06     165.350E+06     75.7348E+06    -35.4025E+03         39.3563
            1530     15.1520E-03     83.8863E-03     88.2327E-03     66.4684E-03    -258.451E-03     79.0067E-03    -255.587E-03     72.8311E-03    -29.8296E-03     113.738E-03    -55.0455E-03    -58.8456E-03    -53.2309E-03     108.135E-03    -55.0566E-03     58.7631E-03     172.665E+06     113.027E+06    -16.2631E+06    -16.2311E+06     172.633E+06     113.027E+06    -247.104E+03         42.4951
            1531     16.0995E-03     83.9705E-03     89.9456E-03     64.7870E-03    -254.511E-03     78.0342E-03    -250.752E-03     72.9391E-03    -39.7831E-03     112.375E-03    -54.0055E-03    -58.5989E-03    -53.1515E-03     107.971E-03    -55.0492E-03     42.7521E-03     176.213E+06     125.935E+06    -8.53973E+06    -8.53104E+06     176.204E+06     125.935E+06     431.281E+03         45.4340
            1532     947.167E-06     84.6827E-03     392.040E-03    -96.4098E-03    -379.505E-03     337.649E-03    -188.734E-03    -232.790E-03    -225.754E-03     109.751E-03    -54.3715E-03    -55.3639E-03    -55.2803E-03     109.747E-03    -54.4515E-03     1.37872E-03    -79.3148E+06    -85.0665E+06    -256.683E+06    -84.0806E+06    -256.654E+06    -80.3296E+06     1.63707E+06         28.1290
            1533     1.89294E-03     84.6860E-03     107.019E-03     55.5870E-03    -249.370E-03     93.9305E-03    -241.221E-03     60.5269E-03     1.92460E-03     109.973E-03    -54.8188E-03    -55.1211E-03    -54.9666E-03     109.956E-03    -54.9565E-03     3.12304E-03    -71.9334E+06    -81.3541E+06    -260.387E+06    -80.9512E+06    -260.379E+06    -72.3438E+06     534.135E+03         28.2367
            1534     2.84016E-03     84.6893E-03     95.8171E-03     71.7229E-03    -258.003E-03     89.1192E-03    -251.321E-03     71.7386E-03    -8.89003E-03     109.901E-03    -54.8488E-03    -55.0534E-03    -54.8613E-03     109.861E-03    -55.0014E-03     5.02565E-03    -61.9667E+06    -75.8332E+06    -256.363E+06    -75.8457E+06    -256.350E+06    -61.9667E+06     457.279E+03         28.4047
            1535     3.78702E-03     84.6959E-03     83.7194E-03     75.1314E-03    -255.255E-03     79.8038E-03    -251.408E-03     75.1995E-03     8.20067E-03     109.955E-03    -54.8774E-03    -55.1163E-03    -54.9318E-03     109.880E-03    -54.9870E-03     6.94334E-03    -51.0257E+06    -71.0660E+06    -250.685E+06    -71.0772E+06    -250.674E+06    -51.0257E+06     697.075E+03         28.6254
            1536     4.73372E-03     84.7048E-03     76.0356E-03     68.9615E-03    -243.752E-03     67.3111E-03    -241.079E-03     75.0133E-03    -6.61998E-03     110.267E-03    -55.0679E-03    -55.2121E-03    -55.0858E-03     110.155E-03    -55.0827E-03     8.56799E-03    -40.9240E+06    -65.6053E+06    -241.735E+06    -65.6147E+06    -241.725E+06    -40.9240E+06     421.575E+03         28.8932
            1537     5.68009E-03     84.7141E-03     79.7536E-03     68.1405E-03    -246.767E-03     72.8604E-03    -245.873E-03     74.1398E-03     20.5609E-03     110.314E-03    -55.0764E-03    -55.1974E-03    -54.9994E-03     110.156E-03    -55.1168E-03     10.1488E-03    -32.1080E+06    -58.8894E+06    -226.364E+06    -58.8982E+06    -226.355E+06    -32.1080E+06     246.738E+03         29.2273
            1538     6.62689E-03     84.7259E-03     80.5233E-03     70.4738E-03    -249.729E-03     75.9473E-03    -248.826E-03     74.1469E-03    -10.2472E-03     110.123E-03    -55.0408E-03    -55.1538E-03    -54.8452E-03     109.899E-03    -55.1254E-03     12.1212E-03    -25.2565E+06    -53.1106E+06    -206.159E+06    -53.1481E+06    -206.121E+06    -25.2565E+06    -1.44773E+06         29.6454
            1539     7.57360E-03     84.7399E-03     73.7575E-03     53.6885E-03    -225.315E-03     53.1042E-03    -223.968E-03     72.9950E-03    -1.78011E-03     110.007E-03    -54.9739E-03    -55.1328E-03    -54.6808E-03     109.713E-03    -55.1328E-03     13.8653E-03    -20.9327E+06    -48.8851E+06    -180.948E+06    -48.9835E+06    -180.849E+06    -20.9327E+06    -3.51339E+06         30.1622
            1540     8.52077E-03     84.7555E-03     72.0692E-03     49.1843E-03    -219.951E-03     50.0395E-03    -219.296E-03     70.5590E-03    -2.60487E-03     109.996E-03    -54.9480E-03    -55.0769E-03    -54.5594E-03     109.602E-03    -55.0714E-03     16.0438E-03    -14.2329E+06    -45.0228E+06    -156.716E+06    -45.0895E+06    -156.650E+06    -14.2329E+06    -2.31057E+06         30.8007
            1541     9.46736E-03     84.7752E-03     76.5290E-03     63.1154E-03    -240.500E-03     69.6656E-03    -239.912E-03     69.3909E-03     140.889E-06     110.054E-03    -55.0464E-03    -55.1331E-03    -54.6192E-03     109.549E-03    -55.0552E-03     18.2220E-03    -9.58244E+06    -41.8149E+06    -132.446E+06    -41.8363E+06    -132.424E+06    -9.58244E+06    -847.409E+03         31.5575
            1542     10.4138E-03     84.7951E-03     79.8035E-03     69.2612E-03    -251.519E-03     78.6305E-03    -250.880E-03     69.7954E-03     21.0218E-03     110.027E-03    -54.9924E-03    -55.2007E-03    -54.4821E-03     109.309E-03    -54.9928E-03     21.5790E-03    -10.7339E+06    -38.6801E+06    -94.8699E+06    -38.7896E+06    -94.7604E+06    -10.7339E+06    -839.014E+03         32.4288
            1543     11.3607E-03     84.8211E-03     79.6232E-03     70.5685E-03    -253.138E-03     79.3002E-03    -252.815E-03     70.5685E-03     16.3001E-03     110.117E-03    -54.8516E-03    -55.3331E-03    -54.2048E-03     108.989E-03    -54.8517E-03     27.0649E-03    -8.00724E+06    -22.1658E+06    -51.4720E+06    -35.3950E+06    -38.2428E+06    -8.00724E+06    -677.100E+03         33.4442
            1544     12.3088E-03     84.8536E-03     80.7187E-03     66.7213E-03    -249.611E-03     76.0925E-03    -249.373E-03     71.1088E-03     12.1325E-03     110.588E-03    -54.6933E-03    -55.8655E-03    -53.9803E-03     108.703E-03    -54.6933E-03     34.8945E-03     52.0944E+06    -5.59074E+06    -32.2770E+06    -32.2250E+06     50.2825E+06    -3.83082E+06    -426.720E+03         34.7675
            1545     13.2553E-03     84.8973E-03     76.7205E-03     64.2231E-03    -243.363E-03     69.3881E-03    -242.967E-03     71.1590E-03    -5.04111E-03     111.928E-03    -54.7645E-03    -57.2063E-03    -53.7587E-03     108.480E-03    -54.7645E-03     47.2507E-03     135.182E+06     24.2448E+06    -28.4025E+06    -28.3749E+06     135.154E+06     24.2448E+06     83.0782E+03         36.6964
            1546     14.2032E-03     84.9568E-03     76.9927E-03     61.9659E-03    -240.022E-03     67.4221E-03    -239.363E-03     70.8771E-03     3.04693E-03     111.641E-03    -54.9751E-03    -56.7377E-03    -53.2270E-03     108.142E-03    -54.9862E-03     47.5756E-03     165.586E+06     76.6818E+06    -23.1953E+06    -23.1839E+06     165.574E+06     76.6818E+06     949.572E+03         39.3601
            1547     15.1509E-03     85.0014E-03     77.5604E-03     58.8729E-03    -236.664E-03     64.9440E-03    -235.709E-03     70.5345E-03     12.1159E-03     113.770E-03    -55.0503E-03    -58.8206E-03    -53.1973E-03     108.158E-03    -55.0613E-03     58.7992E-03     172.529E+06     113.094E+06    -16.0128E+06    -16.0042E+06     172.521E+06     113.094E+06     418.315E+03         42.5006
            1548     16.0991E-03     85.0871E-03     77.9111E-03     64.4237E-03    -247.638E-03     70.8014E-03    -246.467E-03     70.3625E-03     15.5179E-03     112.368E-03    -53.9138E-03    -58.6564E-03    -53.1211E-03     107.952E-03    -55.0333E-03     42.8198E-03     176.370E+06     126.139E+06     -7.6115E+06    -7.60869E+06     176.367E+06     126.139E+06    -413.674E+03         45.4441
            1549     946.091E-06     85.7984E-03     408.648E-03    -143.176E-03    -348.187E-03     364.518E-03    -231.757E-03    -215.477E-03    -183.851E-03     109.684E-03    -54.4414E-03    -55.2491E-03    -54.9451E-03     109.679E-03    -54.7405E-03     1.62275E-03    -76.5893E+06    -83.8375E+06    -258.940E+06    -81.7697E+06    -258.906E+06    -78.6908E+06     1.95135E+06         28.1125
            1550     1.89412E-03     85.7999E-03     86.0579E-03     56.3577E-03    -217.839E-03     67.2958E-03    -215.823E-03     73.1047E-03     17.4722E-03     109.767E-03    -54.7970E-03    -54.9669E-03    -54.8222E-03     109.749E-03    -54.9230E-03     3.34999E-03    -67.6223E+06    -78.2334E+06    -259.792E+06    -78.2467E+06    -259.779E+06    -67.6223E+06     991.999E+03         28.2322
            1551     2.84048E-03     85.8049E-03     95.0364E-03     73.3040E-03    -250.317E-03     91.7482E-03    -248.310E-03     74.5856E-03     35.3617E-03     110.102E-03    -54.9238E-03    -55.1596E-03    -55.0867E-03     110.061E-03    -54.9555E-03     5.14326E-03    -62.4948E+06    -74.8674E+06    -257.392E+06    -74.8795E+06    -257.380E+06    -62.4948E+06     612.870E+03         28.4047
            1552     3.78668E-03     85.8109E-03     84.8729E-03     70.7726E-03    -244.122E-03     76.4791E-03    -242.331E-03     77.3754E-03     32.2235E-03     110.190E-03    -55.0147E-03    -55.2105E-03    -55.1213E-03     110.116E-03    -55.0295E-03     6.93801E-03    -51.2025E+06    -70.1255E+06    -250.062E+06    -70.1333E+06    -250.054E+06    -51.2025E+06     508.629E+03         28.6265
            1553     4.73338E-03     85.8200E-03     75.8928E-03     63.0618E-03    -229.655E-03     62.0699E-03    -228.663E-03     75.8928E-03     2.59500E-03     110.192E-03    -55.0819E-03    -55.1491E-03    -55.0074E-03     110.087E-03    -55.1183E-03     8.33201E-03    -38.7777E+06    -64.2967E+06    -240.903E+06    -64.3070E+06    -240.892E+06    -38.7777E+06    -906.050E+03         28.8944
            1554     5.68032E-03     85.8297E-03     75.4555E-03     62.5843E-03    -232.013E-03     63.4056E-03    -231.032E-03     73.6529E-03    -3.24054E-03     110.261E-03    -55.0722E-03    -55.1414E-03    -54.9637E-03     110.114E-03    -55.1029E-03     9.79660E-03    -30.5497E+06    -58.3818E+06    -225.810E+06    -58.4112E+06    -225.780E+06    -30.5497E+06    -1.89559E+06         29.2263
            1555     6.62670E-03     85.8418E-03     74.0264E-03     62.9637E-03    -234.601E-03     64.3894E-03    -234.224E-03     72.2239E-03     4.19648E-03     110.081E-03    -54.9818E-03    -55.1268E-03    -54.7941E-03     109.865E-03    -55.0984E-03     11.8888E-03    -24.6299E+06    -52.4692E+06    -203.434E+06    -52.5352E+06    -203.369E+06    -24.6299E+06    -2.78164E+06         29.6425
            1556     7.57356E-03     85.8554E-03     75.0666E-03     57.5317E-03    -232.407E-03     59.7673E-03    -230.529E-03     70.9523E-03     40.6018E-03     110.033E-03    -54.9646E-03    -55.1522E-03    -54.7206E-03     109.743E-03    -55.1062E-03     13.7940E-03    -20.1061E+06    -47.9302E+06    -179.599E+06    -48.0378E+06    -179.491E+06    -20.1061E+06    -3.68592E+06         30.1596
            1557     8.51988E-03     85.8715E-03     75.4053E-03     57.2665E-03    -231.730E-03     61.0037E-03    -229.843E-03     69.7808E-03     28.4978E-03     110.021E-03    -54.9794E-03    -55.0982E-03    -54.6333E-03     109.629E-03    -55.0522E-03     16.0078E-03    -15.4706E+06    -44.2227E+06    -158.527E+06    -44.3331E+06    -158.417E+06    -15.4706E+06    -3.29479E+06         30.7990
            1558     9.46711E-03     85.8904E-03     76.3473E-03     60.4496E-03    -233.662E-03     66.9969E-03    -233.071E-03     69.2092E-03     9.64084E-03     109.875E-03    -54.9672E-03    -55.0242E-03    -54.4575E-03     109.365E-03    -55.0242E-03     18.2794E-03    -11.5099E+06    -39.1509E+06    -133.514E+06    -39.2398E+06    -133.425E+06    -11.5099E+06    -2.19681E+06         31.5546
            1559     10.4148E-03     85.9108E-03     78.3567E-03     64.2772E-03    -242.713E-03     71.3802E-03    -240.651E-03     69.1911E-03    -2.17105E-03     109.977E-03    -54.9467E-03    -55.1750E-03    -54.4387E-03     109.259E-03    -54.9650E-03     21.5901E-03    -11.8200E+06    -35.2390E+06    -95.2326E+06    -35.3851E+06    -95.0864E+06    -11.8200E+06    -971.133E+03         32.4258
            1560     11.3615E-03     85.9366E-03     75.5041E-03     69.4087E-03    -248.245E-03     73.5123E-03    -246.253E-03     69.4087E-03    -17.2971E-03     110.265E-03    -54.8454E-03    -55.4957E-03    -54.3622E-03     109.132E-03    -54.8454E-03     27.1270E-03    -9.65876E+06    -20.1046E+06    -52.4239E+06    -34.1425E+06    -38.1778E+06    -9.86705E+06    -550.369E+03         33.4427
            1561     12.3077E-03     85.9692E-03     74.3084E-03     65.1081E-03    -240.177E-03     69.2122E-03    -239.469E-03     69.4956E-03     11.9069E-03     110.625E-03    -54.6899E-03    -55.9322E-03    -54.0005E-03     108.693E-03    -54.6899E-03     35.3082E-03     51.1439E+06    -6.27009E+06    -32.3724E+06    -32.3243E+06     51.0759E+06    -6.25018E+06    -1.17352E+06         34.7677
            1562     13.2556E-03     86.0133E-03     72.2103E-03     64.3266E-03    -233.011E-03     66.7587E-03    -232.562E-03     69.3290E-03     11.2475E-03     111.819E-03    -54.7230E-03    -57.1662E-03    -53.6845E-03     108.337E-03    -54.7230E-03     47.5070E-03     133.584E+06     19.7735E+06    -29.6224E+06    -29.6039E+06     133.566E+06     19.7735E+06    -549.352E+03         36.6989
            1563     14.2032E-03     86.0724E-03     78.5802E-03     68.8468E-03    -244.122E-03     77.6735E-03    -243.830E-03     69.4618E-03     1.71093E-03     111.667E-03    -54.9504E-03    -56.8183E-03    -53.3109E-03     108.160E-03    -54.9504E-03     47.6511E-03     164.496E+06     74.4640E+06    -24.1886E+06    -24.1825E+06     164.490E+06     74.4640E+06     547.014E+03         39.3647
            1564     15.1510E-03     86.1165E-03     80.0049E-03     64.5232E-03    -245.616E-03     74.2203E-03    -245.130E-03     69.8221E-03     17.4229E-03     113.822E-03    -55.0536E-03    -58.8471E-03    -53.1254E-03     108.100E-03    -55.0536E-03     59.2919E-03     173.107E+06     113.665E+06    -15.4004E+06    -15.3986E+06     173.105E+06     113.665E+06     164.209E+03         42.5072
            1565     16.0999E-03     86.2017E-03     71.3428E-03     60.2849E-03    -234.070E-03     60.7763E-03    -232.871E-03     69.6522E-03     2.71238E-03     112.449E-03    -53.9706E-03    -58.5891E-03    -53.0239E-03     107.935E-03    -55.0222E-03     43.0998E-03     176.701E+06     125.851E+06    -7.58088E+06    -7.57981E+06     176.700E+06     125.851E+06    -376.293E+03         45.4539
            1566     947.716E-06     86.9124E-03     466.130E-03    -120.551E-03    -437.889E-03     452.087E-03    -295.456E-03    -248.941E-03    -91.9959E-03     109.469E-03    -54.4713E-03    -55.0070E-03    -54.5893E-03     109.464E-03    -54.8833E-03     1.80225E-03    -76.7758E+06    -85.1935E+06    -261.120E+06    -83.7051E+06    -261.111E+06    -78.2728E+06     762.228E+03         28.1006
            1567     1.89345E-03     86.9152E-03     100.409E-03     66.5425E-03    -254.242E-03     70.3524E-03    -253.089E-03     95.4458E-03    -16.4489E-03     109.939E-03    -54.8524E-03    -55.1103E-03    -55.0790E-03     109.922E-03    -54.8667E-03     3.26033E-03    -69.0337E+06    -77.2666E+06    -260.074E+06    -77.2793E+06    -260.061E+06    -69.0337E+06     1.49043E+06         28.2322
            1568     2.84033E-03     86.9197E-03     83.9776E-03     53.4014E-03    -224.040E-03     52.6503E-03    -223.289E-03     83.9776E-03     13.5125E-03     110.269E-03    -55.0030E-03    -55.2490E-03    -55.2086E-03     110.228E-03    -55.0030E-03     5.06297E-03    -60.0780E+06    -72.9672E+06    -257.026E+06    -72.9747E+06    -257.019E+06    -60.0780E+06     924.981E+03         28.4064
            1569     3.78672E-03     86.9273E-03     78.4204E-03     57.7843E-03    -221.870E-03     58.8883E-03    -221.087E-03     76.5331E-03     3.92297E-03     110.285E-03    -55.0603E-03    -55.2278E-03    -55.1365E-03     110.215E-03    -55.0809E-03     6.80069E-03    -50.6261E+06    -68.7966E+06    -249.006E+06    -68.8064E+06    -248.996E+06    -50.6261E+06    -226.277E+03         28.6269
            1570     4.73302E-03     86.9350E-03     75.4274E-03     64.9365E-03    -229.846E-03     66.0564E-03    -229.078E-03     73.5401E-03    -16.5348E-03     110.260E-03    -55.1022E-03    -55.1763E-03    -55.0133E-03     110.150E-03    -55.1556E-03     8.44432E-03    -40.2977E+06    -63.4875E+06    -238.683E+06    -63.5120E+06    -238.658E+06    -40.2977E+06    -1.74192E+06         28.8924
            1571     5.67964E-03     86.9453E-03     71.4676E-03     56.8831E-03    -219.566E-03     56.0213E-03    -218.704E-03     71.4676E-03    -10.8404E-03     110.272E-03    -55.0967E-03    -55.1408E-03    -54.9407E-03     110.116E-03    -55.1408E-03     10.1128E-03    -32.5443E+06    -57.9162E+06    -224.147E+06    -57.9889E+06    -224.074E+06    -32.5443E+06    -3.29798E+06         29.2207
            1572     6.62654E-03     86.9569E-03     69.3743E-03     55.7402E-03    -218.995E-03     53.3879E-03    -216.286E-03     69.0180E-03    -20.5337E-03     110.102E-03    -55.0200E-03    -55.1286E-03    -54.8047E-03     109.887E-03    -55.1286E-03     11.8703E-03    -28.4578E+06    -52.9856E+06    -201.780E+06    -53.1301E+06    -201.636E+06    -28.4578E+06    -4.51153E+06         29.6365
            1573     7.57352E-03     86.9712E-03     82.2527E-03     67.3430E-03    -246.987E-03     77.6574E-03    -243.471E-03     68.4219E-03    -6.46098E-03     109.944E-03    -54.8810E-03    -55.1508E-03    -54.6325E-03     109.649E-03    -55.1048E-03     13.8869E-03    -24.2191E+06    -48.1751E+06    -180.002E+06    -48.3356E+06    -179.841E+06    -24.2191E+06    -4.48469E+06         30.1537
            1574     8.52046E-03     86.9872E-03     85.4050E-03     65.6754E-03    -248.833E-03     79.7808E-03    -247.055E-03     69.5211E-03     8.18399E-03     109.870E-03    -54.8584E-03    -55.0691E-03    -54.5031E-03     109.469E-03    -55.0231E-03     16.1881E-03    -18.1742E+06    -43.6570E+06    -157.873E+06    -43.8497E+06    -157.681E+06    -18.1742E+06    -4.52150E+06         30.7926
            1575     9.46730E-03     87.0047E-03     71.9180E-03     56.7144E-03    -223.891E-03     58.3573E-03    -223.124E-03     69.5086E-03     1.97308E-03     109.993E-03    -54.9434E-03    -55.1223E-03    -54.5407E-03     109.467E-03    -54.9997E-03     18.5630E-03    -14.6444E+06    -39.5117E+06    -134.115E+06    -39.7687E+06    -133.858E+06    -14.6444E+06    -4.82830E+06         31.5481
            1576     10.4139E-03     87.0265E-03     69.6120E-03     54.1801E-03    -219.519E-03     53.4856E-03    -217.479E-03     68.2672E-03    -4.64602E-03     110.041E-03    -54.9182E-03    -55.1991E-03    -54.4669E-03     109.326E-03    -54.9363E-03     21.5794E-03    -14.0379E+06    -34.1253E+06    -97.8400E+06    -34.5905E+06    -97.3747E+06    -14.0379E+06    -3.51878E+06         32.4191
            1577     11.3609E-03     87.0519E-03     70.9303E-03     59.3235E-03    -228.486E-03     60.5491E-03    -226.068E-03     67.2868E-03    -11.6955E-03     110.142E-03    -54.8195E-03    -55.3693E-03    -54.2293E-03     109.002E-03    -54.8195E-03     27.1381E-03    -9.31657E+06    -18.0488E+06    -49.2389E+06    -28.5940E+06    -38.3695E+06    -9.64084E+06    -1.99752E+06         33.4373
            1578     12.3089E-03     87.0853E-03     74.3593E-03     64.2477E-03    -238.151E-03     70.5536E-03    -237.170E-03     67.0725E-03     8.23198E-03     110.541E-03    -54.6740E-03    -55.8340E-03    -53.8843E-03     108.591E-03    -54.6740E-03     35.4900E-03     50.2217E+06    -4.64597E+06    -25.9827E+06    -25.8931E+06     50.1321E+06    -4.64597E+06    -66.1902E+03         34.7657
            1579     13.2558E-03     87.1282E-03     78.6905E-03     66.8478E-03    -244.557E-03     77.4813E-03    -243.963E-03     67.4628E-03    -3.41553E-03     111.829E-03    -54.6745E-03    -57.2032E-03    -53.6586E-03     108.284E-03    -54.6745E-03     47.8804E-03     132.539E+06     19.2426E+06    -25.6771E+06    -25.6468E+06     132.509E+06     19.2426E+06     1.04835E+06         36.6998
            1580     14.2034E-03     87.1883E-03     76.9984E-03     60.4023E-03    -235.220E-03     69.1377E-03    -234.713E-03     67.7560E-03    -18.4675E-03     111.568E-03    -54.8718E-03    -56.8193E-03    -53.2891E-03     108.038E-03    -54.8718E-03     47.6840E-03     165.586E+06     71.8129E+06    -22.0558E+06    -22.0492E+06     165.579E+06     71.8129E+06     112.006E+03         39.3685
            1581     15.1518E-03     87.2314E-03     73.6599E-03     60.8713E-03    -228.366E-03     66.6145E-03    -228.059E-03     67.6100E-03    -7.76466E-03     113.773E-03    -55.0141E-03    -58.8512E-03    -53.1441E-03     108.065E-03    -55.0141E-03     59.0766E-03     173.664E+06     111.982E+06    -15.7426E+06    -15.7411E+06     173.663E+06     111.982E+06    -259.850E+03         42.5145
            1582     16.0998E-03     87.3179E-03     73.8805E-03     64.0142E-03    -220.007E-03     69.2192E-03    -218.774E-03     67.4428E-03    -22.1951E-03     112.608E-03    -54.0221E-03    -58.7020E-03    -53.1516E-03     108.070E-03    -55.0341E-03     43.0965E-03     176.146E+06     124.872E+06    -7.82355E+06    -7.82243E+06     176.145E+06     124.872E+06    -325.053E+03         45.4628
            1583     946.612E-06     88.0274E-03     490.091E-03    -117.686E-03    -466.221E-03     474.247E-03    -282.586E-03    -285.478E-03    -55.7493E-03     109.831E-03    -54.4579E-03    -55.3630E-03    -55.0485E-03     109.826E-03    -54.7675E-03     1.59400E-03    -78.8580E+06    -92.0383E+06    -263.097E+06    -87.7367E+06    -263.085E+06    -83.1717E+06     690.721E+03         28.1042
            1584     1.89376E-03     88.0308E-03     91.7708E-03     53.5276E-03    -237.321E-03     57.3072E-03    -236.138E-03     86.8077E-03    -35.4159E-03     110.104E-03    -54.8783E-03    -55.2138E-03    -55.0783E-03     110.086E-03    -54.9950E-03     3.36518E-03    -72.0856E+06    -81.8572E+06    -260.483E+06    -81.8629E+06    -260.477E+06    -72.0856E+06     292.120E+03         28.2319
            1585     2.83962E-03     88.0353E-03     76.2228E-03     43.2532E-03    -207.465E-03     43.5657E-03    -205.762E-03     74.2071E-03    -35.4225E-03     110.255E-03    -55.0490E-03    -55.1846E-03    -55.1178E-03     110.210E-03    -55.0715E-03     5.31851E-03    -62.5382E+06    -75.4007E+06    -256.430E+06    -75.4077E+06    -256.423E+06    -62.5382E+06     157.191E+03         28.4014
            1586     3.78627E-03     88.0424E-03     78.9872E-03     56.3780E-03    -226.739E-03     65.0713E-03    -225.022E-03     68.5765E-03    -38.3522E-03     110.134E-03    -55.0056E-03    -55.1116E-03    -54.9497E-03     110.060E-03    -55.0936E-03     6.94823E-03    -51.7690E+06    -69.3969E+06    -247.202E+06    -69.4167E+06    -247.182E+06    -51.7690E+06    -1.08131E+06         28.6191
            1587     4.73328E-03     88.0503E-03     77.5217E-03     67.9349E-03    -242.190E-03     76.0481E-03    -241.596E-03     68.8149E-03    -13.6457E-03     110.163E-03    -55.0343E-03    -55.1460E-03    -54.9206E-03     110.049E-03    -55.1460E-03     8.60061E-03    -44.1030E+06    -63.7023E+06    -235.054E+06    -63.8027E+06    -234.954E+06    -44.1030E+06    -3.56377E+06         28.8858
            1588     5.68015E-03     88.0606E-03     69.3295E-03     60.1734E-03    -228.414E-03     59.5047E-03    -227.160E-03     68.7441E-03     27.2296E-03     110.225E-03    -55.0830E-03    -55.1378E-03    -54.9260E-03     110.062E-03    -55.1313E-03     10.3567E-03    -37.8993E+06    -57.8263E+06    -222.364E+06    -58.0271E+06    -222.163E+06    -37.8993E+06     -5.4056E+06         29.2164
            1589     6.62667E-03     88.0725E-03     67.4959E-03     54.0635E-03    -218.423E-03     51.4321E-03    -215.162E-03     66.8660E-03    -418.556E-06     110.070E-03    -55.0369E-03    -55.0991E-03    -54.8214E-03     109.848E-03    -55.0926E-03     12.0623E-03    -31.6996E+06    -51.9019E+06    -199.871E+06    -52.1963E+06    -199.577E+06    -31.6996E+06    -6.41747E+06         29.6323
            1590     7.57304E-03     88.0865E-03     75.0683E-03     52.2285E-03    -223.255E-03     58.9504E-03    -220.261E-03     65.3518E-03    -16.6864E-03     109.854E-03    -54.8477E-03    -55.0769E-03    -54.5538E-03     109.560E-03    -55.0769E-03     13.8708E-03    -26.0327E+06    -46.7793E+06    -179.570E+06    -47.1635E+06    -179.186E+06    -26.0327E+06    -6.97270E+06         30.1481
            1591     8.52050E-03     88.1019E-03     86.2229E-03     57.5061E-03    -240.065E-03     76.7257E-03    -238.580E-03     65.5176E-03    -12.9886E-03     109.836E-03    -54.8181E-03    -55.0287E-03    -54.4422E-03     109.433E-03    -55.0017E-03     16.2070E-03    -19.4544E+06    -41.8414E+06    -157.894E+06    -42.2271E+06    -157.508E+06    -19.4544E+06    -6.56629E+06         30.7853
            1592     9.46761E-03     88.1215E-03     89.0762E-03     62.8832E-03    -246.532E-03     84.0633E-03    -245.554E-03     66.9178E-03    -9.70212E-03     110.048E-03    -54.9698E-03    -55.1430E-03    -54.5872E-03     109.516E-03    -54.9935E-03     18.6931E-03    -15.2537E+06    -37.5894E+06    -133.162E+06    -38.0389E+06    -132.712E+06    -15.2537E+06    -6.44300E+06         31.5412
            1593     10.4142E-03     88.1420E-03     78.5377E-03     57.9394E-03    -229.355E-03     67.4968E-03    -228.099E-03     67.7244E-03     4.23944E-03     110.045E-03    -54.9042E-03    -55.2132E-03    -54.4654E-03     109.312E-03    -54.9198E-03     21.8445E-03    -17.7177E+06    -33.3769E+06    -98.8901E+06    -34.4452E+06    -97.8218E+06    -17.7177E+06    -7.40848E+06         32.4130
            1594     11.3616E-03     88.1674E-03     66.8483E-03     47.8385E-03    -210.137E-03     45.9811E-03    -208.280E-03     66.8483E-03     14.2001E-03     110.108E-03    -54.7953E-03    -55.3527E-03    -54.2012E-03     108.956E-03    -54.7953E-03     27.3074E-03    -13.7033E+06    -20.9472E+06    -51.7420E+06    -31.0647E+06    -41.5086E+06    -13.8193E+06    -5.49479E+06         33.4325
            1595     12.3084E-03     88.2004E-03     67.9300E-03     44.2857E-03    -210.020E-03     45.3261E-03    -208.328E-03     65.1971E-03     5.14854E-03     110.346E-03    -54.6730E-03    -55.6413E-03    -53.7470E-03     108.452E-03    -54.6730E-03     34.9853E-03     47.4272E+06    -8.19768E+06    -27.5679E+06    -27.2661E+06     45.0744E+06    -6.14666E+06    -607.150E+03         34.7635
            1596     13.2567E-03     88.2436E-03     76.2581E-03     56.7736E-03    -229.588E-03     67.4090E-03    -228.391E-03     64.4256E-03    -32.4819E-03     111.619E-03    -54.6797E-03    -56.9699E-03    -53.4419E-03     108.091E-03    -54.6797E-03     47.6061E-03     132.481E+06     20.1430E+06    -23.2948E+06    -23.2478E+06     132.434E+06     20.1430E+06     2.27797E+06         36.6997
            1597     14.2040E-03     88.3043E-03     78.7608E-03     57.8259E-03    -227.937E-03     71.0117E-03    -226.927E-03     64.5647E-03    -11.6920E-03     111.606E-03    -54.8680E-03    -56.8333E-03    -53.3147E-03     108.087E-03    -54.8680E-03     47.5122E-03     167.474E+06     72.6290E+06    -19.4667E+06    -19.4416E+06     167.449E+06     72.6290E+06     1.42083E+06         39.3689
            1598     15.1517E-03     88.3464E-03     71.0833E-03     57.8501E-03    -214.898E-03     63.6968E-03    -214.250E-03     64.5889E-03    -1.52099E-03     113.926E-03    -54.9930E-03    -58.9601E-03    -53.3029E-03     108.269E-03    -54.9930E-03     58.7277E-03     174.154E+06     112.057E+06    -13.4071E+06    -13.3989E+06     174.145E+06     112.057E+06     595.711E+03         42.5157
            1599     16.0999E-03     88.4330E-03     69.8240E-03     64.5444E-03    -221.145E-03     67.7009E-03    -219.022E-03     64.5444E-03     7.55992E-03     112.665E-03    -54.0023E-03    -58.7229E-03    -53.1719E-03     108.125E-03    -55.0125E-03     43.3185E-03     176.401E+06     125.890E+06    -6.02269E+06    -6.01641E+06     176.395E+06     125.890E+06     429.822E+03         45.4682
            1600     946.128E-06     89.1421E-03     466.982E-03    -113.751E-03    -458.639E-03     450.258E-03    -215.209E-03    -340.457E-03    -11.6893E-03     110.425E-03    -54.8062E-03    -55.6022E-03    -55.2734E-03     110.420E-03    -55.1304E-03     1.28784E-03    -81.9990E+06    -92.9196E+06    -263.346E+06    -88.6186E+06    -263.334E+06    -86.3127E+06    -49.2711E+03         28.1082
            1601     1.89275E-03     89.1455E-03     62.6566E-03     36.4542E-03    -199.918E-03     44.2807E-03    -197.726E-03     52.6382E-03    -23.6117E-03     110.125E-03    -54.8683E-03    -55.2159E-03    -54.8658E-03     110.103E-03    -55.1969E-03     3.58033E-03    -74.3902E+06    -84.9106E+06    -258.461E+06    -84.9275E+06    -258.444E+06    -74.3902E+06    -1.29353E+06         28.2219
            1602     2.83999E-03     89.1511E-03     84.3008E-03     53.0974E-03    -239.064E-03     80.5453E-03    -236.967E-03     54.7566E-03    -33.2654E-03     110.075E-03    -54.9020E-03    -55.1525E-03    -54.8750E-03     110.029E-03    -55.1334E-03     5.46229E-03    -65.0241E+06    -78.2480E+06    -255.805E+06    -78.2986E+06    -255.755E+06    -65.0241E+06    -2.49191E+06         28.3871
            1603     3.78669E-03     89.1574E-03     88.2256E-03     58.2152E-03    -244.385E-03     82.5530E-03    -242.127E-03     61.6291E-03    -26.3456E-03     110.056E-03    -54.9719E-03    -55.1054E-03    -54.9035E-03     109.979E-03    -55.0962E-03     7.09920E-03    -54.4957E+06    -70.5023E+06    -244.711E+06    -70.6369E+06    -244.577E+06    -54.4957E+06    -4.03501E+06         28.6075
            1604     4.73325E-03     89.1662E-03     70.5023E-03     53.7383E-03    -219.331E-03     58.4491E-03    -217.223E-03     63.6828E-03    -5.72560E-03     110.142E-03    -55.0429E-03    -55.1523E-03    -54.9585E-03     110.028E-03    -55.1228E-03     8.65382E-03    -45.8958E+06    -63.2549E+06    -231.177E+06    -63.5333E+06    -230.898E+06    -45.8958E+06    -6.38154E+06         28.8791
            1605     5.67973E-03     89.1756E-03     77.9656E-03     56.9325E-03    -228.682E-03     67.9412E-03    -225.188E-03     63.4630E-03    -16.9265E-03     110.118E-03    -55.0150E-03    -55.1090E-03    -54.8773E-03     109.954E-03    -55.0822E-03     10.3578E-03    -39.4335E+06    -56.7538E+06    -219.247E+06    -57.2826E+06    -218.719E+06    -39.4335E+06    -8.85400E+06         29.2127
            1606     6.62657E-03     89.1882E-03     84.1354E-03     59.5235E-03    -233.593E-03     76.7572E-03    -231.327E-03     64.6353E-03    -14.1118E-03     109.873E-03    -54.9117E-03    -55.0162E-03    -54.6907E-03     109.645E-03    -55.0097E-03     12.2111E-03    -33.8512E+06    -50.5904E+06    -198.338E+06    -51.2796E+06    -197.649E+06    -33.8512E+06    -9.77732E+06         29.6287
            1607     7.57392E-03     89.2013E-03     69.7330E-03     43.2536E-03    -204.400E-03     47.5839E-03    -203.421E-03     64.4235E-03     6.64232E-03     109.933E-03    -54.9013E-03    -55.0992E-03    -54.6889E-03     109.637E-03    -55.0160E-03     13.9209E-03    -26.9669E+06    -45.0713E+06    -178.416E+06    -45.8161E+06    -177.671E+06    -26.9669E+06    -9.81450E+06         30.1451
            1608     8.52043E-03     89.2175E-03     71.6828E-03     44.3078E-03    -206.117E-03     51.5787E-03    -204.452E-03     62.7471E-03    -7.58812E-03     110.064E-03    -54.9453E-03    -55.1193E-03    -54.6668E-03     109.661E-03    -54.9943E-03     16.2457E-03    -20.9473E+06    -40.2705E+06    -158.540E+06    -41.0930E+06    -157.718E+06    -20.9473E+06    -9.62143E+06         30.7838
            1609     9.46717E-03     89.2367E-03     86.1292E-03     60.6909E-03    -235.804E-03     82.6624E-03    -234.718E-03     63.0721E-03    -12.5926E-03     109.926E-03    -54.9648E-03    -55.0350E-03    -54.4835E-03     109.403E-03    -54.9931E-03     18.5266E-03    -15.9060E+06    -35.4621E+06    -132.687E+06    -36.3076E+06    -131.841E+06    -15.9060E+06    -8.83475E+06         31.5403
            1610     10.4146E-03     89.2575E-03     85.3164E-03     64.1992E-03    -242.883E-03     83.3914E-03    -241.570E-03     64.8111E-03    -16.8362E-03     109.917E-03    -54.9142E-03    -55.1303E-03    -54.3912E-03     109.206E-03    -54.9424E-03     21.5135E-03    -16.2952E+06    -32.5831E+06    -97.8725E+06    -33.6917E+06    -96.7639E+06    -16.2952E+06    -7.89642E+06         32.4126
            1611     11.3612E-03     89.2829E-03     75.5612E-03     54.3848E-03    -224.711E-03     62.3403E-03    -222.537E-03     65.4313E-03    -2.70441E-03     110.187E-03    -54.8192E-03    -55.4482E-03    -54.3152E-03     109.054E-03    -54.8192E-03     27.0844E-03    -14.7516E+06    -22.9865E+06    -54.9154E+06    -33.0240E+06    -44.8132E+06    -14.8163E+06    -6.02603E+06         33.4320
            1612     12.3084E-03     89.3156E-03     68.1861E-03     41.3768E-03    -203.017E-03     43.1598E-03    -201.054E-03     64.4401E-03     17.3699E-03     110.336E-03    -54.6745E-03    -55.6551E-03    -53.7954E-03     108.476E-03    -54.6745E-03     34.6854E-03     43.0440E+06    -12.8602E+06    -31.7829E+06    -31.1362E+06     40.3464E+06    -10.8092E+06    -3.27479E+06         34.7625
            1613     13.2560E-03     89.3581E-03     65.8098E-03     42.5350E-03    -196.617E-03     43.8783E-03    -195.100E-03     62.9497E-03    -2.36226E-03     111.347E-03    -54.6624E-03    -56.7332E-03    -53.2211E-03     107.835E-03    -54.6624E-03     47.3601E-03     129.512E+06     14.2753E+06    -26.0987E+06    -26.0527E+06     129.466E+06     14.2753E+06    -190.790E+03         36.6991
            1614     14.2045E-03     89.4205E-03     72.4500E-03     54.5007E-03    -213.082E-03     62.8020E-03    -211.220E-03     62.2866E-03     30.6951E-03     111.515E-03    -54.8627E-03    -56.7383E-03    -53.1671E-03     107.943E-03    -54.8627E-03     47.8625E-03     167.784E+06     71.6840E+06    -19.3402E+06    -19.3045E+06     167.748E+06     71.6840E+06     1.81563E+06         39.3686
            1615     15.1520E-03     89.4625E-03     72.6289E-03     62.5172E-03    -224.116E-03     71.0662E-03    -222.553E-03     62.5172E-03     14.9082E-03     113.949E-03    -55.0022E-03    -58.9637E-03    -53.4105E-03     108.396E-03    -55.0022E-03     58.4243E-03     175.376E+06     113.105E+06    -13.1712E+06    -13.1389E+06     175.344E+06     113.105E+06     2.31189E+06         42.5163
            1616     16.1004E-03     89.5472E-03     67.5784E-03     62.7874E-03    -222.695E-03     65.4285E-03    -220.545E-03     62.7874E-03     15.3162E-03     112.450E-03    -53.9069E-03    -58.5939E-03    -53.1145E-03     108.040E-03    -54.9765E-03     43.1158E-03     177.073E+06     124.891E+06    -6.90406E+06    -6.88729E+06     177.057E+06     124.891E+06     1.46529E+06         45.4730
            1617     946.410E-06     90.2581E-03     478.971E-03    -52.9758E-03    -530.027E-03     472.150E-03    -162.298E-03    -413.885E-03     58.1408E-03     110.612E-03    -55.0762E-03    -55.5049E-03    -55.2625E-03     110.607E-03    -55.3140E-03     1.31316E-03    -85.9340E+06    -89.8656E+06    -261.685E+06    -89.4683E+06    -261.668E+06    -86.3482E+06    -1.58691E+06         28.1018
            1618     1.89280E-03     90.2609E-03     83.1818E-03     39.1139E-03    -224.935E-03     79.0306E-03    -220.784E-03     39.1139E-03     6.02870E-03     110.268E-03    -54.9361E-03    -55.2920E-03    -54.9166E-03     110.248E-03    -55.2920E-03     3.43447E-03    -76.8663E+06    -84.2955E+06    -255.871E+06    -84.3313E+06    -255.835E+06    -76.8663E+06    -2.23364E+06         28.2063
            1619     2.83960E-03     90.2659E-03     96.4419E-03     44.3287E-03    -238.132E-03     83.8309E-03    -235.298E-03     54.1058E-03     15.0603E-03     109.961E-03    -54.7691E-03    -55.2033E-03    -54.7249E-03     109.916E-03    -55.2033E-03     5.31272E-03    -66.1607E+06    -78.9107E+06    -251.548E+06    -79.1083E+06    -251.351E+06    -66.1607E+06    -5.20153E+06         28.3725
            1620     3.78652E-03     90.2729E-03     76.8926E-03     42.4913E-03    -210.593E-03     56.7670E-03    -206.795E-03     58.8193E-03     15.4191E-03     109.916E-03    -54.8741E-03    -55.1001E-03    -54.8059E-03     109.838E-03    -55.0908E-03     7.08651E-03    -58.6436E+06    -72.3671E+06    -240.780E+06    -72.7933E+06    -240.354E+06    -58.6436E+06    -8.12284E+06         28.5981
            1621     4.73324E-03     90.2811E-03     60.5225E-03     43.9723E-03    -189.203E-03     42.3892E-03    -184.151E-03     57.0537E-03     6.12772E-03     110.075E-03    -55.0007E-03    -55.1126E-03    -54.9128E-03     109.958E-03    -55.0831E-03     8.76847E-03    -50.4273E+06    -65.4222E+06    -227.366E+06    -66.1138E+06    -226.675E+06    -50.4273E+06    -10.1638E+06         28.8716
            1622     5.67998E-03     90.2914E-03     73.4058E-03     47.7586E-03    -203.794E-03     61.9291E-03    -200.578E-03     56.0198E-03    -47.2199E-03     110.045E-03    -54.9444E-03    -55.0495E-03    -54.7983E-03     109.879E-03    -55.0292E-03     10.4294E-03    -42.3832E+06    -58.5271E+06    -214.642E+06    -59.6128E+06    -213.556E+06    -42.3832E+06    -12.5912E+06         29.2067
            1623     6.62707E-03     90.3030E-03     89.4931E-03     56.6875E-03    -228.375E-03     86.1792E-03    -226.792E-03     58.4182E-03    -30.6313E-03     109.878E-03    -54.8865E-03    -55.0106E-03    -54.6947E-03     109.648E-03    -54.9727E-03     12.2540E-03    -38.4880E+06    -52.9482E+06    -197.256E+06    -54.3230E+06    -195.882E+06    -38.4880E+06    -13.8120E+06         29.6253
            1624     7.57360E-03     90.3174E-03     94.9971E-03     53.8059E-03    -230.863E-03     86.2807E-03    -230.194E-03     61.8525E-03     1.85156E-03     110.043E-03    -54.9584E-03    -55.1501E-03    -54.8144E-03     109.743E-03    -54.9937E-03     14.0472E-03    -32.3030E+06    -47.4435E+06    -178.129E+06    -48.8211E+06    -176.752E+06    -32.3030E+06    -13.1469E+06         30.1450
            1625     8.52007E-03     90.3333E-03     79.2259E-03     46.1070E-03    -210.882E-03     61.0306E-03    -209.819E-03     63.2391E-03     2.66582E-03     110.132E-03    -54.9875E-03    -55.1625E-03    -54.7626E-03     109.732E-03    -54.9875E-03     16.1872E-03    -24.6001E+06    -42.4754E+06    -157.879E+06    -43.8864E+06    -156.468E+06    -24.6001E+06    -12.5702E+06         30.7860
            1626     9.46733E-03     90.3518E-03     65.4793E-03     41.9888E-03    -195.288E-03     42.8156E-03    -192.807E-03     62.1712E-03     12.8817E-03     110.002E-03    -54.9695E-03    -55.0899E-03    -54.5535E-03     109.479E-03    -54.9822E-03     18.5340E-03    -20.6494E+06    -38.2257E+06    -133.494E+06    -39.7461E+06    -131.973E+06    -20.6494E+06    -11.8010E+06         31.5424
            1627     10.4137E-03     90.3732E-03     70.5776E-03     47.6950E-03    -205.754E-03     54.3401E-03    -202.707E-03     60.8855E-03    -1.30702E-03     109.920E-03    -54.9257E-03    -55.1085E-03    -54.3818E-03     109.207E-03    -54.9384E-03     21.5683E-03    -19.1887E+06    -33.2033E+06    -99.5855E+06    -34.7747E+06    -98.0142E+06    -19.1887E+06    -9.74922E+06         32.4136
            1628     11.3613E-03     90.3988E-03     81.5572E-03     59.0802E-03    -227.050E-03     77.5736E-03    -225.160E-03     61.1737E-03    -17.4948E-03     110.102E-03    -54.8174E-03    -55.3642E-03    -54.2326E-03     108.970E-03    -54.8174E-03     27.0511E-03    -16.9334E+06    -22.9995E+06    -55.3044E+06    -30.1788E+06    -47.7447E+06    -17.3138E+06    -6.83335E+06         33.4319
            1629     12.3085E-03     90.4313E-03     84.6938E-03     57.3661E-03    -228.747E-03     78.2602E-03    -227.291E-03     62.3428E-03     403.202E-06     110.352E-03    -54.6682E-03    -55.6693E-03    -53.8290E-03     108.512E-03    -54.6682E-03     34.5292E-03     39.0963E+06    -12.6380E+06    -28.9560E+06    -27.8277E+06     37.9679E+06    -12.6380E+06    -4.46206E+06         34.7618
            1630     13.2562E-03     90.4735E-03     71.2999E-03     49.8952E-03    -207.859E-03     56.6148E-03    -205.937E-03     62.6578E-03    -11.2320E-03     111.391E-03    -54.6417E-03    -56.7974E-03    -53.3380E-03     107.932E-03    -54.6417E-03     47.0168E-03     125.701E+06     10.1714E+06    -26.4437E+06    -26.3822E+06     125.639E+06     10.1714E+06    -1.73409E+06         36.6987
            1631     14.2044E-03     90.5340E-03     64.4474E-03     47.5007E-03    -198.809E-03     47.8881E-03    -196.699E-03     61.9497E-03     17.0453E-03     111.299E-03    -54.8156E-03    -56.5659E-03    -52.9969E-03     107.732E-03    -54.8174E-03     47.8610E-03     164.980E+06     63.8094E+06    -22.8887E+06    -22.8618E+06     164.953E+06     63.8094E+06     1.60622E+06         39.3702
            1632     15.1526E-03     90.5795E-03     66.0255E-03     45.5087E-03    -200.312E-03     49.1212E-03    -198.951E-03     61.0516E-03     16.5854E-03     113.627E-03    -54.9740E-03    -58.7238E-03    -53.2714E-03     108.176E-03    -54.9758E-03     58.0229E-03     175.585E+06     110.122E+06    -16.0144E+06    -15.9805E+06     175.551E+06     110.122E+06     2.36149E+06         42.5210
            1633     16.1001E-03     90.6616E-03     67.4657E-03     51.5724E-03    -206.054E-03     56.5356E-03    -204.004E-03     60.4521E-03    -20.7805E-03     112.336E-03    -53.8533E-03    -58.5388E-03    -53.1576E-03     108.058E-03    -54.9569E-03     42.5118E-03     178.589E+06     124.531E+06    -7.98014E+06    -7.95893E+06     178.567E+06     124.531E+06     1.78939E+06         45.4793
            1634     946.270E-06     91.3742E-03     522.024E-03    -49.8160E-03    -564.860E-03     509.858E-03    -188.535E-03    -413.975E-03     3.24217E-03     110.441E-03    -54.9245E-03    -55.4717E-03    -55.4369E-03     110.436E-03    -54.9548E-03     1.29218E-03    -85.0625E+06    -88.9638E+06     -258.45E+06    -87.6859E+06    -258.412E+06    -86.3781E+06    -1.89297E+06         28.0905
            1635     1.89268E-03     91.3764E-03     103.364E-03     55.1251E-03    -249.035E-03     91.1217E-03    -238.097E-03     56.4293E-03    -16.2784E-03     110.356E-03    -55.0696E-03    -55.2502E-03    -55.0666E-03     110.337E-03    -55.2341E-03     3.39468E-03    -78.5204E+06    -84.1491E+06    -252.391E+06    -84.2866E+06    -252.253E+06    -78.5204E+06    -4.23067E+06         28.1954
            1636     2.83932E-03     91.3806E-03     78.3453E-03     42.7985E-03    -206.486E-03     53.9302E-03    -202.810E-03     63.5378E-03     43.9318E-03     110.091E-03    -54.9099E-03    -55.2010E-03    -54.8633E-03     110.044E-03    -55.2010E-03     5.43629E-03    -69.2782E+06    -78.4446E+06    -244.577E+06    -78.7963E+06    -244.226E+06    -69.2782E+06    -7.22815E+06         28.3654
            1637     3.78629E-03     91.3879E-03     62.2223E-03     36.2063E-03    -181.686E-03     33.3900E-03    -175.426E-03     58.7784E-03     50.6193E-03     109.845E-03    -54.7950E-03    -55.0923E-03    -54.7144E-03     109.764E-03    -55.0923E-03     7.24064E-03    -61.8109E+06    -74.4752E+06    -235.329E+06    -75.1424E+06    -234.662E+06    -61.8109E+06    -10.1785E+06         28.5932
            1638     4.73319E-03     91.3964E-03     66.9285E-03     52.6587E-03    -204.771E-03     57.4015E-03    -198.381E-03     55.7958E-03     41.8689E-03     109.869E-03    -54.8246E-03    -55.0531E-03    -54.7074E-03     109.752E-03    -55.0531E-03     8.75096E-03    -56.2506E+06    -69.5725E+06    -221.624E+06    -70.8599E+06    -220.337E+06    -56.2506E+06    -13.5459E+06         28.8670
            1639     5.68015E-03     91.4066E-03     63.7333E-03     50.8993E-03    -202.069E-03     56.4605E-03    -199.941E-03     56.0443E-03     11.1096E-03     110.007E-03    -54.8878E-03    -55.0549E-03    -54.7860E-03     109.844E-03    -54.9943E-03     10.3105E-03    -48.6332E+06    -63.2981E+06    -209.875E+06    -65.2551E+06    -207.918E+06    -48.6332E+06    -16.5895E+06         29.2047
            1640     6.62686E-03     91.4180E-03     68.2768E-03     50.6583E-03    -202.352E-03     60.6232E-03    -200.468E-03     56.4285E-03     9.62092E-03     110.042E-03    -54.9648E-03    -55.1068E-03    -54.8614E-03     109.815E-03    -54.9834E-03     12.1847E-03    -42.3441E+06    -56.4548E+06    -195.394E+06    -58.8246E+06    -193.025E+06    -42.3441E+06    -17.7701E+06         29.6255
            1641     7.57350E-03     91.4327E-03     93.3074E-03     58.1688E-03    -232.463E-03     91.7109E-03    -231.491E-03     58.7940E-03     8.91127E-03     110.027E-03    -54.9740E-03    -55.1208E-03    -54.7737E-03     109.729E-03    -55.0225E-03     14.0051E-03    -36.9157E+06    -50.3708E+06    -178.136E+06    -52.9216E+06    -175.585E+06    -36.9157E+06    -17.6407E+06         30.1452
            1642     8.52047E-03     91.4485E-03     87.7990E-03     55.0885E-03    -227.195E-03     79.4972E-03    -225.597E-03     61.7928E-03     6.07481E-03     109.989E-03    -54.9375E-03    -55.0758E-03    -54.6304E-03     109.593E-03    -54.9861E-03     16.1078E-03    -28.8173E+06    -44.0532E+06    -158.467E+06    -46.5396E+06    -155.981E+06    -28.8173E+06    -16.4504E+06         30.7855
            1643     9.46688E-03     91.4675E-03     65.0934E-03     41.5404E-03    -191.597E-03     42.2662E-03    -188.982E-03     61.7522E-03     2.54067E-03     110.042E-03    -54.9644E-03    -55.1338E-03    -54.5973E-03     109.506E-03    -54.9644E-03     18.7510E-03    -24.5715E+06    -37.2977E+06    -133.885E+06    -40.0553E+06    -131.127E+06    -24.5715E+06    -15.8203E+06         31.5414
            1644     10.4139E-03     91.4885E-03     59.6889E-03     38.5826E-03    -181.779E-03     36.0628E-03    -179.260E-03     59.6889E-03     7.81090E-03     110.023E-03    -54.9216E-03    -55.1721E-03    -54.4410E-03     109.292E-03    -54.9216E-03     21.8525E-03    -23.4628E+06    -32.1618E+06    -103.848E+06    -35.0778E+06    -100.932E+06    -23.4628E+06    -13.9998E+06         32.4123
            1645     11.3610E-03     91.5137E-03     68.6625E-03     45.8615E-03    -196.652E-03     53.6313E-03    -194.168E-03     58.4089E-03     2.31365E-03     109.952E-03    -54.7963E-03    -55.2379E-03    -54.0964E-03     108.810E-03    -54.7963E-03     27.1410E-03    -19.2899E+06    -25.7005E+06    -59.9719E+06    -31.4948E+06    -51.7476E+06    -21.7200E+06    -9.83781E+06         33.4306
            1646     12.3084E-03     91.5470E-03     80.1316E-03     53.7303E-03    -212.895E-03     72.7824E-03    -210.494E-03     58.6788E-03     4.85443E-03     110.300E-03    -54.6701E-03    -55.6690E-03    -53.8059E-03     108.437E-03    -54.6701E-03     34.7331E-03     36.0926E+06    -15.7793E+06    -31.3435E+06    -29.1602E+06     33.9093E+06    -15.7793E+06    -4.65082E+06         34.7611
            1647     13.2558E-03     91.5882E-03     75.6322E-03     59.5347E-03    -214.227E-03     73.3188E-03    -211.914E-03     59.5347E-03    -36.4560E-03     111.724E-03    -54.6833E-03    -57.0817E-03    -53.6869E-03     108.329E-03    -54.6833E-03     46.7719E-03     122.666E+06     10.2426E+06    -27.9747E+06    -27.9359E+06     122.627E+06     10.2426E+06         669.562         36.6982
            1648     14.2035E-03     91.6496E-03     65.8243E-03     53.0646E-03    -201.060E-03     57.3381E-03    -199.237E-03     59.7278E-03    -30.9388E-03     111.399E-03    -54.8437E-03    -56.5786E-03    -53.0902E-03     107.913E-03    -54.8456E-03     47.4223E-03     163.254E+06     61.1356E+06    -24.6864E+06    -24.6711E+06     163.238E+06     61.1356E+06     1.45280E+06         39.3701
            1649     15.1517E-03     91.6937E-03     60.1851E-03     42.5915E-03    -190.141E-03     43.3785E-03    -189.730E-03     58.9869E-03     3.30085E-03     113.326E-03    -54.9777E-03    -58.3592E-03    -52.8649E-03     107.833E-03    -54.9796E-03     58.0802E-03     173.733E+06     105.947E+06    -17.6948E+06    -17.6829E+06     173.721E+06     105.947E+06     1.22738E+06         42.5228
            1650     16.1007E-03     91.7790E-03     60.7445E-03     43.4190E-03    -194.573E-03     44.2453E-03    -192.644E-03     57.9893E-03    -9.02548E-03     112.106E-03    -53.8211E-03    -58.3190E-03    -52.8661E-03     107.799E-03    -54.9670E-03     42.1676E-03     179.801E+06     124.127E+06    -8.79395E+06    -8.78003E+06     179.787E+06     124.127E+06     1.08948E+06         45.4837
            1651     946.869E-06     92.4901E-03     541.341E-03    -101.012E-03    -525.172E-03     515.762E-03    -233.637E-03    -366.968E-03    -45.7970E-03     109.907E-03    -54.7309E-03    -55.1622E-03    -55.1559E-03     109.900E-03    -54.7309E-03     1.70520E-03    -86.1375E+06    -92.3629E+06    -253.914E+06    -91.5174E+06    -253.858E+06    -87.0389E+06    -1.09469E+06         28.0757
            1652     1.89327E-03     92.4918E-03     80.9385E-03     54.8404E-03    -216.949E-03     43.4763E-03    -192.701E-03     68.0537E-03    -46.6034E-03     110.183E-03    -54.9915E-03    -55.1669E-03    -55.1238E-03     110.160E-03    -55.0120E-03     3.62650E-03    -82.1835E+06    -88.1577E+06    -245.425E+06    -88.4198E+06    -245.163E+06    -82.1835E+06    -5.97035E+06         28.1883
            1653     2.83969E-03     92.4968E-03     71.5696E-03     43.8229E-03    -191.983E-03     46.7357E-03    -183.025E-03     59.6997E-03     37.6144E-03     110.250E-03    -55.0207E-03    -55.2244E-03    -55.1085E-03     110.200E-03    -55.0866E-03     5.69732E-03    -76.4680E+06    -83.4794E+06    -238.073E+06    -84.1268E+06    -237.425E+06    -76.4680E+06    -9.59473E+06         28.3644
            1654     3.78611E-03     92.5032E-03     80.2518E-03     48.8101E-03    -208.909E-03     66.1570E-03    -204.472E-03     58.4681E-03     14.7928E-03     110.022E-03    -54.8960E-03    -55.1576E-03    -54.8846E-03     109.942E-03    -55.0894E-03     7.20430E-03    -65.0475E+06    -76.4470E+06    -228.603E+06    -77.5631E+06    -227.487E+06    -65.0475E+06    -12.6004E+06         28.5947
            1655     4.73311E-03     92.5120E-03     74.3259E-03     57.1662E-03    -221.201E-03     67.6678E-03    -217.569E-03     60.1921E-03     18.7918E-03     109.897E-03    -54.8278E-03    -55.0800E-03    -54.7129E-03     109.782E-03    -55.0800E-03     8.66977E-03    -55.9300E+06    -69.7418E+06    -214.358E+06    -71.5892E+06    -212.511E+06    -55.9300E+06    -15.9777E+06         28.8697
            1656     5.68011E-03     92.5219E-03     69.1683E-03     54.4953E-03    -214.342E-03     60.4721E-03    -212.086E-03     60.9356E-03     19.2485E-03     110.076E-03    -54.9063E-03    -55.1201E-03    -54.8490E-03     109.909E-03    -55.0105E-03     10.4384E-03    -49.8601E+06    -64.1920E+06    -204.080E+06    -66.9764E+06    -201.296E+06    -49.8601E+06    -19.4367E+06         29.2079
            1657     6.62647E-03     92.5345E-03     64.1318E-03     47.3196E-03    -197.998E-03     48.6693E-03    -195.335E-03     60.1192E-03     9.36265E-03     110.060E-03    -54.9681E-03    -55.1232E-03    -54.8745E-03     109.832E-03    -54.9886E-03     12.2431E-03    -45.6749E+06    -57.7872E+06    -192.301E+06    -61.6704E+06    -188.418E+06    -45.6749E+06    -22.1907E+06         29.6271
            1658     7.57293E-03     92.5486E-03     64.8037E-03     34.0837E-03    -181.492E-03     39.0267E-03    -179.757E-03     58.1254E-03    -1.53810E-03     109.906E-03    -54.9361E-03    -55.0458E-03    -54.6594E-03     109.604E-03    -55.0207E-03     14.0442E-03    -41.9486E+06    -51.3417E+06    -177.594E+06    -55.6762E+06    -173.259E+06    -41.9486E+06    -22.7842E+06         30.1447
            1659     8.51979E-03     92.5642E-03     70.0105E-03     42.0432E-03    -191.114E-03     53.5128E-03    -189.273E-03     56.6998E-03    -272.264E-06     109.913E-03    -54.9040E-03    -55.0478E-03    -54.5760E-03     109.505E-03    -54.9680E-03     16.3265E-03    -35.1267E+06    -44.2448E+06    -159.293E+06    -48.9986E+06    -154.539E+06    -35.1267E+06    -22.3926E+06         30.7838
            1660     9.46743E-03     92.5827E-03     72.7206E-03     54.6046E-03    -205.382E-03     69.1321E-03    -204.204E-03     57.0151E-03    -25.0398E-03     109.991E-03    -54.9390E-03    -55.1217E-03    -54.5883E-03     109.458E-03    -54.9390E-03     18.7000E-03    -30.0940E+06    -37.5519E+06    -135.381E+06    -42.5529E+06    -130.380E+06    -30.0940E+06    -21.1944E+06         31.5404
            1661     10.4140E-03     92.6042E-03     73.7812E-03     49.8556E-03    -202.477E-03     63.3398E-03    -199.952E-03     57.7715E-03    -28.9249E-03     109.956E-03    -54.9119E-03    -55.1202E-03    -54.4007E-03     109.236E-03    -54.9119E-03     21.6676E-03    -27.8662E+06    -32.7416E+06    -108.764E+06    -37.3613E+06    -104.067E+06    -27.9426E+06    -18.0702E+06         32.4127
            1662     11.3611E-03     92.6293E-03     64.3497E-03     41.0263E-03    -184.402E-03     44.1193E-03    -180.558E-03     57.4129E-03    -4.70820E-03     109.960E-03    -54.7872E-03    -55.2388E-03    -54.1227E-03     108.844E-03    -54.7872E-03     26.8499E-03    -22.2179E+06    -28.5964E+06    -65.9083E+06    -33.1919E+06    -56.5143E+06    -27.0163E+06    -13.2960E+06         33.4313
            1663     12.3089E-03     92.6612E-03     59.0714E-03     40.1848E-03    -174.820E-03     40.8684E-03    -172.656E-03     56.2235E-03     14.3803E-03     110.426E-03    -54.6578E-03    -55.7858E-03    -53.9139E-03     108.555E-03    -54.6578E-03     34.7853E-03     30.0246E+06    -22.3204E+06    -33.9885E+06    -29.9113E+06     25.9474E+06    -22.3204E+06    -6.07717E+06         34.7606
            1664     13.2557E-03     92.7057E-03     62.9553E-03     48.6690E-03    -185.937E-03     54.6291E-03    -184.442E-03     55.5000E-03    -18.0550E-03     111.830E-03    -54.6827E-03    -57.1883E-03    -53.8026E-03     108.445E-03    -54.6827E-03     46.8137E-03     117.545E+06     5.30163E+06    -26.6959E+06    -26.6282E+06     117.477E+06     5.30163E+06     417.296E+03         36.6966
            1665     14.2032E-03     92.7638E-03     66.8419E-03     53.9125E-03    -194.763E-03     64.0895E-03    -193.685E-03     55.5861E-03    -19.1436E-03     111.469E-03    -54.8574E-03    -56.6422E-03    -53.1885E-03     108.015E-03    -54.8574E-03     47.2539E-03     164.231E+06     59.7846E+06    -23.1199E+06    -23.0830E+06     164.194E+06     59.7846E+06     2.22429E+06         39.3673
            1666     15.1515E-03     92.8092E-03     67.9543E-03     55.1779E-03    -199.259E-03     66.8705E-03    -199.027E-03     56.0304E-03    -5.70552E-03     113.195E-03    -54.9957E-03    -58.1872E-03    -52.6055E-03     107.613E-03    -54.9957E-03     58.3965E-03     174.414E+06     105.464E+06    -16.8195E+06    -16.7919E+06     174.386E+06     105.464E+06     653.618E+03         42.5204
            1667     16.1002E-03     92.8926E-03     61.6306E-03     50.5258E-03    -186.309E-03     55.6477E-03    -186.017E-03     56.2163E-03     1.54652E-03     111.878E-03    -53.8372E-03    -58.1080E-03    -52.5717E-03     107.482E-03    -54.9774E-03     42.5803E-03     180.089E+06     124.107E+06    -7.78555E+06    -7.77237E+06     180.076E+06     124.107E+06    -219.802E+03         45.4852
            1668     947.065E-06     93.6057E-03     531.746E-03    -132.265E-03    -470.093E-03     482.319E-03    -218.859E-03    -334.072E-03     75.4005E-03     109.587E-03    -54.5970E-03    -54.9994E-03    -54.9935E-03     109.581E-03    -54.5970E-03     1.88158E-03    -90.6640E+06    -96.6672E+06    -250.874E+06    -94.1946E+06    -250.808E+06    -93.2029E+06    -1.92060E+06         28.0651
            1669     1.89370E-03     93.6069E-03     71.0664E-03     45.6195E-03    -187.867E-03     19.1804E-03    -153.410E-03     63.0481E-03    -28.5931E-03     110.036E-03    -54.8847E-03    -55.1613E-03    -55.1414E-03     110.016E-03    -54.8847E-03     3.37464E-03    -85.3257E+06    -90.4439E+06    -234.699E+06    -90.6317E+06    -234.304E+06    -85.5324E+06    -6.53329E+06         28.1848
            1670     2.84006E-03     93.6124E-03     76.3611E-03     48.0689E-03    -194.028E-03     58.4453E-03    -181.027E-03     52.9835E-03     32.6532E-03     110.243E-03    -54.9909E-03    -55.2620E-03    -55.1772E-03     110.198E-03    -55.0310E-03     5.37001E-03    -77.7238E+06    -85.1923E+06    -228.612E+06    -86.4682E+06    -227.336E+06    -77.7238E+06    -12.9792E+06         28.3665
            1671     3.78625E-03     93.6188E-03     82.9318E-03     56.5292E-03    -211.271E-03     77.6877E-03    -206.027E-03     56.5292E-03    -7.29643E-03     110.098E-03    -54.9660E-03    -55.1696E-03    -54.9974E-03     110.022E-03    -55.0620E-03     7.02672E-03    -67.8577E+06    -77.4818E+06    -222.105E+06    -79.6406E+06    -219.946E+06    -67.8577E+06    -17.2186E+06         28.5980
            1672     4.73283E-03     93.6267E-03     72.0022E-03     56.4429E-03    -204.173E-03     62.7389E-03    -197.936E-03     59.4688E-03    -8.79600E-03     110.136E-03    -54.9829E-03    -55.1733E-03    -54.9506E-03     110.019E-03    -55.0890E-03     8.74024E-03    -57.4982E+06    -69.9118E+06    -207.964E+06    -72.7413E+06    -205.135E+06    -57.4982E+06    -19.2695E+06         28.8725
            1673     5.67952E-03     93.6373E-03     64.9240E-03     54.1057E-03    -202.100E-03     55.6286E-03    -198.120E-03     59.4214E-03    -38.5281E-03     110.162E-03    -54.9568E-03    -55.1468E-03    -54.8795E-03     109.991E-03    -55.0529E-03     10.5749E-03    -49.9605E+06    -62.3494E+06    -197.142E+06    -66.2972E+06    -193.194E+06    -49.9605E+06    -22.4372E+06         29.2105
            1674     6.62623E-03     93.6501E-03     62.1848E-03     44.3238E-03    -192.147E-03     46.2319E-03    -190.043E-03     58.1723E-03    -24.4902E-03     109.954E-03    -54.8909E-03    -55.0673E-03    -54.7135E-03     109.728E-03    -55.0183E-03     12.1972E-03    -46.8420E+06    -55.7839E+06    -187.067E+06    -61.1791E+06    -181.671E+06    -46.8420E+06    -25.8739E+06         29.6292
            1675     7.57336E-03     93.6633E-03     57.0822E-03     29.3713E-03    -165.654E-03     29.0722E-03    -163.859E-03     55.5865E-03    -14.8461E-03     109.900E-03    -54.9357E-03    -55.0402E-03    -54.6379E-03     109.602E-03    -55.0402E-03     13.9405E-03    -43.5018E+06    -49.0447E+06    -175.627E+06    -55.6846E+06    -168.987E+06    -43.5018E+06    -27.9631E+06         30.1459
            1676     8.52045E-03     93.6796E-03     58.0180E-03     37.2532E-03    -170.467E-03     41.2957E-03    -169.722E-03     53.2310E-03     9.24280E-03     109.978E-03    -54.9585E-03    -55.0665E-03    -54.6360E-03     109.570E-03    -54.9815E-03     16.3289E-03    -38.1630E+06    -42.5034E+06    -159.074E+06    -49.9086E+06    -151.669E+06    -38.1630E+06    -28.1584E+06         30.7839
            1677     9.46657E-03     93.6985E-03     65.4503E-03     51.6782E-03    -194.644E-03     61.9097E-03    -192.425E-03     52.9995E-03     15.4347E-03     109.973E-03    -54.9444E-03    -55.0880E-03    -54.5566E-03     109.442E-03    -54.9444E-03     18.6640E-03    -33.4254E+06    -37.8705E+06    -137.934E+06    -44.7352E+06    -130.371E+06    -34.1236E+06    -26.4025E+06         31.5410
            1678     10.4135E-03     93.7192E-03     69.9167E-03     51.5134E-03    -198.343E-03     63.2135E-03    -193.947E-03     53.8205E-03    -14.0284E-03     109.922E-03    -54.9221E-03    -55.0911E-03    -54.3825E-03     109.213E-03    -54.9221E-03     21.5086E-03    -30.1438E+06    -33.5649E+06    -114.057E+06    -39.0770E+06    -106.750E+06    -31.9392E+06    -23.2263E+06         32.4143
            1679     11.3613E-03     93.7444E-03     63.9396E-03     45.8686E-03    -188.027E-03     53.3701E-03    -185.697E-03     54.1084E-03    -23.4240E-03     110.160E-03    -54.8044E-03    -55.4266E-03    -54.3354E-03     109.069E-03    -54.8044E-03     26.5886E-03    -22.8259E+06    -31.6851E+06    -72.8668E+06    -33.6693E+06    -62.0234E+06    -31.6851E+06    -18.0429E+06         33.4317
            1680     12.3074E-03     93.7777E-03     60.5936E-03     42.6798E-03    -181.529E-03     48.9173E-03    -180.943E-03     53.7699E-03    -9.85865E-03     110.525E-03    -54.6754E-03    -55.8346E-03    -53.9819E-03     108.672E-03    -54.6754E-03     34.5986E-03     23.4107E+06    -27.1183E+06    -37.3277E+06    -29.5283E+06     15.6113E+06    -27.1183E+06    -9.88201E+06         34.7589
            1681     13.2555E-03     93.8201E-03     57.4829E-03     46.5443E-03    -179.751E-03     49.7638E-03    -178.863E-03     53.3753E-03    -4.05989E-03     111.553E-03    -54.6646E-03    -56.9244E-03    -53.5189E-03     108.147E-03    -54.6646E-03     46.8426E-03     109.373E+06    -3.33460E+06    -26.3269E+06    -26.1737E+06     109.219E+06    -3.33460E+06    -1.05927E+06         36.6936
            1682     14.2035E-03     93.8807E-03     58.8796E-03     49.4642E-03    -180.213E-03     54.5822E-03    -179.702E-03     53.2511E-03     17.0576E-03     111.136E-03    -54.7343E-03    -56.4576E-03    -52.9343E-03     107.690E-03    -54.8117E-03     47.0559E-03     165.257E+06     53.0722E+06    -21.0775E+06    -21.0380E+06     165.218E+06     53.0722E+06     2.53306E+06         39.3637
            1683     15.1514E-03     93.9225E-03     64.1053E-03     48.3218E-03    -183.402E-03     58.8142E-03    -183.168E-03     53.3795E-03     1.14712E-03     113.220E-03    -54.8930E-03    -58.3391E-03    -52.6466E-03     107.605E-03    -54.9704E-03     58.4655E-03     177.362E+06     106.537E+06    -14.3885E+06    -14.3602E+06     177.333E+06     106.537E+06     854.390E+03         42.5172
            1684     16.1010E-03     94.0072E-03     67.1640E-03     50.7763E-03    -195.650E-03     64.0620E-03    -195.492E-03     53.7207E-03    -8.72685E-03     112.025E-03    -53.8184E-03    -58.3024E-03    -52.6907E-03     107.562E-03    -54.9670E-03     43.0119E-03     180.193E+06     125.179E+06    -7.53299E+06    -7.51880E+06     180.179E+06     125.179E+06    -507.775E+03         45.4848
            1685     946.610E-06     94.7190E-03     531.616E-03    -121.729E-03    -479.880E-03     482.245E-03    -205.105E-03    -347.132E-03     220.886E-03     110.019E-03    -54.7820E-03    -55.2476E-03    -55.2200E-03     110.014E-03    -54.8046E-03     1.46910E-03    -91.3991E+06    -96.0128E+06    -244.323E+06    -93.0205E+06    -244.142E+06    -94.5733E+06    -4.43036E+06         28.0676
            1686     1.89324E-03     94.7229E-03     72.5346E-03     44.0537E-03    -183.230E-03     34.8475E-03    -162.423E-03     60.9336E-03     4.71051E-03     110.062E-03    -54.9386E-03    -55.1572E-03    -55.0574E-03     110.043E-03    -55.0195E-03     3.40755E-03    -87.6641E+06    -90.6917E+06    -222.360E+06    -90.1092E+06    -221.367E+06    -89.2398E+06    -9.86055E+06         28.1851
            1687     2.83928E-03     94.7282E-03     74.7908E-03     41.9907E-03    -183.613E-03     46.9029E-03    -167.086E-03     53.3512E-03    -11.9496E-03     110.100E-03    -54.9687E-03    -55.1686E-03    -55.0223E-03     110.061E-03    -55.0754E-03     5.06074E-03    -77.1084E+06    -83.6024E+06    -216.243E+06    -85.1096E+06    -214.002E+06    -77.8421E+06    -16.7574E+06         28.3658
            1688     3.78644E-03     94.7340E-03     73.5596E-03     53.1010E-03    -196.219E-03     59.8615E-03    -182.520E-03     53.1010E-03    -24.4747E-03     110.040E-03    -54.9739E-03    -55.1027E-03    -54.9406E-03     109.967E-03    -55.0633E-03     6.84353E-03    -68.7808E+06    -77.4858E+06    -215.433E+06    -80.6315E+06    -212.287E+06    -68.7808E+06    -20.4938E+06         28.5966
            1689     4.73278E-03     94.7425E-03     65.5725E-03     54.3545E-03    -194.879E-03     58.8213E-03    -188.128E-03     54.3545E-03     1.37757E-03     110.168E-03    -55.0268E-03    -55.1726E-03    -55.0077E-03     110.044E-03    -55.0677E-03     8.97877E-03    -62.5173E+06    -70.1766E+06    -200.858E+06    -74.8823E+06    -196.152E+06    -62.5173E+06    -23.7799E+06         28.8703
            1690     5.67909E-03     94.7530E-03     58.0652E-03     47.5846E-03    -184.738E-03     43.4123E-03    -176.385E-03     53.8846E-03    -21.4053E-03     110.188E-03    -55.0091E-03    -55.1539E-03    -54.9297E-03     110.010E-03    -55.0550E-03     10.8205E-03     -54.047E+06    -62.5929E+06    -190.836E+06    -68.5356E+06    -184.893E+06     -54.047E+06    -26.6807E+06         29.2098
            1691     6.62609E-03     94.7649E-03     54.1697E-03     42.9486E-03    -176.563E-03     39.2613E-03    -170.753E-03     52.0472E-03     2.66977E-03     109.990E-03    -54.9280E-03    -55.0822E-03    -54.7477E-03     109.763E-03    -55.0349E-03     12.2277E-03    -47.7299E+06    -56.1752E+06    -181.146E+06    -63.2409E+06    -174.080E+06    -47.7299E+06    -28.4962E+06         29.6312
            1692     7.57272E-03     94.7791E-03     67.1860E-03     49.0192E-03    -194.779E-03     63.4393E-03    -193.831E-03     51.8178E-03    -4.53184E-03     110.005E-03    -54.9923E-03    -55.0801E-03    -54.7122E-03     109.711E-03    -55.0662E-03     13.8774E-03    -44.5066E+06    -49.0606E+06    -170.502E+06    -58.4965E+06    -161.066E+06    -44.5066E+06    -32.1975E+06         30.1492
            1693     8.51914E-03     94.7949E-03     66.3447E-03     50.5696E-03    -194.743E-03     63.2537E-03    -194.181E-03     53.0989E-03     17.9899E-03     109.977E-03    -54.9816E-03    -55.0240E-03    -54.5971E-03     109.574E-03    -55.0059E-03     16.2205E-03    -39.1307E+06    -43.9181E+06    -160.073E+06    -52.5018E+06    -148.773E+06    -41.8466E+06    -34.4673E+06         30.7858
            1694     9.46695E-03     94.8139E-03     53.1992E-03     43.8704E-03    -174.617E-03     41.8190E-03    -172.479E-03     53.1127E-03     32.2038E-03     109.910E-03    -54.9307E-03    -55.0333E-03    -54.4970E-03     109.385E-03    -54.9420E-03     18.5469E-03    -34.1929E+06    -39.3939E+06    -141.836E+06    -45.9316E+06    -130.777E+06    -38.7142E+06    -32.2569E+06         31.5412
            1695     10.4137E-03     94.8344E-03     51.9734E-03     39.1546E-03    -168.670E-03     37.1901E-03    -166.619E-03     51.8870E-03     25.6444E-03     109.993E-03    -54.9291E-03    -55.1765E-03    -54.4723E-03     109.289E-03    -54.9291E-03     21.4337E-03      -29.45E+06    -34.9512E+06    -118.943E+06    -40.3956E+06    -107.998E+06    -34.9512E+06    -28.9737E+06         32.4142
            1696     11.3600E-03     94.8603E-03     53.9434E-03     44.6645E-03    -178.489E-03     47.3593E-03    -178.289E-03     51.0490E-03     9.25225E-03     110.143E-03    -54.8238E-03    -55.4240E-03    -54.3097E-03     109.028E-03    -54.8238E-03     26.8436E-03    -20.6231E+06    -36.2101E+06    -82.2146E+06    -34.7583E+06    -68.0794E+06    -36.2101E+06    -24.3368E+06         33.4301
            1697     12.3079E-03     94.8929E-03     62.5023E-03     50.8962E-03    -192.841E-03     61.8382E-03    -192.542E-03     51.2613E-03     8.61357E-03     110.406E-03    -54.7013E-03    -55.7159E-03    -53.8286E-03     108.519E-03    -54.7013E-03     34.9102E-03     16.6935E+06    -31.6037E+06    -44.5476E+06     -29.987E+06     2.68768E+06    -32.1584E+06    -14.1048E+06         34.7557
            1698     13.2549E-03     94.9355E-03     60.5976E-03     51.8713E-03    -188.245E-03     59.4595E-03    -187.107E-03     51.8713E-03     107.997E-06     111.295E-03    -54.6448E-03    -56.6959E-03    -53.2185E-03     107.817E-03    -54.6448E-03     47.2233E-03     100.813E+06    -9.12150E+06    -27.1352E+06    -26.1699E+06     100.403E+06    -9.67629E+06    -3.85275E+06         36.6899
            1699     14.2036E-03     94.9953E-03     53.3532E-03     49.8877E-03    -179.535E-03     50.2119E-03    -178.507E-03     52.0010E-03     2.11781E-03     110.885E-03    -54.6834E-03    -56.2767E-03    -52.7226E-03     107.408E-03    -54.7608E-03     47.1078E-03     164.404E+06     45.8640E+06    -20.7878E+06    -20.7678E+06     164.384E+06     45.8640E+06     211.884E+03         39.3598
            1700     15.1529E-03     95.0369E-03     53.0332E-03     46.6706E-03    -178.724E-03     47.2013E-03    -177.950E-03     51.7284E-03     11.7015E-03     113.388E-03    -54.8769E-03    -58.5305E-03    -52.8869E-03     107.821E-03    -54.9543E-03     58.2410E-03     178.890E+06     104.683E+06    -13.6580E+06    -13.6445E+06     178.876E+06     104.683E+06     1.40644E+06         42.5138
            1701     16.1001E-03     95.1227E-03     61.0203E-03     48.7258E-03    -192.757E-03     56.1307E-03    -190.812E-03     51.6702E-03    -7.56451E-03     112.028E-03    -53.5910E-03    -58.4799E-03    -52.6815E-03     107.595E-03    -54.9568E-03     42.7035E-03     181.214E+06     127.094E+06    -6.70366E+06    -6.68877E+06     181.199E+06     127.094E+06     797.655E+03         45.4836
            1702     946.100E-06     95.8351E-03     497.051E-03    -57.7946E-03    -498.784E-03     471.770E-03    -154.341E-03    -376.956E-03     174.617E-03     110.456E-03    -55.1403E-03    -55.3237E-03    -55.2846E-03     110.448E-03    -55.1717E-03     1.87409E-03    -86.3974E+06    -92.3255E+06    -231.517E+06    -89.4284E+06    -231.110E+06    -89.7015E+06    -6.86525E+06         28.0729
            1703     1.89239E-03     95.8387E-03     76.7008E-03     38.3487E-03    -177.329E-03     59.6042E-03    -171.593E-03     49.7092E-03    -9.05782E-03     110.150E-03    -54.9933E-03    -55.1785E-03    -54.9703E-03     110.127E-03    -55.1785E-03     3.80265E-03    -84.2371E+06    -87.6782E+06    -209.225E+06    -87.8514E+06    -207.682E+06    -85.6061E+06    -12.8432E+06         28.1849
            1704     2.83974E-03     95.8432E-03     69.5981E-03     39.9164E-03    -173.816E-03     46.0690E-03    -161.647E-03     51.2769E-03    -44.5697E-03     110.056E-03    -54.9590E-03    -55.1254E-03    -54.9144E-03     110.012E-03    -55.1254E-03     5.37163E-03    -77.8889E+06    -82.7857E+06    -203.793E+06    -85.1354E+06    -200.709E+06    -78.6226E+06    -19.0155E+06         28.3628
            1705     3.78566E-03     95.8497E-03     71.3499E-03     50.9975E-03    -192.909E-03     55.7294E-03    -177.289E-03     50.9975E-03    -16.8179E-03     110.063E-03    -55.0115E-03    -55.0860E-03    -54.9364E-03     109.988E-03    -55.0860E-03     6.98293E-03    -69.4895E+06    -75.0917E+06    -206.045E+06    -79.8052E+06    -201.285E+06    -69.5355E+06    -24.0747E+06         28.5948
            1706     4.73271E-03     95.8578E-03     64.0064E-03     46.0751E-03    -185.172E-03     51.8895E-03    -178.596E-03     51.6152E-03     24.0477E-03     110.069E-03    -54.9890E-03    -55.1030E-03    -54.8814E-03     109.941E-03    -55.0825E-03     9.10893E-03    -62.9449E+06    -67.5134E+06    -192.749E+06    -74.0699E+06    -186.146E+06    -62.9910E+06    -27.5954E+06         28.8688
            1707     5.67972E-03     95.8691E-03     55.8953E-03     41.2234E-03    -174.352E-03     40.5189E-03    -168.526E-03     50.7736E-03     12.2105E-03     110.220E-03    -55.0258E-03    -55.1871E-03    -54.9777E-03     110.043E-03    -55.0575E-03     10.8266E-03    -54.4475E+06    -61.7264E+06    -184.681E+06    -69.5557E+06    -176.851E+06    -54.4475E+06    -29.8832E+06         29.2078
            1708     6.62573E-03     95.8806E-03     57.0280E-03     45.7086E-03    -178.478E-03     47.0171E-03    -172.477E-03     49.7187E-03     14.5720E-03     110.159E-03    -55.0242E-03    -55.1542E-03    -54.9220E-03     109.927E-03    -55.0242E-03     12.3386E-03     -47.586E+06    -55.2114E+06    -175.883E+06    -63.7007E+06    -166.278E+06    -48.7023E+06    -32.4877E+06         29.6303
            1709     7.57238E-03     95.8947E-03     66.8025E-03     46.2363E-03    -187.080E-03     60.6242E-03    -184.840E-03     50.1741E-03    -19.0435E-03     110.032E-03    -55.0114E-03    -55.0706E-03    -54.7239E-03     109.724E-03    -55.0497E-03     14.2301E-03    -44.2342E+06    -47.4110E+06    -163.101E+06    -58.3476E+06    -150.743E+06    -45.6551E+06    -35.8607E+06         30.1506
            1710     8.51952E-03     95.9102E-03     64.0865E-03     46.0103E-03    -184.649E-03     57.8497E-03    -183.558E-03     51.1561E-03     3.45361E-03     109.997E-03    -54.9650E-03    -55.0768E-03    -54.6135E-03     109.583E-03    -55.0146E-03     16.4475E-03    -39.4593E+06    -43.4765E+06    -157.821E+06    -54.6036E+06    -142.961E+06    -43.1926E+06    -39.0529E+06         30.7878
            1711     9.46593E-03     95.9291E-03     53.5736E-03     43.2351E-03    -169.929E-03     45.3278E-03    -169.604E-03     51.1561E-03    -1.33163E-03     109.994E-03    -54.9433E-03    -55.1096E-03    -54.5603E-03     109.456E-03    -54.9547E-03     18.7818E-03    -33.7824E+06    -43.4500E+06    -146.294E+06    -49.5773E+06    -130.499E+06    -43.4500E+06    -38.8838E+06         31.5407
            1712     10.4125E-03     95.9507E-03     57.6301E-03     40.2014E-03    -169.019E-03     46.8623E-03    -168.676E-03     50.6266E-03    -4.34499E-03     109.909E-03    -54.9199E-03    -55.0891E-03    -54.3574E-03     109.184E-03    -54.9266E-03     21.7244E-03    -26.6518E+06    -39.3322E+06    -124.264E+06    -42.9150E+06    -108.001E+06    -39.3322E+06    -36.0200E+06         32.4121
            1713     11.3606E-03     95.9752E-03     56.2354E-03     45.8084E-03    -176.658E-03     51.3506E-03    -176.434E-03     50.4691E-03     4.50133E-03     109.994E-03    -54.8180E-03    -55.2482E-03    -54.1159E-03     108.868E-03    -54.8247E-03     26.9848E-03    -19.4301E+06    -39.7154E+06    -91.7882E+06    -37.2136E+06    -74.0047E+06    -39.7154E+06    -30.7065E+06         33.4279
            1714     12.3076E-03     96.0075E-03     54.8289E-03     44.3416E-03    -176.910E-03     48.1041E-03    -176.255E-03     50.4116E-03     20.0584E-03     110.281E-03    -54.6970E-03    -55.5714E-03    -53.7009E-03     108.410E-03    -54.6970E-03     34.7343E-03     9.24899E+06    -37.6837E+06    -53.7414E+06    -31.4943E+06    -12.0438E+06    -38.6380E+06    -20.2810E+06         34.7524
            1715     13.2558E-03     96.0504E-03     54.7008E-03     41.6575E-03    -174.075E-03     44.7658E-03    -172.564E-03     50.0822E-03     12.3017E-03     111.039E-03    -54.6189E-03    -56.4758E-03    -53.0834E-03     107.647E-03    -54.6189E-03     46.6125E-03     92.2849E+06    -17.3697E+06    -28.7699E+06    -26.1047E+06     90.5741E+06    -18.3241E+06    -8.49549E+06         36.6853
            1716     14.2045E-03     96.1091E-03     55.5033E-03     46.5145E-03    -176.926E-03     50.7369E-03    -175.463E-03     49.8176E-03    -15.0445E-03     110.868E-03    -54.7222E-03    -56.2403E-03    -52.7986E-03     107.426E-03    -54.7222E-03     46.9625E-03     161.332E+06     37.4533E+06    -21.5113E+06    -21.4752E+06     161.296E+06     37.4533E+06    -1.66439E+06         39.3543
            1717     15.1517E-03     96.1533E-03     60.6187E-03     50.0248E-03    -179.692E-03     59.4449E-03    -178.519E-03     50.0248E-03     1.88534E-03     113.258E-03    -54.9326E-03    -58.3216E-03    -52.8105E-03     107.747E-03    -54.9326E-03     58.0528E-03     177.793E+06     100.104E+06    -14.9151E+06    -14.9045E+06     177.783E+06     100.104E+06      933.51E+03         42.5089
            1718     16.1011E-03     96.2366E-03     56.0656E-03     38.6857E-03    -155.658E-03     41.3058E-03    -152.180E-03     49.9676E-03    -15.2458E-03     111.652E-03    -53.4552E-03    -58.1487E-03    -52.3160E-03     107.305E-03    -54.9414E-03     42.3686E-03     182.159E+06     127.546E+06    -6.88017E+06    -6.86448E+06     182.143E+06     127.546E+06     1.52286E+06         45.4811
            1719     946.591E-06     96.9517E-03     419.128E-03    -35.3605E-03    -450.941E-03     393.209E-03    -101.396E-03    -358.986E-03     94.7747E-03     110.358E-03    -55.0407E-03    -55.3119E-03    -55.2553E-03     110.350E-03    -55.0892E-03     2.24420E-03    -76.9115E+06    -83.8159E+06    -216.719E+06     -81.064E+06    -216.112E+06    -80.2702E+06    -8.21335E+06         28.0674
            1720     1.89300E-03     96.9539E-03     104.008E-03     31.8920E-03    -206.098E-03     91.4226E-03    -193.512E-03     31.8920E-03    -17.8123E-03     110.173E-03    -55.0121E-03    -55.1719E-03    -55.0027E-03     110.148E-03    -55.1560E-03     3.85029E-03    -75.7735E+06    -79.2563E+06    -195.307E+06    -80.0438E+06    -193.829E+06    -76.4635E+06    -12.6825E+06         28.1816
            1721     2.83919E-03     96.9588E-03     91.6583E-03     51.9993E-03    -218.323E-03     84.8840E-03    -211.784E-03     52.2347E-03     9.97562E-03     110.091E-03    -54.9752E-03    -55.1502E-03    -54.9408E-03     110.041E-03    -55.1343E-03     5.72380E-03    -70.5598E+06    -75.2918E+06    -188.737E+06    -78.5812E+06    -185.447E+06    -70.5598E+06    -18.6575E+06         28.3630
            1722     3.78627E-03     96.9653E-03     63.5667E-03     40.3657E-03    -177.314E-03     38.6952E-03    -167.687E-03     55.6102E-03     16.5746E-03     110.109E-03    -55.0064E-03    -55.1562E-03    -54.9899E-03     110.027E-03    -55.0909E-03     7.28391E-03    -64.9286E+06    -70.4552E+06    -192.809E+06    -76.6022E+06    -186.616E+06    -64.9746E+06    -26.5914E+06         28.5971
            1723     4.73251E-03     96.9731E-03     57.7974E-03     22.2308E-03    -152.422E-03     21.1174E-03    -144.072E-03     50.5608E-03     31.7719E-03     110.246E-03    -55.0517E-03    -55.1997E-03    -55.0174E-03     110.116E-03    -55.1042E-03     9.21182E-03    -59.1763E+06    -64.4001E+06    -185.169E+06    -72.3853E+06    -176.527E+06    -59.8331E+06    -31.0212E+06         28.8697
            1724     5.67900E-03     96.9846E-03     56.7682E-03     33.7831E-03    -161.202E-03     41.4429E-03    -159.197E-03     47.1039E-03    -26.1984E-03     110.205E-03    -54.9770E-03    -55.1906E-03    -54.9017E-03     110.024E-03    -55.0847E-03     10.9045E-03    -51.4854E+06    -56.5456E+06    -178.129E+06    -66.0653E+06    -167.999E+06    -52.0962E+06    -33.5532E+06         29.2055
            1725     6.62571E-03     96.9965E-03     63.4330E-03     47.5613E-03    -180.182E-03     61.2975E-03    -178.047E-03     47.5613E-03    -19.5827E-03     110.069E-03    -54.9510E-03    -55.1244E-03    -54.7924E-03     109.828E-03    -55.0416E-03     12.5721E-03    -45.8566E+06    -50.3016E+06    -169.156E+06    -60.9515E+06      -156.3E+06    -48.0622E+06    -36.8874E+06         29.6265
            1726     7.57244E-03     97.0103E-03     54.0503E-03     33.3464E-03    -155.791E-03     37.4610E-03    -153.698E-03     47.8429E-03    -19.2361E-03     110.100E-03    -55.0088E-03    -55.1142E-03    -54.7494E-03     109.782E-03    -55.0561E-03     14.4377E-03    -40.6554E+06    -44.3161E+06    -157.534E+06    -56.1594E+06    -142.029E+06    -44.3161E+06    -39.4802E+06         30.1471
            1727     8.51904E-03     97.0261E-03     47.3167E-03     28.1279E-03    -144.474E-03     28.4018E-03    -143.568E-03     46.1364E-03    -13.7683E-03     110.098E-03    -54.9910E-03    -55.1465E-03    -54.6825E-03     109.676E-03    -55.0333E-03     16.6202E-03    -35.0585E+06    -39.3005E+06    -152.297E+06    -51.9507E+06    -135.405E+06    -39.3005E+06    -41.1148E+06         30.7856
            1728     9.46613E-03     97.0452E-03     57.0197E-03     41.9104E-03    -171.178E-03     52.9056E-03    -170.576E-03     45.4224E-03    -22.1851E-03     110.001E-03    -54.9727E-03    -55.1193E-03    -54.5522E-03     109.443E-03    -54.9822E-03     19.1156E-03    -29.2691E+06    -42.3123E+06    -145.115E+06    -48.9555E+06    -125.428E+06    -42.3123E+06    -43.3597E+06         31.5386
            1729     10.4133E-03     97.0658E-03     75.7188E-03     46.9034E-03    -191.802E-03     73.5969E-03    -189.680E-03     46.9034E-03    -41.0033E-03     109.874E-03    -54.9224E-03    -55.0658E-03    -54.3182E-03     109.133E-03    -54.9291E-03     21.9950E-03    -23.8565E+06    -43.0291E+06    -129.924E+06    -45.3376E+06    -108.443E+06    -43.0291E+06    -42.5465E+06         32.4092
            1730     11.3601E-03     97.0910E-03     69.9836E-03     48.2225E-03    -187.046E-03     67.4571E-03    -185.103E-03     48.8058E-03    -16.8566E-03     110.039E-03    -54.8191E-03    -55.2519E-03    -54.1173E-03     108.911E-03    -54.8257E-03     27.0079E-03    -18.8493E+06    -42.1987E+06    -101.846E+06    -40.9844E+06    -79.7107E+06    -42.1987E+06    -36.2948E+06         33.4252
            1731     12.3076E-03     97.1234E-03     52.0388E-03     40.8777E-03    -165.995E-03     42.7609E-03    -165.099E-03     49.2594E-03     12.7151E-03     110.287E-03    -54.6803E-03    -55.5654E-03    -53.7266E-03     108.449E-03    -54.6803E-03     34.4804E-03     4.31058E+06    -43.3383E+06    -64.4541E+06    -36.2247E+06    -23.5192E+06    -43.7379E+06    -27.9756E+06         34.7480
            1732     13.2551E-03     97.1646E-03     48.4662E-03     36.2173E-03    -158.203E-03     35.1139E-03    -157.100E-03     48.4662E-03     15.7711E-03     111.114E-03    -54.5983E-03    -56.5548E-03    -53.2223E-03     107.781E-03    -54.5983E-03     46.2048E-03     81.8011E+06    -28.0294E+06    -35.0283E+06    -29.2108E+06     76.3832E+06    -28.4290E+06    -15.8706E+06         36.6779
            1733     14.2033E-03     97.2231E-03     52.2742E-03     40.0204E-03    -162.238E-03     42.9324E-03    -160.638E-03     47.7623E-03    -9.26381E-03     110.810E-03    -54.6000E-03    -56.2563E-03    -52.7194E-03     107.365E-03    -54.6920E-03     47.0354E-03     154.619E+06     26.2596E+06    -22.3575E+06    -22.0971E+06     154.358E+06     26.2596E+06    -3.91511E+06         39.3458
            1734     15.1527E-03     97.2679E-03     56.8695E-03     43.7145E-03    -164.459E-03     50.7556E-03    -162.212E-03     47.5804E-03    -5.32912E-03     112.751E-03    -54.7995E-03    -57.8952E-03    -52.3300E-03     107.278E-03    -54.8915E-03     57.8034E-03     175.864E+06     93.0989E+06    -16.6864E+06    -16.6766E+06     175.854E+06     93.0989E+06     932.123E+03         42.5014
            1735     16.1013E-03     97.3495E-03     57.0629E-03     35.4952E-03    -154.886E-03     41.4512E-03    -151.131E-03     47.3517E-03     19.8775E-03     111.183E-03    -53.3127E-03    -57.8173E-03    -51.9005E-03     106.896E-03    -54.9422E-03     42.1528E-03     182.578E+06     126.378E+06    -9.24233E+06    -9.22779E+06     182.564E+06     126.378E+06     1.14967E+06         45.4762
            1736     946.278E-06     98.0674E-03     433.952E-03    -75.4190E-03    -438.350E-03     392.878E-03    -159.472E-03    -313.224E-03     100.973E-03     110.208E-03    -54.8726E-03    -55.3432E-03    -55.2694E-03     110.202E-03    -54.9407E-03     1.67573E-03    -66.4391E+06    -72.1169E+06    -201.546E+06    -71.3400E+06    -201.107E+06    -67.6555E+06    -6.14471E+06         28.0557
            1737     1.89316E-03     98.0698E-03     102.148E-03     32.0510E-03    -212.396E-03     65.5182E-03    -188.681E-03     44.9665E-03    -43.9274E-03     110.047E-03    -54.9582E-03    -55.1053E-03    -54.9511E-03     110.024E-03    -55.0894E-03     3.61630E-03    -66.4922E+06    -70.1277E+06    -182.741E+06    -70.6616E+06    -181.517E+06    -67.1821E+06    -11.2293E+06         28.1797
            1738     2.83984E-03     98.0753E-03     86.1069E-03     38.6596E-03    -199.934E-03     62.0712E-03    -189.049E-03     51.8106E-03     4.77105E-03     110.074E-03    -54.9527E-03    -55.1326E-03    -54.9595E-03     110.024E-03    -55.0753E-03     5.71862E-03    -61.6092E+06    -67.4519E+06    -172.537E+06    -70.4774E+06    -169.511E+06    -61.6092E+06    -17.0793E+06         28.3651
            1739     3.78619E-03     98.0804E-03     56.2035E-03     35.7845E-03    -163.560E-03     31.8015E-03    -154.403E-03     51.0290E-03    -18.0506E-03     110.233E-03    -55.0356E-03    -55.2318E-03    -55.0858E-03     110.147E-03    -55.0950E-03     7.49204E-03    -53.6132E+06    -62.3644E+06    -175.477E+06    -68.6413E+06    -169.200E+06    -53.6132E+06    -25.6658E+06         28.5991
            1740     4.73254E-03     98.0902E-03     49.3719E-03     23.3906E-03    -137.979E-03     22.5261E-03    -133.923E-03     46.1805E-03     20.4914E-03     110.320E-03    -55.0984E-03    -55.2374E-03    -55.0890E-03     110.185E-03    -55.1117E-03     9.40895E-03    -51.9733E+06    -57.2421E+06    -174.656E+06    -65.7295E+06    -164.654E+06    -53.4881E+06    -32.8327E+06         28.8702
            1741     5.67893E-03     98.0999E-03     51.6163E-03     29.8996E-03    -141.658E-03     35.0340E-03    -138.280E-03     43.1041E-03    -40.2708E-03     110.092E-03    -54.9755E-03    -55.1049E-03    -54.8241E-03     109.901E-03    -55.0650E-03     11.1934E-03    -50.0433E+06    -52.8633E+06    -170.685E+06    -63.5212E+06    -158.512E+06    -51.5581E+06    -36.0707E+06         29.2014
            1742     6.62609E-03     98.1124E-03     55.6939E-03     37.2574E-03    -153.701E-03     46.8288E-03    -150.260E-03     42.6811E-03    -35.8771E-03     109.911E-03    -54.9166E-03    -55.0306E-03    -54.6746E-03     109.659E-03    -55.0209E-03     12.8545E-03    -43.6846E+06    -47.2993E+06    -160.542E+06    -60.8332E+06    -144.699E+06    -45.9941E+06    -39.2589E+06         29.6194
            1743     7.57275E-03     98.1259E-03     59.6666E-03     32.6547E-03    -155.204E-03     48.0632E-03    -154.159E-03     43.2134E-03     3.96568E-03     110.080E-03    -55.0094E-03    -55.1104E-03    -54.7544E-03     109.752E-03    -55.0375E-03     14.6652E-03    -36.5745E+06    -43.1102E+06    -153.071E+06    -56.3792E+06    -133.267E+06    -43.1102E+06    -43.6363E+06         30.1407
            1744     8.51930E-03     98.1424E-03     56.1376E-03     29.2802E-03    -152.281E-03     40.9106E-03    -151.125E-03     43.3509E-03     17.8339E-03     110.135E-03    -55.0054E-03    -55.1329E-03    -54.6933E-03     109.705E-03    -55.0149E-03     16.8046E-03    -29.2668E+06    -38.2747E+06    -149.679E+06    -50.0478E+06    -128.898E+06    -38.2747E+06    -45.3888E+06         30.7804
            1745     9.46617E-03     98.1600E-03     58.9289E-03     40.1100E-03    -168.159E-03     51.1998E-03    -163.942E-03     43.6220E-03     24.5330E-03     109.997E-03    -54.9595E-03    -55.1149E-03    -54.5469E-03     109.438E-03    -54.9689E-03     19.1298E-03    -23.5754E+06    -38.3907E+06    -140.373E+06    -45.5635E+06    -118.385E+06    -38.3907E+06    -45.6081E+06         31.5334
            1746     10.4129E-03     98.1809E-03     70.6007E-03     41.3958E-03    -178.920E-03     61.1657E-03    -172.864E-03     44.7748E-03     8.85710E-03     109.914E-03    -54.9296E-03    -55.1370E-03    -54.3944E-03     109.171E-03    -54.9296E-03     22.0286E-03    -20.6635E+06    -41.6716E+06    -130.415E+06    -44.1067E+06    -106.972E+06    -41.6716E+06    -44.9394E+06         32.4045
            1747     11.3603E-03     98.2056E-03     61.3651E-03     42.4887E-03    -168.098E-03     55.0265E-03    -165.139E-03     45.8677E-03     1.73936E-03     110.056E-03    -54.8227E-03    -55.3033E-03    -54.1546E-03     108.907E-03    -54.8227E-03     27.2352E-03    -13.8594E+06    -44.1955E+06    -109.725E+06    -40.8383E+06    -82.7464E+06    -44.1955E+06    -42.6607E+06         33.4205
            1748     12.3077E-03     98.2378E-03     50.4059E-03     43.5093E-03    -159.893E-03     47.2427E-03    -159.407E-03     46.1861E-03     6.58701E-03     110.380E-03    -54.6685E-03    -55.6921E-03    -53.8369E-03     108.525E-03    -54.6685E-03     34.6911E-03     6.38217E+06    -46.7483E+06    -72.2889E+06    -34.1430E+06    -31.7638E+06    -46.7483E+06    -36.2043E+06         34.7403
            1749     13.2553E-03     98.2786E-03     47.5175E-03     42.1334E-03    -159.126E-03     42.4828E-03    -157.916E-03     45.9577E-03    -12.7982E-03     111.378E-03    -54.5804E-03    -56.8299E-03    -53.4460E-03     107.995E-03    -54.5804E-03     46.5799E-03     69.5241E+06    -34.9653E+06    -39.3350E+06    -28.6881E+06     58.8772E+06    -34.9653E+06    -22.8839E+06         36.6667
            1750     14.2034E-03     98.3382E-03     47.7102E-03     41.1147E-03    -157.421E-03     41.5365E-03    -155.686E-03     45.5534E-03    -25.0919E-03     110.622E-03    -54.3987E-03    -56.2488E-03    -52.5284E-03     107.152E-03    -54.6490E-03     47.0964E-03     141.819E+06     12.7699E+06    -25.1912E+06    -24.4353E+06     141.063E+06     12.7699E+06    -7.44622E+06         39.3337
            1751     15.1522E-03     98.3809E-03     47.0251E-03     38.0777E-03    -154.782E-03     38.1994E-03    -152.952E-03     45.0737E-03    -358.647E-06     112.267E-03    -54.5794E-03    -57.6593E-03    -51.8346E-03     106.692E-03    -54.8297E-03     57.9774E-03     174.067E+06     83.0532E+06    -16.9422E+06    -16.9281E+06     174.053E+06     83.0532E+06     106.830E+03         42.4907
            1752     16.1021E-03     98.4651E-03     62.6170E-03     41.3898E-03    -177.348E-03     56.5989E-03    -175.035E-03     45.0945E-03     24.4675E-03     110.770E-03    -53.0463E-03    -57.7337E-03    -51.4579E-03     106.353E-03    -54.9042E-03     42.6170E-03     183.421E+06     126.174E+06    -7.79344E+06    -7.78247E+06     183.410E+06     126.174E+06     95.9430E+03         45.4678
            1753     946.734E-06     99.1826E-03     461.482E-03    -140.405E-03    -399.959E-03     408.913E-03    -232.824E-03    -254.971E-03     103.578E-03     110.068E-03    -54.8777E-03    -55.2101E-03    -55.1758E-03     110.062E-03    -54.9062E-03     1.61469E-03    -58.0539E+06    -62.5951E+06    -189.534E+06    -61.4138E+06    -189.386E+06    -59.3827E+06    -3.82149E+06         28.0412
            1754     1.89291E-03     99.1857E-03     68.7105E-03     10.6840E-03    -157.699E-03    -6.35162E-03    -132.189E-03     60.2361E-03    -57.3102E-03     110.034E-03    -54.9531E-03    -55.0897E-03    -54.9772E-03     110.013E-03    -55.0447E-03     3.58551E-03    -54.8192E+06    -60.2800E+06    -170.592E+06    -61.1521E+06    -169.720E+06    -54.8192E+06    -8.77324E+06         28.1785
            1755     2.83990E-03     99.1901E-03     44.5748E-03     8.94121E-03    -122.591E-03    -2.95470E-03    -102.990E-03     36.8690E-03    -31.2190E-03     110.058E-03    -54.9514E-03    -55.0955E-03    -54.9461E-03     110.006E-03    -55.0494E-03     5.70364E-03    -50.6280E+06    -56.9863E+06    -157.374E+06    -59.4287E+06    -154.931E+06    -50.6280E+06    -15.0677E+06         28.3642
            1756     3.78631E-03     99.1979E-03     59.6536E-03     32.1647E-03    -156.879E-03     48.6409E-03    -145.867E-03     32.1647E-03    -32.0183E-03     110.156E-03    -55.0282E-03    -55.1513E-03    -55.0233E-03     110.063E-03    -55.0630E-03     7.78892E-03    -43.5834E+06    -52.0956E+06    -156.728E+06    -57.8261E+06    -150.997E+06    -43.5834E+06    -23.3139E+06         28.5977
            1757     4.73285E-03     99.2051E-03     71.2533E-03     37.2422E-03    -174.140E-03     68.4805E-03    -171.368E-03     37.2422E-03     3.06528E-03     110.143E-03    -55.0379E-03    -55.1351E-03    -54.9840E-03     110.005E-03    -55.0512E-03     9.50247E-03    -41.8573E+06    -49.5068E+06    -160.320E+06    -57.8117E+06    -151.111E+06    -42.7613E+06    -30.6306E+06         28.8697
            1758     5.67973E-03     99.2161E-03     57.3445E-03     35.4000E-03    -159.394E-03     46.8904E-03    -154.363E-03     40.8237E-03    -19.0314E-03     110.065E-03    -54.9829E-03    -55.0673E-03    -54.8613E-03     109.873E-03    -54.9963E-03     11.2346E-03    -41.0526E+06    -46.3085E+06    -159.823E+06    -57.0213E+06    -147.152E+06    -43.0106E+06    -35.8655E+06         29.1932
            1759     6.62592E-03     99.2275E-03     45.1537E-03     30.0336E-03    -135.964E-03     29.4008E-03    -130.710E-03     40.5329E-03     1.12131E-03     109.931E-03    -54.9520E-03    -55.0228E-03    -54.7440E-03     109.666E-03    -54.9656E-03     13.1725E-03    -33.5311E+06    -41.0518E+06    -150.191E+06    -52.8116E+06    -131.865E+06    -40.0970E+06    -41.9359E+06         29.6051
            1760     7.57294E-03     99.2420E-03     65.0038E-03     35.7529E-03    -156.737E-03     58.1224E-03    -154.932E-03     40.8286E-03     12.6567E-03     109.925E-03    -54.9645E-03    -55.0396E-03    -54.6801E-03     109.579E-03    -54.9781E-03     15.0611E-03    -27.7242E+06    -38.7836E+06    -145.366E+06    -49.8521E+06    -123.238E+06    -38.7836E+06    -45.9694E+06         30.1274
            1761     8.51973E-03     99.2576E-03     78.9747E-03     43.8160E-03    -180.245E-03     77.9334E-03    -179.204E-03     43.8160E-03     27.0026E-03     110.063E-03    -54.9491E-03    -55.0674E-03    -54.6232E-03     109.619E-03    -54.9491E-03     17.0668E-03    -24.6007E+06    -37.6501E+06    -145.663E+06    -49.1178E+06    -121.145E+06    -37.6501E+06    -48.5004E+06         30.7682
            1762     9.46652E-03     99.2759E-03     63.2404E-03     38.1962E-03    -162.120E-03     49.5274E-03    -156.126E-03     45.9149E-03     22.8473E-03     110.072E-03    -54.9096E-03    -55.1368E-03    -54.5562E-03     109.491E-03    -54.9096E-03     19.5061E-03    -20.2281E+06    -38.1464E+06    -139.318E+06    -45.8674E+06    -113.679E+06    -38.1464E+06    -48.8335E+06         31.5208
            1763     10.4135E-03     99.2962E-03     49.0485E-03     24.5922E-03    -135.282E-03     21.4683E-03    -128.144E-03     45.0345E-03     13.2656E-03     109.990E-03    -54.8985E-03    -55.2248E-03    -54.4574E-03     109.223E-03    -54.8985E-03     22.4094E-03    -13.5573E+06    -39.7945E+06    -128.889E+06    -40.4900E+06    -101.956E+06    -39.7945E+06    -48.6193E+06         32.3937
            1764     11.3606E-03     99.3209E-03     43.3180E-03     29.4051E-03    -133.975E-03     26.6270E-03    -131.111E-03     43.2322E-03    -5.53899E-03     110.085E-03    -54.8109E-03    -55.3867E-03    -54.2419E-03     108.940E-03    -54.8109E-03     27.2374E-03    -2.94579E+06    -42.9632E+06    -112.018E+06    -35.0617E+06    -79.9020E+06    -42.9632E+06    -49.4047E+06         33.4112
            1765     12.3081E-03     99.3527E-03     49.8908E-03     41.5119E-03    -152.935E-03     46.7921E-03    -150.940E-03     42.6156E-03     7.47496E-03     110.393E-03    -54.6677E-03    -55.7180E-03    -53.8466E-03     108.522E-03    -54.6677E-03     34.7921E-03     10.5075E+06    -47.6057E+06    -81.5618E+06    -30.9372E+06    -40.1171E+06    -47.6057E+06    -44.1130E+06         34.7280
            1766     13.2554E-03     99.3943E-03     52.9373E-03     42.9614E-03    -161.581E-03     51.0194E-03    -159.663E-03     42.9614E-03     845.002E-06     111.282E-03    -54.5802E-03    -56.7099E-03    -53.2795E-03     107.851E-03    -54.5802E-03     46.8919E-03     54.8258E+06    -37.0783E+06    -45.6503E+06    -27.3095E+06     37.5913E+06    -38.1846E+06    -27.9077E+06         36.6498
            1767     14.2035E-03     99.4524E-03     49.3228E-03     43.2741E-03    -160.593E-03     46.7009E-03    -157.971E-03     43.2741E-03    -4.26256E-03     110.375E-03    -54.3624E-03    -56.0703E-03    -52.3353E-03     106.872E-03    -54.5942E-03     47.2643E-03     127.504E+06     6.08535E+06    -24.9891E+06    -22.5387E+06     126.160E+06     4.97908E+06    -10.5222E+06         39.3154
            1768     15.1536E-03     99.4938E-03     46.5189E-03     39.8694E-03    -156.787E-03     41.4182E-03    -155.074E-03     43.2566E-03     14.8849E-03     111.894E-03    -54.4992E-03    -57.4118E-03    -51.5238E-03     106.238E-03    -54.7311E-03     58.2667E-03     173.174E+06     73.2803E+06    -15.8993E+06    -15.8311E+06     173.106E+06     73.2803E+06    -2.80351E+06         42.4740
            1769     16.1039E-03     99.5779E-03     55.8707E-03     37.2842E-03    -167.001E-03     48.2431E-03    -165.372E-03     43.2823E-03    -20.0866E-03     110.205E-03    -52.7346E-03    -57.4866E-03    -50.9335E-03     105.723E-03    -54.8058E-03     42.7660E-03     182.113E+06     121.617E+06    -8.23731E+06    -8.23053E+06     182.106E+06     121.617E+06    -956.797E+03         45.4526
            1770     946.750E-06     100.299E-03     397.708E-03    -132.087E-03    -338.349E-03     357.417E-03    -191.665E-03    -238.480E-03     153.257E-03     109.683E-03    -54.7329E-03    -54.9568E-03    -54.8759E-03     109.674E-03    -54.8056E-03     1.90940E-03    -52.3097E+06    -55.2117E+06    -180.212E+06    -54.7536E+06    -179.857E+06    -53.1222E+06    -5.57531E+06         28.0238
            1771     1.89361E-03     100.301E-03     56.1030E-03     10.5430E-03    -134.277E-03     1.24435E-03    -116.659E-03     47.7837E-03     28.8542E-03     109.999E-03    -54.9022E-03    -55.0890E-03    -55.0638E-03     109.974E-03    -54.9022E-03     3.98470E-03    -43.6890E+06    -49.2547E+06    -158.517E+06    -48.8924E+06    -157.527E+06    -45.0415E+06    -9.75556E+06         28.1628
            1772     2.83968E-03     100.306E-03     44.7558E-03     15.0938E-03    -126.138E-03     6.92645E-03    -105.208E-03     31.9927E-03     29.0870E-03     110.053E-03    -54.9541E-03    -55.1144E-03    -55.0119E-03     109.998E-03    -55.0009E-03     5.94931E-03    -38.1993E+06    -43.9158E+06    -144.416E+06    -44.8518E+06    -142.128E+06    -39.5518E+06    -14.7128E+06         28.3469
            1773     3.78682E-03     100.312E-03     61.0978E-03     27.4557E-03    -150.263E-03     40.8708E-03    -131.922E-03     29.3423E-03     34.3304E-03     109.898E-03    -54.9221E-03    -55.0386E-03    -54.8411E-03     109.800E-03    -55.0219E-03     7.97179E-03    -29.7951E+06    -37.8882E+06    -139.923E+06    -42.6135E+06    -135.198E+06    -29.7951E+06    -21.0253E+06         28.5778
            1774     4.73357E-03     100.322E-03     79.8393E-03     33.9942E-03    -177.141E-03     65.4791E-03    -162.781E-03     33.9942E-03     40.7063E-03     109.955E-03    -54.9195E-03    -55.0349E-03    -54.8394E-03     109.812E-03    -54.9726E-03     9.65581E-03    -23.1558E+06    -32.8986E+06    -144.291E+06    -40.3807E+06    -136.809E+06    -23.1558E+06    -27.7082E+06         28.8507
            1775     5.67977E-03     100.331E-03     74.8958E-03     39.7834E-03    -177.589E-03     71.2891E-03    -173.983E-03     39.7834E-03     15.9425E-03     109.964E-03    -54.9053E-03    -54.9981E-03    -54.7880E-03     109.754E-03    -54.9053E-03     11.6899E-03    -21.7573E+06    -29.6040E+06    -143.840E+06    -38.0899E+06    -131.398E+06    -25.7139E+06    -35.7060E+06         29.1749
            1776     6.62695E-03     100.344E-03     61.5593E-03     38.0818E-03    -157.127E-03     53.2432E-03    -153.887E-03     43.1575E-03     47.3754E-03     109.883E-03    -54.8949E-03    -55.0419E-03    -54.7458E-03     109.587E-03    -54.8949E-03     13.9186E-03    -20.4539E+06    -29.6912E+06    -137.072E+06    -38.2837E+06    -119.242E+06    -29.6912E+06    -41.8229E+06         29.5824
            1777     7.57368E-03     100.357E-03     56.5327E-03     27.4979E-03    -140.123E-03     37.1362E-03    -136.765E-03     43.5362E-03     7.35538E-03     109.938E-03    -54.9219E-03    -55.0934E-03    -54.7176E-03     109.563E-03    -54.9219E-03     15.7101E-03    -19.3084E+06    -29.3299E+06    -135.169E+06    -39.8469E+06    -114.630E+06    -29.3299E+06    -44.1446E+06         30.0976
            1778     8.52058E-03     100.374E-03     65.7179E-03     27.0390E-03    -148.388E-03     46.8917E-03    -145.869E-03     43.3458E-03    -3.22832E-03     110.014E-03    -54.8842E-03    -55.0330E-03    -54.5627E-03     109.543E-03    -54.8842E-03     17.5601E-03    -17.0591E+06    -28.0019E+06    -134.099E+06    -40.9577E+06    -110.200E+06    -28.0019E+06    -47.0368E+06         30.7336
            1779     9.46760E-03     100.391E-03     54.4028E-03     29.1602E-03    -139.179E-03     38.0519E-03    -136.872E-03     43.2043E-03    -10.0869E-03     110.065E-03    -54.8363E-03    -55.1168E-03    -54.5102E-03     109.459E-03    -54.8363E-03     19.9385E-03    -11.8708E+06    -31.5561E+06    -134.788E+06    -40.3940E+06    -106.265E+06    -31.5561E+06    -51.7731E+06         31.4872
            1780     10.4142E-03     100.412E-03     44.1454E-03     23.9155E-03    -125.608E-03     22.8912E-03    -122.399E-03     41.9600E-03    -30.7188E-03     110.051E-03    -54.8348E-03    -55.3193E-03    -54.4998E-03     109.231E-03    -54.8348E-03     23.1368E-03    -3.10503E+06    -36.1909E+06    -128.341E+06    -36.4568E+06    -94.9888E+06    -36.1909E+06    -55.2177E+06         32.3647
            1781     11.3608E-03     100.437E-03     44.1400E-03     30.1856E-03    -133.586E-03     31.7164E-03    -131.611E-03     40.6338E-03    -26.5379E-03     110.207E-03    -54.7876E-03    -55.5583E-03    -54.3615E-03     109.010E-03    -54.7876E-03     27.9082E-03     3.79029E+06    -38.2855E+06    -113.184E+06    -32.6211E+06    -76.7728E+06    -38.2855E+06    -54.0790E+06         33.3863
            1782     12.3082E-03     100.467E-03     48.3870E-03     39.2900E-03    -147.079E-03     45.1572E-03    -144.953E-03     40.3936E-03     9.81139E-03     110.372E-03    -54.6517E-03    -55.7185E-03    -53.7969E-03     108.450E-03    -54.6517E-03     35.2290E-03     11.0049E+06    -45.6945E+06    -88.9652E+06    -30.6915E+06    -47.2688E+06    -45.6945E+06    -48.3072E+06         34.7033
            1783     13.2564E-03     100.509E-03     55.6116E-03     40.9881E-03    -153.909E-03     54.0546E-03    -152.352E-03     40.9881E-03     9.03078E-03     110.987E-03    -54.5492E-03    -56.4518E-03    -52.9850E-03     107.520E-03    -54.5492E-03     47.1112E-03     41.0994E+06    -38.8259E+06    -53.6379E+06    -27.4340E+06     16.0017E+06    -39.9322E+06    -34.4781E+06         36.6202
            1784     14.2059E-03     100.566E-03     52.7702E-03     41.6868E-03    -154.472E-03     50.6725E-03    -152.374E-03     41.6868E-03     647.747E-06     110.060E-03    -54.3045E-03    -55.8047E-03    -52.1197E-03     106.550E-03    -54.4792E-03     47.2431E-03     112.543E+06    -3.40732E+06    -26.3257E+06    -21.3550E+06     108.678E+06    -4.51359E+06    -15.5687E+06         39.2839
            1785     15.1546E-03     100.609E-03     50.0223E-03     41.8521E-03    -153.168E-03     47.8352E-03    -151.238E-03     42.1092E-03     20.8564E-03     111.483E-03    -54.3838E-03    -57.1013E-03    -51.3053E-03     105.861E-03    -54.5585E-03     58.0190E-03     169.488E+06     58.3108E+06    -15.6673E+06    -15.5104E+06     169.331E+06     58.3108E+06    -4.96101E+06         42.4450
            1786     16.1049E-03     100.689E-03     46.8553E-03     34.2330E-03    -139.528E-03     35.9974E-03    -136.512E-03     42.0746E-03     5.92948E-03     109.447E-03    -52.2358E-03    -57.2084E-03    -50.3280E-03     104.996E-03    -54.6656E-03     42.8212E-03     179.924E+06     115.090E+06    -8.60540E+06    -8.57004E+06     179.889E+06     115.090E+06    -1.96129E+06         45.4255
            1787     947.233E-06     101.413E-03     378.469E-03    -66.5223E-03    -367.365E-03     342.228E-03    -111.327E-03    -286.319E-03     225.379E-03     109.552E-03    -54.6655E-03    -54.8743E-03    -54.7220E-03     109.545E-03    -54.8107E-03     1.70702E-03    -33.3721E+06    -38.0186E+06    -164.613E+06    -36.2456E+06    -163.787E+06    -35.9711E+06    -9.72791E+06         28.0058
            1788     1.89385E-03     101.417E-03     69.6798E-03     33.9599E-03    -157.361E-03     61.0083E-03    -149.293E-03     34.5641E-03     52.3797E-03     109.550E-03    -54.6171E-03    -54.8974E-03    -54.7297E-03     109.520E-03    -54.7555E-03     4.19242E-03    -31.0445E+06    -36.5107E+06    -148.823E+06    -33.5673E+06    -147.277E+06    -35.5335E+06    -13.0041E+06         28.1299
            1789     2.84062E-03     101.421E-03     72.1216E-03     41.7035E-03    -169.483E-03     57.8891E-03    -157.137E-03     43.5900E-03     25.5635E-03     109.670E-03    -54.7117E-03    -54.9433E-03    -54.8000E-03     109.604E-03    -54.7896E-03     6.45971E-03    -27.1515E+06    -31.8169E+06    -133.069E+06    -31.5409E+06    -129.981E+06    -30.5148E+06    -17.3074E+06         28.2992
            1790     3.78693E-03     101.428E-03     60.2166E-03     40.4853E-03    -156.586E-03     36.6803E-03    -137.588E-03     45.0240E-03     35.4217E-03     109.586E-03    -54.7380E-03    -54.8711E-03    -54.6647E-03     109.468E-03    -54.8262E-03     8.69423E-03    -18.1543E+06    -23.9115E+06    -127.433E+06    -27.1226E+06    -122.759E+06    -19.6175E+06    -21.6027E+06         28.5172
            1791     4.73418E-03     101.436E-03     57.9803E-03     30.8862E-03    -140.529E-03     31.5267E-03    -126.144E-03     42.9547E-03     67.7916E-03     109.523E-03    -54.7034E-03    -54.8006E-03    -54.5384E-03     109.349E-03    -54.7921E-03     10.6172E-03    -11.7063E+06    -17.0206E+06    -129.316E+06    -23.9549E+06    -122.381E+06    -11.7063E+06    -26.8356E+06         28.7873
            1792     5.68161E-03     101.447E-03     62.0158E-03     26.1275E-03    -141.849E-03     45.2516E-03    -141.103E-03     42.1452E-03     19.1729E-03     109.654E-03    -54.7429E-03    -54.8746E-03    -54.6221E-03     109.414E-03    -54.7553E-03     12.4999E-03    -8.87434E+06    -16.4135E+06    -127.076E+06    -24.3448E+06    -116.242E+06     -11.777E+06    -32.9763E+06         29.1212
            1793     6.62840E-03     101.458E-03     60.4658E-03     36.4960E-03    -156.073E-03     52.9462E-03    -155.154E-03     43.0973E-03     16.7580E-03     109.693E-03    -54.7358E-03    -55.0117E-03    -54.6842E-03     109.366E-03    -54.7358E-03     14.6373E-03    -10.1038E+06    -16.8146E+06    -122.755E+06    -27.0199E+06    -108.153E+06    -14.5005E+06    -37.2358E+06         29.5327
            1794     7.57512E-03     101.473E-03     45.7967E-03     30.6596E-03    -136.920E-03     26.4717E-03    -129.649E-03     42.7144E-03    -41.2344E-03     109.706E-03    -54.7722E-03    -55.0148E-03    -54.5947E-03     109.286E-03    -54.7722E-03     16.5743E-03    -9.88692E+06    -15.6088E+06    -122.762E+06    -28.2396E+06    -104.409E+06    -15.6088E+06    -41.5518E+06         30.0402
            1795     8.52187E-03     101.488E-03     39.9623E-03     17.2593E-03    -115.725E-03     10.1347E-03    -108.601E-03     39.9623E-03    -37.4535E-03     109.765E-03    -54.7288E-03    -54.9745E-03    -54.4275E-03     109.218E-03    -54.7288E-03     18.8694E-03    -4.89373E+06    -15.3947E+06    -121.768E+06    -26.8425E+06    -99.8191E+06    -15.3947E+06    -45.6003E+06         30.6676
            1796     9.46902E-03     101.507E-03     49.0333E-03     26.5109E-03    -131.910E-03     36.0716E-03    -130.578E-03     38.1403E-03     23.3756E-03     109.880E-03    -54.6687E-03    -55.0934E-03    -54.3771E-03     109.164E-03    -54.6687E-03     21.6013E-03     1.35645E+06    -18.9272E+06    -120.801E+06    -26.7156E+06    -92.7292E+06    -18.9272E+06    -51.1736E+06         31.4191
            1797     10.4159E-03     101.527E-03     56.7274E-03     37.7320E-03    -151.146E-03     54.2130E-03    -149.613E-03     38.7132E-03     17.0627E-03     109.978E-03    -54.6770E-03    -55.3597E-03    -54.3981E-03     109.016E-03    -54.6770E-03     25.0295E-03     5.08626E+06    -27.9860E+06    -121.112E+06    -29.1589E+06    -86.8663E+06    -27.9860E+06    -56.0561E+06         32.2986
            1798     11.3634E-03     101.552E-03     48.0810E-03     37.4186E-03    -140.403E-03     44.8496E-03    -139.391E-03     39.6389E-03     9.87986E-03     110.155E-03    -54.6084E-03    -55.6855E-03    -54.3239E-03     108.793E-03    -54.6084E-03     29.7887E-03     6.03837E+06    -34.7183E+06    -113.318E+06    -31.2738E+06    -76.0059E+06    -34.7183E+06    -55.1253E+06         33.3274
            1799     12.3102E-03     101.583E-03     41.7922E-03     32.5860E-03    -127.879E-03     33.8031E-03    -126.938E-03     39.6337E-03     16.1315E-03     110.432E-03    -54.4837E-03    -56.0061E-03    -53.9426E-03     108.368E-03    -54.4837E-03     36.5921E-03     11.5142E+06    -42.9052E+06    -93.1250E+06    -31.2889E+06    -50.3219E+06    -42.9052E+06    -50.9745E+06         34.6514
            1800     13.2582E-03     101.623E-03     45.5704E-03     33.7787E-03    -134.378E-03     39.3791E-03    -133.771E-03     39.3629E-03    -6.57559E-03     111.098E-03    -54.3890E-03    -56.7484E-03    -53.1540E-03     107.503E-03    -54.3890E-03     48.0299E-03     30.7822E+06    -42.0171E+06    -62.1712E+06    -28.8546E+06    -1.78746E+06    -42.7640E+06    -40.2160E+06         36.5660
            1801     14.2064E-03     101.680E-03     51.9749E-03     38.8777E-03    -147.640E-03     50.6748E-03    -147.097E-03     39.6346E-03    -17.1911E-03     109.806E-03    -54.0600E-03    -55.7525E-03    -51.9121E-03     106.171E-03    -54.2647E-03     48.0301E-03     96.1718E+06    -22.1318E+06    -32.8744E+06    -24.2112E+06     88.2555E+06    -22.8787E+06    -22.9125E+06         39.2297
            1802     15.1569E-03     101.720E-03     54.1533E-03     40.2958E-03    -151.191E-03     53.7561E-03    -150.794E-03     40.2958E-03    -1.60496E-03     110.993E-03    -54.0868E-03    -56.8771E-03    -50.8569E-03     105.178E-03    -54.2916E-03     58.8837E-03     161.342E+06     34.7082E+06    -16.9882E+06    -16.1628E+06     160.517E+06     34.7082E+06    -9.45861E+06         42.3976
            1803     16.1080E-03     101.801E-03     53.3829E-03     35.7929E-03    -141.811E-03     46.5184E-03    -139.920E-03     40.7665E-03     9.85266E-03     108.828E-03    -51.7933E-03    -57.0266E-03    -49.7875E-03     104.236E-03    -54.4410E-03     43.3962E-03     177.260E+06     105.765E+06    -7.46925E+06    -7.40376E+06     177.195E+06     105.765E+06    -2.96896E+06         45.3830
            1804     946.222E-06     102.529E-03     345.877E-03    -32.1106E-03    -362.973E-03     312.193E-03    -69.8776E-03    -291.522E-03     143.097E-03     109.219E-03    -54.3885E-03    -54.8220E-03    -54.7392E-03     109.210E-03    -54.4624E-03     2.14014E-03    -11.8227E+06    -21.0052E+06    -145.544E+06    -17.2317E+06    -144.679E+06    -16.4604E+06    -8.66827E+06         27.9573
            1805     1.89396E-03     102.530E-03     79.2342E-03     22.5706E-03    -148.722E-03     72.0315E-03    -141.520E-03     22.5706E-03    -20.4042E-03     108.802E-03    -54.2619E-03    -54.5171E-03    -54.2256E-03     108.765E-03    -54.5171E-03     4.59142E-03    -13.7137E+06    -23.3662E+06    -136.761E+06    -19.2468E+06    -134.702E+06    -19.8917E+06    -15.0424E+06         28.0728
            1806     2.84169E-03     102.537E-03     78.9070E-03     39.9703E-03    -171.493E-03     70.6433E-03    -163.229E-03     39.9703E-03    -48.3487E-03     108.565E-03    -54.1348E-03    -54.4146E-03    -54.0958E-03     108.481E-03    -54.3697E-03     7.27996E-03    -14.0481E+06    -21.9827E+06    -121.077E+06    -17.9348E+06    -117.191E+06    -21.9827E+06    -19.7500E+06         28.2247
            1807     3.78919E-03     102.543E-03     65.9658E-03     43.4437E-03    -164.277E-03     54.9600E-03    -155.924E-03     46.0958E-03    -43.2910E-03     108.699E-03    -54.2479E-03    -54.4571E-03    -54.2319E-03     108.550E-03    -54.3248E-03     9.73986E-03    -12.3404E+06    -17.3286E+06    -117.661E+06    -18.2164E+06    -112.428E+06    -16.6859E+06    -22.8009E+06         28.4289
            1808     4.73650E-03     102.551E-03     48.9732E-03     31.7199E-03    -136.594E-03     31.1749E-03    -132.750E-03     45.6748E-03    -6.59247E-03     108.845E-03    -54.3099E-03    -54.5317E-03    -54.2759E-03     108.625E-03    -54.3455E-03     11.9310E-03    -7.08010E+06    -11.4206E+06    -117.324E+06    -18.2517E+06    -110.493E+06    -7.08010E+06    -25.8545E+06         28.6926
            1809     5.68346E-03     102.561E-03     41.6042E-03     18.2098E-03    -118.608E-03     10.9134E-03    -111.312E-03     41.6042E-03    -39.4193E-03     109.039E-03    -54.3682E-03    -54.6580E-03    -54.3436E-03     108.737E-03    -54.3806E-03     13.9529E-03    -1.00993E+06    -7.57527E+06    -113.504E+06    -16.7316E+06    -104.347E+06    -1.00993E+06    -29.7202E+06         29.0224
            1810     6.63046E-03     102.574E-03     38.8155E-03     22.0083E-03    -125.671E-03     17.6860E-03    -120.089E-03     37.5560E-03    -16.1185E-03     109.044E-03    -54.3631E-03    -54.7224E-03    -54.3068E-03     108.629E-03    -54.3631E-03     16.3563E-03     899.989E+03    -4.58226E+06    -109.937E+06    -14.6373E+06    -97.2674E+06    -1.71468E+06    -34.5189E+06         29.4291
            1811     7.57773E-03     102.588E-03     43.6559E-03     31.3456E-03    -140.327E-03     33.4299E-03    -134.649E-03     35.8938E-03    -15.3847E-03     108.960E-03    -54.3662E-03    -54.6834E-03    -54.1392E-03     108.416E-03    -54.3662E-03     18.7397E-03     2.29602E+06    -4.20524E+06    -108.633E+06    -13.9942E+06    -92.3429E+06    -4.20524E+06    -39.2199E+06         29.9304
            1812     8.52540E-03     102.604E-03     47.2895E-03     29.2701E-03    -134.506E-03     35.6319E-03    -129.245E-03     35.6662E-03    -24.3221E-03     109.070E-03    -54.3197E-03    -54.7339E-03    -54.0292E-03     108.365E-03    -54.3197E-03     21.3370E-03     6.47405E+06    -5.54279E+06    -109.664E+06    -14.9717E+06    -88.2180E+06    -5.54279E+06    -44.7647E+06         30.5501
            1813     9.47313E-03     102.621E-03     57.4065E-03     31.0274E-03    -142.661E-03     50.2700E-03    -140.828E-03     36.3313E-03     2.86061E-03     109.399E-03    -54.2628E-03    -55.0358E-03    -54.1204E-03     108.483E-03    -54.2628E-03     24.3832E-03     10.5959E+06    -8.60886E+06    -107.774E+06    -15.5138E+06    -81.6639E+06    -8.60886E+06    -48.8734E+06         31.2947
            1814     10.4204E-03     102.643E-03     62.8269E-03     38.0548E-03    -153.984E-03     60.9534E-03    -152.110E-03     38.0548E-03     18.0627E-03     109.815E-03    -54.2911E-03    -55.4760E-03    -54.3087E-03     108.647E-03    -54.2911E-03     27.5998E-03     9.43330E+06    -15.7854E+06    -107.299E+06    -19.0111E+06    -78.8545E+06    -15.7854E+06    -49.8774E+06         32.1762
            1815     11.3670E-03     102.667E-03     48.0107E-03     34.3735E-03    -134.439E-03     42.2072E-03    -133.455E-03     39.1931E-03     17.0670E-03     109.954E-03    -54.2426E-03    -55.7790E-03    -54.1956E-03     108.371E-03    -54.2426E-03     32.0909E-03     10.6736E+06    -25.7577E+06    -105.117E+06    -24.0603E+06    -70.3828E+06    -25.7577E+06    -52.8373E+06         33.2173
            1816     12.3150E-03     102.697E-03     38.7824E-03     26.7304E-03    -117.899E-03     25.9377E-03    -117.107E-03     38.7824E-03     6.88356E-03     110.357E-03    -54.1700E-03    -56.3141E-03    -53.9606E-03     108.003E-03    -54.1700E-03     39.0820E-03     15.8524E+06    -36.3302E+06    -92.7235E+06    -25.3703E+06    -51.5008E+06    -36.3302E+06    -52.2860E+06         34.5520
            1817     13.2619E-03     102.737E-03     38.4480E-03     29.9401E-03    -121.248E-03     29.1895E-03    -119.978E-03     37.9293E-03    -15.7961E-03     111.285E-03    -54.0842E-03    -57.2875E-03    -53.3235E-03     107.321E-03    -54.0842E-03     50.5427E-03     29.5496E+06    -39.8286E+06    -66.6166E+06    -23.7102E+06    -12.6099E+06    -40.5756E+06    -45.1843E+06         36.4723
            1818     14.2113E-03     102.792E-03     43.1276E-03     30.0931E-03    -129.383E-03     34.5244E-03    -128.147E-03     37.4600E-03    -17.2994E-03     109.854E-03    -53.8163E-03    -56.0536E-03    -51.9288E-03     105.833E-03    -53.9199E-03     50.5984E-03     83.8438E+06    -25.6953E+06    -39.4524E+06    -18.1590E+06     68.4883E+06    -31.6331E+06    -31.2625E+06         39.1467
            1819     15.1610E-03     102.832E-03     44.4654E-03     30.2683E-03    -132.027E-03     36.8277E-03    -131.331E-03     37.2102E-03    -13.6976E-03     110.916E-03    -53.8075E-03    -57.0629E-03    -50.7642E-03     104.720E-03    -53.9111E-03     61.0516E-03     148.480E+06     22.8224E+06    -19.6288E+06    -12.6174E+06     146.659E+06     17.6315E+06    -14.0362E+06         42.3288
            1820     16.1126E-03     102.911E-03     50.3189E-03     37.0042E-03    -146.352E-03     48.3060E-03    -144.671E-03     37.3360E-03    -32.0573E-03     108.339E-03    -51.3300E-03    -56.9992E-03    -49.4548E-03     103.540E-03    -54.0748E-03     44.4170E-03     172.462E+06     93.0458E+06    -7.14608E+06    -7.01024E+06     172.326E+06     93.0458E+06    -4.00022E+06         45.3246
            1821     948.441E-06     103.643E-03     275.117E-03    -13.5284E-03    -308.905E-03     265.877E-03    -77.9238E-03    -235.269E-03     32.3563E-03     107.485E-03    -53.4764E-03    -54.0115E-03    -53.9938E-03     107.468E-03    -53.4779E-03     2.97676E-03    -3.35425E+06    -11.2697E+06    -128.967E+06    -8.39226E+06    -128.250E+06    -6.94877E+06    -7.45138E+06         27.8428
            1822     1.89519E-03     103.645E-03     66.9332E-03     22.7527E-03    -138.627E-03     52.8025E-03    -124.497E-03     22.7527E-03     6.80018E-03     107.487E-03    -53.6157E-03    -53.8673E-03    -53.6980E-03     107.434E-03    -53.7325E-03     5.60785E-03     410.226E+03    -8.34881E+06    -119.135E+06    -5.98724E+06    -116.910E+06    -4.17697E+06    -15.2136E+06         27.9600
            1823     2.84338E-03     103.650E-03     59.4065E-03     26.4319E-03    -140.582E-03     43.4060E-03    -130.304E-03     32.1549E-03    -796.097E-06     107.092E-03    -53.4534E-03    -53.6598E-03    -53.3683E-03     106.972E-03    -53.6246E-03     8.58873E-03    -2.71423E+06    -10.9010E+06    -109.750E+06    -7.27881E+06    -105.883E+06    -10.2036E+06    -19.7539E+06         28.1078
            1824     3.79189E-03     103.657E-03     50.2882E-03     29.0117E-03    -135.974E-03     40.6426E-03    -132.052E-03     34.7347E-03    -17.9251E-03     107.217E-03    -53.5223E-03    -53.7433E-03    -53.4840E-03     107.014E-03    -53.5783E-03     11.3021E-03    -2.31648E+06    -8.09951E+06    -107.530E+06    -8.58264E+06    -102.599E+06    -6.76429E+06    -22.0326E+06         28.3028
            1825     4.73955E-03     103.665E-03     47.3872E-03     34.0655E-03    -135.631E-03     41.5193E-03    -131.649E-03     35.9518E-03    -860.258E-06     107.547E-03    -53.6003E-03    -53.9805E-03    -53.6774E-03     107.244E-03    -53.6003E-03     13.8330E-03     3.51532E+06    -1.44922E+06    -106.629E+06    -7.08073E+06    -100.290E+06     2.80823E+06    -25.0261E+06         28.5558
            1826     5.68734E-03     103.676E-03     46.6892E-03     28.6236E-03    -132.764E-03     30.7484E-03    -124.200E-03     36.0002E-03    -20.0690E-03     107.604E-03    -53.6095E-03    -53.9956E-03    -53.5627E-03     107.172E-03    -53.6095E-03     16.5655E-03     8.39559E+06     4.08138E+06    -101.354E+06    -4.27509E+06    -92.1592E+06     7.55712E+06    -29.6670E+06         28.8690
            1827     6.63552E-03     103.688E-03     38.5030E-03     24.8747E-03    -123.267E-03     20.1215E-03    -114.526E-03     34.5161E-03     17.6244E-03     107.637E-03    -53.6316E-03    -54.0308E-03    -53.4418E-03     107.048E-03    -53.6316E-03     19.3510E-03     11.4493E+06     8.15488E+06    -99.0361E+06    -1.87593E+06    -86.7644E+06     9.20847E+06    -34.4437E+06         29.2547
            1828     7.58366E-03     103.702E-03     39.7488E-03     25.6489E-03    -124.165E-03     29.0976E-03    -121.111E-03     33.2461E-03     32.8869E-03     107.774E-03    -53.6321E-03    -54.1980E-03    -53.4323E-03     107.009E-03    -53.6321E-03     22.0942E-03     15.0936E+06     9.01937E+06    -97.3310E+06     -342.11E+03    -82.3953E+06     9.51944E+06    -37.9837E+06         29.7384
            1829     8.53145E-03     103.718E-03     45.0300E-03     29.8213E-03    -132.952E-03     40.9140E-03    -132.421E-03     33.4068E-03    -1.70658E-03     108.090E-03    -53.6055E-03    -54.4885E-03    -53.5212E-03     107.123E-03    -53.6055E-03     24.8638E-03     17.6987E+06     10.1816E+06    -94.8272E+06    -1.00597E+06    -76.1225E+06     10.1816E+06    -41.5144E+06         30.3450
            1830     9.47968E-03     103.735E-03     45.8123E-03     34.0263E-03    -134.434E-03     41.8668E-03    -130.627E-03     34.1657E-03    -39.8015E-03     108.658E-03    -53.5945E-03    -55.0241E-03    -53.7783E-03     107.412E-03    -53.5945E-03     28.2671E-03     16.0773E+06     5.96930E+06    -96.0975E+06    -5.25355E+06    -74.7666E+06     5.96930E+06    -43.7572E+06         31.0843
            1831     10.4268E-03     103.757E-03     45.9801E-03     34.7929E-03    -134.686E-03     42.2252E-03    -130.931E-03     34.7929E-03    -27.5352E-03     109.207E-03    -53.6086E-03    -55.5330E-03    -53.9779E-03     107.652E-03    -53.6086E-03     31.6926E-03     15.9201E+06    -1.59933E+06    -95.4802E+06    -7.99669E+06    -71.5634E+06    -1.59933E+06    -45.5862E+06         31.9691
            1832     11.3743E-03     103.781E-03     49.3194E-03     32.8235E-03    -135.826E-03     45.6656E-03    -134.771E-03     35.4228E-03    -12.6926E-03     109.605E-03    -53.6209E-03    -55.9870E-03    -53.9446E-03     107.563E-03    -53.6209E-03     36.2971E-03     19.8335E+06    -8.81169E+06    -89.9764E+06    -9.70580E+06    -60.4371E+06    -8.81169E+06    -48.4365E+06         33.0168
            1833     12.3216E-03     103.812E-03     48.5960E-03     30.9685E-03    -132.793E-03     42.7101E-03    -131.911E-03     35.9727E-03    -14.4999E-03     110.190E-03    -53.6037E-03    -56.6725E-03    -53.7582E-03     107.276E-03    -53.6037E-03     43.4445E-03     21.7703E+06    -22.7095E+06    -85.5651E+06    -13.7021E+06    -50.0927E+06    -22.7095E+06    -50.3218E+06         34.3733
            1834     13.2705E-03     103.851E-03     39.8390E-03     31.2680E-03    -122.824E-03     30.9700E-03    -118.619E-03     35.9324E-03    -31.5948E-03     111.346E-03    -53.5347E-03    -57.8777E-03    -53.3481E-03     106.816E-03    -53.5347E-03     54.1888E-03     32.1190E+06    -29.8276E+06    -66.2182E+06    -16.4727E+06    -17.6265E+06    -29.8276E+06    -47.1001E+06         36.3312
            1835     14.2190E-03     103.905E-03     35.5960E-03     22.1097E-03    -109.672E-03     18.4178E-03    -105.461E-03     35.0773E-03    -32.6160E-03     110.346E-03    -53.4094E-03    -56.9353E-03    -52.4787E-03     105.889E-03    -53.4094E-03     53.4443E-03     73.6525E+06    -20.2585E+06    -42.4704E+06    -17.0942E+06     53.4672E+06    -25.4494E+06    -37.1798E+06         39.0368
            1836     15.1690E-03     103.944E-03     34.5881E-03     22.9967E-03    -107.368E-03     22.8444E-03    -106.664E-03     34.0367E-03    -10.7589E-03     111.149E-03    -53.3575E-03    -57.7517E-03    -51.1608E-03     104.558E-03    -53.3575E-03     63.2744E-03     132.327E+06     8.62086E+06    -21.8949E+06    -12.4651E+06     128.088E+06     3.42995E+06    -19.2984E+06         42.2407
            1837     16.1195E-03     104.022E-03     39.2277E-03     28.2649E-03    -119.788E-03     32.1481E-03    -117.973E-03     33.5291E-03    -30.2685E-03     107.723E-03    -50.7314E-03    -56.9856E-03    -49.1568E-03     102.680E-03    -53.5174E-03     45.7404E-03     163.712E+06     74.4915E+06    -6.81717E+06    -6.62565E+06     163.520E+06     74.4915E+06    -4.38879E+06         45.2573
            1838     948.989E-06     104.755E-03     251.732E-03    -53.5253E-03    -253.539E-03     234.011E-03    -155.428E-03    -133.916E-03     34.2032E-03     104.474E-03    -51.9288E-03    -52.5504E-03    -52.5098E-03     104.446E-03    -51.9415E-03     3.98520E-03     9.24878E+06     4.68375E+06    -110.873E+06     6.35083E+06    -109.986E+06     6.69419E+06    -9.10885E+06         27.6504
            1839     1.89870E-03     104.757E-03     59.0766E-03     24.4067E-03    -139.015E-03     23.6894E-03    -123.985E-03     44.7633E-03     18.7463E-03     104.828E-03    -52.2764E-03    -52.5529E-03    -52.4612E-03     104.749E-03    -52.2891E-03     6.75634E-03     9.92016E+06     6.08932E+06    -103.446E+06     5.99465E+06    -101.382E+06     7.95062E+06    -14.5516E+06         27.7638
            1840     2.84724E-03     104.761E-03     43.8998E-03     13.3568E-03    -111.232E-03     10.4809E-03    -99.8288E-03     35.3727E-03     17.5942E-03     105.073E-03    -52.3660E-03    -52.7179E-03    -52.5348E-03     104.892E-03    -52.3683E-03     10.4611E-03     10.7437E+06     6.67451E+06    -98.0994E+06     5.40465E+06    -94.8401E+06     8.75428E+06    -18.2064E+06         27.9017
            1841     3.79609E-03     104.768E-03     30.7887E-03     18.2558E-03    -100.456E-03     14.4209E-03    -95.1860E-03     29.3537E-03    -7.20275E-03     105.058E-03    -52.3857E-03    -52.6967E-03    -52.3773E-03     104.740E-03    -52.3879E-03     13.9379E-03     12.3834E+06     6.08622E+06    -97.3566E+06     5.74616E+06    -92.9387E+06     8.30551E+06    -21.2890E+06         28.0782
            1842     4.74524E-03     104.777E-03     43.9006E-03     26.7452E-03    -124.298E-03     39.5789E-03    -121.795E-03     28.5645E-03     10.8916E-03     105.076E-03    -52.3805E-03    -52.7333E-03    -52.2486E-03     104.591E-03    -52.3805E-03     17.2325E-03     15.0641E+06     10.6525E+06    -95.3552E+06     7.44591E+06    -88.5739E+06     11.4894E+06    -26.0898E+06         28.3133
            1843     5.69432E-03     104.787E-03     56.8016E-03     31.4946E-03    -139.103E-03     53.8408E-03    -136.142E-03     31.4946E-03    -2.94378E-03     105.281E-03    -52.3779E-03    -52.9221E-03    -52.2395E-03     104.598E-03    -52.3779E-03     20.4999E-03     18.7335E+06     17.3498E+06    -91.0316E+06     9.38806E+06    -81.8761E+06     17.5397E+06    -30.0777E+06         28.6133
            1844     6.64357E-03     104.799E-03     45.0734E-03     31.2459E-03    -124.327E-03     38.4647E-03    -120.140E-03     33.6675E-03     17.4960E-03     105.528E-03    -52.3858E-03    -53.1482E-03    -52.2309E-03     104.610E-03    -52.3858E-03     23.7900E-03     21.6651E+06     20.2955E+06    -88.1392E+06     9.35536E+06    -77.0677E+06     21.5337E+06    -32.6118E+06         28.9842
            1845     7.59255E-03     104.813E-03     33.4535E-03     27.4974E-03    -110.608E-03     23.4438E-03    -106.466E-03     33.3652E-03    -1.57118E-03     105.860E-03    -52.3711E-03    -53.5099E-03    -52.3190E-03     104.669E-03    -52.3711E-03     27.1644E-03     23.7147E+06     20.3438E+06    -86.5632E+06     8.34483E+06    -72.2417E+06     21.3922E+06    -36.7672E+06         29.4515
            1846     8.54184E-03     104.829E-03     34.3538E-03     28.9239E-03    -116.311E-03     28.5699E-03    -114.112E-03     32.5094E-03    -11.8547E-03     106.483E-03    -52.3771E-03    -54.1275E-03    -52.6076E-03     104.963E-03    -52.3771E-03     30.7752E-03     23.3720E+06     18.9239E+06    -85.6348E+06     7.16084E+06    -70.7616E+06     20.2618E+06    -37.0869E+06         30.0405
            1847     9.49004E-03     104.848E-03     34.9748E-03     24.9167E-03    -117.156E-03     21.3486E-03    -110.368E-03     31.7542E-03    -595.984E-06     107.339E-03    -52.4278E-03    -54.9176E-03    -52.9672E-03     105.389E-03    -52.4278E-03     35.0047E-03     22.8128E+06     17.3906E+06    -82.8764E+06     5.17232E+06    -66.5739E+06     18.7286E+06    -37.6082E+06         30.7684
            1848     10.4388E-03     104.869E-03     32.6764E-03     17.8888E-03    -107.764E-03     13.6915E-03    -101.323E-03     30.4324E-03    -7.92823E-03     108.085E-03    -52.4399E-03    -55.6373E-03    -53.2734E-03     105.721E-03    -52.4399E-03     38.7720E-03     22.2725E+06     8.78013E+06    -83.7059E+06     1.63138E+06    -63.0648E+06     8.78013E+06    -41.9040E+06         31.6491
            1849     11.3868E-03     104.894E-03     47.3441E-03     24.1607E-03    -123.820E-03     40.2731E-03    -122.595E-03     30.0061E-03    -24.6503E-03     108.928E-03    -52.5045E-03    -56.4490E-03    -53.5045E-03     105.983E-03    -52.5045E-03     43.4156E-03     24.2969E+06     1.91177E+06    -79.1872E+06    -1.89989E+06    -52.9904E+06     1.91177E+06    -44.5117E+06         32.7118
            1850     12.3351E-03     104.925E-03     60.7183E-03     31.3707E-03    -139.753E-03     59.4667E-03    -138.501E-03     31.3707E-03    -18.1896E-03     110.172E-03    -52.5593E-03    -57.6531E-03    -53.7386E-03     106.258E-03    -52.5593E-03     50.3727E-03     24.5557E+06    -7.18852E+06    -75.1748E+06    -5.75264E+06    -44.8665E+06    -7.18852E+06    -45.6082E+06         34.1291
            1851     13.2826E-03     104.963E-03     46.0299E-03     30.3219E-03    -123.127E-03     40.7006E-03    -120.057E-03     32.5813E-03    -14.0342E-03     112.025E-03    -52.5711E-03    -59.4897E-03    -53.8856E-03     106.420E-03    -52.5711E-03     60.5674E-03     31.6896E+06    -16.4211E+06    -61.8766E+06    -10.4672E+06    -19.7198E+06    -16.4211E+06    -43.7946E+06         36.1669
            1852     14.2309E-03     105.018E-03     33.4614E-03     26.1077E-03    -106.245E-03     24.0767E-03    -103.218E-03     32.4653E-03    -16.5653E-03     111.279E-03    -52.6033E-03    -58.6768E-03    -53.2824E-03     105.884E-03    -52.6033E-03     59.0488E-03     64.4293E+06    -10.5072E+06    -33.7659E+06    -13.0087E+06     43.6721E+06    -10.5072E+06    -36.0338E+06         38.9246
            1853     15.1787E-03     105.056E-03     32.8366E-03     26.1298E-03    -107.342E-03     26.9649E-03    -107.289E-03     31.9484E-03    -2.09568E-03     112.026E-03    -52.5725E-03    -59.4172E-03    -51.9718E-03     104.580E-03    -52.5725E-03     67.9460E-03     114.756E+06    -1.77533E+06    -19.9833E+06    -14.3382E+06     109.111E+06    -1.77533E+06    -23.4053E+06         42.1593
            1854     16.1313E-03     105.131E-03     32.0370E-03     23.6656E-03    -103.034E-03     22.8890E-03    -101.706E-03     31.4855E-03     78.1530E-06     107.997E-03    -50.5023E-03    -57.4866E-03    -49.7480E-03     102.469E-03    -52.7129E-03     48.0909E-03     151.631E+06     51.2542E+06    -10.0108E+06    -8.91801E+06     150.539E+06     51.2542E+06    -8.89408E+06         45.2054
            1855     951.411E-06     105.863E-03     205.521E-03    -87.7427E-03    -186.061E-03     160.160E-03    -154.430E-03    -74.0129E-03     58.5011E-03     100.299E-03    -49.8536E-03    -50.4694E-03    -50.3222E-03     100.255E-03    -49.9571E-03     4.89732E-03     20.8575E+06     15.4035E+06    -95.3622E+06     15.8029E+06    -94.7527E+06     19.8486E+06    -6.29545E+06         27.3519
            1856     1.90218E-03     105.865E-03     50.8109E-03     7.47873E-03    -115.728E-03    -1.94357E-03    -89.4401E-03     33.9457E-03    -83.1759E-03     100.860E-03    -50.2280E-03    -50.6482E-03    -50.5078E-03     100.733E-03    -50.2407E-03     8.41594E-03     21.2516E+06     17.4633E+06    -89.0740E+06     16.0629E+06    -87.2497E+06     20.8277E+06    -13.2038E+06         27.4648
            1857     2.85313E-03     105.871E-03     59.2634E-03     9.41304E-03    -123.745E-03     30.8456E-03    -111.620E-03     25.7058E-03    -45.2107E-03     101.353E-03    -50.3624E-03    -50.9623E-03    -50.6872E-03     101.078E-03    -50.3624E-03     12.6824E-03     22.0271E+06     17.2745E+06    -86.6399E+06     16.7182E+06    -83.7906E+06     19.7342E+06    -17.0484E+06         27.5936
            1858     3.80325E-03     105.876E-03     43.7126E-03     21.0475E-03    -118.165E-03     31.0884E-03    -111.513E-03     27.0203E-03     7.29887E-03     101.296E-03    -50.4044E-03    -50.8712E-03    -50.3783E-03     100.803E-03    -50.4044E-03     17.0022E-03     23.1388E+06     17.2445E+06    -86.2859E+06     17.1465E+06    -81.8065E+06     18.7574E+06    -21.2462E+06         27.7498
            1859     4.75473E-03     105.885E-03     34.3373E-03     20.0845E-03    -101.691E-03     23.2440E-03    -97.6514E-03     27.1381E-03     4.79005E-03     101.166E-03    -50.3712E-03    -50.8029E-03    -50.0172E-03     100.380E-03    -50.3712E-03     21.5066E-03     23.7516E+06     17.9901E+06    -83.4931E+06     16.6604E+06    -76.5325E+06     18.1206E+06    -26.1345E+06         27.9558
            1860     5.70602E-03     105.896E-03     45.6396E-03     22.9027E-03    -109.749E-03     37.2990E-03    -106.045E-03     27.5391E-03    -11.9841E-03     101.512E-03    -50.3389E-03    -51.1822E-03    -50.0579E-03     100.388E-03    -50.3389E-03     25.7886E-03     24.0904E+06     20.1244E+06    -83.1711E+06     15.0785E+06    -75.0065E+06     20.9717E+06    -28.2521E+06         28.2279
            1861     6.65696E-03     105.908E-03     46.5714E-03     27.4668E-03    -114.740E-03     41.8366E-03    -111.731E-03     29.1934E-03     8.38467E-03     102.092E-03    -50.3002E-03    -51.7870E-03    -50.2553E-03     100.560E-03    -50.3002E-03     30.1783E-03     26.2519E+06     23.8109E+06    -77.7744E+06     14.4627E+06    -67.3807E+06     25.2065E+06    -30.5287E+06         28.5826
            1862     7.60805E-03     105.922E-03     44.3320E-03     28.8978E-03    -117.315E-03     40.0827E-03    -114.792E-03     30.6244E-03    -20.2412E-03     102.779E-03    -50.3177E-03    -52.4785E-03    -50.4849E-03     100.786E-03    -50.3177E-03     34.5692E-03     30.0272E+06     23.9117E+06    -75.7583E+06     13.5561E+06    -63.5716E+06     28.1962E+06    -32.6154E+06         29.0408
            1863     8.55828E-03     105.938E-03     40.3456E-03     28.1470E-03    -114.872E-03     34.5827E-03    -112.321E-03     31.3585E-03    -18.5832E-03     103.795E-03    -50.3861E-03    -53.4350E-03    -50.8798E-03     101.240E-03    -50.3861E-03     39.3080E-03     29.3407E+06     21.7172E+06    -80.1201E+06     11.8497E+06    -67.7033E+06     26.7913E+06    -33.4232E+06         29.6173
            1864     9.50909E-03     105.958E-03     32.5725E-03     18.8096E-03    -101.884E-03     16.7495E-03    -98.0673E-03     30.8164E-03     27.2181E-03     105.172E-03    -50.4576E-03    -54.6857E-03    -51.4799E-03     101.966E-03    -50.4576E-03     44.3931E-03     29.9397E+06     20.6771E+06    -73.1940E+06     10.8637E+06    -59.3361E+06     25.8952E+06    -34.0149E+06         30.3371
            1865     10.4584E-03     105.980E-03     29.2677E-03     14.1039E-03    -93.3343E-03     10.6184E-03    -89.8488E-03     29.2677E-03     22.5505E-03     106.636E-03    -50.5587E-03    -56.0581E-03    -52.2990E-03     102.877E-03    -50.5587E-03     48.5141E-03     26.3213E+06     15.7550E+06    -71.4588E+06     7.33589E+06    -56.3535E+06     19.6351E+06    -34.3926E+06         31.2390
            1866     11.4072E-03     106.006E-03     35.6815E-03     21.1723E-03    -102.504E-03     26.1590E-03    -100.168E-03     28.3584E-03     7.29378E-03     108.282E-03    -50.7140E-03    -57.6039E-03    -53.1444E-03     103.822E-03    -50.7140E-03     53.2833E-03     22.4393E+06     11.2852E+06    -66.6779E+06     129.878E+03    -44.3684E+06     11.2852E+06    -37.4386E+06         32.3717
            1867     12.3554E-03     106.037E-03     45.8444E-03     27.8661E-03    -120.541E-03     39.1883E-03    -114.702E-03     28.6837E-03     31.4697E-03     110.514E-03    -50.9095E-03    -59.6251E-03    -54.1148E-03     105.004E-03    -50.9095E-03     59.9423E-03     21.4062E+06     2.95689E+06    -66.8407E+06    -5.91932E+06    -39.5151E+06     2.95689E+06    -40.5841E+06         33.8941
            1868     13.3031E-03     106.077E-03     49.6144E-03     29.6177E-03    -123.698E-03     45.9962E-03    -120.080E-03     29.6177E-03     23.5600E-03     113.098E-03    -51.0763E-03    -62.0568E-03    -54.7985E-03     105.839E-03    -51.0763E-03     69.4745E-03     29.8638E+06    -9.06761E+06    -56.7868E+06    -8.77333E+06    -18.1496E+06    -9.06761E+06    -40.0096E+06         36.0310
            1869     14.2500E-03     106.131E-03     40.9499E-03     30.2328E-03    -111.855E-03     40.6034E-03    -111.730E-03     30.4541E-03     343.099E-06     112.548E-03    -51.3042E-03    -61.2765E-03    -54.5680E-03     105.840E-03    -51.3042E-03     66.4054E-03     57.4712E+06    -5.55075E+03    -30.2698E+06    -9.06675E+06     36.2681E+06    -5.55075E+03    -35.2573E+06         38.8554
            1870     15.1997E-03     106.168E-03     30.7886E-03     22.4380E-03    -96.9451E-03     22.2492E-03    -96.4196E-03     30.4520E-03    -5.54209E-03     113.915E-03    -51.4347E-03    -62.4603E-03    -54.1178E-03     105.572E-03    -51.4347E-03     73.4182E-03     101.162E+06     10.4747E+06    -22.2605E+06    -6.43245E+06     93.7414E+06     2.06688E+06    -23.0042E+06         42.1309
            1871     16.1468E-03     106.243E-03     32.6976E-03     20.9359E-03    -93.8597E-03     22.1461E-03    -92.2680E-03     29.8957E-03    -3.33816E-03     110.444E-03    -50.8329E-03    -59.6108E-03    -52.8401E-03     104.520E-03    -51.6800E-03     49.4325E-03     138.915E+06     43.2389E+06    -16.4971E+06    -6.86746E+06     137.693E+06     34.8310E+06    -10.5746E+06         45.2046
            1872     954.048E-06     106.964E-03     178.240E-03    -56.0573E-03    -168.960E-03     119.521E-03    -55.8919E-03    -110.406E-03     151.212E-03     94.8573E-03    -47.2574E-03    -47.6162E-03    -47.3310E-03     94.7880E-03    -47.4734E-03     5.65536E-03     27.0978E+06     20.4670E+06    -82.8096E+06     23.1230E+06    -82.5800E+06     24.2122E+06    -4.35459E+06         26.9239
            1873     1.90760E-03     106.968E-03     59.3331E-03     3.60825E-03    -107.573E-03     30.1632E-03    -84.5130E-03     9.71855E-03    -16.8919E-03     95.2908E-03    -47.4583E-03    -47.8301E-03    -47.6230E-03     95.0836E-03    -47.4583E-03     10.5324E-03     28.8469E+06     25.4785E+06    -73.8656E+06     24.2524E+06    -72.6394E+06     28.8469E+06    -10.0976E+06         27.0316
            1874     2.86040E-03     106.973E-03     63.5130E-03     15.6848E-03    -122.229E-03     47.9586E-03    -110.582E-03     19.5920E-03    -2.36302E-03     95.4321E-03    -47.4936E-03    -47.8997E-03    -47.4567E-03     94.9892E-03    -47.4936E-03     15.5174E-03     29.0556E+06     24.0103E+06    -76.1099E+06     24.3737E+06    -73.2092E+06     25.7914E+06    -16.6490E+06         27.1545
            1875     3.81485E-03     106.979E-03     45.7333E-03     21.1615E-03    -110.957E-03     36.3495E-03    -106.078E-03     25.6666E-03     42.2875E-03     95.4718E-03    -47.4702E-03    -47.9804E-03    -47.1871E-03     94.6785E-03    -47.4702E-03     20.8886E-03     28.7282E+06     23.0585E+06    -74.6875E+06     24.0659E+06    -70.1556E+06     23.1891E+06    -20.8990E+06         27.2960
            1876     4.76840E-03     106.987E-03     35.8149E-03     21.1829E-03    -94.7184E-03     20.6974E-03    -84.8352E-03     26.4173E-03    -202.520E-06     95.6010E-03    -47.3886E-03    -48.2139E-03    -46.9558E-03     94.3429E-03    -47.3886E-03     26.3929E-03     27.4598E+06     22.0872E+06    -73.8814E+06     21.5786E+06    -68.3344E+06     22.4214E+06    -22.9015E+06         27.4729
            1877     5.72281E-03     106.998E-03     35.3498E-03     20.8050E-03    -92.7325E-03     20.6665E-03    -82.6856E-03     25.4414E-03     530.230E-06     96.0044E-03    -47.3051E-03    -48.6953E-03    -46.8532E-03     94.1623E-03    -47.3051E-03     32.0164E-03     25.2559E+06     21.1139E+06    -74.6167E+06     17.8581E+06    -68.0800E+06     21.9751E+06    -24.4642E+06         27.7076
            1878     6.67710E-03     107.010E-03     43.5443E-03     25.9315E-03    -108.781E-03     38.3633E-03    -103.600E-03     25.9315E-03     28.9254E-03     96.8769E-03    -47.2367E-03    -49.6061E-03    -47.0793E-03     94.3501E-03    -47.2367E-03     37.6827E-03     25.6813E+06     20.3562E+06    -67.9756E+06     13.4563E+06    -59.5128E+06     24.1184E+06    -25.8432E+06         28.0352
            1879     7.63058E-03     107.025E-03     51.3568E-03     28.1633E-03    -118.375E-03     49.8300E-03    -116.848E-03     28.1633E-03    -5.29484E-03     98.1440E-03    -47.2821E-03    -50.8582E-03    -47.5563E-03     94.8422E-03    -47.2821E-03     43.3768E-03     28.4025E+06     17.7722E+06    -68.1189E+06     8.90427E+06    -58.2056E+06     27.3571E+06    -27.1039E+06         28.4863
            1880     8.58418E-03     107.042E-03     38.8840E-03     19.5888E-03    -98.5591E-03     28.1870E-03    -97.6915E-03     29.4182E-03    -514.972E-06     99.9767E-03    -47.4317E-03    -52.5905E-03    -48.4048E-03     95.7910E-03    -47.4317E-03     49.3542E-03     29.2524E+06     14.5479E+06    -72.9671E+06     5.45743E+06    -62.1129E+06     27.4887E+06    -28.7644E+06         29.0717
            1881     9.53622E-03     107.062E-03     39.1343E-03     17.2585E-03    -96.5155E-03     26.8165E-03    -96.1244E-03     29.1852E-03     4.65108E-03     102.232E-03    -47.5723E-03    -54.6429E-03    -49.5626E-03     97.1517E-03    -47.5723E-03     55.1203E-03     27.5406E+06     9.36671E+06    -68.1246E+06     301.954E+03    -57.2961E+06     25.7768E+06    -27.1980E+06         29.8265
            1882     10.4879E-03     107.087E-03     46.8423E-03     27.0555E-03    -115.206E-03     43.5964E-03    -114.580E-03     29.6758E-03     13.4540E-03     104.795E-03    -47.8161E-03    -56.9468E-03    -51.1747E-03     99.0225E-03    -47.8161E-03     59.6675E-03     24.9592E+06     10.4832E+06    -63.9501E+06    -3.71625E+06    -48.7662E+06     23.9747E+06    -28.5807E+06         30.8125
            1883     11.4377E-03     107.113E-03     37.3526E-03     20.4009E-03    -98.8971E-03     25.2712E-03    -96.5500E-03     30.1352E-03     25.5368E-03     107.772E-03    -48.1650E-03    -59.6190E-03    -53.1644E-03     101.318E-03    -48.1650E-03     64.2161E-03     21.4161E+06     13.1810E+06    -57.6155E+06    -4.59755E+06    -38.0160E+06     19.5951E+06    -30.8487E+06         32.0703
            1884     12.3853E-03     107.148E-03     29.5604E-03     11.7677E-03    -85.7923E-03     6.74071E-03    -80.3289E-03     29.1240E-03     38.7256E-03     111.176E-03    -48.6028E-03    -62.5535E-03    -55.1202E-03     103.743E-03    -48.6028E-03     70.1505E-03     19.4494E+06     9.37012E+06    -55.8100E+06    -8.38852E+06    -31.9469E+06     13.3448E+06    -32.9098E+06         33.7207
            1885     13.3313E-03     107.189E-03     38.0382E-03     17.5315E-03    -105.998E-03     23.5681E-03    -102.099E-03     28.1022E-03     13.8612E-03     114.518E-03    -49.0507E-03    -65.4514E-03    -56.5859E-03     105.653E-03    -49.0507E-03     77.7652E-03     27.0770E+06     233.272E+03    -52.1454E+06    -13.0653E+06    -13.1058E+06     1.33594E+06    -37.4775E+06         35.9650
            1886     14.2779E-03     107.244E-03     44.6886E-03     25.6162E-03    -115.454E-03     40.3015E-03    -113.714E-03     28.2630E-03     7.58475E-03     114.762E-03    -49.5744E-03    -65.2052E-03    -57.4970E-03     107.054E-03    -49.5744E-03     72.2523E-03     52.5372E+06     10.5660E+06    -35.9114E+06    -14.4699E+06     31.0957E+06     10.5660E+06    -34.5396E+06         38.8707
            1887     15.2206E-03     107.281E-03     35.3374E-03     19.1285E-03    -97.6023E-03     23.9246E-03    -95.4724E-03     28.4114E-03     5.63704E-03     117.083E-03    -50.0364E-03    -67.0573E-03    -58.4320E-03     108.458E-03    -50.0364E-03     76.7753E-03     93.0783E+06     16.8040E+06    -30.1591E+06    -12.8551E+06     84.1822E+06     8.39610E+06    -26.4809E+06         42.1954
            1888     16.1674E-03     107.357E-03     30.7136E-03     16.8323E-03    -90.7732E-03     18.4142E-03    -89.5533E-03     27.9117E-03    -12.7300E-03     115.567E-03    -50.6140E-03    -64.9627E-03    -59.1536E-03     109.758E-03    -50.6140E-03     48.5177E-03     124.220E+06     38.7311E+06    -14.2593E+06    -2.70956E+06     121.078E+06     30.3233E+06    -14.5239E+06         45.2849
            1889     956.818E-06     108.059E-03     172.433E-03    -17.5407E-03    -177.144E-03     119.592E-03    -63.8439E-03    -77.9995E-03     144.131E-03     87.7710E-03    -43.6273E-03    -44.1516E-03    -43.8319E-03     87.6628E-03    -43.8389E-03     6.76056E-03     33.7056E+06     26.6749E+06    -72.2381E+06     30.1792E+06    -71.9853E+06     29.9485E+06    -2.60967E+06         26.3462
            1890     1.91410E-03     108.064E-03     83.1579E-03     18.0105E-03    -129.399E-03     63.9754E-03    -121.766E-03     29.5604E-03     31.4934E-03     87.3331E-03    -43.5251E-03    -43.7962E-03    -43.2881E-03     87.0026E-03    -43.7028E-03     12.7006E-03     29.0681E+06     24.6401E+06    -62.2731E+06     27.1055E+06    -61.4783E+06     25.8080E+06    -7.92344E+06         26.4297
            1891     2.87235E-03     108.069E-03     43.3676E-03     6.86083E-03    -85.8511E-03     1.45704E-03    -70.0839E-03     33.0042E-03     41.3202E-03     87.2788E-03    -43.4316E-03    -43.8204E-03    -43.0187E-03     86.5683E-03    -43.5228E-03     18.7644E-03     27.4171E+06     22.9068E+06    -62.7149E+06     24.2851E+06    -60.3094E+06     23.6334E+06    -13.9850E+06         26.5297
            1892     3.82988E-03     108.074E-03     33.2691E-03     10.7380E-03    -76.6103E-03     5.83421E-03    -63.7690E-03     25.3316E-03     28.0975E-03     87.6267E-03    -43.3905E-03    -44.2221E-03    -42.9466E-03     86.3513E-03    -43.3905E-03     25.3512E-03     24.0357E+06     18.2587E+06    -65.7896E+06     19.8007E+06    -61.5774E+06     18.2815E+06    -18.7223E+06         26.6556
            1893     4.78816E-03     108.083E-03     42.3590E-03     23.9416E-03    -106.517E-03     34.5646E-03    -98.7221E-03     23.9416E-03    -4.39523E-03     88.1041E-03    -43.2713E-03    -44.8390E-03    -42.8604E-03     86.1254E-03    -43.2713E-03     31.7542E-03     19.9412E+06     15.3652E+06    -68.5210E+06     15.6037E+06    -64.4004E+06     15.5821E+06    -18.2707E+06         26.8260
            1894     5.74593E-03     108.092E-03     41.7177E-03     25.5102E-03    -108.378E-03     31.6904E-03    -98.3509E-03     25.5102E-03     4.93117E-03     88.8613E-03    -43.2066E-03    -45.6655E-03    -42.7627E-03     85.9585E-03    -43.2066E-03     38.5918E-03     17.1524E+06     13.4866E+06    -66.1275E+06     9.86175E+06    -61.9851E+06     16.6349E+06    -17.3746E+06         27.0571
            1895     6.70414E-03     108.106E-03     39.2341E-03     23.5417E-03    -101.248E-03     29.4009E-03    -94.1284E-03     26.2556E-03     10.3114E-03     90.1309E-03    -43.1626E-03    -46.9401E-03    -42.9663E-03     86.1571E-03    -43.1626E-03     45.5261E-03     17.0496E+06     7.41582E+06    -60.4625E+06     3.02111E+06    -55.5503E+06     16.5321E+06    -17.6386E+06         27.3774
            1896     7.66218E-03     108.120E-03     36.1962E-03     23.4181E-03    -98.2836E-03     29.1321E-03    -94.4235E-03     26.6221E-03    -6.80473E-03     92.2368E-03    -43.2459E-03    -48.9961E-03    -43.8972E-03     87.1379E-03    -43.2459E-03     52.2623E-03     20.6226E+06     1.45380E+06    -60.0360E+06    -4.40007E+06    -54.1821E+06     20.6226E+06    -17.2356E+06         27.8381
            1897     8.61858E-03     108.139E-03     35.8369E-03     19.6562E-03    -90.8207E-03     27.3169E-03    -89.4088E-03     26.7643E-03     20.2879E-03     95.3400E-03    -43.5111E-03    -51.8811E-03    -45.5952E-03     89.0542E-03    -43.5111E-03     59.1679E-03     23.2833E+06    -7.39130E+06    -64.2589E+06    -13.9288E+06    -57.7214E+06     23.2833E+06    -17.4749E+06         28.4727
            1898     9.57336E-03     108.161E-03     45.4595E-03     20.5332E-03    -99.7421E-03     35.2262E-03    -96.1267E-03     27.1512E-03    -17.8225E-03     98.9577E-03    -43.8383E-03    -55.1266E-03    -47.8056E-03     91.6366E-03    -43.8383E-03     65.2950E-03     22.5654E+06    -9.49706E+06    -64.1650E+06    -19.4990E+06    -54.1631E+06     22.5654E+06    -19.6239E+06         29.3216
            1899     10.5260E-03     108.189E-03     46.7462E-03     25.7029E-03    -108.883E-03     38.8350E-03    -103.239E-03     27.9700E-03    -25.3525E-03     102.978E-03    -44.2965E-03    -58.6922E-03    -50.6393E-03     94.9251E-03    -44.2965E-03     70.1540E-03     23.3935E+06    -1.26804E+06    -56.1677E+06    -19.8759E+06    -37.5599E+06     23.3935E+06    -24.8127E+06         30.4390
            1900     11.4753E-03     108.220E-03     41.8959E-03     17.5848E-03    -97.6368E-03     26.6970E-03    -93.0987E-03     28.2455E-03    -22.5009E-03     107.502E-03    -44.9503E-03    -62.5765E-03    -54.0511E-03     98.9761E-03    -44.9503E-03     74.0959E-03     19.3870E+06     1.70480E+06    -58.0981E+06    -20.0305E+06    -36.3628E+06     19.3870E+06    -28.1197E+06         31.8398
            1901     12.4220E-03     108.257E-03     36.9338E-03     11.0903E-03    -85.9578E-03     17.7369E-03    -83.2997E-03     27.6291E-03    -22.6580E-03     112.317E-03    -45.7667E-03    -66.5159E-03    -57.4223E-03     103.224E-03    -45.7667E-03     78.5263E-03     20.6511E+06     11.7909E+06    -52.0588E+06    -17.3525E+06    -22.9154E+06     20.6511E+06    -29.9835E+06         33.6231
            1902     13.3661E-03     108.303E-03     29.4054E-03     9.54551E-03    -82.6380E-03     9.79364E-03    -80.0142E-03     26.5335E-03    -20.4223E-03     116.820E-03    -46.6683E-03    -70.1085E-03    -60.3033E-03     107.014E-03    -46.6683E-03     83.3349E-03     26.1203E+06     16.5273E+06    -44.2705E+06    -15.0692E+06    -4.91318E+06     18.3595E+06    -33.7284E+06         35.9838
            1903     14.3067E-03     108.358E-03     34.4626E-03     16.8743E-03    -95.4332E-03     21.9379E-03    -91.7514E-03     25.7172E-03     614.848E-06     118.237E-03    -47.6585E-03    -70.5808E-03    -62.5389E-03     110.195E-03    -47.6585E-03     75.5727E-03     47.7183E+06     25.6300E+06    -36.2047E+06    -15.0645E+06     26.2138E+06     25.9944E+06    -32.3946E+06         38.9900
            1904     15.2473E-03     108.400E-03     43.7976E-03     22.8906E-03    -110.582E-03     39.1421E-03    -108.916E-03     25.8800E-03     12.4990E-03     122.155E-03    -48.6312E-03    -73.5353E-03    -65.1412E-03     113.761E-03    -48.6312E-03     78.5661E-03     88.1393E+06     29.9502E+06    -20.2682E+06    -11.3603E+06     79.2314E+06     29.9502E+06    -28.2128E+06         42.3741
            1905     16.1818E-03     108.477E-03     37.0902E-03     21.3214E-03    -103.209E-03     31.4319E-03    -102.558E-03     26.3286E-03     4.48563E-03     123.553E-03    -49.7522E-03    -73.8072E-03    -68.3730E-03     118.119E-03    -49.7522E-03     48.0215E-03     109.000E+06     44.5774E+06    -12.2086E+06    -8.16483E+06     104.956E+06     44.5774E+06    -18.8526E+06         45.4618
            1906     961.345E-06     109.148E-03     136.572E-03     20.4829E-03    -169.787E-03     81.7515E-03    -119.267E-03     24.7838E-03     36.2677E-03     77.8895E-03    -38.6293E-03    -39.2822E-03    -39.0060E-03     77.7352E-03    -38.7512E-03     7.77732E-03     31.1760E+06     25.3268E+06    -65.8126E+06     27.4523E+06    -65.3945E+06     28.6323E+06    -238.994E+03         25.5918
            1907     1.92389E-03     109.149E-03     68.5104E-03     30.8759E-03    -112.031E-03     20.5785E-03    -79.9502E-03     46.7266E-03    -26.9371E-03     77.2783E-03    -38.4875E-03    -38.8008E-03    -38.0956E-03     76.7862E-03    -38.7006E-03     14.5112E-03     27.8097E+06     22.2498E+06    -54.0360E+06     26.7112E+06    -53.4335E+06     22.7458E+06    -6.36377E+06         25.6616
            1908     2.88696E-03     109.154E-03     47.8211E-03     13.7583E-03    -85.9699E-03     11.0557E-03    -71.4406E-03     35.9945E-03     22.9082E-03     77.2458E-03    -38.3149E-03    -38.9200E-03    -37.7758E-03     76.1927E-03    -38.4062E-03     21.5675E-03     21.4139E+06     15.1311E+06    -51.9443E+06     20.2978E+06    -50.8510E+06     15.1539E+06    -8.13438E+06         25.7501
            1909     3.85007E-03     109.159E-03     45.5465E-03     17.7287E-03    -98.7888E-03     15.9819E-03    -81.5878E-03     30.0923E-03     33.1382E-03     77.7586E-03    -38.2240E-03    -39.5371E-03    -37.6584E-03     75.8799E-03    -38.2240E-03     28.9824E-03     13.9503E+06     8.14177E+06    -57.9248E+06     10.1351E+06    -55.7663E+06     9.79847E+06    -9.58820E+06         25.8719
            1910     4.81275E-03     109.167E-03     36.3009E-03     14.5180E-03    -94.1255E-03     16.1068E-03    -86.6945E-03     27.2810E-03     34.8137E-03     78.7110E-03    -38.1032E-03    -40.6327E-03    -37.6696E-03     75.7479E-03    -38.1032E-03     36.6644E-03     3.68594E+06    -2.60492E+06    -66.0232E+06    -2.53156E+06    -64.0124E+06     1.60186E+06    -8.84615E+06         26.0522
            1911     5.77572E-03     109.177E-03     35.5880E-03     13.8225E-03    -96.3016E-03     21.1184E-03    -93.8160E-03     25.8065E-03     9.34654E-03     80.1834E-03    -38.0410E-03    -42.1660E-03    -37.8915E-03     75.9088E-03    -38.0410E-03     44.4612E-03    -2.89224E+06    -11.6638E+06    -61.0852E+06    -13.1613E+06    -59.5877E+06    -2.89224E+06    -7.03522E+06         26.3121
            1912     6.73847E-03     109.190E-03     30.0190E-03     14.1532E-03    -86.1657E-03     14.9967E-03    -81.6844E-03     24.6942E-03    -3.22901E-03     82.4653E-03    -38.1239E-03    -44.3264E-03    -38.5995E-03     76.7383E-03    -38.1239E-03     52.2896E-03     856.095E+03    -19.9954E+06    -57.1500E+06    -23.1610E+06    -53.9844E+06     856.095E+03    -5.51606E+06         26.6710
            1913     7.70017E-03     109.206E-03     27.0943E-03     12.8886E-03    -77.9379E-03     8.52337E-03    -69.5000E-03     23.0215E-03    -29.3207E-03     85.8603E-03    -38.3726E-03    -47.4968E-03    -40.3221E-03     78.6856E-03    -38.3726E-03     59.8616E-03     9.53841E+06    -29.6909E+06    -56.3206E+06    -32.1733E+06    -53.8381E+06     9.53841E+06    -3.91424E+06         27.1823
            1914     8.65999E-03     109.228E-03     43.4016E-03     22.2605E-03    -103.379E-03     36.2462E-03    -96.7140E-03     22.7507E-03    -21.3650E-03     90.4176E-03    -38.8335E-03    -51.6212E-03    -43.0841E-03     81.8805E-03    -38.8335E-03     67.2861E-03     18.8841E+06    -29.9948E+06    -55.3147E+06    -34.6526E+06    -50.6569E+06     18.8841E+06    -7.20583E+06         27.9071
            1915     9.61651E-03     109.255E-03     42.0904E-03     20.8108E-03    -97.2672E-03     34.7667E-03    -93.0352E-03     23.9026E-03    -32.8364E-03     95.7925E-03    -39.4775E-03    -56.3533E-03    -46.7856E-03     86.2248E-03    -39.4775E-03     73.7147E-03     22.8952E+06    -19.8927E+06    -57.1284E+06    -32.5993E+06    -44.4218E+06     22.8952E+06    -15.9357E+06         28.8881
            1916     10.5691E-03     109.287E-03     25.3248E-03     15.0710E-03    -74.8535E-03     10.6909E-03    -68.8638E-03     23.7152E-03    -32.1636E-03     101.541E-03    -40.3046E-03    -61.3015E-03    -51.1784E-03     91.4183E-03    -40.3046E-03     78.5459E-03     23.8763E+06    -9.78483E+06    -53.3085E+06    -31.8459E+06    -31.2474E+06     23.8763E+06    -19.8561E+06         30.1490
            1917     11.5183E-03     109.323E-03     37.1617E-03     17.5888E-03    -92.7254E-03     26.9677E-03    -88.0838E-03     23.1412E-03    -21.8260E-03     107.903E-03    -41.4055E-03    -66.5341E-03    -56.2771E-03     97.6456E-03    -41.4055E-03     82.0184E-03     21.9823E+06    -3.50451E+06    -56.1692E+06    -31.7593E+06    -27.9144E+06     21.9823E+06    -24.6020E+06         31.6877
            1918     12.4615E-03     109.367E-03     47.5777E-03     23.8907E-03    -106.340E-03     43.2884E-03    -102.050E-03     23.8907E-03    -5.41265E-03     114.475E-03    -42.7106E-03    -71.7461E-03    -61.4980E-03     104.226E-03    -42.7106E-03     84.9140E-03     23.6855E+06     11.7337E+06    -55.7985E+06    -29.8307E+06    -14.2341E+06     23.6855E+06    -31.5758E+06         33.6001
            1919     13.4002E-03     109.419E-03     34.0573E-03     15.2263E-03    -86.2334E-03     21.0711E-03    -82.4117E-03     24.3908E-03    -1.81874E-03     120.353E-03    -44.1862E-03    -76.1503E-03    -65.9772E-03     110.180E-03    -44.1862E-03     87.0539E-03     27.3532E+06     23.7077E+06    -49.3140E+06    -24.8319E+06     866.327E+03     25.7125E+06    -34.4938E+06         36.0812
            1920     14.3363E-03     109.479E-03     26.0567E-03     14.7393E-03    -80.7150E-03     14.8476E-03    -78.6705E-03     23.9039E-03    -8.46845E-03     123.181E-03    -45.7862E-03    -77.4023E-03    -69.5488E-03     115.328E-03    -45.7862E-03     76.9358E-03     47.2708E+06     36.6282E+06    -37.7297E+06    -16.9724E+06     26.1492E+06     36.9926E+06    -34.6321E+06         39.2033
            1921     15.2670E-03     109.524E-03     35.1481E-03     22.6492E-03    -97.9776E-03     33.3075E-03    -97.3110E-03     23.8232E-03     11.9400E-03     129.081E-03    -47.3543E-03    -81.7329E-03    -73.8473E-03     121.195E-03    -47.3543E-03     79.3440E-03     87.1086E+06     44.0851E+06    -20.2627E+06    -9.32342E+06     76.1693E+06     44.0851E+06    -31.0967E+06         42.6550
            1922     16.1967E-03     109.610E-03     35.1057E-03     23.0645E-03    -99.2353E-03     31.6173E-03    -96.9209E-03     24.2384E-03     770.759E-06     132.585E-03    -49.1179E-03    -83.4685E-03    -78.3925E-03     127.509E-03    -49.1179E-03     48.1188E-03     103.604E+06     52.3055E+06    -9.05736E+06    -4.06238E+06     88.6249E+06     62.2901E+06    -20.4707E+06         45.7255
            1923     968.057E-06     110.221E-03     112.159E-03     27.0907E-03    -139.747E-03     35.7835E-03    -67.6716E-03     31.3915E-03     41.3276E-03     65.3413E-03    -32.3849E-03    -32.9678E-03    -32.5961E-03     65.1363E-03    -32.5516E-03     8.25924E-03     20.8481E+06     17.5513E+06    -59.8947E+06     19.9594E+06    -59.5020E+06     18.0474E+06    -555.267E+03         24.7064
            1924     1.93605E-03     110.223E-03     43.4575E-03     22.9715E-03    -75.1012E-03     2.23832E-03    -38.1828E-03     27.2724E-03    -56.1421E-03     65.5735E-03    -32.4882E-03    -33.0917E-03    -32.3692E-03     64.8862E-03    -32.5236E-03     15.7395E-03     17.1529E+06     13.5588E+06    -49.6882E+06     15.7953E+06    -49.3982E+06     14.6264E+06    -2.67152E+06         24.7821
            1925     2.90411E-03     110.226E-03     60.0852E-03     25.4600E-03    -103.316E-03     52.4579E-03    -95.6892E-03     25.4600E-03    -31.4346E-03     65.8944E-03    -32.3855E-03    -33.5116E-03    -32.0425E-03     64.4253E-03    -32.3855E-03     23.5209E-03     9.60091E+06     2.09963E+06    -50.5873E+06     8.51286E+06    -50.0708E+06     2.67120E+06    -1.06666E+06         24.8773
            1926     3.87289E-03     110.232E-03     61.6878E-03     29.5627E-03    -118.187E-03     48.4243E-03    -107.342E-03     31.9811E-03    -9.77544E-03     66.5516E-03    -32.2583E-03    -34.3063E-03    -31.7468E-03     63.9921E-03    -32.2583E-03     31.2577E-03     147.833E+03    -7.39881E+06    -60.8369E+06    -3.33378E+06    -58.9892E+06    -5.76488E+06     5.20854E+06         25.0130
            1927     4.84218E-03     110.239E-03     30.4596E-03     9.90850E-03    -80.3456E-03    -5.04656E-03    -65.3906E-03     30.4596E-03     5.67269E-03     68.1327E-03    -32.2156E-03    -35.9376E-03    -31.9209E-03     64.1160E-03    -32.2156E-03     39.6957E-03    -8.00494E+06    -15.6008E+06    -70.7996E+06    -19.7082E+06    -65.9055E+06    -8.79162E+06     9.62429E+06         25.2239
            1928     5.81041E-03     110.250E-03     23.5688E-03     263.158E-06    -64.6616E-03    -15.9938E-03    -48.4046E-03     23.5688E-03    -32.1905E-03     70.7517E-03    -32.2509E-03    -38.5144E-03    -32.8002E-03     65.0376E-03    -32.2509E-03     48.3198E-03    -12.1870E+06    -27.8805E+06    -67.2113E+06    -36.3802E+06    -58.7115E+06    -12.1870E+06     8.53430E+06         25.5394
            1929     6.77740E-03     110.265E-03     26.7658E-03     7.20275E-03    -73.0268E-03     6.95408E-03    -65.3169E-03     19.3046E-03    -14.6627E-03     74.6915E-03    -32.5317E-03    -42.1577E-03    -34.6307E-03     67.1645E-03    -32.5317E-03     57.1056E-03    -5.51654E+06    -37.7329E+06    -63.3472E+06    -45.7847E+06    -55.2954E+06    -5.51654E+06     8.28282E+06         25.9799
            1930     7.74235E-03     110.284E-03     35.6099E-03     11.6802E-03    -85.1105E-03     23.0010E-03    -79.4306E-03     18.6091E-03    -29.3499E-03     79.7269E-03    -33.0561E-03    -46.6727E-03    -37.4595E-03     70.5138E-03    -33.0561E-03     65.5376E-03     8.06726E+06    -41.9086E+06    -55.0461E+06    -46.8767E+06    -50.0779E+06     8.06726E+06     5.04956E+06         26.5869
            1931     8.70423E-03     110.310E-03     39.6928E-03     19.2852E-03    -95.0922E-03     27.4952E-03    -82.8945E-03     19.2852E-03    -16.4289E-03     85.9002E-03    -33.8123E-03    -52.1011E-03    -41.4025E-03     75.2016E-03    -33.8123E-03     73.6780E-03     19.6823E+06    -34.9290E+06    -47.0206E+06    -43.4222E+06    -38.5275E+06     19.6823E+06    -4.21040E+06         27.4261
            1932     9.66204E-03     110.343E-03     39.3609E-03     17.0174E-03    -88.9009E-03     28.7392E-03    -81.3710E-03     20.1091E-03     15.7123E-03     93.1868E-03    -34.8570E-03    -58.3591E-03    -46.7099E-03     81.5376E-03    -34.8570E-03     80.6440E-03     25.6205E+06    -23.8943E+06    -50.8336E+06    -39.8470E+06    -34.8809E+06     25.6205E+06    -12.2562E+06         28.5418
            1933     10.6145E-03     110.381E-03     37.2333E-03     14.4997E-03    -81.8898E-03     29.6310E-03    -80.6645E-03     20.8768E-03     7.55048E-03     100.984E-03    -36.2005E-03    -64.8266E-03    -52.9930E-03     89.1504E-03    -36.2005E-03     85.3080E-03     28.6490E+06    -11.9136E+06    -50.6077E+06    -35.9422E+06    -26.5791E+06     28.6490E+06    -16.9130E+06         29.9367
            1934     11.5603E-03     110.427E-03     37.0771E-03     12.5403E-03    -82.8160E-03     27.3097E-03    -82.0249E-03     21.5167E-03     12.5844E-03     109.355E-03    -37.8492E-03    -71.5109E-03    -59.9120E-03     97.7558E-03    -37.8492E-03     88.5594E-03     33.5382E+06     5.97999E+06    -47.8647E+06    -28.8424E+06    -13.0423E+06     33.5382E+06    -24.5413E+06         31.6016
            1935     12.5002E-03     110.479E-03     40.8322E-03     16.4425E-03    -85.5381E-03     31.8715E-03    -82.2686E-03     22.1337E-03     35.4164E-03     117.688E-03    -39.7283E-03    -77.9408E-03    -66.9020E-03     106.649E-03    -39.7283E-03     90.2142E-03     34.0835E+06     21.3473E+06    -48.2361E+06    -21.5211E+06    -5.36771E+06     34.0835E+06    -32.1114E+06         33.6359
            1936     13.4334E-03     110.539E-03     34.5670E-03     19.9132E-03    -86.1837E-03     28.7108E-03    -83.0748E-03     22.6605E-03     21.1095E-03     125.262E-03    -41.8310E-03    -83.4349E-03    -73.0693E-03     114.896E-03    -41.8310E-03     90.6314E-03     35.3805E+06     30.5778E+06    -44.3859E+06    -17.5169E+06     5.95214E+06     33.1372E+06    -35.1577E+06         36.2350
            1937     14.3605E-03     110.605E-03     23.7913E-03     19.4960E-03    -80.1063E-03     18.6266E-03    -78.1079E-03     22.6623E-03    -17.3691E-03     129.948E-03    -44.0879E-03    -85.8676E-03    -78.1600E-03     122.241E-03    -44.0879E-03     79.0151E-03     54.6256E+06     44.6760E+06    -36.5990E+06    -14.1812E+06     32.2079E+06     44.6760E+06    -38.4253E+06         39.4754
            1938     15.2851E-03     110.657E-03     22.4062E-03     12.5991E-03    -72.2389E-03     10.5462E-03    -69.8527E-03     22.0729E-03    -2.55434E-03     137.086E-03    -46.2981E-03    -90.7893E-03    -82.9547E-03     129.251E-03    -46.2981E-03     82.1941E-03     84.3007E+06     48.4739E+06    -24.8554E+06    -11.0751E+06     70.5204E+06     48.4739E+06    -33.3778E+06         42.9923
            1939     16.2000E-03     110.754E-03     21.3705E-03     11.8786E-03    -75.7757E-03     9.42628E-03    -73.2178E-03     21.2649E-03     1.88807E-03     140.466E-03    -48.6129E-03    -91.8532E-03    -86.6748E-03     135.288E-03    -48.6129E-03     51.4174E-03     91.4706E+06     45.9840E+06    -13.4232E+06    -7.98960E+06     68.6708E+06     63.3501E+06    -20.2500E+06         46.0349
            1940     975.041E-06     111.282E-03     98.0241E-03    -14.2605E-03    -98.7757E-03     19.5593E-03    -18.4014E-03    -16.1700E-03     74.2182E-03     51.8184E-03    -25.6251E-03    -26.1936E-03    -25.7935E-03     51.5498E-03    -25.7565E-03     8.44533E-03     2.97859E+06    -1.22914E+06    -61.1263E+06     2.75131E+06    -60.8990E+06    -1.22914E+06     1.05875E+06         23.7772
            1941     1.94937E-03     111.283E-03     56.6342E-03     10.6002E-03    -84.2385E-03     46.2592E-03    -73.8635E-03     10.6002E-03    -29.0925E-03     52.5947E-03    -25.7689E-03    -26.8246E-03    -25.9632E-03     51.7333E-03    -25.7689E-03     15.8562E-03    -5.65846E+06    -13.2176E+06    -54.2644E+06    -8.86642E+06    -51.6280E+06    -12.6460E+06     6.10991E+06         23.8627
            1942     2.92379E-03     111.286E-03     50.5947E-03     17.6761E-03    -88.8436E-03     29.7773E-03    -71.3326E-03     20.9825E-03    -35.0568E-03     53.4995E-03    -25.8129E-03    -27.6870E-03    -25.8232E-03     51.6357E-03    -25.8129E-03     23.8903E-03    -16.1861E+06    -24.8718E+06    -66.7780E+06    -25.0533E+06    -58.4824E+06    -24.3002E+06     12.8121E+06         23.9680
            1943     3.89828E-03     111.291E-03     41.0705E-03     18.1531E-03    -81.6995E-03     21.0892E-03    -65.8200E-03     22.2548E-03    -18.6597E-03     55.0150E-03    -25.8429E-03    -29.1848E-03    -25.9279E-03     51.7581E-03    -25.8429E-03     32.0763E-03    -27.5749E+06    -34.8606E+06    -83.1720E+06    -40.4095E+06    -70.3374E+06    -34.8606E+06     19.6764E+06         24.1372
            1944     4.87244E-03     111.299E-03     31.0473E-03     13.4318E-03    -75.7258E-03     14.0840E-03    -66.6048E-03     21.2740E-03    -28.0430E-03     57.5526E-03    -25.9898E-03    -31.5735E-03    -26.5852E-03     52.5642E-03    -25.9898E-03     40.6622E-03    -27.1482E+06    -33.1354E+06    -87.6338E+06    -47.2875E+06    -71.0168E+06    -29.6131E+06     24.0532E+06         24.4095
            1945     5.84617E-03     111.311E-03     31.0917E-03     7.56776E-03    -75.0175E-03    -120.116E-06    -55.1274E-03     18.8894E-03    -14.5522E-03     61.5387E-03    -26.3250E-03    -35.2191E-03    -28.2605E-03     54.5801E-03    -26.3250E-03     49.7739E-03    -12.3116E+06    -28.6260E+06    -79.0197E+06    -49.3483E+06    -58.2973E+06    -12.3116E+06     23.6859E+06         24.8075
            1946     6.81745E-03     111.329E-03     27.1593E-03     12.6950E-03    -72.3937E-03     12.0169E-03    -61.5261E-03     16.9698E-03     11.4992E-03     67.0846E-03    -26.8939E-03    -40.2093E-03    -31.1971E-03     58.0724E-03    -26.8939E-03     59.3821E-03     2.92420E+06    -32.5451E+06    -67.7103E+06    -49.0476E+06    -51.2078E+06     2.92420E+06     15.6911E+06         25.3486
            1947     7.78500E-03     111.353E-03     33.0412E-03     17.6061E-03    -83.0758E-03     32.7713E-03    -82.8059E-03     17.6061E-03    -1.75102E-03     73.8731E-03    -27.7363E-03    -46.1481E-03    -35.2199E-03     62.9449E-03    -27.7363E-03     68.9529E-03     16.0660E+06    -33.6451E+06    -49.6060E+06    -42.3824E+06    -40.8687E+06     16.0660E+06     5.72964E+06         26.0695
            1948     8.74858E-03     111.385E-03     27.2737E-03     16.3312E-03    -76.3917E-03     18.4730E-03    -69.8195E-03     18.5597E-03     19.5829E-03     82.0974E-03    -28.8871E-03    -53.1961E-03    -40.6488E-03     69.5501E-03    -28.8871E-03     78.4208E-03     28.9253E+06    -26.0041E+06    -37.3874E+06    -35.3286E+06    -28.0629E+06     28.9253E+06    -2.01265E+06         27.0327
            1949     9.70674E-03     111.426E-03     31.3005E-03     16.4512E-03    -76.4231E-03     21.4955E-03    -68.8467E-03     18.6798E-03     22.5606E-03     91.3695E-03    -30.3889E-03    -60.9579E-03    -47.5395E-03     77.9511E-03    -30.3889E-03     86.2816E-03     36.2584E+06    -16.6274E+06    -39.7124E+06    -29.8930E+06    -26.4469E+06     36.2584E+06    -9.19572E+06         28.2720
            1950     10.6573E-03     111.475E-03     42.8975E-03     19.7103E-03    -87.9339E-03     41.1482E-03    -86.1845E-03     19.7103E-03    -8.82298E-03     101.322E-03    -32.2654E-03    -69.0592E-03    -55.5807E-03     87.8432E-03    -32.2654E-03     91.8865E-03     39.3416E+06    -2.56864E+06    -39.5415E+06    -24.0612E+06    -18.0490E+06     39.3416E+06    -15.7961E+06         29.7841
            1951     11.6004E-03     111.531E-03     33.1555E-03     15.0682E-03    -76.4548E-03     26.2879E-03    -75.2784E-03     20.7594E-03    -10.6999E-03     111.735E-03    -34.4365E-03    -77.2767E-03    -64.1554E-03     98.6137E-03    -34.4365E-03     95.9871E-03     43.6400E+06     21.8781E+06    -36.9542E+06    -19.4560E+06     4.37995E+06     43.6400E+06    -26.2527E+06         31.5626
            1952     12.5349E-03     111.594E-03     25.8644E-03     15.0193E-03    -68.0372E-03     17.8467E-03    -65.7106E-03     20.7105E-03     4.29653E-03     121.954E-03    -36.9028E-03    -84.9916E-03    -72.7394E-03     109.702E-03    -36.9028E-03     97.5412E-03     39.3845E+06     30.0705E+06    -42.9334E+06    -14.0330E+06     1.17013E+06     39.3845E+06    -34.3373E+06         33.7080
            1953     13.4621E-03     111.664E-03     27.1385E-03     20.5719E-03    -76.7231E-03     24.9188E-03    -74.5035E-03     20.5719E-03    -4.41587E-03     131.385E-03    -39.6527E-03    -91.7317E-03    -80.6445E-03     120.298E-03    -39.6527E-03     96.8658E-03     42.3657E+06     34.1684E+06    -37.1546E+06    -9.34421E+06     10.0829E+06     38.6407E+06    -34.2679E+06         36.4163
            1954     14.3832E-03     111.741E-03     22.5784E-03     15.6152E-03    -70.9397E-03     15.5032E-03    -68.6249E-03     20.3757E-03    -22.2044E-03     137.315E-03    -42.5420E-03    -94.7651E-03    -86.6027E-03     129.153E-03    -42.5420E-03     84.4498E-03     60.0702E+06     50.7670E+06    -26.6815E+06    -7.72096E+06     40.9953E+06     50.8813E+06    -35.5811E+06         39.7579
            1955     15.2955E-03     111.801E-03     19.5416E-03     5.31060E-03    -60.0784E-03     3.51601E-03    -58.2838E-03     19.5416E-03    -12.0754E-03     144.698E-03    -45.3332E-03    -99.3301E-03    -90.9170E-03     136.285E-03    -45.3332E-03     88.1357E-03     78.3889E+06     50.7111E+06    -20.7724E+06    -4.73158E+06     62.2337E+06     50.8254E+06    -34.0105E+06         43.3173
            1956     16.2128E-03     111.903E-03     29.5268E-03     9.07956E-03    -73.4587E-03     18.4341E-03    -72.1680E-03     18.8816E-03    -6.56366E-03     147.940E-03    -48.1325E-03    -99.8058E-03    -94.2344E-03     142.369E-03    -48.1325E-03     56.8873E-03     85.3256E+06     49.9331E+06    -22.5114E+06     2.66028E+06     46.8611E+06      63.226E+06    -20.2889E+06         46.3242
            1957     981.153E-06     112.327E-03     80.7526E-03    -5.94661E-03    -97.6585E-03     34.1753E-03    -61.5099E-03     4.48210E-03     32.2815E-03     38.7868E-03    -19.0973E-03    -19.6889E-03    -19.3673E-03     38.4652E-03    -19.0973E-03     7.89248E-03    -32.0907E+06    -43.2023E+06    -75.3571E+06    -39.7618E+06    -70.5305E+06    -40.3577E+06     7.15958E+06         22.8531
            1958     1.96213E-03     112.329E-03     52.3644E-03     2.82765E-03    -82.6184E-03     30.4578E-03    -79.4642E-03     21.5800E-03     250.943E-06     39.6477E-03    -19.2397E-03    -20.4059E-03    -19.4196E-03     38.6613E-03    -19.2397E-03     14.7979E-03    -35.5964E+06    -52.2472E+06    -82.2221E+06    -50.7281E+06    -67.0905E+06    -52.2472E+06     18.8421E+06         22.9615
            1959     2.94304E-03     112.332E-03     26.6344E-03     9.93612E-03    -60.7430E-03    -5.21513E-03    -38.6140E-03     19.6566E-03    -12.9820E-03     41.2884E-03    -19.4060E-03    -21.8843E-03    -19.7789E-03     39.1830E-03    -19.4060E-03     22.3135E-03    -37.5126E+06    -52.5223E+06    -99.2341E+06    -61.6382E+06    -75.1084E+06    -52.5223E+06     29.1014E+06         23.1107
            1960     3.92343E-03     112.337E-03     12.3150E-03     6.93379E-03    -48.3980E-03    -14.4407E-03    -26.8594E-03     12.1509E-03    -3.79382E-03     43.9992E-03    -19.6661E-03    -24.3463E-03    -20.6128E-03     40.2657E-03    -19.6661E-03     30.7796E-03    -40.5451E+06    -49.9066E+06    -104.269E+06    -67.3632E+06    -78.6160E+06    -48.7415E+06     30.7524E+06         23.3430
            1961     4.90236E-03     112.347E-03     35.2263E-03     8.90661E-03    -76.3552E-03     31.3243E-03    -74.3638E-03     10.8173E-03    -22.4939E-03     48.0086E-03    -20.0843E-03    -27.9266E-03    -22.2193E-03     42.3013E-03    -20.0843E-03     39.8614E-03    -35.9744E+06    -45.0559E+06    -96.7734E+06    -65.1935E+06    -74.9577E+06    -37.6526E+06     26.1252E+06         23.6870
            1962     5.87951E-03     112.361E-03     57.7173E-03     15.9070E-03    -106.102E-03     53.1157E-03    -101.500E-03     15.9070E-03     14.4257E-03     53.3647E-03    -20.7288E-03    -32.6307E-03    -24.7016E-03     45.4356E-03    -20.7288E-03     49.6167E-03    -15.8855E+06    -32.4229E+06    -79.9467E+06    -53.3357E+06    -59.0338E+06    -15.8855E+06     23.0663E+06         24.1654
            1963     6.85362E-03     112.384E-03     36.9425E-03     13.3162E-03    -82.4903E-03     22.5568E-03    -74.0303E-03     19.2419E-03     14.9676E-03     60.0467E-03    -21.6165E-03    -38.4344E-03    -28.2384E-03     49.8507E-03    -21.6165E-03     59.9017E-03     7.04702E+06    -22.6879E+06    -58.3916E+06    -40.4436E+06    -40.6359E+06     7.04702E+06     16.6084E+06         24.8034
            1964     7.82441E-03     112.412E-03     20.9323E-03     5.76253E-03    -57.0171E-03     1.25175E-03    -49.9993E-03     18.4252E-03    -17.3709E-03     68.5541E-03    -22.7988E-03    -45.7565E-03    -33.3927E-03     56.1903E-03    -22.7988E-03     70.9379E-03     22.2808E+06    -25.6402E+06    -40.5222E+06    -34.0969E+06    -32.0655E+06     22.2808E+06     5.80278E+06         25.6365
            1965     8.78941E-03     112.454E-03     26.2501E-03     8.18229E-03    -64.2991E-03     14.7218E-03    -61.7363E-03     17.1478E-03    -2.00461E-03     78.8100E-03    -24.3375E-03    -54.4591E-03    -40.2428E-03     64.5937E-03    -24.3375E-03     82.2161E-03     33.8868E+06    -20.4103E+06    -29.9886E+06    -29.1049E+06    -21.2940E+06     33.8868E+06    -488.460E+03         26.7158
            1966     9.74672E-03     112.505E-03     27.8841E-03     15.0131E-03    -67.0937E-03     24.7090E-03    -66.1471E-03     17.2417E-03    -9.49237E-03     90.0728E-03    -26.2715E-03    -63.7805E-03    -48.4679E-03     74.7602E-03    -26.2715E-03     92.0219E-03     41.3638E+06    -5.29141E+06    -32.2879E+06    -23.4722E+06    -14.1071E+06     41.3638E+06    -8.23875E+06         28.0628
            1967     10.6969E-03     112.565E-03     24.8217E-03     11.9976E-03    -57.7009E-03     17.2357E-03    -55.5581E-03     17.4408E-03    -22.7024E-03     102.075E-03    -28.5987E-03    -73.4575E-03    -57.8838E-03     86.5010E-03    -28.5987E-03     99.6938E-03     44.7650E+06     10.4873E+06    -33.7091E+06    -15.2841E+06    -7.93771E+06     44.7650E+06    -18.5349E+06         29.6745
            1968     11.6372E-03     112.635E-03     23.4339E-03     11.7132E-03    -58.1286E-03     16.2386E-03    -56.3765E-03     17.1564E-03    -20.0496E-03     114.391E-03    -31.2756E-03    -83.0873E-03    -67.8833E-03     99.1868E-03    -31.2756E-03     105.149E-03     51.9769E+06     35.0776E+06    -24.7194E+06    -8.03948E+06     18.3977E+06     51.9769E+06    -24.3527E+06         31.5502
            1969     12.5689E-03     112.712E-03     25.8579E-03     17.0096E-03    -67.9634E-03     22.8105E-03    -64.9161E-03     17.0096E-03    -30.0322E-03     126.722E-03    -34.2910E-03    -92.3975E-03    -78.1639E-03     112.488E-03    -34.2910E-03     107.822E-03     44.5190E+06     33.2942E+06    -34.1754E+06    -9.75724E+06     8.87603E+06     44.5190E+06    -29.0734E+06         33.7926
            1970     13.4903E-03     112.796E-03     27.0828E-03     17.1345E-03    -71.7377E-03     24.1766E-03    -68.8315E-03     17.1345E-03    -24.6932E-03     137.937E-03    -37.5921E-03    -100.367E-03    -87.5181E-03     125.087E-03    -37.5921E-03     107.472E-03     47.4028E+06     33.1895E+06    -37.7484E+06    -11.9978E+06     13.8921E+06     40.9497E+06    -33.0203E+06         36.5980
            1971     14.4026E-03     112.883E-03     23.7570E-03     12.8260E-03    -63.9490E-03     19.0462E-03    -63.5796E-03     17.1674E-03    -3.06746E-03     144.284E-03    -41.0270E-03    -103.264E-03    -93.9001E-03     134.920E-03    -41.0270E-03     93.2484E-03     60.6211E+06     53.8565E+06    -24.8556E+06    -9.31253E+06     44.7665E+06     54.1679E+06    -32.6768E+06         40.0087
            1972     15.3152E-03     112.950E-03     20.6059E-03     11.0280E-03    -65.1503E-03     14.2807E-03    -64.7563E-03     16.9592E-03    -6.69071E-03     152.415E-03    -44.3417E-03    -108.039E-03    -98.8013E-03     143.178E-03    -44.3417E-03     95.5737E-03     71.4338E+06     50.9502E+06    -21.7486E+06    -7.99456E+06     57.3684E+06     51.2616E+06    -31.0687E+06         43.5672
            1973     16.2164E-03     113.061E-03     32.8141E-03     15.4980E-03    -77.1318E-03     28.8071E-03    -74.7145E-03     17.0878E-03    -29.2783E-03     156.372E-03    -47.6488E-03    -108.722E-03    -102.684E-03     150.334E-03    -47.6488E-03     62.6564E-03     78.0317E+06     34.6997E+06    -34.7553E+06    -8.05014E+06     28.1668E+06     57.8596E+06    -21.9850E+06         46.5280
            1974     986.622E-06     113.360E-03     78.0369E-03     17.0031E-03    -110.391E-03     27.5452E-03    -91.4108E-03     48.5150E-03    -8.96728E-03     27.1680E-03    -13.3227E-03    -13.8455E-03    -13.4972E-03     26.8197E-03    -13.3227E-03     6.76015E-03    -75.9743E+06    -104.118E+06    -116.506E+06    -105.126E+06    -89.3975E+06    -102.075E+06     12.3368E+06         22.0176
            1975     1.97366E-03     113.362E-03     43.1517E-03     9.94634E-03    -75.9055E-03    -8.58825E-03    -42.9179E-03     28.6987E-03    -25.2977E-03     28.4361E-03    -13.5473E-03    -14.8883E-03    -13.8177E-03     27.3655E-03    -13.5473E-03     13.1072E-03    -69.1756E+06    -94.9569E+06    -122.837E+06    -101.386E+06    -90.6271E+06    -94.9569E+06     24.1061E+06         22.1601
            1976     2.95960E-03     113.366E-03     22.1012E-03     8.25770E-03    -64.6017E-03    -13.5358E-03    -35.3788E-03     14.6718E-03     20.0136E-03     30.8750E-03    -13.8701E-03    -17.0061E-03    -14.7686E-03     28.6375E-03    -13.8701E-03     19.9443E-03    -60.9821E+06    -78.8119E+06    -120.814E+06    -90.3141E+06    -91.4815E+06    -78.8119E+06     29.6021E+06         22.3788
            1977     3.94444E-03     113.373E-03     25.0363E-03     8.12177E-03    -63.1137E-03     9.81942E-03    -49.7533E-03     9.97828E-03     2.35368E-03     34.5687E-03    -14.3671E-03    -20.2027E-03    -16.2749E-03     30.6410E-03    -14.3671E-03     28.0727E-03    -47.9973E+06    -57.3624E+06    -106.238E+06    -73.4688E+06    -81.9318E+06    -56.1973E+06     27.8755E+06         22.6809
            1978     4.92792E-03     113.385E-03     37.0288E-03     7.35275E-03    -72.1174E-03     29.9836E-03    -69.5736E-03     11.8542E-03    -772.955E-06     39.7608E-03    -15.0536E-03    -24.7008E-03    -18.6186E-03     33.6785E-03    -15.0536E-03     37.5599E-03    -33.6473E+06    -43.6578E+06    -87.8272E+06    -58.2491E+06    -72.2630E+06    -34.6202E+06     21.1401E+06         23.0886
            1979     5.90773E-03     113.404E-03     48.3326E-03     13.0356E-03    -83.9580E-03     39.3157E-03    -77.5860E-03     15.6805E-03     29.0749E-03     46.2067E-03    -15.9391E-03    -30.2603E-03    -21.7145E-03     37.6609E-03    -15.9391E-03     48.0937E-03    -18.5879E+06    -36.1053E+06    -69.5687E+06    -47.0310E+06    -58.6430E+06    -18.5879E+06     14.1492E+06         23.6382
            1980     6.88536E-03     113.431E-03     39.5425E-03     12.0231E-03    -72.5749E-03     23.3871E-03    -62.3452E-03     17.9488E-03     8.13325E-03     54.0831E-03    -17.0774E-03    -36.9961E-03    -25.8507E-03     42.9377E-03    -17.0774E-03     59.6418E-03     2.08972E+06    -21.1728E+06    -50.2298E+06    -35.3603E+06    -36.0423E+06     2.08972E+06     11.4251E+06         24.3623
            1981     7.85808E-03     113.469E-03     20.7096E-03     3.41751E-03    -49.8777E-03    -495.853E-06    -42.3871E-03     17.1323E-03    -27.4239E-03     64.0696E-03    -18.5607E-03    -45.5061E-03    -31.7847E-03     50.3482E-03    -18.5607E-03     72.4746E-03     22.7907E+06    -14.9026E+06    -36.0567E+06    -26.3332E+06    -24.6261E+06     22.7907E+06     8.48374E+06         25.2956
            1982     8.82386E-03     113.519E-03     22.4645E-03     4.50593E-03    -53.5105E-03     7.53182E-03    -49.6418E-03     15.5699E-03    -1.61801E-03     75.8673E-03    -20.4025E-03    -55.4665E-03    -39.4393E-03     59.8401E-03    -20.4025E-03     85.9065E-03     35.3003E+06    -11.3354E+06    -26.8686E+06    -22.7997E+06    -15.4042E+06     35.3003E+06     2.24857E+06         26.4704
            1983     9.78316E-03     113.580E-03     25.1625E-03     12.0010E-03    -58.3917E-03     19.0013E-03    -55.5054E-03     15.2759E-03     14.7407E-03     88.9549E-03    -22.6456E-03    -66.3111E-03    -48.6962E-03     71.3401E-03    -22.6456E-03     98.3793E-03     45.3394E+06     5.21783E+06    -21.8765E+06    -18.3118E+06     1.65310E+06     45.3394E+06    -7.76376E+06         27.9012
            1984     10.7320E-03     113.655E-03     17.9734E-03     5.95429E-03    -40.7303E-03     6.54513E-03    -38.3292E-03     14.9814E-03     4.97733E-03     102.754E-03    -25.3246E-03    -77.4433E-03    -59.2403E-03     84.5509E-03    -25.3246E-03     108.455E-03     50.9253E+06     21.8400E+06    -28.0152E+06    -13.0402E+06     6.86498E+06     50.9253E+06    -21.1616E+06         29.5910
            1985     11.6717E-03     113.739E-03     15.9465E-03     3.39851E-03    -38.4853E-03     4.24798E-03    -37.4805E-03     14.0923E-03    -7.66263E-03     116.933E-03    -28.3881E-03    -88.5497E-03    -70.5771E-03     98.9603E-03    -28.3881E-03     115.915E-03     53.8682E+06     33.8044E+06    -24.2949E+06    -9.58737E+06     19.0969E+06     53.8682E+06    -22.5449E+06         31.5426
            1986     12.6003E-03     113.833E-03     23.6546E-03     12.0807E-03    -58.9608E-03     18.5026E-03    -55.4754E-03     13.7474E-03    -11.6212E-03     131.085E-03    -31.8336E-03    -99.2307E-03    -82.2526E-03     114.107E-03    -31.8336E-03     120.113E-03     52.3048E+06     34.8650E+06    -22.7181E+06    -6.41348E+06     18.5604E+06     52.3048E+06    -22.4098E+06         33.8625
            1987     13.5180E-03     113.932E-03     25.2519E-03     14.0113E-03    -62.8955E-03     21.2904E-03    -58.9341E-03     14.0113E-03     1.92500E-03     143.954E-03    -35.5416E-03    -108.380E-03    -93.1225E-03     128.696E-03    -35.5416E-03     120.034E-03     53.0720E+06     37.7777E+06    -25.7958E+06    -4.58836E+06     22.9649E+06     46.6775E+06    -29.3446E+06         36.7485
            1988     14.4286E-03     114.033E-03     23.1148E-03     14.3160E-03    -63.6760E-03     22.0517E-03    -62.6130E-03     14.3160E-03     2.14933E-03     151.795E-03    -39.4562E-03    -112.285E-03    -101.564E-03     141.074E-03    -39.4562E-03     102.566E-03     60.8061E+06     54.2027E+06    -19.3928E+06    -4.17164E+06     45.3761E+06     54.4115E+06    -30.7805E+06         40.1969
            1989     15.3276E-03     114.108E-03     28.3127E-03     14.7367E-03    -70.3379E-03     27.3540E-03    -69.3791E-03     14.7367E-03    -16.9069E-03     160.950E-03    -43.3508E-03    -117.563E-03    -107.782E-03     151.169E-03    -43.3508E-03     101.844E-03     70.1463E+06     53.0291E+06    -16.4667E+06    -2.43738E+06     55.9082E+06     53.2379E+06    -29.4476E+06         43.7099
            1990     16.2289E-03     114.230E-03     27.2524E-03     7.46928E-03    -56.2156E-03     17.1737E-03    -53.6756E-03     15.0080E-03    -22.3104E-03     164.749E-03    -47.1959E-03    -117.557E-03    -111.233E-03     158.424E-03    -47.1959E-03     67.3090E-03     73.2796E+06     37.6204E+06    -46.9922E+06    -467.303E+03     8.00396E+06     56.3712E+06    -18.9090E+06         46.6045
            1991     991.573E-06     114.381E-03     98.3019E-03     6.28320E-03    -108.925E-03     11.8428E-03    -9.09898E-03    -7.08341E-03    -69.8847E-03     17.9514E-03    -8.68407E-03    -9.26747E-03    -8.90336E-03     17.5873E-03    -8.68407E-03     5.76623E-03    -109.459E+06    -180.143E+06    -185.641E+06    -182.630E+06    -111.669E+06    -180.944E+06     8.77993E+06         21.4025
            1992     1.98199E-03     114.384E-03     67.7933E-03     5.76483E-03    -91.7119E-03     19.8700E-03    -43.7886E-03     5.76483E-03    -69.9113E-03     19.9129E-03    -9.05594E-03    -10.8567E-03    -9.72997E-03     18.7862E-03    -9.05594E-03     11.2717E-03    -96.0300E+06    -158.505E+06    -171.689E+06    -162.521E+06    -104.686E+06    -159.017E+06     10.3036E+06         21.5618
            1993     2.97201E-03     114.389E-03     44.7355E-03     11.4958E-03    -86.3316E-03     25.1009E-03    -66.6970E-03     11.4958E-03     25.9192E-03     22.9938E-03    -9.59181E-03    -13.4024E-03    -11.0970E-03     20.6884E-03    -9.59181E-03     17.5721E-03    -85.5778E+06    -127.690E+06    -144.494E+06    -132.482E+06    -97.0206E+06    -128.259E+06     7.87015E+06         21.8192
            1994     3.96031E-03     114.399E-03     36.5930E-03     8.55768E-03    -74.2017E-03     26.2705E-03    -70.5083E-03     15.1867E-03     11.8639E-03     27.3510E-03    -10.2960E-03    -17.0557E-03    -13.0970E-03     23.3923E-03    -10.2960E-03     25.1961E-03    -67.9226E+06    -95.0902E+06    -115.125E+06    -101.290E+06    -81.6999E+06    -95.1475E+06     4.85909E+06         22.1671
            1995     4.94600E-03     114.415E-03     38.3746E-03     6.44136E-03    -66.0260E-03     7.01644E-03    -43.9418E-03     15.7153E-03    -28.3472E-03     32.9413E-03    -11.1698E-03    -21.7729E-03    -15.6031E-03     26.7715E-03    -11.1698E-03     34.5293E-03    -53.3435E+06    -68.8742E+06    -89.1939E+06    -73.4178E+06    -71.5357E+06    -66.4581E+06     4.09815E+06         22.6274
            1996     5.93009E-03     114.438E-03     29.4097E-03     10.9793E-03    -57.0719E-03     189.964E-06    -30.4971E-03     13.6242E-03    -9.45704E-03     40.0164E-03    -12.2442E-03    -27.7741E-03    -19.0027E-03     31.2450E-03    -12.2442E-03     45.4606E-03    -33.0090E+06    -45.8263E+06    -65.5263E+06    -51.9693E+06    -55.5257E+06    -36.8666E+06     2.93329E+06         23.2405
            1997     6.90941E-03     114.471E-03     28.5325E-03     13.0207E-03    -54.2755E-03     22.8025E-03    -48.5454E-03     13.0207E-03     8.09685E-03     49.1373E-03    -13.5865E-03    -35.5458E-03    -23.8182E-03     37.4097E-03    -13.5865E-03     58.4663E-03    -7.67383E+06    -27.2769E+06    -49.2084E+06    -37.6442E+06    -38.8411E+06    -7.67383E+06     3.12200E+06         24.0381
            1998     7.88378E-03     114.517E-03     34.4225E-03     13.5808E-03    -61.7083E-03     32.0413E-03    -60.3792E-03     14.6330E-03    -22.0207E-03     60.1659E-03    -15.2458E-03    -44.9179E-03    -30.0816E-03     45.3296E-03    -15.2458E-03     73.1511E-03     16.8871E+06    -14.5074E+06    -33.4725E+06    -25.4221E+06    -22.5578E+06     16.8871E+06     5.04760E+06         25.0476
            1999     8.85276E-03     114.577E-03     23.3818E-03     6.50064E-03    -47.5141E-03     11.7120E-03    -44.7826E-03     15.4390E-03     1.01008E-03     73.0994E-03    -17.2698E-03    -55.8326E-03    -38.0988E-03     55.3656E-03    -17.2698E-03     88.7641E-03     39.6178E+06    -580.588E+03    -17.1589E+06    -11.1605E+06    -6.57893E+06     39.6178E+06     222.732E+03         26.2898
            2000     9.81210E-03     114.652E-03     16.9056E-03     1.06872E-03    -38.0183E-03    -847.224E-06    -33.6606E-03     14.4639E-03     25.1348E-03     87.5662E-03    -19.6892E-03    -67.8855E-03    -47.8827E-03     67.5634E-03    -19.6892E-03     104.004E-03     56.8991E+06     18.4048E+06    -5.52325E+06    -1.05519E+06     13.9367E+06     56.8991E+06    -7.56200E+06         27.7770
            2001     10.7631E-03     114.741E-03     23.2764E-03     4.49122E-03    -48.6811E-03     11.8046E-03    -46.3021E-03     13.5841E-03     18.2871E-03     102.949E-03    -22.5501E-03    -80.4353E-03    -59.3167E-03     81.8304E-03    -22.5501E-03     116.914E-03     63.1337E+06     28.2512E+06    -7.37093E+06    -573.833E+03     21.4541E+06     63.1337E+06    -13.2701E+06         29.5168
            2002     11.7023E-03     114.841E-03     22.3204E-03     8.37012E-03    -53.7551E-03     16.4045E-03    -53.0897E-03     13.6207E-03     7.99738E-03     118.975E-03    -25.8403E-03    -93.1682E-03    -71.9891E-03     97.7957E-03    -25.8403E-03     126.999E-03     60.9083E+06     27.9662E+06    -13.5461E+06    -2.51459E+06     16.9347E+06     60.9083E+06    -17.4523E+06         31.5159
            2003     12.6302E-03     114.953E-03     16.8241E-03     4.76372E-03    -49.9264E-03     3.68986E-03    -45.5067E-03     13.4783E-03     18.6576E-03     134.715E-03    -29.5525E-03    -105.125E-03    -84.9325E-03     114.522E-03    -29.5525E-03     132.941E-03     63.0204E+06     38.5675E+06    -12.1187E+06    -1.03469E+06     27.4835E+06     63.0204E+06    -19.5855E+06         33.8846
            2004     13.5470E-03     115.070E-03     16.7523E-03     5.87194E-03    -51.4895E-03     5.06742E-03    -46.8525E-03     12.9199E-03     24.4008E-03     149.939E-03    -33.5974E-03    -116.243E-03    -98.2402E-03     131.937E-03    -33.5974E-03     133.325E-03     59.3419E+06     44.0990E+06    -13.6250E+06     264.289E+03     33.2733E+06     56.2782E+06    -24.7692E+06         36.8231
            2005     14.4488E-03     115.189E-03     17.4135E-03     12.6533E-03    -58.2914E-03     15.4557E-03    -56.3920E-03     12.7117E-03     9.72966E-03     159.850E-03    -37.9933E-03    -121.775E-03    -109.439E-03     147.513E-03    -37.9933E-03     113.160E-03     65.3524E+06     56.9048E+06    -13.1646E+06     536.267E+03     46.2675E+06     62.2887E+06    -27.2952E+06         40.2780
            2006     15.3437E-03     115.276E-03     22.8311E-03     11.2350E-03    -59.0340E-03     19.6856E-03    -57.5551E-03     12.9017E-03    -2.20599E-03     169.136E-03    -42.4252E-03    -126.686E-03    -116.092E-03     158.542E-03    -42.4252E-03     109.309E-03     71.5491E+06     57.3214E+06    -14.7702E+06    -3.90378E+06     57.7157E+06     60.2884E+06    -23.3096E+06         43.7147
            2007     16.2295E-03     115.404E-03     22.6055E-03     3.67271E-03    -51.2554E-03     7.14909E-03    -44.9461E-03     12.8197E-03     15.4479E-03     172.880E-03    -46.7506E-03    -126.130E-03    -119.270E-03     166.021E-03    -46.7506E-03     74.7221E-03     65.6128E+06     26.9407E+06    -56.1342E+06    -5.42367E+06    -12.5091E+06     54.3520E+06    -16.2017E+06         46.5218
            2008     994.088E-06     115.395E-03     76.4759E-03     2.68819E-03    -83.7506E-03     10.9483E-03     14.3173E-03    -29.8521E-03     3.12417E-03     12.8530E-03    -6.13607E-03    -6.71676E-03    -6.38332E-03     12.5860E-03    -6.20247E-03     4.16231E-03    -117.071E+06    -205.393E+06    -209.623E+06    -208.615E+06    -117.683E+06    -205.788E+06    -1.21630E+06         21.0796
            2009     1.98753E-03     115.399E-03     56.9325E-03    -2.04695E-03    -71.5493E-03     26.9211E-03    -41.5379E-03    -2.04695E-03    -12.1358E-03     14.7851E-03    -6.54498E-03    -8.23924E-03    -7.34612E-03     13.8919E-03    -6.54498E-03     8.64621E-03    -96.6997E+06    -188.496E+06    -194.653E+06    -191.955E+06    -98.8862E+06    -189.008E+06    -10.1501E+06         21.2343
            2010     2.97929E-03     115.407E-03     50.9155E-03     10.3085E-03    -80.1276E-03     40.8414E-03    -70.0536E-03     10.3085E-03    -8.49086E-03     17.7974E-03    -7.06188E-03    -10.7350E-03    -8.72734E-03     15.7897E-03    -7.06188E-03     14.4589E-03    -84.6534E+06    -172.916E+06    -178.295E+06    -172.954E+06    -89.4258E+06    -173.486E+06    -19.1841E+06         21.4875
            2011     3.96939E-03     115.420E-03     29.9963E-03     8.91901E-03    -59.7514E-03     17.4138E-03    -53.7979E-03     15.5480E-03    -15.6341E-03     22.1411E-03    -7.72140E-03    -14.4156E-03    -10.6683E-03     18.3938E-03    -7.72140E-03     22.0878E-03    -69.0214E+06    -154.676E+06    -160.762E+06    -150.648E+06    -76.9571E+06    -156.855E+06    -24.1608E+06         21.8512
            2012     4.95764E-03     115.439E-03     26.4760E-03     6.60542E-03    -51.2153E-03    -11.3811E-03    -19.9871E-03     13.2344E-03    -17.1285E-03     27.9887E-03    -8.62111E-03    -19.3655E-03    -13.3699E-03     21.9931E-03    -8.62111E-03     31.4564E-03    -58.2345E+06    -126.905E+06    -136.968E+06    -123.472E+06    -69.4847E+06    -129.151E+06    -26.3244E+06         22.3474
            2013     5.94297E-03     115.466E-03     30.3137E-03     9.91073E-03    -52.5833E-03     10.0124E-06    -22.2796E-03     9.91073E-03    -7.27287E-03     35.5217E-03    -9.81184E-03    -25.7105E-03    -17.0299E-03     26.8411E-03    -9.81184E-03     42.6974E-03    -41.6692E+06    -85.5666E+06    -102.694E+06    -90.1152E+06    -55.7802E+06    -84.0348E+06    -23.6274E+06         23.0040
            2014     6.92495E-03     115.507E-03     28.5827E-03     10.1672E-03    -51.1275E-03     25.7329E-03    -48.2777E-03     10.1672E-03     8.52614E-03     45.1554E-03    -11.2901E-03    -33.8654E-03    -22.0351E-03     33.3251E-03    -11.2901E-03     56.3794E-03    -17.1530E+06    -43.5297E+06    -72.6686E+06    -55.0886E+06    -42.7154E+06    -35.5472E+06    -18.5612E+06         23.8473
            2015     7.90168E-03     115.560E-03     32.1437E-03     12.3437E-03    -58.4158E-03     31.1371E-03    -57.4093E-03     12.3437E-03    -17.8790E-03     56.7778E-03    -13.0613E-03    -43.7178E-03    -28.4727E-03     41.5328E-03    -13.0613E-03     72.0953E-03     11.6004E+06    -14.5866E+06    -43.7479E+06    -24.5112E+06    -28.4273E+06     6.20438E+06    -11.4440E+06         24.8975
            2016     8.87106E-03     115.630E-03     24.4316E-03     8.94129E-03    -50.0512E-03     18.2652E-03    -48.4961E-03     13.5526E-03    -4.58256E-03     70.2762E-03    -15.1377E-03    -55.1383E-03    -36.3177E-03     51.4556E-03    -15.1377E-03     89.5585E-03     38.2272E+06     8.27675E+06    -17.9127E+06    -8.12110E+06    -1.51482E+06     38.2272E+06    -5.73137E+06         26.1710
            2017     9.83419E-03     115.718E-03     16.4715E-03     3.04083E-03    -44.9311E-03     4.54233E-03    -43.1222E-03     13.1611E-03     5.87199E-03     85.5207E-03    -17.5778E-03    -67.9463E-03    -46.0791E-03     63.6534E-03    -17.5778E-03     107.228E-03     58.3026E+06     23.0955E+06    -7.01840E+06    -4.14006E+06     20.2171E+06     58.3026E+06    -5.58110E+06         27.6807
            2018     10.7869E-03     115.822E-03     22.5116E-03     7.16184E-03    -57.5256E-03     14.5412E-03    -55.0641E-03     12.6708E-03    -6.71253E-03     102.207E-03    -20.4601E-03    -81.7523E-03    -58.1220E-03     78.5771E-03    -20.4601E-03     122.979E-03     70.1345E+06     34.0102E+06    -1.80439E+06     2.44552E+06     29.7602E+06     70.1345E+06    -10.5166E+06         29.4359
            2019     11.7280E-03     115.941E-03     26.0574E-03     12.9406E-03    -64.8245E-03     22.4624E-03    -61.2295E-03     12.9406E-03    -12.2363E-03     119.500E-03    -23.8267E-03    -95.7020E-03    -71.6729E-03     95.4713E-03    -23.8267E-03     135.371E-03     75.4086E+06     37.6801E+06    -2.36639E+06     13.3995E+06     21.9142E+06     75.4086E+06    -15.7590E+06         31.4447
            2020     12.6565E-03     116.071E-03     20.7035E-03     5.81555E-03    -52.9567E-03     8.40409E-03    -47.7052E-03     12.8635E-03    -5.15951E-03     137.387E-03    -27.6638E-03    -109.720E-03    -86.4388E-03     114.106E-03    -27.6638E-03     144.119E-03     77.8434E+06     38.2052E+06     3.48333E+06     17.0075E+06     24.6811E+06     77.8434E+06    -11.3172E+06         33.8199
            2021     13.5704E-03     116.211E-03     18.1856E-03     5.20834E-03    -48.6273E-03     6.46784E-03    -43.9574E-03     12.2563E-03    -5.37156E-03     155.480E-03    -31.9447E-03    -123.487E-03    -102.268E-03     134.262E-03    -31.9447E-03     147.488E-03     78.2639E+06     55.0633E+06     5.60209E+06     11.7551E+06     51.3818E+06     75.7925E+06    -13.2342E+06         36.7656
            2022     14.4701E-03     116.354E-03     15.0791E-03     11.8825E-03    -49.9296E-03     12.4400E-03    -47.3489E-03     11.9409E-03     5.03498E-03     166.673E-03    -36.6535E-03    -130.010E-03    -115.294E-03     151.957E-03    -36.6535E-03     126.454E-03     70.8379E+06     57.5354E+06    -8.72497E+06     6.57356E+06     44.7083E+06     68.3665E+06    -19.7513E+06         40.1900
            2023     15.3564E-03     116.454E-03     12.4445E-03     9.91665E-03    -43.9596E-03     9.10466E-03    -42.4886E-03     11.7855E-03     9.85997E-03     175.669E-03    -41.4853E-03    -134.194E-03    -122.509E-03     163.985E-03    -41.4853E-03     117.679E-03     70.0659E+06     59.8155E+06    -6.16464E+06     5.03129E+06     50.4559E+06     68.2296E+06    -12.6263E+06         43.5281
            2024     16.2466E-03     116.588E-03     19.6894E-03     9.72123E-03    -57.0103E-03     7.64528E-03    -46.7766E-03     11.5317E-03     38.8587E-03     181.129E-03    -46.2476E-03    -134.882E-03    -127.380E-03     173.627E-03    -46.2476E-03     84.6740E-03     68.5468E+06     39.1622E+06    -57.8901E+06     437.750E+03    -15.6902E+06     65.0713E+06    -8.30925E+06         46.2341
            2025     993.763E-06     116.407E-03     78.1637E-03     30.0959E-03    -118.578E-03     34.4994E-03    -88.9225E-03     44.1042E-03     23.4997E-03     12.9224E-03    -6.30205E-03    -6.61993E-03    -6.39553E-03     12.8184E-03    -6.42252E-03     2.46467E-03    -101.129E+06    -161.913E+06    -166.734E+06    -162.461E+06    -104.591E+06    -162.724E+06    -10.8882E+06         21.0484
            2026     1.98719E-03     116.411E-03     57.5746E-03     12.6801E-03    -72.5622E-03    -24.5669E-03    -4.42903E-03     26.6884E-03     20.8494E-03     13.8877E-03    -6.53804E-03    -7.34866E-03    -6.94075E-03     13.4798E-03    -6.53804E-03     5.33209E-03    -76.1952E+06    -151.933E+06    -162.585E+06    -157.531E+06    -81.2487E+06    -151.933E+06    -19.4569E+06         21.1906
            2027     2.97997E-03     116.422E-03     47.1691E-03     9.85266E-03    -69.6979E-03    -14.5674E-03    -7.96132E-03     9.85266E-03    -43.5433E-03     15.8149E-03    -6.81738E-03    -8.99644E-03    -7.80304E-03     14.6215E-03    -6.81738E-03     10.1405E-03    -59.5660E+06    -148.171E+06    -164.326E+06    -153.384E+06    -70.5079E+06    -148.171E+06    -31.0219E+06         21.4231
            2028     3.97202E-03     116.436E-03     32.6567E-03     7.33981E-03    -54.5009E-03     20.6737E-03    -42.5179E-03     7.33981E-03    -6.63218E-03     19.3708E-03    -7.25533E-03    -12.1110E-03    -9.39896E-03     16.6588E-03    -7.25533E-03     17.3312E-03    -44.9775E+06    -141.047E+06    -166.484E+06    -145.830E+06    -63.5106E+06    -143.168E+06    -41.6483E+06         21.7777
            2029     4.96189E-03     116.459E-03     28.4121E-03     9.52778E-03    -49.8703E-03     15.7734E-03    -37.2315E-03     9.52778E-03     22.8373E-03     24.9723E-03    -7.97587E-03    -16.9892E-03    -12.0693E-03     20.0524E-03    -7.97587E-03     26.8496E-03    -33.0353E+06    -125.052E+06    -160.640E+06    -133.630E+06    -57.9240E+06    -127.173E+06    -48.8960E+06         22.2800
            2030     5.94798E-03     116.491E-03     23.9059E-03     9.85351E-03    -42.3193E-03     6.22818E-03    -24.6416E-03     9.85351E-03     1.91159E-03     32.7268E-03    -9.04116E-03    -23.6802E-03    -15.9141E-03     24.9607E-03    -9.04116E-03     38.8185E-03    -23.9341E+06    -99.5345E+06    -146.364E+06    -116.537E+06    -53.7610E+06    -99.5345E+06    -52.3900E+06         22.9467
            2031     6.93028E-03     116.537E-03     23.7640E-03     9.83669E-03    -41.1202E-03     13.7375E-03    -31.0937E-03     9.83669E-03    -9.42168E-03     42.4736E-03    -10.4154E-03    -32.0593E-03    -20.8844E-03     31.2987E-03    -10.4154E-03     53.1998E-03    -9.51152E+06    -68.0714E+06    -123.306E+06    -90.8464E+06    -41.9716E+06    -68.0714E+06    -50.9769E+06         23.7965
            2032     7.90748E-03     116.599E-03     15.1732E-03     7.40106E-03    -38.4022E-03     9.83273E-03    -35.6508E-03     9.99010E-03    -16.7728E-03     54.1439E-03    -12.1395E-03    -42.0078E-03    -27.1188E-03     39.2550E-03    -12.1395E-03     69.5672E-03     3.01891E+06    -35.5301E+06    -95.8541E+06    -58.5798E+06    -39.0686E+06    -30.7170E+06    -42.6111E+06         24.8471
            2033     8.87974E-03     116.679E-03     17.3952E-03     7.30533E-03    -44.0869E-03     13.0794E-03    -42.3602E-03     9.89437E-03    -9.31238E-03     67.8073E-03    -14.2324E-03    -53.5755E-03    -34.8407E-03     49.0725E-03    -14.2324E-03     87.7034E-03     25.7406E+06     2.92322E+06    -50.4516E+06    -25.0867E+06    -15.6684E+06     18.9672E+06    -23.3705E+06         26.1135
            2034     9.84404E-03     116.778E-03     24.0991E-03     10.3767E-03    -55.8064E-03     23.5093E-03    -55.2165E-03     10.3767E-03    -9.27781E-03     83.2471E-03    -16.6549E-03    -66.5987E-03    -44.4494E-03     61.0978E-03    -16.6549E-03     106.343E-03     61.0467E+06     30.5089E+06    -6.23554E+06     3.03701E+06     21.2364E+06     61.0467E+06    -11.3299E+06         27.6073
            2035     10.7990E-03     116.899E-03     19.1255E-03     8.72813E-03    -48.9957E-03     11.1766E-03    -43.0065E-03     10.6878E-03    -23.7043E-03     100.137E-03    -19.4647E-03    -80.6710E-03    -56.0491E-03     75.5147E-03    -19.4647E-03     123.972E-03     79.6272E+06     44.4528E+06     559.227E+03     13.3301E+06     31.6819E+06     79.6272E+06    -7.65318E+06         29.3366
            2036     11.7427E-03     117.036E-03     15.8644E-03     8.10154E-03    -41.8922E-03     4.51745E-03    -32.5049E-03     10.0612E-03    -34.8775E-03     118.090E-03    -22.7340E-03    -95.3686E-03    -69.6984E-03     92.4197E-03    -22.7340E-03     138.716E-03     83.6769E+06     46.9783E+06    -11.0287E+06     5.46305E+06     30.4865E+06     83.6769E+06    -9.03776E+06         31.3076
            2037     12.6739E-03     117.187E-03     24.8859E-03     9.72891E-03    -52.0108E-03     20.5816E-03    -47.7064E-03     9.72891E-03    -22.1960E-03     138.140E-03    -26.5171E-03    -111.634E-03    -86.1119E-03     112.618E-03    -26.5171E-03     151.108E-03      79.718E+06     33.7999E+06    -10.8625E+06     5.08659E+06     17.8509E+06      79.718E+06    -12.4897E+06         33.6295
            2038     13.5891E-03     117.353E-03     28.0931E-03     10.1506E-03    -54.2835E-03     24.9647E-03    -51.1551E-03     10.1506E-03    -21.6347E-03     157.246E-03    -30.8168E-03    -126.422E-03    -102.554E-03     133.378E-03    -30.8168E-03     157.162E-03     90.0212E+06     60.8209E+06     5.45324E+06     13.9745E+06     56.4131E+06     85.9078E+06    -6.00446E+06         36.5108
            2039     14.4880E-03     117.519E-03     19.2176E-03     10.4614E-03    -48.0457E-03     15.4512E-03    -44.2792E-03     10.4614E-03    -8.06912E-03     169.726E-03    -35.5611E-03    -134.159E-03    -116.909E-03     152.475E-03    -35.5611E-03     138.466E-03     80.0851E+06     61.2190E+06     1.36537E+06     10.8103E+06     55.8875E+06     75.9717E+06    -5.07213E+06         39.8485
            2040     15.3748E-03     117.636E-03     15.0503E-03     10.2731E-03    -42.7434E-03     13.4345E-03    -41.3298E-03     10.4752E-03     6.00216E-03     181.732E-03    -40.6350E-03    -141.093E-03    -128.603E-03     169.243E-03    -40.6350E-03     124.388E-03     70.3679E+06     48.5064E+06    -4.03690E+06     5.18525E+06     39.7675E+06     69.8846E+06    -7.79231E+06         43.0712
            2041     16.2506E-03     117.774E-03     18.9021E-03     8.89156E-03    -46.3940E-03     11.8779E-03    -40.9138E-03     10.4356E-03     11.5253E-03     188.287E-03    -45.7985E-03    -142.491E-03    -135.084E-03     180.881E-03    -45.7985E-03     89.3970E-03     71.9964E+06     37.9541E+06    -54.9596E+06     6.98811E+06    -21.8712E+06     69.8740E+06    -2.42128E+06         45.6774
            2042     991.620E-06     117.420E-03     82.2405E-03     30.2862E-03    -116.483E-03     48.2477E-03    -97.0221E-03     44.8177E-03     9.62453E-03     17.2281E-03    -8.45617E-03    -8.77227E-03    -8.49667E-03     17.2073E-03    -8.71103E-03     804.812E-06    -72.9925E+06    -105.819E+06    -113.789E+06    -106.059E+06    -84.0235E+06    -102.518E+06    -13.4667E+06         21.2938
            2043     1.98298E-03     117.426E-03     52.2716E-03     15.8093E-03    -78.6996E-03    -21.5466E-03    -21.8615E-03     32.7894E-03    -5.32569E-03     17.2692E-03    -8.50149E-03    -8.76854E-03    -8.55754E-03     17.1706E-03    -8.61386E-03     2.25613E-03    -50.3562E+06    -96.6335E+06    -113.057E+06    -102.017E+06    -61.3961E+06    -96.6335E+06    -22.3647E+06         21.4213
            2044     2.97496E-03     117.436E-03     35.3053E-03     5.96686E-03    -55.7012E-03    -27.0247E-03    -25.6776E-06     12.6213E-03    -52.9840E-03     18.2130E-03    -8.70066E-03    -9.51357E-03    -9.08457E-03     17.8177E-03    -8.73440E-03     5.46571E-03    -29.5213E+06    -83.4496E+06    -112.956E+06    -96.0179E+06    -46.4592E+06    -83.4496E+06    -32.6712E+06         21.6297
            2045     3.96576E-03     117.453E-03     35.1421E-03     2.19853E-03    -47.5813E-03     8.56180E-03    -25.2068E-03     6.40433E-03     24.6431E-03     20.5955E-03    -9.06155E-03    -11.5352E-03    -10.3856E-03     19.4459E-03    -9.06155E-03     10.7982E-03    -17.1171E+06    -70.6673E+06    -117.869E+06    -92.1278E+06    -42.8585E+06    -70.6673E+06    -43.6365E+06         21.9556
            2046     4.95502E-03     117.478E-03     45.8646E-03     8.47771E-03    -60.0698E-03     25.9637E-03    -40.1688E-03     8.47771E-03     46.8607E-03     24.7505E-03    -9.59575E-03    -15.1513E-03    -12.4801E-03     22.0793E-03    -9.59575E-03     18.9390E-03    -9.73438E+06    -63.6577E+06    -123.708E+06    -91.3976E+06    -42.0447E+06    -63.6577E+06    -51.0687E+06         22.4301
            2047     5.94249E-03     117.516E-03     26.6091E-03     10.4623E-03    -43.6300E-03     13.3567E-03    -30.3776E-03     10.4623E-03    -4.13738E-03     31.3404E-03    -10.4021E-03    -20.9322E-03    -15.7939E-03     26.2020E-03    -10.4021E-03     30.4670E-03    -1.03441E+06    -55.9924E+06    -129.172E+06    -90.7584E+06    -39.4484E+06    -55.9924E+06    -58.2466E+06         23.0701
            2048     6.92481E-03     117.568E-03     15.7998E-03     7.18326E-03    -35.8192E-03    -1.39504E-03    -21.3496E-03     9.90853E-03    -13.8530E-03     40.3717E-03    -11.5112E-03    -28.8672E-03    -20.3237E-03     31.8283E-03    -11.5112E-03     45.1699E-03     7.47944E+06    -49.7349E+06    -130.921E+06    -88.2778E+06    -35.1636E+06    -49.7349E+06    -63.4046E+06         23.8889
            2049     7.90296E-03     117.637E-03     9.69877E-03     455.257E-06    -27.6653E-03    -7.47300E-03    -18.1416E-03     8.10333E-03    -4.54410E-03     51.8227E-03    -12.9882E-03    -38.8445E-03    -26.2559E-03     39.2340E-03    -12.9882E-03     62.5269E-03     5.39079E+06    -38.4328E+06    -128.436E+06    -81.1023E+06    -41.9430E+06    -38.4328E+06    -63.2186E+06         24.9013
            2050     8.87427E-03     117.725E-03     16.2617E-03     2.16063E-03    -30.9660E-03     8.52114E-03    -28.1483E-03     7.08344E-03    -15.2611E-03     65.7364E-03    -14.8717E-03    -50.8596E-03    -33.9899E-03     48.8667E-03    -14.8717E-03     81.9699E-03     19.1317E+06    -15.7846E+06    -104.576E+06    -59.1326E+06    -32.5379E+06    -9.55810E+06    -56.9044E+06         26.1214
            2051     9.83839E-03     117.837E-03     22.8093E-03     7.51426E-03    -41.7774E-03     19.4271E-03    -38.3952E-03     7.51426E-03    -8.29368E-03     81.1768E-03    -17.1633E-03    -64.0131E-03    -43.2623E-03     60.4260E-03    -17.1633E-03     101.609E-03     49.1779E+06     19.3337E+06    -54.5114E+06    -25.5646E+06     6.49894E+06     33.0659E+06    -40.8244E+06         27.5596
            2052     10.7945E-03     117.969E-03     20.2301E-03     5.96560E-03    -37.7148E-03     10.8453E-03    -30.2896E-03     7.92530E-03     6.57681E-03     97.6950E-03    -19.9061E-03    -77.7966E-03    -54.2230E-03     74.1213E-03    -19.9061E-03     119.636E-03     72.3101E+06     35.6929E+06    -20.1276E+06     3.71014E+06     13.0350E+06     71.1302E+06    -15.4198E+06         29.2200
            2053     11.7417E-03     118.123E-03     15.2841E-03     5.38992E-03    -29.5322E-03     4.47717E-03    -21.0453E-03     7.70994E-03    -9.52280E-03     115.880E-03    -23.0539E-03    -92.8201E-03    -67.8382E-03     90.8983E-03    -23.0539E-03     135.359E-03     96.0638E+06     54.1060E+06    -4.19112E+06     18.7588E+06     31.1560E+06     96.0638E+06     4.07972E+06         31.1005
            2054     12.6743E-03     118.297E-03     16.2746E-03     5.83340E-03    -32.0219E-03     8.60337E-03    -26.0258E-03     7.50849E-03    -10.4292E-03     135.768E-03    -26.6511E-03    -109.111E-03    -83.4823E-03     110.139E-03    -26.6511E-03     149.817E-03     92.6180E+06     49.2204E+06    -2.98853E+06     14.2716E+06     31.9603E+06     92.6180E+06    -379.808E+03         33.2988
            2055     13.5907E-03     118.489E-03     24.9871E-03     6.41150E-03    -36.4045E-03     19.5301E-03    -32.2624E-03     7.72627E-03    -7.75026E-03     153.653E-03    -30.7074E-03    -122.936E-03    -98.0948E-03     128.811E-03    -30.7074E-03     157.936E-03     86.3895E+06     45.7555E+06    -7.95426E+06     1.50228E+06     37.9409E+06     84.7475E+06     632.427E+03         36.0116
            2056     14.4985E-03     118.674E-03     21.5191E-03     7.98829E-03    -33.9436E-03     15.7356E-03    -28.1601E-03     7.98829E-03    -13.5809E-03     168.320E-03    -35.2429E-03    -133.060E-03    -113.859E-03     149.120E-03    -35.2429E-03     145.539E-03     92.0919E+06     65.4474E+06    -10.0456E+06    -7.64462E+06     64.6884E+06     90.4500E+06     9.23477E+06         39.1787
            2057     15.3842E-03     118.830E-03     21.5554E-03     7.91457E-03    -37.3656E-03     12.4378E-03    -28.2480E-03     7.91457E-03    -20.6968E-03     185.322E-03    -40.2304E-03    -145.086E-03    -131.265E-03     171.502E-03    -40.2304E-03     131.965E-03     76.7596E+06     51.9829E+06    -18.5479E+06    -16.3020E+06     52.5061E+06     73.9904E+06     672.195E+03         42.2777
            2058     16.2534E-03     118.977E-03     17.6885E-03     5.05875E-03    -36.8805E-03     9.90108E-03    -31.7321E-03     7.69772E-03    -21.0500E-03     192.586E-03    -45.5707E-03    -147.014E-03    -139.365E-03     184.937E-03    -45.5707E-03     93.6203E-03     65.3218E+06     12.1508E+06    -68.8006E+06    -21.3421E+06    -32.5386E+06     62.5526E+06    -5.18465E+06         44.7951
            2059     987.697E-06     118.442E-03     56.8100E-03     12.7209E-03    -84.7374E-03     2.23937E-03    -37.6326E-03     20.1868E-03     105.796E-03     24.7184E-03    -12.1731E-03    -12.5458E-03    -12.3364E-03     24.7098E-03    -12.3739E-03    -806.203E-06    -30.7156E+06    -45.4059E+06    -71.2589E+06    -45.1050E+06    -60.8026E+06    -41.4728E+06    -11.5515E+06         21.7944
            2060     1.97638E-03     118.446E-03     43.5469E-03     10.5750E-03    -67.9827E-03     23.2448E-03    -50.6526E-03     13.5469E-03     31.0877E-03     24.8279E-03    -12.2787E-03    -12.5505E-03    -12.4102E-03     24.7999E-03    -12.3911E-03    -1.07992E-03    -14.9293E+06    -36.9714E+06    -66.4260E+06    -42.8894E+06    -38.6827E+06    -36.7547E+06    -23.7629E+06         21.9178
            2061     2.96420E-03     118.457E-03     34.2654E-03     8.13575E-03    -52.4245E-03     7.89379E-03    -32.7074E-03     14.7902E-03    -53.0816E-03     25.6003E-03    -12.5040E-03    -13.0972E-03    -12.9975E-03     25.5344E-03    -12.5378E-03     459.503E-06    -1.11505E+06    -31.6694E+06    -67.7539E+06    -41.7028E+06    -27.1662E+06    -31.6694E+06    -31.1986E+06         22.1053
            2062     3.95109E-03     118.474E-03     33.2215E-03     4.60271E-03    -38.6003E-03    -4.88632E-03    -7.50488E-03     11.6151E-03    -5.35022E-03     27.3843E-03    -12.9052E-03    -14.4835E-03    -14.2659E-03     27.1667E-03    -12.9052E-03     3.62490E-03     3.79020E+06    -23.1349E+06    -72.0638E+06    -43.7401E+06    -24.5335E+06    -23.1349E+06    -35.8199E+06         22.3867
            2063     4.93694E-03     118.502E-03     32.1317E-03     6.76270E-03    -39.5330E-03     9.20855E-03    -19.4165E-03     9.56935E-03     42.3042E-03     30.2130E-03    -13.4678E-03    -16.7486E-03    -16.0253E-03     29.4898E-03    -13.4678E-03     8.83241E-03     9.06291E+06    -16.2223E+06    -80.5649E+06    -46.6941E+06    -24.8079E+06    -16.2223E+06    -43.0248E+06         22.8070
            2064     5.92012E-03     118.542E-03     25.1852E-03     10.2739E-03    -40.7137E-03     18.9041E-03    -34.4326E-03     10.2739E-03     9.57956E-03     34.3187E-03    -14.2214E-03    -20.1128E-03    -18.2052E-03     32.4111E-03    -14.2214E-03     17.4175E-03     14.6353E+06    -7.16604E+06    -86.7346E+06    -48.7941E+06    -23.3053E+06    -7.16604E+06    -49.0040E+06         23.3893
            2065     6.90221E-03     118.599E-03     13.8243E-03     5.68505E-03    -30.7238E-03    -2.34998E-03    -18.9831E-03     10.1186E-03     5.31701E-03     40.6938E-03    -15.1596E-03    -25.5480E-03    -21.5202E-03     36.6660E-03    -15.1596E-03     29.4843E-03     16.1240E+06    -2.10161E+06    -93.3357E+06    -53.3821E+06    -23.8296E+06    -2.10161E+06    -52.6632E+06         24.1385
            2066     7.87954E-03     118.674E-03     8.06051E-03    -339.851E-06    -20.5844E-03    -11.8142E-03    -9.11000E-03     8.06051E-03     9.18041E-03     50.0821E-03    -16.3438E-03    -33.7392E-03    -26.5121E-03     42.8549E-03    -16.3438E-03     45.4299E-03     14.2771E+06    -5.30846E+06    -104.678E+06    -59.4408E+06    -30.9599E+06    -5.30846E+06    -57.6303E+06         25.0697
            2067     8.85141E-03     118.773E-03     13.0875E-03     2.67360E-03    -20.4647E-03     1.49017E-03    -12.8342E-03     6.64042E-03    -4.07041E-03     62.3517E-03    -17.8646E-03    -44.4906E-03    -33.0333E-03     50.8943E-03    -17.8646E-03     65.1164E-03     20.4575E+06    -7.63249E+06    -114.463E+06    -66.0591E+06    -27.9462E+06    -7.63249E+06     -64.394E+06         26.2015
            2068     9.81598E-03     118.894E-03     12.8660E-03     4.23371E-03    -26.1708E-03     1.52138E-03    -16.7419E-03     6.14955E-03     1.80695E-03     77.0378E-03    -19.7988E-03    -57.2312E-03    -41.2746E-03     61.0812E-03    -19.7988E-03     86.4105E-03     28.2706E+06     3.36307E+06    -106.998E+06    -68.1737E+06    -10.5536E+06     3.36307E+06    -60.6409E+06         27.5458
            2069     10.7719E-03     119.040E-03     17.5837E-03     4.14608E-03    -34.6048E-03     11.9381E-03    -30.8750E-03     6.06192E-03     18.2542E-03     94.1116E-03    -22.2404E-03    -71.8703E-03    -52.2824E-03     74.5236E-03    -22.2404E-03     106.868E-03     34.4007E+06     8.62135E+06    -86.6842E+06    -55.6776E+06    -15.5699E+06     27.5853E+06    -43.4870E+06         29.1023
            2070     11.7163E-03     119.208E-03     22.3508E-03     6.23667E-03    -35.6062E-03     18.4408E-03    -32.0564E-03     6.59699E-03     806.920E-06     112.747E-03    -25.1740E-03    -87.5779E-03    -65.4229E-03     90.5919E-03    -25.1740E-03     125.552E-03     62.7899E+06     35.1318E+06    -56.8902E+06    -27.2074E+06     5.44902E+06     62.7899E+06    -22.1940E+06         30.8524
            2071     12.6488E-03     119.404E-03     11.1320E-03     1.87983E-03    -20.1604E-03     405.752E-06    -14.1848E-03     6.63056E-03    -14.7490E-03     131.135E-03    -28.5649E-03    -102.569E-03    -78.8815E-03     107.447E-03    -28.5649E-03     140.990E-03     94.2227E+06     47.3922E+06    -17.7623E+06     213.977E+03     29.4160E+06     94.2227E+06     510.063E+03         32.8712
            2072     13.5749E-03     119.609E-03     13.4271E-03     1.50632E-03    -15.4065E-03    -909.517E-06    -5.46025E-03     5.89674E-03    -11.9151E-03     147.392E-03    -32.3005E-03    -115.081E-03    -92.1923E-03     124.503E-03    -32.3005E-03     147.782E-03     105.893E+06     41.5627E+06    -891.228E+03     13.6991E+06     26.9723E+06     105.893E+06     12.1711E+06         35.3190
            2073     14.4860E-03     119.821E-03     18.9114E-03     5.36488E-03    -21.2273E-03     7.58173E-03    -9.89765E-03     5.36488E-03    -11.6349E-03     160.912E-03    -36.3577E-03    -124.538E-03    -105.679E-03     142.053E-03    -36.3577E-03     141.016E-03     113.760E+06     76.0779E+06    -7.52868E+06     21.0927E+06     47.4565E+06     113.760E+06     25.8832E+06         38.1856
            2074     15.3802E-03     120.012E-03     24.0729E-03     5.24571E-03    -25.6789E-03     10.1672E-03    -11.7733E-03     5.24571E-03    -8.09850E-03     178.254E-03    -40.6951E-03    -137.554E-03    -121.466E-03     162.166E-03    -40.6951E-03     138.369E-03     117.842E+06     89.9832E+06    -2.06413E+06     21.2352E+06     83.0540E+06     101.471E+06     27.4761E+06         41.0957
            2075     16.2557E-03     120.184E-03     21.7063E-03     3.90950E-03    -30.6990E-03     4.84732E-03    -15.1371E-03     5.20657E-03     8.05790E-03     190.188E-03    -45.5631E-03    -144.623E-03    -135.057E-03     180.623E-03    -45.5631E-03     102.940E-03     98.7438E+06     42.8575E+06    -62.5032E+06     10.1457E+06    -13.4211E+06     82.3736E+06     4.79335E+06         43.5502
            2076     983.615E-06     119.470E-03     79.4204E-03     1.27729E-03    -95.3380E-03     6.37679E-03    -29.2369E-03     8.21985E-03     144.409E-03     35.3606E-03    -17.0930E-03    -18.2729E-03    -17.3907E-03     35.3113E-03    -17.9258E-03    -2.96555E-03     15.3940E+06     3.83625E+06    -41.2602E+06     9.94891E+06    -36.6104E+06     4.63158E+06    -13.2592E+06         22.4843
            2077     1.96567E-03     119.476E-03     38.8713E-03     5.88075E-03    -56.0998E-03     10.8611E-03    -30.2374E-03     8.02862E-03     36.8009E-03     36.2156E-03    -17.7852E-03    -18.4350E-03    -18.3568E-03     36.1374E-03    -17.7852E-03    -4.08509E-03     18.0434E+06     2.87827E+06    -31.0172E+06     4.96847E+06    -18.1590E+06     3.09498E+06    -20.4021E+06         22.6130
            2078     2.94747E-03     119.486E-03     33.7202E-03     7.33037E-03    -50.8744E-03     14.4932E-03    -33.7953E-03     9.47824E-03    -54.7205E-03     37.7782E-03    -18.2135E-03    -19.5612E-03    -19.4744E-03     37.6913E-03    -18.2135E-03    -4.20275E-03     19.2150E+06     4.44310E+06    -33.1564E+06    -455.035E+03    -13.4863E+06     4.44310E+06    -24.7344E+06         22.8050
            2079     3.92851E-03     119.507E-03     26.1454E-03     6.93282E-03    -38.0850E-03     6.29727E-03    -21.0435E-03     9.73947E-03    -31.0897E-03     40.0722E-03    -18.8549E-03    -21.2184E-03    -21.1390E-03     39.9929E-03    -18.8549E-03    -3.37855E-03     19.0690E+06     9.01142E+06    -35.8553E+06    -5.55187E+06    -12.5106E+06     10.2876E+06    -26.2334E+06         23.0675
            2080     4.90608E-03     119.536E-03     12.9579E-03     5.39232E-03    -23.8984E-03     3.16820E-03    -17.3461E-03     8.62976E-03    -3.94674E-03     42.7815E-03    -19.6871E-03    -23.0962E-03    -22.9951E-03     42.6804E-03    -19.6871E-03    -1.33320E-03     27.9328E+06     13.5167E+06    -41.0237E+06    -11.3390E+06    -9.44286E+06     21.2077E+06    -30.2964E+06         23.4400
            2081     5.88292E-03     119.579E-03     13.9392E-03     7.34171E-03    -25.5738E-03     6.54149E-03    -18.6069E-03     7.77251E-03    -22.2978E-03     45.9073E-03    -20.6537E-03    -25.2779E-03    -24.9999E-03     45.6293E-03    -20.6537E-03     3.06672E-03     32.3810E+06     14.6276E+06    -50.6058E+06    -19.9340E+06    -12.1085E+06     28.4454E+06    -34.0594E+06         23.9467
            2082     6.85698E-03     119.638E-03     17.8345E-03     5.55908E-03    -25.8815E-03     6.35982E-03    -16.1150E-03     7.26734E-03    -19.7106E-03     50.0281E-03    -21.7076E-03    -28.3391E-03    -27.5311E-03     49.2202E-03    -21.7076E-03     9.95462E-03     27.9463E+06     14.7770E+06    -57.7970E+06    -28.1253E+06    -13.7177E+06     26.7694E+06    -35.7629E+06         24.5870
            2083     7.82859E-03     119.718E-03     22.0135E-03     3.61205E-03    -27.9521E-03     8.17447E-03    -17.4544E-03     6.95337E-03    -25.7640E-03     55.6707E-03    -22.9067E-03    -32.7570E-03    -30.7829E-03     53.6966E-03    -22.9067E-03     19.7897E-03     25.8983E+06     11.4970E+06    -67.2331E+06    -36.0114E+06    -15.6228E+06     21.7964E+06    -39.9711E+06         25.3761
            2084     8.79644E-03     119.819E-03     17.4095E-03     5.14873E-03    -21.5650E-03     5.20943E-03    -10.9980E-03     6.78179E-03    -9.60067E-03     63.1534E-03    -24.3363E-03    -38.8000E-03    -34.8066E-03     59.1600E-03    -24.3363E-03     33.0761E-03     27.5949E+06     10.7244E+06    -78.1491E+06    -46.1886E+06    -15.0625E+06     21.4213E+06    -44.4901E+06         26.3565
            2085     9.76059E-03     119.948E-03     9.18988E-03     4.23974E-03    -14.9941E-03    -2.34551E-03    -5.50227E-03     6.28326E-03     3.07191E-03     73.2375E-03    -26.0117E-03    -47.2104E-03    -40.4606E-03     66.4877E-03    -26.0117E-03     49.2701E-03     29.0743E+06     8.81982E+06    -86.3305E+06    -58.2490E+06    -10.4662E+06     20.2787E+06    -45.8180E+06         27.5666
            2086     10.7178E-03     120.105E-03     14.5457E-03     3.62345E-03    -25.4279E-03    -80.1263E-06    -12.8455E-03     5.66697E-03     10.4220E-03     86.1911E-03    -28.0049E-03    -58.1852E-03    -48.3198E-03     76.3257E-03    -28.0049E-03     68.1759E-03     20.9579E+06    -852.841E+03    -96.5218E+06    -68.7067E+06    -23.0323E+06     15.3223E+06    -44.5055E+06         29.0010
            2087     11.6637E-03     120.293E-03     18.7726E-03     4.34581E-03    -29.0798E-03     7.19286E-03    -18.5467E-03     5.39239E-03     8.63395E-03     101.211E-03    -30.3665E-03    -70.8335E-03    -57.5103E-03     87.8876E-03    -30.3665E-03     89.2864E-03     27.4857E+06     13.0135E+06    -94.7626E+06    -70.6385E+06    -11.1106E+06     27.4857E+06    -43.6851E+06         30.6176
            2088     12.6019E-03     120.498E-03     9.46867E-03    -292.289E-06    -16.2831E-03     538.112E-06    -12.6121E-03     4.96721E-03    -9.39180E-03     118.160E-03    -33.1082E-03    -85.0423E-03    -68.5438E-03     101.662E-03    -33.1082E-03     109.857E-03     51.3630E+06     22.6518E+06    -78.8422E+06    -54.2668E+06    -1.92362E+06     51.3630E+06    -32.7681E+06         32.4526
            2089     13.5243E-03     120.726E-03     10.7298E-03    -24.3984E-06    -12.3673E-03    -2.29950E-03    -3.55096E-03     4.18852E-03    -9.50657E-03     134.627E-03    -36.1395E-03    -98.4760E-03    -80.2711E-03     116.422E-03    -36.1395E-03     124.820E-03     75.6083E+06     30.6593E+06    -52.2991E+06    -26.2266E+06     4.58684E+06     75.6083E+06    -12.0007E+06         34.6160
            2090     14.4367E-03     120.954E-03     17.0149E-03     3.92215E-03    -17.2098E-03     9.05812E-03    -9.25294E-03     3.92215E-03    -803.360E-06     147.182E-03    -39.3776E-03    -107.794E-03    -90.3704E-03     129.759E-03    -39.3776E-03     128.422E-03     100.916E+06     48.3763E+06    -29.9382E+06     188.023E+03     18.2500E+06     100.916E+06     8.57908E+06         37.0868
            2091     15.3525E-03     121.164E-03     20.9251E-03     4.32971E-03    -20.8279E-03     13.5667E-03    -13.4694E-03     4.32971E-03     24.6904E-03     159.784E-03    -42.6462E-03    -117.134E-03    -100.165E-03     142.815E-03    -42.6462E-03     132.766E-03     132.967E+06     86.0130E+06    -3.78931E+06     22.0496E+06     75.5957E+06     117.545E+06     29.9404E+06         39.6532
            2092     16.2598E-03     121.376E-03     23.9212E-03     4.55514E-03    -27.4465E-03     3.54590E-03    -7.07120E-03     4.55514E-03     17.1954E-03     174.916E-03    -46.2256E-03    -128.687E-03    -117.236E-03     163.464E-03    -46.2256E-03     108.887E-03     116.347E+06     70.1249E+06    -48.2937E+06     29.2804E+06     17.7383E+06     91.1590E+06     31.2317E+06         41.9599
            2093     976.226E-06     120.513E-03     74.2024E-03    -17.4410E-03    -82.1563E-03     8.89126E-03    -16.8452E-03    -17.4410E-03     78.1855E-03     49.2936E-03    -23.4595E-03    -25.8403E-03    -24.6058E-03     49.2078E-03    -24.6082E-03    -5.00665E-03     46.4513E+06     37.9097E+06    -19.6639E+06     40.6702E+06    -16.3449E+06     40.3718E+06    -13.4178E+06         23.1566
            2094     1.95239E-03     120.518E-03     31.6385E-03    -3.61797E-03    -44.8438E-03     10.3304E-03    -25.6836E-03    -1.47010E-03     9.13933E-03     50.4235E-03    -24.4608E-03    -25.9660E-03    -25.5587E-03     50.3322E-03    -24.7767E-03    -5.18134E-03     39.1554E+06     29.1577E+06    -9.79048E+06     32.9597E+06    -5.21346E+06     30.7764E+06    -12.7246E+06         23.2892
            2095     2.92642E-03     120.533E-03     22.5492E-03     111.336E-06    -31.9211E-03     7.71338E-03    -19.2331E-03     2.25921E-03    -34.3809E-03     53.8914E-03    -25.5266E-03    -28.3605E-03    -28.2349E-03     53.7658E-03    -25.5266E-03    -6.32357E-03     34.3330E+06     26.0944E+06    -10.4940E+06     22.5507E+06    -3.38211E+06     30.7647E+06    -13.7752E+06         23.5049
            2096     3.89650E-03     120.555E-03     17.4947E-03     2.91217E-03    -34.5706E-03     2.12993E-03    -19.2057E-03     2.91217E-03    -24.5342E-03     57.5582E-03    -26.6873E-03    -30.8660E-03    -30.6939E-03     57.3861E-03    -26.6873E-03    -7.76818E-03     38.9616E+06     22.5729E+06    -14.5784E+06     14.5188E+06    -5.25551E+06     37.6929E+06    -15.2208E+06         23.7897
            2097     4.86607E-03     120.588E-03     14.7691E-03     1.43932E-03    -29.9767E-03    -4.54808E-03    -11.0903E-03     1.87012E-03    -26.9293E-03     61.7091E-03    -28.0147E-03    -33.6896E-03    -33.4786E-03     61.4980E-03    -28.0147E-03    -8.84408E-03     47.0176E+06     21.1317E+06    -13.4248E+06     8.81577E+06    -1.10891E+06     47.0176E+06    -15.4193E+06         24.1516
            2098     5.83108E-03     120.633E-03     16.1392E-03     194.455E-06    -19.3090E-03    -1.56385E-03    -2.03680E-03     625.256E-06    -34.8692E-03     66.7050E-03    -29.5252E-03    -37.1750E-03    -36.9155E-03     66.4455E-03    -29.5252E-03    -9.51246E-03     52.3864E+06     16.6479E+06    -17.7746E+06     3.33385E+06    -4.46056E+06     52.3864E+06    -15.6502E+06         24.6020
            2099     6.79239E-03     120.696E-03     27.1367E-03     1.10260E-03    -25.1995E-03     16.5314E-03    -14.5942E-03     1.10260E-03    -35.0018E-03     71.6571E-03    -31.2271E-03    -40.4351E-03    -40.0969E-03     71.3189E-03    -31.2271E-03    -9.40493E-03     53.6120E+06     14.8822E+06    -24.3478E+06    -3.62398E+06    -5.84166E+06     53.6120E+06    -17.8004E+06         25.1438
            2100     7.74961E-03     120.777E-03     39.5183E-03     3.50661E-03    -32.3178E-03     30.2529E-03    -23.0524E-03     3.50661E-03    -19.8373E-03     76.3595E-03    -33.0520E-03    -43.3127E-03    -42.8188E-03     75.8657E-03    -33.0520E-03    -8.30678E-03     53.9183E+06     11.9726E+06    -30.6003E+06    -12.1852E+06    -6.44254E+06     53.9183E+06    -19.5285E+06         25.7838
            2101     8.70378E-03     120.882E-03     29.9038E-03     5.91641E-03    -20.9383E-03     22.8734E-03    -13.9079E-03     5.91641E-03     1.30854E-03     81.3159E-03    -34.9752E-03    -46.3129E-03    -45.4816E-03     80.4847E-03    -34.9752E-03    -6.29268E-03     54.7529E+06     12.2677E+06    -39.2892E+06    -21.5244E+06    -5.49713E+06     54.7529E+06    -22.0673E+06         26.5750
            2102     9.65335E-03     121.011E-03     11.0754E-03     4.92275E-03    -10.5967E-03     4.00304E-03    -5.29221E-03     6.69062E-03     4.26622E-03     86.0128E-03    -37.0023E-03    -49.0089E-03    -47.6437E-03     84.6476E-03    -37.0023E-03    -2.54150E-03     51.5178E+06     8.26056E+06    -45.3080E+06    -29.2302E+06    -7.81726E+06     51.5178E+06    -21.2675E+06         27.6129
            2103     10.5975E-03     121.174E-03     15.3809E-03     3.91856E-03    -23.9342E-03    -12.9799E-03     2.65873E-03     5.68643E-03    -5.81076E-03     89.7535E-03    -39.0249E-03    -50.7361E-03    -48.4686E-03     87.4860E-03    -39.0249E-03     4.74104E-03     47.4564E+06     7.69948E+06    -52.3283E+06    -34.0417E+06    -10.5871E+06     47.4564E+06    -23.4317E+06         28.9252
            2104     11.5439E-03     121.360E-03     16.6027E-03     2.86907E-03    -27.3910E-03    -12.9020E-03     1.06716E-03     3.91565E-03    -11.6873E-03     94.2354E-03    -40.5485E-03    -53.6630E-03    -49.4964E-03     90.4891E-03    -40.9689E-03     16.0124E-03     43.4972E+06     9.62226E+06    -55.9577E+06    -39.1649E+06    -7.17054E+06     43.4972E+06    -25.5119E+06         30.4492
            2105     12.4856E-03     121.579E-03     10.1198E-03     473.093E-06    -16.1792E-03    -650.066E-06    -7.59319E-03     2.65695E-03    -9.85888E-03     99.9400E-03    -39.3761E-03    -60.5546E-03    -51.2555E-03     94.1546E-03    -42.8897E-03     31.0378E-03     37.8871E+06     12.1439E+06    -70.8870E+06    -50.8864E+06    -7.85673E+06     37.8871E+06    -29.1455E+06         32.1569
            2106     13.4268E-03     121.817E-03     18.5803E-03     1.46688E-03    -19.7612E-03     15.4211E-03    -17.7393E-03     2.60415E-03    -2.27926E-03     104.832E-03    -36.2552E-03    -68.5739E-03    -52.1257E-03     96.8068E-03    -44.6787E-03     47.7068E-03     35.2906E+06     8.71783E+06    -82.2213E+06    -61.8322E+06    -11.6713E+06     35.2906E+06    -26.3424E+06         34.0999
            2107     14.3689E-03     122.062E-03     19.9578E-03     3.29551E-03    -16.3810E-03     17.0129E-03    -13.4360E-03     3.29551E-03    -2.38901E-03     112.064E-03    -37.4852E-03    -74.5823E-03    -57.0285E-03     103.357E-03    -46.3320E-03     61.7965E-03     57.6682E+06     3.83108E+06    -67.3806E+06    -54.7388E+06    -384.045E+03     49.2416E+06    -20.9252E+06         36.2554
            2108     15.2907E-03     122.292E-03     18.1224E-03     3.58156E-03    -13.5081E-03     6.56407E-03    -1.94977E-03     3.58156E-03     1.59936E-03     125.867E-03    -44.6549E-03    -81.2156E-03    -69.3636E-03     117.531E-03    -48.1715E-03     66.2546E-03     85.4354E+06     24.3967E+06    -45.5839E+06    -37.2325E+06     26.2925E+06     75.1882E+06    -3.32788E+06         38.4462
            2109     16.2162E-03     122.501E-03     24.1408E-03     3.45734E-03    -26.3033E-03     7.26083E-03    -9.42340E-03     3.45734E-03    -12.6853E-03     122.062E-03    -34.8161E-03    -87.2465E-03    -66.4002E-03     116.095E-03    -49.6953E-03     53.8409E-03     76.0473E+06     33.2266E+06    -53.5253E+06    -10.7213E+06     8.58389E+06     57.8861E+06     24.4519E+06         40.4790


