********************************************************************************
Field Output Report, written Mon May  5 23:57:53 2025

Source 1
---------

   ODB: D:/AISI_1020/Vel_10/1020_2a_24_rd_500_cal_0_v_10_fric_050.odb
   Step: Step-1
   Frame: Increment   8825367: Step Time =    1.136

Loc 1 : Nodal values from source 1

Output sorted by column "Node Label".

Field Output reported at nodes for region: DIE_2A_24_D0_36-1.Region_1
   Computation algorithm: EXTRAPOLATE_COMPUTE_AVERAGE
   Averaged at nodes
   Averaging regions: ODB_REGIONS

      Node Label     COORD.COOR1     COORD.COOR2
                          @Loc 1          @Loc 1
-------------------------------------------------
               1     20.6553E-03     155.822E-03


Field Output reported at nodes for region: DIE_2A_24_D0_36-1.Region_2
   Computation algorithm: EXTRAPOLATE_COMPUTE_AVERAGE
   Averaged at nodes
   Averaging regions: ODB_REGIONS

      Node Label     COORD.COOR1     COORD.COOR2
                          @Loc 1          @Loc 1
-------------------------------------------------
               1     20.6553E-03     155.822E-03


Field Output reported at nodes for part: WIRE_1-1
   Computation algorithm: EXTRAPOLATE_COMPUTE_AVERAGE
   Averaged at nodes
   Averaging regions: ODB_REGIONS

      Node Label     COORD.COOR1     COORD.COOR2    ER.Max. Prin    ER.Mid. Prin    ER.Min. Prin         ER.ER11         ER.ER22         ER.ER33         ER.ER12    PE.Max. Prin    PE.Mid. Prin    PE.Min. Prin         PE.PE11         PE.PE22         PE.PE33         PE.PE12     S.Max. Prin     S.Mid. Prin     S.Min. Prin           S.S11           S.S22           S.S33           S.S12            TEMP
                          @Loc 1          @Loc 1          @Loc 1          @Loc 1          @Loc 1          @Loc 1          @Loc 1          @Loc 1          @Loc 1          @Loc 1          @Loc 1          @Loc 1          @Loc 1          @Loc 1          @Loc 1          @Loc 1          @Loc 1          @Loc 1          @Loc 1          @Loc 1          @Loc 1          @Loc 1          @Loc 1          @Loc 1
-----------------------------------------------------------------------------------------------------------------------------------------------------------------------------------------------------------------------------------------------------------------------------------------------------------------------------------------------------------------------------------------------------------------
               1     17.0197E-03     62.0274E-03     335.229E-03     317.880E-03        -1.12562     322.429E-03        -1.12486     329.922E-03    -61.0509E-03     114.215E-03    -56.7766E-03    -57.4669E-03    -54.3860E-03     111.162E-03    -56.8043E-03     45.3732E-03     164.006E+06     126.531E+06    -2.60263E+06    -2.56901E+06     163.972E+06     126.531E+06    -777.480E+03         51.7791
               2    -899.309E-09     61.5193E-03         1.22885    -405.913E-03        -1.28567         1.20041        -1.25722    -405.913E-03     518.191E-03     112.885E-03    -56.0432E-03    -56.8363E-03    -56.0425E-03     112.885E-03    -56.8363E-03     427.080E-06    -60.4510E+06    -63.4018E+06    -223.634E+06    -60.5077E+06    -223.577E+06    -63.4018E+06    -2.92903E+06         28.3980
               3     3.51288E-06    -275.671E-09     536.704E-03     397.402E-03        -1.60930     536.702E-03        -1.60929     397.402E-03     4.52638E-03     248.049E-03    -122.842E-03    -125.203E-03    -125.202E-03     248.048E-03    -122.842E-03     1.41028E-03    -80.0224E+06    -80.3917E+06    -241.964E+06    -80.2561E+06    -241.730E+06    -80.3917E+06     6.14765E+06         39.1525
               4     16.5825E-03    -275.671E-09     528.953E-03     457.466E-03        -1.87154     527.021E-03        -1.86961     457.466E-03    -136.146E-03     220.082E-03    -76.8418E-03    -143.026E-03    -120.982E-03     198.038E-03    -76.8418E-03     173.419E-03     153.511E+06     150.411E+06     33.8605E+06     36.5592E+06     150.812E+06     150.411E+06     17.7655E+06         47.5108
               5     16.6591E-03     124.679E-03     20.0553E-03     6.96471E-03    -47.0976E-03    -46.2915E-03     19.2492E-03     6.96471E-03     14.6265E-03     34.8576E-03     28.7697E-03    -63.6258E-03     34.5706E-03     29.0567E-03    -63.6258E-03     2.58056E-03     54.8863E+06    -3.89009E+06    -155.705E+06     53.7579E+06    -2.76170E+06    -155.705E+06     8.06533E+06         45.3097
               6     11.0985E-06     121.787E-03     73.0696E-03    -17.3786E-03    -62.2423E-03     70.1595E-03    -59.3323E-03    -17.3786E-03     39.2577E-03     57.0812E-03    -26.0281E-03    -31.0518E-03    -30.9361E-03     56.9656E-03    -26.0281E-03    -6.38094E-03     62.0931E+06     47.9189E+06    -11.1061E+06     44.0467E+06    -7.23384E+06     62.0931E+06    -14.6138E+06         23.3133
               7     16.0727E-03     61.9785E-03     333.096E-03     318.240E-03        -1.12613     320.314E-03        -1.12554     330.434E-03    -54.2367E-03     119.833E-03    -56.8394E-03    -63.0783E-03    -54.4282E-03     111.197E-03    -56.8533E-03     73.2663E-03     163.969E+06     125.280E+06    -7.77393E+06    -7.71608E+06     163.911E+06     125.280E+06    -280.294E+03         50.4936
               8     15.1246E-03     61.8679E-03     331.584E-03     319.542E-03        -1.12644     319.033E-03        -1.12592     331.575E-03     3.61751E-03     124.057E-03    -56.8555E-03    -67.3052E-03    -55.0175E-03     111.769E-03    -56.8555E-03     93.5346E-03     159.605E+06     111.286E+06    -15.6236E+06    -15.5729E+06     159.554E+06     111.286E+06     884.137E+03         47.4039
               9     14.1807E-03     61.7735E-03     338.490E-03     326.515E-03        -1.13754     332.228E-03        -1.13714     332.376E-03     21.4590E-03     120.199E-03    -56.6198E-03    -63.6952E-03    -55.1724E-03     111.676E-03    -56.6198E-03     76.9079E-03     147.486E+06     64.4400E+06    -21.0574E+06    -21.0353E+06     147.464E+06     64.4400E+06     1.71376E+06         43.6806
              10     13.2345E-03     61.6988E-03     340.611E-03     330.009E-03        -1.14250     338.036E-03        -1.14237     332.455E-03    -5.64535E-03     115.741E-03    -56.4249E-03    -59.5633E-03    -54.9264E-03     111.104E-03    -56.4249E-03     54.8379E-03     124.768E+06     7.79396E+06    -26.1289E+06    -26.0708E+06      124.71E+06     7.79396E+06     1.68989E+06         40.1551
              11     12.2873E-03     61.6543E-03     334.970E-03     317.621E-03        -1.12703     319.611E-03        -1.12698     332.929E-03     5.11984E-03     113.515E-03    -56.4790E-03    -57.3076E-03    -55.4381E-03     111.645E-03    -56.4790E-03     34.8502E-03     57.7808E+06    -10.2671E+06    -29.2932E+06    -29.1509E+06     57.6385E+06    -10.2671E+06     981.809E+03         37.2910
              12     11.3422E-03     61.6248E-03     335.060E-03     316.191E-03        -1.12746     316.853E-03        -1.12732     334.259E-03     10.7338E-03     113.533E-03    -56.5260E-03    -57.1480E-03    -56.1158E-03     112.501E-03    -56.5260E-03     26.4080E-03    -2.67489E+06    -17.7507E+06    -43.9864E+06    -29.8392E+06    -26.1454E+06    -8.42731E+06     462.206E+03         35.1030
              13     10.3973E-03     61.5991E-03     338.458E-03     328.297E-03        -1.14089     331.386E-03        -1.14076     335.236E-03     5.00064E-03     113.518E-03    -56.5004E-03    -57.0158E-03    -56.2125E-03     112.768E-03    -56.5533E-03     22.4438E-03    -10.6425E+06    -30.6610E+06    -84.2608E+06    -30.6822E+06    -84.2397E+06    -10.6425E+06     775.414E+03         33.4869
              14     9.45102E-03     61.5782E-03     343.245E-03     328.922E-03        -1.14475     336.392E-03        -1.14441     335.436E-03     29.7260E-03     113.404E-03    -56.5528E-03    -56.7553E-03    -56.2112E-03     112.957E-03    -56.6499E-03     17.1760E-03    -10.3670E+06    -32.5098E+06    -126.589E+06    -32.5277E+06    -126.571E+06    -10.3670E+06     759.955E+03         32.2907
              15     8.50621E-03     61.5626E-03     344.450E-03     324.691E-03        -1.14035     331.347E-03        -1.13827     335.706E-03    -41.1615E-03     113.642E-03    -56.7060E-03    -56.8281E-03    -56.5254E-03     113.393E-03    -56.7605E-03     12.9152E-03    -11.7147E+06    -35.4840E+06    -158.858E+06    -35.4974E+06    -158.845E+06    -11.7147E+06     920.090E+03         31.3822
              16     7.56147E-03     61.5502E-03     342.394E-03     324.846E-03        -1.13488     328.479E-03        -1.13266     336.540E-03    -35.0153E-03     113.467E-03    -56.5621E-03    -56.8162E-03    -56.4162E-03     113.309E-03    -56.8038E-03     10.3085E-03    -16.8976E+06    -39.8145E+06    -184.993E+06    -39.8280E+06    -184.979E+06    -16.8976E+06     464.973E+03         30.6569
              17     6.61535E-03     61.5407E-03     344.293E-03     329.576E-03        -1.14326     335.636E-03        -1.14226     337.235E-03     108.002E-06     113.350E-03    -56.4716E-03    -56.8333E-03    -56.3683E-03     113.247E-03    -56.8333E-03     8.33326E-03    -23.2527E+06    -43.4238E+06    -201.813E+06    -43.4367E+06    -201.800E+06    -23.2527E+06    -709.785E+03         30.0665
              18     5.67056E-03     61.5336E-03     345.369E-03     333.001E-03        -1.15088     340.346E-03        -1.14998     337.129E-03    -9.48565E-03     113.610E-03    -56.7269E-03    -56.9064E-03    -56.6951E-03     113.546E-03    -56.8740E-03     6.53525E-03    -27.7391E+06    -45.0725E+06    -211.839E+06    -45.0857E+06    -211.826E+06    -27.7391E+06    -219.568E+03         29.5945
              19     4.72549E-03     61.5278E-03     342.096E-03     319.827E-03        -1.13635     323.134E-03        -1.13598     338.415E-03     21.4043E-03     113.724E-03    -56.8031E-03    -56.9440E-03    -56.8954E-03     113.692E-03    -56.8199E-03     4.55009E-03    -32.4177E+06    -47.3379E+06    -215.037E+06    -47.3532E+06    -215.022E+06    -32.4177E+06     259.749E+03         29.2343
              20     3.78091E-03     61.5242E-03     344.585E-03     308.175E-03        -1.12585     307.569E-03        -1.12524     344.585E-03    -41.5417E-03     113.593E-03    -56.6530E-03    -56.8980E-03    -56.8178E-03     113.575E-03    -56.7152E-03     3.47681E-03    -37.7158E+06    -51.3807E+06    -218.728E+06    -51.4016E+06    -218.707E+06    -37.7158E+06    -442.951E+03         28.9707
              21     2.83612E-03     61.5205E-03     355.721E-03     318.952E-03        -1.14380     316.691E-03        -1.14154     355.721E-03     28.4081E-03     113.368E-03    -56.5386E-03    -56.7727E-03    -56.6509E-03     113.358E-03    -56.6505E-03     2.27614E-03    -43.3102E+06    -54.3620E+06    -223.734E+06    -54.3789E+06    -223.717E+06    -43.3102E+06    -891.184E+03         28.7657
              22     1.89065E-03     61.5210E-03     371.240E-03     338.639E-03        -1.17573     335.166E-03        -1.17226     371.240E-03     3.73412E-03     113.181E-03    -56.4616E-03    -56.7021E-03    -56.5795E-03     113.179E-03    -56.5824E-03     972.492E-06    -50.0228E+06    -56.9778E+06    -226.026E+06    -56.9849E+06    -226.019E+06    -50.0228E+06    -642.730E+03         28.5909
              23     945.054E-06     61.5184E-03     804.554E-03    -28.4120E-03        -1.23877     772.944E-03        -1.22275    -12.8301E-03     198.592E-03     112.987E-03    -56.2148E-03    -56.7711E-03    -56.3025E-03     112.986E-03    -56.6826E-03     606.784E-06    -57.1640E+06    -61.0449E+06    -225.205E+06    -59.5984E+06    -225.176E+06    -58.6394E+06    -1.66690E+06         28.4536
              24    -220.709E-09     60.3989E-03         1.33606    -595.890E-03        -1.20110         1.30738        -1.17242    -595.890E-03     522.896E-03     112.710E-03    -55.4384E-03    -57.2646E-03    -56.6805E-03     112.709E-03    -56.0218E-03     404.371E-06    -62.4608E+06    -66.7722E+06    -226.062E+06    -64.7152E+06    -226.041E+06    -64.5390E+06    -305.195E+03         28.3953
              25     2.59126E-06     59.2824E-03         1.39387    -765.978E-03        -1.09973         1.35059        -1.05645    -765.978E-03     650.877E-03     113.784E-03    -56.1021E-03    -57.6901E-03    -57.3364E-03     113.775E-03    -56.4473E-03     2.10784E-03    -61.0873E+06    -64.0370E+06    -223.276E+06    -63.3279E+06    -223.268E+06    -61.8038E+06     733.559E+03         28.4103
              26    -3.26070E-06     58.1588E-03         1.48357    -825.254E-03        -1.13261         1.43556        -1.08459    -825.254E-03     702.281E-03     114.223E-03    -56.6712E-03    -57.5706E-03    -57.2168E-03     114.214E-03    -57.0164E-03     1.12635E-03    -64.3913E+06    -66.5095E+06    -224.182E+06    -64.3932E+06    -224.180E+06    -66.5095E+06    -415.056E+03         28.4259
              27     4.25415E-06     57.0414E-03         1.65046    -834.423E-03        -1.29695         1.61019        -1.25667    -834.423E-03     675.788E-03     113.400E-03    -55.8677E-03    -57.5377E-03    -57.5340E-03     113.396E-03    -55.8677E-03     483.770E-06    -62.6832E+06    -64.4366E+06    -226.326E+06    -62.6901E+06    -226.320E+06    -64.4366E+06     263.369E+03         28.4309
              28    -2.17261E-06     55.9224E-03         1.74288    -876.358E-03        -1.37076         1.70221        -1.33009    -876.358E-03     700.770E-03     113.025E-03    -55.1584E-03    -57.8589E-03    -56.2700E-03     113.020E-03    -56.7431E-03     1.63771E-03    -59.6847E+06    -61.0444E+06    -222.842E+06    -60.7107E+06    -222.824E+06    -60.0364E+06     1.65551E+06         28.4401
              29    -828.472E-09     54.8029E-03         1.81023        -1.03675        -1.27672         1.73858        -1.20506        -1.03675     918.793E-03     113.537E-03    -55.7525E-03    -57.7836E-03    -56.1959E-03     113.534E-03    -57.3372E-03    -132.666E-06    -61.8549E+06    -64.4281E+06    -223.383E+06    -62.8973E+06    -223.349E+06    -63.4201E+06    -328.516E+03         28.4496
              30     1.63091E-06     53.6855E-03         1.88983        -1.14642        -1.25918         1.76533        -1.13469        -1.14642         1.21828     113.690E-03    -56.4282E-03    -57.2723E-03    -57.2695E-03     113.687E-03    -56.4282E-03    -184.544E-06    -60.7855E+06    -64.0605E+06    -226.720E+06    -62.5167E+06    -226.698E+06    -62.3508E+06    -1.25947E+06         28.4499
              31    -855.796E-09     52.5630E-03         1.95389        -1.08794        -1.40563         1.81859        -1.27033        -1.08794         1.31422     113.904E-03    -56.4809E-03    -57.4361E-03    -57.4341E-03     113.902E-03    -56.4809E-03     1.18568E-03    -62.1462E+06    -63.9611E+06    -226.766E+06    -63.9654E+06    -226.762E+06    -62.1462E+06    -520.202E+03         28.4472
              32     1.89183E-06     51.4438E-03         2.00431        -1.10274        -1.44929         1.88758        -1.33256        -1.10274         1.24803     114.132E-03    -56.5743E-03    -57.5591E-03    -57.5580E-03     114.131E-03    -56.5743E-03     739.012E-06    -64.1596E+06    -65.5366E+06    -226.714E+06    -64.2752E+06    -226.703E+06    -65.4315E+06    -1.29891E+06         28.4421
              33    -1.10220E-06     50.3252E-03         2.01918        -1.16109        -1.41846         1.90542        -1.30471        -1.16109         1.22935     113.529E-03    -56.3242E-03    -57.2066E-03    -57.2057E-03     113.528E-03    -56.3242E-03    -408.779E-06    -65.8056E+06    -68.6854E+06    -231.695E+06    -67.4223E+06    -231.686E+06    -67.0775E+06    -242.346E+03         28.4250
              34     1.96249E-06     49.2054E-03         2.04956        -1.13449        -1.47183         1.92280        -1.34507        -1.13449         1.30906     112.913E-03    -56.1922E-03    -56.7184E-03    -56.7159E-03     112.910E-03    -56.1922E-03     188.328E-06    -65.1640E+06    -66.9532E+06    -232.842E+06    -66.7785E+06    -232.835E+06    -65.3453E+06    -107.577E+03         28.4070
              35    -1.86244E-06     48.0863E-03         1.99315        -1.11223        -1.42343         1.88222        -1.31250        -1.11223         1.19967     113.125E-03    -56.4760E-03    -56.6540E-03    -56.6523E-03     113.124E-03    -56.4760E-03     920.015E-06    -62.9008E+06    -63.4993E+06    -228.090E+06    -62.9178E+06    -228.073E+06    -63.4993E+06     468.619E+03         28.4028
              36     2.04300E-06     46.9679E-03         1.95410        -1.11360        -1.37181         1.87631        -1.29401        -1.11360         1.00534     113.862E-03    -56.4972E-03    -57.3805E-03    -57.3803E-03     113.862E-03    -56.4972E-03     316.750E-06    -62.6980E+06    -63.6152E+06    -227.870E+06    -62.7154E+06    -227.853E+06    -63.6152E+06     439.243E+03         28.4085
              37    -593.085E-09     45.8476E-03         2.00441        -1.08476        -1.44617         1.92857        -1.37033        -1.08476         1.01132     114.002E-03    -56.5861E-03    -57.4374E-03    -57.3619E-03     114.002E-03    -56.6612E-03     483.713E-06    -63.0942E+06    -63.7076E+06    -229.140E+06    -63.2235E+06    -229.124E+06    -63.5941E+06     381.753E+03         28.4200
              38     462.105E-09     44.7276E-03         1.96606        -1.03267        -1.46615         1.87202        -1.37210        -1.03267         1.11137     114.457E-03    -56.9711E-03    -57.5169E-03    -57.4392E-03     114.455E-03    -57.0463E-03     1.20218E-03    -63.5349E+06    -63.7440E+06    -229.508E+06    -63.7573E+06    -229.495E+06    -63.5349E+06     612.302E+03         28.4389
              39     409.279E-09     43.6053E-03         1.91049        -1.01834        -1.44218         1.81711        -1.34879        -1.01834         1.09529     114.488E-03    -56.9974E-03    -57.5022E-03    -57.4998E-03     114.485E-03    -56.9974E-03     1.19912E-03    -65.0666E+06    -65.6047E+06    -231.196E+06    -65.6108E+06    -231.190E+06    -65.0666E+06     242.561E+03         28.4571
              40    -318.539E-09     42.4869E-03         1.86359        -1.00601        -1.43691         1.76799        -1.34131        -1.00601         1.09644     113.792E-03    -56.6837E-03    -57.1057E-03    -57.1054E-03     113.792E-03    -56.6837E-03     394.922E-06    -62.1533E+06    -63.8083E+06    -230.132E+06    -63.8140E+06    -230.127E+06    -62.1533E+06     291.996E+03         28.4585
              41     1.03700E-06     41.3685E-03         1.81644    -946.762E-03        -1.45024         1.69552        -1.32932    -946.762E-03         1.23351     114.105E-03    -56.5927E-03    -57.5103E-03    -57.5101E-03     114.105E-03    -56.5927E-03     270.822E-06    -56.7146E+06     -63.264E+06    -228.783E+06    -57.9588E+06    -228.752E+06    -62.0514E+06    -1.94814E+06         28.4450
              42    -122.511E-09     40.2458E-03         1.80344    -814.288E-03        -1.57509         1.66442        -1.43607    -814.288E-03         1.34071     113.900E-03    -56.5291E-03    -57.3732E-03    -57.0585E-03     113.899E-03    -56.8434E-03     515.446E-06    -54.8728E+06    -67.1909E+06    -231.486E+06    -61.8999E+06    -231.440E+06    -60.2095E+06    -500.393E+03         28.4339
              43    -394.505E-09     39.1279E-03         1.77682    -712.637E-03        -1.65509         1.61076        -1.48903    -712.637E-03         1.47162     113.678E-03    -56.3910E-03    -57.2756E-03    -56.3854E-03     113.673E-03    -57.2756E-03     1.64335E-03    -52.8164E+06    -66.5761E+06    -231.322E+06    -59.8393E+06    -231.281E+06    -59.5947E+06    -397.613E+03         28.4360
              44    -809.426E-09     38.0061E-03         1.69204    -690.878E-03        -1.58855         1.50332        -1.39984    -690.878E-03         1.52583     114.151E-03    -56.3396E-03    -57.8131E-03    -57.2374E-03     114.146E-03    -56.9099E-03     1.45930E-03    -57.0346E+06    -65.9739E+06    -232.473E+06    -59.2883E+06    -232.380E+06    -63.8129E+06     835.096E+03         28.4394
              45     2.53703E-06     36.8866E-03         1.62351    -661.838E-03        -1.54268         1.39813        -1.31730    -661.838E-03         1.62506     113.797E-03    -56.0334E-03    -57.7889E-03    -57.7815E-03     113.790E-03    -56.0334E-03     1.70294E-03    -62.6114E+06    -67.2669E+06    -232.159E+06    -67.3356E+06    -232.090E+06    -62.6114E+06     1.95114E+06         28.4262
              46    -929.510E-09     35.7674E-03         1.53992    -539.281E-03        -1.58381         1.30661        -1.35050    -539.281E-03         1.64138     113.620E-03    -56.1341E-03    -57.4971E-03    -56.9789E-03     113.612E-03    -56.6448E-03     1.79451E-03    -58.7756E+06    -65.9594E+06    -229.263E+06    -61.2879E+06    -229.245E+06    -63.4649E+06    -1.58208E+06         28.4111
              47    -136.047E-09     34.6493E-03         1.45208    -311.828E-03        -1.74560         1.27367        -1.56719    -311.828E-03         1.45528     113.702E-03    -56.2685E-03    -57.4296E-03    -56.9185E-03     113.702E-03    -56.7791E-03    -156.093E-06    -62.2599E+06    -71.5530E+06    -235.395E+06    -66.8797E+06    -235.379E+06    -66.9492E+06    -1.30032E+06         28.4021
              48     1.42158E-06     33.5289E-03         1.33577    -150.348E-03        -1.80468         1.22249        -1.69141    -150.348E-03         1.16575     113.379E-03    -56.3621E-03    -57.0160E-03    -57.0087E-03     113.375E-03    -56.3655E-03     738.538E-06    -65.1159E+06    -73.4433E+06    -236.717E+06    -69.7226E+06    -236.714E+06    -68.8395E+06     350.624E+03         28.3859
              49    -1.49387E-06     32.4097E-03         1.10039    -141.275E-03        -1.57851         1.01283        -1.49095    -141.275E-03     950.785E-03     113.259E-03    -56.5718E-03    -56.6961E-03    -56.6892E-03     113.255E-03    -56.5752E-03     1.05108E-03    -61.3016E+06    -68.8102E+06    -228.416E+06    -65.0959E+06    -228.406E+06    -65.0252E+06     1.20011E+06         28.3748
              50     1.76639E-06     31.2907E-03     921.125E-03    -130.192E-03        -1.38126     846.692E-03        -1.30683    -130.192E-03     811.876E-03     113.335E-03    -56.2976E-03    -57.0718E-03    -57.0707E-03     113.334E-03    -56.2976E-03     559.620E-06    -60.8118E+06    -68.4420E+06    -226.712E+06    -64.6036E+06    -226.705E+06    -64.6571E+06     851.484E+03         28.3812
              51    -588.541E-09     30.1724E-03     874.814E-03     31.5583E-03        -1.52123     822.548E-03        -1.46896     31.5583E-03     694.908E-03     113.404E-03    -56.3269E-03    -57.1239E-03    -56.9780E-03     113.401E-03    -56.4707E-03     1.18712E-03    -64.7397E+06    -71.6855E+06    -226.968E+06    -67.8640E+06    -226.944E+06    -68.5849E+06     1.45914E+06         28.3933
              52     343.297E-09     29.0508E-03     821.244E-03     185.871E-03        -1.62794     786.673E-03        -1.59337     185.871E-03     574.500E-03     113.212E-03    -56.5317E-03    -56.6885E-03    -56.5425E-03     113.210E-03    -56.6755E-03     1.19284E-03    -63.2820E+06    -68.1984E+06    -224.992E+06    -66.4585E+06    -224.916E+06    -65.0978E+06    -762.302E+03         28.3905
              53    -370.782E-09     27.9341E-03     695.037E-03     232.702E-03        -1.51156     668.029E-03        -1.48455     232.702E-03     484.562E-03     112.633E-03    -56.0978E-03    -56.5236E-03    -56.5223E-03     112.632E-03    -56.0978E-03     876.067E-06    -63.1884E+06    -66.1386E+06    -227.700E+06    -63.2455E+06    -227.643E+06    -66.1386E+06    -1.47157E+06         28.3760
              54     1.14117E-06     26.8147E-03     600.165E-03     270.159E-03        -1.48508     577.609E-03        -1.46253     270.159E-03     427.752E-03     112.345E-03    -55.8744E-03    -56.4751E-03    -56.4723E-03     112.342E-03    -55.8744E-03     1.19635E-03    -63.9312E+06    -65.3128E+06    -225.766E+06    -64.3042E+06    -225.640E+06    -65.0656E+06     3.74190E+06         28.3757
              55    -810.566E-09     25.6977E-03     622.037E-03     300.107E-03        -1.55028     590.274E-03        -1.51851     300.107E-03     507.821E-03     112.915E-03    -56.3018E-03    -56.6182E-03    -56.4861E-03     112.912E-03    -56.4304E-03     1.48401E-03    -58.5741E+06    -59.4062E+06    -222.266E+06    -59.7613E+06    -221.910E+06    -58.5741E+06    -1.25956E+06         28.3884
              56     570.358E-09     24.5774E-03     612.982E-03     332.487E-03        -1.58543     551.198E-03        -1.52364     332.487E-03     719.902E-03     113.859E-03    -56.5182E-03    -57.3321E-03    -57.2011E-03     113.856E-03    -56.6468E-03     1.26505E-03    -63.7082E+06    -67.7695E+06    -228.937E+06    -64.5319E+06    -228.698E+06    -67.1847E+06    -3.75439E+06         28.3973
              57     631.876E-09     23.4572E-03     539.717E-03     397.172E-03        -1.59656     477.410E-03        -1.53425     397.172E-03     714.097E-03     113.484E-03    -56.3310E-03    -57.1614E-03    -57.1599E-03     113.482E-03    -56.3310E-03     823.175E-06    -69.3349E+06    -77.8640E+06    -232.102E+06    -74.4329E+06    -232.057E+06    -72.8114E+06     2.37438E+06         28.3875
              58    -314.981E-09     22.3394E-03     529.320E-03     435.684E-03        -1.62221     480.672E-03        -1.57356     435.684E-03     639.688E-03     112.064E-03    -55.9536E-03    -56.1340E-03    -56.0986E-03     112.064E-03    -55.9889E-03     277.555E-06    -63.6865E+06    -72.0811E+06    -228.637E+06    -68.8077E+06    -228.569E+06    -67.0285E+06     210.590E+03         28.3539
              59     173.311E-09     21.2231E-03     520.277E-03     452.426E-03        -1.63112     468.008E-03        -1.57885     452.426E-03     662.075E-03     112.032E-03    -55.4148E-03    -56.6381E-03    -56.6027E-03     112.032E-03    -55.4501E-03     192.493E-06    -68.4069E+06    -72.9348E+06    -233.234E+06    -69.6227E+06    -233.204E+06    -71.7488E+06    -1.91558E+06         28.3057
              60     2.05897E-06     20.1043E-03     487.064E-03     438.959E-03        -1.59908     408.198E-03        -1.55793     476.675E-03     567.734E-03     111.974E-03    -55.2289E-03    -56.7481E-03    -56.4165E-03     111.973E-03    -55.5601E-03     380.327E-06    -72.1927E+06    -74.1029E+06    -234.045E+06    -74.1050E+06    -234.043E+06    -72.1927E+06    -213.155E+03         28.2305
              61    -2.70159E-06     18.9868E-03     519.747E-03     464.000E-03        -1.66973     450.170E-03        -1.65590     519.747E-03     224.798E-03     109.886E-03    -54.5950E-03    -55.2852E-03    -54.5939E-03     109.885E-03    -55.2852E-03    -116.022E-06    -69.0909E+06    -71.4527E+06    -229.180E+06    -69.8423E+06    -229.153E+06    -70.7285E+06     1.61811E+06         28.1053
              62     1.99146E-06     17.8724E-03     527.333E-03     475.008E-03        -1.65267     503.370E-03        -1.64674     493.040E-03     147.045E-03     107.395E-03    -53.1368E-03    -54.2614E-03    -53.9014E-03     107.394E-03    -53.4957E-03    -121.027E-06    -71.3574E+06    -73.2792E+06    -226.395E+06    -71.4209E+06    -226.332E+06    -73.2792E+06     3.12580E+06         27.9190
              63    -539.360E-09     16.7625E-03     470.131E-03     428.960E-03        -1.52733     457.320E-03        -1.52139     435.838E-03     147.399E-03     104.829E-03    -51.9438E-03    -52.8735E-03    -52.8730E-03     104.828E-03    -51.9438E-03     135.458E-06    -64.5708E+06    -67.7061E+06    -219.128E+06    -67.4589E+06    -219.091E+06    -64.8550E+06     1.49165E+06         27.6610
              64     853.945E-09     15.6527E-03     466.109E-03     454.861E-03        -1.56621     459.091E-03        -1.56607     461.739E-03     15.0618E-03     100.687E-03    -50.1906E-03    -50.4894E-03    -50.4883E-03     100.685E-03    -50.1906E-03    -746.429E-06    -60.9699E+06    -67.4125E+06    -215.182E+06    -63.8269E+06    -215.176E+06    -64.5614E+06    -828.025E+03         27.3177
              65    -663.452E-09     14.5521E-03     509.200E-03     417.544E-03        -1.58060     506.733E-03        -1.57813     417.544E-03    -75.1872E-03     94.8977E-03    -47.3587E-03    -47.5468E-03    -47.4896E-03     94.8938E-03    -47.4119E-03    -1.43064E-03    -56.3487E+06    -62.4934E+06    -212.749E+06    -58.9882E+06    -212.662E+06    -59.9403E+06     1.85798E+06         26.8812
              66     594.914E-09     13.4557E-03     510.072E-03     410.129E-03        -1.58862     506.409E-03        -1.58496     410.129E-03    -23.0846E-03     87.8153E-03    -43.8344E-03    -43.9791E-03    -43.8224E-03     87.8033E-03    -43.9791E-03    -2.40912E-03    -52.3880E+06    -59.9931E+06    -211.264E+06    -55.1347E+06    -211.070E+06    -57.4399E+06    -471.690E+03         26.3571
              67    -855.490E-09     12.3718E-03     526.904E-03     453.179E-03        -1.66929     525.557E-03        -1.66794     453.179E-03     86.1658E-03     79.5958E-03    -39.7241E-03    -39.8706E-03    -39.6963E-03     79.5680E-03    -39.8706E-03    -3.56664E-03    -51.9906E+06    -58.3276E+06    -207.985E+06    -53.4496E+06    -207.811E+06    -57.0426E+06    -820.009E+03         25.7970
              68     715.470E-09     11.2927E-03     518.139E-03     434.039E-03        -1.64323     517.871E-03        -1.64296     434.039E-03    -20.4029E-03     71.0659E-03    -35.2986E-03    -35.7617E-03    -35.6693E-03     71.0286E-03    -35.3538E-03    -3.98880E-03    -46.7007E+06    -49.6101E+06    -200.168E+06    -49.7182E+06    -200.059E+06    -46.7007E+06     286.204E+03         25.3491
              69     50.6067E-09     10.2260E-03     501.963E-03     429.303E-03        -1.63415     501.139E-03        -1.63332     429.303E-03    -82.2600E-03     63.4523E-03    -31.3408E-03    -32.1037E-03    -32.0789E-03     63.4274E-03    -31.3408E-03    -2.99806E-03    -44.6854E+06    -46.5214E+06    -198.637E+06    -46.6128E+06    -198.545E+06    -44.6854E+06    -13.6959E+03         25.1807
              70     624.026E-09     9.16196E-03     529.465E-03     414.458E-03        -1.62751     528.880E-03        -1.62693     414.458E-03    -50.5075E-03     58.4743E-03    -28.9645E-03    -29.5098E-03    -29.3095E-03     58.4643E-03    -29.1548E-03    -1.86298E-03    -41.7647E+06    -43.7280E+06    -201.955E+06    -43.7964E+06    -201.886E+06    -41.7647E+06     462.890E+03         25.3590
              71    -987.262E-09     8.10780E-03     479.526E-03     388.749E-03        -1.54120     478.120E-03        -1.53979     388.749E-03     73.8811E-03     58.7580E-03    -29.1442E-03    -29.6039E-03    -29.4088E-03     58.7532E-03    -29.3344E-03    -1.24921E-03    -39.5949E+06    -44.0553E+06    -200.364E+06    -41.3866E+06    -200.324E+06    -42.3038E+06    -269.867E+03         25.8898
              72     1.45511E-06     7.04499E-03     486.500E-03     436.920E-03        -1.57816     484.880E-03        -1.57654     436.920E-03     42.9430E-03     66.6588E-03    -33.0453E-03    -33.6078E-03    -33.5988E-03     66.6498E-03    -33.0453E-03     859.375E-06    -43.5880E+06    -49.3026E+06    -205.266E+06    -46.6620E+06    -205.198E+06    -46.2969E+06    -921.828E+03         26.7911
              73    -879.788E-09     5.97179E-03     598.554E-03     466.179E-03        -1.70470     597.931E-03        -1.70408     466.179E-03     13.6767E-03     84.7288E-03    -41.7170E-03    -43.0245E-03    -42.9892E-03     84.6935E-03    -41.7170E-03     4.14482E-03    -52.8323E+06    -58.7161E+06    -216.551E+06    -58.8104E+06    -216.456E+06    -52.8323E+06    -235.940E+03         28.1075
              74     2.78456E-06     4.87097E-03     568.711E-03     387.843E-03        -1.63787     567.489E-03        -1.63665     387.843E-03     101.436E-03     115.421E-03    -56.8442E-03    -58.6015E-03    -57.7669E-03     115.329E-03    -57.5870E-03     7.90836E-03    -60.5246E+06    -63.5972E+06    -220.147E+06    -63.8902E+06    -219.854E+06    -60.5246E+06    -2.63460E+06         29.9200
              75    -4.28536E-06     3.73143E-03     541.330E-03     349.412E-03        -1.57737     534.656E-03        -1.57070     349.412E-03     218.435E-03     156.966E-03    -77.4997E-03    -79.5145E-03    -77.4046E-03     156.871E-03    -79.5145E-03     9.13836E-03    -61.7627E+06    -68.3966E+06    -227.004E+06    -62.2138E+06    -226.748E+06     -68.202E+06    -3.73732E+06         32.3532
              76     1.76841E-06     2.53345E-03     541.268E-03     416.631E-03        -1.62389     530.005E-03        -1.61802     422.024E-03     155.302E-03     201.441E-03    -100.028E-03    -101.432E-03    -100.097E-03     201.378E-03    -101.300E-03     8.67208E-03    -65.1301E+06    -73.7620E+06    -234.474E+06    -67.3484E+06    -234.449E+06    -71.5694E+06    -565.564E+03         35.2304
              77    -1.69085E-06     1.28278E-03     510.761E-03     435.717E-03        -1.61063     505.358E-03        -1.61062     441.110E-03    -3.81074E-03     235.541E-03    -117.107E-03    -118.420E-03    -118.387E-03     235.508E-03    -117.107E-03     5.31321E-03    -74.4242E+06    -76.8014E+06    -238.698E+06    -76.7536E+06    -238.561E+06    -74.6089E+06     1.80177E+06         37.9350
              78     880.527E-06    -275.671E-09     505.095E-03     433.228E-03        -1.61469     504.922E-03        -1.61452     433.228E-03    -24.5231E-03     245.698E-03    -121.641E-03    -124.030E-03    -122.812E-03     245.688E-03    -122.849E-03     3.27319E-03    -71.2081E+06    -78.7252E+06    -233.900E+06    -78.6726E+06    -233.768E+06    -71.3928E+06     2.01178E+06         39.0133
              79     1.76614E-03    -275.671E-09     468.875E-03     454.765E-03        -1.59953     456.684E-03        -1.59924     466.659E-03    -49.2520E-03     238.918E-03    -117.173E-03    -121.659E-03    -117.131E-03     238.876E-03    -121.659E-03     7.33189E-03    -61.6566E+06    -70.9848E+06    -225.796E+06    -71.1750E+06    -225.606E+06    -61.6566E+06    -4.81090E+06         38.6154
              80     2.65458E-03    -275.671E-09     460.695E-03     439.521E-03        -1.58064     439.394E-03        -1.58051     460.695E-03    -19.5419E-03     228.674E-03    -109.664E-03    -118.948E-03    -109.563E-03     228.573E-03    -118.948E-03     11.4446E-03    -59.3929E+06    -63.6133E+06    -225.468E+06    -63.9279E+06    -225.153E+06    -59.3929E+06    -381.420E+03         38.0173
              81     3.55392E-03    -275.671E-09     461.453E-03     447.168E-03        -1.60124     451.715E-03        -1.60078     456.447E-03     46.5307E-03     216.480E-03    -100.883E-03    -115.563E-03    -100.717E-03     216.313E-03    -115.563E-03     14.4495E-03    -57.7278E+06    -59.9882E+06    -225.832E+06    -60.4471E+06    -225.337E+06    -57.7636E+06    -2.09814E+06         37.2882
              82     4.46118E-03    -275.671E-09     479.049E-03     457.755E-03        -1.62987     478.079E-03        -1.62890     457.755E-03     90.4008E-03     203.385E-03    -91.7307E-03    -111.656E-03    -91.5143E-03     203.168E-03    -111.656E-03     15.9432E-03    -56.2358E+06    -57.9874E+06    -225.917E+06    -56.6036E+06    -225.549E+06    -57.9874E+06    -4.42880E+06         36.4807
              83     5.37788E-03    -275.671E-09     484.893E-03     461.641E-03        -1.63549     484.359E-03        -1.63496     461.641E-03     55.9828E-03     189.823E-03    -82.5898E-03    -107.441E-03    -82.3242E-03     189.558E-03    -107.441E-03     16.9519E-03    -51.7119E+06    -64.5390E+06    -222.340E+06    -52.1994E+06    -221.852E+06    -64.5390E+06    -5.31322E+06         35.6652
              84     6.30229E-03    -275.671E-09     473.852E-03     464.246E-03        -1.62839     473.618E-03        -1.62815     464.246E-03    -20.7334E-03     176.306E-03    -73.4250E-03    -103.005E-03    -73.1097E-03     175.990E-03    -103.005E-03     17.7108E-03    -46.2690E+06    -77.2511E+06    -220.654E+06    -46.7438E+06    -220.180E+06    -77.2511E+06    -6.31987E+06         34.9579
              85     7.23705E-03    -275.671E-09     467.395E-03     458.877E-03        -1.61731     461.132E-03        -1.61693     464.752E-03    -56.6741E-03     162.703E-03    -64.0885E-03    -98.5288E-03    -63.8049E-03     162.420E-03    -98.5288E-03     15.9951E-03    -37.9666E+06    -87.0535E+06    -217.133E+06    -39.0762E+06    -216.024E+06    -87.0535E+06    -9.91091E+06         34.5015
              86     8.18218E-03    -275.671E-09     463.868E-03     451.899E-03        -1.60593     451.578E-03        -1.60561     463.868E-03    -51.3633E-03     149.968E-03    -55.9166E-03    -93.9862E-03    -55.7036E-03     149.755E-03    -93.9862E-03     13.2319E-03    -28.3664E+06    -98.8733E+06    -185.994E+06    -29.4902E+06    -184.870E+06    -98.8733E+06    -10.9228E+06         34.4050
              87     9.13373E-03    -275.671E-09     462.583E-03     451.111E-03        -1.60658     450.961E-03        -1.60643     462.583E-03    -28.2077E-03     143.858E-03    -53.9581E-03    -89.7454E-03    -53.4589E-03     143.359E-03    -89.7454E-03     18.7991E-03    -22.1451E+06    -106.739E+06    -136.478E+06    -22.9832E+06    -135.640E+06    -106.739E+06    -7.14160E+06         34.7014
              88     10.0736E-03    -275.671E-09     461.285E-03     446.331E-03        -1.60963     446.244E-03        -1.60954     461.285E-03     14.9325E-03     146.726E-03    -60.3992E-03    -86.4597E-03    -58.9809E-03     145.308E-03    -86.4597E-03     33.4425E-03    -12.3006E+06    -72.3064E+06    -104.858E+06    -13.3977E+06    -74.7859E+06    -101.281E+06    -8.27872E+06         35.3908
              89     11.0051E-03    -275.671E-09     459.598E-03     437.346E-03        -1.60421     436.920E-03        -1.60379     459.598E-03     55.8418E-03     144.949E-03    -61.2183E-03    -84.0118E-03    -59.5470E-03     143.278E-03    -84.0118E-03     36.8318E-03     21.8835E+06    -25.9725E+06    -93.7756E+06    -8.75522E+06     4.66627E+06    -93.7756E+06    -7.01067E+06         36.4809
              90     11.9502E-03    -275.671E-09     457.972E-03     442.602E-03        -1.61201     442.257E-03        -1.61167     457.972E-03     40.9143E-03     135.580E-03    -53.8065E-03    -82.0278E-03    -51.9660E-03     133.739E-03    -82.0278E-03     36.6336E-03     79.4683E+06    -9.18834E+06    -54.7343E+06    -14.6653E+06     78.2274E+06    -48.0164E+06     481.952E+03         37.9639
              91     12.9099E-03    -275.671E-09     458.583E-03     454.589E-03        -1.63370     455.650E-03        -1.63346     457.282E-03     35.1860E-03     134.935E-03    -54.9330E-03    -80.2237E-03    -52.6083E-03     132.611E-03    -80.2237E-03     41.7386E-03     120.869E+06     17.9995E+06    -13.2162E+06    -12.5503E+06     120.203E+06     17.9995E+06     1.52126E+06         39.7928
              92     13.8470E-03    -275.671E-09     458.382E-03     451.933E-03        -1.64741     452.996E-03        -1.64717     457.081E-03     33.9820E-03     133.646E-03    -54.9452E-03    -78.7839E-03    -52.6473E-03     131.348E-03    -78.7839E-03     41.3627E-03     150.868E+06     77.5961E+06    -499.369E+03     194.293E+03     150.174E+06     77.5961E+06    -10.0925E+06         41.9172
              93     14.7913E-03    -275.671E-09     456.395E-03     439.710E-03        -1.66552     439.464E-03        -1.66527     456.395E-03     34.5598E-03     130.096E-03    -52.6333E-03    -77.4335E-03    -48.4745E-03     125.937E-03    -77.4335E-03     53.1363E-03     166.019E+06     137.208E+06     5.93322E+06     6.87025E+06     165.082E+06     137.208E+06    -268.221E+03         44.2424
              94     15.7510E-03    -275.671E-09     492.405E-03     445.124E-03        -1.77545     479.657E-03        -1.77424     456.661E-03    -35.9105E-03     175.846E-03    -65.7911E-03    -109.824E-03    -84.8607E-03     161.824E-03    -76.7320E-03     119.606E-03     157.745E+06     155.289E+06     19.3365E+06     21.1423E+06     155.939E+06     155.289E+06     14.8545E+06         46.4733
              95     16.7372E-03     1.29892E-03     531.685E-03     462.350E-03        -1.78503     525.805E-03        -1.77915     462.350E-03    -215.876E-03     194.736E-03    -74.1568E-03    -120.639E-03    -90.3953E-03     164.492E-03    -74.1568E-03     180.576E-03     152.117E+06     128.907E+06    -17.8716E+06    -15.3327E+06     149.578E+06     128.907E+06     20.2683E+06         47.2485
              96     16.8223E-03     2.40925E-03     503.411E-03     465.757E-03        -1.65013     492.247E-03        -1.64303     469.820E-03    -242.769E-03     162.798E-03    -68.9280E-03    -94.0508E-03    -65.9637E-03     134.711E-03    -68.9280E-03     157.495E-03     158.089E+06     128.554E+06    -11.8338E+06    -10.5881E+06     156.844E+06     128.554E+06     13.2156E+06         47.0186
              97     16.8854E-03     3.53198E-03     472.526E-03     459.326E-03        -1.59910     454.871E-03        -1.59464     472.526E-03    -191.302E-03     155.278E-03    -64.3658E-03    -90.9757E-03    -79.7999E-03     144.102E-03    -64.3658E-03     97.0539E-03     161.952E+06     135.361E+06     1.00966E+06     1.66657E+06     161.295E+06     135.361E+06     9.60381E+06         47.2316
              98     16.9378E-03     4.69456E-03     473.581E-03     450.890E-03        -1.57935     447.950E-03        -1.57641     473.581E-03    -148.279E-03     152.211E-03    -61.0420E-03    -91.2510E-03    -87.6349E-03     148.595E-03    -61.0420E-03     58.3523E-03     158.621E+06     129.382E+06    -11.1750E+06    -10.5574E+06     158.004E+06     129.382E+06     6.70320E+06         47.6573
              99     16.9723E-03     5.85576E-03     475.305E-03     451.268E-03        -1.57119     449.506E-03        -1.56943     475.305E-03    -118.529E-03     148.801E-03    -58.8468E-03    -90.0205E-03    -87.7485E-03     146.529E-03    -58.8468E-03     46.2439E-03     159.833E+06     133.192E+06     -32.299E+03            162.     159.801E+06     133.192E+06     128.225E+03         48.1525
             100     16.9961E-03     7.02464E-03     475.416E-03     455.172E-03        -1.56248     454.079E-03        -1.56138     475.416E-03    -69.8749E-03     145.530E-03    -57.4764E-03    -88.0453E-03    -86.2117E-03     143.696E-03    -57.4764E-03     41.2205E-03     159.915E+06     132.774E+06    -5.32427E+06    -5.22861E+06     159.819E+06     132.774E+06     3.62884E+06         48.6235
             101     17.0058E-03     8.18386E-03     474.693E-03     447.696E-03        -1.55177     447.511E-03        -1.55159     474.693E-03     23.6641E-03     141.576E-03    -56.7881E-03    -84.8555E-03    -82.9345E-03     139.655E-03    -56.7881E-03     41.4682E-03     157.321E+06     130.036E+06    -2.69832E+06    -2.54696E+06     157.170E+06     130.036E+06     4.90851E+06         49.0339
             102     17.0134E-03     9.33553E-03     473.809E-03     449.592E-03        -1.56032     449.411E-03        -1.56013     473.809E-03     27.1809E-03     137.946E-03    -56.4860E-03    -81.6018E-03    -79.4650E-03     135.809E-03    -56.4860E-03     43.1023E-03     156.217E+06     126.350E+06    -6.89180E+06    -6.82015E+06     156.145E+06     126.350E+06     2.35719E+06         49.3839
             103     17.0154E-03     10.4852E-03     471.089E-03     454.530E-03        -1.56777     454.529E-03        -1.56777     471.089E-03     1.77026E-03     134.242E-03    -56.3955E-03    -77.8727E-03    -75.4378E-03     131.807E-03    -56.3955E-03     45.0940E-03     156.693E+06     126.778E+06    -2.42565E+06    -2.42273E+06     156.690E+06     126.778E+06    -594.517E+03         49.6800
             104     17.0171E-03     11.6267E-03     468.772E-03     449.521E-03        -1.56692     449.192E-03        -1.56659     468.772E-03     37.8458E-03     130.000E-03    -56.4226E-03    -73.5267E-03    -70.7477E-03     127.221E-03    -56.4226E-03     47.2240E-03     155.100E+06     123.869E+06    -4.58399E+06    -4.54267E+06     155.059E+06     123.869E+06    -2.20385E+06         49.9336
             105     17.0183E-03     12.7600E-03     467.356E-03     451.420E-03        -1.56322     451.059E-03        -1.56286     467.356E-03     24.7933E-03     125.570E-03    -56.5045E-03    -69.0240E-03    -66.1623E-03     122.708E-03    -56.5045E-03     46.8442E-03     158.631E+06     127.096E+06    -2.12923E+06    -2.06891E+06     158.571E+06     127.096E+06    -386.908E+03         50.1553
             106     17.0191E-03     13.8925E-03     465.227E-03     448.099E-03        -1.56586     447.340E-03        -1.56510     465.227E-03     42.4505E-03     121.662E-03    -56.5856E-03    -65.0763E-03    -61.9846E-03     118.570E-03    -56.5856E-03     47.6060E-03     157.918E+06     124.281E+06    -4.70941E+06    -4.66659E+06     157.875E+06     124.281E+06     48.8406E+03         50.3513
             107     17.0179E-03     15.0160E-03     464.105E-03     447.177E-03        -1.56521     446.322E-03        -1.56435     464.105E-03     76.7496E-03     118.620E-03    -56.6707E-03    -61.9588E-03    -58.6276E-03     115.289E-03    -56.6707E-03     48.5957E-03     157.912E+06     123.243E+06    -4.22289E+06    -4.19295E+06     157.882E+06     123.243E+06    -2.15012E+06         50.5260
             108     17.0188E-03     16.1368E-03     468.599E-03     456.696E-03        -1.57866     462.280E-03        -1.57840     462.759E-03    -105.878E-06     116.579E-03    -56.7516E-03    -59.8438E-03    -56.5049E-03     113.240E-03    -56.7516E-03     48.0792E-03     162.627E+06     126.728E+06    -2.63571E+06    -2.62302E+06     162.615E+06     126.728E+06    -1.41773E+06         50.6826
             109     17.0183E-03     17.2569E-03     465.936E-03     449.732E-03        -1.56611     455.306E-03        -1.56584     460.097E-03     470.217E-06     115.674E-03    -56.7673E-03    -58.9192E-03    -55.5965E-03     112.351E-03    -56.7673E-03     47.7106E-03     162.200E+06     125.318E+06    -3.01036E+06    -2.99218E+06     162.182E+06     125.318E+06     526.065E+03         50.8203
             110     17.0189E-03     18.3779E-03     458.061E-03     432.390E-03        -1.54334     432.052E-03        -1.54300     458.061E-03     51.4286E-03     114.920E-03    -56.7661E-03    -58.1798E-03    -54.9238E-03     111.664E-03    -56.7661E-03     47.0308E-03     162.399E+06     124.450E+06    -4.20000E+06    -4.18413E+06     162.383E+06     124.450E+06     732.028E+03         50.9362
             111     17.0184E-03     19.4955E-03     466.421E-03     441.002E-03        -1.56039     450.885E-03        -1.56016     456.308E-03     39.2855E-03     114.540E-03    -56.7478E-03    -57.8151E-03    -54.6400E-03     111.365E-03    -56.7478E-03     46.3527E-03     161.754E+06     124.287E+06    -4.80055E+06    -4.79299E+06     161.746E+06     124.287E+06     349.659E+03         51.0311
             112     17.0193E-03     20.6136E-03     463.865E-03     444.760E-03        -1.54991     454.770E-03        -1.54980     453.753E-03    -5.59164E-03     114.464E-03    -56.7484E-03    -57.7249E-03    -54.7506E-03     111.490E-03    -56.7484E-03     44.8496E-03     162.477E+06     126.086E+06    -2.58670E+06    -2.57651E+06     162.467E+06     126.086E+06     120.854E+03         51.1068
             113     17.0189E-03     21.7337E-03     450.961E-03     428.268E-03        -1.51101     428.040E-03        -1.51078     450.961E-03     7.65126E-03     113.923E-03    -56.7291E-03    -57.1835E-03    -54.1603E-03     110.900E-03    -56.7291E-03     45.0478E-03     162.778E+06     125.103E+06    -3.00247E+06    -2.98705E+06     162.763E+06     125.103E+06     383.593E+03         51.1645
             114     17.0205E-03     22.8518E-03     459.485E-03     435.492E-03        -1.53354     445.446E-03        -1.53320     449.192E-03     51.7677E-03     114.047E-03    -56.6789E-03    -57.3911E-03    -54.1882E-03     110.844E-03    -56.6789E-03     46.4235E-03     163.435E+06     125.233E+06    -3.66543E+06    -3.61727E+06     163.387E+06     125.233E+06    -789.201E+03         51.2088
             115     17.0196E-03     23.9713E-03     461.875E-03     447.478E-03        -1.55240     461.691E-03        -1.55221     447.478E-03     25.7676E-03     114.611E-03    -56.6650E-03    -58.0366E-03    -54.9437E-03     111.518E-03    -56.6650E-03     45.7971E-03     164.149E+06     127.356E+06    -2.77980E+06    -2.72355E+06     164.093E+06     127.356E+06    -489.569E+03         51.2427
             116     17.0207E-03     25.0909E-03     448.722E-03     430.705E-03        -1.51395     434.799E-03        -1.51394     444.618E-03    -7.49383E-03     114.744E-03    -56.6741E-03    -58.1300E-03    -55.1198E-03     111.733E-03    -56.6741E-03     45.2251E-03     163.285E+06     126.643E+06    -3.45064E+06    -3.42123E+06     163.256E+06     126.643E+06     351.875E+03         51.2689
             117     17.0189E-03     26.2110E-03     441.961E-03     414.431E-03        -1.48714     414.088E-03        -1.48679     441.961E-03     29.5616E-03     114.610E-03    -56.6975E-03    -57.8927E-03    -54.7847E-03     111.502E-03    -56.6975E-03     45.8810E-03     163.518E+06     125.615E+06    -4.39478E+06    -4.34722E+06     163.470E+06     125.615E+06     860.601E+03         51.2916
             118     17.0214E-03     27.3298E-03     440.413E-03     421.928E-03        -1.48920     421.564E-03        -1.48883     440.413E-03     46.4604E-03     114.624E-03    -56.6963E-03    -57.8920E-03    -54.6027E-03     111.335E-03    -56.6963E-03     47.1844E-03     164.115E+06     126.058E+06    -4.45385E+06    -4.39752E+06     164.058E+06     126.058E+06     517.788E+03         51.3140
             119     17.0194E-03     28.4508E-03     445.415E-03     433.205E-03        -1.50797     440.393E-03        -1.50781     438.073E-03    -11.1942E-03     114.631E-03    -56.7049E-03    -57.9441E-03    -54.7692E-03     111.456E-03    -56.7049E-03     46.3646E-03     164.015E+06     126.077E+06    -4.11261E+06    -4.08259E+06     163.985E+06     126.077E+06    -290.609E+03         51.3362
             120     17.0200E-03     29.5660E-03     441.588E-03     428.555E-03        -1.49487     435.629E-03        -1.49460     434.246E-03     1.17895E-03     114.170E-03    -56.7336E-03    -57.4972E-03    -54.5999E-03     111.272E-03    -56.7336E-03     44.2204E-03     164.683E+06     126.929E+06    -2.79279E+06    -2.77138E+06     164.662E+06     126.929E+06     45.1085E+03         51.3579
             121     17.0197E-03     30.6856E-03     431.140E-03     407.799E-03        -1.47093     407.531E-03        -1.47066     431.140E-03     44.8909E-03     113.940E-03    -56.7370E-03    -57.2688E-03    -54.4618E-03     111.133E-03    -56.7370E-03     43.4833E-03     164.708E+06     126.753E+06    -3.24429E+06    -3.22742E+06     164.691E+06     126.753E+06    -174.330E+03         51.3785
             122     17.0195E-03     31.8061E-03     440.338E-03     411.599E-03        -1.47919     422.562E-03        -1.47907     429.249E-03     19.4208E-03     113.967E-03    -56.7364E-03    -57.2397E-03    -54.3281E-03     111.056E-03    -56.7364E-03     44.2658E-03     163.740E+06     125.459E+06    -3.94514E+06    -3.93614E+06     163.731E+06     125.459E+06     308.320E+03         51.3967
             123     17.0191E-03     32.9234E-03     447.382E-03     426.533E-03        -1.48425     447.340E-03        -1.48421     426.533E-03    -14.6758E-03     114.458E-03    -56.7472E-03    -57.6946E-03    -54.6189E-03     111.383E-03    -56.7472E-03     45.6063E-03     164.098E+06     125.787E+06    -4.61868E+06    -4.60152E+06     164.081E+06     125.787E+06     683.416E+03         51.4134
             124     17.0201E-03     34.0445E-03     432.302E-03     392.589E-03        -1.43044     402.245E-03        -1.43033     422.542E-03     2.28891E-03     115.031E-03    -56.7516E-03    -58.2853E-03    -55.2362E-03     111.982E-03    -56.7516E-03     45.5640E-03     164.321E+06     126.325E+06    -3.21415E+06    -3.18520E+06     164.292E+06     126.325E+06     46.6414E+03         51.4274
             125     17.0183E-03     35.1651E-03     419.599E-03     384.624E-03        -1.40642     384.427E-03        -1.40623     419.599E-03     36.9546E-03     114.903E-03    -56.7730E-03    -58.0980E-03    -55.0201E-03     111.825E-03    -56.7730E-03     45.7280E-03     163.055E+06     125.483E+06    -3.15815E+06    -3.13322E+06     163.030E+06     125.483E+06    -125.730E+03         51.4372
             126     17.0192E-03     36.2826E-03     444.942E-03     413.212E-03        -1.46448     439.765E-03        -1.46433     418.235E-03     13.0091E-03     114.111E-03    -56.7378E-03    -57.3386E-03    -54.3841E-03     111.206E-03    -56.7873E-03     44.1964E-03     162.932E+06     124.407E+06    -3.85930E+06    -3.84673E+06     162.920E+06     124.407E+06     568.432E+03         51.4474
             127     17.0193E-03     37.3982E-03     442.443E-03     403.761E-03        -1.44720     429.730E-03        -1.44646     415.736E-03    -59.7294E-03     113.883E-03    -56.7307E-03    -57.1273E-03    -54.4005E-03     111.206E-03    -56.7802E-03     42.4495E-03     163.145E+06     125.226E+06    -4.07089E+06    -4.06908E+06     163.143E+06     125.226E+06    -435.762E+03         51.4607
             128     17.0191E-03     38.5214E-03     411.615E-03     375.633E-03        -1.37183     374.916E-03        -1.37111     411.615E-03    -49.8066E-03     114.518E-03    -56.8121E-03    -57.7230E-03    -54.8002E-03     111.595E-03    -56.8121E-03     44.4728E-03     163.131E+06     126.251E+06    -3.81073E+06    -3.80927E+06     163.129E+06     126.251E+06    -394.513E+03         51.4748
             129     17.0188E-03     39.6417E-03     424.263E-03     384.367E-03        -1.38375     400.143E-03        -1.38363     408.374E-03     21.2931E-03     114.272E-03    -56.8062E-03    -57.5082E-03    -54.4732E-03     111.237E-03    -56.8062E-03     45.2598E-03     162.913E+06     125.035E+06    -4.36802E+06    -4.36314E+06     162.908E+06     125.035E+06     199.012E+03         51.4885
             130     17.0199E-03     40.7561E-03     429.160E-03     405.737E-03        -1.40975     428.848E-03        -1.40944     405.737E-03    -6.36531E-03     114.768E-03    -56.7551E-03    -58.0024E-03    -55.2102E-03     111.976E-03    -56.7551E-03     43.5395E-03     163.515E+06     126.188E+06    -2.21295E+06    -2.17674E+06     163.479E+06     126.188E+06    -1.08682E+06         51.5017
             131     17.0179E-03     41.8794E-03     409.155E-03     386.500E-03        -1.37879     392.977E-03        -1.37774     401.622E-03    -81.2978E-03     115.494E-03    -56.7540E-03    -58.7298E-03    -55.9077E-03     112.672E-03    -56.7540E-03     43.9539E-03     165.053E+06     126.824E+06    -3.06121E+06    -2.99193E+06     164.983E+06     126.824E+06     155.374E+03         51.5131
             132     17.0192E-03     43.0029E-03     398.521E-03     383.058E-03        -1.35687     382.143E-03        -1.35561     398.180E-03    -17.0734E-03     114.467E-03    -56.8092E-03    -57.7037E-03    -54.4377E-03     111.201E-03    -56.8092E-03     46.9337E-03     163.706E+06     124.596E+06    -3.89765E+06    -3.85664E+06     163.665E+06     124.596E+06     1.18324E+06         51.5215
             133     17.0178E-03     44.1189E-03     401.893E-03     396.469E-03        -1.35535     401.472E-03        -1.35493     396.469E-03     28.3302E-03     114.150E-03    -56.8367E-03    -57.3771E-03    -53.9654E-03     110.738E-03    -56.8367E-03     47.8916E-03     163.546E+06     123.761E+06    -6.82694E+06    -6.81964E+06     163.539E+06     123.761E+06    -98.0069E+03         51.5294
             134     17.0189E-03     45.2370E-03     397.808E-03     388.496E-03        -1.35359     393.277E-03        -1.35329     392.724E-03    -40.1228E-03     114.684E-03    -56.7927E-03    -57.9012E-03    -54.7552E-03     111.538E-03    -56.7927E-03     46.1566E-03     165.440E+06     127.489E+06    -621.231E+03     -614.84E+03     165.433E+06     127.489E+06    -19.8962E+03         51.5385
             135     17.0189E-03     46.3560E-03     387.969E-03     381.888E-03        -1.33002     381.500E-03        -1.32963     387.969E-03    -11.8914E-03     114.301E-03    -56.7959E-03    -57.5296E-03    -54.6041E-03     111.375E-03    -56.7959E-03     44.4577E-03     164.874E+06     126.457E+06    -2.75704E+06    -2.75028E+06     164.867E+06     126.457E+06    -1.06117E+06         51.5487
             136     17.0191E-03     47.4752E-03     384.488E-03     382.555E-03        -1.30366     382.482E-03        -1.30351     384.407E-03     31.4386E-03     114.231E-03    -56.8233E-03    -57.4604E-03    -54.5776E-03     111.349E-03    -56.8233E-03     44.1199E-03     163.695E+06     124.299E+06    -6.31196E+06    -6.30147E+06     163.685E+06     124.299E+06     219.064E+03         51.5613
             137     17.0182E-03     48.5939E-03     380.196E-03     371.955E-03        -1.29255     371.890E-03        -1.29240     380.115E-03    -6.08155E-03     114.842E-03    -56.8002E-03    -58.0582E-03    -55.2047E-03     111.989E-03    -56.8002E-03     44.0551E-03     163.684E+06     125.467E+06    -2.25702E+06    -2.24403E+06     163.671E+06     125.467E+06     53.7746E+03         51.5788
             138     17.0191E-03     49.7145E-03     376.364E-03     359.236E-03        -1.27843     358.919E-03        -1.27811     376.364E-03     8.14244E-03     114.742E-03    -56.8106E-03    -57.9522E-03    -55.0967E-03     111.886E-03    -56.8106E-03     44.0426E-03     163.849E+06     125.898E+06    -3.13880E+06    -3.13251E+06     163.843E+06     125.898E+06    -483.626E+03         51.5989
             139     17.0188E-03     50.8345E-03     386.266E-03     365.461E-03        -1.28845     377.021E-03        -1.28817     374.429E-03     40.9463E-03     114.772E-03    -56.8202E-03    -57.9972E-03    -54.9925E-03     111.767E-03    -56.8202E-03     45.1641E-03     162.476E+06     125.734E+06    -2.10818E+06    -2.10341E+06     162.471E+06     125.734E+06    -374.177E+03         51.6183
             140     17.0183E-03     51.9551E-03     395.779E-03     371.330E-03        -1.29342     395.308E-03        -1.29294     371.330E-03    -22.4967E-03     115.092E-03    -56.8133E-03    -58.2958E-03    -55.2297E-03     112.026E-03    -56.8133E-03     45.7026E-03     163.338E+06     125.301E+06    -4.98388E+06    -4.95321E+06     163.308E+06     125.301E+06     891.191E+03         51.6354
             141     17.0182E-03     53.0744E-03     378.288E-03     349.127E-03        -1.24119     360.987E-03        -1.24044     365.677E-03    -69.3482E-03     115.160E-03    -56.8281E-03    -58.3001E-03    -55.3512E-03     112.211E-03    -56.8281E-03     44.8441E-03     164.727E+06     126.592E+06    -3.28257E+06    -3.24958E+06     164.694E+06     126.592E+06     744.992E+03         51.6508
             142     17.0178E-03     54.1926E-03     360.312E-03     331.095E-03        -1.20275     329.770E-03        -1.20143     360.312E-03     22.5504E-03     114.700E-03    -56.8248E-03    -57.8899E-03    -55.0976E-03     111.908E-03    -56.8248E-03     43.5452E-03     163.793E+06     125.712E+06    -4.23329E+06    -4.22444E+06     163.784E+06     125.712E+06    -297.736E+03         51.6663
             143     17.0196E-03     55.3125E-03     364.263E-03     344.589E-03        -1.22303     350.609E-03        -1.22204     357.257E-03     58.5622E-03     114.085E-03    -56.8467E-03    -57.3271E-03    -54.5321E-03     111.290E-03    -56.8467E-03     43.4108E-03     164.279E+06     126.450E+06    -3.12655E+06    -3.10864E+06     164.261E+06     126.450E+06    -700.421E+03         51.6813
             144     17.0171E-03     56.4338E-03     368.039E-03     353.996E-03        -1.23304     366.971E-03        -1.23197     353.996E-03    -54.4463E-03     114.408E-03    -56.8586E-03    -57.6310E-03    -54.5792E-03     111.356E-03    -56.8586E-03     45.4048E-03     163.213E+06     125.625E+06    -4.47727E+06    -4.42682E+06     163.163E+06     125.625E+06     563.907E+03         51.6960
             145     17.0185E-03     57.5521E-03     355.892E-03     343.703E-03        -1.18935     349.637E-03        -1.18824     348.856E-03    -68.8401E-03     114.445E-03    -56.8230E-03    -57.6635E-03    -54.5488E-03     111.330E-03    -56.8230E-03     45.8811E-03     162.226E+06     125.177E+06    -4.43561E+06    -4.38552E+06     162.176E+06     125.177E+06     584.049E+03         51.7130
             146     17.0195E-03     58.6687E-03     343.886E-03     326.643E-03        -1.15322     325.603E-03        -1.15218     343.886E-03     43.4318E-03     114.321E-03    -56.7728E-03    -57.5722E-03    -54.7180E-03     111.467E-03    -56.7728E-03     43.9101E-03     164.534E+06     126.947E+06    -3.31266E+06    -3.29605E+06     164.517E+06     126.947E+06    -777.125E+03         51.7312
             147     17.0183E-03     59.7915E-03     341.642E-03     328.327E-03        -1.15892     328.448E-03        -1.15781     340.417E-03     71.8556E-03     114.309E-03    -56.7922E-03    -57.5302E-03    -54.7215E-03     111.501E-03    -56.7922E-03     43.5663E-03     164.934E+06     126.928E+06    -4.24277E+06    -4.24135E+06     164.933E+06     126.928E+06     369.245E+03         51.7478
             148     17.0191E-03     60.9079E-03     342.767E-03     336.234E-03        -1.15777     342.004E-03        -1.15701     336.234E-03    -26.6705E-03     113.794E-03    -56.7864E-03    -57.0198E-03    -54.0560E-03     110.858E-03    -56.8141E-03     44.3995E-03     164.566E+06     126.507E+06    -3.11702E+06    -3.11064E+06     164.560E+06     126.507E+06     751.778E+03         51.7637
             149     17.0190E-03     63.1493E-03     324.816E-03     300.294E-03        -1.09110     299.820E-03        -1.09063     324.816E-03     15.4213E-03     115.303E-03    -56.7892E-03    -58.5288E-03    -55.2943E-03     112.068E-03    -56.7892E-03     46.9789E-03     163.857E+06     127.110E+06    -4.02439E+06    -3.99240E+06     163.825E+06     127.110E+06    -872.774E+03         51.7937
             150     17.0200E-03     64.2679E-03     330.145E-03     309.161E-03        -1.09365     317.285E-03        -1.09327     321.642E-03     35.8325E-03     115.161E-03    -56.7828E-03    -58.4181E-03    -55.2679E-03     112.011E-03    -56.7828E-03     46.3295E-03     164.983E+06      127.96E+06    -3.94721E+06    -3.94047E+06     164.977E+06      127.96E+06     224.115E+03         51.8075
             151     17.0182E-03     65.3892E-03     332.713E-03     316.946E-03        -1.10154     332.242E-03        -1.10106     316.946E-03    -32.6928E-03     114.577E-03    -56.8250E-03    -57.7847E-03    -54.7690E-03     111.562E-03    -56.8250E-03     45.1970E-03     165.531E+06     127.584E+06    -3.67533E+06    -3.65377E+06     165.510E+06     127.584E+06     879.336E+03         51.8195
             152     17.0184E-03     66.5042E-03     318.245E-03     289.525E-03        -1.05468     296.143E-03        -1.05404     310.981E-03    -57.8823E-03     114.441E-03    -56.8405E-03    -57.5915E-03    -54.7199E-03     111.569E-03    -56.8405E-03     44.0612E-03     165.702E+06     127.304E+06    -2.97692E+06    -2.95233E+06     165.677E+06     127.304E+06     640.535E+03         51.8308
             153     17.0193E-03     67.6241E-03     306.155E-03     284.433E-03        -1.02453     284.321E-03        -1.02415     305.889E-03     1.50487E-03     114.390E-03    -56.8531E-03    -57.5745E-03    -54.8432E-03     111.659E-03    -56.8531E-03     42.9984E-03     165.207E+06     126.861E+06    -3.35140E+06    -3.34400E+06     165.199E+06     126.861E+06    -198.063E+03         51.8405
             154     17.0188E-03     68.7455E-03     316.543E-03     301.107E-03        -1.04881     316.296E-03        -1.04857     301.107E-03     11.2209E-03     114.699E-03    -56.8508E-03    -57.8540E-03    -54.9752E-03     111.820E-03    -56.8508E-03     44.1933E-03     165.424E+06     126.713E+06    -4.57669E+06    -4.56791E+06     165.415E+06     126.713E+06    -288.052E+03         51.8479
             155     17.0181E-03     69.8645E-03     311.320E-03     281.611E-03        -1.02196     296.695E-03        -1.02187     296.150E-03    -21.2773E-03     115.215E-03    -56.8575E-03    -58.3181E-03    -55.2979E-03     112.195E-03    -56.8575E-03     45.3864E-03     166.358E+06     127.870E+06    -3.73097E+06    -3.70425E+06     166.331E+06     127.870E+06     574.787E+03         51.8578
             156     17.0184E-03     70.9858E-03     292.379E-03     276.601E-03    -982.449E-03     277.800E-03    -982.409E-03     291.139E-03    -6.44238E-03     114.750E-03    -56.8728E-03    -57.8895E-03    -54.9552E-03     111.816E-03    -56.8728E-03     44.6257E-03     166.644E+06     127.356E+06    -4.07456E+06    -4.05346E+06     166.623E+06     127.356E+06     1.05443E+06         51.8719
             157     17.0186E-03     72.1026E-03     290.852E-03     285.922E-03    -974.873E-03     290.522E-03    -974.544E-03     285.922E-03     31.6884E-03     114.033E-03    -56.8600E-03    -57.2080E-03    -54.2907E-03     111.116E-03    -56.8600E-03     44.3134E-03     166.691E+06     126.406E+06    -4.74695E+06    -4.74466E+06     166.689E+06     126.406E+06     100.868E+03         51.8893
             158     17.0188E-03     73.2235E-03     283.829E-03     269.407E-03    -948.914E-03     272.515E-03    -948.330E-03     280.138E-03     3.88289E-03     114.115E-03    -56.8569E-03    -57.2840E-03    -54.3418E-03     111.173E-03    -56.8569E-03     44.5222E-03     167.787E+06     127.993E+06    -3.05718E+06    -3.05085E+06     167.781E+06     127.993E+06    -281.554E+03         51.9088
             159     17.0180E-03     74.3414E-03     273.852E-03     260.414E-03    -924.726E-03     260.144E-03    -924.456E-03     273.852E-03    -19.3262E-03     114.635E-03    -56.8748E-03    -57.8059E-03    -54.8280E-03     111.657E-03    -56.8748E-03     44.9238E-03     168.333E+06     128.105E+06    -3.43056E+06    -3.39299E+06     168.296E+06     128.105E+06     1.04148E+06         51.9286
             160     17.0181E-03     75.4621E-03     275.661E-03     265.737E-03    -914.073E-03     272.901E-03    -914.021E-03     268.446E-03     15.0922E-03     114.868E-03    -56.8554E-03    -58.0320E-03    -55.0466E-03     111.883E-03    -56.8554E-03     45.0400E-03     168.314E+06     126.969E+06    -4.58328E+06    -4.54906E+06     168.280E+06     126.969E+06     1.32622E+06         51.9479
             161     17.0184E-03     76.5809E-03     271.279E-03     251.222E-03    -888.349E-03     258.152E-03    -888.064E-03     264.064E-03     32.9429E-03     114.398E-03    -56.8693E-03    -57.5300E-03    -54.6881E-03     111.556E-03    -56.8693E-03     43.8410E-03     170.323E+06     128.845E+06    -2.59107E+06    -2.58590E+06     170.318E+06     128.845E+06     209.987E+03         51.9657
             162     17.0186E-03     77.6981E-03     260.623E-03     246.823E-03    -864.206E-03     247.495E-03    -863.920E-03     259.664E-03     32.8594E-03     114.020E-03    -56.8721E-03    -57.1930E-03    -54.4175E-03     111.244E-03    -56.8721E-03     43.2428E-03     169.304E+06     127.605E+06    -4.10549E+06    -4.09239E+06     169.291E+06     127.605E+06    -337.695E+03         51.9809
             163     17.0182E-03     78.8207E-03     278.503E-03     253.628E-03    -884.532E-03     278.336E-03    -884.365E-03     253.628E-03     27.0162E-03     114.342E-03    -56.8411E-03    -57.5187E-03    -54.5795E-03     111.403E-03    -56.8411E-03     44.5458E-03     170.306E+06     127.512E+06    -3.92799E+06    -3.91828E+06     170.296E+06     127.512E+06    -739.391E+03         51.9943
             164     17.0183E-03     79.9378E-03     269.661E-03     235.692E-03    -863.602E-03     259.345E-03    -863.339E-03     245.745E-03     34.3364E-03     114.746E-03    -56.8435E-03    -57.9355E-03    -54.9266E-03     111.738E-03    -56.8435E-03     45.1820E-03     170.935E+06     127.558E+06    -3.32680E+06    -3.32555E+06     170.934E+06     127.558E+06    -122.441E+03         52.0078
             165     17.0186E-03     81.0594E-03     239.168E-03     210.070E-03    -805.437E-03     209.041E-03    -804.409E-03     239.168E-03     58.8747E-03     115.095E-03    -56.8462E-03    -58.3066E-03    -55.2883E-03     112.077E-03    -56.8462E-03     45.3474E-03     169.947E+06     126.670E+06    -4.38709E+06    -4.38068E+06     169.941E+06     126.670E+06     403.664E+03         52.0222
             166     17.0176E-03     82.1800E-03     243.222E-03     216.022E-03    -794.353E-03     223.257E-03    -793.433E-03     235.068E-03     49.7052E-03     114.947E-03    -56.8697E-03    -58.0989E-03    -55.0982E-03     111.946E-03    -56.8697E-03     45.1683E-03     171.378E+06     127.438E+06    -2.53470E+06    -2.52917E+06     171.372E+06     127.438E+06     614.543E+03         52.0381
             167     17.0190E-03     83.2963E-03     247.764E-03     230.041E-03    -791.133E-03     247.735E-03    -791.104E-03     230.041E-03     6.58408E-03     114.097E-03    -56.8563E-03    -57.2415E-03    -54.4404E-03     111.296E-03    -56.8563E-03     43.4539E-03     170.608E+06     125.799E+06    -3.59103E+06    -3.58943E+06     170.607E+06     125.799E+06     289.741E+03         52.0560
             168     17.0184E-03     84.4167E-03     232.136E-03     212.166E-03    -758.596E-03     221.663E-03    -758.525E-03     222.568E-03     10.3152E-03     113.839E-03    -56.8634E-03    -56.9993E-03    -54.2063E-03     111.046E-03    -56.8634E-03     43.3273E-03     170.632E+06     124.973E+06    -4.60567E+06    -4.60146E+06     170.628E+06     124.973E+06    -119.297E+03         52.0735
             169     17.0189E-03     85.5355E-03     215.995E-03     190.902E-03    -713.378E-03     189.548E-03    -712.024E-03     215.995E-03     58.8751E-03     114.022E-03    -56.8565E-03    -57.1732E-03    -54.2425E-03     111.092E-03    -56.8565E-03     44.4085E-03     172.066E+06     126.459E+06    -3.70341E+06    -3.69883E+06     172.061E+06     126.459E+06    -78.1544E+03         52.0877
             170     17.0187E-03     86.6549E-03     221.876E-03     196.533E-03    -715.077E-03     205.832E-03    -713.724E-03     211.224E-03     59.0035E-03     114.321E-03    -56.8636E-03    -57.4782E-03    -54.5281E-03     111.371E-03    -56.8636E-03     44.6341E-03     173.140E+06     127.280E+06    -2.50802E+06    -2.50517E+06     173.137E+06     127.280E+06     115.450E+03         52.0978
             171     17.0183E-03     87.7741E-03     222.418E-03     205.364E-03    -728.060E-03     222.225E-03    -727.867E-03     205.364E-03     26.7840E-03     114.357E-03    -56.8722E-03    -57.5867E-03    -54.7083E-03     111.479E-03    -56.8722E-03     44.1202E-03     173.382E+06     126.019E+06    -3.62755E+06    -3.62450E+06     173.379E+06     126.019E+06     139.759E+03         52.1040
             172     17.0189E-03     88.8917E-03     205.039E-03     185.449E-03    -685.083E-03     191.703E-03    -684.935E-03     198.636E-03     21.5999E-03     114.399E-03    -56.8508E-03    -57.6368E-03    -54.6874E-03     111.449E-03    -56.8508E-03     44.6595E-03     173.611E+06     126.393E+06    -3.74593E+06    -3.74108E+06     173.606E+06     126.393E+06     -62.404E+03         52.1097
             173     17.0200E-03     90.0140E-03     192.113E-03     174.441E-03    -632.628E-03     174.327E-03    -632.515E-03     192.113E-03    -5.43385E-03     114.385E-03    -56.8328E-03    -57.5950E-03    -54.4826E-03     111.272E-03    -56.8328E-03     45.8459E-03     174.898E+06     127.984E+06    -1.60595E+06    -1.58962E+06     174.882E+06     127.984E+06     602.674E+03         52.1174
             174     17.0198E-03     91.1328E-03     191.339E-03     180.525E-03    -640.432E-03     186.749E-03    -640.328E-03     185.010E-03    -6.64392E-03     114.104E-03    -56.8201E-03    -57.2878E-03    -54.1841E-03     111.000E-03    -56.8201E-03     45.7041E-03     177.972E+06     128.265E+06    -2.53522E+06    -2.52148E+06     177.958E+06     128.265E+06     969.061E+03         52.1259
             175     17.0187E-03     92.2492E-03     188.684E-03     178.179E-03    -635.447E-03     188.603E-03    -635.366E-03     178.179E-03     15.4110E-03     114.423E-03    -56.8183E-03    -57.6070E-03    -54.6234E-03     111.439E-03    -56.8183E-03     44.9150E-03     178.170E+06     126.584E+06    -6.09584E+06    -6.08254E+06     178.157E+06     126.584E+06     973.966E+03         52.1349
             176     17.0197E-03     93.3697E-03     176.556E-03     170.595E-03    -586.547E-03     174.236E-03    -586.011E-03     172.380E-03    -16.0621E-03     114.615E-03    -56.7634E-03    -57.8793E-03    -54.9267E-03     111.662E-03    -56.7634E-03     44.7476E-03     179.555E+06     128.453E+06    -4.13244E+06    -4.11920E+06     179.542E+06     128.453E+06     1.00079E+06         52.1415
             177     17.0207E-03     94.4887E-03     166.564E-03     164.664E-03    -565.595E-03     164.288E-03    -565.104E-03     166.448E-03    -31.7837E-03     113.676E-03    -56.4674E-03    -57.2486E-03    -53.9152E-03     110.616E-03    -56.7402E-03     45.2827E-03     182.798E+06     131.379E+06    -2.91747E+06    -2.90260E+06     182.783E+06     131.379E+06     1.08019E+06         52.1408
             178     17.0226E-03     95.6072E-03     159.928E-03     152.341E-03    -534.394E-03     152.195E-03    -534.133E-03     159.812E-03     12.0886E-03     112.772E-03    -56.0343E-03    -56.7362E-03    -52.8080E-03     109.546E-03    -56.7362E-03     46.2241E-03     184.641E+06     134.263E+06    -3.63485E+06    -3.61990E+06     184.626E+06     134.263E+06     1.04570E+06         52.1315
             179     17.0234E-03     96.7224E-03     158.581E-03     146.302E-03    -531.236E-03     150.076E-03    -530.203E-03     153.773E-03     51.3204E-03     112.661E-03    -55.9690E-03    -56.6725E-03    -52.8044E-03     109.496E-03    -56.6725E-03     45.7582E-03     185.983E+06     136.151E+06    -3.65362E+06    -3.65332E+06     185.982E+06     136.151E+06    -39.0862E+03         52.1130
             180     17.0251E-03     97.8399E-03     177.086E-03     147.720E-03    -545.693E-03     175.144E-03    -543.752E-03     147.720E-03    -7.12934E-03     112.581E-03    -56.0088E-03    -56.5637E-03    -52.7870E-03     109.359E-03    -56.5637E-03     46.1459E-03     184.911E+06     135.956E+06    -4.51839E+06    -4.51782E+06     184.911E+06     135.956E+06    -116.190E+03         52.0830
             181     17.0271E-03     98.9582E-03     164.452E-03     139.066E-03    -502.814E-03     162.441E-03    -501.631E-03     139.894E-03    -34.3261E-03     111.409E-03    -54.9609E-03    -56.4351E-03    -51.6466E-03     108.095E-03    -56.4351E-03     46.4925E-03     183.123E+06     134.372E+06    -3.54302E+06    -3.53808E+06     183.118E+06     134.372E+06     431.819E+03         52.0395
             182     17.0309E-03     100.070E-03     132.161E-03     115.372E-03    -441.440E-03     114.597E-03    -440.664E-03     132.161E-03     33.9185E-03     110.129E-03    -53.8695E-03    -56.2349E-03    -50.4504E-03     106.710E-03    -56.2349E-03     46.8438E-03     181.417E+06     131.171E+06    -3.54154E+06    -3.53706E+06     181.413E+06     131.171E+06     695.333E+03         51.9815
             183     17.0361E-03     101.184E-03     129.288E-03     110.391E-03    -429.061E-03     111.395E-03    -427.128E-03     126.351E-03     64.4051E-03     109.933E-03    -54.0278E-03    -55.8986E-03    -50.5125E-03     106.418E-03    -55.8986E-03     47.4939E-03     178.940E+06     126.794E+06    -4.61468E+06    -4.60757E+06     178.933E+06     126.794E+06    -754.509E+03         51.9097
             184     17.0430E-03     102.297E-03     133.950E-03     121.308E-03    -429.494E-03     132.582E-03    -428.126E-03     121.308E-03     23.1121E-03     109.716E-03    -54.2963E-03    -55.4386E-03    -50.7793E-03     106.199E-03    -55.4386E-03     47.5123E-03     176.424E+06     120.862E+06    -4.09632E+06    -4.08358E+06     176.411E+06     120.862E+06    -1.51497E+06         51.8307
             185     17.0523E-03     103.409E-03     124.582E-03     107.015E-03    -387.501E-03     116.526E-03    -387.306E-03     114.877E-03    -9.64706E-03     108.671E-03    -53.8743E-03    -54.8116E-03    -50.1483E-03     104.945E-03    -54.8116E-03     48.6427E-03     171.782E+06     110.246E+06    -2.77391E+06    -2.76803E+06     171.776E+06     110.246E+06    -571.482E+03         51.7654
             186     17.0665E-03     104.518E-03     113.818E-03     99.6127E-03    -364.626E-03     103.298E-03    -361.968E-03     107.475E-03     54.4865E-03     107.711E-03    -53.3797E-03    -54.3369E-03    -49.9140E-03     103.782E-03    -53.8739E-03     49.7671E-03     165.115E+06     88.6378E+06    -3.06927E+06    -3.02832E+06     165.074E+06     88.6378E+06    -1.69485E+06         51.7478
             187     17.0846E-03     105.624E-03     117.124E-03     101.351E-03    -377.764E-03     114.176E-03    -374.817E-03     101.351E-03     67.9336E-03     110.008E-03    -52.6991E-03    -57.3034E-03    -53.8115E-03     106.516E-03    -52.6991E-03     47.6257E-03     159.188E+06     75.2399E+06    -2.12847E+06    -2.07426E+06     159.134E+06     75.2399E+06    -801.770E+03         51.8026
             188     17.1004E-03     106.740E-03     109.385E-03     95.2092E-03    -356.059E-03     105.508E-03    -352.181E-03     95.2092E-03    -36.9299E-03     116.845E-03    -51.4386E-03    -65.4060E-03    -63.0251E-03     114.464E-03    -51.4386E-03     40.9049E-03     143.694E+06     52.1918E+06    -4.11831E+06    -3.91659E+06     143.492E+06     52.1918E+06    -2.56756E+06         51.9235
             189     17.1109E-03     107.867E-03     92.7917E-03     84.5595E-03    -300.666E-03     85.6018E-03    -296.962E-03     88.0459E-03    -44.8107E-03     126.643E-03    -50.4228E-03    -76.2120E-03    -74.6775E-03     125.108E-03    -50.4228E-03     34.9313E-03     125.507E+06     31.8481E+06    -5.23882E+06    -4.45274E+06     124.721E+06     31.8481E+06    -9.64607E+06         52.0857
             190     17.1151E-03     109.013E-03     84.2542E-03     77.9656E-03    -282.396E-03     80.3475E-03    -281.975E-03     81.4520E-03     24.3353E-03     137.767E-03    -49.8666E-03    -87.8926E-03    -86.6759E-03     136.550E-03    -49.8666E-03     33.0071E-03     104.352E+06     41.3545E+06    -4.73729E+06    -2.70276E+06     102.317E+06     41.3545E+06    -14.1660E+06         52.2688
             191     17.1167E-03     110.167E-03     87.4215E-03     74.5996E-03    -275.031E-03     86.9867E-03    -274.596E-03     74.5996E-03     4.24867E-03     149.006E-03    -49.5016E-03    -99.5069E-03    -98.4107E-03     147.910E-03    -49.5016E-03     32.8978E-03     76.4515E+06     54.0828E+06     2.02335E+06     3.47691E+06     74.9979E+06     54.0828E+06    -8.79412E+06         52.4608
             192     17.1190E-03     111.335E-03     77.2894E-03     56.6689E-03    -232.953E-03     66.0020E-03    -232.266E-03     67.2696E-03    -26.4969E-03     161.134E-03    -49.1450E-03    -111.991E-03    -110.940E-03     160.083E-03    -49.1450E-03     33.8081E-03     56.5626E+06     40.7934E+06    -11.7107E+06    -1.78755E+06     33.0003E+06     54.4326E+06    -13.8833E+06         52.6493
             193     17.1192E-03     112.519E-03     64.7770E-03     50.1830E-03    -206.245E-03     52.3368E-03    -204.406E-03     60.7837E-03     10.4368E-03     174.970E-03    -48.8117E-03    -126.158E-03    -125.019E-03     173.832E-03    -48.8117E-03     36.9638E-03     55.9865E+06     12.1421E+06    -37.3618E+06    -10.1537E+06    -15.0660E+06     55.9865E+06    -22.2129E+06         52.8068
             194     17.1202E-03     113.723E-03     76.0746E-03     54.0113E-03    -211.607E-03     74.7410E-03    -210.274E-03     54.0113E-03     22.3429E-03     190.224E-03    -48.4734E-03    -141.752E-03    -140.350E-03     188.822E-03    -48.4734E-03     43.0188E-03     70.0100E+06     11.0013E+06    -59.7175E+06     5.93932E+06    -54.6556E+06     70.0100E+06    -13.2618E+06         52.8896
             195     17.1215E-03     114.942E-03     64.3445E-03     35.5913E-03    -178.632E-03     53.5080E-03    -178.479E-03     46.2746E-03     2.03590E-03     205.380E-03    -48.0825E-03    -157.297E-03    -155.674E-03     203.757E-03    -48.0825E-03     48.4200E-03     70.4780E+06     4.97958E+06    -90.5944E+06     4.35884E+06    -89.9736E+06     70.4780E+06    -7.64265E+06         52.8397
             196     17.1218E-03     116.185E-03     39.4680E-03     27.0846E-03    -141.987E-03     25.8776E-03    -140.780E-03     39.4680E-03     25.6348E-03     218.206E-03    -47.7164E-03    -170.489E-03    -168.400E-03     216.117E-03    -47.7164E-03     56.6061E-03     62.1691E+06    -6.79019E+06    -116.723E+06    -7.14957E+06    -116.363E+06     62.1691E+06    -6.05736E+06         52.5854
             197     17.1237E-03     117.440E-03     44.7948E-03     32.0435E-03    -143.415E-03     41.6159E-03    -141.937E-03     33.7435E-03     6.78961E-03     229.260E-03    -47.4220E-03    -181.838E-03    -179.035E-03     226.457E-03    -47.4220E-03     67.6101E-03     73.2239E+06    -1.50710E+06    -120.141E+06    -2.10044E+06    -119.547E+06     73.2239E+06     2.47044E+06         52.0559
             198     17.1250E-03     118.706E-03     38.5930E-03     23.9153E-03    -113.833E-03     33.9776E-03    -112.844E-03     27.5418E-03    -23.2612E-03     237.457E-03    -47.0008E-03    -190.453E-03    -186.550E-03     233.553E-03    -47.0008E-03     80.9645E-03     71.3734E+06    -44.2731E+03    -108.185E+06    -525.849E+03    -107.704E+06     71.3734E+06     4.85834E+06         51.2084
             199     17.1343E-03     119.983E-03     21.6021E-03     16.3188E-03    -80.2240E-03     10.3031E-03    -74.2084E-03     21.6021E-03     19.3927E-03     244.506E-03    -46.6169E-03    -197.900E-03    -190.852E-03     237.457E-03    -46.6169E-03     109.358E-03     69.6210E+06    -201.011E+03    -122.207E+06    -254.253E+03    -122.154E+06     69.6210E+06    -2.17703E+06         50.0337
             200     17.1358E-03     121.293E-03     17.1940E-03     15.0704E-03    -64.6740E-03     10.0788E-03    -59.2155E-03     16.7272E-03     27.9272E-03     246.753E-03    -46.7169E-03    -200.049E-03    -185.894E-03     232.598E-03    -46.7169E-03     153.910E-03     82.8949E+06     25.3276E+06    -94.2743E+06     11.0322E+06     -79.979E+06     82.8949E+06     20.7341E+06         48.5457
             201     17.1263E-03     122.595E-03     12.5991E-03     6.97712E-03    -49.0818E-03     7.35957E-03    -48.9974E-03     12.1323E-03    -4.32306E-03     211.502E-03    -48.4545E-03    -163.041E-03    -128.377E-03     176.838E-03    -48.4545E-03     203.164E-03     51.6057E+06     25.3648E+06    -61.7928E+06    -24.9481E+06    -11.4798E+06     51.6057E+06     16.9404E+06         46.9675
             202     17.1173E-03     123.718E-03     14.9255E-03     3.22499E-03    -47.4535E-03    -23.4500E-03    -14.2332E-03     8.38017E-03     5.20939E-03     106.538E-03    -10.6137E-03    -95.9182E-03    -21.6248E-03     78.4425E-03    -56.8114E-03     114.877E-03     37.6800E+06    -1.25284E+06    -114.126E+06    -8.49814E+06    -1.58550E+06    -67.6156E+06    -1.65495E+06         45.7591
             203     15.7604E-03     124.265E-03     14.8370E-03     5.39537E-03    -34.7936E-03    -26.1682E-03     3.31520E-03     8.29166E-03     20.0539E-03     49.7357E-03     14.6769E-03    -64.4162E-03     17.5775E-03     46.8351E-03    -64.4162E-03     1.39070E-03     65.5665E+06     15.5368E+06    -87.2132E+06     18.6850E+06     14.9342E+06    -39.7291E+06     9.50594E+06         44.2501
             204     14.8102E-03     123.935E-03     23.8031E-03     7.10892E-03    -23.8635E-03     6.79659E-03    -9.75323E-03     10.0052E-03    -15.9551E-03     86.3796E-03    -22.0904E-03    -64.2885E-03    -21.3574E-03     85.6467E-03    -64.2885E-03    -14.7986E-03     74.4644E+06     8.10543E+06    -25.2178E+06    -18.4057E+06     1.29333E+06     74.4644E+06     7.64480E+06         42.0650
             205     13.9440E-03     123.540E-03     25.0671E-03     9.17232E-03    -20.4076E-03     10.9983E-03    -8.43566E-03     11.2692E-03    -18.6787E-03     98.4758E-03    -36.5350E-03    -61.9593E-03    -35.1988E-03     97.1397E-03    -61.9593E-03    -26.7245E-03      71.256E+06     15.0135E+06    -19.4833E+06    -6.08863E+06     1.61889E+06      71.256E+06    -10.3606E+06         39.7030
             206     13.0426E-03     123.206E-03     25.6933E-03     10.6473E-03    -40.8908E-03     18.1667E-03    -35.4609E-03     12.7441E-03    -12.9499E-03     96.1478E-03    -36.6995E-03    -59.4724E-03    -34.7078E-03     94.1561E-03    -59.4724E-03    -31.9475E-03     55.7770E+06     24.9162E+06    -28.2760E+06     3.06136E+06    -6.42117E+06     55.7770E+06    -6.41179E+06         37.1921
             207     12.1361E-03     122.927E-03     26.5192E-03     11.0551E-03    -41.5929E-03     19.5614E-03    -37.1500E-03     13.5700E-03    -14.0158E-03     111.486E-03    -50.2274E-03    -61.2551E-03    -50.8522E-03     107.735E-03    -56.8788E-03    -49.1976E-03     61.0130E+06     18.5937E+06    -26.1940E+06    -2.44329E+06      -5.157E+06     61.0130E+06     4.34198E+06         34.7424
             208     11.2552E-03     122.671E-03     14.5224E-03     4.94953E-03    -27.2822E-03     3.01670E-03    -25.3494E-03     14.5224E-03     5.87994E-03     119.647E-03    -53.5425E-03    -66.1196E-03    -61.6052E-03     115.133E-03    -53.5425E-03    -57.1841E-03     70.1142E+06     11.3817E+06    -15.6747E+06    -8.20281E+06     3.90983E+06     70.1142E+06    -2.77347E+06         32.5685
             209     10.3677E-03     122.468E-03     15.8299E-03     8.24781E-03    -29.0509E-03     3.28038E-03    -24.0835E-03     15.8299E-03    -19.0029E-03     118.415E-03    -49.9194E-03    -68.5119E-03    -64.7431E-03     114.647E-03    -49.9194E-03    -52.4189E-03     68.2451E+06     4.89174E+06    -17.3423E+06    -9.12066E+06    -3.32987E+06     68.2451E+06    -4.55332E+06         30.6997
             210     9.46773E-03     122.299E-03     24.2370E-03     16.2872E-03    -21.6601E-03     13.6778E-03    -11.6251E-03     16.8113E-03    -37.4197E-03     113.995E-03    -46.3840E-03    -67.6119E-03    -64.8715E-03     111.254E-03    -46.3840E-03    -44.1376E-03     65.8794E+06     11.7520E+06    -17.3739E+06    -7.88511E+06     2.26322E+06     65.8794E+06    -10.5868E+06         29.0310
             211     8.55894E-03     122.164E-03     45.6403E-03     16.8497E-03    -37.8382E-03     32.6490E-03    -24.8469E-03     16.8497E-03    -60.2889E-03     107.388E-03    -43.0557E-03    -64.3411E-03    -62.3929E-03     105.440E-03    -43.0557E-03    -36.3061E-03     65.8212E+06     8.04727E+06    -16.5934E+06    -1.91424E+06    -6.63185E+06     65.8212E+06    -12.0922E+06         27.5485
             212     7.63864E-03     122.058E-03     46.8775E-03     15.5512E-03    -43.6193E-03     37.3691E-03    -34.1109E-03     15.5512E-03    -23.8476E-03     99.2660E-03    -39.9421E-03    -59.3239E-03    -57.9465E-03     97.8886E-03    -39.9421E-03    -29.3444E-03     77.0051E+06     11.0177E+06    -7.36098E+06     6.39087E+06    -2.73412E+06     77.0051E+06    -6.86767E+06         26.3538
             213     6.70870E-03     121.972E-03     29.9328E-03     13.9348E-03    -39.5536E-03     26.1837E-03    -35.8046E-03     13.9348E-03    -1.46242E-03     89.9048E-03    -37.0175E-03    -52.8421E-03    -51.9007E-03     88.9634E-03    -37.0175E-03    -23.0687E-03     70.9567E+06     10.1662E+06    -5.93357E+06     6.33255E+06    -2.09994E+06     70.9567E+06    -5.77088E+06         25.4982
             214     5.76835E-03     121.907E-03     25.1908E-03     14.3740E-03    -35.3588E-03     1.92884E-03    -12.0968E-03     14.3740E-03    -35.5022E-03     81.0715E-03    -34.3902E-03    -46.5930E-03    -45.9747E-03     80.4531E-03    -34.3902E-03    -17.6293E-03     54.6615E+06     16.2418E+06    -4.63514E+06     7.69961E+06     3.90702E+06     54.6615E+06    -10.2615E+06         24.8942
             215     4.82105E-03     121.858E-03     30.2719E-03     19.5202E-03    -29.3031E-03    -20.2823E-03     21.2511E-03     19.5202E-03    -42.6424E-03     73.4845E-03    -32.1890E-03    -41.2418E-03    -40.8589E-03     73.1017E-03    -32.1890E-03    -13.1979E-03     48.1834E+06     23.5908E+06    -9.60285E+06     16.9245E+06    -2.93657E+06     48.1834E+06    -11.6632E+06         24.4228
             216     3.86510E-03     121.824E-03     51.7296E-03     24.0852E-03    -60.1193E-03     20.1214E-03    -28.5111E-03     24.0852E-03     2.65336E-03     66.9070E-03    -30.3458E-03    -36.5513E-03    -36.3157E-03     66.6714E-03    -30.3458E-03    -9.77994E-03     49.2636E+06     30.6549E+06    -7.05217E+06     28.8976E+06    -5.29494E+06     49.2636E+06    -7.33225E+06         24.0400
             217     2.90473E-03     121.797E-03     57.7333E-03     19.7694E-03    -61.3223E-03     48.8463E-03    -52.4354E-03     19.7694E-03     56.4864E-03     61.1489E-03    -28.8384E-03    -32.3060E-03    -32.1789E-03     61.0217E-03    -28.8384E-03    -6.84017E-03     43.7511E+06     35.5160E+06    -267.081E+03     36.1575E+06     44.5991E+03     42.7979E+06    -3.25675E+06         23.7358
             218     1.93790E-03     121.780E-03     58.3446E-03     15.1938E-03    -35.6895E-03     13.4038E-03     9.25133E-03     15.1938E-03     77.3224E-03     56.6648E-03    -27.5913E-03    -29.0691E-03    -28.5065E-03     56.5759E-03    -28.0649E-03    -5.50340E-03     42.6502E+06     38.7368E+06    -209.911E+03     38.7256E+06     754.525E+03     41.6970E+06    -5.44614E+06         23.5087
             219     969.215E-06     121.772E-03     71.1293E-03    -954.368E-06    -49.2910E-03     31.3462E-03    -9.50792E-03    -954.368E-06     66.6742E-03     56.0083E-03    -26.5096E-03    -29.4951E-03    -28.9200E-03     55.9069E-03    -26.9832E-03    -5.86180E-03     53.5121E+06     43.4649E+06    -6.57641E+06     40.6510E+06    -3.76255E+06     53.5121E+06    -11.4600E+06         23.3642
             220    -6.32830E-06     120.720E-03     77.6733E-03    -9.01324E-03    -66.4349E-03     1.73312E-03    -31.9572E-03     32.4493E-03     35.7483E-03     49.6292E-03    -22.2797E-03    -27.3485E-03    -24.6025E-03     49.4402E-03    -24.8367E-03    -7.17357E-03     52.4164E+06     33.1406E+06    -33.9464E+06     40.3454E+06    -28.9626E+06     40.2277E+06    -19.2391E+06         23.0168
             221     855.011E-09     119.674E-03     106.890E-03    -10.6737E-03    -74.2622E-03     9.62218E-03    -18.4573E-03     30.7888E-03    -70.2809E-03     35.4518E-03    -16.0964E-03    -19.3554E-03    -16.6655E-03     35.3189E-03    -18.6534E-03    -3.60418E-03     17.2815E+06     3.17515E+06    -69.4964E+06     14.2330E+06    -66.4479E+06     3.17515E+06    -11.7667E+06         22.3147
             222     461.441E-09     118.644E-03     103.841E-03     8.87865E-03    -111.633E-03     60.4386E-03    -87.0923E-03     27.7400E-03    -111.583E-03     23.2141E-03    -11.0545E-03    -12.1599E-03    -11.7547E-03     23.2123E-03    -11.4579E-03     469.127E-06    -47.0621E+06    -50.0450E+06    -89.2172E+06    -48.3154E+06    -89.0291E+06    -48.9798E+06    -687.996E+03         21.5471
             223    -1.26247E-06     117.627E-03     108.047E-03     2.97739E-03    -123.739E-03     37.1821E-03    -71.7351E-03     21.8387E-03     94.0757E-03     13.5985E-03    -6.58322E-03    -7.01518E-03    -6.58299E-03     13.5982E-03    -7.01518E-03     137.384E-06    -99.4086E+06    -112.787E+06    -116.917E+06    -112.340E+06    -105.051E+06    -111.722E+06    -3.69091E+06         20.9244
             224     1.18410E-06     116.619E-03     94.8575E-03     7.36014E-03    -130.236E-03     44.5732E-03    -79.9518E-03     7.36014E-03     123.304E-03     7.47926E-03    -3.67507E-03    -3.80423E-03    -3.77548E-03     7.47907E-03    -3.70362E-03     91.3313E-06    -128.824E+06    -164.283E+06    -170.263E+06    -168.706E+06    -130.381E+06    -164.283E+06    -7.78278E+06         20.5232
             225    -926.207E-09     115.614E-03     87.9262E-03     39.8976E-03    -190.187E-03     45.4353E-03    -147.696E-03     39.8976E-03     153.520E-03     4.89857E-03    -2.39155E-03    -2.50703E-03    -2.47197E-03     4.87839E-03    -2.40642E-03     552.688E-06    -148.198E+06    -194.646E+06    -208.751E+06    -198.171E+06    -150.598E+06    -202.826E+06     831.370E+03         20.3584
             226     721.142E-09     114.608E-03     112.601E-03     34.3656E-03    -212.229E-03     52.4247E-03    -152.053E-03     34.3656E-03     52.3433E-03     5.82517E-03    -2.84805E-03    -2.97724E-03    -2.92500E-03     5.78780E-03    -2.86292E-03     1.12710E-03    -111.373E+06    -140.664E+06    -165.026E+06    -143.214E+06    -125.005E+06    -148.844E+06     16.8160E+06         20.4073
             227    -478.866E-09     113.603E-03     130.970E-03     69.9480E-03    -284.136E-03     103.734E-03    -256.900E-03     69.9480E-03     1.32788E-03     9.84245E-03    -4.83113E-03    -5.01135E-03    -4.88837E-03     9.78536E-03    -4.89703E-03     1.82866E-03    -56.5163E+06    -76.3710E+06    -99.0686E+06    -85.1453E+06    -70.4397E+06    -76.3710E+06     16.8581E+06         20.6656
             228     333.153E-09     112.588E-03     129.797E-03     83.8572E-03    -299.687E-03     84.6637E-03    -254.554E-03     83.8572E-03    -37.4076E-03     16.3892E-03    -8.11405E-03    -8.27482E-03    -8.11261E-03     16.2929E-03    -8.17996E-03     3.06992E-03    -27.3355E+06    -45.2536E+06    -51.9573E+06    -48.1557E+06    -31.1370E+06    -45.2536E+06     3.70331E+06         21.1612
             229    -282.540E-09     111.570E-03     78.5486E-03     49.0187E-03    -210.528E-03     24.1038E-03    -169.199E-03     62.1351E-03    -184.842E-03     25.9764E-03    -12.9129E-03    -13.0623E-03    -12.9119E-03     25.8806E-03    -12.9674E-03     3.78521E-03    -559.147E+03    -5.49042E+06    -14.9178E+06    -2.84055E+06    -12.6364E+06    -5.49042E+06    -2.53555E+06         21.9034
             230     95.0930E-09     110.537E-03     87.6381E-03     70.6128E-03    -251.461E-03     36.3684E-03    -217.217E-03     87.6381E-03    -193.410E-03     39.1953E-03    -19.3047E-03    -19.8899E-03    -19.7684E-03     39.1283E-03    -19.3592E-03     3.90360E-03     27.3025E+06     23.0474E+06    -13.1836E+06     23.6381E+06    -12.8957E+06     26.4239E+06    -3.10817E+06         22.8503
             231     947.805E-09     109.490E-03     224.194E-03     68.4841E-03    -386.702E-03     966.869E-06    -319.184E-03     224.194E-03    -323.181E-03     54.8470E-03    -27.0907E-03    -27.7557E-03    -27.7055E-03     54.7968E-03    -27.0907E-03     4.04112E-03     54.1369E+06     48.0514E+06    -17.0694E+06     50.4887E+06    -16.7977E+06     51.4280E+06    -2.91744E+06         23.9052
             232    -755.964E-09     108.426E-03     297.639E-03     4.44762E-03    -392.122E-03    -64.8460E-03    -322.829E-03     297.639E-03    -300.553E-03     69.8325E-03    -34.6097E-03    -35.2172E-03    -35.1872E-03     69.8026E-03    -34.6097E-03     3.37117E-03     71.0244E+06     66.4205E+06    -14.3278E+06     69.1241E+06    -14.3225E+06     68.3154E+06    -644.143E+03         24.9451
             233     1.69220E-06     107.345E-03     321.755E-03    -54.0855E-03    -382.330E-03    -232.169E-03    -204.246E-03     321.755E-03    -249.993E-03     81.5220E-03    -40.3601E-03    -41.1587E-03    -41.1420E-03     81.5053E-03    -40.3601E-03     2.86075E-03     67.5913E+06     65.2828E+06    -29.0166E+06     65.6301E+06    -28.9504E+06     67.1777E+06    -2.21342E+06         25.8723
             234    -1.08656E-06     106.255E-03     559.163E-03    -165.565E-03    -533.348E-03    -393.872E-03    -305.041E-03     559.163E-03    -317.861E-03     90.9364E-03    -44.9664E-03    -45.9718E-03    -45.2713E-03     90.9158E-03    -45.6463E-03     3.35359E-03     59.9161E+06     57.5805E+06    -40.9589E+06     59.7684E+06    -40.8112E+06     57.5805E+06     241.975E+03         26.6468
             235    -254.228E-09     105.154E-03     856.485E-03    -296.336E-03    -716.374E-03    -479.830E-03    -532.880E-03     856.485E-03    -416.443E-03     100.129E-03    -49.1976E-03    -50.9374E-03    -50.2446E-03     100.116E-03    -49.8774E-03     2.51487E-03     54.0579E+06     51.2481E+06    -50.9248E+06     53.0690E+06    -50.8236E+06     52.1358E+06     1.11032E+06         27.2553
             236     2.26382E-06     104.045E-03         1.02549    -291.584E-03    -902.720E-03    -750.889E-03    -443.415E-03         1.02549    -422.813E-03     105.740E-03    -51.7448E-03    -54.0012E-03    -53.9996E-03     105.738E-03    -51.7448E-03     816.397E-06     38.7294E+06     36.8945E+06    -73.1238E+06     37.7163E+06    -72.9985E+06     37.7822E+06    -3.39810E+06         27.6865
             237    -4.79664E-09     102.934E-03         1.18829    -217.211E-03        -1.14066        -1.08187    -275.998E-03         1.18829    -450.416E-03     108.695E-03    -53.2576E-03    -55.4387E-03    -54.4484E-03     108.689E-03    -54.2423E-03     1.45529E-03     28.8641E+06     21.5355E+06    -89.6075E+06     22.3611E+06    -89.4859E+06     27.9169E+06    -3.28855E+06         27.9639
             238    -1.77048E-06     101.816E-03         1.45168    -236.131E-03        -1.39301        -1.33245    -296.687E-03         1.45168    -514.334E-03     111.921E-03    -55.2981E-03    -56.6233E-03    -55.2926E-03     111.915E-03    -56.6233E-03     1.35651E-03     24.7680E+06     9.91581E+06    -109.651E+06     17.7500E+06    -109.015E+06     16.2972E+06    -7.47910E+06         28.1388
             239     1.03627E-06     100.694E-03         1.74127    -385.972E-03        -1.52638        -1.46901    -443.343E-03         1.74127    -498.094E-03     112.161E-03    -55.3987E-03    -56.7670E-03    -56.4265E-03     112.161E-03    -55.7391E-03     97.9714E-06     4.11251E+06    -6.55281E+06    -132.702E+06     1.29285E+06    -132.077E+06    -4.35831E+06    -6.83522E+06         28.2420
             240     951.048E-09     99.5810E-03         2.07232    -551.737E-03        -1.71298        -1.65185    -612.873E-03         2.07232    -518.587E-03     111.607E-03    -55.2190E-03    -56.3934E-03    -56.3933E-03     111.607E-03    -55.2190E-03    -54.9424E-06    -16.9115E+06    -19.6451E+06    -144.518E+06    -19.6536E+06    -144.509E+06    -16.9115E+06    -881.495E+03         28.2901
             241    -663.787E-09     98.4633E-03         2.33028    -507.397E-03        -2.03916        -1.94364    -602.908E-03         2.33028    -738.164E-03     113.307E-03    -56.5139E-03    -56.8025E-03    -56.8020E-03     113.307E-03    -56.5139E-03    -513.385E-06    -29.7890E+06    -31.9433E+06    -158.439E+06    -32.1847E+06    -158.198E+06    -29.7890E+06    -4.58197E+06         28.3082
             242     946.296E-09     97.3389E-03         2.47692    -387.987E-03        -2.30100        -2.18592    -503.062E-03         2.47692    -906.404E-03     114.075E-03    -56.7161E-03    -57.3693E-03    -57.3679E-03     114.074E-03    -56.7161E-03     213.506E-06    -47.6623E+06    -53.9413E+06    -178.755E+06    -49.5347E+06    -178.498E+06    -52.3261E+06    -5.11858E+06         28.3220
             243    -49.9578E-09     96.2203E-03         2.64550    -393.455E-03        -2.48527        -2.42522    -453.504E-03         2.64550    -633.147E-03     114.005E-03    -56.6888E-03    -57.3295E-03    -57.3285E-03     114.004E-03    -56.6888E-03     574.521E-06    -53.0155E+06    -60.8841E+06    -188.397E+06    -56.3440E+06    -188.273E+06    -57.6793E+06    -3.83419E+06         28.3352
             244     343.273E-09     95.1021E-03         2.91695    -466.928E-03        -2.69268        -2.64618    -513.425E-03         2.91695    -598.745E-03     114.176E-03    -56.9614E-03    -57.2213E-03    -57.2206E-03     114.175E-03    -56.9614E-03    -502.393E-06    -63.1146E+06    -68.1742E+06    -207.774E+06    -66.6321E+06    -207.461E+06    -64.9695E+06    -6.55876E+06         28.3429
             245    -133.510E-09     93.9790E-03         3.15990    -584.026E-03        -2.84035        -2.76061    -663.770E-03         3.15990    -832.883E-03     113.955E-03    -56.5927E-03    -57.3562E-03    -57.3550E-03     113.953E-03    -56.5927E-03    -78.5017E-06    -70.5947E+06    -75.0705E+06    -226.327E+06    -73.4373E+06    -226.106E+06    -72.4496E+06    -3.13112E+06         28.3528
             246     1.34483E-06     92.8603E-03         3.18470    -555.367E-03        -2.87573        -2.80575    -625.346E-03         3.18470    -788.188E-03     113.867E-03    -56.3264E-03    -57.5420E-03    -57.5410E-03     113.866E-03    -56.3264E-03     842.627E-06    -73.7037E+06    -78.0568E+06    -232.374E+06    -76.3408E+06    -232.358E+06    -75.4358E+06     82.1174E+03         28.3603
             247    -286.386E-09     91.7396E-03         3.30820    -570.580E-03        -2.97826        -2.93507    -613.770E-03         3.30820    -630.314E-03     113.709E-03    -56.3754E-03    -57.3295E-03    -56.9564E-03     113.707E-03    -56.7469E-03     1.03767E-03    -79.2759E+06    -81.4234E+06    -235.256E+06    -79.7134E+06    -235.234E+06    -81.0080E+06     326.687E+03         28.3628
             248    -421.000E-09     90.6206E-03         3.42978    -635.667E-03        -3.07181        -3.01623    -691.249E-03         3.42978    -705.846E-03     113.639E-03    -56.5486E-03    -57.0825E-03    -56.7097E-03     113.637E-03    -56.9201E-03     874.415E-06    -76.2509E+06    -77.0356E+06    -236.606E+06    -76.7355E+06    -236.536E+06    -76.6203E+06    -1.02601E+06         28.3644
             249     707.075E-09     89.5009E-03         3.33689    -493.216E-03        -3.11552        -3.04248    -566.260E-03         3.33689    -859.463E-03     114.015E-03    -56.7707E-03    -57.2538E-03    -57.2527E-03     114.014E-03    -56.7707E-03     799.050E-06    -75.0041E+06    -77.1543E+06    -236.509E+06    -75.1088E+06    -236.405E+06    -77.1543E+06    -100.817E+03         28.3627
             250    -134.595E-09     88.3817E-03         3.37424    -599.962E-03        -3.06296        -3.01570    -647.226E-03         3.37424    -670.790E-03     113.539E-03    -56.3716E-03    -57.1712E-03    -57.1697E-03     113.538E-03    -56.3716E-03     74.1730E-06    -76.6025E+06    -79.5592E+06    -240.797E+06    -77.8628E+06    -240.712E+06    -78.3833E+06     322.417E+03         28.3550
             251     1.04582E-06     87.2612E-03         3.48055    -831.760E-03        -2.96397        -2.93647    -859.261E-03         3.48055    -480.576E-03     112.322E-03    -55.8917E-03    -56.4261E-03    -56.3679E-03     112.319E-03    -55.9472E-03     362.674E-06    -72.2605E+06    -75.0110E+06    -242.420E+06    -73.5102E+06    -242.346E+06    -73.8350E+06     163.447E+03         28.3448
             252    -1.19161E-06     86.1466E-03         3.43414    -684.363E-03        -3.05864        -3.00620    -736.802E-03         3.43414    -679.713E-03     112.853E-03    -56.2993E-03    -56.5597E-03    -56.2970E-03     112.851E-03    -56.5597E-03     552.005E-06    -67.1269E+06    -69.5582E+06    -236.588E+06    -68.0459E+06    -236.526E+06    -68.7014E+06     480.888E+03         28.3492
             253     787.255E-09     85.0256E-03         3.31261    -596.943E-03        -3.01970        -2.94881    -667.834E-03         3.31261    -816.463E-03     114.213E-03    -56.6060E-03    -57.6149E-03    -57.4098E-03     114.213E-03    -56.8108E-03    -319.589E-06    -69.9858E+06    -71.6815E+06    -240.373E+06    -71.7287E+06    -240.326E+06    -69.9858E+06    -2.82106E+06         28.3702
             254     730.699E-09     83.9050E-03         3.23153    -717.259E-03        -2.83894        -2.78027    -775.930E-03         3.23153    -695.799E-03     113.985E-03    -56.2026E-03    -57.7880E-03    -57.7879E-03     113.985E-03    -56.2026E-03     170.342E-06    -72.3214E+06    -74.3719E+06    -244.094E+06    -73.2244E+06    -244.029E+06    -73.5330E+06     372.734E+03         28.3880
             255     709.373E-09     82.7849E-03         3.13592    -711.192E-03        -2.75355        -2.70483    -759.914E-03         3.13592    -621.551E-03     112.932E-03    -55.9169E-03    -57.0223E-03    -56.6966E-03     112.931E-03    -56.2410E-03     913.878E-06    -68.0007E+06    -69.7523E+06    -237.822E+06    -68.0412E+06    -237.781E+06    -69.7523E+06     2.11039E+06         28.3973
             256    -1.33996E-06     81.6679E-03         3.00143    -727.008E-03        -2.59769        -2.50079    -823.907E-03         3.00143    -774.078E-03     113.273E-03    -56.4193E-03    -56.8604E-03    -56.4168E-03     113.270E-03    -56.8604E-03     1.29969E-03    -65.3311E+06    -67.9216E+06    -237.624E+06    -67.3838E+06    -237.622E+06    -65.8711E+06    -38.6168E+03         28.4074
             257     1.13345E-06     80.5468E-03         2.83531    -790.762E-03        -2.39061        -2.26447    -916.898E-03         2.83531    -859.761E-03     114.152E-03    -56.7044E-03    -57.4407E-03    -57.3226E-03     114.151E-03    -56.8215E-03     578.454E-06    -67.8760E+06    -72.9444E+06    -241.671E+06    -69.9277E+06    -241.670E+06    -70.8939E+06    -296.627E+03         28.4255
             258    -13.1591E-09     79.4276E-03         2.54484    -688.933E-03        -2.21384        -2.11356    -789.217E-03         2.54484    -755.919E-03     113.540E-03    -56.4010E-03    -57.1388E-03    -57.0200E-03     113.540E-03    -56.5196E-03     247.549E-06    -66.1975E+06    -72.3091E+06    -241.356E+06    -69.2933E+06    -241.354E+06    -69.2155E+06     448.078E+03         28.4403
             259    -169.600E-09     78.3092E-03         2.28686    -664.038E-03        -1.98663        -1.91102    -739.648E-03         2.28686    -611.949E-03     113.190E-03    -56.2905E-03    -56.8962E-03    -56.7773E-03     113.190E-03    -56.4091E-03     433.530E-06    -65.9034E+06    -70.9429E+06    -241.042E+06    -69.0175E+06    -241.021E+06    -67.8493E+06    -834.867E+03         28.4344
             260     1.04726E-06     77.1888E-03         2.15337    -778.024E-03        -1.75884        -1.68847    -848.401E-03         2.15337    -494.935E-03     113.473E-03    -56.3622E-03    -57.0929E-03    -57.0921E-03     113.473E-03    -56.3622E-03     671.271E-06    -67.4848E+06    -69.7026E+06    -239.524E+06    -67.5253E+06    -239.483E+06    -69.7026E+06     114.831E+03         28.4302
             261    -592.717E-09     76.0709E-03         2.03566    -870.785E-03        -1.54940        -1.40078        -1.01941         2.03566    -504.351E-03     113.473E-03    -56.3861E-03    -57.0847E-03    -56.6288E-03     113.472E-03    -56.8411E-03     745.954E-06    -63.7645E+06    -64.4503E+06    -235.764E+06    -64.2073E+06    -235.736E+06    -64.0364E+06     2.14073E+06         28.4382
             262    -255.616E-09     74.9501E-03         1.83791    -869.739E-03        -1.35593        -1.15068        -1.07499         1.83791    -480.191E-03     113.799E-03    -55.9571E-03    -57.8483E-03    -57.3932E-03     113.799E-03    -56.4121E-03     264.930E-06    -63.1806E+06    -64.1987E+06    -235.803E+06    -64.2067E+06    -235.795E+06    -63.1806E+06     454.201E+03         28.4339
             263     2.97201E-06     73.8313E-03         1.53200    -728.714E-03        -1.20414        -1.03270    -900.157E-03         1.53200    -453.325E-03     113.907E-03    -56.0389E-03    -57.8683E-03    -57.8658E-03     113.905E-03    -56.0389E-03     946.811E-06    -64.9680E+06    -66.9448E+06    -235.932E+06    -66.9463E+06    -235.931E+06    -64.9680E+06    -472.476E+03         28.4246
             264    -2.22323E-06     72.7110E-03         1.27518    -604.050E-03        -1.08074    -790.751E-03    -894.041E-03         1.27518    -365.351E-03     113.673E-03    -56.3440E-03    -57.3342E-03    -56.7342E-03     113.670E-03    -56.9410E-03     519.618E-06    -58.0754E+06    -61.6745E+06    -228.215E+06    -59.4752E+06    -228.187E+06    -60.3018E+06     1.35337E+06         28.4229
             265     1.04078E-06     71.5935E-03         1.10909    -486.621E-03        -1.04215    -528.717E-03        -1.00005         1.10909    -287.183E-03     113.804E-03    -56.5420E-03    -57.2636E-03    -56.6660E-03     113.804E-03    -57.1391E-03    -241.562E-06    -59.8443E+06    -63.0226E+06    -229.017E+06    -60.8645E+06    -228.949E+06    -62.0707E+06    -338.208E+03         28.4224
             266    -797.615E-09     70.4716E-03     866.377E-03    -307.408E-03    -990.042E-03    -329.473E-03    -967.977E-03     866.377E-03    -234.452E-03     114.176E-03    -56.5404E-03    -57.6317E-03    -57.6295E-03     114.174E-03    -56.5404E-03     1.03553E-03    -65.7366E+06    -67.0684E+06    -232.929E+06    -66.7504E+06    -232.868E+06    -66.1165E+06    -545.701E+03         28.4232
             267     2.61971E-06     69.3497E-03     608.838E-03    -80.5708E-03    -951.387E-03    -87.7028E-03    -944.255E-03     608.838E-03    -88.3390E-03     113.996E-03    -56.1816E-03    -57.8308E-03    -57.8278E-03     113.993E-03    -56.1816E-03     1.40084E-03    -64.0894E+06    -65.0504E+06    -230.672E+06    -64.1123E+06    -230.649E+06    -65.0504E+06     854.835E+03         28.4221
             268    -1.33692E-06     68.2345E-03     470.785E-03     99.8665E-03        -1.01284     98.8737E-03        -1.01185     470.785E-03     60.5351E-03     113.236E-03    -55.8595E-03    -57.4127E-03    -56.5408E-03     113.234E-03    -56.7303E-03     203.954E-06    -65.1697E+06    -68.6842E+06    -232.808E+06    -68.1342E+06    -232.777E+06    -65.7508E+06    -1.98057E+06         28.4123
             269    -274.456E-09     67.1139E-03     464.297E-03     181.830E-03        -1.09185     333.984E-03        -1.08851     308.795E-03     136.179E-03     113.238E-03    -55.8294E-03    -57.4304E-03    -56.5591E-03     113.238E-03    -56.7001E-03    -573.541E-06    -59.8178E+06    -68.0502E+06    -231.336E+06    -62.8715E+06    -231.215E+06    -65.1168E+06     1.29490E+06         28.4047
             270     1.59610E-06     65.9945E-03     553.823E-03     98.6249E-03        -1.09375     537.856E-03        -1.07778     98.6249E-03     299.800E-03     113.462E-03    -56.1523E-03    -57.3213E-03    -56.8813E-03     113.460E-03    -56.5910E-03     337.213E-06    -61.8819E+06    -71.6726E+06    -231.405E+06    -66.4739E+06    -231.304E+06    -67.1809E+06     2.00295E+06         28.4042
             271    -2.37464E-06     64.8761E-03     657.773E-03    -78.8037E-03        -1.02737     628.570E-03    -998.166E-03    -78.8037E-03     439.573E-03     113.158E-03    -56.3547E-03    -56.8119E-03    -56.3700E-03     113.155E-03    -56.7935E-03    -271.750E-06    -59.0426E+06    -69.1538E+06    -227.478E+06    -63.5432E+06    -227.469E+06    -64.6621E+06    -667.389E+03         28.3992
             272     2.34200E-06     63.7559E-03     875.476E-03    -212.783E-03        -1.09856     851.351E-03        -1.07443    -212.783E-03     422.893E-03     112.984E-03    -55.7453E-03    -57.2394E-03    -57.2336E-03     112.978E-03    -55.7453E-03     256.154E-06    -52.0958E+06    -63.3203E+06    -219.793E+06    -57.7485E+06    -219.746E+06    -57.7153E+06     2.05227E+06         28.3958
             273     500.400E-09     62.6368E-03         1.11435    -299.889E-03        -1.26132         1.08555        -1.23252    -299.889E-03     510.749E-03     113.174E-03    -55.7461E-03    -57.4315E-03    -57.2175E-03     113.170E-03    -55.9558E-03     1.60728E-03    -57.9215E+06    -64.3991E+06    -220.553E+06    -63.6167E+06    -220.462E+06    -58.7941E+06     35.7891E+03         28.3999
             274     16.0712E-03     60.8612E-03     339.749E-03     332.768E-03        -1.15455     335.394E-03        -1.15390     336.474E-03    -41.3478E-03     119.899E-03    -56.8459E-03    -63.1111E-03    -54.4204E-03     111.223E-03    -56.8597E-03     73.2538E-03     163.961E+06     125.058E+06    -7.66488E+06    -7.63563E+06     163.932E+06     125.058E+06     59.8931E+03         50.4795
             275     15.1262E-03     60.7464E-03     342.243E-03     332.220E-03        -1.15787     337.100E-03        -1.15748     336.976E-03    -9.20451E-03     124.260E-03    -56.8824E-03    -67.4648E-03    -55.1214E-03     111.917E-03    -56.8824E-03     93.8007E-03     158.671E+06     110.278E+06    -15.8672E+06    -15.8175E+06     158.621E+06     110.278E+06    -473.026E+03         47.3932
             276     14.1790E-03     60.6544E-03     347.331E-03     336.085E-03        -1.16264     346.065E-03        -1.16242     337.135E-03     2.71773E-03     120.256E-03    -56.6632E-03    -63.6881E-03    -55.1813E-03     111.749E-03    -56.6632E-03     76.8800E-03     145.794E+06     64.2009E+06    -22.9324E+06    -22.8782E+06     145.740E+06     64.2009E+06     1.21222E+06         43.6735
             277     13.2323E-03     60.5796E-03     343.971E-03     335.052E-03        -1.15630     341.904E-03        -1.15617     336.993E-03    -6.63895E-03     115.925E-03    -56.4496E-03    -59.6736E-03    -54.9979E-03     111.250E-03    -56.4496E-03     55.1194E-03     125.087E+06     8.72625E+06    -26.5878E+06    -26.5149E+06     125.014E+06     8.72625E+06     2.28925E+06         40.1501
             278     12.2870E-03     60.5354E-03     339.788E-03     329.317E-03        -1.14765     331.580E-03        -1.14739     337.264E-03    -3.65201E-03     113.577E-03    -56.4984E-03    -57.3418E-03    -55.4772E-03     111.712E-03    -56.4984E-03     34.7476E-03     60.2085E+06    -8.88951E+06    -27.3155E+06    -27.2087E+06     60.1017E+06    -8.88951E+06     940.442E+03         37.2873
             279     11.3409E-03     60.5046E-03     338.684E-03     324.618E-03        -1.14332     324.612E-03        -1.14283     338.202E-03    -16.6240E-03     113.421E-03    -56.5672E-03    -56.9994E-03    -56.0026E-03     112.424E-03    -56.5672E-03     25.9144E-03    -1.75088E+06    -17.0026E+06    -44.0082E+06    -28.9969E+06    -26.2032E+06    -7.56153E+06    -271.305E+03         35.1021
             280     10.3957E-03     60.4795E-03     341.648E-03     329.467E-03        -1.15098     331.477E-03        -1.15056     339.226E-03    -16.1846E-03     113.633E-03    -56.5920E-03    -57.0138E-03    -56.2981E-03     112.917E-03    -56.5920E-03     21.9075E-03    -11.5561E+06    -30.4133E+06    -84.7503E+06    -30.4688E+06    -84.6948E+06    -11.5561E+06    -645.990E+03         33.4894
             281     9.45135E-03     60.4587E-03     342.487E-03     330.616E-03        -1.15297     332.033E-03        -1.15196     340.066E-03     32.7061E-03     113.711E-03    -56.6683E-03    -56.9472E-03    -56.5034E-03     113.267E-03    -56.6683E-03     17.2193E-03    -10.1919E+06    -31.1485E+06    -127.370E+06    -31.1657E+06    -127.353E+06    -10.1919E+06     395.133E+03         32.2954
             282     8.50646E-03     60.4428E-03     341.468E-03     326.802E-03        -1.14547     324.700E-03        -1.14337     341.468E-03    -14.0263E-03     113.618E-03    -56.6691E-03    -56.8601E-03    -56.4943E-03     113.365E-03    -56.7812E-03     12.9905E-03    -8.45258E+06    -33.1231E+06    -159.481E+06    -33.1534E+06    -159.450E+06    -8.45258E+06     1.93335E+06         31.3872
             283     7.56087E-03     60.4314E-03     348.510E-03     335.287E-03        -1.15654     338.815E-03        -1.15424     342.685E-03    -5.88139E-03     113.450E-03    -56.4981E-03    -56.8628E-03    -56.3456E-03     113.298E-03    -56.8628E-03     10.1317E-03    -11.0674E+06    -36.3785E+06    -183.355E+06    -36.4047E+06    -183.329E+06    -11.0674E+06     1.78103E+06         30.6615
             284     6.61573E-03     60.4221E-03     352.789E-03     341.204E-03        -1.16749     350.053E-03        -1.16595     342.405E-03     21.0686E-03     113.504E-03    -56.5775E-03    -56.9193E-03    -56.5084E-03     113.403E-03    -56.8868E-03     8.25042E-03    -19.2294E+06    -40.8271E+06    -200.695E+06    -40.8486E+06    -200.673E+06    -19.2294E+06     584.040E+03         30.0722
             285     5.67015E-03     60.4138E-03     346.491E-03     337.993E-03        -1.16132     341.305E-03        -1.16007     341.933E-03     5.30214E-03     113.681E-03    -56.7567E-03    -56.9419E-03    -56.7633E-03     113.623E-03    -56.8770E-03     6.20333E-03    -27.2200E+06    -45.9414E+06    -212.102E+06    -45.9595E+06    -212.084E+06    -27.2200E+06    -451.691E+03         29.6010
             286     4.72569E-03     60.4084E-03     343.216E-03     331.930E-03        -1.15334     331.133E-03        -1.15254     343.216E-03     39.7996E-03     113.611E-03    -56.6626E-03    -56.9164E-03    -56.7184E-03     113.581E-03    -56.8303E-03     4.48991E-03    -33.2722E+06    -49.5265E+06    -215.421E+06    -49.5378E+06    -215.410E+06    -33.2722E+06    -344.889E+03         29.2377
             287     3.78048E-03     60.4047E-03     347.389E-03     324.582E-03        -1.15104     323.794E-03        -1.15025     347.389E-03    -43.3273E-03     113.461E-03    -56.5957E-03    -56.8354E-03    -56.6301E-03     113.441E-03    -56.7817E-03     3.58424E-03    -39.2101E+06    -52.3613E+06    -217.844E+06    -52.3833E+06    -217.822E+06    -39.2101E+06    -150.178E+03         28.9708
             288     2.83467E-03     60.4024E-03     353.738E-03     334.829E-03        -1.16417     333.358E-03        -1.16270     353.738E-03     665.283E-06     113.538E-03    -56.6771E-03    -56.8032E-03    -56.7110E-03     113.528E-03    -56.7590E-03     2.47424E-03    -46.2944E+06    -56.4984E+06    -224.007E+06    -56.5186E+06    -223.987E+06    -46.2944E+06    -700.947E+03         28.7643
             289     1.89035E-03     60.4005E-03     369.177E-03     346.512E-03        -1.18895     355.357E-03        -1.18634     357.722E-03    -20.2455E-03     113.536E-03    -56.6609E-03    -56.8529E-03    -56.8506E-03     113.534E-03    -56.6609E-03     1.15107E-03    -53.1668E+06    -59.2292E+06    -226.798E+06    -59.2368E+06    -226.790E+06    -53.1668E+06    -641.969E+03         28.5889
             290     946.062E-06     60.4014E-03     858.640E-03    -125.351E-03        -1.20146     835.851E-03        -1.18523    -118.789E-03     195.159E-03     113.062E-03    -56.0055E-03    -57.0663E-03    -56.7740E-03     113.061E-03    -56.2972E-03     532.240E-06    -58.9549E+06    -63.1705E+06    -226.256E+06    -62.1426E+06    -226.245E+06    -59.9940E+06    -337.587E+03         28.4513
             291     16.0723E-03     59.7398E-03     341.544E-03     327.735E-03        -1.15651     327.409E-03        -1.15557     340.931E-03     2.98234E-03     119.863E-03    -56.8579E-03    -63.0575E-03    -54.5183E-03     111.324E-03    -56.8579E-03     72.4259E-03     164.313E+06     125.666E+06    -7.33791E+06    -7.32599E+06     164.302E+06     125.666E+06     375.328E+03         50.4644
             292     15.1244E-03     59.6290E-03     346.974E-03     334.044E-03        -1.16653     338.623E-03        -1.16585     341.715E-03    -3.92751E-03     123.836E-03    -56.8867E-03    -67.0237E-03    -54.6985E-03     111.511E-03    -56.8867E-03     93.5471E-03     157.431E+06     108.705E+06    -16.0976E+06    -16.0249E+06     157.358E+06     108.705E+06     826.692E+03         47.3797
             293     14.1786E-03     59.5331E-03     348.878E-03     340.001E-03        -1.17244     346.557E-03        -1.17212     342.002E-03     20.3785E-03     120.036E-03    -56.6822E-03    -63.4225E-03    -55.0793E-03     111.692E-03    -56.6822E-03     75.9226E-03      144.45E+06     63.1188E+06    -24.0651E+06    -23.9556E+06     144.340E+06     63.1188E+06     827.029E+03         43.6633
             294     13.2335E-03     59.4618E-03     344.036E-03     333.794E-03        -1.15977     335.357E-03        -1.15972     342.418E-03     570.648E-06     115.990E-03    -56.4677E-03    -59.7066E-03    -55.2238E-03     111.507E-03    -56.4677E-03     54.2486E-03     126.306E+06     8.80224E+06    -26.3836E+06    -26.3272E+06     126.249E+06     8.80224E+06     409.042E+03         40.1438
             295     12.2873E-03     59.4143E-03     343.746E-03     334.341E-03        -1.16052     334.533E-03        -1.16023     343.264E-03    -17.2153E-03     113.710E-03    -56.4855E-03    -57.5019E-03    -55.6483E-03     111.857E-03    -56.4855E-03     34.5410E-03     61.2040E+06    -9.92712E+06    -27.3842E+06    -27.3363E+06     61.1561E+06    -9.92712E+06     564.562E+03         37.2844
             296     11.3424E-03     59.3867E-03     349.356E-03     339.595E-03        -1.17326     344.777E-03        -1.17283     343.745E-03    -38.4450E-03     113.302E-03    -56.5588E-03    -56.8897E-03    -55.9308E-03     112.343E-03    -56.5588E-03     25.4415E-03    -1.24131E+06    -17.2870E+06    -43.2263E+06    -29.3774E+06    -25.2581E+06    -7.11921E+06     160.750E+03         35.1002
             297     10.3964E-03     59.3591E-03     349.101E-03     336.182E-03        -1.17150     340.985E-03        -1.17118     343.972E-03    -23.4050E-03     113.495E-03    -56.5789E-03    -56.8650E-03    -56.1577E-03     112.788E-03    -56.5789E-03     21.7468E-03    -11.9611E+06    -31.5650E+06    -84.6196E+06    -31.6392E+06    -84.5454E+06    -11.9611E+06    -960.022E+03         33.4861
             298     9.45103E-03     59.3391E-03     345.916E-03     336.680E-03        -1.16888     336.810E-03        -1.16768     344.585E-03     43.1736E-03     113.529E-03    -56.6245E-03    -56.8558E-03    -56.3820E-03     113.096E-03    -56.6653E-03     17.0021E-03    -11.5822E+06    -34.3053E+06    -129.982E+06    -34.3292E+06    -129.958E+06    -11.5822E+06    -88.6488E+03         32.2938
             299     8.50585E-03     59.3233E-03     352.496E-03     341.272E-03        -1.17839     346.750E-03        -1.17629     344.923E-03    -1.93682E-03     113.429E-03    -56.5736E-03    -56.8389E-03    -56.3424E-03     113.174E-03    -56.8152E-03     13.0272E-03    -8.89572E+06    -36.7846E+06    -160.157E+06    -36.8062E+06    -160.136E+06    -8.89572E+06     1.47722E+06         31.3903
             300     7.56067E-03     59.3127E-03     354.161E-03     341.236E-03        -1.17582     348.609E-03        -1.17362     344.592E-03     637.576E-06     113.681E-03    -56.6296E-03    -56.9919E-03    -56.5537E-03     113.521E-03    -56.9081E-03     10.3796E-03    -10.8316E+06    -39.1059E+06    -182.109E+06    -39.1269E+06    -182.088E+06    -10.8316E+06     1.57057E+06         30.6661
             301     6.61548E-03     59.3023E-03     349.145E-03     340.961E-03        -1.16841     344.315E-03        -1.16697     344.353E-03     30.9951E-03     113.827E-03    -56.8005E-03    -57.0262E-03    -56.8111E-03     113.721E-03    -56.9099E-03     8.42683E-03    -18.2584E+06    -41.7541E+06    -199.579E+06    -41.7760E+06    -199.557E+06    -18.2584E+06     1.83686E+06         30.0752
             302     5.67118E-03     59.2946E-03     347.947E-03     342.327E-03        -1.16893     344.615E-03        -1.16761     344.339E-03     28.0047E-03     113.599E-03    -56.7004E-03    -56.8991E-03    -56.6725E-03     113.539E-03    -56.8666E-03     6.31207E-03    -27.7310E+06    -45.0464E+06    -210.258E+06    -45.0653E+06    -210.239E+06    -27.7310E+06     1.16627E+06         29.6019
             303     4.72516E-03     59.2894E-03     347.576E-03     339.708E-03        -1.17089     341.575E-03        -1.16980     344.619E-03     68.1428E-03     113.483E-03    -56.5950E-03    -56.8483E-03    -56.5797E-03     113.453E-03    -56.8336E-03     4.39909E-03    -35.1785E+06    -48.7497E+06    -215.089E+06    -48.7639E+06    -215.075E+06    -35.1785E+06    -752.644E+03         29.2379
             304     3.77972E-03     59.2859E-03     356.995E-03     336.849E-03        -1.17734     349.218E-03        -1.17701     344.296E-03    -13.5945E-03     113.515E-03    -56.6444E-03    -56.8445E-03    -56.6454E-03     113.502E-03    -56.8298E-03     2.93600E-03    -40.3188E+06    -51.9272E+06    -219.538E+06    -51.9431E+06    -219.522E+06    -40.3188E+06    -853.040E+03         28.9729
             305     2.83542E-03     59.2828E-03     368.501E-03     335.351E-03        -1.18449     362.325E-03        -1.18288     339.914E-03     36.5751E-03     113.496E-03    -56.6214E-03    -56.8519E-03    -56.6279E-03     113.489E-03    -56.8388E-03     2.06028E-03    -45.3956E+06    -54.7425E+06    -223.608E+06    -54.7619E+06    -223.589E+06    -45.3956E+06    -48.1194E+03         28.7661
             306     1.88983E-03     59.2816E-03     368.199E-03     325.189E-03        -1.17245     365.339E-03        -1.17081     326.405E-03     34.2548E-03     113.544E-03    -56.6026E-03    -56.9277E-03    -56.6722E-03     113.541E-03    -56.8555E-03     1.06260E-03    -51.5470E+06    -58.5510E+06    -227.401E+06    -58.5644E+06    -227.387E+06    -51.5470E+06    -286.777E+03         28.5894
             307     944.444E-06     59.2815E-03     880.355E-03    -224.662E-03        -1.12914     858.420E-03        -1.10721    -224.662E-03     295.524E-03     113.704E-03    -56.3670E-03    -57.3369E-03    -57.0431E-03     113.699E-03    -56.6563E-03     1.21687E-03    -57.8705E+06    -62.5316E+06    -226.913E+06    -62.1780E+06    -226.909E+06    -58.2287E+06     136.044E+03         28.4593
             308     16.0733E-03     58.6232E-03     344.445E-03     332.333E-03        -1.16372     331.386E-03        -1.16273     344.400E-03    -15.8605E-03     120.036E-03    -56.8418E-03    -63.2569E-03    -54.6689E-03     111.448E-03    -56.8418E-03     72.7802E-03     163.132E+06     124.920E+06    -7.55527E+06    -7.48950E+06     163.067E+06     124.920E+06     755.210E+03         50.4498
             309     15.1262E-03     58.5093E-03     345.522E-03     333.680E-03        -1.17016     333.015E-03        -1.16945     345.477E-03    -13.9011E-03     123.882E-03    -56.8670E-03    -67.0868E-03    -54.7150E-03     111.510E-03    -56.8670E-03     93.7506E-03     157.835E+06     110.078E+06    -15.5557E+06    -15.4411E+06     157.721E+06     110.078E+06     1.90714E+06         47.3688
             310     14.1794E-03     58.4141E-03     346.719E-03     331.960E-03        -1.16962     331.715E-03        -1.16938     346.719E-03     20.3071E-03     119.880E-03    -56.6606E-03    -63.2832E-03    -54.8698E-03     111.467E-03    -56.6606E-03     76.1792E-03     146.130E+06     64.6364E+06    -21.4007E+06    -21.3219E+06     146.051E+06     64.6364E+06     155.914E+03         43.6547
             311     13.2327E-03     58.3417E-03     352.640E-03     336.169E-03        -1.17938     340.981E-03        -1.17933     347.779E-03     7.97862E-03     115.994E-03    -56.4593E-03    -59.7308E-03    -55.1836E-03     111.447E-03    -56.4593E-03     54.6144E-03     125.426E+06     7.55740E+06    -25.1841E+06     -25.156E+06     125.398E+06     7.55740E+06    -185.941E+03         40.1373
             312     12.2873E-03     58.2954E-03     358.531E-03     341.110E-03        -1.18945     351.445E-03        -1.18935     348.092E-03     7.65122E-03     113.769E-03    -56.4850E-03    -57.5530E-03    -55.6602E-03     111.876E-03    -56.4850E-03     34.9770E-03     60.9164E+06    -10.3994E+06    -27.7545E+06    -27.6908E+06     60.8527E+06    -10.3994E+06     927.992E+03         37.2801
             313     11.3412E-03     58.2661E-03     358.547E-03     342.108E-03        -1.19120     352.736E-03        -1.19113     347.841E-03     3.36441E-03     113.387E-03    -56.5503E-03    -56.9866E-03    -56.0170E-03     112.417E-03    -56.5503E-03     25.5592E-03    -228.393E+03    -17.8845E+06    -42.9836E+06    -30.2087E+06    -24.0572E+06    -6.83064E+06     827.872E+03         35.0961
             314     10.3963E-03     58.2409E-03     352.966E-03     339.416E-03        -1.18421     344.502E-03        -1.18417     347.838E-03     15.8555E-03     113.336E-03    -56.5126E-03    -56.8185E-03    -56.0364E-03     112.621E-03    -56.5799E-03     21.8980E-03    -11.3841E+06    -33.2795E+06    -84.1697E+06    -33.3157E+06    -84.1334E+06    -11.3841E+06     352.517E+03         33.4801
             315     9.45086E-03     58.2187E-03     349.647E-03     341.872E-03        -1.18490     342.848E-03        -1.18455     348.317E-03     37.6901E-03     113.232E-03    -56.5300E-03    -56.6991E-03    -56.1139E-03     112.799E-03    -56.6822E-03     16.8420E-03    -12.8187E+06    -35.9721E+06    -131.763E+06    -35.9937E+06    -131.741E+06    -12.8187E+06     115.857E+03         32.2884
             316     8.50546E-03     58.2052E-03     356.170E-03     343.181E-03        -1.19214     349.472E-03        -1.19086     348.597E-03    -24.4494E-03     113.452E-03    -56.6010E-03    -56.8191E-03    -56.3627E-03     113.214E-03    -56.8191E-03     12.6688E-03    -11.7881E+06    -37.9188E+06    -159.795E+06    -37.9244E+06    -159.790E+06    -11.7881E+06    -7.74656E+03         31.3876
             317     7.55991E-03     58.1922E-03     355.067E-03     340.476E-03        -1.18544     345.431E-03        -1.18415     348.824E-03    -25.1444E-03     113.811E-03    -56.7229E-03    -57.0012E-03    -56.6449E-03     113.649E-03    -56.9173E-03     10.4406E-03    -11.6948E+06    -39.9870E+06    -181.733E+06    -39.9925E+06    -181.727E+06    -11.6948E+06     65.9568E+03         30.6652
             318     6.61581E-03     58.1829E-03     351.532E-03     344.481E-03        -1.18417     345.400E-03        -1.18295     349.390E-03    -23.2434E-03     113.810E-03    -56.7898E-03    -57.0255E-03    -56.7715E-03     113.708E-03    -56.9417E-03     8.28338E-03    -16.7001E+06    -41.8122E+06    -200.497E+06    -41.8219E+06    -200.488E+06    -16.7001E+06     656.894E+03         30.0736
             319     5.66982E-03     58.1757E-03     357.407E-03     349.156E-03        -1.19251     356.096E-03        -1.19120     349.156E-03    -15.8306E-03     113.612E-03    -56.7146E-03    -56.9123E-03    -56.6533E-03     113.551E-03    -56.9123E-03     6.40160E-03    -25.0713E+06    -43.2073E+06    -208.191E+06    -43.2169E+06    -208.182E+06    -25.0713E+06     819.802E+03         29.5975
             320     4.72543E-03     58.1703E-03     364.138E-03     346.970E-03        -1.19711     363.456E-03        -1.19642     346.970E-03     24.2636E-03     113.632E-03    -56.7208E-03    -56.8875E-03    -56.7020E-03     113.598E-03    -56.8729E-03     4.64546E-03    -32.9272E+06    -46.1564E+06    -214.393E+06    -46.1723E+06    -214.377E+06    -32.9272E+06     375.771E+03         29.2351
             321     3.78102E-03     58.1662E-03     372.379E-03     341.663E-03        -1.20365     371.085E-03        -1.20235     341.663E-03    -60.7933E-03     113.578E-03    -56.6900E-03    -56.8619E-03    -56.6884E-03     113.562E-03    -56.8473E-03     3.18365E-03    -39.2673E+06    -50.7948E+06    -219.997E+06    -50.8147E+06    -219.977E+06    -39.2673E+06     93.1757E+03         28.9740
             322     2.83495E-03     58.1645E-03     374.298E-03     331.111E-03        -1.19242     372.393E-03        -1.19051     331.111E-03    -19.1715E-03     113.422E-03    -56.5311E-03    -56.8683E-03    -56.5232E-03     113.414E-03    -56.8683E-03     2.21149E-03    -44.8795E+06    -54.8177E+06    -224.009E+06    -54.8318E+06    -223.995E+06    -44.8795E+06     312.322E+03         28.7681
             323     1.88968E-03     58.1620E-03     354.419E-03     310.135E-03        -1.14869     345.210E-03        -1.14660     317.252E-03    -24.0519E-03     113.514E-03    -56.5538E-03    -56.9532E-03    -56.5512E-03     113.511E-03    -56.9532E-03     1.02349E-03    -50.7148E+06    -59.1438E+06    -227.671E+06    -59.1533E+06    -227.661E+06    -50.7148E+06     364.367E+03         28.5927
             324     944.664E-06     58.1626E-03     910.560E-03    -264.608E-03        -1.12600     878.217E-03        -1.10077    -257.491E-03     296.815E-03     113.946E-03    -56.6673E-03    -57.2913E-03    -56.9399E-03     113.942E-03    -57.0142E-03     690.130E-06    -58.9627E+06    -64.3084E+06    -227.250E+06    -63.2531E+06    -227.247E+06    -60.0218E+06    -116.733E+03         28.4695
             325     16.0710E-03     57.5020E-03     354.843E-03     346.389E-03        -1.19693     351.509E-03        -1.19618     348.965E-03    -56.1101E-03     120.420E-03    -56.8895E-03    -63.6296E-03    -54.9053E-03     111.696E-03    -56.8895E-03     73.9675E-03     162.511E+06     124.454E+06    -7.97349E+06    -7.86132E+06     162.399E+06     124.454E+06     625.263E+03         50.4335
             326     15.1261E-03     57.3904E-03     351.959E-03     337.550E-03        -1.18994     339.513E-03        -1.18954     349.600E-03    -86.3113E-06     124.461E-03    -56.9020E-03    -67.6445E-03    -55.1319E-03     111.949E-03    -56.9020E-03     94.5932E-03     159.302E+06     111.390E+06    -14.2250E+06    -14.1187E+06     159.195E+06     111.390E+06     290.771E+03         47.3565
             327     14.1788E-03     57.2957E-03     350.937E-03     330.988E-03        -1.18113     330.792E-03        -1.18093     350.937E-03     24.6597E-03     120.257E-03    -56.6838E-03    -63.6105E-03    -55.0333E-03     111.680E-03    -56.6838E-03     77.0082E-03     147.184E+06     66.9093E+06    -20.5121E+06    -20.4903E+06     147.162E+06     66.9093E+06     409.574E+03         43.6462
             328     13.2331E-03     57.2215E-03     359.654E-03     343.937E-03        -1.20332     351.718E-03        -1.20328     351.835E-03     6.39192E-03     116.062E-03    -56.4681E-03    -59.7720E-03    -55.2561E-03     111.546E-03    -56.4681E-03     54.3132E-03     125.301E+06     9.03751E+06    -25.7052E+06    -25.7021E+06     125.298E+06     9.03751E+06     501.506E+03         40.1313
             329     12.2870E-03     57.1764E-03     367.519E-03     351.357E-03        -1.21546     367.473E-03        -1.21541     351.357E-03     8.03369E-03     113.686E-03    -56.4853E-03    -57.4469E-03    -55.6149E-03     111.854E-03    -56.4853E-03     34.4756E-03     59.7227E+06    -10.3256E+06    -27.8603E+06    -27.8051E+06     59.6675E+06    -10.3256E+06     633.152E+03         37.2754
             330     11.3420E-03     57.1460E-03     359.061E-03     345.376E-03        -1.19951     353.637E-03        -1.19943     350.719E-03    -1.10584E-03     113.216E-03    -56.5058E-03    -56.8345E-03    -55.8395E-03     112.275E-03    -56.5604E-03     25.1269E-03     821.541E+03    -16.6636E+06     -41.846E+06    -28.8760E+06    -23.9537E+06    -4.85835E+06     1.12446E+06         35.0920
             331     10.3966E-03     57.1214E-03     351.070E-03     342.709E-03        -1.19137     342.597E-03        -1.19125     351.070E-03     5.92110E-03     113.262E-03    -56.4721E-03    -56.7668E-03    -55.9433E-03     112.560E-03    -56.5941E-03     21.7465E-03    -8.51187E+06    -30.4588E+06    -83.6621E+06    -30.5157E+06    -83.6052E+06    -8.51187E+06     960.675E+03         33.4761
             332     9.45069E-03     57.1001E-03     352.015E-03     342.404E-03        -1.19326     342.269E-03        -1.19312     352.015E-03     28.2908E-03     113.375E-03    -56.5745E-03    -56.7493E-03    -56.1990E-03     112.936E-03    -56.6860E-03     16.8716E-03    -10.7578E+06    -32.3760E+06    -131.208E+06    -32.3868E+06    -131.197E+06    -10.7578E+06     253.170E+03         32.2843
             333     8.50555E-03     57.0852E-03     353.371E-03     339.455E-03        -1.19282     338.799E-03        -1.19216     353.371E-03    -25.0729E-03     113.576E-03    -56.6846E-03    -56.8150E-03    -56.4564E-03     113.345E-03    -56.8118E-03     12.5117E-03    -10.0010E+06    -35.0279E+06    -159.140E+06    -35.0307E+06    -159.137E+06    -10.0010E+06    -473.972E+03         31.3831
             334     7.56090E-03     57.0730E-03     355.193E-03     344.875E-03        -1.19987     343.998E-03        -1.19872     354.915E-03    -5.11001E-03     113.715E-03    -56.6701E-03    -56.9311E-03    -56.5100E-03     113.555E-03    -56.9311E-03     10.3434E-03    -9.48308E+06    -37.8889E+06    -182.044E+06    -37.8985E+06    -182.034E+06    -9.48308E+06    -1.00706E+06         30.6624
             335     6.61470E-03     57.0631E-03     356.888E-03     352.106E-03        -1.20774     351.781E-03        -1.20646     355.934E-03    -5.30832E-03     113.662E-03    -56.6680E-03    -56.9796E-03    -56.5743E-03     113.568E-03    -56.9796E-03     7.91857E-03    -14.8757E+06    -41.2001E+06    -201.339E+06    -41.2096E+06    -201.330E+06    -14.8757E+06    -956.385E+03         30.0772
             336     5.67048E-03     57.0567E-03     364.859E-03     354.585E-03        -1.21524     362.432E-03        -1.21392     355.697E-03     933.698E-06     113.637E-03    -56.6731E-03    -56.9585E-03    -56.6145E-03     113.578E-03    -56.9585E-03     6.28690E-03    -24.9293E+06    -44.5349E+06    -208.856E+06    -44.5394E+06    -208.852E+06    -24.9293E+06     23.3768E+03         29.6043
             337     4.72497E-03     57.0504E-03     372.533E-03     353.323E-03        -1.21824     371.675E-03        -1.21739     353.323E-03     27.8322E-03     113.610E-03    -56.6299E-03    -56.9450E-03    -56.5945E-03     113.574E-03    -56.9450E-03     4.80069E-03    -32.6620E+06    -47.5054E+06    -214.547E+06    -47.5161E+06    -214.537E+06    -32.6620E+06     1.02185E+06         29.2384
             338     3.77912E-03     57.0476E-03     368.046E-03     348.493E-03        -1.21013     365.258E-03        -1.20840     349.550E-03    -82.6741E-03     113.661E-03    -56.6993E-03    -56.9460E-03    -56.6810E-03     113.643E-03    -56.9460E-03     3.45638E-03    -37.6908E+06    -50.2275E+06    -219.160E+06    -50.2397E+06    -219.148E+06    -37.6908E+06     1.25169E+06         28.9768
             339     2.83502E-03     57.0446E-03     363.365E-03     330.008E-03        -1.18917     341.901E-03        -1.18647     348.766E-03    -32.1667E-03     113.785E-03    -56.7676E-03    -56.9930E-03    -56.8124E-03     113.777E-03    -56.9396E-03     2.30393E-03    -43.5094E+06    -53.6989E+06    -223.712E+06    -53.7073E+06    -223.704E+06    -43.5094E+06     657.359E+03         28.7766
             340     1.88992E-03     57.0439E-03     364.909E-03     322.386E-03        -1.18361     325.578E-03        -1.17997     358.081E-03    -50.2257E-03     113.817E-03    -56.7360E-03    -57.0642E-03    -56.9154E-03     113.815E-03    -56.8825E-03     1.16693E-03    -49.7415E+06    -57.4962E+06    -227.175E+06    -57.5029E+06    -227.168E+06    -49.7415E+06     602.350E+03         28.6063
             341     944.929E-06     57.0416E-03         1.00835    -252.090E-03        -1.24516     967.789E-03        -1.22259    -234.095E-03     252.100E-03     113.609E-03    -56.2936E-03    -57.3145E-03    -57.2546E-03     113.607E-03    -56.3512E-03     608.235E-06    -57.2645E+06    -61.5363E+06    -226.853E+06    -60.6657E+06    -226.847E+06    -58.1412E+06     586.466E+03         28.4793
             342     16.0717E-03     56.3814E-03     363.378E-03     349.814E-03        -1.22206     358.507E-03        -1.22141     354.042E-03    -43.8284E-03     120.153E-03    -56.9109E-03    -63.3544E-03    -54.7771E-03     111.576E-03    -56.9109E-03     73.2080E-03     162.968E+06     124.647E+06    -7.60919E+06    -7.54301E+06     162.902E+06     124.647E+06    -340.280E+03         50.4181
             343     15.1239E-03     56.2715E-03     360.861E-03     345.951E-03        -1.21269     352.076E-03        -1.21236     354.398E-03     9.29181E-03     124.394E-03    -56.9159E-03    -67.5764E-03    -55.3794E-03     112.197E-03    -56.9159E-03     93.3759E-03     158.039E+06     110.455E+06    -14.6659E+06    -14.6122E+06     157.985E+06     110.455E+06    -404.950E+03         47.3452
             344     14.1792E-03     56.1749E-03     361.360E-03     347.725E-03        -1.21398     353.734E-03        -1.21354     354.916E-03     11.0988E-03     120.437E-03    -56.6908E-03    -63.7848E-03    -55.4549E-03     112.107E-03    -56.6908E-03     76.0733E-03     146.140E+06     67.2094E+06    -21.6398E+06    -21.6146E+06     146.115E+06     67.2094E+06     1.07512E+06         43.6399
             345     13.2336E-03     56.1026E-03     360.603E-03     346.943E-03        -1.21316     351.973E-03        -1.21293     355.349E-03    -22.2438E-03     116.029E-03    -56.4554E-03    -59.7406E-03    -55.2709E-03     111.559E-03    -56.4554E-03     54.0768E-03     126.109E+06     10.6582E+06    -26.4332E+06    -26.4183E+06     126.094E+06     10.6582E+06     1.23412E+06         40.1276
             346     12.2881E-03     56.0562E-03     361.596E-03     344.680E-03        -1.21051     350.383E-03        -1.21049     355.874E-03    -8.66481E-03     113.452E-03    -56.3833E-03    -57.3061E-03    -55.3951E-03     111.612E-03    -56.4541E-03     34.5324E-03     59.7587E+06    -13.3357E+06    -28.4263E+06    -28.4202E+06     59.7525E+06    -13.3357E+06     119.956E+03         37.2716
             347     11.3420E-03     56.0273E-03     359.403E-03     349.302E-03        -1.21129     352.024E-03        -1.21106     356.451E-03    -27.1782E-03     112.972E-03    -56.4259E-03    -56.6497E-03    -55.5604E-03     112.008E-03    -56.5514E-03     25.4130E-03    -39.9802E+03    -19.6925E+06    -42.3886E+06    -28.6778E+06    -24.8851E+06    -8.55816E+06     57.1602E+03         35.0873
             348     10.3957E-03     56.0024E-03     358.842E-03     353.708E-03        -1.21511     355.246E-03        -1.21469     356.884E-03    -35.5837E-03     113.331E-03    -56.5512E-03    -56.7248E-03    -55.9566E-03     112.617E-03    -56.6059E-03     21.9176E-03    -8.25784E+06    -29.8496E+06    -83.4226E+06    -29.9451E+06    -83.3272E+06    -8.25784E+06     1.14895E+06         33.4712
             349     9.45107E-03     55.9802E-03     359.953E-03     350.897E-03        -1.21438     353.228E-03        -1.21406     357.300E-03     10.4371E-03     113.440E-03    -56.5920E-03    -56.7612E-03    -56.2320E-03     112.999E-03    -56.6799E-03     16.9731E-03    -11.2375E+06    -33.0497E+06    -129.637E+06    -33.0898E+06    -129.597E+06    -11.2375E+06     654.556E+03         32.2794
             350     8.50593E-03     55.9663E-03     363.055E-03     349.314E-03        -1.21652     353.699E-03        -1.21567     357.814E-03    -27.4713E-03     113.453E-03    -56.5765E-03    -56.7994E-03    -56.3286E-03     113.202E-03    -56.7963E-03     13.0360E-03    -12.2069E+06    -35.5575E+06    -158.208E+06    -35.5668E+06    -158.199E+06    -12.2069E+06    -779.197E+03         31.3781
             351     7.56008E-03     55.9533E-03     366.454E-03     354.001E-03        -1.22574     360.959E-03        -1.22413     357.885E-03     5.13162E-03     113.648E-03    -56.6384E-03    -56.9289E-03    -56.4631E-03     113.473E-03    -56.9289E-03     10.7891E-03    -12.6158E+06    -37.7773E+06    -182.258E+06    -37.7932E+06    -182.242E+06    -12.6158E+06    -952.365E+03         30.6587
             352     6.61565E-03     55.9446E-03     361.771E-03     356.329E-03        -1.22455     359.485E-03        -1.22349     357.560E-03     29.6682E-03     113.669E-03    -56.6614E-03    -56.9975E-03    -56.5646E-03     113.572E-03    -56.9975E-03     8.04516E-03    -17.3428E+06    -42.0611E+06    -202.037E+06    -42.0709E+06    -202.028E+06    -17.3428E+06    -686.228E+03         30.0776
             353     5.66949E-03     55.9368E-03     362.239E-03     350.361E-03        -1.21644     354.116E-03        -1.21568     357.719E-03     17.9396E-03     113.588E-03    -56.5829E-03    -56.9935E-03    -56.5244E-03     113.529E-03    -56.9935E-03     6.25915E-03    -25.8591E+06    -46.3375E+06    -210.094E+06    -46.3424E+06    -210.089E+06    -25.8591E+06    -116.671E+03         29.6106
             354     4.72455E-03     55.9320E-03     363.255E-03     351.596E-03        -1.21751     355.947E-03        -1.21686     358.256E-03     36.7765E-03     113.670E-03    -56.6424E-03    -57.0020E-03    -56.6180E-03     113.638E-03    -56.9941E-03     4.57445E-03    -32.8521E+06    -48.8217E+06    -215.211E+06    -48.8259E+06    -215.207E+06    -32.8521E+06     487.258E+03         29.2480
             355     3.77986E-03     55.9276E-03     359.797E-03     353.179E-03        -1.21611     352.806E-03        -1.21526     359.318E-03    -53.3752E-03     113.818E-03    -56.7703E-03    -56.9956E-03    -56.7646E-03     113.804E-03    -56.9876E-03     2.96865E-03    -38.0583E+06    -50.5566E+06    -219.349E+06    -50.5589E+06    -219.347E+06    -38.0583E+06     570.572E+03         28.9879
             356     2.83421E-03     55.9252E-03     365.581E-03     336.735E-03        -1.20714     332.980E-03        -1.20338     365.581E-03     45.2273E-03     113.976E-03    -56.8662E-03    -57.0566E-03    -56.9514E-03     113.969E-03    -56.9650E-03     2.05765E-03    -43.3063E+06    -53.2492E+06    -222.004E+06    -53.2539E+06    -222.000E+06    -43.3063E+06     790.242E+03         28.7931
             357     1.89000E-03     55.9234E-03     382.436E-03     343.156E-03        -1.22892     336.773E-03        -1.22254     382.436E-03    -10.1381E-03     113.956E-03    -56.8384E-03    -57.1044E-03    -57.1018E-03     113.953E-03    -56.8384E-03     1.19276E-03    -50.4666E+06    -56.9709E+06    -226.259E+06    -56.9784E+06    -226.251E+06    -50.4666E+06     281.534E+03         28.6272
             358     945.779E-06     55.9231E-03         1.06837    -257.293E-03        -1.31328         1.02856        -1.28951    -241.253E-03     245.804E-03     113.420E-03    -55.9448E-03    -57.4696E-03    -56.6748E-03     113.418E-03    -56.7372E-03     1.12532E-03    -57.2667E+06    -59.9624E+06    -226.187E+06    -59.7996E+06    -226.174E+06    -57.4425E+06     617.848E+03         28.4945
             359     16.0712E-03     55.2647E-03     361.293E-03     340.360E-03        -1.21274     343.244E-03        -1.21212     357.790E-03     10.3624E-03     120.207E-03    -56.8891E-03    -63.4178E-03    -54.6727E-03     111.462E-03    -56.8891E-03     73.2898E-03     163.100E+06     124.585E+06    -7.50754E+06    -7.47695E+06     163.070E+06     124.585E+06    -550.127E+03         50.4052
             360     15.1263E-03     55.1490E-03     362.920E-03     346.063E-03        -1.21716     349.768E-03        -1.21671     358.771E-03     11.1184E-03     124.544E-03    -56.8989E-03    -67.7411E-03    -55.3209E-03     112.123E-03    -56.8989E-03     94.1440E-03     156.854E+06     109.994E+06    -16.1467E+06    -16.1077E+06     156.815E+06     109.994E+06     162.675E+03         47.3362
             361     14.1803E-03     55.0567E-03     367.090E-03     357.572E-03        -1.23332     364.957E-03        -1.23280     359.183E-03     14.1949E-03     120.401E-03    -56.6770E-03    -63.7936E-03    -55.4457E-03     112.053E-03    -56.6770E-03     76.2315E-03     144.541E+06     64.7459E+06    -23.1828E+06    -23.1504E+06     144.509E+06     64.7459E+06     691.941E+03         43.6340
             362     13.2337E-03     54.9821E-03     363.205E-03     350.729E-03        -1.22575     354.245E-03        -1.22550     359.447E-03    -13.7342E-03     115.985E-03    -56.4385E-03    -59.7190E-03    -55.1290E-03     111.395E-03    -56.4385E-03     54.7587E-03     126.532E+06     9.13063E+06    -26.2815E+06    -26.2607E+06     126.511E+06     9.13063E+06     968.349E+03         40.1232
             363     12.2877E-03     54.9376E-03     360.453E-03     343.870E-03        -1.21732     343.694E-03        -1.21714     360.453E-03     15.6335E-03     113.359E-03    -56.3826E-03    -57.2352E-03    -55.2969E-03     111.492E-03    -56.4534E-03     34.7228E-03     61.6045E+06    -12.0505E+06    -27.5066E+06    -27.4950E+06     61.5929E+06    -12.0505E+06     683.413E+03         37.2685
             364     11.3412E-03     54.9084E-03     361.978E-03     347.810E-03        -1.22126     347.564E-03        -1.22083     361.791E-03     11.0532E-03     113.092E-03    -56.4863E-03    -56.7485E-03    -55.7034E-03     112.117E-03    -56.5571E-03     25.5828E-03    -1.23031E+06    -21.1767E+06        -44.E+06    -30.3522E+06    -26.0348E+06    -10.0200E+06     277.559E+03         35.0856
             365     10.3966E-03     54.8825E-03     364.708E-03     354.994E-03        -1.23023     356.405E-03        -1.22968     362.750E-03    -6.85085E-03     113.362E-03    -56.5546E-03    -56.7665E-03    -55.9921E-03     112.654E-03    -56.6213E-03     21.7914E-03    -10.6397E+06    -33.1286E+06    -84.1662E+06    -33.2135E+06    -84.0813E+06    -10.6397E+06     1.24054E+06         33.4695
             366     9.45059E-03     54.8612E-03     372.324E-03     361.104E-03        -1.24210     370.160E-03        -1.24158     362.745E-03     24.7590E-03     113.276E-03    -56.4770E-03    -56.7088E-03    -56.0646E-03     112.846E-03    -56.6909E-03     16.8288E-03    -13.3315E+06    -34.1692E+06    -126.723E+06    -34.2259E+06    -126.666E+06    -13.3315E+06     171.372E+03         32.2771
             367     8.50490E-03     54.8469E-03     376.610E-03     361.659E-03        -1.24550     375.567E-03        -1.24445     361.659E-03    -20.5876E-03     113.408E-03    -56.5133E-03    -56.7929E-03    -56.2663E-03     113.161E-03    -56.7929E-03     12.8815E-03    -15.3497E+06    -34.8687E+06    -157.432E+06    -34.9045E+06    -157.396E+06    -15.3497E+06    -1.96853E+06         31.3759
             368     7.55997E-03     54.8341E-03     373.963E-03     360.134E-03        -1.24243     372.761E-03        -1.24123     360.134E-03    -13.8598E-03     113.617E-03    -56.5715E-03    -56.9592E-03    -56.4056E-03     113.451E-03    -56.9592E-03     10.5225E-03    -13.6169E+06    -37.3803E+06    -184.670E+06    -37.4011E+06    -184.649E+06    -13.6169E+06    -779.885E+03         30.6574
             369     6.61439E-03     54.8245E-03     367.791E-03     358.656E-03        -1.23629     367.132E-03        -1.23575     358.776E-03     18.9130E-03     113.749E-03    -56.6745E-03    -57.0583E-03    -56.5764E-03     113.651E-03    -57.0583E-03     8.09011E-03    -14.7674E+06    -41.1301E+06    -202.122E+06    -41.1338E+06    -202.118E+06    -14.7674E+06     563.337E+03         30.0758
             370     5.67012E-03     54.8183E-03     361.139E-03     349.643E-03        -1.22172     351.468E-03        -1.22122     358.811E-03     17.2339E-03     113.801E-03    -56.7379E-03    -57.0292E-03    -56.6817E-03     113.744E-03    -57.0292E-03     6.13629E-03    -23.1664E+06    -45.7349E+06    -209.604E+06    -45.7374E+06    -209.602E+06    -23.1664E+06     75.4370E+03         29.6111
             371     4.72451E-03     54.8118E-03     361.363E-03     342.566E-03        -1.21605     342.077E-03        -1.21556     361.363E-03     34.9910E-03     113.778E-03    -56.7048E-03    -57.0094E-03    -56.6802E-03     113.745E-03    -57.0015E-03     4.66098E-03    -32.5126E+06    -49.7232E+06    -215.229E+06    -49.7251E+06    -215.227E+06    -32.5126E+06    -306.094E+03         29.2552
             372     3.77962E-03     54.8083E-03     366.164E-03     344.231E-03        -1.22429     343.294E-03        -1.22335     366.164E-03    -49.7818E-03     113.927E-03    -56.7720E-03    -57.0795E-03    -56.8629E-03     113.910E-03    -56.9722E-03     3.25611E-03    -40.1641E+06    -52.1967E+06    -219.519E+06    -52.1994E+06    -219.516E+06    -40.1641E+06     123.608E+03         28.9985
             373     2.83513E-03     54.8059E-03     377.142E-03     353.927E-03        -1.24076     355.977E-03        -1.23732     371.649E-03     39.3515E-03     113.949E-03    -56.8278E-03    -57.0664E-03    -56.9581E-03     113.942E-03    -56.9289E-03     2.16918E-03    -45.6776E+06    -54.2444E+06    -221.937E+06    -54.2467E+06    -221.935E+06    -45.6776E+06     584.303E+03         28.8040
             374     1.88986E-03     54.8032E-03     403.676E-03     360.213E-03        -1.26996     384.332E-03        -1.26132     370.914E-03    -51.4517E-03     113.793E-03    -56.8001E-03    -56.9693E-03    -56.8820E-03     113.790E-03    -56.8849E-03     1.02932E-03    -49.5480E+06    -57.3069E+06    -224.823E+06    -57.3141E+06    -224.816E+06    -49.5480E+06     255.712E+03         28.6387
             375     944.576E-06     54.8043E-03         1.11616    -339.758E-03        -1.28234         1.06913        -1.24047    -334.596E-03     318.007E-03     113.632E-03    -56.2581E-03    -57.3699E-03    -56.5260E-03     113.631E-03    -57.1005E-03     60.4656E-06    -56.7585E+06    -62.0147E+06    -225.940E+06    -61.2556E+06    -225.917E+06    -57.5411E+06    -198.429E+03         28.5051
             376     16.0729E-03     54.1462E-03     366.472E-03     339.451E-03        -1.21618     344.214E-03        -1.21539     360.928E-03    -7.53649E-03     120.575E-03    -56.8774E-03    -63.7755E-03    -54.9747E-03     111.774E-03    -56.8774E-03     73.5825E-03     162.584E+06     124.550E+06    -8.04935E+06    -7.99958E+06     162.534E+06     124.550E+06     235.013E+03         50.3922
             377     15.1241E-03     54.0296E-03     367.367E-03     351.607E-03        -1.23010     356.728E-03        -1.22968     361.823E-03     9.96868E-03     124.295E-03    -56.8941E-03    -67.5064E-03    -54.9250E-03     111.714E-03    -56.8941E-03     94.6355E-03     156.943E+06     109.858E+06    -16.2815E+06    -16.2131E+06     156.875E+06     109.858E+06     509.640E+03         47.3255
             378     14.1784E-03     53.9358E-03     363.858E-03     354.911E-03        -1.23359     356.062E-03        -1.23328     362.396E-03     33.2924E-03     120.185E-03    -56.6867E-03    -63.5781E-03    -55.1672E-03     111.774E-03    -56.6867E-03     76.3243E-03     144.918E+06     64.8198E+06    -23.2752E+06    -23.2441E+06     144.887E+06     64.8198E+06     209.678E+03         43.6241
             379     13.2331E-03     53.8635E-03     364.441E-03     355.521E-03        -1.23809     356.950E-03        -1.23805     362.978E-03     12.1372E-03     116.018E-03    -56.4625E-03    -59.7372E-03    -55.1973E-03     111.478E-03    -56.4625E-03     54.4988E-03     126.588E+06     9.50576E+06    -27.0884E+06    -27.0712E+06     126.571E+06     9.50576E+06     7.12962E+03         40.1162
             380     12.2869E-03     53.8180E-03     363.571E-03     357.078E-03        -1.24169     356.915E-03        -1.24153     363.571E-03     22.4774E-03     113.562E-03    -56.4737E-03    -57.3544E-03    -55.4992E-03     111.707E-03    -56.4737E-03     34.6357E-03     61.5843E+06    -11.2156E+06    -28.6823E+06    -28.6645E+06     61.5665E+06    -11.2156E+06     318.704E+03         37.2667
             381     11.3419E-03     53.7893E-03     364.302E-03     354.889E-03        -1.24064     354.610E-03        -1.24036     364.302E-03     23.5667E-03     113.361E-03    -56.5606E-03    -56.9693E-03    -56.0033E-03     112.396E-03    -56.5606E-03     25.5165E-03    -490.893E+03    -19.1455E+06    -44.3251E+06    -29.6311E+06    -26.1153E+06    -8.21506E+06     1.06730E+06         35.0892
             382     10.3959E-03     53.7627E-03     365.318E-03     352.954E-03        -1.23750     352.674E-03        -1.23722     365.318E-03     11.5619E-03     113.320E-03    -56.5295E-03    -56.7610E-03    -55.9981E-03     112.631E-03    -56.6029E-03     21.4873E-03    -9.55617E+06    -30.4447E+06    -83.9761E+06    -30.4918E+06    -83.9290E+06    -9.55617E+06     481.869E+03         33.4765
             383     9.45070E-03     53.7428E-03     373.462E-03     359.739E-03        -1.24802     366.990E-03        -1.24768     365.862E-03     26.2420E-03     113.243E-03    -56.4643E-03    -56.6762E-03    -56.0518E-03     112.831E-03    -56.6762E-03     16.4875E-03    -11.3147E+06    -32.0321E+06    -124.547E+06    -32.0605E+06    -124.519E+06    -11.3147E+06    -443.339E+03         32.2843
             384     8.50565E-03     53.7268E-03     377.926E-03     365.168E-03        -1.25648     377.279E-03        -1.25584     365.168E-03    -13.1929E-03     113.352E-03    -56.4668E-03    -56.7862E-03    -56.2308E-03     113.116E-03    -56.7862E-03     12.5890E-03    -13.7570E+06    -36.0821E+06    -157.156E+06    -36.1143E+06    -157.124E+06    -13.7570E+06    -894.482E+03         31.3821
             385     7.56019E-03     53.7154E-03     372.097E-03     362.490E-03        -1.24824     369.844E-03        -1.24768     364.185E-03    -18.0489E-03     113.525E-03    -56.4644E-03    -56.9416E-03    -56.3091E-03     113.370E-03    -56.9416E-03     10.1848E-03    -15.2137E+06    -40.0160E+06    -186.732E+06    -40.0361E+06    -186.711E+06    -15.2137E+06    -1.01471E+06         30.6622
             386     6.61468E-03     53.7054E-03     372.886E-03     361.632E-03        -1.24811     371.009E-03        -1.24792     363.327E-03     5.09664E-03     113.684E-03    -56.5429E-03    -57.0431E-03    -56.4503E-03     113.591E-03    -57.0431E-03     7.85892E-03    -16.6548E+06    -42.2661E+06    -202.930E+06    -42.2766E+06    -202.919E+06    -16.6548E+06    -92.7008E+03         30.0784
             387     5.66931E-03     53.6979E-03     372.884E-03     359.283E-03        -1.25031     369.520E-03        -1.24986     362.204E-03     20.5109E-03     113.866E-03    -56.7403E-03    -57.0249E-03    -56.6865E-03     113.812E-03    -57.0249E-03     6.00265E-03    -22.5228E+06    -45.0269E+06    -208.935E+06    -45.0309E+06    -208.931E+06    -22.5228E+06     546.541E+03         29.6112
             388     4.72490E-03     53.6932E-03     367.347E-03     341.473E-03        -1.23087     344.875E-03        -1.23040     363.472E-03     50.6065E-03     113.881E-03    -56.7733E-03    -57.0076E-03    -56.7605E-03     113.849E-03    -56.9878E-03     4.68493E-03    -31.9959E+06    -49.1275E+06    -214.118E+06    -49.1308E+06    -214.115E+06    -31.9959E+06    -12.0575E+03         29.2543
             389     3.77924E-03     53.6885E-03     369.271E-03     339.321E-03        -1.22898     337.788E-03        -1.22745     369.271E-03    -50.7968E-03     113.904E-03    -56.7583E-03    -57.0918E-03    -56.8593E-03     113.886E-03    -56.9726E-03     3.45448E-03    -41.1039E+06    -52.7042E+06    -219.784E+06    -52.7192E+06    -219.769E+06    -41.1039E+06    -941.097E+03         29.0003
             390     2.83472E-03     53.6856E-03     390.153E-03     361.958E-03        -1.26906     375.073E-03        -1.26485     372.831E-03     27.4792E-03     113.960E-03    -56.8320E-03    -57.1069E-03    -56.9844E-03     113.952E-03    -56.9471E-03     2.11892E-03    -45.7278E+06    -54.6968E+06    -222.890E+06    -54.7116E+06    -222.875E+06    -45.7278E+06    -335.765E+03         28.8070
             391     1.88986E-03     53.6851E-03     422.269E-03     359.434E-03        -1.29664     411.519E-03        -1.28589     359.434E-03    -70.7788E-03     113.767E-03    -56.8019E-03    -56.9482E-03    -56.8606E-03     113.765E-03    -56.8878E-03     821.482E-06    -49.1275E+06    -57.2078E+06    -224.199E+06    -57.2129E+06    -224.194E+06    -49.1275E+06     477.331E+03         28.6391
             392     945.112E-06     53.6833E-03         1.16363    -400.006E-03        -1.27850         1.09340        -1.20826    -400.006E-03     443.430E-03     113.654E-03    -56.5906E-03    -57.0638E-03    -57.0112E-03     113.653E-03    -56.6417E-03     525.582E-09    -56.1335E+06    -61.4804E+06    -226.291E+06    -60.7123E+06    -226.277E+06    -56.9161E+06    -480.068E+03         28.5048
             393     16.0713E-03     53.0239E-03     378.374E-03     357.509E-03        -1.25189     369.326E-03        -1.25112     365.784E-03    -69.2406E-03     120.671E-03    -56.8598E-03    -63.8642E-03    -55.3548E-03     112.162E-03    -56.8598E-03     72.9591E-03     162.522E+06     124.456E+06    -8.09128E+06    -8.03317E+06     162.464E+06     124.456E+06     869.202E+03         50.3796
             394     15.1273E-03     52.9130E-03     377.024E-03     364.135E-03        -1.25917     374.843E-03        -1.25873     365.871E-03    -25.5914E-03     124.047E-03    -56.8539E-03    -67.2984E-03    -55.0537E-03     111.802E-03    -56.8539E-03     93.4397E-03     156.527E+06     109.637E+06    -15.8437E+06    -15.7801E+06     156.463E+06     109.637E+06     585.817E+03         47.3166
             395     14.1789E-03     52.8156E-03     372.102E-03     360.172E-03        -1.25210     366.087E-03        -1.25196     366.046E-03    -757.842E-06     119.627E-03    -56.6636E-03    -63.0709E-03    -54.7815E-03     111.338E-03    -56.6636E-03     75.4659E-03     145.329E+06     64.7674E+06    -21.8766E+06    -21.8456E+06     145.298E+06     64.7674E+06     129.759E+03         43.6160
             396     13.2330E-03     52.7439E-03     367.780E-03     358.903E-03        -1.24977     359.995E-03        -1.24968     366.592E-03    -8.99118E-03     115.617E-03    -56.4694E-03    -59.3819E-03    -55.0352E-03     111.271E-03    -56.4694E-03     53.2661E-03     126.139E+06     8.69174E+06    -26.6764E+06    -26.6558E+06     126.119E+06     8.69174E+06      64.581E+03         40.1108
             397     12.2873E-03     52.6991E-03     367.215E-03     362.180E-03        -1.25582     362.157E-03        -1.25579     367.215E-03    -5.03148E-03     113.532E-03    -56.4373E-03    -57.3498E-03    -55.4790E-03     111.706E-03    -56.4823E-03     34.4404E-03     60.7204E+06    -12.6956E+06    -29.3009E+06    -29.2817E+06     60.7013E+06    -12.6956E+06     84.0339E+03         37.2668
             398     11.3416E-03     52.6685E-03     369.677E-03     365.915E-03        -1.26181     367.951E-03        -1.26169     367.524E-03     329.969E-06     113.261E-03    -56.5201E-03    -56.8878E-03    -55.8672E-03     112.286E-03    -56.5651E-03     25.6191E-03    -792.152E+03    -20.4649E+06    -44.1225E+06    -30.5028E+06    -25.4464E+06    -9.43036E+06    -179.188E+03         35.0949
             399     10.3968E-03     52.6447E-03     372.543E-03     362.982E-03        -1.26069     367.784E-03        -1.26054     367.590E-03    -6.00844E-03     113.409E-03    -56.5828E-03    -56.7884E-03    -56.0761E-03     112.703E-03    -56.5895E-03     21.7701E-03    -10.7360E+06    -31.6469E+06    -82.7762E+06    -31.6885E+06    -82.7346E+06    -10.7360E+06    -659.509E+03         33.4865
             400     9.45121E-03     52.6223E-03     371.178E-03     363.109E-03        -1.25970     366.274E-03        -1.25939     367.704E-03     12.9998E-03     113.357E-03    -56.5257E-03    -56.7232E-03    -56.1568E-03     112.925E-03    -56.6606E-03     16.8414E-03    -11.8837E+06    -33.2881E+06    -125.177E+06    -33.3003E+06    -125.165E+06    -11.8837E+06    -56.3708E+03         32.2957
             401     8.50549E-03     52.6089E-03     370.837E-03     365.346E-03        -1.25866     368.010E-03        -1.25828     367.789E-03     6.63184E-03     113.357E-03    -56.4903E-03    -56.7820E-03    -56.2479E-03     113.115E-03    -56.7820E-03     12.7659E-03    -12.2901E+06    -35.2151E+06    -156.147E+06    -35.2225E+06    -156.139E+06    -12.2901E+06     592.585E+03         31.3916
             402     7.55983E-03     52.5953E-03     370.433E-03     361.911E-03        -1.25328     363.930E-03        -1.25293     368.058E-03     5.41210E-03     113.586E-03    -56.5539E-03    -56.9089E-03    -56.3991E-03     113.432E-03    -56.9089E-03     10.1451E-03    -16.2006E+06    -38.3939E+06    -185.756E+06    -38.4050E+06    -185.745E+06    -16.2006E+06    -579.480E+03         30.6695
             403     6.61522E-03     52.5866E-03     373.085E-03     360.916E-03        -1.25439     364.956E-03        -1.25396     368.608E-03    -1.15188E-03     113.623E-03    -56.5287E-03    -56.9972E-03    -56.4394E-03     113.533E-03    -56.9972E-03     7.73770E-03    -19.7749E+06    -41.9570E+06    -205.046E+06    -41.9674E+06    -205.035E+06    -19.7749E+06    -1.02314E+06         30.0831
             404     5.66966E-03     52.5786E-03     378.037E-03     364.599E-03        -1.26432     373.692E-03        -1.26385     368.473E-03     3.91194E-03     113.633E-03    -56.5761E-03    -57.0076E-03    -56.5242E-03     113.581E-03    -57.0076E-03     5.86718E-03    -22.6057E+06    -45.1747E+06    -209.340E+06    -45.1792E+06    -209.335E+06    -22.6057E+06    -191.489E+03         29.6109
             405     4.72420E-03     52.5733E-03     389.880E-03     356.930E-03        -1.27298     379.615E-03        -1.27258     366.791E-03     50.4291E-03     113.902E-03    -56.8295E-03    -57.0368E-03    -56.8531E-03     113.873E-03    -56.9842E-03     4.42330E-03    -29.6187E+06    -47.7934E+06    -213.431E+06    -47.7969E+06    -213.428E+06    -29.6187E+06    -33.7552E+03         29.2500
             406     3.78019E-03     52.5692E-03     399.443E-03     349.602E-03        -1.27890     385.163E-03        -1.27772     362.702E-03    -32.9409E-03     113.926E-03    -56.8632E-03    -57.0016E-03    -56.8997E-03     113.910E-03    -56.9489E-03     3.24132E-03    -38.9400E+06    -51.7058E+06    -219.070E+06    -51.7227E+06    -219.053E+06    -38.9400E+06    -430.085E+03         28.9961
             407     2.83448E-03     52.5662E-03     389.941E-03     352.720E-03        -1.26934     379.342E-03        -1.26197     355.959E-03     85.3297E-03     113.767E-03    -56.7209E-03    -57.0008E-03    -56.7756E-03     113.761E-03    -56.9404E-03     1.84051E-03    -45.9129E+06    -56.6523E+06    -223.991E+06    -56.6798E+06    -223.964E+06    -45.9129E+06    -845.178E+03         28.8051
             408     1.89021E-03     52.5645E-03     386.154E-03     332.393E-03        -1.24471     350.124E-03        -1.22895     352.666E-03    -30.8612E-03     113.702E-03    -56.6975E-03    -56.9937E-03    -56.7564E-03     113.700E-03    -56.9333E-03     918.597E-06    -51.2388E+06    -59.2761E+06    -225.495E+06    -59.2932E+06    -225.478E+06    -51.2388E+06    -1.14660E+06         28.6373
             409     944.981E-06     52.5656E-03         1.17184    -387.594E-03        -1.31921         1.07448        -1.24212    -367.321E-03     486.502E-03     113.773E-03    -56.6013E-03    -57.1810E-03    -57.0773E-03     113.772E-03    -56.7034E-03     950.518E-06    -57.9427E+06    -61.9222E+06    -225.846E+06    -61.9309E+06    -225.837E+06    -57.9427E+06    -934.419E+03         28.5019
             410     16.0727E-03     51.9034E-03     384.126E-03     370.254E-03        -1.28369     382.564E-03        -1.28303     371.161E-03    -47.2266E-03     120.686E-03    -56.8404E-03    -63.9152E-03    -55.4556E-03     112.227E-03    -56.8404E-03     73.0581E-03     162.631E+06     124.687E+06    -7.29803E+06    -7.25802E+06     162.591E+06     124.687E+06     562.053E+03         50.3670
             411     15.1257E-03     51.7925E-03     376.802E-03     367.265E-03        -1.27367     372.105E-03        -1.27290     371.194E-03    -11.7422E-03     124.180E-03    -56.8244E-03    -67.4515E-03    -55.3781E-03     112.107E-03    -56.8244E-03     92.9062E-03     157.107E+06     110.139E+06    -14.3467E+06    -14.3061E+06     157.067E+06     110.139E+06     465.198E+03         47.3088
             412     14.1812E-03     51.6977E-03     377.616E-03     367.875E-03        -1.27335     373.300E-03        -1.27271     371.560E-03    -5.79191E-03     119.526E-03    -56.6173E-03    -63.0149E-03    -54.5891E-03     111.101E-03    -56.6173E-03     76.1764E-03     144.709E+06     62.6746E+06    -21.6824E+06    -21.6398E+06     144.667E+06     62.6746E+06     892.273E+03         43.6104
             413     13.2336E-03     51.6248E-03     376.288E-03     367.715E-03        -1.27289     371.825E-03        -1.27260     371.895E-03    -30.6752E-03     115.462E-03    -56.4370E-03    -59.2694E-03    -54.6922E-03     110.885E-03    -56.4370E-03     54.4349E-03     126.498E+06     7.22795E+06    -25.9394E+06    -25.9062E+06     126.465E+06     7.22795E+06     907.197E+03         40.1065
             414     12.2879E-03     51.5790E-03     377.001E-03     368.195E-03        -1.27418     372.939E-03        -1.27405     372.126E-03    -20.0951E-03     113.487E-03    -56.4518E-03    -57.3125E-03    -55.4097E-03     111.629E-03    -56.4967E-03     34.6925E-03     61.4024E+06    -10.8225E+06    -28.2153E+06    -28.2056E+06     61.3927E+06    -10.8225E+06     285.643E+03         37.2669
             415     11.3416E-03     51.5505E-03     379.822E-03     371.523E-03        -1.28067     379.186E-03        -1.28045     371.937E-03    -3.51792E-03     113.149E-03    -56.5332E-03    -56.7617E-03    -55.7449E-03     112.177E-03    -56.5782E-03     25.5426E-03    -1.16283E+06    -19.1012E+06    -43.2845E+06    -30.0793E+06    -25.3596E+06    -8.10966E+06    -207.850E+03         35.1006
             416     10.3954E-03     51.5238E-03     383.302E-03     371.196E-03        -1.28765     382.914E-03        -1.28726     371.196E-03    -9.40277E-03     113.310E-03    -56.5172E-03    -56.7544E-03    -55.9865E-03     112.621E-03    -56.5957E-03     21.4809E-03    -11.5481E+06    -33.0713E+06    -82.5405E+06    -33.1149E+06    -82.4968E+06    -11.5481E+06    -345.280E+03         33.4950
             417     9.45057E-03     51.5043E-03     376.822E-03     370.339E-03        -1.27986     376.057E-03        -1.27920     370.452E-03     8.32952E-03     113.342E-03    -56.5530E-03    -56.7511E-03    -56.1934E-03     112.912E-03    -56.6805E-03     16.8779E-03    -15.2445E+06    -35.3586E+06    -125.377E+06    -35.3704E+06    -125.365E+06    -15.2445E+06    -755.970E+03         32.3045
             418     8.50533E-03     51.4885E-03     371.260E-03     361.282E-03        -1.26198     360.817E-03        -1.26104     370.782E-03    -1.27601E-03     113.547E-03    -56.7085E-03    -56.8009E-03    -56.4621E-03     113.292E-03    -56.7929E-03     13.0767E-03    -15.4015E+06    -36.1200E+06    -156.261E+06    -36.1369E+06    -156.244E+06    -15.4015E+06    -693.547E+03         31.4002
             419     7.56092E-03     51.4767E-03     372.458E-03     356.161E-03        -1.25742     355.367E-03        -1.25662     372.458E-03    -14.9718E-03     113.704E-03    -56.7010E-03    -56.9102E-03    -56.5414E-03     113.544E-03    -56.9102E-03     10.3164E-03    -14.7929E+06    -38.2403E+06    -185.395E+06    -38.2528E+06    -185.382E+06    -14.7929E+06     5.98159E+03         30.6774
             420     6.61504E-03     51.4666E-03     374.813E-03     358.353E-03        -1.26039     357.569E-03        -1.25961     374.813E-03    -22.3020E-03     113.621E-03    -56.6745E-03    -56.9873E-03    -56.5823E-03     113.529E-03    -56.9873E-03     7.84697E-03    -18.0136E+06    -41.9687E+06    -205.018E+06    -41.9798E+06    -205.007E+06    -18.0136E+06    -454.190E+03         30.0888
             421     5.67017E-03     51.4600E-03     383.770E-03     366.785E-03        -1.27808     373.484E-03        -1.27734     376.334E-03    -25.3108E-03     113.598E-03    -56.6851E-03    -56.9681E-03    -56.6307E-03     113.543E-03    -56.9681E-03     6.03138E-03    -23.1135E+06    -45.1029E+06    -210.098E+06    -45.1114E+06    -210.089E+06    -23.1135E+06    -1.15325E+06         29.6121
             422     4.72521E-03     51.4534E-03     415.041E-03     372.382E-03        -1.31770     414.680E-03        -1.31734     372.382E-03     17.6682E-03     113.708E-03    -56.7331E-03    -56.9687E-03    -56.7357E-03     113.678E-03    -56.9358E-03     4.46252E-03    -28.9024E+06    -48.5674E+06    -213.666E+06    -48.5713E+06    -213.662E+06    -28.9024E+06    -432.175E+03         29.2456
             423     3.77962E-03     51.4496E-03     427.916E-03     359.951E-03        -1.32237     425.745E-03        -1.32020     359.951E-03    -71.7386E-03     113.752E-03    -56.7569E-03    -56.9342E-03    -56.7751E-03     113.737E-03    -56.9013E-03     3.11419E-03    -37.8808E+06    -52.6369E+06    -218.752E+06    -52.6409E+06    -218.748E+06    -37.8808E+06     577.356E+03         28.9858
             424     2.83558E-03     51.4468E-03     384.435E-03     340.671E-03        -1.26271     369.048E-03        -1.25494     348.281E-03     56.6072E-03     113.529E-03    -56.5368E-03    -56.9307E-03    -56.5301E-03     113.522E-03    -56.9307E-03     2.04837E-03    -46.1247E+06    -56.1646E+06    -223.203E+06    -56.1897E+06    -223.178E+06    -46.1247E+06    -866.531E+03         28.7927
             425     1.88916E-03     51.4462E-03     364.190E-03     326.397E-03        -1.23238     316.507E-03        -1.21258     354.280E-03    -78.7610E-03     113.678E-03    -56.6184E-03    -57.0599E-03    -56.6480E-03     113.676E-03    -57.0277E-03     1.26276E-03     -51.569E+06    -59.8340E+06    -226.451E+06    -59.8612E+06    -226.424E+06     -51.569E+06    -1.74055E+06         28.6272
             426     944.271E-06     51.4447E-03         1.19052    -389.775E-03        -1.34703         1.09789        -1.27468    -369.502E-03     416.196E-03     114.062E-03    -56.7234E-03    -57.3489E-03    -57.2467E-03     114.061E-03    -56.8244E-03     864.611E-06    -59.3212E+06    -63.6715E+06    -227.609E+06    -63.0465E+06    -227.598E+06    -59.9571E+06    -1.05399E+06         28.4950
             427     16.0720E-03     50.7841E-03     380.990E-03     369.089E-03        -1.28921     375.340E-03        -1.28895     374.481E-03     2.93162E-03     120.536E-03    -56.8516E-03    -63.7492E-03    -54.9603E-03     111.747E-03    -56.8516E-03     73.9567E-03     161.579E+06     124.216E+06    -6.68057E+06    -6.64863E+06     161.547E+06     124.216E+06    -216.228E+03         50.3508
             428     15.1276E-03     50.6711E-03     375.504E-03     366.762E-03        -1.28001     366.295E-03        -1.27895     374.914E-03     37.2468E-03     124.214E-03    -56.8496E-03    -67.4379E-03    -55.0790E-03     111.855E-03    -56.8496E-03     93.7916E-03     156.786E+06     110.150E+06    -14.0620E+06    -14.0016E+06     156.726E+06     110.150E+06     658.392E+03         47.2943
             429     14.1794E-03     50.5807E-03     375.857E-03     363.031E-03        -1.27417     361.875E-03        -1.27301     375.857E-03     30.3298E-03     119.997E-03    -56.6306E-03    -63.4370E-03    -54.9412E-03     111.501E-03    -56.6306E-03     76.7823E-03     145.407E+06     64.2180E+06    -20.8377E+06    -20.7819E+06     145.351E+06     64.2180E+06     1.32344E+06         43.5985
             430     13.2329E-03     50.5050E-03     383.783E-03     370.874E-03        -1.28762     377.649E-03        -1.28707     376.455E-03    -919.768E-06     115.849E-03    -56.4362E-03    -59.6211E-03    -54.8955E-03     111.124E-03    -56.4362E-03     55.3394E-03     126.587E+06     8.13557E+06    -24.9715E+06    -24.9415E+06     126.557E+06     8.13557E+06     927.820E+03         40.0988
             431     12.2867E-03     50.4602E-03     386.116E-03     376.173E-03        -1.29372     385.673E-03        -1.29327     376.173E-03     9.07397E-03     113.600E-03    -56.5029E-03    -57.3913E-03    -55.5242E-03     111.733E-03    -56.5029E-03     34.8031E-03     62.2040E+06    -9.25343E+06    -26.5060E+06    -26.4626E+06     62.1606E+06    -9.25343E+06     984.632E+03         37.2643
             432     11.3418E-03     50.4302E-03     382.338E-03     374.788E-03        -1.29067     381.244E-03        -1.29045     375.661E-03     2.92468E-03     113.246E-03    -56.5797E-03    -56.8596E-03    -55.8972E-03     112.284E-03    -56.5797E-03     25.4203E-03    -410.312E+03    -17.2461E+06    -43.1803E+06    -29.1850E+06    -24.6902E+06    -6.96137E+06     881.905E+03         35.1031
             433     10.3969E-03     50.4054E-03     382.617E-03     369.868E-03        -1.28934     376.532E-03        -1.28886     375.465E-03    -16.6007E-03     113.148E-03    -56.4719E-03    -56.6734E-03    -55.8413E-03     112.468E-03    -56.6242E-03     21.3351E-03    -9.40271E+06    -30.7677E+06    -82.2990E+06    -30.7821E+06    -82.2846E+06    -9.40271E+06     97.3808E+03         33.5004
             434     9.45042E-03     50.3846E-03     379.337E-03     367.874E-03        -1.28412     370.738E-03        -1.28341     375.768E-03    -1.37648E-03     113.321E-03    -56.5187E-03    -56.7327E-03    -56.0916E-03     112.886E-03    -56.7247E-03     16.9510E-03    -11.5301E+06    -33.0348E+06    -124.521E+06    -33.0482E+06    -124.508E+06    -11.5301E+06    -396.266E+03         32.3101
             435     8.50529E-03     50.3693E-03     377.461E-03     366.479E-03        -1.27784     366.178E-03        -1.27679     376.706E-03    -13.7338E-03     113.508E-03    -56.6693E-03    -56.8324E-03    -56.4159E-03     113.247E-03    -56.8243E-03     13.2782E-03    -14.0396E+06    -37.3564E+06    -157.180E+06    -37.3732E+06    -157.163E+06    -14.0396E+06    -649.361E+03         31.4056
             436     7.55972E-03     50.3568E-03     378.472E-03     365.699E-03        -1.27834     364.958E-03        -1.27732     378.195E-03    -22.5919E-03     113.715E-03    -56.7652E-03    -56.9377E-03    -56.5944E-03     113.544E-03    -56.9377E-03     10.6858E-03    -14.0052E+06    -40.6388E+06    -186.128E+06    -40.6542E+06    -186.112E+06    -14.0052E+06    -429.310E+03         30.6814
             437     6.61546E-03     50.3480E-03     385.927E-03     368.328E-03        -1.28707     374.077E-03        -1.28633     379.443E-03     5.64380E-03     113.835E-03    -56.8713E-03    -57.0123E-03    -56.7989E-03     113.733E-03    -56.9823E-03     8.29439E-03    -19.5271E+06    -42.9305E+06    -203.250E+06    -42.9463E+06    -203.234E+06    -19.5271E+06    -705.732E+03         30.0926
             438     5.67021E-03     50.3399E-03     393.638E-03     373.461E-03        -1.29936     387.445E-03        -1.29884     379.137E-03    -6.36683E-03     113.824E-03    -56.8709E-03    -56.9828E-03    -56.8562E-03     113.763E-03    -56.9358E-03     6.39583E-03    -25.7972E+06    -45.6244E+06    -209.936E+06    -45.6339E+06    -209.926E+06    -25.7972E+06    -1.22482E+06         29.6166
             439     4.72517E-03     50.3347E-03     401.764E-03     370.737E-03        -1.30828     395.681E-03        -1.30798     376.525E-03     13.1027E-03     113.654E-03    -56.7080E-03    -56.9008E-03    -56.6919E-03     113.621E-03    -56.8839E-03     4.68160E-03    -30.3731E+06    -48.9258E+06    -215.160E+06    -48.9315E+06    -215.155E+06    -30.3731E+06    -670.266E+03         29.2454
             440     3.78050E-03     50.3299E-03     404.668E-03     353.847E-03        -1.29764     382.948E-03        -1.29552     373.445E-03    -66.5838E-03     113.460E-03    -56.5184E-03    -56.8777E-03    -56.5023E-03     113.444E-03    -56.8777E-03     3.22322E-03    -38.0282E+06    -51.6063E+06    -218.727E+06    -51.6188E+06    -218.715E+06    -38.0282E+06    -656.726E+03         28.9798
             441     2.83405E-03     50.3283E-03     388.792E-03     351.948E-03        -1.28769     359.901E-03        -1.28164     374.791E-03     47.7314E-03     113.635E-03    -56.5561E-03    -57.0367E-03    -56.6476E-03     113.629E-03    -56.9390E-03     1.89197E-03    -45.2518E+06    -53.8846E+06    -222.506E+06    -53.9104E+06    -222.480E+06    -45.2518E+06    -925.043E+03         28.7828
             442     1.88966E-03     50.3264E-03     409.350E-03     369.512E-03        -1.33402     373.685E-03        -1.30739     378.545E-03    -165.640E-03     113.852E-03    -56.7604E-03    -57.0838E-03    -56.9071E-03     113.850E-03    -56.9350E-03     1.08621E-03    -51.7889E+06    -58.7203E+06    -226.818E+06    -58.7356E+06    -226.803E+06    -51.7889E+06    -102.208E+03         28.6125
             443     945.387E-06     50.3245E-03         1.23029    -390.652E-03        -1.39791         1.15093        -1.31855    -390.652E-03     333.361E-03     113.721E-03    -56.6097E-03    -57.1020E-03    -57.1010E-03     113.720E-03    -56.6097E-03     247.798E-06    -60.4472E+06    -65.3759E+06    -230.826E+06    -64.7451E+06    -230.821E+06    -61.0832E+06     111.698E+03         28.4780
             444     16.0725E-03     49.6657E-03     377.485E-03     362.197E-03        -1.28137     362.493E-03        -1.28108     376.895E-03    -14.2323E-03     119.911E-03    -56.8615E-03    -63.1022E-03    -54.4418E-03     111.250E-03    -56.8615E-03     72.8745E-03     161.370E+06     123.571E+06    -7.06613E+06    -7.02945E+06     161.333E+06     123.571E+06    -180.730E+03         50.3309
             445     15.1226E-03     49.5518E-03     382.711E-03     367.422E-03        -1.29018     371.394E-03        -1.28922     377.780E-03     32.7639E-03     123.671E-03    -56.8822E-03    -66.8508E-03    -54.5214E-03     111.341E-03    -56.8822E-03     93.3914E-03     154.971E+06     108.857E+06    -15.7275E+06    -15.6452E+06     154.889E+06     108.857E+06     158.976E+03         47.2740
             446     14.1788E-03     49.4598E-03     386.559E-03     369.142E-03        -1.29425     376.473E-03        -1.29331     378.284E-03     31.7848E-03     120.340E-03    -56.6801E-03    -63.7203E-03    -55.4309E-03     112.051E-03    -56.6801E-03     75.8619E-03     145.942E+06     66.8872E+06    -21.5440E+06    -21.4929E+06     145.891E+06     66.8872E+06    -186.967E+03         43.5819
             447     13.2335E-03     49.3864E-03     386.619E-03     368.362E-03        -1.29178     375.956E-03        -1.29131     378.561E-03     8.60790E-03     116.050E-03    -56.4586E-03    -59.7891E-03    -55.2813E-03     111.543E-03    -56.4586E-03     54.3778E-03     126.630E+06     10.3951E+06    -24.3585E+06    -24.3514E+06     126.623E+06     10.3951E+06     75.8843E+03         40.0891
             448     12.2875E-03     49.3405E-03     383.859E-03     372.398E-03        -1.29165     377.065E-03        -1.29125     378.790E-03     17.1125E-03     113.349E-03    -56.3869E-03    -57.2260E-03    -55.2211E-03     111.451E-03    -56.4937E-03     35.0686E-03     60.5188E+06    -9.59052E+06    -26.2916E+06    -26.1919E+06     60.4192E+06    -9.59052E+06     1.62690E+06         37.2590
             449     11.3416E-03     49.3103E-03     380.025E-03     374.903E-03        -1.29169     375.679E-03        -1.29152     379.080E-03    -2.19960E-03     113.099E-03    -56.4988E-03    -56.7777E-03    -55.6680E-03     112.097E-03    -56.6057E-03     25.9274E-03     441.079E+03    -15.6729E+06    -40.8539E+06    -27.5759E+06    -23.3129E+06    -5.19693E+06     1.90817E+06         35.1005
             450     10.3955E-03     49.2869E-03     379.765E-03     369.886E-03        -1.28845     369.689E-03        -1.28825     379.765E-03    -4.62214E-03     113.368E-03    -56.5970E-03    -56.7847E-03    -55.9811E-03     112.639E-03    -56.6709E-03     22.1632E-03    -8.20650E+06    -30.5373E+06    -80.8836E+06    -30.6238E+06    -80.7970E+06    -8.20650E+06     529.280E+03         33.5004
             451     9.45053E-03     49.2648E-03     380.855E-03     370.204E-03        -1.28956     369.588E-03        -1.28895     380.855E-03     28.5521E-03     113.505E-03    -56.5668E-03    -56.8334E-03    -56.1890E-03     113.042E-03    -56.7484E-03     17.4575E-03    -10.9162E+06    -33.6451E+06    -124.984E+06    -33.6523E+06    -124.977E+06    -10.9162E+06     418.227E+03         32.3109
             452     8.50508E-03     49.2501E-03     385.716E-03     377.639E-03        -1.30147     381.191E-03        -1.30078     381.475E-03     22.6257E-03     113.472E-03    -56.5798E-03    -56.8470E-03    -56.3209E-03     113.213E-03    -56.8470E-03     13.2049E-03    -14.8681E+06    -35.8583E+06    -156.373E+06    -35.8645E+06    -156.367E+06    -14.8681E+06     429.433E+03         31.4065
             453     7.55990E-03     49.2373E-03     396.835E-03     379.904E-03        -1.31425     395.698E-03        -1.31376     380.556E-03     11.1285E-03     113.688E-03    -56.7192E-03    -56.9752E-03    -56.5487E-03     113.517E-03    -56.9752E-03     10.6924E-03    -16.5103E+06    -38.4476E+06    -186.019E+06    -38.4548E+06    -186.012E+06    -16.5103E+06    -712.270E+03         30.6831
             454     6.61443E-03     49.2277E-03     401.115E-03     377.362E-03        -1.31539     400.096E-03        -1.31503     378.014E-03     41.0774E-03     113.983E-03    -56.9246E-03    -57.0849E-03    -56.8831E-03     113.878E-03    -57.0211E-03     8.41426E-03    -20.5886E+06    -41.8979E+06    -202.473E+06    -41.9065E+06    -202.464E+06    -20.5886E+06    -1.02076E+06         30.0939
             455     5.67008E-03     49.2206E-03     388.672E-03     370.157E-03        -1.29681     382.882E-03        -1.29668     375.818E-03     16.2618E-03     113.946E-03    -56.9405E-03    -57.0716E-03    -56.9574E-03     113.882E-03    -56.9909E-03     6.52679E-03    -25.7734E+06    -45.3286E+06    -209.752E+06    -45.3360E+06    -209.745E+06    -25.7734E+06    -1.07922E+06         29.6184
             456     4.72541E-03     49.2148E-03     379.025E-03     355.508E-03        -1.27369     357.029E-03        -1.27342     377.232E-03     29.1519E-03     113.738E-03    -56.7802E-03    -56.9590E-03    -56.7624E-03     113.703E-03    -56.9420E-03     4.78568E-03    -29.6705E+06    -48.6871E+06    -216.736E+06    -48.6951E+06    -216.728E+06    -29.6705E+06    -1.13386E+06         29.2497
             457     3.77954E-03     49.2117E-03     383.325E-03     351.223E-03        -1.27894     350.730E-03        -1.27844     383.325E-03    -7.78433E-03     113.664E-03    -56.6431E-03    -56.9507E-03    -56.6952E-03     113.649E-03    -56.8828E-03     3.18451E-03    -38.8732E+06    -52.3861E+06    -218.323E+06    -52.4002E+06    -218.309E+06    -38.8732E+06    -1.01596E+06         28.9836
             458     2.83528E-03     49.2082E-03     399.446E-03     372.654E-03        -1.32263     373.784E-03        -1.31443     390.115E-03     132.589E-03     113.798E-03    -56.7125E-03    -57.0501E-03    -56.9156E-03     113.792E-03    -56.8406E-03     1.93854E-03    -47.7845E+06    -56.1147E+06    -223.417E+06    -56.1300E+06    -223.401E+06    -47.7845E+06    -387.051E+03         28.7806
             459     1.89060E-03     49.2066E-03     426.647E-03     388.062E-03        -1.36926     392.295E-03        -1.33985     393.008E-03    -110.534E-03     113.696E-03    -56.7215E-03    -56.9350E-03    -56.9326E-03     113.694E-03    -56.7215E-03     955.308E-06    -52.0195E+06    -59.4837E+06    -227.578E+06    -59.4911E+06    -227.570E+06    -52.0195E+06     672.499E+03         28.6021
             460     944.990E-06     49.2058E-03         1.24568    -374.176E-03        -1.42868         1.15726        -1.34378    -370.653E-03     379.911E-03     113.188E-03    -56.4096E-03    -56.7446E-03    -56.7430E-03     113.186E-03    -56.4096E-03     317.169E-06    -59.4202E+06    -64.0120E+06    -230.802E+06    -63.9281E+06    -230.795E+06    -59.5108E+06     454.461E+03         28.4617
             461     16.0729E-03     48.5461E-03     380.635E-03     369.959E-03        -1.29033     369.504E-03        -1.28983     380.594E-03    -39.6999E-03     119.963E-03    -56.8427E-03    -63.1950E-03    -54.8796E-03     111.648E-03    -56.8427E-03     71.7758E-03     161.704E+06     123.827E+06    -7.20556E+06    -7.17166E+06     161.670E+06     123.827E+06     268.148E+03         50.3121
             462     15.1273E-03     48.4365E-03     387.059E-03     374.747E-03        -1.30357     379.596E-03        -1.30266     381.302E-03     4.09183E-03     123.512E-03    -56.8520E-03    -66.7725E-03    -54.6495E-03     111.389E-03    -56.8520E-03     92.7481E-03     155.777E+06     108.776E+06    -15.4813E+06    -15.4305E+06     155.726E+06     108.776E+06    -431.951E+03         47.2583
             463     14.1785E-03     48.3368E-03     391.089E-03     380.721E-03        -1.31468     389.779E-03        -1.31405     381.397E-03     18.4495E-03     119.751E-03    -56.6709E-03    -63.1426E-03    -54.8437E-03     111.452E-03    -56.6709E-03     75.5139E-03     145.375E+06     65.5091E+06    -21.9354E+06    -21.9084E+06     145.348E+06     65.5091E+06    -1.02948E+06         43.5695
             464     13.2336E-03     48.2682E-03     385.404E-03     375.283E-03        -1.30171     379.059E-03        -1.30155     381.469E-03    -17.7409E-03     115.755E-03    -56.4703E-03    -59.4494E-03    -54.9994E-03     111.305E-03    -56.4703E-03     54.1542E-03     126.187E+06     9.50312E+06    -26.3629E+06    -26.3578E+06     126.182E+06     9.50312E+06    -160.758E+03         40.0792
             465     12.2870E-03     48.2210E-03     382.077E-03     373.577E-03        -1.29650     373.505E-03        -1.29643     382.077E-03    -7.89340E-03     113.288E-03    -56.3338E-03    -57.2025E-03    -55.0767E-03     111.326E-03    -56.4981E-03     35.5388E-03     59.1955E+06    -12.7610E+06    -27.4662E+06    -27.3316E+06     59.0609E+06    -12.7610E+06     36.8305E+03         37.2515
             466     11.3402E-03     48.1925E-03     385.215E-03     377.456E-03        -1.30419     379.867E-03        -1.30403     382.638E-03    -4.10568E-03     112.998E-03    -56.4537E-03    -56.6916E-03    -55.5311E-03     112.002E-03    -56.6179E-03     25.8246E-03    -1.10324E+06    -17.4553E+06    -40.2887E+06    -26.6165E+06    -24.2212E+06    -8.00960E+06     899.208E+03         35.0949
             467     10.3951E-03     48.1660E-03     387.623E-03     378.519E-03        -1.30953     383.208E-03        -1.30940     382.801E-03     13.8387E-03     113.541E-03    -56.6781E-03    -56.8505E-03    -56.1402E-03     112.844E-03    -56.6918E-03     21.6148E-03    -6.99009E+06    -27.9839E+06    -79.7251E+06    -28.2016E+06    -79.5074E+06    -6.99009E+06     2.42272E+06         33.4962
             468     9.44999E-03     48.1460E-03     386.091E-03     380.057E-03        -1.31054     382.782E-03        -1.30999     382.814E-03     47.3180E-03     113.563E-03    -56.6477E-03    -56.8601E-03    -56.3028E-03     113.133E-03    -56.7751E-03     16.9034E-03    -10.2627E+06    -31.9696E+06    -124.136E+06    -32.0946E+06    -124.011E+06    -10.2627E+06     1.50859E+06         32.3083
             469     8.50474E-03     48.1303E-03     390.762E-03     381.772E-03        -1.31798     389.351E-03        -1.31724     382.438E-03     19.4957E-03     113.524E-03    -56.6111E-03    -56.8860E-03    -56.3549E-03     113.268E-03    -56.8860E-03     13.1274E-03    -15.7082E+06    -34.8376E+06    -155.972E+06    -34.8433E+06    -155.966E+06    -15.7082E+06     79.2232E+03         31.4054
             470     7.55947E-03     48.1186E-03     400.813E-03     380.826E-03        -1.32891     400.550E-03        -1.32865     380.826E-03    -11.4073E-03     113.750E-03    -56.6926E-03    -57.0089E-03    -56.5201E-03     113.578E-03    -57.0089E-03     10.7860E-03    -15.8494E+06    -37.3125E+06    -185.632E+06    -37.3141E+06    -185.630E+06    -15.8494E+06    -51.7368E+03         30.6846
             471     6.61467E-03     48.1079E-03     395.870E-03     375.756E-03        -1.31877     392.917E-03        -1.31866     378.596E-03     3.65100E-03     113.942E-03    -56.8537E-03    -57.1021E-03    -56.7787E-03     113.833E-03    -57.0683E-03     8.52660E-03    -16.8521E+06    -40.5010E+06    -202.481E+06    -40.5068E+06    -202.476E+06    -16.8521E+06    -590.986E+03         30.0972
             472     5.66970E-03     48.1008E-03     382.843E-03     366.130E-03        -1.29600     370.515E-03        -1.29580     378.265E-03    -26.0331E-03     113.975E-03    -56.9477E-03    -57.1151E-03    -56.9461E-03     113.916E-03    -57.0574E-03     6.24150E-03    -23.5157E+06    -44.3818E+06    -209.823E+06    -44.3898E+06    -209.815E+06    -23.5157E+06    -889.473E+03         29.6223
             473     4.72424E-03     48.0959E-03     381.538E-03     355.924E-03        -1.28511     355.712E-03        -1.28490     381.538E-03    -1.89022E-03     113.937E-03    -56.9218E-03    -57.0388E-03    -56.9144E-03     113.905E-03    -57.0149E-03     4.53249E-03    -30.7636E+06    -49.1331E+06    -217.387E+06    -49.1379E+06    -217.383E+06    -30.7636E+06    -531.749E+03         29.2563
             474     3.78043E-03     48.0916E-03     392.037E-03     367.541E-03        -1.30788     370.568E-03        -1.30496     386.088E-03    -69.8687E-03     113.922E-03    -56.8683E-03    -57.0006E-03    -56.9189E-03     113.905E-03    -56.9327E-03     3.37379E-03    -37.3837E+06    -53.5595E+06    -218.673E+06    -53.5626E+06    -218.669E+06    -37.3837E+06    -299.270E+03         28.9876
             475     2.83523E-03     48.0893E-03     415.364E-03     382.923E-03        -1.34970     402.458E-03        -1.33902     385.151E-03     78.1880E-03     113.795E-03    -56.8123E-03    -56.9501E-03    -56.9181E-03     113.784E-03    -56.8339E-03     2.63527E-03    -46.0192E+06    -56.8314E+06    -223.648E+06    -56.8341E+06    -223.645E+06    -46.0192E+06    -94.4581E+03         28.7778
             476     1.89012E-03     48.0869E-03     416.479E-03     376.445E-03        -1.34198     389.145E-03        -1.31816     379.968E-03    -66.6542E-03     113.580E-03    -56.7187E-03    -56.8432E-03    -56.8155E-03     113.575E-03    -56.7419E-03     1.37828E-03    -52.7884E+06    -60.0320E+06    -228.611E+06    -60.0452E+06    -228.598E+06    -52.7884E+06    -296.607E+03         28.5986
             477     945.835E-06     48.0878E-03         1.19765    -370.803E-03        -1.37016         1.12270        -1.29873    -367.279E-03     368.253E-03     113.299E-03    -56.5648E-03    -56.7300E-03    -56.7056E-03     113.298E-03    -56.5880E-03     632.403E-06    -58.4889E+06    -62.7356E+06    -228.360E+06    -62.4566E+06    -228.340E+06    -58.7881E+06    -21.0461E+03         28.4587
             478     16.0715E-03     47.4255E-03     387.354E-03     383.142E-03        -1.31011     385.482E-03        -1.30958     384.489E-03    -22.8326E-03     120.178E-03    -56.8362E-03    -63.4012E-03    -55.0238E-03     111.801E-03    -56.8362E-03     72.2504E-03     161.679E+06     123.529E+06    -8.06731E+06    -8.05310E+06     161.665E+06     123.529E+06    -470.549E+03         50.2963
             479     15.1263E-03     47.3155E-03     389.034E-03     379.089E-03        -1.31165     382.450E-03        -1.31076     384.792E-03    -500.102E-06     124.122E-03    -56.8163E-03    -67.3741E-03    -55.1497E-03     111.898E-03    -56.8163E-03     93.4470E-03     156.503E+06     110.079E+06    -13.7099E+06    -13.6987E+06     156.492E+06     110.079E+06    -222.839E+03         47.2463
             480     14.1807E-03     47.2209E-03     388.856E-03     379.289E-03        -1.31424     382.341E-03        -1.31368     385.247E-03     17.4041E-03     119.500E-03    -56.6265E-03    -62.9315E-03    -54.4408E-03     111.009E-03    -56.6265E-03     76.3396E-03     145.258E+06     63.1867E+06    -21.4437E+06    -21.4379E+06     145.252E+06     63.1867E+06     15.7148E+03         43.5603
             481     13.2316E-03     47.1473E-03     391.976E-03     384.480E-03        -1.32529     390.627E-03        -1.32485     385.386E-03     3.39571E-03     115.392E-03    -56.4641E-03    -59.0995E-03    -54.6184E-03     110.910E-03    -56.4641E-03     53.8591E-03     124.981E+06     7.11740E+06    -25.9254E+06    -25.9203E+06     124.976E+06     7.11740E+06    -145.214E+03         40.0705
             482     12.2865E-03     47.1030E-03     389.679E-03     382.513E-03        -1.32076     386.588E-03        -1.32044     385.281E-03     19.5775E-03     113.394E-03    -56.4533E-03    -57.2046E-03    -55.3063E-03     111.553E-03    -56.5107E-03     34.5317E-03     60.6273E+06    -12.4316E+06    -28.2909E+06    -28.2061E+06     60.5425E+06    -12.4316E+06    -332.350E+03         37.2436
             483     11.3412E-03     47.0723E-03     387.975E-03     380.496E-03        -1.31541     382.952E-03        -1.31529     385.398E-03     2.08625E-03     113.121E-03    -56.5395E-03    -56.7250E-03    -55.6811E-03     112.135E-03    -56.5969E-03     25.7391E-03    -2.65300E+06    -20.8357E+06    -45.4696E+06    -30.7370E+06    -26.2742E+06    -11.9470E+06    -622.872E+03         35.0875
             484     10.3957E-03     47.0467E-03     390.288E-03     382.879E-03        -1.31994     387.484E-03        -1.31973     385.466E-03     2.14543E-03     113.415E-03    -56.6101E-03    -56.7578E-03    -55.9841E-03     112.713E-03    -56.6819E-03     21.6750E-03    -9.79786E+06    -30.6369E+06    -81.5239E+06    -30.7914E+06    -81.3694E+06    -9.79786E+06     1.38498E+06         33.4886
             485     9.45019E-03     47.0259E-03     389.009E-03     385.057E-03        -1.32405     388.482E-03        -1.32375     385.280E-03     15.4450E-03     113.510E-03    -56.6203E-03    -56.8185E-03    -56.1942E-03     113.084E-03    -56.8185E-03     16.7968E-03    -6.43052E+06    -30.8968E+06    -122.341E+06    -31.0644E+06    -122.174E+06    -6.43052E+06     2.45661E+06         32.3028
             486     8.50466E-03     47.0114E-03     390.774E-03     384.910E-03        -1.32802     389.840E-03        -1.32709     384.910E-03    -29.2186E-03     113.634E-03    -56.6708E-03    -56.9388E-03    -56.4205E-03     113.384E-03    -56.9388E-03     12.9892E-03    -10.7176E+06    -34.8397E+06    -155.592E+06    -34.9010E+06    -155.530E+06    -10.7176E+06     1.69411E+06         31.4024
             487     7.55945E-03     46.9984E-03     390.043E-03     375.831E-03        -1.31881     380.112E-03        -1.31806     385.006E-03    -40.8396E-03     113.819E-03    -56.7410E-03    -57.0075E-03    -56.5757E-03     113.654E-03    -57.0075E-03     10.5320E-03    -14.6590E+06    -38.9794E+06    -183.762E+06    -38.9975E+06    -183.744E+06    -14.6590E+06     389.130E+03         30.6828
             488     6.61420E-03     46.9887E-03     387.481E-03     374.142E-03        -1.31569     375.309E-03        -1.31554     386.158E-03    -13.1108E-03     113.878E-03    -56.7941E-03    -57.0577E-03    -56.6917E-03     113.776E-03    -57.0577E-03     8.28216E-03    -18.9672E+06    -42.3892E+06    -201.924E+06    -42.4012E+06    -201.912E+06    -18.9672E+06    -1.03776E+06         30.0988
             489     5.66922E-03     46.9807E-03     391.220E-03     380.774E-03        -1.32396     384.210E-03        -1.32342     387.248E-03    -11.8564E-03     113.929E-03    -56.8604E-03    -57.1038E-03    -56.8283E-03     113.873E-03    -57.0800E-03     6.04082E-03    -25.6018E+06    -45.4827E+06    -210.653E+06    -45.4964E+06    -210.639E+06    -25.6018E+06    -1.20642E+06         29.6274
             490     4.72523E-03     46.9760E-03     391.995E-03     374.338E-03        -1.31748     377.183E-03        -1.31702     388.689E-03     23.4822E-03     113.960E-03    -56.8504E-03    -57.1026E-03    -56.8436E-03     113.930E-03    -57.0788E-03     4.55166E-03    -31.6147E+06    -47.7672E+06    -217.969E+06    -47.7747E+06    -217.961E+06    -31.6147E+06    -564.901E+03         29.2612
             491     3.77919E-03     46.9723E-03     397.611E-03     375.693E-03        -1.32563     377.238E-03        -1.32123     391.662E-03    -107.944E-03     113.927E-03    -56.8606E-03    -57.0583E-03    -56.8389E-03     113.905E-03    -57.0583E-03     3.81904E-03    -35.2318E+06    -50.3157E+06    -219.290E+06    -50.3171E+06    -219.289E+06    -35.2318E+06    -361.200E+03         28.9922
             492     2.83463E-03     46.9695E-03     413.990E-03     384.228E-03        -1.34919     395.377E-03        -1.33945     393.107E-03     15.8575E-03     113.946E-03    -56.9388E-03    -56.9945E-03    -56.9321E-03     113.935E-03    -56.9900E-03     2.63601E-03    -41.7150E+06    -54.1160E+06    -223.112E+06    -54.1179E+06    -223.110E+06    -41.7150E+06    -48.4394E+03         28.7830
             493     1.88980E-03     46.9680E-03     425.825E-03     386.123E-03        -1.35526     401.775E-03        -1.33484     389.751E-03    -91.0893E-03     113.836E-03    -56.8625E-03    -56.9480E-03    -56.8637E-03     113.832E-03    -56.9436E-03     1.20124E-03    -51.6452E+06    -58.6872E+06    -228.560E+06    -58.6969E+06    -228.550E+06    -51.6452E+06    -284.725E+03         28.6055
             494     944.123E-06     46.9678E-03         1.19157    -363.423E-03        -1.36236         1.13764        -1.30843    -363.423E-03     273.783E-03     113.797E-03    -56.6448E-03    -57.1664E-03    -57.0861E-03     113.796E-03    -56.7247E-03     397.627E-06    -58.9902E+06    -62.1944E+06    -228.881E+06    -61.7535E+06    -228.864E+06    -59.4489E+06    -309.174E+03         28.4656
             495     16.0728E-03     46.3071E-03     391.078E-03     381.774E-03        -1.32800     384.051E-03        -1.32745     388.253E-03    -40.6729E-03     120.073E-03    -56.8206E-03    -63.2632E-03    -54.8052E-03     111.615E-03    -56.8206E-03     72.5294E-03     161.676E+06     124.222E+06    -6.74363E+06    -6.73949E+06     161.672E+06     124.222E+06    -303.765E+03         50.2850
             496     15.1257E-03     46.1944E-03     391.797E-03     380.182E-03        -1.32396     382.470E-03        -1.32342     388.972E-03    -16.4775E-03     123.761E-03    -56.8117E-03    -66.9456E-03    -54.9434E-03     111.759E-03    -56.8117E-03     92.3457E-03     155.601E+06     108.809E+06    -15.0853E+06    -15.0809E+06     155.597E+06     108.809E+06    -101.153E+03         47.2373
             497     14.1790E-03     46.1031E-03     395.525E-03     384.249E-03        -1.33400     389.473E-03        -1.33330     389.600E-03    -20.8609E-03     119.589E-03    -56.6194E-03    -63.0042E-03    -54.6048E-03     111.190E-03    -56.6194E-03     76.1878E-03     144.828E+06     62.5903E+06    -22.1920E+06    -22.1804E+06     144.816E+06     62.5903E+06     288.603E+03         43.5528
             498     13.2341E-03     46.0286E-03     401.694E-03     389.519E-03        -1.34651     400.854E-03        -1.34567     389.519E-03    -18.3202E-03     115.725E-03    -56.4595E-03    -59.4563E-03    -54.7580E-03     111.026E-03    -56.4595E-03     55.1315E-03     125.202E+06     6.39165E+06    -27.0517E+06    -27.0432E+06     125.194E+06     6.39165E+06     710.372E+03         40.0638
             499     12.2872E-03     45.9834E-03     395.448E-03     387.071E-03        -1.33802     392.853E-03        -1.33756     389.199E-03     3.25508E-03     113.556E-03    -56.5188E-03    -57.2774E-03    -55.4084E-03     111.687E-03    -56.5188E-03     34.7758E-03     61.2603E+06    -10.6836E+06    -29.8095E+06    -29.7963E+06     61.2471E+06    -10.6836E+06     593.912E+03         37.2362
             500     11.3409E-03     45.9534E-03     389.608E-03     380.831E-03        -1.32489     380.525E-03        -1.32458     389.608E-03    -38.9961E-03     113.157E-03    -56.5811E-03    -56.6916E-03    -55.6870E-03     112.162E-03    -56.5901E-03     25.8724E-03    -2.01410E+06    -18.5762E+06    -45.4057E+06    -31.5140E+06    -25.6436E+06    -8.83831E+06     96.3671E+03         35.0779
             501     10.3952E-03     45.9274E-03     390.480E-03     383.224E-03        -1.32669     382.945E-03        -1.32641     390.480E-03    -41.3898E-03     113.241E-03    -56.5430E-03    -56.6734E-03    -55.8470E-03     112.532E-03    -56.6603E-03     21.7532E-03    -12.1537E+06    -33.3808E+06    -83.1072E+06    -33.4277E+06    -83.0603E+06    -12.1537E+06    -1.16461E+06         33.4772
             502     9.44952E-03     45.9065E-03     392.638E-03     390.294E-03        -1.33703     391.906E-03        -1.33690     390.900E-03    -15.2117E-03     113.504E-03    -56.5824E-03    -56.8172E-03    -56.1617E-03     113.083E-03    -56.8172E-03     16.6682E-03    -8.52334E+06    -34.8734E+06    -124.318E+06    -34.9588E+06    -124.232E+06    -8.52334E+06     950.313E+03         32.2922
             503     8.50454E-03     45.8915E-03     394.951E-03     390.754E-03        -1.34180     394.244E-03        -1.34110     390.754E-03    -42.9648E-03     113.763E-03    -56.7115E-03    -56.9523E-03    -56.4686E-03     113.521E-03    -56.9523E-03     12.7986E-03    -9.26526E+06    -36.4401E+06    -154.214E+06    -36.5247E+06    -154.129E+06    -9.26526E+06     2.96906E+06         31.3949
             504     7.55981E-03     45.8790E-03     397.968E-03     381.665E-03        -1.33630     387.426E-03        -1.33494     390.841E-03    -8.12409E-03     113.821E-03    -56.7499E-03    -56.9899E-03    -56.5865E-03     113.658E-03    -56.9899E-03     10.4845E-03    -15.9095E+06    -39.4768E+06    -180.429E+06    -39.5081E+06    -180.397E+06    -15.9095E+06     1.04153E+06         30.6767
             505     6.61486E-03     45.8691E-03     396.953E-03     379.656E-03        -1.33489     384.172E-03        -1.33407     391.619E-03     16.7437E-03     113.705E-03    -56.6247E-03    -57.0456E-03    -56.5195E-03     113.600E-03    -57.0456E-03     8.38466E-03    -22.4068E+06    -42.5946E+06    -200.520E+06    -42.6203E+06    -200.495E+06    -22.4068E+06    -1.35133E+06         30.0921
             506     5.66965E-03     45.8613E-03     398.147E-03     389.156E-03        -1.34462     394.557E-03        -1.34381     391.943E-03     24.9294E-03     113.680E-03    -56.5606E-03    -57.1285E-03    -56.4969E-03     113.617E-03    -57.1285E-03     6.50968E-03    -28.1191E+06    -44.7323E+06    -212.325E+06    -44.7651E+06    -212.292E+06    -28.1191E+06    -2.22637E+06         29.6223
             507     4.72345E-03     45.8565E-03     401.614E-03     386.552E-03        -1.34434     396.254E-03        -1.34366     391.226E-03     58.2979E-03     113.993E-03    -56.7765E-03    -57.2094E-03    -56.7777E-03     113.957E-03    -57.1731E-03     4.80068E-03    -31.3050E+06    -46.7076E+06    -218.671E+06    -46.7281E+06    -218.650E+06    -31.3050E+06    -1.71693E+06         29.2600
             508     3.77929E-03     45.8530E-03     396.848E-03     379.150E-03        -1.32928     381.761E-03        -1.32704     391.998E-03    -72.0460E-03     114.123E-03    -56.9248E-03    -57.1945E-03    -56.9424E-03     114.104E-03    -57.1582E-03     3.50619E-03    -36.0830E+06     -49.694E+06    -220.152E+06    -49.7038E+06    -220.142E+06    -36.0830E+06    -398.785E+03         28.9976
             509     2.83426E-03     45.8493E-03     399.231E-03     371.975E-03        -1.32142     363.437E-03        -1.31288     399.231E-03     62.6128E-03     114.017E-03    -56.9087E-03    -57.1052E-03    -56.9005E-03     114.009E-03    -57.1052E-03     2.23469E-03    -41.8946E+06    -54.1552E+06    -223.255E+06    -54.1584E+06    -223.252E+06    -41.8946E+06     283.618E+03         28.7931
             510     1.88956E-03     45.8488E-03     421.135E-03     393.051E-03        -1.35603     384.363E-03        -1.33834     412.133E-03    -56.4479E-03     114.097E-03    -56.9348E-03    -57.1297E-03    -56.9840E-03     114.095E-03    -57.0785E-03     1.03658E-03    -49.4233E+06    -57.9552E+06    -227.759E+06    -57.9556E+06    -227.759E+06    -49.4233E+06     97.9348E+03         28.6151
             511     945.306E-06     45.8478E-03         1.22074    -332.841E-03        -1.41754         1.17147        -1.36826    -332.841E-03     304.000E-03     114.081E-03    -56.7727E-03    -57.3062E-03    -57.2113E-03     114.081E-03    -56.8669E-03     560.641E-06    -59.1180E+06    -61.5831E+06    -229.961E+06    -61.3412E+06    -229.953E+06    -59.3680E+06     231.936E+03         28.4759
             512     16.0723E-03     45.1868E-03     397.531E-03     387.382E-03        -1.34876     391.616E-03        -1.34840     392.935E-03    -42.3999E-03     120.343E-03    -56.8393E-03    -63.5290E-03    -54.8526E-03     111.667E-03    -56.8393E-03     73.7811E-03     160.982E+06     123.795E+06    -7.04976E+06    -7.03752E+06     160.969E+06     123.795E+06    -414.701E+03         50.2783
             513     15.1264E-03     45.0759E-03     395.509E-03     389.869E-03        -1.34912     391.510E-03        -1.34863     393.377E-03     663.941E-06     123.582E-03    -56.8457E-03    -66.7649E-03    -54.6241E-03     111.442E-03    -56.8457E-03     92.7401E-03     154.406E+06     107.363E+06    -16.2178E+06    -16.2008E+06     154.389E+06     107.363E+06    -354.033E+03         47.2349
             514     14.1796E-03     44.9840E-03     397.735E-03     385.404E-03        -1.35040     388.469E-03        -1.34965     393.922E-03    -10.5525E-03     119.818E-03    -56.6789E-03    -63.1875E-03    -54.6361E-03     111.267E-03    -56.6789E-03     76.9524E-03     144.894E+06     64.0381E+06    -22.5674E+06    -22.5515E+06     144.878E+06     64.0381E+06     635.863E+03         43.5495
             515     13.2312E-03     44.9097E-03     400.248E-03     381.556E-03        -1.34502     386.552E-03        -1.34443     394.663E-03    -22.0480E-03     116.446E-03    -56.5034E-03    -60.1162E-03    -55.3217E-03     111.652E-03    -56.5034E-03     55.7380E-03     126.224E+06     10.6819E+06    -27.1504E+06    -27.1378E+06     126.211E+06     10.6819E+06     1.09920E+06         40.0585
             516     12.2863E-03     44.8631E-03     400.886E-03     389.100E-03        -1.35170     394.494E-03        -1.35144     395.226E-03    -5.05166E-03     113.732E-03    -56.5108E-03    -57.4370E-03    -55.6221E-03     111.917E-03    -56.5108E-03     34.2481E-03     61.5027E+06    -8.68134E+06    -28.6540E+06    -28.6424E+06     61.4911E+06    -8.68134E+06     612.662E+03         37.2295
             517     11.3415E-03     44.8347E-03     405.068E-03     389.521E-03        -1.35827     398.932E-03        -1.35789     395.274E-03    -18.5223E-03     113.148E-03    -56.5559E-03    -56.6970E-03    -55.7245E-03     112.184E-03    -56.5649E-03     25.4694E-03    -1.01045E+06    -17.8708E+06    -42.3803E+06    -29.8481E+06    -23.7369E+06    -7.67643E+06    -328.429E+03         35.0685
             518     10.3959E-03     44.8080E-03     404.991E-03     390.314E-03        -1.35600     400.021E-03        -1.35570     394.982E-03    -4.68058E-03     113.264E-03    -56.5112E-03    -56.7116E-03    -55.9160E-03     112.575E-03    -56.6179E-03     21.4235E-03    -11.6126E+06    -31.4938E+06    -83.0609E+06    -31.5540E+06    -83.0007E+06    -11.6126E+06    -789.523E+03         33.4650
             519     9.45045E-03     44.7874E-03     399.993E-03     392.286E-03        -1.35248     396.715E-03        -1.35160     394.682E-03     38.1788E-03     113.347E-03    -56.4714E-03    -56.7764E-03    -56.0622E-03     112.938E-03    -56.7764E-03     16.4880E-03    -10.5779E+06    -33.6117E+06    -127.523E+06    -33.6566E+06    -127.478E+06    -10.5779E+06    -2.99127E+03         32.2789
             520     8.50503E-03     44.7716E-03     397.465E-03     390.282E-03        -1.35120     391.556E-03        -1.34978     394.772E-03    -3.89823E-03     113.533E-03    -56.5366E-03    -56.9400E-03    -56.2869E-03     113.283E-03    -56.9400E-03     12.9516E-03    -10.1926E+06    -35.9435E+06    -154.505E+06    -35.9768E+06    -154.471E+06    -10.1926E+06     1.46990E+06         31.3837
             521     7.55950E-03     44.7597E-03     402.508E-03     392.249E-03        -1.35997     398.659E-03        -1.35860     394.726E-03     3.97464E-03     113.589E-03    -56.5559E-03    -57.0107E-03    -56.3863E-03     113.419E-03    -57.0107E-03     10.6875E-03    -15.4307E+06    -37.6443E+06    -177.001E+06    -37.6706E+06    -176.975E+06    -15.4307E+06     905.057E+03         30.6672
             522     6.61416E-03     44.7494E-03     401.061E-03     387.159E-03        -1.35299     392.245E-03        -1.35170     394.686E-03     9.56750E-03     113.584E-03    -56.4914E-03    -57.1011E-03    -56.3790E-03     113.472E-03    -57.1011E-03     8.68060E-03    -20.1904E+06    -39.6082E+06    -198.953E+06    -39.6315E+06    -198.930E+06    -20.1904E+06    -1.02424E+06         30.0835
             523     5.66845E-03     44.7430E-03     397.680E-03     387.506E-03        -1.34860     388.846E-03        -1.34771     395.447E-03    -20.1608E-03     113.835E-03    -56.6486E-03    -57.2035E-03    -56.5820E-03     113.769E-03    -57.2035E-03     6.64468E-03    -25.3830E+06    -43.5884E+06    -213.017E+06    -43.6130E+06    -212.993E+06    -25.3830E+06    -1.57883E+06         29.6189
             524     4.72396E-03     44.7364E-03     412.968E-03     393.823E-03        -1.37079     412.168E-03        -1.37040     394.238E-03     23.7753E-03     114.154E-03    -56.8961E-03    -57.2563E-03    -56.8982E-03     114.120E-03    -57.2201E-03     4.73439E-03    -31.5783E+06    -47.8316E+06    -219.390E+06    -47.8472E+06    -219.374E+06    -31.5783E+06    -1.52675E+06         29.2622
             525     3.77924E-03     44.7323E-03     412.136E-03     387.273E-03        -1.35949     408.334E-03        -1.35861     390.196E-03    -49.9635E-03     114.193E-03    -56.9766E-03    -57.2287E-03    -57.0114E-03     114.177E-03    -57.1775E-03     3.28459E-03    -37.3259E+06    -51.2309E+06    -221.771E+06    -51.2479E+06    -221.754E+06    -37.3259E+06    -953.175E+03         29.0012
             526     2.83440E-03     44.7302E-03     397.775E-03     372.725E-03        -1.32330     372.047E-03        -1.31595     391.101E-03     91.7875E-03     114.034E-03    -56.9101E-03    -57.1555E-03    -56.9180E-03     114.027E-03    -57.1406E-03     2.10966E-03    -42.3068E+06    -53.8854E+06    -223.685E+06    -53.8945E+06    -223.675E+06    -42.3068E+06    -193.231E+03         28.7981
             527     1.88912E-03     44.7280E-03     406.174E-03     386.477E-03        -1.33601     371.251E-03        -1.31655     401.932E-03    -64.2763E-03     114.080E-03    -56.8555E-03    -57.2239E-03    -56.9045E-03     114.078E-03    -57.1727E-03     1.14602E-03    -48.4886E+06    -57.6095E+06    -227.837E+06    -57.6099E+06    -227.836E+06    -48.4886E+06    -156.968E+03         28.6241
             528     944.417E-06     44.7282E-03         1.19084    -311.540E-03        -1.41369         1.13083        -1.35368    -311.540E-03     344.924E-03     114.329E-03    -56.9204E-03    -57.4121E-03    -57.2051E-03     114.328E-03    -57.1256E-03     996.446E-06    -58.1322E+06    -62.0283E+06    -230.097E+06    -62.0353E+06    -230.090E+06    -58.1322E+06     156.048E+03         28.4911
             529     16.0710E-03     44.0667E-03     403.912E-03     396.310E-03        -1.35945     403.691E-03        -1.35923     396.310E-03     8.45599E-03     119.758E-03    -56.9095E-03    -62.9231E-03    -54.1309E-03     110.966E-03    -56.9095E-03     74.4069E-03     161.225E+06     122.751E+06    -8.43108E+06    -8.40344E+06     161.197E+06     122.751E+06     201.159E+03         50.2710
             530     15.1243E-03     43.9566E-03     401.200E-03     391.922E-03        -1.35851     396.550E-03        -1.35817     396.232E-03     25.7151E-03     123.938E-03    -56.9291E-03    -67.0471E-03    -54.8401E-03     111.731E-03    -56.9291E-03     93.1388E-03     154.637E+06     108.968E+06    -15.9578E+06    -15.9220E+06     154.601E+06     108.968E+06     127.749E+03         47.2311
             531     14.1764E-03     43.8663E-03     396.956E-03     382.835E-03        -1.34893     382.514E-03        -1.34853     396.877E-03     16.4089E-03     120.974E-03    -56.7216E-03    -64.2854E-03    -55.8671E-03     112.556E-03    -56.7216E-03     76.6965E-03     144.702E+06     66.2682E+06    -23.0346E+06    -23.0227E+06     144.690E+06     66.2682E+06    -155.081E+03         43.5481
             532     13.2334E-03     43.7875E-03     398.115E-03     381.072E-03        -1.34764     380.651E-03        -1.34722     398.115E-03     19.4082E-03     116.524E-03    -56.4804E-03    -60.1962E-03    -55.7684E-03     112.097E-03    -56.4804E-03     53.5496E-03     126.740E+06     12.8758E+06    -24.7173E+06    -24.7063E+06     126.729E+06     12.8758E+06    -127.325E+03         40.0572
             533     12.2881E-03     43.7448E-03     404.418E-03     391.573E-03        -1.36305     396.756E-03        -1.36270     398.883E-03     32.1731E-03     113.208E-03    -56.4275E-03    -56.9984E-03    -55.2600E-03     111.512E-03    -56.4696E-03     33.3164E-03     62.2565E+06    -7.85211E+06    -25.6687E+06    -25.6555E+06     62.2433E+06    -7.85211E+06    -142.928E+03         37.2261
             534     11.3413E-03     43.7147E-03     415.804E-03     398.265E-03        -1.38246     415.679E-03        -1.38233     398.265E-03     17.7156E-03     113.083E-03    -56.5091E-03    -56.6665E-03    -55.6248E-03     112.084E-03    -56.5512E-03     25.8986E-03     1.05581E+06    -16.7682E+06    -41.1649E+06    -27.2915E+06    -23.0505E+06    -6.53517E+06    -238.665E+03         35.0624
             535     10.3962E-03     43.6889E-03     414.539E-03     396.765E-03        -1.37874     414.353E-03        -1.37855     396.765E-03     17.2435E-03     113.324E-03    -56.5250E-03    -56.7118E-03    -55.9230E-03     112.608E-03    -56.5986E-03     21.8748E-03    -10.5594E+06    -29.5423E+06    -83.2096E+06    -29.5905E+06    -83.1613E+06    -10.5594E+06    -183.825E+03         33.4563
             536     9.45045E-03     43.6681E-03     401.767E-03     391.097E-03        -1.35919     395.964E-03        -1.35829     395.997E-03     41.9244E-03     113.228E-03    -56.4221E-03    -56.7471E-03    -55.9885E-03     112.795E-03    -56.7471E-03     16.9283E-03    -11.7389E+06    -31.0005E+06    -128.768E+06    -31.0134E+06    -128.755E+06    -11.7389E+06    -171.314E+03         32.2697
             537     8.50463E-03     43.6531E-03     396.668E-03     387.119E-03        -1.35224     385.174E-03        -1.35029     396.668E-03    -16.8586E-03     113.243E-03    -56.3372E-03    -56.9269E-03    -56.0766E-03     112.983E-03    -56.9269E-03     13.2371E-03    -9.62969E+06    -31.9056E+06    -155.178E+06    -31.9196E+06    -155.164E+06    -9.62969E+06    -121.070E+03         31.3752
             538     7.55936E-03     43.6399E-03     399.760E-03     387.011E-03        -1.35476     386.649E-03        -1.35269     398.052E-03    -8.63650E-03     113.455E-03    -56.4130E-03    -57.0739E-03    -56.2438E-03     113.286E-03    -57.0739E-03     10.5995E-03    -10.0625E+06    -33.9166E+06    -175.603E+06    -33.9434E+06    -175.576E+06    -10.0625E+06     211.442E+03         30.6613
             539     6.61362E-03     43.6313E-03     401.288E-03     388.383E-03        -1.35659     388.679E-03        -1.35518     399.581E-03     21.3358E-03     113.804E-03    -56.6723E-03    -57.1752E-03    -56.5714E-03     113.703E-03    -57.1752E-03     8.24485E-03    -14.3447E+06    -38.5465E+06    -198.226E+06    -38.5626E+06    -198.210E+06    -14.3447E+06     446.352E+03         30.0832
             540     5.66898E-03     43.6220E-03     402.053E-03     395.539E-03        -1.36488     396.362E-03        -1.36441     400.760E-03    -34.2649E-03     114.074E-03    -56.8522E-03    -57.2136E-03    -56.7920E-03     114.014E-03    -57.2136E-03     6.31681E-03    -21.6532E+06    -43.7464E+06    -212.198E+06    -43.7501E+06    -212.195E+06    -21.6532E+06    -110.210E+03         29.6223
             541     4.72403E-03     43.6171E-03     413.690E-03     399.398E-03        -1.38053     413.207E-03        -1.38047     399.812E-03     6.48958E-03     114.083E-03    -56.8339E-03    -57.2071E-03    -56.8002E-03     114.050E-03    -57.2071E-03     4.78097E-03    -31.5638E+06    -48.1983E+06    -219.430E+06    -48.2028E+06    -219.425E+06    -31.5638E+06    -875.302E+03         29.2653
             542     3.77867E-03     43.6127E-03     417.013E-03     395.935E-03        -1.38081     416.413E-03        -1.38021     395.935E-03    -34.4634E-03     114.093E-03    -56.9044E-03    -57.1839E-03    -56.9011E-03     114.074E-03    -57.1690E-03     3.37536E-03    -39.9269E+06    -51.0167E+06    -223.072E+06    -51.0299E+06    -223.059E+06    -39.9269E+06    -1.42076E+06         29.0034
             543     2.83428E-03     43.6102E-03     403.303E-03     392.349E-03        -1.36107     398.649E-03        -1.35642     392.349E-03     72.9133E-03     114.129E-03    -56.9630E-03    -57.1771E-03    -56.9712E-03     114.122E-03    -57.1622E-03     2.11254E-03    -44.1808E+06    -53.4908E+06    -224.923E+06    -53.5044E+06    -224.909E+06    -44.1808E+06    -1.28235E+06         28.8027
             544     1.88963E-03     43.6092E-03     410.398E-03     392.871E-03        -1.35905     386.668E-03        -1.33532     392.871E-03    -145.302E-03     114.171E-03    -56.9121E-03    -57.2655E-03    -56.9681E-03     114.168E-03    -57.2064E-03     1.29590E-03    -48.1528E+06    -57.3961E+06    -228.213E+06    -57.4017E+06    -228.207E+06    -48.1528E+06    -145.483E+03         28.6336
             545     944.125E-06     43.6078E-03         1.16753    -311.953E-03        -1.40547         1.10120        -1.33915    -311.953E-03     285.745E-03     114.361E-03    -56.9495E-03    -57.4287E-03    -57.2593E-03     114.360E-03    -57.1172E-03     978.050E-06    -57.7676E+06    -62.4062E+06    -230.603E+06    -62.4118E+06    -230.598E+06    -57.7676E+06     310.765E+03         28.5062
             546     16.0704E-03     42.9472E-03     401.473E-03     389.877E-03        -1.36324     392.225E-03        -1.36258     398.467E-03    -17.4220E-03     119.035E-03    -56.8859E-03    -62.2351E-03    -54.0809E-03     110.881E-03    -56.8859E-03     71.5261E-03     160.916E+06     122.765E+06    -8.22330E+06    -8.16972E+06     160.862E+06     122.765E+06     574.638E+03         50.2644
             547     15.1219E-03     42.8395E-03     403.170E-03     393.616E-03        -1.36667     397.597E-03        -1.36643     398.955E-03     17.0110E-03     123.527E-03    -56.9038E-03    -66.6823E-03    -55.1106E-03     111.955E-03    -56.9038E-03     90.6930E-03     155.505E+06     109.370E+06    -15.9698E+06    -15.9290E+06     155.464E+06     109.370E+06    -456.811E+03         47.2276
             548     14.1800E-03     42.7408E-03     400.805E-03     393.520E-03        -1.36800     394.624E-03        -1.36773     399.426E-03     10.6043E-03     120.807E-03    -56.6587E-03    -64.1800E-03    -56.0948E-03     112.722E-03    -56.6587E-03     75.1165E-03     145.904E+06     66.4707E+06    -21.6973E+06    -21.6751E+06     145.882E+06     66.4707E+06     -1.2428E+06         43.5475
             549     13.2353E-03     42.6694E-03     401.358E-03     395.613E-03        -1.37224     396.765E-03        -1.37190     399.862E-03     13.3178E-03     115.577E-03    -56.4222E-03    -59.3586E-03    -55.0412E-03     111.260E-03    -56.4222E-03     53.1763E-03     126.053E+06     9.41666E+06    -25.4984E+06    -25.4760E+06     126.030E+06     9.41666E+06    -1.50139E+06         40.0563
             550     12.2871E-03     42.6262E-03     403.353E-03     395.380E-03        -1.37239     398.141E-03        -1.37193     400.132E-03     9.01460E-03     113.054E-03    -56.4161E-03    -56.9112E-03    -54.9953E-03     111.180E-03    -56.4582E-03     34.8135E-03     61.1787E+06    -12.2501E+06    -26.9279E+06    -26.8978E+06     61.1486E+06    -12.2501E+06    -1.07225E+06         37.2238
             551     11.3417E-03     42.5956E-03     408.026E-03     392.534E-03        -1.37314     400.067E-03        -1.37292     400.280E-03    -11.9686E-03     113.081E-03    -56.4609E-03    -56.7403E-03    -55.6212E-03     112.061E-03    -56.5594E-03     26.1547E-03     561.372E+03    -18.0141E+06    -41.6551E+06    -27.3363E+06    -23.6460E+06    -8.12560E+06     27.3618E+03         35.0596
             552     10.3956E-03     42.5698E-03     408.203E-03     391.618E-03        -1.37281     399.269E-03        -1.37270     400.439E-03    -10.0953E-03     113.208E-03    -56.5037E-03    -56.6523E-03    -55.8050E-03     112.490E-03    -56.6328E-03     21.9254E-03    -9.92650E+06    -28.6290E+06    -82.8902E+06    -28.6465E+06    -82.8727E+06    -9.92650E+06     165.197E+03         33.4534
             553     9.45023E-03     42.5488E-03     405.650E-03     394.619E-03        -1.37461     399.342E-03        -1.37436     400.679E-03     4.84050E-03     113.373E-03    -56.5615E-03    -56.7714E-03    -56.1273E-03     112.939E-03    -56.7714E-03     16.9122E-03    -10.8022E+06    -30.7304E+06    -128.355E+06    -30.7435E+06    -128.342E+06    -10.8022E+06    -663.978E+03         32.2674
             554     8.50507E-03     42.5338E-03     407.844E-03     395.746E-03        -1.37504     401.483E-03        -1.37374     400.805E-03    -40.6714E-03     113.321E-03    -56.3749E-03    -56.9173E-03    -56.1278E-03     113.074E-03    -56.9173E-03     12.8851E-03    -9.49401E+06    -33.1681E+06    -155.427E+06    -33.1813E+06    -155.414E+06    -9.49401E+06    -698.887E+03         31.3737
             555     7.55892E-03     42.5211E-03     410.050E-03     392.367E-03        -1.37063     399.139E-03        -1.36828     400.931E-03     500.375E-06     113.515E-03    -56.4089E-03    -57.0671E-03    -56.2430E-03     113.349E-03    -57.0671E-03     10.5277E-03    -10.5560E+06    -36.5626E+06    -176.925E+06    -36.5778E+06    -176.910E+06    -10.5560E+06     325.234E+03         30.6623
             556     6.61433E-03     42.5109E-03     409.308E-03     394.547E-03        -1.37261     401.627E-03        -1.37138     401.005E-03     56.0345E-03     113.920E-03    -56.7716E-03    -57.1432E-03    -56.6672E-03     113.815E-03    -57.1432E-03     8.37173E-03    -14.7226E+06    -39.5141E+06    -197.719E+06    -39.5263E+06    -197.706E+06    -14.7226E+06     1.09619E+06         30.0868
             557     5.66919E-03     42.5028E-03     405.229E-03     396.732E-03        -1.37307     400.947E-03        -1.37300     400.941E-03     4.95302E-03     114.021E-03    -56.7798E-03    -57.1561E-03    -56.7195E-03     113.960E-03    -57.1561E-03     6.32259E-03    -22.4232E+06    -42.6605E+06    -211.220E+06    -42.6654E+06    -211.215E+06    -22.4232E+06     553.576E+03         29.6236
             558     4.72371E-03     42.4975E-03     404.313E-03     388.383E-03        -1.36501     390.503E-03        -1.36490     402.083E-03     25.6752E-03     113.980E-03    -56.7072E-03    -57.1773E-03    -56.6744E-03     113.947E-03    -57.1773E-03     4.69476E-03    -31.9658E+06    -46.1688E+06    -218.855E+06    -46.1733E+06    -218.850E+06    -31.9658E+06    -418.573E+03         29.2642
             559     3.77927E-03     42.4924E-03     408.375E-03     391.724E-03        -1.37041     395.268E-03        -1.36997     404.387E-03    -24.2356E-03     113.987E-03    -56.7115E-03    -57.1856E-03    -56.6931E-03     113.969E-03    -57.1856E-03     3.44070E-03    -40.1625E+06    -49.9353E+06    -222.817E+06    -49.9422E+06    -222.810E+06    -40.1625E+06    -975.963E+03         29.0061
             560     2.83383E-03     42.4905E-03     418.809E-03     401.408E-03        -1.39184     410.704E-03        -1.38684     404.514E-03     88.9412E-03     114.232E-03    -56.9001E-03    -57.2628E-03    -56.9297E-03     114.223E-03    -57.2248E-03     2.31756E-03    -45.9262E+06    -54.4460E+06    -226.725E+06    -54.4549E+06    -226.716E+06    -45.9262E+06    -619.802E+03         28.8098
             561     1.88881E-03     42.4885E-03     439.909E-03     398.546E-03        -1.40942     418.347E-03        -1.38786     398.546E-03    -119.159E-03     114.513E-03    -57.1325E-03    -57.3912E-03    -57.3246E-03     114.510E-03    -57.1955E-03     1.51499E-03    -49.9727E+06    -57.5354E+06    -228.759E+06    -57.5422E+06    -228.753E+06    -49.9727E+06     218.776E+03         28.6399
             562     945.572E-06     42.4873E-03         1.15871    -306.204E-03        -1.42614         1.09396        -1.36139    -306.204E-03     302.860E-03     114.168E-03    -56.9093E-03    -57.2781E-03    -57.2770E-03     114.167E-03    -56.9093E-03     755.821E-06    -56.9851E+06    -61.3176E+06    -229.751E+06    -61.3227E+06    -229.746E+06    -56.9851E+06     480.701E+03         28.5093
             563     16.0751E-03     41.8307E-03     405.738E-03     391.846E-03        -1.37895     395.050E-03        -1.37839     401.971E-03    -51.2963E-03     120.333E-03    -56.7877E-03    -63.6051E-03    -55.4570E-03     112.185E-03    -56.7877E-03     71.2025E-03     161.828E+06     124.626E+06    -7.04803E+06    -6.97827E+06     161.758E+06     124.626E+06     108.080E+03         50.2594
             564     15.1297E-03     41.7199E-03     407.607E-03     399.842E-03        -1.38415     404.796E-03        -1.38390     402.406E-03     16.2152E-03     123.681E-03    -56.7728E-03    -67.0140E-03    -54.9696E-03     111.636E-03    -56.7728E-03     92.5678E-03     156.394E+06     109.203E+06    -14.1768E+06    -14.1413E+06     156.358E+06     109.203E+06     137.928E+03         47.2262
             565     14.1811E-03     41.6199E-03     407.683E-03     401.618E-03        -1.38484     406.469E-03        -1.38449     402.482E-03     6.59640E-03     119.104E-03    -56.5758E-03    -62.6115E-03    -54.1467E-03     110.639E-03    -56.5758E-03     76.0373E-03     145.428E+06     62.7610E+06    -21.1935E+06    -21.1786E+06     145.413E+06     62.7610E+06    -757.466E+03         43.5439
             566     13.2321E-03     41.5532E-03     404.150E-03     398.868E-03        -1.38037     400.164E-03        -1.38018     402.655E-03    -5.63990E-03     115.109E-03    -56.4251E-03    -58.9050E-03    -54.3584E-03     110.563E-03    -56.4251E-03     54.3973E-03     125.094E+06     5.93378E+06    -26.3957E+06    -26.3778E+06     125.076E+06     5.93378E+06    -1.35028E+06         40.0511
             567     12.2870E-03     41.5057E-03     404.597E-03     396.940E-03        -1.37793     398.081E-03        -1.37758     403.102E-03    -17.3051E-03     113.699E-03    -56.4887E-03    -57.5063E-03    -55.5629E-03     111.755E-03    -56.4889E-03     35.3825E-03     60.5165E+06    -14.2893E+06    -28.8613E+06    -28.8364E+06     60.4917E+06    -14.2893E+06    -948.312E+03         37.2215
             568     11.3417E-03     41.4768E-03     403.885E-03     393.020E-03        -1.37459     392.701E-03        -1.37427     403.885E-03    -24.1969E-03     113.153E-03    -56.5226E-03    -56.7957E-03    -55.7371E-03     112.151E-03    -56.5794E-03     25.9772E-03    -1.42422E+06    -21.0519E+06    -43.5689E+06    -30.5872E+06    -24.8244E+06    -10.6333E+06    -455.208E+03         35.0614
             569     10.3959E-03     41.4506E-03     407.616E-03     394.005E-03        -1.38059     396.664E-03        -1.38044     404.805E-03     10.7826E-03     113.236E-03    -56.5342E-03    -56.7047E-03    -55.8544E-03     112.501E-03    -56.6497E-03     22.1530E-03    -11.9760E+06    -32.5936E+06      -82.89E+06    -32.6061E+06    -82.8775E+06    -11.9760E+06     386.892E+03         33.4577
             570     9.45017E-03     41.4291E-03     411.181E-03     401.457E-03        -1.38895     406.694E-03        -1.38815     405.142E-03     49.5672E-03     113.383E-03    -56.5754E-03    -56.7623E-03    -56.1439E-03     112.951E-03    -56.7623E-03     16.8618E-03    -13.1241E+06    -34.9993E+06    -127.130E+06    -35.0139E+06    -127.115E+06    -13.1241E+06    -332.127E+03         32.2704
             571     8.50496E-03     41.4143E-03     411.962E-03     402.417E-03        -1.38957     407.950E-03        -1.38807     404.924E-03    -8.05080E-03     113.492E-03    -56.5662E-03    -56.8917E-03    -56.3295E-03     113.248E-03    -56.8846E-03     12.8111E-03    -14.4816E+06    -37.2151E+06    -156.021E+06    -37.2312E+06    -156.005E+06    -14.4816E+06    -993.229E+03         31.3743
             572     7.55999E-03     41.4024E-03     417.720E-03     402.153E-03        -1.39366     414.434E-03        -1.39237     404.147E-03    -15.5791E-03     113.580E-03    -56.5348E-03    -56.9884E-03    -56.3732E-03     113.411E-03    -56.9812E-03     10.6624E-03    -17.5686E+06    -38.9520E+06    -178.005E+06    -38.9584E+06    -177.999E+06    -17.5686E+06    -281.747E+03         30.6611
             573     6.61399E-03     41.3907E-03     422.413E-03     402.154E-03        -1.39783     421.624E-03        -1.39704     402.154E-03     11.1169E-03     113.653E-03    -56.5100E-03    -57.0528E-03    -56.4019E-03     113.545E-03    -57.0528E-03     8.48554E-03    -20.8344E+06    -40.8802E+06    -197.574E+06    -40.8856E+06    -197.569E+06    -20.8344E+06    -180.947E+03         30.0843
             574     5.66904E-03     41.3840E-03     410.815E-03     395.939E-03        -1.38384     406.021E-03        -1.38342     400.318E-03    -10.4636E-03     113.884E-03    -56.6508E-03    -57.1223E-03    -56.5872E-03     113.820E-03    -57.1223E-03     6.53097E-03    -25.1735E+06    -42.7918E+06    -211.089E+06    -42.8017E+06    -211.079E+06    -25.1735E+06     423.872E+03         29.6238
             575     4.72459E-03     41.3772E-03     402.180E-03     379.146E-03        -1.36020     378.938E-03        -1.35999     402.180E-03     35.5326E-03     113.969E-03    -56.7307E-03    -57.1673E-03    -56.6942E-03     113.933E-03    -57.1673E-03     4.89106E-03    -30.8732E+06    -45.4004E+06    -218.177E+06    -45.4096E+06    -218.168E+06    -30.8732E+06     750.551E+03         29.2681
             576     3.77855E-03     41.3738E-03     407.959E-03     381.418E-03        -1.36845     380.355E-03        -1.36739     407.959E-03    -37.5747E-03     114.047E-03    -56.7403E-03    -57.2169E-03    -56.7579E-03     114.029E-03    -57.1813E-03     3.45723E-03    -38.3773E+06    -48.9245E+06    -222.837E+06    -48.9294E+06    -222.832E+06    -38.3773E+06     134.474E+03         29.0107
             577     2.83358E-03     41.3700E-03     429.403E-03     402.803E-03        -1.40809     415.028E-03        -1.40160     410.687E-03     87.3378E-03     114.348E-03    -57.0082E-03    -57.2732E-03    -57.0762E-03     114.341E-03    -57.1974E-03     2.10517E-03    -43.9881E+06    -52.0848E+06    -227.011E+06    -52.0883E+06    -227.007E+06    -43.9881E+06    -49.9621E+03         28.8119
             578     1.88971E-03     41.3681E-03     456.353E-03     401.748E-03        -1.43168     434.617E-03        -1.40994     401.748E-03    -99.8377E-03     114.335E-03    -57.0323E-03    -57.2863E-03    -57.1691E-03     114.333E-03    -57.1476E-03     1.10548E-03    -48.6663E+06    -56.4760E+06    -228.837E+06    -56.4818E+06    -228.831E+06    -48.6663E+06     316.234E+03         28.6366
             579     944.323E-06     41.3672E-03         1.14087    -276.615E-03        -1.44220         1.06422        -1.36555    -276.615E-03     373.881E-03     114.136E-03    -56.7257E-03    -57.3985E-03    -57.2824E-03     114.135E-03    -56.8410E-03     604.462E-06    -54.2967E+06    -61.2029E+06    -229.185E+06    -58.5528E+06    -229.167E+06    -56.9650E+06    -618.840E+03         28.4992
             580     16.0724E-03     40.7118E-03     417.432E-03     398.493E-03        -1.39359     410.010E-03        -1.39340     405.721E-03    -14.2398E-03     120.939E-03    -56.7771E-03    -64.2040E-03    -55.4505E-03     112.185E-03    -56.7771E-03     73.6334E-03     162.424E+06     125.266E+06    -6.15987E+06    -6.11415E+06     162.378E+06     125.266E+06    -311.999E+03         50.2499
             581     15.1271E-03     40.5971E-03     409.903E-03     395.855E-03        -1.38396     399.580E-03        -1.38386     406.082E-03    -2.42195E-03     124.088E-03    -56.7702E-03    -67.4326E-03    -54.7748E-03     111.430E-03    -56.7702E-03     94.9137E-03     157.211E+06     109.328E+06    -13.9768E+06    -13.9480E+06     157.182E+06     109.328E+06     439.328E+03         47.2189
             582     14.1797E-03     40.5078E-03     416.270E-03     402.878E-03        -1.39375     412.540E-03        -1.39356     406.426E-03    -8.03407E-03     119.002E-03    -56.6019E-03    -62.5018E-03    -53.8168E-03     110.317E-03    -56.6019E-03     77.0432E-03     144.837E+06     60.8727E+06    -21.5236E+06    -21.5216E+06     144.835E+06     60.8727E+06     245.117E+03         43.5372
             583     13.2318E-03     40.4314E-03     415.726E-03     402.819E-03        -1.39388     412.066E-03        -1.39369     406.293E-03    -1.67314E-03     115.720E-03    -56.4520E-03    -59.4522E-03    -54.7432E-03     111.011E-03    -56.4520E-03     55.2248E-03     125.359E+06     3.95404E+06    -26.8791E+06    -26.8743E+06     125.354E+06     3.95404E+06     39.1428E+03         40.0467
             584     12.2869E-03     40.3862E-03     409.833E-03     398.325E-03        -1.38769     401.506E-03        -1.38746     406.421E-03     11.5292E-03     113.757E-03    -56.5179E-03    -57.5201E-03    -55.6659E-03     111.903E-03    -56.5182E-03     34.5964E-03     61.1774E+06    -13.6885E+06    -29.1964E+06    -29.1899E+06     61.1708E+06    -13.6885E+06    -167.642E+03         37.2216
             585     11.3408E-03     40.3577E-03     407.003E-03     399.438E-03        -1.38830     399.196E-03        -1.38806     407.003E-03    -6.45004E-03     113.195E-03    -56.6005E-03    -56.7593E-03    -55.7793E-03     112.215E-03    -56.6008E-03     25.7073E-03    -2.05293E+06    -20.1498E+06    -44.7288E+06    -31.1445E+06    -25.6974E+06    -10.0896E+06    -428.499E+03         35.0661
             586     10.3955E-03     40.3312E-03     410.293E-03     402.627E-03        -1.39478     405.262E-03        -1.39460     407.481E-03     3.06427E-03     113.391E-03    -56.6206E-03    -56.7507E-03    -56.0007E-03     112.653E-03    -56.6332E-03     22.2127E-03    -13.0040E+06    -32.4076E+06    -83.8407E+06    -32.4202E+06    -83.8282E+06    -13.0040E+06    -214.487E+03         33.4651
             587     9.45038E-03     40.3099E-03     410.583E-03     402.912E-03        -1.39346     405.079E-03        -1.39282     407.771E-03     37.0087E-03     113.436E-03    -56.5876E-03    -56.7351E-03    -56.1588E-03     113.005E-03    -56.7337E-03     16.8327E-03    -13.4722E+06    -33.1832E+06    -125.314E+06    -33.1939E+06    -125.304E+06    -13.4722E+06    -375.499E+03         32.2759
             588     8.50476E-03     40.2953E-03     413.160E-03     403.601E-03        -1.39519     407.375E-03        -1.39380     407.992E-03    -24.5263E-03     113.527E-03    -56.6091E-03    -56.8738E-03    -56.3688E-03     113.280E-03    -56.8666E-03     12.9269E-03    -14.5624E+06    -35.2729E+06    -156.219E+06    -35.2867E+06    -156.205E+06    -14.5624E+06    -1.24897E+06         31.3750
             589     7.55977E-03     40.2824E-03     417.349E-03     404.844E-03        -1.40313     413.135E-03        -1.40180     407.726E-03    -15.8383E-03     113.618E-03    -56.6806E-03    -56.9571E-03    -56.5092E-03     113.439E-03    -56.9499E-03     10.9756E-03    -18.7254E+06    -38.1046E+06    -179.234E+06    -38.1193E+06    -179.219E+06    -18.7254E+06    -431.060E+03         30.6582
             590     6.61505E-03     40.2726E-03     418.749E-03     404.428E-03        -1.40551     415.578E-03        -1.40470     406.793E-03     12.4355E-03     113.629E-03    -56.5607E-03    -57.0226E-03    -56.4468E-03     113.516E-03    -57.0226E-03     8.69473E-03    -21.4437E+06    -41.5452E+06    -197.372E+06    -41.5538E+06    -197.364E+06    -21.4437E+06     78.0216E+03         30.0809
             591     5.66892E-03     40.2636E-03     413.936E-03     403.981E-03        -1.40227     411.853E-03        -1.40190     405.694E-03    -15.3964E-03     113.679E-03    -56.5238E-03    -57.1074E-03    -56.4604E-03     113.615E-03    -57.1074E-03     6.49001E-03    -24.8292E+06    -45.0661E+06    -211.656E+06    -45.0788E+06    -211.644E+06    -24.8292E+06    -402.504E+03         29.6222
             592     4.72341E-03     40.2582E-03     408.414E-03     396.591E-03        -1.39153     398.917E-03        -1.39136     405.925E-03     29.4960E-03     113.974E-03    -56.7733E-03    -57.1925E-03    -56.7807E-03     113.941E-03    -57.1517E-03     4.63730E-03    -32.0216E+06    -47.1784E+06    -218.195E+06    -47.1902E+06    -218.183E+06    -32.0216E+06     325.314E+03         29.2686
             593     3.77924E-03     40.2537E-03     410.580E-03     391.842E-03        -1.38736     391.376E-03        -1.38514     408.831E-03    -67.6475E-03     114.237E-03    -56.9948E-03    -57.1904E-03    -57.0623E-03     114.221E-03    -57.1063E-03     3.32738E-03    -38.0247E+06    -49.5462E+06    -222.232E+06    -49.5519E+06    -222.226E+06    -38.0247E+06     781.653E+03         29.0085
             594     2.83510E-03     40.2499E-03     422.967E-03     393.826E-03        -1.39935     394.790E-03        -1.39162     414.266E-03     56.2189E-03     114.175E-03    -57.0213E-03    -57.0971E-03    -57.0585E-03     114.167E-03    -57.0517E-03     2.18666E-03    -43.1711E+06    -52.7201E+06    -226.662E+06    -52.7247E+06    -226.658E+06    -43.1711E+06     223.904E+03         28.8034
             595     1.88962E-03     40.2485E-03     449.017E-03     407.792E-03        -1.43652     409.075E-03        -1.40913     420.341E-03    -144.763E-03     113.973E-03    -56.8572E-03    -57.0721E-03    -56.9246E-03     113.972E-03    -57.0029E-03     914.511E-06    -48.2076E+06    -55.8933E+06    -228.037E+06    -55.9149E+06    -228.016E+06    -48.2076E+06    -672.148E+03         28.6254
             596     944.793E-06     40.2478E-03         1.13328    -195.560E-03        -1.51992         1.04202        -1.42866    -195.560E-03     384.048E-03     113.886E-03    -56.6268E-03    -57.2312E-03    -56.9584E-03     113.885E-03    -56.8992E-03     482.311E-06    -52.6567E+06    -62.4888E+06    -229.739E+06    -59.8627E+06    -229.697E+06    -55.3251E+06    -772.454E+03         28.4880
             597     16.0717E-03     39.5889E-03     416.747E-03     390.434E-03        -1.38522     398.291E-03        -1.38513     408.802E-03     4.48261E-03     119.749E-03    -56.8381E-03    -62.9764E-03    -54.4895E-03     111.262E-03    -56.8381E-03     72.6765E-03     161.337E+06     123.457E+06    -7.89609E+06    -7.88173E+06     161.323E+06     123.457E+06    -253.261E+03         50.2374
             598     15.1250E-03     39.4798E-03     409.745E-03     398.390E-03        -1.38898     398.357E-03        -1.38895     409.745E-03    -7.11683E-03     123.402E-03    -56.8379E-03    -66.6377E-03    -54.6857E-03     111.449E-03    -56.8379E-03     91.9764E-03     156.843E+06     108.747E+06    -14.9800E+06    -14.9628E+06     156.826E+06     108.747E+06    -551.581E+03         47.2096
             599     14.1779E-03     39.3881E-03     418.149E-03     405.288E-03        -1.40385     413.149E-03        -1.40384     410.278E-03    -6.42590E-03     119.921E-03    -56.6490E-03    -63.3324E-03    -55.0757E-03     111.664E-03    -56.6490E-03     75.6220E-03     146.272E+06     63.4247E+06    -21.3229E+06    -21.3119E+06     146.261E+06     63.4247E+06     408.304E+03         43.5332
             600     13.2335E-03     39.3127E-03     424.353E-03     409.877E-03        -1.41328     424.286E-03        -1.41321     409.877E-03     8.73021E-03     115.832E-03    -56.4627E-03    -59.5512E-03    -54.9831E-03     111.264E-03    -56.4627E-03     54.5501E-03     126.236E+06     6.23343E+06    -25.5136E+06    -25.5053E+06     126.228E+06     6.23343E+06     734.011E+03         40.0465
             601     12.2864E-03     39.2663E-03     416.540E-03     405.376E-03        -1.40454     412.245E-03        -1.40428     409.410E-03     8.29754E-03     113.216E-03    -56.5098E-03    -56.9729E-03    -55.1507E-03     111.397E-03    -56.5127E-03     34.1660E-03     60.8713E+06    -12.7870E+06    -27.8424E+06    -27.8332E+06     60.8620E+06    -12.7870E+06     162.361E+03         37.2227
             602     11.3414E-03     39.2382E-03     410.238E-03     402.088E-03        -1.39755     402.334E-03        -1.39727     409.713E-03    -22.1813E-03     113.222E-03    -56.5787E-03    -56.7818E-03    -55.8239E-03     112.267E-03    -56.5816E-03     25.3776E-03    -1.38261E+06    -17.9015E+06    -43.6378E+06    -28.9078E+06    -25.2843E+06    -8.72979E+06    -538.837E+03         35.0680
             603     10.3958E-03     39.2115E-03     410.724E-03     397.279E-03        -1.39235     397.068E-03        -1.39214     410.724E-03    -8.10074E-03     113.418E-03    -56.5789E-03    -56.7743E-03    -56.0216E-03     112.701E-03    -56.6151E-03     21.9241E-03    -12.5844E+06    -29.7967E+06    -83.9783E+06    -29.8391E+06    -83.9359E+06    -12.5844E+06    -1.20266E+06         33.4662
             604     9.45019E-03     39.1907E-03     415.916E-03     400.079E-03        -1.39892     403.927E-03        -1.39867     411.816E-03     22.7918E-03     113.469E-03    -56.6100E-03    -56.7339E-03    -56.1829E-03     113.041E-03    -56.7324E-03     16.8002E-03    -12.3574E+06    -31.4929E+06    -124.788E+06    -31.5072E+06    -124.774E+06    -12.3574E+06    -1.05038E+06         32.2764
             605     8.50534E-03     39.1757E-03     424.431E-03     409.835E-03        -1.41707     421.651E-03        -1.41617     411.718E-03    -38.7142E-03     113.476E-03    -56.5315E-03    -56.8929E-03    -56.2917E-03     113.236E-03    -56.8929E-03     12.7038E-03    -10.2580E+06    -34.7125E+06    -157.225E+06    -34.7444E+06    -157.193E+06    -10.2580E+06     92.6533E+03         31.3767
             606     7.55933E-03     39.1636E-03     423.655E-03     409.631E-03        -1.41939     421.472E-03        -1.41810     410.519E-03    -11.2835E-03     113.524E-03    -56.5371E-03    -57.0014E-03    -56.3613E-03     113.348E-03    -57.0014E-03     10.9086E-03    -16.2457E+06    -38.8408E+06    -180.164E+06    -38.8754E+06    -180.130E+06    -16.2457E+06     652.409E+03         30.6604
             607     6.61401E-03     39.1521E-03     414.766E-03     400.869E-03        -1.40477     404.865E-03        -1.40424     410.243E-03     35.9515E-03     113.826E-03    -56.7507E-03    -57.0775E-03    -56.6671E-03     113.708E-03    -57.0428E-03     8.85947E-03    -20.2057E+06    -41.7817E+06    -196.255E+06    -41.7891E+06    -196.247E+06    -20.2057E+06     423.771E+03         30.0817
             608     5.66986E-03     39.1456E-03     412.560E-03     397.043E-03        -1.40297     397.765E-03        -1.40295     411.820E-03    -2.08774E-03     113.902E-03    -56.7937E-03    -57.1118E-03    -56.7764E-03     113.841E-03    -57.0678E-03     6.37505E-03    -22.2177E+06    -45.3304E+06    -211.465E+06    -45.3371E+06    -211.458E+06    -22.2177E+06    -30.7296E+03         29.6192
             609     4.72460E-03     39.1380E-03     421.497E-03     406.509E-03        -1.42178     414.997E-03        -1.42158     412.800E-03     27.0354E-03     113.866E-03    -56.7451E-03    -57.1280E-03    -56.7618E-03     113.833E-03    -57.0780E-03     4.68325E-03    -32.6339E+06    -49.6292E+06    -218.864E+06    -49.6397E+06    -218.854E+06    -32.6339E+06    -747.604E+03         29.2596
             610     3.77973E-03     39.1337E-03     420.774E-03     405.460E-03        -1.41599     411.150E-03        -1.41372     412.817E-03    -61.7623E-03     113.985E-03    -56.8453E-03    -57.0912E-03    -56.8737E-03     113.965E-03    -57.0427E-03     3.64911E-03    -39.9291E+06    -51.8098E+06    -222.336E+06    -51.8171E+06    -222.328E+06    -39.9291E+06    -139.018E+03         28.9932
             611     2.83436E-03     39.1305E-03     418.714E-03     392.515E-03        -1.39584     384.684E-03        -1.38801     418.714E-03     57.1734E-03     114.033E-03    -56.9407E-03    -57.0172E-03    -56.9409E-03     114.023E-03    -57.0066E-03     2.56397E-03    -43.4652E+06    -53.2953E+06    -225.560E+06    -53.3085E+06    -225.547E+06    -43.4652E+06    -253.525E+03         28.7870
             612     1.88999E-03     39.1286E-03     446.134E-03     413.857E-03        -1.44165     399.465E-03        -1.41382     432.699E-03    -148.645E-03     113.962E-03    -56.8743E-03    -57.0231E-03    -56.9411E-03     113.959E-03    -56.9532E-03     1.27236E-03    -49.0726E+06    -56.1463E+06    -228.596E+06    -56.1742E+06    -228.568E+06    -49.0726E+06    -1.36587E+06         28.6170
             613     945.495E-06     39.1280E-03         1.12235    -135.815E-03        -1.57273         1.01726        -1.46764    -135.815E-03     445.202E-03     113.767E-03    -56.5946E-03    -57.1525E-03    -56.6583E-03     113.764E-03    -57.0854E-03     1.16184E-03    -52.4108E+06    -62.1920E+06    -230.381E+06    -58.8404E+06    -230.344E+06    -55.8000E+06    -1.01933E+06         28.4880
             614     16.0733E-03     38.4703E-03     416.290E-03     393.516E-03        -1.39224     397.241E-03        -1.39185     412.178E-03    -31.0388E-03     119.630E-03    -56.8360E-03    -62.8268E-03    -54.4355E-03     111.239E-03    -56.8360E-03     72.0139E-03     161.904E+06     124.098E+06    -7.65591E+06    -7.65234E+06     161.900E+06     124.098E+06    -94.7637E+03         50.2243
             615     15.1253E-03     38.3618E-03     421.492E-03     410.001E-03        -1.41539     418.753E-03        -1.41531     412.664E-03     3.76178E-03     123.545E-03    -56.8249E-03    -66.7696E-03    -54.8712E-03     111.647E-03    -56.8249E-03     91.8358E-03     156.446E+06     108.222E+06    -15.9497E+06    -15.9419E+06     156.438E+06     108.222E+06    -124.084E+03         47.1994
             616     14.1807E-03     38.2663E-03     419.261E-03     404.834E-03        -1.41078     411.345E-03        -1.41073     412.697E-03     5.26216E-03     120.120E-03    -56.6338E-03    -63.5240E-03    -55.3251E-03     111.922E-03    -56.6338E-03     75.4651E-03     145.944E+06     64.5336E+06    -22.2699E+06    -22.2555E+06     145.929E+06     64.5336E+06    -176.896E+03         43.5285
             617     13.2343E-03     38.1944E-03     418.211E-03     400.196E-03        -1.40606     405.093E-03        -1.40592     413.168E-03     15.5926E-03     115.748E-03    -56.4407E-03    -59.4912E-03    -54.9348E-03     111.191E-03    -56.4407E-03     54.5447E-03     126.490E+06     8.42333E+06    -24.5601E+06    -24.5500E+06     126.480E+06     8.42333E+06    -154.788E+03         40.0452
             618     12.2875E-03     38.1482E-03     420.551E-03     406.528E-03        -1.41708     413.104E-03        -1.41674     413.629E-03    -6.74507E-03     113.192E-03    -56.4203E-03    -57.0412E-03    -55.1254E-03     111.327E-03    -56.4716E-03     34.5953E-03     61.0167E+06    -12.1851E+06    -25.0483E+06    -24.9824E+06     60.9508E+06    -12.1851E+06    -720.934E+03         37.2219
             619     11.3410E-03     38.1178E-03     420.143E-03     410.479E-03        -1.42171     416.716E-03        -1.42146     413.658E-03    -27.9072E-03     113.049E-03    -56.5049E-03    -56.6727E-03    -55.6743E-03     112.102E-03    -56.5562E-03     25.2168E-03     1.33717E+06    -17.1537E+06    -42.3300E+06    -26.4251E+06    -25.3719E+06    -6.34956E+06    -201.884E+03         35.0664
             620     10.3959E-03     38.0929E-03     418.893E-03     403.305E-03        -1.41210     408.160E-03        -1.41194     413.875E-03     16.9576E-03     113.326E-03    -56.5487E-03    -56.7225E-03    -55.9731E-03     112.634E-03    -56.6060E-03     21.5564E-03    -9.80699E+06    -30.0174E+06    -83.1121E+06    -30.1324E+06    -82.9971E+06    -9.80699E+06     232.966E+03         33.4615
             621     9.45053E-03     38.0709E-03     420.693E-03     404.940E-03        -1.41224     411.056E-03        -1.41199     414.331E-03     35.7141E-03     113.219E-03    -56.4165E-03    -56.7260E-03    -55.9905E-03     112.793E-03    -56.7260E-03     16.7394E-03    -12.7863E+06    -33.9451E+06    -125.600E+06    -33.9613E+06    -125.584E+06    -12.7863E+06    -396.957E+03         32.2712
             622     8.50490E-03     38.0565E-03     421.992E-03     408.739E-03        -1.41684     415.578E-03        -1.41614     414.447E-03    -28.3071E-03     113.411E-03    -56.4670E-03    -56.9085E-03    -56.2232E-03     113.167E-03    -56.9085E-03     12.8101E-03    -10.7957E+06    -36.3895E+06    -159.009E+06    -36.4185E+06    -158.980E+06    -10.7957E+06     305.825E+03         31.3763
             623     7.55999E-03     38.0442E-03     422.617E-03     403.770E-03        -1.41484     410.991E-03        -1.41409     414.650E-03    -22.9559E-03     113.745E-03    -56.6538E-03    -57.0275E-03    -56.4790E-03     113.570E-03    -57.0275E-03     10.8679E-03    -12.3975E+06    -38.3909E+06    -179.191E+06    -38.4302E+06    -179.151E+06    -12.3975E+06     998.952E+03         30.6625
             624     6.61444E-03     38.0329E-03     420.299E-03     399.829E-03        -1.41337     404.114E-03        -1.41314     415.776E-03     8.73453E-03     113.854E-03    -56.7235E-03    -57.0856E-03    -56.6461E-03     113.742E-03    -57.0509E-03     8.63273E-03    -18.5723E+06    -41.4618E+06    -195.634E+06    -41.4804E+06    -195.615E+06    -18.5723E+06     144.035E+03         30.0824
             625     5.66937E-03     38.0243E-03     417.976E-03     402.705E-03        -1.41713     402.327E-03        -1.41675     417.976E-03    -38.0423E-03     113.925E-03    -56.8344E-03    -57.0962E-03    -56.8159E-03     113.863E-03    -57.0523E-03     6.48638E-03    -23.1651E+06    -44.2981E+06    -211.228E+06    -44.3089E+06    -211.217E+06    -23.1651E+06    -542.953E+03         29.6179
             626     4.72503E-03     38.0198E-03     427.840E-03     412.657E-03        -1.43477     420.812E-03        -1.43424     419.154E-03     3.43378E-03     113.840E-03    -56.7901E-03    -57.0638E-03    -56.7596E-03     113.801E-03    -57.0546E-03     5.17900E-03    -28.9195E+06    -47.4998E+06    -218.342E+06    -47.5110E+06    -218.331E+06    -28.9195E+06    -570.844E+03         29.2533
             627     3.77923E-03     38.0140E-03     435.710E-03     413.120E-03        -1.44137     430.506E-03        -1.44041     417.364E-03    -17.2737E-03     113.784E-03    -56.7145E-03    -57.0361E-03    -56.6913E-03     113.761E-03    -57.0361E-03     3.90645E-03    -39.5285E+06    -51.3164E+06    -223.121E+06    -51.3294E+06    -223.108E+06    -39.5285E+06    -827.991E+03         28.9804
             628     2.83477E-03     38.0107E-03     436.059E-03     404.655E-03        -1.42791     418.354E-03        -1.42075     415.192E-03     107.909E-03     113.902E-03    -56.8154E-03    -57.0410E-03    -56.8078E-03     113.891E-03    -57.0382E-03     2.61555E-03    -46.0733E+06    -53.3447E+06    -225.887E+06    -53.3629E+06    -225.869E+06    -46.0733E+06    -1.11409E+06         28.7720
             629     1.88963E-03     38.0089E-03     455.591E-03     407.195E-03        -1.44065     418.111E-03        -1.40946     413.488E-03    -152.499E-03     113.963E-03    -56.8772E-03    -57.0624E-03    -56.8764E-03     113.960E-03    -57.0596E-03     1.35931E-03    -49.4264E+06    -55.7083E+06    -228.301E+06    -55.7249E+06    -228.284E+06    -49.4264E+06    -1.01170E+06         28.6074
             630     944.090E-06     38.0093E-03         1.08307    -139.279E-03        -1.52448     963.962E-03        -1.40537    -139.279E-03     458.194E-03     114.037E-03    -56.6080E-03    -57.4362E-03    -57.0564E-03     114.034E-03    -56.9846E-03     1.05479E-03    -54.6789E+06    -61.7623E+06    -231.464E+06    -58.4251E+06    -231.412E+06    -58.0681E+06    -46.4075E+03         28.4872
             631     16.0722E-03     37.3553E-03     435.355E-03     409.431E-03        -1.44090     428.955E-03        -1.44049     415.418E-03    -31.9208E-03     119.987E-03    -56.7901E-03    -63.2132E-03    -54.5850E-03     111.383E-03    -56.8148E-03     72.4869E-03     161.980E+06     123.864E+06    -7.96903E+06    -7.96353E+06     161.975E+06     123.864E+06    -4.83474E+03         50.2103
             632     15.1262E-03     37.2393E-03     426.176E-03     413.727E-03        -1.43220     424.928E-03        -1.43210     414.877E-03     11.1112E-03     124.008E-03    -56.8159E-03    -67.2762E-03    -54.9687E-03     111.701E-03    -56.8159E-03     93.5233E-03     156.542E+06     108.536E+06    -15.8717E+06    -15.8606E+06     156.531E+06     108.536E+06    -80.5831E+03         47.1871
             633     14.1795E-03     37.1489E-03     419.715E-03     403.094E-03        -1.41794     407.750E-03        -1.41788     414.999E-03     14.5519E-03     120.001E-03    -56.6239E-03    -63.4772E-03    -55.1198E-03     111.644E-03    -56.6239E-03     76.1374E-03     145.645E+06     63.7693E+06    -22.4084E+06    -22.3977E+06     145.634E+06     63.7693E+06    -710.288E+03         43.5201
             634     13.2326E-03     37.0743E-03     416.214E-03     394.407E-03        -1.40816     394.251E-03        -1.40800     416.214E-03     9.17612E-03     116.100E-03    -56.4174E-03    -59.8963E-03    -55.3173E-03     111.521E-03    -56.4174E-03     54.5771E-03     127.395E+06     8.48233E+06    -26.0341E+06    -26.0185E+06     127.379E+06     8.48233E+06    -1.11838E+06         40.0407
             635     12.2880E-03     37.0293E-03     420.766E-03     403.443E-03        -1.42117     406.402E-03        -1.42092     417.563E-03    -10.4711E-03     113.418E-03    -56.3878E-03    -57.3231E-03    -55.4614E-03     111.605E-03    -56.4361E-03     34.2870E-03     61.0850E+06    -12.0021E+06    -28.0282E+06    -27.9448E+06     61.0016E+06    -12.0021E+06    -1.08643E+06         37.2191
             636     11.3422E-03     36.9992E-03     427.081E-03     414.770E-03        -1.43556     423.877E-03        -1.43542     417.838E-03    -19.3152E-03     112.852E-03    -56.4071E-03    -56.5766E-03    -55.4961E-03     111.895E-03    -56.5308E-03     25.3087E-03     662.617E+03    -19.3703E+06    -45.0275E+06    -29.8370E+06    -27.3592E+06    -6.53896E+06     246.267E+03         35.0631
             637     10.3963E-03     36.9729E-03     425.627E-03     416.903E-03        -1.43487     425.121E-03        -1.43478     417.326E-03     10.4436E-03     113.086E-03    -56.4207E-03    -56.6016E-03    -55.7470E-03     112.392E-03    -56.5817E-03     21.5509E-03    -8.86947E+06    -31.3537E+06    -82.0801E+06    -31.4340E+06    -81.9998E+06    -8.86947E+06     931.406E+03         33.4572
             638     9.45069E-03     36.9523E-03     419.800E-03     405.943E-03        -1.41767     408.054E-03        -1.41752     417.539E-03     897.015E-06     113.132E-03    -56.3339E-03    -56.7385E-03    -55.9122E-03     112.710E-03    -56.7385E-03     16.6048E-03    -10.7600E+06    -32.9009E+06    -125.378E+06    -32.9102E+06    -125.368E+06    -10.7600E+06     568.355E+03         32.2675
             639     8.50468E-03     36.9374E-03     419.190E-03     401.106E-03        -1.40934     399.692E-03        -1.40793     419.190E-03    -76.4271E-03     113.404E-03    -56.4778E-03    -56.9339E-03    -56.2339E-03     113.160E-03    -56.9339E-03     12.8379E-03    -9.14916E+06    -35.8361E+06    -159.821E+06    -35.8454E+06    -159.811E+06    -9.14916E+06     295.804E+03         31.3740
             640     7.55955E-03     36.9242E-03     421.424E-03     405.899E-03        -1.41833     404.498E-03        -1.41693     421.424E-03    -47.4298E-03     113.825E-03    -56.8118E-03    -56.9761E-03    -56.6352E-03     113.649E-03    -56.9761E-03     10.9026E-03    -12.5248E+06    -39.3179E+06    -178.359E+06    -39.3540E+06    -178.323E+06    -12.5248E+06    -161.886E+03         30.6611
             641     6.61535E-03     36.9136E-03     423.309E-03     412.906E-03        -1.43496     412.739E-03        -1.43479     423.309E-03     9.69227E-03     113.714E-03    -56.6953E-03    -56.9967E-03    -56.5846E-03     113.603E-03    -56.9967E-03     8.61691E-03    -19.0743E+06    -41.5238E+06    -195.098E+06    -41.5592E+06    -195.062E+06    -19.0743E+06    -531.087E+03         30.0804
             642     5.66971E-03     36.9057E-03     426.192E-03     422.142E-03        -1.44664     423.767E-03        -1.44621     424.136E-03    -22.2955E-03     113.622E-03    -56.5969E-03    -57.0480E-03    -56.5302E-03     113.555E-03    -57.0480E-03     6.67391E-03    -25.5306E+06    -44.2208E+06    -210.876E+06    -44.2306E+06    -210.866E+06    -25.5306E+06    -899.638E+03         29.6151
             643     4.72410E-03     36.8992E-03     428.808E-03     419.305E-03        -1.43955     423.421E-03        -1.43913     424.275E-03     1.07202E-03     113.857E-03    -56.8462E-03    -57.0716E-03    -56.8085E-03     113.819E-03    -57.0716E-03     5.00300E-03    -30.4874E+06    -47.5039E+06    -218.875E+06    -47.5120E+06    -218.867E+06    -30.4874E+06    -664.431E+03         29.2536
             644     3.78013E-03     36.8956E-03     445.819E-03     417.368E-03        -1.44589     440.117E-03        -1.44495     422.132E-03    -34.4681E-03     113.837E-03    -56.8372E-03    -57.0416E-03    -56.8155E-03     113.816E-03    -57.0416E-03     3.82149E-03    -38.6599E+06    -51.1655E+06    -222.808E+06    -51.1781E+06    -222.795E+06    -38.6599E+06    -336.454E+03         28.9836
             645     2.83422E-03     36.8916E-03     465.913E-03     412.092E-03        -1.45555     458.959E-03        -1.44859     412.092E-03     100.371E-03     113.763E-03    -56.7472E-03    -57.0180E-03    -56.7360E-03     113.752E-03    -57.0180E-03     2.60502E-03    -49.1218E+06    -55.3879E+06    -226.440E+06    -55.4051E+06    -226.423E+06    -49.1218E+06    -657.255E+03         28.7702
             646     1.88928E-03     36.8898E-03     468.125E-03     393.678E-03        -1.44644     436.132E-03        -1.41445     393.678E-03    -160.397E-03     113.948E-03    -56.8711E-03    -57.0920E-03    -56.9315E-03     113.946E-03    -57.0291E-03     958.510E-06    -53.4255E+06    -58.0903E+06    -229.142E+06    -58.1187E+06    -229.113E+06    -53.4255E+06    -120.958E+03         28.5962
             647     945.254E-06     36.8883E-03         1.04512    -139.386E-03        -1.49156     906.516E-03        -1.35295    -139.386E-03     502.634E-03     113.935E-03    -56.4846E-03    -57.4682E-03    -57.4215E-03     113.932E-03    -56.5276E-03     921.565E-06    -58.0429E+06    -63.0933E+06    -230.892E+06    -63.1484E+06    -230.836E+06    -58.0429E+06     1.28153E+06         28.4728
             648     16.0721E-03     36.2335E-03     433.879E-03     412.165E-03        -1.45004     427.793E-03        -1.44984     418.054E-03    -2.07011E-03     120.195E-03    -56.8017E-03    -63.4400E-03    -54.8965E-03     111.677E-03    -56.8264E-03     72.7608E-03     162.216E+06     123.741E+06    -7.82029E+06    -7.79613E+06     162.192E+06     123.741E+06    -90.0604E+03         50.2003
             649     15.1255E-03     36.1217E-03     420.757E-03     409.675E-03        -1.43031     411.933E-03        -1.43010     418.286E-03    -17.2166E-03     123.848E-03    -56.8210E-03    -67.1267E-03    -55.1927E-03     111.914E-03    -56.8210E-03     92.0936E-03     157.313E+06     110.472E+06    -14.7285E+06    -14.7049E+06     157.289E+06     110.472E+06    -801.277E+03         47.1822
             650     14.1786E-03     36.0287E-03     420.938E-03     409.069E-03        -1.42846     410.719E-03        -1.42836     419.187E-03    -8.59310E-03     119.725E-03    -56.6104E-03    -63.2110E-03    -55.1367E-03     111.650E-03    -56.6104E-03     74.7717E-03     145.598E+06     64.4481E+06    -21.4220E+06    -21.4142E+06     145.591E+06     64.4481E+06    -717.227E+03         43.5170
             651     13.2350E-03     35.9542E-03     422.476E-03     411.201E-03        -1.43345     413.591E-03        -1.43340     420.036E-03    -12.1368E-03     115.925E-03    -56.3882E-03    -59.7355E-03    -55.3036E-03     111.493E-03    -56.3882E-03     53.6946E-03     127.061E+06     8.12903E+06    -26.7645E+06    -26.7344E+06     127.031E+06     8.12903E+06    -155.197E+03         40.0378
             652     12.2883E-03     35.9101E-03     421.504E-03     410.833E-03        -1.43251     411.441E-03        -1.43243     420.815E-03    -23.9196E-03     113.245E-03    -56.3240E-03    -57.1570E-03    -55.2743E-03     111.455E-03    -56.4167E-03     34.1252E-03     60.2023E+06    -11.5998E+06    -30.2218E+06    -30.1765E+06     60.1571E+06    -11.5998E+06     689.494E+03         37.2165
             653     11.3426E-03     35.8801E-03     424.778E-03     413.067E-03        -1.43570     416.242E-03        -1.43560     421.497E-03    -27.3553E-03     112.795E-03    -56.3398E-03    -56.5569E-03    -55.3777E-03     111.784E-03    -56.5078E-03     26.0317E-03    -2.16391E+06    -20.9822E+06    -45.6054E+06    -32.8257E+06    -27.3713E+06    -8.55455E+06    -31.6440E+03         35.0610
             654     10.3964E-03     35.8549E-03     425.136E-03     417.965E-03        -1.44046     420.794E-03        -1.44001     421.854E-03     17.8419E-03     113.063E-03    -56.3895E-03    -56.5936E-03    -55.6746E-03     112.325E-03    -56.5704E-03     22.1902E-03    -10.9974E+06    -34.0041E+06    -81.9050E+06    -34.0386E+06    -81.8705E+06    -10.9974E+06    -701.713E+03         33.4574
             655     9.45060E-03     35.8327E-03     422.597E-03     411.063E-03        -1.42986     410.370E-03        -1.42917     422.597E-03     39.3176E-03     113.251E-03    -56.4801E-03    -56.7339E-03    -56.0514E-03     112.822E-03    -56.7339E-03     16.7435E-03    -11.8745E+06    -35.8666E+06    -125.886E+06    -35.8736E+06    -125.879E+06    -11.8745E+06     470.575E+03         32.2683
             656     8.50592E-03     35.8185E-03     424.074E-03     410.827E-03        -1.42967     409.429E-03        -1.42827     424.073E-03    -48.6832E-03     113.397E-03    -56.5848E-03    -56.8841E-03    -56.3313E-03     113.144E-03    -56.8841E-03     13.0966E-03    -11.7038E+06    -37.8010E+06    -158.442E+06    -37.8278E+06    -158.415E+06    -11.7038E+06     154.319E+03         31.3720
             657     7.56050E-03     35.8040E-03     428.945E-03     420.422E-03        -1.44774     422.376E-03        -1.44581     425.067E-03    -5.31868E-03     113.522E-03    -56.6089E-03    -56.9017E-03    -56.4233E-03     113.337E-03    -56.9017E-03     11.1313E-03    -15.9615E+06    -38.8964E+06    -177.538E+06    -38.9407E+06    -177.494E+06    -15.9615E+06    -1.66402E+06         30.6571
             658     6.61475E-03     35.7943E-03     430.125E-03     423.558E-03        -1.45522     427.819E-03        -1.45438     425.022E-03     48.5018E-03     113.661E-03    -56.6663E-03    -56.9447E-03    -56.5651E-03     113.555E-03    -56.9392E-03     8.40035E-03    -19.6370E+06    -41.5809E+06    -196.263E+06    -41.6059E+06    -196.239E+06    -19.6370E+06    -1.34329E+06         30.0760
             659     5.66968E-03     35.7868E-03     428.306E-03     419.263E-03        -1.44784     422.372E-03        -1.44767     425.024E-03     23.5564E-03     113.670E-03    -56.6520E-03    -57.0035E-03    -56.5934E-03     113.606E-03    -56.9981E-03     6.55711E-03    -25.6720E+06    -45.3718E+06    -210.534E+06    -45.3852E+06    -210.520E+06    -25.6720E+06     490.231E+03         29.6106
             660     4.72487E-03     35.7794E-03     428.636E-03     411.265E-03        -1.43700     413.132E-03        -1.43681     426.580E-03     30.7291E-03     113.684E-03    -56.6973E-03    -57.0228E-03    -56.6590E-03     113.645E-03    -57.0228E-03     5.00353E-03    -34.8759E+06    -49.8100E+06    -219.237E+06    -49.8245E+06    -219.222E+06    -34.8759E+06     223.469E+03         29.2516
             661     3.77923E-03     35.7755E-03     439.816E-03     415.258E-03        -1.44802     425.596E-03        -1.44681     428.266E-03    -59.4242E-03     113.841E-03    -56.8389E-03    -57.0594E-03    -56.8699E-03     113.822E-03    -57.0090E-03     3.59458E-03    -42.0115E+06    -53.9661E+06    -223.040E+06    -53.9713E+06    -223.035E+06    -42.0115E+06    -200.014E+03         28.9873
             662     2.83498E-03     35.7725E-03     464.765E-03     419.863E-03        -1.47735     455.298E-03        -1.47131     423.293E-03     71.3217E-03     113.818E-03    -56.7991E-03    -57.0014E-03    -56.8391E-03     113.808E-03    -56.9510E-03     2.51561E-03    -49.2714E+06    -56.8167E+06    -226.252E+06    -56.8547E+06    -226.214E+06    -49.2714E+06     708.338E+03         28.7755
             663     1.89021E-03     35.7695E-03     476.423E-03     408.041E-03        -1.48274     447.907E-03        -1.45422     408.041E-03    -162.806E-03     113.819E-03    -56.7986E-03    -56.9788E-03    -56.8577E-03     113.815E-03    -56.9160E-03     1.36667E-03    -54.6705E+06    -60.5902E+06    -230.512E+06    -60.6453E+06    -230.457E+06    -54.6705E+06     875.084E+03         28.5944
             664     944.923E-06     35.7691E-03         1.00747    -70.5889E-03        -1.52911     867.150E-03        -1.38879    -70.5889E-03     520.682E-03     113.749E-03    -56.4904E-03    -57.2597E-03    -56.9746E-03     113.744E-03    -56.7707E-03     1.34449E-03    -57.4322E+06    -64.4257E+06    -229.606E+06    -62.1100E+06    -229.577E+06    -59.7769E+06    -446.412E+03         28.4618
             665     16.0721E-03     35.1124E-03     420.566E-03     391.361E-03        -1.41200     391.159E-03        -1.41180     420.566E-03     5.17267E-03     120.221E-03    -56.8057E-03    -63.4554E-03    -55.0379E-03     111.804E-03    -56.8057E-03     72.7060E-03     163.325E+06     124.895E+06    -6.95796E+06    -6.92479E+06     163.291E+06     124.895E+06    -302.406E+03         50.1948
             666     15.1276E-03     35.0022E-03     422.254E-03     404.302E-03        -1.42855     403.814E-03        -1.42806     422.254E-03    -2.29561E-03     123.925E-03    -56.7956E-03    -67.2082E-03    -55.2361E-03     111.953E-03    -56.7956E-03     92.3611E-03     157.275E+06     110.254E+06    -15.2786E+06    -15.2531E+06     157.249E+06     110.254E+06    -628.252E+03         47.1830
             667     14.1825E-03     34.9091E-03     425.005E-03     416.585E-03        -1.44450     417.893E-03        -1.44405     423.254E-03     18.6448E-03     120.051E-03    -56.5982E-03    -63.5310E-03    -55.1350E-03     111.655E-03    -56.5982E-03     76.2822E-03     144.985E+06     65.0924E+06    -22.2437E+06    -22.2336E+06     144.975E+06     65.0924E+06    -310.895E+03         43.5173
             668     13.2338E-03     34.8352E-03     427.014E-03     423.054E-03        -1.45256     426.466E-03        -1.45244     423.489E-03     11.2277E-03     115.659E-03    -56.3951E-03    -59.4415E-03    -54.8455E-03     111.063E-03    -56.3951E-03     54.6327E-03     125.693E+06     10.6951E+06    -26.2388E+06    -26.2149E+06     125.669E+06     10.6951E+06     605.683E+03         40.0351
             669     12.2883E-03     34.7908E-03     427.326E-03     420.481E-03        -1.45337     424.300E-03        -1.45331     423.444E-03    -170.742E-06     113.160E-03    -56.3368E-03    -57.0478E-03    -55.0907E-03     111.296E-03    -56.4295E-03     34.7243E-03     59.3765E+06    -9.10600E+06    -27.6407E+06    -27.5876E+06     59.3234E+06    -9.10600E+06     1.24017E+06         37.2138
             670     11.3416E-03     34.7620E-03     426.091E-03     418.214E-03        -1.45022     420.642E-03        -1.45013     423.574E-03    -4.31601E-03     113.054E-03    -56.4318E-03    -56.7346E-03    -55.6144E-03     112.026E-03    -56.5245E-03     26.2851E-03    -269.978E+03    -18.6295E+06    -42.2069E+06    -29.6111E+06    -25.2249E+06    -6.27032E+06     837.108E+03         35.0616
             671     10.3963E-03     34.7348E-03     429.129E-03     420.198E-03        -1.45420     424.402E-03        -1.45294     423.664E-03     64.9090E-03     113.371E-03    -56.5354E-03    -56.7483E-03    -55.9749E-03     112.638E-03    -56.5763E-03     22.0969E-03    -9.86395E+06    -33.4845E+06    -81.6455E+06    -33.5671E+06    -81.5628E+06    -9.86395E+06    -185.392E+03         33.4612
             672     9.45115E-03     34.7140E-03     435.262E-03     421.245E-03        -1.45864     431.504E-03        -1.45683     423.184E-03     113.784E-03     113.305E-03    -56.5219E-03    -56.7315E-03    -56.1460E-03     112.888E-03    -56.6904E-03     16.5811E-03    -13.2876E+06    -35.5339E+06    -126.310E+06    -35.5632E+06    -126.281E+06    -13.2876E+06    -869.421E+03         32.2707
             673     8.50528E-03     34.6982E-03     429.688E-03     417.783E-03        -1.44804     423.565E-03        -1.44680     422.664E-03     5.80125E-03     113.313E-03    -56.5429E-03    -56.8219E-03    -56.2892E-03     113.059E-03    -56.8219E-03     13.0845E-03    -13.5593E+06    -36.2284E+06    -156.914E+06    -36.2739E+06    -156.869E+06    -13.5593E+06    -1.53102E+06         31.3699
             674     7.56025E-03     34.6856E-03     427.012E-03     411.498E-03        -1.44367     414.003E-03        -1.44230     423.134E-03    -4.07889E-03     113.438E-03    -56.5324E-03    -56.8614E-03    -56.3484E-03     113.254E-03    -56.8614E-03     11.0963E-03    -15.2903E+06    -39.1314E+06    -177.906E+06    -39.1548E+06    -177.882E+06    -15.2903E+06    -1.37782E+06         30.6526
             675     6.61516E-03     34.6742E-03     429.219E-03     413.818E-03        -1.45015     418.112E-03        -1.44934     424.116E-03     27.0108E-03     113.614E-03    -56.6236E-03    -56.9109E-03    -56.5226E-03     113.507E-03    -56.9054E-03     8.36815E-03    -20.5806E+06    -43.7131E+06    -197.996E+06    -43.7190E+06    -197.990E+06    -20.5806E+06    -456.728E+03         30.0717
             676     5.67045E-03     34.6673E-03     426.645E-03     414.013E-03        -1.44632     415.082E-03        -1.44617     425.419E-03     6.10789E-03     113.712E-03    -56.6932E-03    -56.9791E-03    -56.6369E-03     113.650E-03    -56.9737E-03     6.46069E-03    -27.8721E+06    -47.3187E+06    -212.023E+06    -47.3322E+06    -212.009E+06    -27.8721E+06     687.938E+03         29.6061
             677     4.72462E-03     34.6606E-03     427.899E-03     412.019E-03        -1.44656     411.903E-03        -1.44645     427.899E-03     18.6606E-03     113.667E-03    -56.6800E-03    -56.9831E-03    -56.6394E-03     113.627E-03    -56.9831E-03     5.18338E-03    -37.0794E+06    -50.6030E+06    -218.658E+06     -50.643E+06    -218.618E+06    -37.0794E+06     1.73642E+06         29.2447
             678     3.78002E-03     34.6555E-03     431.327E-03     418.001E-03        -1.45361     416.769E-03        -1.45238     431.327E-03    -65.0790E-03     113.763E-03    -56.7911E-03    -57.0143E-03    -56.8217E-03     113.743E-03    -56.9640E-03     3.59031E-03    -43.1157E+06    -54.5419E+06    -222.302E+06    -54.5708E+06    -222.273E+06    -43.1157E+06     737.201E+03         28.9801
             679     2.83499E-03     34.6524E-03     445.069E-03     414.504E-03        -1.46504     416.166E-03        -1.45818     436.552E-03     79.5356E-03     113.745E-03    -56.7593E-03    -56.9647E-03    -56.8007E-03     113.736E-03    -56.9144E-03     2.39677E-03    -46.3876E+06    -58.3603E+06    -226.582E+06    -58.3895E+06    -226.553E+06    -46.3876E+06     673.101E+03         28.7719
             680     1.88944E-03     34.6506E-03     473.586E-03     414.217E-03        -1.49265     413.088E-03        -1.46688     448.943E-03    -131.914E-03     113.682E-03    -56.7422E-03    -56.8825E-03    -56.7442E-03     113.678E-03    -56.8763E-03     1.57502E-03    -53.2260E+06    -61.3119E+06    -228.410E+06    -61.3454E+06    -228.377E+06    -53.2260E+06     591.549E+03         28.5929
             681     944.799E-06     34.6487E-03     971.129E-03     54.1921E-03        -1.62838     842.918E-03        -1.51903     73.0508E-03     449.990E-03     113.698E-03    -56.5422E-03    -57.1539E-03    -56.8721E-03     113.697E-03    -56.8225E-03     525.970E-06    -59.9116E+06    -67.0450E+06    -231.314E+06    -64.7136E+06    -231.301E+06    -62.2563E+06    -992.290E+03         28.4563
             682     16.0741E-03     33.9934E-03     430.072E-03     399.782E-03        -1.43676     406.648E-03        -1.43665     423.096E-03    -8.76008E-03     119.836E-03    -56.7922E-03    -63.0914E-03    -54.5434E-03     111.288E-03    -56.7922E-03     72.8536E-03     163.326E+06     124.673E+06    -7.49456E+06    -7.44540E+06     163.276E+06     124.673E+06    -533.788E+03         50.1869
             683     15.1253E-03     33.8830E-03     426.162E-03     409.860E-03        -1.44607     411.581E-03        -1.44570     424.066E-03     19.9457E-03     123.637E-03    -56.8111E-03    -66.9071E-03    -54.5277E-03     111.257E-03    -56.8111E-03     93.7142E-03     156.698E+06     108.996E+06    -15.8934E+06    -15.8396E+06     156.644E+06     108.996E+06    -219.137E+03         47.1768
             684     14.1779E-03     33.7887E-03     424.816E-03     415.625E-03        -1.45175     415.244E-03        -1.45137     424.816E-03     36.6988E-03     120.287E-03    -56.6358E-03    -63.7528E-03    -55.1709E-03     111.705E-03    -56.6358E-03     77.0436E-03     144.822E+06     64.6733E+06    -22.8831E+06    -22.8472E+06     144.786E+06     64.6733E+06    -41.0599E+03         43.5104
             685     13.2344E-03     33.7171E-03     426.385E-03     421.063E-03        -1.45404     422.033E-03        -1.45393     425.300E-03     20.4889E-03     115.810E-03    -56.4390E-03    -59.5653E-03    -55.0225E-03     111.267E-03    -56.4390E-03     54.4715E-03     124.815E+06     10.8315E+06    -26.6457E+06    -26.6268E+06     124.797E+06     10.8315E+06    -541.991E+03         40.0289
             686     12.2867E-03     33.6720E-03     428.652E-03     423.117E-03        -1.45660     426.073E-03        -1.45636     425.459E-03    -4.48354E-03     113.467E-03    -56.4554E-03    -57.2737E-03    -55.4067E-03     111.600E-03    -56.4554E-03     34.7131E-03     59.2364E+06    -10.0302E+06    -27.5914E+06    -27.5402E+06     59.1852E+06    -10.0302E+06    -126.507E+03         37.2102
             687     11.3421E-03     33.6423E-03     430.323E-03     423.948E-03        -1.46173     428.500E-03        -1.46134     425.377E-03    -27.9637E-03     113.424E-03    -56.5221E-03    -57.0489E-03    -56.0498E-03     112.424E-03    -56.5221E-03     25.9886E-03     757.221E+03    -17.4336E+06    -42.1236E+06    -27.5939E+06    -24.5788E+06    -6.62716E+06     908.719E+03         35.0618
             688     10.3968E-03     33.6155E-03     433.748E-03     424.971E-03        -1.46558     432.644E-03        -1.46447     424.971E-03     18.8675E-03     113.479E-03    -56.5197E-03    -56.8925E-03    -56.1233E-03     112.760E-03    -56.5701E-03     21.9081E-03    -7.48151E+06    -28.6192E+06    -80.9910E+06    -28.6913E+06    -80.9188E+06    -7.48151E+06     1.07475E+06         33.4644
             689     9.45158E-03     33.5945E-03     439.064E-03     424.012E-03        -1.46794     437.680E-03        -1.46655     424.012E-03     47.2759E-03     113.262E-03    -56.4538E-03    -56.7246E-03    -56.0747E-03     112.842E-03    -56.6835E-03     16.6877E-03    -9.80319E+06    -32.0323E+06    -124.714E+06    -32.0687E+06    -124.678E+06    -9.80319E+06    -398.783E+03         32.2733
             690     8.50627E-03     33.5798E-03     435.393E-03     419.027E-03        -1.46099     429.591E-03        -1.45920     423.036E-03    -51.0955E-03     113.354E-03    -56.5162E-03    -56.8028E-03    -56.2495E-03     113.087E-03    -56.8028E-03     13.3980E-03    -12.6885E+06    -36.4137E+06    -156.566E+06    -36.4465E+06    -156.533E+06    -12.6885E+06    -1.24746E+06         31.3697
             691     7.56076E-03     33.5655E-03     426.734E-03     409.601E-03        -1.44322     411.338E-03        -1.44171     423.491E-03    -50.1271E-03     113.525E-03    -56.6199E-03    -56.8221E-03    -56.4354E-03     113.341E-03    -56.8221E-03     11.0790E-03    -17.3936E+06    -40.3657E+06    -179.707E+06    -40.3734E+06    -179.699E+06    -17.3936E+06    -505.231E+03         30.6502
             692     6.61552E-03     33.5558E-03     425.419E-03     409.738E-03        -1.44141     409.498E-03        -1.44117     425.419E-03     9.78786E-03     113.528E-03    -56.5635E-03    -56.8852E-03    -56.4583E-03     113.423E-03    -56.8852E-03     8.36460E-03    -22.0566E+06    -43.5295E+06    -199.017E+06    -43.5381E+06    -199.009E+06    -22.0566E+06     843.288E+03         30.0688
             693     5.66963E-03     33.5476E-03     430.418E-03     418.254E-03        -1.45671     421.202E-03        -1.45629     427.052E-03     20.4714E-03     113.673E-03    -56.6528E-03    -56.9772E-03    -56.5906E-03     113.610E-03    -56.9772E-03     6.47272E-03    -28.1963E+06    -47.5875E+06    -213.286E+06    -47.5991E+06    -213.274E+06    -28.1963E+06     1.12499E+06         29.6034
             694     4.72545E-03     33.5418E-03     431.620E-03     418.132E-03        -1.45555     421.074E-03        -1.45512     428.254E-03     40.4438E-03     113.728E-03    -56.7707E-03    -56.9554E-03    -56.7301E-03     113.687E-03    -56.9554E-03     5.22564E-03    -35.7801E+06    -51.2469E+06    -218.490E+06    -51.2799E+06    -218.457E+06    -35.7801E+06     1.24476E+06         29.2400
             695     3.77995E-03     33.5362E-03     431.728E-03     410.910E-03        -1.44339     409.629E-03        -1.44211     431.728E-03    -55.7948E-03     113.617E-03    -56.7022E-03    -56.9316E-03    -56.6807E-03     113.596E-03    -56.9316E-03     3.70550E-03    -38.8534E+06    -52.8849E+06    -220.679E+06    -52.9200E+06    -220.644E+06    -38.8534E+06     1.17940E+06         28.9714
             696     2.83484E-03     33.5336E-03     443.008E-03     398.773E-03        -1.44450     391.924E-03        -1.43765     443.008E-03     77.2476E-03     113.677E-03    -56.7178E-03    -56.9290E-03    -56.7371E-03     113.668E-03    -56.9010E-03     2.37582E-03    -42.5533E+06    -55.8589E+06    -225.738E+06    -55.8661E+06    -225.731E+06    -42.5533E+06     2.64909E+03         28.7629
             697     1.89046E-03     33.5309E-03     471.617E-03     415.291E-03        -1.49574     391.268E-03        -1.47172     471.617E-03    -124.259E-03     113.680E-03    -56.7871E-03    -56.8625E-03    -56.8179E-03     113.676E-03    -56.8279E-03     1.47967E-03    -51.5214E+06    -60.6073E+06    -228.083E+06    -60.6139E+06    -228.076E+06    -51.5214E+06     205.084E+03         28.5835
             698     945.240E-06     33.5298E-03     913.737E-03     144.894E-03        -1.67326     812.905E-03        -1.59821     170.680E-03     315.353E-03     113.477E-03    -56.5734E-03    -56.9069E-03    -56.9025E-03     113.474E-03    -56.5751E-03     868.024E-06    -60.7182E+06    -68.2900E+06    -232.326E+06    -66.4348E+06    -232.319E+06    -62.5800E+06     735.045E+03         28.4426
             699     16.0725E-03     32.8752E-03     441.081E-03     426.228E-03        -1.47929     440.991E-03        -1.47920     426.228E-03    -22.7134E-03     119.653E-03    -56.7986E-03    -62.8853E-03    -54.4483E-03     111.216E-03    -56.7986E-03     72.5113E-03     163.492E+06     124.683E+06    -7.69900E+06    -7.65116E+06     163.444E+06     124.683E+06    -53.5582E+03         50.1736
             700     15.1257E-03     32.7660E-03     430.511E-03     421.936E-03        -1.46472     426.271E-03        -1.46462     426.083E-03    -11.4504E-03     123.488E-03    -56.8241E-03    -66.7409E-03    -54.5358E-03     111.283E-03    -56.8241E-03     93.0361E-03     157.339E+06     109.315E+06    -14.9628E+06    -14.8961E+06     157.272E+06     109.315E+06    -351.156E+03         47.1649
             701     14.1800E-03     32.6675E-03     426.799E-03     419.552E-03        -1.45913     419.723E-03        -1.45909     426.588E-03    -3.56303E-03     119.850E-03    -56.6406E-03    -63.3068E-03    -54.9376E-03     111.480E-03    -56.6406E-03     75.8501E-03     144.874E+06     62.9537E+06    -22.1257E+06    -22.0797E+06     144.828E+06     62.9537E+06    -252.062E+03         43.5002
             702     13.2322E-03     32.5979E-03     427.415E-03     421.405E-03        -1.46180     421.519E-03        -1.46170     427.204E-03     8.85867E-03     115.850E-03    -56.4469E-03    -59.6220E-03    -55.3143E-03     111.543E-03    -56.4469E-03     53.0622E-03     124.577E+06     8.03964E+06    -26.4808E+06    -26.4507E+06     124.547E+06     8.03964E+06    -837.492E+03         40.0211
             703     12.2880E-03     32.5519E-03     427.865E-03     419.120E-03        -1.45935     418.813E-03        -1.45904     427.865E-03    -11.0142E-03     113.633E-03    -56.4565E-03    -57.4686E-03    -55.6716E-03     111.836E-03    -56.4565E-03     34.2000E-03     59.3788E+06    -12.2417E+06    -28.6633E+06    -28.6303E+06     59.3458E+06    -12.2417E+06    -1.04634E+06         37.2059
             704     11.3420E-03     32.5222E-03     431.134E-03     417.026E-03        -1.46173     419.050E-03        -1.46133     428.704E-03    -41.8722E-03     113.251E-03    -56.5022E-03    -56.9161E-03    -55.9136E-03     112.249E-03    -56.5022E-03     26.0074E-03    -1.11135E+06    -19.2970E+06    -44.5278E+06    -29.2299E+06    -25.9609E+06    -9.74535E+06    -850.911E+03         35.0596
             705     10.3969E-03     32.4958E-03     432.825E-03     420.088E-03        -1.46574     422.843E-03        -1.46518     429.513E-03    -1.35218E-03     113.283E-03    -56.4639E-03    -56.7768E-03    -55.9453E-03     112.550E-03    -56.5624E-03     22.1287E-03    -8.96609E+06    -29.3320E+06    -81.7458E+06    -29.4185E+06    -81.6593E+06    -8.96609E+06     362.310E+03         33.4625
             706     9.45098E-03     32.4755E-03     435.525E-03     426.271E-03        -1.47153     431.331E-03        -1.47092     429.854E-03     21.4412E-03     113.334E-03    -56.5199E-03    -56.7221E-03    -56.0970E-03     112.893E-03    -56.7043E-03     17.0976E-03    -6.89629E+06    -30.9915E+06    -123.467E+06    -31.0218E+06    -123.437E+06    -6.89629E+06     1.58478E+06         32.2730
             707     8.50554E-03     32.4602E-03     446.870E-03     428.953E-03        -1.48462     445.572E-03        -1.48332     428.953E-03    -54.3328E-03     113.566E-03    -56.7046E-03    -56.8191E-03    -56.4454E-03     113.289E-03    -56.8013E-03     13.6754E-03    -10.8577E+06    -35.2333E+06    -155.446E+06    -35.2624E+06    -155.417E+06    -10.8577E+06     928.777E+03         31.3699
             708     7.56080E-03     32.4466E-03     444.721E-03     424.980E-03        -1.47924     440.968E-03        -1.47775     427.234E-03    -22.0588E-03     113.610E-03    -56.6881E-03    -56.8155E-03    -56.5027E-03     113.424E-03    -56.8155E-03     11.0970E-03    -17.1424E+06    -40.0679E+06    -181.446E+06    -40.0862E+06    -181.428E+06    -17.1424E+06     646.472E+03         30.6476
             709     6.61557E-03     32.4361E-03     434.774E-03     420.848E-03        -1.46211     428.589E-03        -1.46130     426.231E-03     12.5319E-03     113.601E-03    -56.6402E-03    -56.8801E-03    -56.5343E-03     113.495E-03    -56.8801E-03     8.41576E-03    -21.6795E+06    -44.2076E+06    -200.297E+06    -44.2275E+06    -200.277E+06    -21.6795E+06     1.65320E+06         30.0629
             710     5.67077E-03     32.4287E-03     433.613E-03     419.528E-03        -1.45959     426.036E-03        -1.45855     426.060E-03     22.4504E-03     113.663E-03    -56.7234E-03    -56.9379E-03    -56.6579E-03     113.597E-03    -56.9379E-03     6.62939E-03    -27.1761E+06    -47.6344E+06    -211.663E+06    -47.6557E+06    -211.641E+06    -27.1761E+06     1.06226E+06         29.5959
             711     4.72504E-03     32.4218E-03     430.346E-03     415.120E-03        -1.45693     417.720E-03        -1.45616     426.979E-03     49.9355E-03     113.617E-03    -56.6987E-03    -56.9074E-03    -56.6590E-03     113.577E-03    -56.9074E-03     5.13900E-03    -32.2495E+06    -49.7203E+06    -217.602E+06    -49.7289E+06    -217.594E+06    -32.2495E+06    -230.867E+03         29.2326
             712     3.78038E-03     32.4176E-03     430.419E-03     410.859E-03        -1.45302     410.269E-03        -1.45243     430.419E-03    -42.5756E-03     113.520E-03    -56.5920E-03    -56.8941E-03    -56.5713E-03     113.499E-03    -56.8941E-03     3.67489E-03    -38.1763E+06    -52.1322E+06    -220.518E+06    -52.1390E+06    -220.512E+06    -38.1763E+06     241.887E+03         28.9639
             713     2.83508E-03     32.4137E-03     452.599E-03     409.667E-03        -1.47284     420.261E-03        -1.46628     435.445E-03     110.637E-03     113.584E-03    -56.6389E-03    -56.9219E-03    -56.6557E-03     113.573E-03    -56.8939E-03     2.73152E-03    -44.7565E+06    -55.4432E+06    -225.415E+06    -55.4566E+06    -225.402E+06    -44.7565E+06     824.258E+03         28.7549
             714     1.88981E-03     32.4117E-03     477.802E-03     416.576E-03        -1.50418     437.154E-03        -1.48514     438.176E-03    -64.8525E-03     113.669E-03    -56.7668E-03    -56.9140E-03    -56.8386E-03     113.664E-03    -56.8371E-03     1.63222E-03    -52.2557E+06    -60.1456E+06    -229.211E+06    -60.1593E+06    -229.198E+06    -52.2557E+06     615.987E+03         28.5735
             715     945.105E-06     32.4109E-03     791.863E-03     141.635E-03        -1.54720     728.172E-03        -1.49043     148.561E-03     257.866E-03     113.459E-03    -56.6809E-03    -56.7920E-03    -56.7879E-03     113.456E-03    -56.6826E-03     913.555E-06    -58.6800E+06    -65.8838E+06    -229.800E+06    -64.0323E+06    -229.790E+06    -60.5418E+06     867.872E+03         28.4311
             716     16.0720E-03     31.7550E-03     437.351E-03     417.823E-03        -1.47733     425.610E-03        -1.47724     429.474E-03    -403.144E-06     119.632E-03    -56.7881E-03    -62.8959E-03    -54.5558E-03     111.292E-03    -56.7881E-03     71.9226E-03     163.544E+06     124.754E+06    -7.26473E+06    -7.23725E+06     163.517E+06     124.754E+06     142.884E+03         50.1590
             717     15.1270E-03     31.6454E-03     436.879E-03     426.497E-03        -1.47968     433.574E-03        -1.47963     429.755E-03    -6.78657E-03     123.858E-03    -56.7952E-03    -67.1574E-03    -55.0203E-03     111.721E-03    -56.7952E-03     92.9870E-03     157.793E+06     108.795E+06    -14.9928E+06    -14.9421E+06     157.742E+06     108.795E+06     42.9986E+03         47.1539
             718     14.1789E-03     31.5509E-03     434.892E-03     426.613E-03        -1.47838     431.571E-03        -1.47834     429.890E-03    -6.36295E-03     119.837E-03    -56.5936E-03    -63.3610E-03    -54.9901E-03     111.466E-03    -56.5936E-03     75.9466E-03     145.216E+06     61.8896E+06    -21.7745E+06    -21.7214E+06     145.163E+06     61.8896E+06    -407.746E+03         43.4911
             719     13.2342E-03     31.4766E-03     432.784E-03     425.299E-03        -1.47515     427.843E-03        -1.47505     430.141E-03    -1.73370E-03     115.547E-03    -56.4153E-03    -59.3694E-03    -55.0387E-03     111.217E-03    -56.4153E-03     52.9998E-03     125.076E+06     7.94088E+06    -25.4160E+06    -25.3772E+06     125.037E+06     7.94088E+06    -821.141E+03         40.0130
             720     12.2880E-03     31.4336E-03     433.015E-03     422.552E-03        -1.47381     424.847E-03        -1.47367     430.582E-03    -7.24881E-03     113.451E-03    -56.4410E-03    -57.3003E-03    -55.4963E-03     111.647E-03    -56.4410E-03     34.3760E-03     59.2251E+06    -11.9018E+06    -27.5516E+06    -27.5194E+06     59.1930E+06    -11.9018E+06    -811.209E+03         37.1994
             721     11.3424E-03     31.4030E-03     431.490E-03     416.916E-03        -1.46767     416.748E-03        -1.46750     431.490E-03    -25.2321E-03     113.082E-03    -56.4930E-03    -56.7347E-03    -55.7153E-03     112.062E-03    -56.4930E-03     26.1428E-03    -1.78596E+06    -20.2440E+06    -44.0389E+06    -29.7883E+06    -26.5232E+06    -9.75738E+06    -770.218E+03         35.0534
             722     10.3961E-03     31.3771E-03     432.879E-03     417.292E-03        -1.46993     416.678E-03        -1.46932     432.879E-03     33.5493E-03     113.219E-03    -56.4948E-03    -56.6744E-03    -55.9223E-03     112.515E-03    -56.5428E-03     21.6895E-03    -11.8906E+06    -32.0620E+06    -83.1559E+06    -32.1531E+06    -83.0648E+06    -11.8906E+06    -428.413E+03         33.4551
             723     9.45071E-03     31.3560E-03     437.311E-03     426.805E-03        -1.48094     429.559E-03        -1.48023     433.852E-03     55.9636E-03     113.514E-03    -56.6419E-03    -56.7765E-03    -56.3073E-03     113.093E-03    -56.6899E-03     16.6941E-03    -9.26494E+06    -33.4814E+06    -124.918E+06    -33.5108E+06    -124.889E+06    -9.26494E+06     686.026E+03         32.2670
             724     8.50633E-03     31.3404E-03     446.954E-03     429.823E-03        -1.48818     442.345E-03        -1.48735     433.608E-03    -36.8015E-03     113.608E-03    -56.7335E-03    -56.8422E-03    -56.5136E-03     113.358E-03    -56.8123E-03     12.9942E-03    -8.08711E+06    -35.7525E+06    -154.746E+06    -35.8208E+06    -154.677E+06    -8.08711E+06     2.46912E+06         31.3664
             725     7.56088E-03     31.3274E-03     449.821E-03     428.588E-03        -1.49107     445.179E-03        -1.49022     432.372E-03    -28.7229E-03     113.504E-03    -56.6298E-03    -56.8065E-03    -56.4627E-03     113.337E-03    -56.8065E-03     10.5670E-03    -14.1533E+06    -40.1783E+06    -181.299E+06    -40.2402E+06    -181.237E+06    -14.1533E+06     2.50432E+06         30.6424
             726     6.61544E-03     31.3175E-03     446.988E-03     430.526E-03        -1.49049     446.122E-03        -1.48962     430.526E-03    -28.9191E-03     113.543E-03    -56.6673E-03    -56.8511E-03    -56.5626E-03     113.438E-03    -56.8511E-03     8.39682E-03    -19.7809E+06    -43.9211E+06    -199.950E+06    -43.9371E+06    -199.934E+06    -19.7809E+06     1.43258E+06         30.0527
             727     5.67029E-03     31.3092E-03     438.076E-03     424.851E-03        -1.47490     432.754E-03        -1.47390     429.176E-03    -14.9512E-03     113.598E-03    -56.7522E-03    -56.9025E-03    -56.6909E-03     113.529E-03    -56.8951E-03     6.78752E-03    -26.3057E+06    -46.7123E+06    -209.298E+06    -46.7313E+06    -209.279E+06    -26.3057E+06     807.824E+03         29.5826
             728     4.72583E-03     31.3034E-03     432.324E-03     421.495E-03        -1.47072     423.853E-03        -1.47024     429.483E-03     13.1065E-03     113.484E-03    -56.6404E-03    -56.8583E-03    -56.6085E-03     113.444E-03    -56.8510E-03     5.09381E-03    -35.5331E+06    -50.2897E+06    -217.094E+06    -50.3047E+06    -217.079E+06    -35.5331E+06    -122.390E+03         29.2202
             729     3.78013E-03     31.2981E-03     436.035E-03     425.997E-03        -1.48056     431.787E-03        -1.48014     429.820E-03    -55.4426E-03     113.462E-03    -56.5807E-03    -56.8456E-03    -56.5595E-03     113.441E-03    -56.8456E-03     3.77464E-03    -43.7808E+06    -54.2322E+06    -221.796E+06    -54.2357E+06    -221.792E+06    -43.7808E+06    -158.851E+03         28.9540
             730     2.83497E-03     31.2951E-03     459.168E-03     424.229E-03        -1.49633     455.504E-03        -1.49283     424.390E-03     38.2812E-03     113.552E-03    -56.6797E-03    -56.8676E-03    -56.6742E-03     113.541E-03    -56.8613E-03     2.75034E-03    -47.4468E+06    -57.8641E+06    -225.685E+06    -57.8720E+06    -225.677E+06    -47.4468E+06     740.198E+03         28.7445
             731     1.88995E-03     31.2922E-03     477.246E-03     404.307E-03        -1.49069     463.882E-03        -1.47733     404.307E-03    -121.226E-03     113.557E-03    -56.7081E-03    -56.8794E-03    -56.7592E-03     113.553E-03    -56.8246E-03     1.27927E-03    -52.3737E+06    -61.3120E+06    -228.661E+06    -61.3232E+06    -228.650E+06    -52.3737E+06     753.542E+03         28.5643
             732     945.109E-06     31.2919E-03     696.803E-03     129.611E-03        -1.42573     649.422E-03        -1.37835     129.611E-03     212.315E-03     113.447E-03    -56.4950E-03    -56.9768E-03    -56.9300E-03     113.446E-03    -56.5412E-03     474.865E-06    -58.5796E+06    -65.7681E+06    -228.527E+06    -63.8529E+06    -228.519E+06    -60.5022E+06     609.384E+03         28.4311
             733     16.0740E-03     30.6381E-03     432.015E-03     417.107E-03        -1.47667     417.356E-03        -1.47651     431.604E-03     12.1243E-03     119.846E-03    -56.7783E-03    -63.1719E-03    -54.6538E-03     111.328E-03    -56.7783E-03     72.4341E-03     162.925E+06     124.164E+06    -8.25235E+06    -8.21586E+06     162.889E+06     124.164E+06     48.1767E+03         50.1438
             734     15.1250E-03     30.5248E-03     437.393E-03     425.038E-03        -1.48568     429.808E-03        -1.48525     432.191E-03     22.4326E-03     124.035E-03    -56.7711E-03    -67.3696E-03    -55.2796E-03     111.945E-03    -56.7711E-03     92.7801E-03     157.865E+06     109.185E+06    -15.8827E+06    -15.8160E+06     157.799E+06     109.185E+06    -82.2225E+03         47.1434
             735     14.1818E-03     30.4310E-03     437.398E-03     421.483E-03        -1.48263     425.851E-03        -1.48220     432.606E-03     29.3040E-03     119.724E-03    -56.5561E-03    -63.2757E-03    -55.1142E-03     111.563E-03    -56.5561E-03     75.1580E-03     146.735E+06     63.4371E+06    -21.4126E+06    -21.3487E+06     146.671E+06     63.4371E+06    -687.701E+03         43.4823
             736     13.2339E-03     30.3584E-03     437.034E-03     426.270E-03        -1.48125     430.183E-03        -1.48119     433.067E-03     667.440E-06     115.261E-03    -56.3694E-03    -59.1053E-03    -54.7032E-03     110.859E-03    -56.3694E-03     53.2984E-03     124.443E+06     7.51262E+06    -25.6621E+06    -25.6233E+06     124.404E+06     7.51262E+06    -827.027E+03         40.0044
             737     12.2874E-03     30.3140E-03     441.004E-03     431.403E-03        -1.48701     439.292E-03        -1.48692     433.030E-03     5.09240E-03     113.194E-03    -56.4167E-03    -57.0386E-03    -55.2496E-03     111.405E-03    -56.4167E-03     34.1206E-03     58.5717E+06    -10.9407E+06    -27.9225E+06    -27.8281E+06     58.4773E+06    -10.9407E+06     28.0042E+03         37.1905
             738     11.3420E-03     30.2838E-03     437.499E-03     428.505E-03        -1.48263     432.996E-03        -1.48245     432.830E-03    -5.20317E-03     113.155E-03    -56.4731E-03    -56.8127E-03    -55.8327E-03     112.175E-03    -56.4731E-03     25.6343E-03    -958.480E+03    -19.1885E+06    -43.9187E+06    -30.1743E+06    -25.9491E+06    -7.94232E+06     188.080E+03         35.0444
             739     10.3970E-03     30.2585E-03     434.060E-03     421.213E-03        -1.47346     420.968E-03        -1.47255     433.398E-03     46.1058E-03     113.401E-03    -56.5053E-03    -56.8437E-03    -56.1686E-03     112.725E-03    -56.5053E-03     21.2825E-03    -11.1615E+06    -32.2791E+06    -83.5836E+06    -32.3498E+06    -83.5129E+06    -11.1615E+06    -435.885E+03         33.4467
             740     9.45195E-03     30.2361E-03     435.673E-03     416.108E-03        -1.47191     416.073E-03        -1.47111     434.910E-03     45.3095E-03     113.415E-03    -56.5573E-03    -56.7903E-03    -56.2946E-03     113.006E-03    -56.6446E-03     16.4389E-03    -10.5444E+06    -35.0097E+06    -127.504E+06    -35.0282E+06    -127.485E+06    -10.5444E+06     367.145E+03         32.2587
             741     8.50630E-03     30.2214E-03     437.554E-03     419.967E-03        -1.47394     420.360E-03        -1.47357     436.791E-03    -38.6058E-03     113.338E-03    -56.5029E-03    -56.7882E-03    -56.2699E-03     113.093E-03    -56.7761E-03     12.8607E-03    -9.01152E+06    -37.3438E+06    -156.233E+06    -37.4000E+06    -156.177E+06    -9.01152E+06     2.06640E+06         31.3576
             742     7.56114E-03     30.2082E-03     441.271E-03     430.128E-03        -1.48311     432.982E-03        -1.48276     438.066E-03    -31.8910E-03     113.367E-03    -56.5417E-03    -56.7609E-03    -56.3720E-03     113.197E-03    -56.7609E-03     10.6496E-03    -15.0791E+06    -38.7256E+06    -178.645E+06    -38.7801E+06    -178.591E+06    -15.0791E+06     2.15592E+06         30.6337
             743     6.61610E-03     30.1984E-03     448.546E-03     437.283E-03        -1.49701     447.780E-03        -1.49667     437.712E-03    -11.5419E-03     113.506E-03    -56.6882E-03    -56.8322E-03    -56.6063E-03     113.398E-03    -56.8067E-03     8.49675E-03    -19.1375E+06    -41.5096E+06    -198.731E+06    -41.5201E+06    -198.720E+06    -19.1375E+06     1.18480E+06         30.0455
             744     5.67082E-03     30.1900E-03     445.192E-03     435.513E-03        -1.49206     443.664E-03        -1.49146     436.435E-03     19.5243E-03     113.475E-03    -56.6671E-03    -56.9014E-03    -56.6358E-03     113.411E-03    -56.8685E-03     6.50291E-03    -23.5475E+06    -45.1039E+06    -209.215E+06    -45.1218E+06    -209.197E+06    -23.5475E+06     1.54911E+06         29.5780
             745     4.72533E-03     30.1836E-03     441.251E-03     434.524E-03        -1.48925     439.672E-03        -1.48859     435.446E-03    -5.90052E-03     113.394E-03    -56.5765E-03    -56.8427E-03    -56.5491E-03     113.360E-03    -56.8354E-03     4.81493E-03    -34.5223E+06    -49.3600E+06    -216.330E+06    -49.3870E+06    -216.303E+06    -34.5223E+06     1.37824E+06         29.2166
             746     3.78033E-03     30.1798E-03     442.291E-03     434.106E-03        -1.49048     441.669E-03        -1.48986     434.106E-03    -66.1135E-03     113.535E-03    -56.6467E-03    -56.8293E-03    -56.6420E-03     113.513E-03    -56.8123E-03     3.81443E-03    -42.7228E+06    -54.0133E+06    -222.111E+06    -54.0276E+06    -222.097E+06    -42.7228E+06     612.310E+03         28.9483
             747     2.83536E-03     30.1752E-03     448.967E-03     425.773E-03        -1.48398     443.105E-03        -1.48355     431.209E-03    -18.8401E-03     113.540E-03    -56.7088E-03    -56.7922E-03    -56.7205E-03     113.529E-03    -56.7689E-03     2.72857E-03    -48.6280E+06    -57.8466E+06    -225.719E+06    -57.8479E+06    -225.718E+06    -48.6280E+06     415.589E+03         28.7384
             748     1.89054E-03     30.1736E-03     460.742E-03     409.209E-03        -1.48219     434.794E-03        -1.47446     427.428E-03    -135.692E-03     113.389E-03    -56.6232E-03    -56.7612E-03    -56.6257E-03     113.385E-03    -56.7549E-03     1.44102E-03    -51.9349E+06    -60.2868E+06    -227.673E+06    -60.2913E+06    -227.668E+06    -51.9349E+06     276.291E+03         28.5641
             749     945.035E-06     30.1723E-03     669.275E-03     215.803E-03        -1.50145     622.824E-03        -1.46778     228.585E-03     201.195E-03     113.359E-03    -56.4487E-03    -56.9419E-03    -56.7737E-03     113.357E-03    -56.6153E-03     998.590E-06    -58.2659E+06    -66.4172E+06    -227.534E+06    -64.5107E+06    -227.518E+06    -60.1886E+06     884.384E+03         28.4394
             750     16.0718E-03     29.5196E-03     442.617E-03     431.376E-03        -1.49403     439.418E-03        -1.49367     434.221E-03    -24.5898E-03     120.248E-03    -56.7599E-03    -63.5838E-03    -54.9751E-03     111.640E-03    -56.7599E-03     73.1161E-03     163.738E+06     125.079E+06    -7.65414E+06    -7.61148E+06     163.695E+06     125.079E+06     44.2534E+03         50.1249
             751     15.1289E-03     29.4036E-03     439.218E-03     426.070E-03        -1.48356     430.177E-03        -1.48294     434.493E-03    -2.56313E-03     124.093E-03    -56.7392E-03    -67.4532E-03    -55.1801E-03     111.819E-03    -56.7392E-03     93.5189E-03     158.211E+06     108.976E+06    -16.2950E+06    -16.2346E+06     158.150E+06     108.976E+06    -551.383E+03         47.1280
             752     14.1804E-03     29.3125E-03     439.897E-03     422.814E-03        -1.48131     426.983E-03        -1.48077     435.189E-03     8.26764E-03     119.806E-03    -56.5423E-03    -63.3489E-03    -55.0379E-03     111.496E-03    -56.5423E-03     75.7575E-03     145.916E+06     63.0152E+06    -23.0536E+06    -23.0108E+06     145.873E+06     63.0152E+06    -763.626E+03         43.4705
             753     13.2351E-03     29.2393E-03     441.878E-03     430.283E-03        -1.48729     436.354E-03        -1.48712     435.635E-03    -5.35208E-03     115.639E-03    -56.3563E-03    -59.4723E-03    -55.0644E-03     111.231E-03    -56.3563E-03     53.4419E-03     124.518E+06     8.33701E+06    -27.1954E+06    -27.1588E+06     124.481E+06     8.33701E+06    -197.816E+03         39.9952
             754     12.2891E-03     29.1949E-03     441.134E-03     434.070E-03        -1.49036     439.167E-03        -1.48991     435.592E-03    -10.8609E-03     113.138E-03    -56.3805E-03    -57.0199E-03    -55.2425E-03     111.361E-03    -56.3805E-03     34.0051E-03     58.0333E+06    -11.4885E+06    -28.9684E+06    -28.8169E+06     57.8818E+06    -11.4885E+06     51.6966E+03         37.1818
             755     11.3428E-03     29.1645E-03     442.450E-03     435.168E-03        -1.49639     441.665E-03        -1.49573     435.290E-03    -33.0939E-03     112.987E-03    -56.4364E-03    -56.6819E-03    -55.6890E-03     111.994E-03    -56.4364E-03     25.8040E-03    -1.38881E+06    -19.1215E+06    -42.8702E+06    -29.6710E+06    -25.5327E+06    -8.17683E+06    -148.944E+03         35.0349
             756     10.3975E-03     29.1379E-03     438.460E-03     428.866E-03        -1.48904     431.176E-03        -1.48820     435.307E-03     24.6227E-03     113.300E-03    -56.4755E-03    -56.7739E-03    -56.0583E-03     112.585E-03    -56.4755E-03     21.9074E-03    -10.9043E+06    -31.1954E+06    -83.1392E+06    -31.2667E+06    -83.0679E+06    -10.9043E+06    -466.244E+03         33.4366
             757     9.45227E-03     29.1174E-03     436.514E-03     417.999E-03        -1.47896     417.385E-03        -1.47835     436.514E-03     30.9538E-03     113.328E-03    -56.5239E-03    -56.7837E-03    -56.2523E-03     112.884E-03    -56.6112E-03     17.1364E-03    -11.5641E+06    -32.4090E+06    -129.352E+06    -32.4280E+06    -129.333E+06    -11.5641E+06     379.369E+03         32.2479
             758     8.50678E-03     29.1020E-03     438.537E-03     419.810E-03        -1.48255     419.743E-03        -1.48249     438.537E-03    -20.3217E-03     113.248E-03    -56.4401E-03    -56.8208E-03    -56.2476E-03     112.994E-03    -56.7590E-03     13.0510E-03    -8.81972E+06    -34.0178E+06    -157.633E+06    -34.0356E+06    -157.615E+06    -8.81972E+06     1.38793E+06         31.3464
             759     7.56111E-03     29.0891E-03     440.915E-03     432.884E-03        -1.49678     433.776E-03        -1.49673     439.966E-03    -17.5120E-03     113.323E-03    -56.4882E-03    -56.7783E-03    -56.3141E-03     113.149E-03    -56.7783E-03     10.8369E-03    -12.9372E+06    -37.3306E+06    -177.445E+06    -37.3537E+06    -177.422E+06    -12.9372E+06     1.70538E+06         30.6244
             760     6.61572E-03     29.0786E-03     446.804E-03     439.470E-03        -1.50663     446.109E-03        -1.50637     439.899E-03     26.6716E-03     113.542E-03    -56.7075E-03    -56.8337E-03    -56.6168E-03     113.426E-03    -56.8081E-03     8.80539E-03    -19.2123E+06    -40.4342E+06    -198.243E+06    -40.4535E+06    -198.224E+06    -19.2123E+06     1.62501E+06         30.0403
             761     5.67120E-03     29.0705E-03     449.918E-03     438.571E-03        -1.50201     449.048E-03        -1.50114     438.571E-03     79.0041E-03     113.466E-03    -56.6630E-03    -56.8755E-03    -56.6243E-03     113.401E-03    -56.8500E-03     6.51465E-03    -22.0184E+06    -44.1065E+06    -209.950E+06    -44.1202E+06    -209.936E+06    -22.0184E+06     1.47653E+06         29.5757
             762     4.72583E-03     29.0655E-03     444.436E-03     435.684E-03        -1.49527     441.981E-03        -1.49434     437.208E-03     25.5092E-03     113.449E-03    -56.6140E-03    -56.8277E-03    -56.5781E-03     113.413E-03    -56.8277E-03     4.89823E-03    -28.4028E+06    -47.8772E+06    -214.857E+06    -47.9107E+06    -214.824E+06    -28.4028E+06     2.26398E+06         29.2156
             763     3.78052E-03     29.0596E-03     441.126E-03     434.846E-03        -1.49113     439.160E-03        -1.49068     436.370E-03    -24.5156E-03     113.584E-03    -56.7028E-03    -56.8123E-03    -56.7223E-03     113.563E-03    -56.7717E-03     3.73221E-03    -38.4875E+06    -51.5695E+06    -221.258E+06    -51.6127E+06    -221.215E+06    -38.4875E+06     2.44597E+06         28.9470
             764     2.83549E-03     29.0568E-03     440.162E-03     427.638E-03        -1.47565     429.860E-03        -1.47495     437.243E-03     43.5465E-03     113.401E-03    -56.6238E-03    -56.7252E-03    -56.6548E-03     113.391E-03    -56.6845E-03     2.42470E-03    -48.5317E+06    -55.6340E+06    -224.461E+06    -55.6521E+06    -224.443E+06    -48.5317E+06     1.05477E+06         28.7380
             765     1.88988E-03     29.0535E-03     448.133E-03     413.507E-03        -1.47153     409.466E-03        -1.46749     448.133E-03    -59.4752E-03     113.246E-03    -56.5541E-03    -56.6639E-03    -56.5511E-03     113.243E-03    -56.6639E-03     1.19237E-03    -53.7586E+06    -59.9172E+06    -227.223E+06    -59.9213E+06    -227.219E+06    -53.7586E+06     199.759E+03         28.5659
             766     944.950E-06     29.0539E-03     639.521E-03     296.812E-03        -1.55421     593.745E-03        -1.53346     321.834E-03     182.440E-03     113.224E-03    -56.5528E-03    -56.6803E-03    -56.5577E-03     113.222E-03    -56.6738E-03     918.541E-06    -58.5417E+06    -65.2237E+06    -227.472E+06    -64.3577E+06    -227.430E+06    -59.4496E+06    -247.509E+03         28.4392
             767     16.0743E-03     28.3957E-03     446.198E-03     431.192E-03        -1.50116     438.882E-03        -1.50087     438.214E-03    -21.0096E-03     119.937E-03    -56.7410E-03    -63.2550E-03    -54.6400E-03     111.322E-03    -56.7410E-03     73.4461E-03     164.080E+06     125.337E+06    -7.25010E+06    -7.19558E+06     164.025E+06     125.337E+06     50.0353E+03         50.1040
             768     15.1255E-03     28.2878E-03     443.243E-03     430.035E-03        -1.49637     434.296E-03        -1.49611     438.721E-03    -11.6962E-03     123.733E-03    -56.7456E-03    -67.0780E-03    -54.7630E-03     111.418E-03    -56.7456E-03     93.5539E-03     158.700E+06     108.832E+06    -15.4320E+06    -15.3820E+06     158.651E+06     108.832E+06     131.215E+03         47.1092
             769     14.1800E-03     28.1915E-03     444.192E-03     434.417E-03        -1.50334     439.083E-03        -1.50309     439.275E-03    -24.2590E-03     120.069E-03    -56.5671E-03    -63.6153E-03    -55.1895E-03     111.643E-03    -56.5671E-03     76.2692E-03     145.619E+06     61.9824E+06    -23.2442E+06    -23.2202E+06     145.595E+06     61.9824E+06    -294.599E+03         43.4555
             770     13.2349E-03     28.1200E-03     444.251E-03     436.556E-03        -1.50176     441.054E-03        -1.50155     439.542E-03    -24.3272E-03     115.855E-03    -56.3750E-03    -59.7299E-03    -55.3215E-03     111.447E-03    -56.3750E-03     53.7021E-03     124.435E+06     7.39036E+06    -26.6207E+06    -26.5800E+06     124.395E+06     7.39036E+06    -353.635E+03         39.9844
             771     12.2888E-03     28.0767E-03     440.062E-03     431.764E-03        -1.49454     431.120E-03        -1.49390     440.062E-03    -45.6735E-03     113.399E-03    -56.3716E-03    -57.3106E-03    -55.4237E-03     111.512E-03    -56.3716E-03     35.1434E-03     58.3072E+06    -13.9705E+06    -27.4276E+06    -27.3287E+06     58.2084E+06    -13.9705E+06    -629.542E+03         37.1731
             772     11.3433E-03     28.0454E-03     445.859E-03     434.587E-03        -1.50293     438.926E-03        -1.50207     440.660E-03    -71.4695E-03     113.003E-03    -56.4173E-03    -56.6975E-03    -55.6369E-03     111.942E-03    -56.4173E-03     26.6572E-03    -2.14393E+06    -20.4305E+06    -42.3676E+06    -28.2859E+06    -25.7381E+06    -10.9180E+06    -438.562E+03         35.0267
             773     10.3968E-03     28.0193E-03     452.943E-03     439.944E-03        -1.51422     451.831E-03        -1.51352     440.362E-03     13.1371E-03     113.162E-03    -56.4768E-03    -56.6273E-03    -55.8953E-03     112.430E-03    -56.4768E-03     22.1137E-03    -11.4505E+06    -30.4537E+06    -83.5999E+06    -30.5156E+06    -83.5380E+06    -11.4505E+06     344.242E+03         33.4277
             774     9.45125E-03     27.9981E-03     449.990E-03     436.431E-03        -1.51055     446.303E-03        -1.51003     439.607E-03     23.3514E-03     113.344E-03    -56.5520E-03    -56.7500E-03    -56.2398E-03     112.905E-03    -56.6236E-03     17.0129E-03    -12.4708E+06    -34.3937E+06    -130.104E+06    -34.4327E+06    -130.065E+06    -12.4708E+06     684.128E+03         32.2381
             775     8.50663E-03     27.9827E-03     442.580E-03     432.157E-03        -1.50393     434.908E-03        -1.50368     439.579E-03    -37.7774E-03     113.398E-03    -56.5672E-03    -56.8477E-03    -56.4042E-03     113.148E-03    -56.7605E-03     12.9595E-03    -11.4770E+06    -38.2539E+06    -157.915E+06    -38.2681E+06    -157.901E+06    -11.4770E+06     1.23924E+06         31.3370
             776     7.56139E-03     27.9710E-03     441.153E-03     434.108E-03        -1.50613     434.681E-03        -1.50575     440.203E-03    -47.5684E-03     113.395E-03    -56.5542E-03    -56.8004E-03    -56.4056E-03     113.221E-03    -56.7750E-03     10.8412E-03    -13.9749E+06    -40.4331E+06    -177.271E+06    -40.4563E+06    -177.248E+06    -13.9749E+06     1.28557E+06         30.6166
             777     6.61625E-03     27.9591E-03     447.529E-03     438.735E-03        -1.51186     445.724E-03        -1.51149     440.167E-03     4.16376E-03     113.331E-03    -56.4913E-03    -56.7885E-03    -56.3777E-03     113.218E-03    -56.7885E-03     8.67590E-03    -21.0223E+06    -42.6432E+06    -198.172E+06    -42.6634E+06    -198.152E+06    -21.0223E+06     1.23132E+06         30.0320
             778     5.67051E-03     27.9521E-03     457.124E-03     438.270E-03        -1.51544     456.433E-03        -1.51475     438.270E-03     66.2982E-03     113.412E-03    -56.5862E-03    -56.8140E-03    -56.5241E-03     113.348E-03    -56.8128E-03     6.50958E-03    -27.5840E+06    -46.1750E+06    -210.172E+06    -46.1949E+06    -210.152E+06    -27.5840E+06     1.72121E+06         29.5658
             779     4.72575E-03     27.9458E-03     454.069E-03     433.536E-03        -1.50421     452.042E-03        -1.50371     435.060E-03     36.2259E-03     113.574E-03    -56.7550E-03    -56.8232E-03    -56.7421E-03     113.533E-03    -56.7961E-03     5.19678E-03    -31.7155E+06    -49.7263E+06    -215.206E+06    -49.7560E+06    -215.177E+06    -31.7155E+06     2.09092E+06         29.2084
             780     3.78096E-03     27.9413E-03     441.954E-03     429.428E-03        -1.48681     438.594E-03        -1.48663     432.601E-03    -8.73801E-03     113.561E-03    -56.7148E-03    -56.8413E-03    -56.8055E-03     113.538E-03    -56.7274E-03     3.88474E-03    -37.9839E+06    -52.2398E+06    -219.588E+06    -52.2832E+06    -219.544E+06    -37.9839E+06     2.58357E+06         28.9456
             781     2.83591E-03     27.9373E-03     436.389E-03     426.601E-03        -1.48178     428.924E-03        -1.48014     432.418E-03     68.6657E-03     113.365E-03    -56.5809E-03    -56.7567E-03    -56.7246E-03     113.356E-03    -56.6046E-03     2.20526E-03    -44.9610E+06    -55.1927E+06    -222.251E+06    -55.2326E+06    -222.211E+06    -44.9610E+06     2.17834E+06         28.7390
             782     1.89102E-03     27.9363E-03     444.216E-03     420.219E-03        -1.48081     422.063E-03        -1.47506     436.626E-03    -51.0387E-03     113.071E-03    -56.4664E-03    -56.5812E-03    -56.5550E-03     113.069E-03    -56.4907E-03     999.737E-06    -52.1082E+06    -59.9519E+06    -226.438E+06    -59.9692E+06    -226.421E+06    -52.1082E+06     1.09341E+06         28.5627
             783     945.615E-06     27.9341E-03     574.052E-03     324.241E-03        -1.49551     544.047E-03        -1.47775     336.481E-03     118.022E-03     112.772E-03    -56.2620E-03    -56.5018E-03    -56.5000E-03     112.771E-03    -56.2626E-03     771.794E-06    -60.0962E+06    -64.5119E+06    -228.833E+06    -63.0682E+06    -228.802E+06    -61.5713E+06    -384.135E+03         28.4285
             784     16.0728E-03     27.2787E-03     440.950E-03     424.453E-03        -1.48990     424.260E-03        -1.48971     440.950E-03     28.0895E-03     119.752E-03    -56.7421E-03    -63.0415E-03    -54.4736E-03     111.184E-03    -56.7421E-03     73.4078E-03     163.737E+06     124.529E+06    -8.29726E+06    -8.22496E+06     163.665E+06     124.529E+06     335.399E+03         50.0839
             785     15.1270E-03     27.1678E-03     442.131E-03     430.054E-03        -1.49868     430.161E-03        -1.49858     441.922E-03     23.3377E-03     123.606E-03    -56.7573E-03    -66.9253E-03    -54.7842E-03     111.465E-03    -56.7573E-03     92.8607E-03     159.097E+06     109.153E+06    -15.4580E+06    -15.4058E+06     159.045E+06     109.153E+06    -125.668E+03         47.0934
             786     14.1806E-03     27.0720E-03     442.911E-03     434.438E-03        -1.50727     434.489E-03        -1.50711     442.703E-03     6.93475E-03     119.699E-03    -56.5724E-03    -63.2486E-03    -54.9223E-03     111.373E-03    -56.5724E-03     75.7160E-03     146.741E+06     61.7812E+06    -21.5542E+06    -21.5240E+06     146.710E+06     61.7812E+06    -660.454E+03         43.4428
             787     13.2336E-03     27.0009E-03     443.500E-03     438.795E-03        -1.51118     438.690E-03        -1.51085     443.272E-03     13.3965E-03     115.498E-03    -56.3805E-03    -59.3914E-03    -55.0155E-03     111.122E-03    -56.3805E-03     53.3870E-03     123.696E+06     5.80265E+06    -25.2716E+06    -25.2295E+06     123.654E+06     5.80265E+06    -851.914E+03         39.9735
             788     12.2881E-03     26.9565E-03     445.737E-03     436.951E-03        -1.51100     438.423E-03        -1.51046     443.727E-03     8.94039E-03     113.602E-03    -56.3863E-03    -57.5067E-03    -55.6520E-03     111.747E-03    -56.3863E-03     34.8034E-03     57.8972E+06    -13.1754E+06    -27.3667E+06    -27.3418E+06     57.8723E+06    -13.1754E+06    -186.636E+03         37.1653
             789     11.3423E-03     26.9267E-03     448.647E-03     435.325E-03        -1.50866     439.533E-03        -1.50838     444.157E-03    -21.3445E-03     113.217E-03    -56.4265E-03    -56.9211E-03    -55.9003E-03     112.196E-03    -56.4265E-03     26.1927E-03    -2.18269E+06    -20.9858E+06    -44.3737E+06    -30.4865E+06    -26.4987E+06    -10.5570E+06     682.769E+03         35.0225
             790     10.3975E-03     26.9003E-03     455.033E-03     441.148E-03        -1.51969     451.415E-03        -1.51895     444.030E-03     47.9826E-03     113.230E-03    -56.4858E-03    -56.6940E-03    -55.9628E-03     112.501E-03    -56.4880E-03     22.0998E-03    -11.2816E+06    -33.5124E+06    -84.7097E+06    -33.6381E+06    -84.5840E+06    -11.2816E+06     1.46164E+06         33.4242
             791     9.45245E-03     26.8787E-03     458.597E-03     442.985E-03        -1.53066     457.819E-03        -1.52988     442.985E-03     39.3818E-03     113.270E-03    -56.5422E-03    -56.6714E-03    -56.1357E-03     112.833E-03    -56.6407E-03     16.9198E-03    -11.6327E+06    -36.1946E+06    -129.866E+06    -36.2496E+06    -129.811E+06    -11.6327E+06     2.01001E+06         32.2324
             792     8.50626E-03     26.8642E-03     449.382E-03     438.938E-03        -1.52007     446.010E-03        -1.51983     442.065E-03    -30.5762E-03     113.401E-03    -56.6350E-03    -56.7744E-03    -56.4114E-03     113.152E-03    -56.7490E-03     12.9705E-03    -13.8625E+06    -38.4943E+06    -157.207E+06    -38.5316E+06    -157.169E+06    -13.8625E+06     812.684E+03         31.3298
             793     7.56164E-03     26.8510E-03     442.600E-03     431.743E-03        -1.50199     431.107E-03        -1.50135     442.600E-03    -57.3227E-03     113.545E-03    -56.6659E-03    -56.7946E-03    -56.5516E-03     113.371E-03    -56.7356E-03     10.7706E-03    -15.6907E+06    -40.7242E+06    -177.408E+06    -40.7448E+06    -177.387E+06    -15.6907E+06     78.8467E+03         30.6105
             794     6.61627E-03     26.8415E-03     447.206E-03     434.241E-03        -1.50577     437.145E-03        -1.50530     443.834E-03    -31.3642E-03     113.359E-03    -56.4360E-03    -56.7705E-03    -56.3636E-03     113.253E-03    -56.7369E-03     8.41287E-03    -20.8139E+06    -44.0399E+06    -198.629E+06    -44.0573E+06    -198.611E+06    -20.8139E+06     1.19360E+06         30.0270
             795     5.67083E-03     26.8322E-03     455.266E-03     440.007E-03        -1.52246     451.453E-03        -1.52236     443.717E-03     19.7022E-03     113.303E-03    -56.4667E-03    -56.7764E-03    -56.4057E-03     113.241E-03    -56.7752E-03     6.42741E-03    -28.7132E+06    -47.2241E+06    -209.835E+06    -47.2434E+06    -209.815E+06    -28.7132E+06     1.57355E+06         29.5601
             796     4.72573E-03     26.8269E-03     461.723E-03     439.455E-03        -1.52923     459.623E-03        -1.52898     441.302E-03    -13.7054E-03     113.471E-03    -56.6703E-03    -56.8191E-03    -56.6600E-03     113.434E-03    -56.7920E-03     5.01931E-03    -32.8006E+06    -49.7548E+06    -215.739E+06    -49.7680E+06    -215.726E+06    -32.8006E+06     1.25389E+06         29.2019
             797     3.78066E-03     26.8216E-03     450.760E-03     436.574E-03        -1.51296     448.696E-03        -1.51255     438.224E-03    -54.3876E-03     113.497E-03    -56.6814E-03    -56.8483E-03    -56.7470E-03     113.473E-03    -56.7582E-03     4.05093E-03    -36.9282E+06    -52.2607E+06    -219.148E+06    -52.2731E+06    -219.136E+06    -36.9282E+06     1.23416E+06         28.9399
             798     2.83585E-03     26.8190E-03     438.768E-03     435.192E-03        -1.50259     435.323E-03        -1.50124     437.291E-03     7.59980E-03     113.431E-03    -56.6057E-03    -56.8355E-03    -56.8095E-03     113.420E-03    -56.6204E-03     2.59757E-03    -42.6136E+06    -54.7735E+06    -220.713E+06    -54.7964E+06    -220.690E+06    -42.6136E+06     1.55006E+06         28.7355
             799     1.89082E-03     26.8168E-03     450.483E-03     434.956E-03        -1.51114     444.331E-03        -1.50544     435.405E-03    -93.1272E-03     113.144E-03    -56.4423E-03    -56.6775E-03    -56.6749E-03     113.141E-03    -56.4423E-03     1.24129E-03    -49.4357E+06    -58.4777E+06    -224.322E+06    -58.4961E+06    -224.304E+06    -49.4357E+06     1.29391E+06         28.5608
             800     945.566E-06     26.8170E-03     530.562E-03     351.667E-03        -1.49936     514.690E-03        -1.48349     351.667E-03     82.8416E-03     112.620E-03    -56.1145E-03    -56.4992E-03    -56.4972E-03     112.618E-03    -56.1145E-03     1.01366E-03    -58.7004E+06    -63.0981E+06    -226.578E+06    -62.5975E+06    -226.511E+06    -59.2676E+06     2.26532E+06         28.4275
             801     16.0739E-03     26.1594E-03     442.546E-03     425.282E-03        -1.49763     425.059E-03        -1.49740     442.546E-03     4.92903E-03     120.116E-03    -56.7356E-03    -63.4157E-03    -54.8045E-03     111.504E-03    -56.7356E-03     73.4047E-03     164.187E+06     125.090E+06    -7.59556E+06    -7.52814E+06     164.120E+06     125.090E+06     497.039E+03         50.0643
             802     15.1273E-03     26.0479E-03     443.477E-03     435.042E-03        -1.51072     434.891E-03        -1.51056     443.477E-03     9.73896E-03     123.773E-03    -56.7285E-03    -67.1223E-03    -54.8784E-03     111.529E-03    -56.7285E-03     93.2963E-03     159.905E+06     108.719E+06    -14.9085E+06    -14.8416E+06     159.838E+06     108.719E+06    -584.853E+03         47.0785
             803     14.1807E-03     25.9537E-03     445.272E-03     436.255E-03        -1.51397     437.346E-03        -1.51387     444.081E-03     20.6692E-03     119.387E-03    -56.5355E-03    -62.9573E-03    -54.6316E-03     111.061E-03    -56.5355E-03     75.6138E-03     146.390E+06     60.0610E+06    -21.9939E+06    -21.9390E+06     146.335E+06     60.0610E+06    -770.055E+03         43.4309
             804     13.2342E-03     25.8817E-03     446.175E-03     441.499E-03        -1.51871     442.974E-03        -1.51840     444.389E-03     33.4422E-03     115.390E-03    -56.3729E-03    -59.2604E-03    -54.8350E-03     110.964E-03    -56.3729E-03     53.6471E-03     123.437E+06     5.15597E+06    -26.9866E+06    -26.9511E+06     123.402E+06     5.15597E+06     119.236E+03         39.9636
             805     12.2882E-03     25.8365E-03     447.760E-03     444.317E-03        -1.52478     447.400E-03        -1.52442     444.317E-03     30.4740E-03     113.668E-03    -56.3954E-03    -57.5741E-03    -55.7301E-03     111.824E-03    -56.3954E-03     34.6134E-03     56.7183E+06    -13.7626E+06    -30.1992E+06    -30.1525E+06     56.6717E+06    -13.7626E+06     856.014E+03         37.1589
             806     11.3431E-03     25.8070E-03     447.115E-03     439.678E-03        -1.51727     442.468E-03        -1.51721     444.266E-03    -6.45018E-03     113.294E-03    -56.4231E-03    -57.0229E-03    -56.0440E-03     112.315E-03    -56.4231E-03     25.6871E-03    -3.11180E+06    -21.2243E+06    -45.0047E+06    -31.6790E+06    -27.0609E+06    -10.6009E+06     1.62788E+06         35.0194
             807     10.3972E-03     25.7811E-03     445.743E-03     433.751E-03        -1.51039     434.123E-03        -1.50985     444.830E-03     40.9868E-03     113.206E-03    -56.4732E-03    -56.6896E-03    -55.9646E-03     112.483E-03    -56.4755E-03     22.0326E-03    -11.8359E+06    -33.2657E+06    -84.9524E+06    -33.3817E+06    -84.8364E+06    -11.8359E+06     1.84482E+06         33.4212
             808     9.45126E-03     25.7590E-03     450.666E-03     438.752E-03        -1.52125     443.402E-03        -1.52068     445.437E-03     32.3997E-03     113.266E-03    -56.5899E-03    -56.6381E-03    -56.1674E-03     112.828E-03    -56.6221E-03     16.9067E-03    -11.8356E+06    -34.7424E+06    -129.632E+06    -34.7907E+06    -129.584E+06    -11.8356E+06     1.19535E+06         32.2268
             809     8.50689E-03     25.7439E-03     449.812E-03     442.698E-03        -1.52250     446.962E-03        -1.52245     445.496E-03    -12.9079E-03     113.300E-03    -56.6261E-03    -56.7240E-03    -56.3783E-03     113.052E-03    -56.7240E-03     12.9447E-03    -13.3226E+06    -36.3633E+06    -155.244E+06    -36.4127E+06    -155.195E+06    -13.3226E+06     392.755E+03         31.3224
             810     7.56126E-03     25.7305E-03     446.259E-03     437.137E-03        -1.51323     436.752E-03        -1.51262     446.038E-03    -48.0126E-03     113.513E-03    -56.6570E-03    -56.8007E-03    -56.5615E-03     113.342E-03    -56.7248E-03     10.6768E-03    -15.6279E+06    -39.7435E+06    -178.505E+06    -39.7706E+06    -178.478E+06    -15.6279E+06     521.711E+03         30.6046
             811     6.61662E-03     25.7210E-03     447.692E-03     436.451E-03        -1.51446     435.921E-03        -1.51371     447.471E-03    -28.6345E-03     113.549E-03    -56.6209E-03    -56.8154E-03    -56.5985E-03     113.450E-03    -56.7395E-03     8.12426E-03    -18.4966E+06    -43.5059E+06    -199.073E+06    -43.5232E+06    -199.056E+06    -18.4966E+06     1.41731E+06         30.0245
             812     5.67137E-03     25.7134E-03     449.036E-03     440.948E-03        -1.52101     440.305E-03        -1.52037     449.036E-03     48.7626E-03     113.265E-03    -56.4919E-03    -56.7720E-03    -56.4265E-03     113.200E-03    -56.7720E-03     6.62723E-03    -24.8153E+06    -46.3416E+06    -208.585E+06    -46.3531E+06    -208.573E+06    -24.8153E+06     1.07922E+06         29.5590
             813     4.72599E-03     25.7063E-03     455.738E-03     442.272E-03        -1.52835     447.177E-03        -1.52758     450.061E-03     26.7518E-03     113.342E-03    -56.5433E-03    -56.8172E-03    -56.5528E-03     113.301E-03    -56.7668E-03     5.16792E-03    -32.2239E+06    -49.6501E+06    -215.906E+06    -49.6529E+06    -215.903E+06    -32.2239E+06     611.086E+03         29.1981
             814     3.78060E-03     25.7025E-03     459.818E-03     445.294E-03        -1.53605     454.907E-03        -1.53556     449.718E-03    -5.32320E-03     113.360E-03    -56.5877E-03    -56.7857E-03    -56.6183E-03     113.340E-03    -56.7353E-03     3.57264E-03    -39.4517E+06    -53.1751E+06    -218.666E+06    -53.1785E+06    -218.662E+06    -39.4517E+06     365.209E+03         28.9325
             815     2.83518E-03     25.6983E-03     453.557E-03     445.445E-03        -1.53255     448.872E-03        -1.53156     449.134E-03     28.0663E-03     113.199E-03    -56.4405E-03    -56.7740E-03    -56.5180E-03     113.190E-03    -56.6875E-03     2.35639E-03    -45.3097E+06    -55.5556E+06    -220.396E+06    -55.5606E+06    -220.391E+06    -45.3097E+06    -359.284E+03         28.7281
             816     1.89044E-03     25.6974E-03     457.474E-03     445.581E-03        -1.53511     448.960E-03        -1.53029     449.270E-03    -88.2544E-03     113.289E-03    -56.4715E-03    -56.7926E-03    -56.6284E-03     113.286E-03    -56.6329E-03     1.24337E-03    -49.4920E+06    -58.0171E+06    -223.494E+06    -58.0254E+06    -223.485E+06    -49.4920E+06     267.003E+03         28.5587
             817     945.517E-06     25.6973E-03     543.899E-03     374.730E-03        -1.54743     523.983E-03        -1.52751     374.730E-03     134.659E-03     113.146E-03    -56.4516E-03    -56.6828E-03    -56.6164E-03     113.144E-03    -56.5159E-03     1.08188E-03    -54.6271E+06    -59.3119E+06    -223.752E+06    -59.4936E+06    -223.570E+06    -54.6271E+06    -98.4025E+03         28.4350
             818     16.0735E-03     25.0408E-03     449.487E-03     437.003E-03        -1.51968     441.613E-03        -1.51959     444.793E-03    -21.3063E-03     120.068E-03    -56.7099E-03    -63.4426E-03    -54.8695E-03     111.495E-03    -56.7099E-03     73.0555E-03     163.877E+06     125.281E+06    -6.98960E+06    -6.91993E+06     163.807E+06     125.281E+06     13.6252E+03         50.0448
             819     15.1270E-03     24.9284E-03     447.667E-03     443.064E-03        -1.52583     445.398E-03        -1.52552     445.024E-03     10.7463E-03     123.335E-03    -56.7098E-03    -66.7020E-03    -54.4816E-03     111.115E-03    -56.7098E-03     92.9836E-03     160.078E+06     108.044E+06    -14.3700E+06    -14.2701E+06     159.979E+06     108.044E+06    -97.9685E+03         47.0640
             820     14.1806E-03     24.8354E-03     446.453E-03     440.716E-03        -1.52447     441.536E-03        -1.52410     445.262E-03     12.8372E-03     119.393E-03    -56.5321E-03    -62.9477E-03    -54.4875E-03     110.933E-03    -56.5321E-03     76.2815E-03     145.991E+06     58.8953E+06    -22.1363E+06    -22.0780E+06     145.933E+06     58.8953E+06     841.721E+03         43.4183
             821     13.2340E-03     24.7629E-03     447.147E-03     441.929E-03        -1.52203     443.277E-03        -1.52182     445.589E-03     468.832E-06     115.906E-03    -56.3805E-03    -59.7746E-03    -55.1617E-03     111.293E-03    -56.3805E-03     54.8038E-03     122.987E+06     4.23319E+06    -27.9137E+06    -27.8744E+06     122.948E+06     4.23319E+06     1.61370E+06         39.9525
             822     12.2880E-03     24.7166E-03     447.347E-03     441.633E-03        -1.52207     442.729E-03        -1.52173     445.913E-03    -13.5431E-03     113.703E-03    -56.4030E-03    -57.6046E-03    -55.7471E-03     111.845E-03    -56.4030E-03     34.7206E-03     56.9046E+06    -13.6855E+06    -30.1090E+06    -30.0321E+06     56.8276E+06    -13.6855E+06     1.19680E+06         37.1505
             823     11.3427E-03     24.6872E-03     447.425E-03     440.508E-03        -1.52428     441.233E-03        -1.52394     446.359E-03    -42.0007E-03     113.249E-03    -56.4150E-03    -56.9723E-03    -55.9945E-03     112.271E-03    -56.4150E-03     25.6698E-03    -3.97507E+06    -20.5757E+06    -44.7921E+06    -30.6674E+06    -27.5277E+06    -11.1478E+06     946.711E+03         35.0133
             824     10.3976E-03     24.6620E-03     448.953E-03     438.669E-03        -1.52396     440.310E-03        -1.52362     446.971E-03     8.17248E-03     113.417E-03    -56.4574E-03    -56.9209E-03    -56.2073E-03     112.704E-03    -56.4574E-03     21.8995E-03    -11.6090E+06    -32.0005E+06    -84.9486E+06    -32.0585E+06    -84.8907E+06    -11.6090E+06     1.72532E+06         33.4157
             825     9.45281E-03     24.6395E-03     449.888E-03     434.878E-03        -1.51945     436.572E-03        -1.51917     447.906E-03     19.0637E-03     113.274E-03    -56.5100E-03    -56.7379E-03    -56.2293E-03     112.851E-03    -56.5959E-03     16.6344E-03    -10.9304E+06    -34.7508E+06    -128.070E+06    -34.8077E+06    -128.014E+06    -10.9304E+06     1.37727E+06         32.2200
             826     8.50667E-03     24.6252E-03     449.552E-03     441.164E-03        -1.52617     441.762E-03        -1.52612     448.912E-03    -10.3367E-03     113.177E-03    -56.5498E-03    -56.6950E-03    -56.3098E-03     112.937E-03    -56.6950E-03     12.7241E-03    -13.6414E+06    -38.2204E+06    -154.521E+06    -38.2590E+06    -154.483E+06    -13.6414E+06     481.841E+03         31.3131
             827     7.56175E-03     24.6118E-03     457.652E-03     447.683E-03        -1.54187     456.065E-03        -1.54149     448.893E-03    -42.8002E-03     113.343E-03    -56.5680E-03    -56.7631E-03    -56.4420E-03     113.175E-03    -56.7207E-03     10.6037E-03    -16.4263E+06    -41.3837E+06    -179.595E+06    -41.4115E+06    -179.567E+06    -16.4263E+06     946.135E+03         30.5933
             828     6.61645E-03     24.6015E-03     457.463E-03     445.173E-03        -1.53383     453.977E-03        -1.53320     448.032E-03    -1.34877E-03     113.468E-03    -56.6360E-03    -56.7989E-03    -56.5825E-03     113.370E-03    -56.7551E-03     8.04034E-03    -18.2461E+06    -44.1801E+06    -198.294E+06    -44.2075E+06    -198.267E+06    -18.2461E+06     687.149E+03         30.0134
             829     5.67139E-03     24.5951E-03     449.840E-03     436.841E-03        -1.51477     437.376E-03        -1.51399     448.528E-03     69.0406E-03     113.423E-03    -56.6465E-03    -56.7800E-03    -56.5911E-03     113.362E-03    -56.7740E-03     6.43222E-03    -24.7849E+06    -47.3760E+06    -207.521E+06    -47.3951E+06    -207.502E+06    -24.7849E+06     482.348E+03         29.5495
             830     4.72576E-03     24.5879E-03     451.470E-03     432.063E-03        -1.51467     431.226E-03        -1.51384     451.470E-03     31.5028E-03     113.320E-03    -56.5008E-03    -56.7862E-03    -56.5145E-03     113.279E-03    -56.7311E-03     5.21219E-03    -34.0492E+06    -50.7208E+06    -216.112E+06    -50.7269E+06    -216.106E+06    -34.0492E+06     582.910E+03         29.1892
             831     3.78137E-03     24.5831E-03     458.544E-03     443.664E-03        -1.53763     447.068E-03        -1.53691     454.413E-03    -17.0963E-03     113.182E-03    -56.4597E-03    -56.7370E-03    -56.4908E-03     113.162E-03    -56.6866E-03     3.48834E-03    -41.5676E+06    -53.9941E+06    -217.635E+06    -53.9968E+06    -217.633E+06    -41.5676E+06    -183.711E+03         28.9245
             832     2.83596E-03     24.5808E-03     468.135E-03     450.377E-03        -1.55466     463.087E-03        -1.55303     453.786E-03     58.0515E-03     113.009E-03    -56.3230E-03    -56.7172E-03    -56.3153E-03     113.002E-03    -56.7172E-03     2.21736E-03    -46.0196E+06    -57.4044E+06    -220.309E+06    -57.4091E+06    -220.304E+06    -46.0196E+06    -674.535E+03         28.7239
             833     1.88954E-03     24.5780E-03     470.402E-03     446.308E-03        -1.55505     460.314E-03        -1.54820     449.547E-03    -66.8135E-03     113.154E-03    -56.3270E-03    -56.8130E-03    -56.3391E-03     113.151E-03    -56.7981E-03     1.17128E-03    -52.3002E+06    -60.6939E+06    -223.600E+06    -60.7162E+06    -223.577E+06    -52.3002E+06    -1.10070E+06         28.5605
             834     944.629E-06     24.5790E-03     540.556E-03     389.672E-03        -1.57109     504.061E-03        -1.53459     389.672E-03     222.784E-03     113.613E-03    -56.5009E-03    -57.0981E-03    -56.8570E-03     113.612E-03    -56.7406E-03     881.149E-06    -60.3383E+06    -65.0250E+06    -226.271E+06    -63.4248E+06    -226.133E+06    -62.0765E+06    -2.57230E+06         28.4418
             835     16.0746E-03     23.9207E-03     457.148E-03     446.593E-03        -1.54168     456.146E-03        -1.54139     447.307E-03    -12.8292E-03     119.882E-03    -56.7144E-03    -63.2643E-03    -54.6054E-03     111.223E-03    -56.7144E-03     73.4148E-03     163.553E+06     124.842E+06    -7.22293E+06    -7.13102E+06     163.461E+06     124.842E+06     -233.37E+03         50.0217
             836     15.1279E-03     23.8103E-03     450.015E-03     442.191E-03        -1.52657     444.452E-03        -1.52619     447.372E-03    -7.82819E-03     123.290E-03    -56.7419E-03    -66.6203E-03    -54.3366E-03     111.006E-03    -56.7419E-03     93.1601E-03     158.455E+06     107.206E+06    -15.6459E+06    -15.5581E+06     158.367E+06     107.206E+06     926.125E+03         47.0469
             837     14.1788E-03     23.7175E-03     448.096E-03     438.524E-03        -1.52113     438.045E-03        -1.52065     448.096E-03    -16.0379E-03     119.825E-03    -56.5682E-03    -63.3324E-03    -54.8855E-03     111.378E-03    -56.5682E-03     76.3548E-03     145.633E+06     60.1166E+06    -22.4992E+06    -22.4481E+06     145.582E+06     60.1166E+06     2.00692E+06         43.4045
             838     13.2331E-03     23.6424E-03     448.990E-03     441.220E-03        -1.52235     440.900E-03        -1.52203     448.990E-03    -24.0856E-03     116.097E-03    -56.3892E-03    -59.9529E-03    -55.4780E-03     111.622E-03    -56.3892E-03     53.8687E-03     123.490E+06     7.01581E+06    -26.5649E+06    -26.5102E+06     123.435E+06     7.01581E+06     1.76858E+06         39.9388
             839     12.2890E-03     23.5976E-03     449.754E-03     442.602E-03        -1.52428     442.281E-03        -1.52396     449.754E-03    -22.2179E-03     113.426E-03    -56.3898E-03    -57.3415E-03    -55.5950E-03     111.680E-03    -56.3898E-03     33.7378E-03     57.6254E+06    -11.0345E+06    -28.3784E+06    -28.2702E+06     57.5173E+06    -11.0345E+06     1.22081E+06         37.1375
             840     11.3425E-03     23.5685E-03     451.782E-03     445.711E-03        -1.53081     446.824E-03        -1.53045     450.303E-03    -45.0081E-03     113.182E-03    -56.3994E-03    -56.8991E-03    -55.9372E-03     112.220E-03    -56.3994E-03     25.4408E-03    -3.43682E+06    -20.2279E+06    -44.9988E+06    -30.6934E+06    -27.7659E+06    -10.2043E+06     1.08689E+06         35.0023
             841     10.3975E-03     23.5415E-03     459.553E-03     450.017E-03        -1.54469     458.885E-03        -1.54412     450.122E-03     16.6470E-03     113.476E-03    -56.4479E-03    -56.9824E-03    -56.2844E-03     112.778E-03    -56.4479E-03     21.6708E-03    -11.4400E+06    -32.8292E+06    -85.4792E+06    -32.8779E+06    -85.4305E+06    -11.4400E+06     1.56085E+06         33.4047
             842     9.45229E-03     23.5212E-03     459.754E-03     443.259E-03        -1.54220     452.745E-03        -1.54153     449.602E-03     51.4034E-03     113.359E-03    -56.4965E-03    -56.8403E-03    -56.3357E-03     112.935E-03    -56.5773E-03     16.7103E-03    -9.85785E+06    -34.5182E+06    -126.697E+06    -34.5649E+06    -126.650E+06    -9.85785E+06     1.93609E+06         32.2075
             843     8.50746E-03     23.5059E-03     452.658E-03     443.298E-03        -1.53591     446.096E-03        -1.53569     449.640E-03     8.41664E-03     113.226E-03    -56.4969E-03    -56.7573E-03    -56.3473E-03     112.986E-03    -56.6672E-03     12.7057E-03    -11.5499E+06    -37.6584E+06    -154.717E+06    -37.7402E+06    -154.636E+06    -11.5499E+06     1.94061E+06         31.2990
             844     7.56193E-03     23.4930E-03     458.597E-03     449.243E-03        -1.54740     458.466E-03        -1.54727     449.243E-03    -32.0058E-03     113.214E-03    -56.4439E-03    -56.6851E-03    -56.2823E-03     113.052E-03    -56.6851E-03     10.3961E-03    -17.2515E+06    -42.2527E+06    -179.001E+06    -42.3285E+06    -178.925E+06    -17.2515E+06     1.58734E+06         30.5764
             845     6.61646E-03     23.4830E-03     458.246E-03     447.962E-03        -1.54518     457.715E-03        -1.54465     447.962E-03     22.3408E-03     113.316E-03    -56.5229E-03    -56.7031E-03    -56.4301E-03     113.222E-03    -56.7017E-03     7.88561E-03    -22.6344E+06    -46.3204E+06    -196.862E+06    -46.3410E+06    -196.842E+06    -22.6344E+06     24.0891E+03         29.9932
             846     5.67145E-03     23.4753E-03     449.823E-03     437.330E-03        -1.52545     438.414E-03        -1.52479     448.076E-03     66.2583E-03     113.439E-03    -56.6765E-03    -56.7262E-03    -56.6275E-03     113.384E-03    -56.7201E-03     6.09867E-03    -26.5421E+06    -49.3575E+06    -208.188E+06    -49.3694E+06    -208.176E+06    -26.5421E+06    -223.268E+03         29.5273
             847     4.72719E-03     23.4696E-03     450.786E-03     432.276E-03        -1.52389     431.787E-03        -1.52341     450.786E-03     16.0339E-03     113.138E-03    -56.4105E-03    -56.6913E-03    -56.3767E-03     113.100E-03    -56.6867E-03     5.07907E-03    -34.4740E+06    -52.5277E+06    -214.860E+06    -52.5347E+06    -214.853E+06    -34.4740E+06     453.365E+03         29.1674
             848     3.78038E-03     23.4649E-03     454.509E-03     440.472E-03        -1.53962     439.888E-03        -1.53904     454.509E-03    -32.5755E-03     112.942E-03    -56.2848E-03    -56.6690E-03    -56.2637E-03     112.921E-03    -56.6690E-03     3.66623E-03    -43.9211E+06    -56.2039E+06    -217.069E+06    -56.2088E+06    -217.064E+06    -43.9211E+06    -249.468E+03         28.9064
             849     2.83537E-03     23.4618E-03     469.632E-03     448.949E-03        -1.56464     461.879E-03        -1.56316     455.222E-03     45.8119E-03     113.121E-03    -56.4211E-03    -56.7131E-03    -56.4466E-03     113.113E-03    -56.6799E-03     2.18957E-03    -50.6136E+06    -60.5336E+06    -221.351E+06    -60.5368E+06    -221.348E+06    -50.6136E+06    -585.637E+03         28.7116
             850     1.89071E-03     23.4611E-03     476.208E-03     449.097E-03        -1.57219     469.169E-03        -1.56515     449.097E-03    -74.7899E-03     113.150E-03    -56.3869E-03    -56.7645E-03    -56.4521E-03     113.147E-03    -56.6966E-03     1.18690E-03    -56.7238E+06    -64.4852E+06    -223.561E+06    -64.5054E+06    -223.541E+06    -56.7238E+06    -819.903E+03         28.5523
             851     944.615E-06     23.4591E-03     504.601E-03     420.627E-03        -1.57967     467.574E-03        -1.54264     420.627E-03     213.136E-03     113.309E-03    -56.3456E-03    -56.9709E-03    -56.7940E-03     113.307E-03    -56.5209E-03     799.666E-06    -64.4812E+06    -72.1332E+06    -227.795E+06    -70.4370E+06    -227.753E+06    -66.2194E+06     567.162E+03         28.4334
             852     16.0725E-03     22.8015E-03     454.694E-03     435.459E-03        -1.52921     440.258E-03        -1.52886     449.547E-03     11.9961E-03     119.606E-03    -56.7466E-03    -62.9295E-03    -54.2498E-03     110.926E-03    -56.7466E-03     73.6118E-03     162.805E+06     123.580E+06    -7.91631E+06    -7.84810E+06     162.736E+06     123.580E+06     68.4168E+03         49.9903
             853     15.1247E-03     22.6927E-03     450.460E-03     437.232E-03        -1.52402     436.911E-03        -1.52370     450.460E-03     1.68767E-03     123.964E-03    -56.7761E-03    -67.2771E-03    -55.0687E-03     111.756E-03    -56.7761E-03     93.2054E-03     158.151E+06     108.040E+06    -15.9216E+06    -15.8489E+06     158.078E+06     108.040E+06     1.47116E+06         47.0208
             854     14.1811E-03     22.5973E-03     451.405E-03     443.039E-03        -1.52809     442.742E-03        -1.52780     451.405E-03    -492.100E-06     120.591E-03    -56.5671E-03    -64.1137E-03    -55.7038E-03     112.181E-03    -56.5671E-03     76.5768E-03     145.779E+06     61.7385E+06    -22.5559E+06    -22.4977E+06     145.721E+06     61.7385E+06     1.73371E+06         43.3820
             855     13.2363E-03     22.5226E-03     452.506E-03     447.204E-03        -1.53638     447.463E-03        -1.53613     452.003E-03     423.575E-06     115.906E-03    -56.3595E-03    -59.7974E-03    -55.3298E-03     111.438E-03    -56.3595E-03     53.7705E-03     123.622E+06     7.48011E+06    -25.6865E+06    -25.6286E+06     123.564E+06     7.48011E+06     1.40045E+06         39.9168
             856     12.2883E-03     22.4796E-03     456.256E-03     449.317E-03        -1.54272     453.198E-03        -1.54253     452.189E-03     15.0076E-03     113.303E-03    -56.3661E-03    -57.2223E-03    -55.4571E-03     111.538E-03    -56.3661E-03     33.9687E-03     57.3402E+06    -11.1245E+06    -27.6679E+06    -27.5415E+06     57.2138E+06    -11.1245E+06     1.93748E+06         37.1158
             857     11.3436E-03     22.4487E-03     460.794E-03     451.358E-03        -1.54564     460.208E-03        -1.54550     451.807E-03    -11.6279E-03     113.271E-03    -56.3993E-03    -56.9714E-03    -56.0031E-03     112.302E-03    -56.3993E-03     25.4830E-03    -2.89851E+06    -19.2885E+06    -44.4903E+06    -30.0324E+06    -27.3695E+06    -9.27529E+06     2.24586E+06         34.9823
             858     10.3979E-03     22.4230E-03     462.587E-03     446.033E-03        -1.54270     456.723E-03        -1.54199     451.195E-03     39.7340E-03     113.318E-03    -56.4230E-03    -56.8509E-03    -56.1879E-03     112.655E-03    -56.4230E-03     21.1152E-03    -11.9113E+06    -31.9339E+06    -85.3251E+06    -32.0293E+06    -85.2298E+06    -11.9113E+06     1.42526E+06         33.3846
             859     9.45252E-03     22.4013E-03     460.831E-03     445.595E-03        -1.54401     454.645E-03        -1.54298     450.756E-03     48.5527E-03     113.320E-03    -56.5222E-03    -56.7956E-03    -56.3965E-03     112.921E-03    -56.5222E-03     16.1704E-03    -11.3388E+06    -34.7663E+06    -127.427E+06    -34.8336E+06    -127.359E+06    -11.3388E+06     1.89888E+06         32.1850
             860     8.50766E-03     22.3868E-03     459.574E-03     450.093E-03        -1.54873     459.024E-03        -1.54818     450.093E-03    -26.5998E-03     113.283E-03    -56.5233E-03    -56.7821E-03    -56.4844E-03     113.066E-03    -56.6038E-03     12.0899E-03    -11.4586E+06    -38.1909E+06    -155.055E+06    -38.3121E+06    -154.934E+06    -11.4586E+06     3.21345E+06         31.2755
             861     7.56226E-03     22.3738E-03     456.020E-03     438.408E-03        -1.53461     443.963E-03        -1.53415     450.004E-03    -55.5069E-03     113.233E-03    -56.4439E-03    -56.6363E-03    -56.3516E-03     113.088E-03    -56.5826E-03     9.87132E-03    -17.6076E+06    -41.3034E+06    -176.514E+06    -41.3888E+06    -176.429E+06    -17.6076E+06     2.50714E+06         30.5512
             862     6.61723E-03     22.3643E-03     452.399E-03     438.160E-03        -1.53170     438.621E-03        -1.53109     451.324E-03    -11.2530E-03     113.138E-03    -56.4064E-03    -56.5912E-03    -56.3236E-03     113.053E-03    -56.5888E-03     7.50453E-03    -23.9838E+06    -45.1667E+06    -195.255E+06    -45.1886E+06    -195.233E+06    -23.9838E+06     825.633E+03         29.9638
             863     5.67195E-03     22.3570E-03     463.585E-03     446.742E-03        -1.55345     458.035E-03        -1.55291     451.748E-03     40.7936E-03     113.059E-03    -56.3888E-03    -56.6296E-03    -56.3399E-03     113.010E-03    -56.6296E-03     5.70356E-03    -27.3843E+06    -49.8589E+06    -209.028E+06    -49.8598E+06    -209.027E+06    -27.3843E+06     120.000E+03         29.4978
             864     4.72590E-03     22.3514E-03     463.717E-03     445.425E-03        -1.55332     458.224E-03        -1.55287     450.470E-03     13.7242E-03     112.950E-03    -56.3318E-03    -56.6081E-03    -56.3002E-03     112.919E-03    -56.6081E-03     4.54705E-03    -33.8498E+06    -53.8945E+06    -214.264E+06    -53.8979E+06    -214.260E+06    -33.8498E+06     484.793E+03         29.1420
             865     3.78151E-03     22.3470E-03     458.391E-03     441.904E-03        -1.54425     450.177E-03        -1.54374     449.615E-03    -29.1795E-03     112.847E-03    -56.2501E-03    -56.5911E-03    -56.2319E-03     112.829E-03    -56.5911E-03     3.43115E-03    -45.9522E+06    -57.7906E+06    -216.796E+06    -57.8111E+06    -216.776E+06    -45.9522E+06     941.195E+03         28.8835
             866     2.83557E-03     22.3432E-03     461.272E-03     437.202E-03        -1.54551     446.373E-03        -1.54356     450.150E-03     60.3782E-03     113.055E-03    -56.3821E-03    -56.6524E-03    -56.4635E-03     113.047E-03    -56.5636E-03     2.08102E-03    -55.9006E+06    -61.1430E+06    -220.600E+06    -61.1671E+06    -220.576E+06    -55.9006E+06    -157.399E+03         28.6865
             867     1.89018E-03     22.3426E-03     459.693E-03     443.024E-03        -1.55028     444.877E-03        -1.54516     452.721E-03    -32.7143E-03     113.229E-03    -56.4545E-03    -56.7726E-03    -56.7705E-03     113.227E-03    -56.4545E-03     1.06388E-03    -57.6858E+06    -63.9751E+06    -224.306E+06    -63.9865E+06    -224.295E+06    -57.6858E+06    -831.727E+03         28.5222
             868     946.128E-06     22.3402E-03     494.778E-03     442.327E-03        -1.58852     464.175E-03        -1.56077     445.180E-03     205.661E-03     112.641E-03    -56.1640E-03    -56.4835E-03    -56.4650E-03     112.640E-03    -56.1817E-03     554.692E-06    -60.0406E+06    -68.7517E+06    -227.681E+06    -67.1199E+06    -227.642E+06    -61.7116E+06    -67.7065E+03         28.4003
             869     16.0717E-03     21.6838E-03     451.646E-03     431.095E-03        -1.51935     430.958E-03        -1.51922     451.646E-03     3.02768E-03     119.637E-03    -56.7760E-03    -62.9255E-03    -54.3829E-03     111.094E-03    -56.7760E-03     72.8258E-03     162.065E+06     123.152E+06    -7.92121E+06    -7.88402E+06     162.028E+06     123.152E+06     342.608E+03         49.9494
             870     15.1267E-03     21.5717E-03     452.804E-03     441.244E-03        -1.53217     441.105E-03        -1.53200     452.776E-03     14.8268E-03     124.342E-03    -56.7785E-03    -67.6782E-03    -55.3985E-03     112.063E-03    -56.7785E-03     93.7070E-03     157.857E+06     108.142E+06    -16.1193E+06    -16.0504E+06     157.788E+06     108.142E+06     570.885E+03         46.9836
             871     14.1803E-03     21.4765E-03     453.565E-03     450.360E-03        -1.54322     450.289E-03        -1.54296     453.378E-03     1.71610E-03     120.722E-03    -56.5561E-03    -64.2785E-03    -55.7861E-03     112.230E-03    -56.5561E-03     76.9381E-03     145.939E+06     60.9148E+06    -21.4907E+06    -21.4147E+06     145.863E+06     60.9148E+06     1.25842E+06         43.3445
             872     13.2335E-03     21.4041E-03     454.295E-03     451.520E-03        -1.54899     451.982E-03        -1.54879     453.633E-03     94.5390E-06     116.044E-03    -56.3352E-03    -59.9597E-03    -55.4791E-03     111.563E-03    -56.3352E-03     54.0121E-03     123.075E+06     4.09017E+06    -25.2254E+06    -25.1614E+06     123.011E+06     4.09017E+06     1.99790E+06         39.8797
             873     12.2895E-03     21.3597E-03     459.161E-03     452.214E-03        -1.55401     457.024E-03        -1.55329     453.638E-03    -11.4938E-03     113.702E-03    -56.3302E-03    -57.6278E-03    -55.8299E-03     111.905E-03    -56.3302E-03     34.2640E-03     57.2242E+06    -13.5053E+06    -27.3951E+06    -27.2572E+06     57.0863E+06    -13.5053E+06     2.47438E+06         37.0819
             874     11.3435E-03     21.3294E-03     462.302E-03     451.104E-03        -1.55512     459.315E-03        -1.55437     453.337E-03    -47.3952E-03     113.377E-03    -56.3626E-03    -57.1265E-03    -56.1859E-03     112.437E-03    -56.3626E-03     25.1319E-03    -3.08103E+06    -18.7768E+06    -44.0286E+06    -28.5274E+06    -27.1486E+06    -10.2105E+06     2.66922E+06         34.9513
             875     10.3986E-03     21.3036E-03     457.617E-03     439.341E-03        -1.53861     442.944E-03        -1.53827     453.673E-03     5.87772E-03     113.424E-03    -56.3570E-03    -57.0125E-03    -56.3765E-03     112.788E-03    -56.3570E-03     20.6806E-03    -12.4191E+06    -31.2155E+06    -85.1155E+06    -31.4668E+06    -84.8642E+06    -12.4191E+06     2.90143E+06         33.3550
             876     9.45365E-03     21.2826E-03     456.961E-03     438.064E-03        -1.53923     439.276E-03        -1.53853     455.058E-03    -15.5623E-03     113.250E-03    -56.4047E-03    -56.8014E-03    -56.4324E-03     112.881E-03    -56.4047E-03     15.5071E-03    -12.7148E+06    -34.5381E+06    -128.281E+06    -34.7242E+06    -128.095E+06    -12.7148E+06     3.00532E+06         32.1531
             877     8.50824E-03     21.2675E-03     463.257E-03     446.352E-03        -1.55358     452.604E-03        -1.55273     456.154E-03    -82.1644E-03     113.151E-03    -56.4709E-03    -56.6955E-03    -56.5032E-03     112.958E-03    -56.4709E-03     11.3812E-03    -13.5042E+06    -37.0633E+06    -154.768E+06    -37.1529E+06    -154.678E+06    -13.5042E+06     2.76909E+06         31.2387
             878     7.56349E-03     21.2555E-03     462.608E-03     438.019E-03        -1.54373     442.336E-03        -1.54285     457.408E-03    -83.3199E-03     113.220E-03    -56.4611E-03    -56.6566E-03    -56.5323E-03     113.095E-03    -56.4611E-03     9.07567E-03    -15.6072E+06    -39.6213E+06    -174.703E+06    -39.6805E+06    -174.644E+06    -15.6072E+06     2.64615E+06         30.5110
             879     6.61804E-03     21.2455E-03     459.888E-03     440.436E-03        -1.54115     439.760E-03        -1.54047     459.888E-03    -68.2083E-03     112.868E-03    -56.2869E-03    -56.5289E-03    -56.2776E-03     112.801E-03    -56.4710E-03     6.61895E-03    -19.8194E+06    -43.7784E+06    -194.589E+06    -43.8591E+06    -194.509E+06    -19.8194E+06     2.82444E+06         29.9219
             880     5.67247E-03     21.2386E-03     477.746E-03     455.412E-03        -1.57073     472.602E-03        -1.57056     460.381E-03    -19.3259E-03     112.714E-03    -56.1979E-03    -56.5278E-03    -56.2080E-03     112.678E-03    -56.4822E-03     4.83181E-03    -27.5732E+06    -49.2748E+06    -207.174E+06    -49.3301E+06    -207.119E+06    -27.5732E+06     1.42171E+06         29.4568
             881     4.72747E-03     21.2325E-03     486.123E-03     456.478E-03        -1.58298     485.931E-03        -1.58279     456.478E-03    -11.2092E-03     112.736E-03    -56.2709E-03    -56.4581E-03    -56.3115E-03     112.718E-03    -56.3995E-03     3.28629E-03    -36.2226E+06    -53.7619E+06    -215.136E+06    -53.7641E+06    -215.134E+06    -36.2226E+06     121.513E+03         29.1048
             882     3.78118E-03     21.2285E-03     471.102E-03     451.245E-03        -1.56418     469.915E-03        -1.56300     451.245E-03    -77.0353E-03     112.590E-03    -56.1714E-03    -56.3674E-03    -56.1750E-03     112.580E-03    -56.3545E-03     2.22746E-03    -43.4662E+06    -56.0405E+06    -217.141E+06    -56.0572E+06    -217.125E+06    -43.4662E+06     860.086E+03         28.8474
             883     2.83605E-03     21.2258E-03     461.454E-03     441.531E-03        -1.54388     451.773E-03        -1.54105     448.375E-03     23.5800E-03     112.576E-03    -56.1365E-03    -56.3813E-03    -56.1866E-03     112.570E-03    -56.3256E-03     1.69853E-03    -49.9033E+06    -58.5904E+06    -217.717E+06    -58.6384E+06    -217.669E+06    -49.9033E+06     1.21720E+06         28.6462
             884     1.89132E-03     21.2224E-03     456.867E-03     440.730E-03        -1.54282     440.039E-03        -1.53569     450.427E-03    -60.0351E-03     112.642E-03    -56.1205E-03    -56.5024E-03    -56.3692E-03     112.640E-03    -56.2522E-03     875.119E-06    -56.2691E+06    -64.0083E+06    -223.735E+06    -64.0440E+06    -223.700E+06    -56.2691E+06     170.163E+03         28.4754
             885     945.815E-06     21.2226E-03     487.592E-03     449.876E-03        -1.59126     453.311E-03        -1.55983     452.729E-03     185.985E-03     112.340E-03    -55.7194E-03    -56.6228E-03    -56.5077E-03     112.340E-03    -55.8343E-03     294.889E-06    -63.9533E+06    -70.0950E+06    -230.394E+06    -68.4427E+06    -230.375E+06    -65.6243E+06    -1.33365E+06         28.3513
             886     16.0735E-03     20.5652E-03     459.097E-03     442.187E-03        -1.54731     447.179E-03        -1.54724     454.040E-03    -7.34349E-03     120.175E-03    -56.7815E-03    -63.4540E-03    -54.8274E-03     111.548E-03    -56.7815E-03     73.2327E-03     162.835E+06     124.674E+06    -6.54324E+06    -6.52014E+06     162.812E+06     124.674E+06     778.429E+03         49.8948
             887     15.1251E-03     20.4520E-03     454.780E-03     444.518E-03        -1.54917     444.521E-03        -1.54914     454.752E-03    -994.273E-06     124.311E-03    -56.7621E-03    -67.6492E-03    -55.2599E-03     111.922E-03    -56.7621E-03     94.0777E-03     157.491E+06     106.686E+06    -15.6923E+06    -15.6536E+06     157.452E+06     106.686E+06     666.510E+03         46.9334
             888     14.1798E-03     20.3559E-03     455.556E-03     452.434E-03        -1.55420     452.460E-03        -1.55404     455.368E-03    -20.0944E-03     120.336E-03    -56.5393E-03    -63.8975E-03    -55.5949E-03     112.033E-03    -56.5393E-03     75.8179E-03     143.999E+06     59.1301E+06    -22.8017E+06    -22.7417E+06     143.939E+06     59.1301E+06     645.982E+03         43.2944
             889     13.2355E-03     20.2850E-03     455.928E-03     452.039E-03        -1.55110     451.942E-03        -1.55084     455.769E-03    -8.05611E-03     116.244E-03    -56.3043E-03    -60.1835E-03    -55.9122E-03     111.973E-03    -56.3043E-03     52.9505E-03     122.650E+06     4.47574E+06    -25.4398E+06    -25.3822E+06     122.592E+06     4.47574E+06     1.67039E+06         39.8292
             890     12.2892E-03     20.2386E-03     457.784E-03     447.796E-03        -1.54636     448.531E-03        -1.54564     456.327E-03    -25.9133E-03     114.020E-03    -56.2633E-03    -58.0166E-03    -56.3036E-03     112.307E-03    -56.2633E-03     33.3538E-03     56.8400E+06    -13.3371E+06    -26.7523E+06    -26.5048E+06     56.5924E+06    -13.3371E+06     2.83983E+06         37.0328
             891     11.3451E-03     20.2099E-03     458.700E-03     444.164E-03        -1.54556     444.911E-03        -1.54485     457.243E-03    -49.4095E-03     113.517E-03    -56.2731E-03    -57.3739E-03    -56.5071E-03     112.650E-03    -56.2731E-03     24.2102E-03    -3.74235E+06    -18.5737E+06    -43.3122E+06    -28.5849E+06    -27.2691E+06    -9.77434E+06     3.76115E+06         34.9026
             892     10.3996E-03     20.1836E-03     463.469E-03     443.162E-03        -1.55487     448.012E-03        -1.55457     458.320E-03     19.7043E-03     113.587E-03    -56.2232E-03    -57.3119E-03    -56.7273E-03     113.002E-03    -56.2232E-03     19.7443E-03    -12.0213E+06    -30.0675E+06    -84.6882E+06    -30.5039E+06    -84.2518E+06    -12.0213E+06     3.62315E+06         33.3106
             893     9.45497E-03     20.1634E-03     464.561E-03     443.648E-03        -1.55676     448.162E-03        -1.55612     459.412E-03     21.2878E-03     113.322E-03    -56.2329E-03    -57.0014E-03    -56.7006E-03     113.021E-03    -56.2329E-03     13.9355E-03    -11.2450E+06    -31.8391E+06    -128.556E+06    -32.0714E+06    -128.323E+06    -11.2450E+06     3.64835E+06         32.1121
             894     8.50989E-03     20.1490E-03     461.524E-03     434.802E-03        -1.54179     434.035E-03        -1.54102     461.524E-03    -11.4841E-03     113.029E-03    -56.2665E-03    -56.7396E-03    -56.5884E-03     112.878E-03    -56.2665E-03     10.0269E-03    -11.3013E+06    -34.9314E+06    -153.628E+06    -35.0804E+06    -153.479E+06    -11.3013E+06     3.62005E+06         31.1871
             895     7.56474E-03     20.1362E-03     468.976E-03     443.316E-03        -1.55383     447.574E-03        -1.55321     464.098E-03    -24.5303E-03     112.916E-03    -56.2528E-03    -56.6019E-03    -56.5143E-03     112.829E-03    -56.2528E-03     7.39851E-03    -14.0137E+06    -39.4549E+06    -174.377E+06    -39.5564E+06    -174.276E+06    -14.0137E+06     3.49327E+06         30.4476
             896     6.61995E-03     20.1276E-03     470.287E-03     459.015E-03        -1.56707     463.059E-03        -1.56613     465.302E-03    -4.80489E-03     112.598E-03    -56.1299E-03    -56.4984E-03    -56.3724E-03     112.559E-03    -56.2170E-03     4.96905E-03    -19.2641E+06    -43.8097E+06    -194.637E+06    -43.9292E+06    -194.517E+06    -19.2641E+06     3.88914E+06         29.8528
             897     5.67432E-03     20.1208E-03     472.086E-03     454.018E-03        -1.56375     459.386E-03        -1.56305     466.016E-03     8.20999E-03     112.317E-03    -56.0336E-03    -56.3732E-03    -56.2655E-03     112.296E-03    -56.1207E-03     3.51611E-03    -29.0001E+06    -48.3726E+06    -204.232E+06    -48.5061E+06    -204.099E+06    -29.0001E+06     3.48908E+06         29.3823
             898     4.72896E-03     20.1143E-03     489.170E-03     456.437E-03        -1.58580     480.462E-03        -1.58569     465.035E-03     8.38439E-03     112.167E-03    -55.9987E-03    -56.2045E-03    -56.1962E-03     112.158E-03    -55.9987E-03     2.10717E-03    -39.1471E+06    -54.0443E+06    -213.742E+06    -54.1155E+06    -213.671E+06    -39.1471E+06     1.07846E+06         29.0274
             899     3.78426E-03     20.1112E-03     480.194E-03     460.594E-03        -1.58660     478.515E-03        -1.58570     461.377E-03    -37.3266E-03     111.959E-03    -55.8327E-03    -56.0984E-03    -56.0259E-03     111.957E-03    -55.9027E-03     1.23382E-03    -43.1152E+06    -58.3353E+06    -217.301E+06    -58.3461E+06    -217.291E+06    -43.1152E+06     98.6948E+03         28.7696
             900     2.83786E-03     20.1074E-03     469.347E-03     457.035E-03        -1.57882     466.500E-03        -1.57675     457.818E-03     18.1608E-03     111.571E-03    -55.6298E-03    -55.9181E-03    -55.7165E-03     111.570E-03    -55.8298E-03     713.707E-06    -48.1851E+06    -62.0677E+06    -218.042E+06    -62.1031E+06    -218.007E+06    -48.1851E+06     1.64567E+06         28.5682
             901     1.89113E-03     20.1049E-03     473.998E-03     452.465E-03        -1.58457     468.192E-03        -1.57876     452.465E-03    -65.1490E-03     111.371E-03    -55.5395E-03    -55.8369E-03    -55.5374E-03     111.369E-03    -55.8369E-03    -48.2245E-06    -59.0959E+06    -66.0340E+06    -222.709E+06    -66.0617E+06    -222.673E+06    -59.1043E+06     1.82566E+06         28.3980
             902     944.949E-06     20.1050E-03     478.454E-03     443.752E-03        -1.58961     434.448E-03        -1.56446     462.609E-03     148.494E-03     111.693E-03    -55.3872E-03    -56.3143E-03    -55.9799E-03     111.692E-03    -55.7203E-03    -76.5935E-06    -68.6842E+06    -71.0032E+06    -229.100E+06    -71.0043E+06    -229.091E+06    -68.6926E+06     486.265E+03         28.2753
             903     16.0715E-03     19.4447E-03     465.598E-03     444.171E-03        -1.55825     453.004E-03        -1.55798     456.500E-03     2.84044E-03     120.674E-03    -56.7718E-03    -63.9796E-03    -55.2622E-03     111.956E-03    -56.7718E-03     74.2168E-03     161.994E+06     123.324E+06    -7.87858E+06    -7.86693E+06     161.983E+06     123.324E+06     583.294E+03         49.8214
             904     15.1279E-03     19.3324E-03     461.852E-03     449.322E-03        -1.55788     454.110E-03        -1.55770     456.876E-03    -4.45435E-03     124.725E-03    -56.7369E-03    -68.0847E-03    -55.8337E-03     112.474E-03    -56.7369E-03     93.7893E-03     157.840E+06     107.620E+06    -14.3637E+06    -14.3459E+06     157.823E+06     107.620E+06     1.18080E+06         46.8658
             905     14.1812E-03     19.2361E-03     458.362E-03     447.260E-03        -1.55369     448.110E-03        -1.55361     457.427E-03    -438.993E-06     120.409E-03    -56.4881E-03    -64.0188E-03    -55.8174E-03     112.207E-03    -56.4881E-03     75.4920E-03     144.321E+06     60.1795E+06    -21.2796E+06    -21.2592E+06     144.301E+06     60.1795E+06     747.631E+03         43.2304
             906     13.2350E-03     19.1641E-03     458.203E-03     448.418E-03        -1.55093     448.262E-03        -1.55077     458.203E-03    -1.11757E-03     116.524E-03    -56.2139E-03    -60.5835E-03    -56.3723E-03     112.313E-03    -56.2139E-03     52.4372E-03     120.957E+06     4.08257E+06    -26.0688E+06    -26.0353E+06     120.923E+06     4.08257E+06     1.18273E+06         39.7632
             907     12.2915E-03     19.1192E-03     459.114E-03     447.337E-03        -1.54841     447.100E-03        -1.54817     459.114E-03    -9.57846E-03     114.230E-03    -56.1216E-03    -58.4086E-03    -56.8545E-03     112.675E-03    -56.1216E-03     31.6930E-03     55.6059E+06    -15.4848E+06    -28.0662E+06    -27.8421E+06     55.3817E+06    -15.4848E+06     2.94484E+06         36.9620
             908     11.3460E-03     19.0904E-03     460.532E-03     439.603E-03        -1.54695     439.236E-03        -1.54658     460.532E-03    -37.6533E-03     113.709E-03    -56.0974E-03    -57.7900E-03    -57.0409E-03     112.959E-03    -56.0974E-03     22.5328E-03    -3.03962E+06    -19.1754E+06    -43.5806E+06    -27.8067E+06    -26.8745E+06    -11.1144E+06     3.27594E+06         34.8252
             909     10.4024E-03     19.0637E-03     466.990E-03     449.057E-03        -1.56704     453.806E-03        -1.56664     461.841E-03     793.631E-06     113.696E-03    -55.9930E-03    -57.7106E-03    -57.2291E-03     113.215E-03    -55.9930E-03     17.7921E-03    -11.4602E+06    -28.3167E+06     -84.898E+06    -28.7981E+06    -84.4166E+06    -11.4602E+06     3.74662E+06         33.2363
             910     9.45778E-03     19.0444E-03     471.696E-03     456.981E-03        -1.57601     466.284E-03        -1.57567     462.049E-03     26.1146E-03     113.332E-03    -55.9121E-03    -57.3472E-03    -57.1375E-03     113.122E-03    -55.9121E-03     11.5063E-03    -10.9713E+06    -31.7208E+06    -128.113E+06    -32.0701E+06    -127.764E+06    -10.9713E+06     4.87627E+06         32.0435
             911     8.51347E-03     19.0299E-03     473.399E-03     445.292E-03        -1.56565     456.011E-03        -1.56518     462.211E-03     5.96437E-03     112.818E-03    -55.8617E-03    -56.9102E-03    -56.8207E-03     112.728E-03    -55.8617E-03     7.65155E-03    -11.5518E+06    -35.7424E+06    -152.486E+06    -35.9817E+06    -152.247E+06    -11.5518E+06     5.03632E+06         31.1032
             912     7.56851E-03     19.0176E-03     474.360E-03     447.651E-03        -1.56820     458.777E-03        -1.56776     462.791E-03    -16.1480E-03     112.339E-03    -55.7970E-03    -56.4662E-03    -56.4225E-03     112.295E-03    -55.7970E-03     5.00212E-03    -14.8639E+06    -39.4699E+06    -174.133E+06    -39.6419E+06    -173.961E+06    -14.8639E+06     4.56178E+06         30.3436
             913     6.62277E-03     19.0103E-03     470.993E-03     460.469E-03        -1.57304     468.013E-03        -1.57221     462.621E-03     37.1756E-03     112.013E-03    -55.6995E-03    -56.3221E-03    -56.3078E-03     111.999E-03    -55.6995E-03     2.90640E-03    -20.2369E+06    -42.5358E+06    -194.167E+06    -42.7001E+06    -194.002E+06    -20.2369E+06     4.65514E+06         29.7392
             914     5.67783E-03     19.0024E-03     466.586E-03     449.640E-03        -1.56265     452.423E-03        -1.56194     463.093E-03     40.4888E-03     111.556E-03    -55.5289E-03    -56.0612E-03    -56.0543E-03     111.550E-03    -55.5289E-03     1.58411E-03    -27.0381E+06    -45.8694E+06    -202.485E+06    -46.0371E+06    -202.318E+06    -27.0381E+06     4.50685E+06         29.2625
             915     4.73193E-03     18.9983E-03     473.105E-03     443.672E-03        -1.56575     451.234E-03        -1.56558     465.369E-03     13.4307E-03     111.134E-03    -55.4075E-03    -55.7163E-03    -55.7143E-03     111.132E-03    -55.4075E-03     586.504E-06    -32.0991E+06    -50.5729E+06    -210.971E+06    -50.7926E+06    -210.751E+06    -32.0991E+06     4.12941E+06         28.9034
             916     3.78520E-03     18.9930E-03     477.105E-03     457.588E-03        -1.58216     467.851E-03        -1.58193     466.615E-03     12.9549E-03     110.881E-03    -55.2578E-03    -55.6313E-03    -55.6290E-03     110.878E-03    -55.2578E-03     252.573E-06    -43.0345E+06    -58.5035E+06    -216.098E+06    -58.6606E+06    -215.941E+06    -43.0345E+06     2.89714E+06         28.6433
             917     2.84017E-03     18.9915E-03     475.300E-03     455.341E-03        -1.58438     462.960E-03        -1.58386     467.164E-03     13.3772E-03     110.392E-03    -54.9890E-03    -55.4498E-03    -55.3529E-03     110.390E-03    -55.0844E-03    -302.158E-06    -54.5407E+06    -64.2419E+06    -218.337E+06    -64.2530E+06    -218.326E+06    -54.5407E+06     1.13661E+06         28.4415
             918     1.89374E-03     18.9894E-03     486.822E-03     444.486E-03        -1.58938     456.321E-03        -1.58612     471.728E-03    -83.6074E-03     109.917E-03    -54.8127E-03    -55.1393E-03    -54.9724E-03     109.916E-03    -54.9783E-03    -709.825E-06    -60.9471E+06    -65.9484E+06    -222.081E+06    -65.9595E+06    -222.062E+06    -60.9556E+06     1.50976E+06         28.2734
             919     947.164E-06     18.9879E-03     507.379E-03     453.591E-03        -1.63302     453.554E-03        -1.62328     497.667E-03     5.05498E-03     109.830E-03    -54.6958E-03    -55.1375E-03    -54.7206E-03     109.829E-03    -55.1111E-03    -523.241E-06    -66.7990E+06    -69.1768E+06    -225.830E+06    -68.3813E+06    -225.799E+06    -67.6262E+06     1.99531E+06         28.1512
             920     16.0722E-03     18.3237E-03     462.603E-03     440.158E-03        -1.55108     443.871E-03        -1.55075     458.562E-03     3.84515E-03     120.884E-03    -56.7738E-03    -64.1762E-03    -55.3566E-03     112.065E-03    -56.7738E-03     74.7683E-03     160.968E+06     122.557E+06    -8.29098E+06    -8.26178E+06     160.939E+06     122.557E+06     159.443E+03         49.7276
             921     15.1261E-03     18.2100E-03     464.340E-03     449.238E-03        -1.55695     454.023E-03        -1.55676     459.363E-03    -16.7930E-03     125.279E-03    -56.7262E-03    -68.6257E-03    -56.3543E-03     113.007E-03    -56.7262E-03     94.0880E-03     156.442E+06     107.969E+06    -14.9094E+06    -14.8874E+06     156.420E+06     107.969E+06     52.0047E+03         46.7761
             922     14.1822E-03     18.1171E-03     464.054E-03     448.286E-03        -1.55632     451.956E-03        -1.55601     460.077E-03    -22.5442E-03     121.582E-03    -56.4300E-03    -65.2570E-03    -57.1307E-03     113.456E-03    -56.4300E-03     75.6529E-03     143.863E+06     60.8088E+06    -20.6345E+06    -20.5878E+06     143.816E+06     60.8088E+06     1.97121E+06         43.1445
             923     13.2382E-03     18.0417E-03     463.995E-03     447.828E-03        -1.55760     450.524E-03        -1.55725     460.953E-03    -19.0420E-03     117.321E-03    -56.0489E-03    -61.5600E-03    -57.5373E-03     113.298E-03    -56.0489E-03     51.1791E-03     120.880E+06     3.25477E+06    -26.1939E+06    -26.1071E+06     120.793E+06     3.25477E+06     3.26367E+06         39.6741
             924     12.2937E-03     17.9983E-03     464.163E-03     451.460E-03        -1.56075     453.664E-03        -1.56057     461.776E-03    -10.5356E-03     114.663E-03    -55.8516E-03    -59.1197E-03    -57.8117E-03     113.354E-03    -55.8516E-03     29.0062E-03     56.3739E+06    -16.4446E+06    -28.4079E+06    -28.2869E+06     56.2529E+06    -16.4446E+06     1.86010E+06         36.8635
             925     11.3509E-03     17.9697E-03     465.009E-03     449.440E-03        -1.56327     451.476E-03        -1.56292     462.622E-03    -36.0286E-03     114.009E-03    -55.7289E-03    -58.4758E-03    -57.9132E-03     113.446E-03    -55.7289E-03     19.4949E-03    -3.73443E+06    -21.2507E+06    -44.7562E+06    -29.2635E+06    -27.5316E+06    -12.9462E+06     2.29240E+06         34.7136
             926     10.4066E-03     17.9428E-03     464.157E-03     441.790E-03        -1.55800     441.393E-03        -1.55760     464.157E-03    -313.272E-06     113.595E-03    -55.5324E-03    -58.1039E-03    -57.7832E-03     113.274E-03    -55.5324E-03     14.2689E-03    -13.4396E+06    -30.4457E+06    -86.4576E+06    -31.1802E+06    -85.7231E+06    -13.4396E+06     4.81664E+06         33.1150
             927     9.46300E-03     17.9246E-03     470.296E-03     450.145E-03        -1.56888     454.444E-03        -1.56869     465.798E-03     11.6175E-03     112.956E-03    -55.3219E-03    -57.6040E-03    -57.4915E-03     112.843E-03    -55.3219E-03     7.97237E-03    -13.2323E+06    -32.7165E+06    -127.419E+06    -33.1256E+06    -127.010E+06    -13.2323E+06     5.69399E+06         31.9153
             928     8.51862E-03     17.9111E-03     484.361E-03     463.475E-03        -1.59604     481.864E-03        -1.59558     465.519E-03    -46.3574E-03     112.168E-03    -55.1816E-03    -56.9527E-03    -56.9187E-03     112.134E-03    -55.1816E-03     4.05851E-03    -12.6933E+06    -35.2229E+06    -151.082E+06    -35.5218E+06    -150.783E+06    -12.6933E+06     5.69414E+06         30.9602
             929     7.57348E-03     17.9002E-03     478.915E-03     461.766E-03        -1.59148     476.057E-03        -1.59078     463.918E-03    -75.9443E-03     111.463E-03    -55.0786E-03    -56.3133E-03    -56.2999E-03     111.449E-03    -55.0786E-03     1.91084E-03    -15.6799E+06    -38.6960E+06    -173.537E+06    -38.9466E+06    -173.287E+06    -15.6799E+06     5.57426E+06         30.1861
             930     6.62830E-03     17.8926E-03     472.303E-03     460.564E-03        -1.58130     469.565E-03        -1.58071     462.717E-03    -32.4923E-03     110.806E-03    -54.9001E-03    -55.9207E-03    -55.9159E-03     110.801E-03    -54.9001E-03     184.224E-06    -21.3260E+06    -42.6708E+06    -192.988E+06    -42.8840E+06    -192.774E+06    -21.3260E+06     5.21115E+06         29.5740
             931     5.68212E-03     17.8860E-03     480.660E-03     456.203E-03        -1.58425     475.404E-03        -1.58385     461.057E-03     16.2792E-03     110.202E-03    -54.6728E-03    -55.5068E-03    -55.5001E-03     110.196E-03    -54.6728E-03    -1.09704E-03    -25.8703E+06    -46.2919E+06    -201.288E+06    -46.4886E+06    -201.091E+06    -25.8703E+06     4.81401E+06         29.0900
             932     4.73592E-03     17.8823E-03     471.706E-03     438.848E-03        -1.55832     449.303E-03        -1.55810     461.036E-03     18.4188E-03     109.684E-03    -54.4789E-03    -55.1228E-03    -55.1150E-03     109.676E-03    -54.4789E-03    -1.78502E-03    -30.9325E+06    -50.2941E+06    -210.071E+06    -50.5645E+06    -209.800E+06    -30.9325E+06     5.78750E+06         28.7261
             933     3.78971E-03     17.8783E-03     467.933E-03     438.635E-03        -1.55106     441.279E-03        -1.55094     465.179E-03     6.36955E-03     109.021E-03    -54.2747E-03    -54.7080E-03    -54.6990E-03     109.014E-03    -54.2759E-03    -1.94134E-03    -42.2897E+06    -53.9468E+06    -213.036E+06    -54.2099E+06    -212.773E+06    -42.2897E+06     5.61640E+06         28.4649
             934     2.84196E-03     17.8754E-03     475.138E-03     450.655E-03        -1.57300     454.408E-03        -1.57252     470.905E-03     27.6323E-03     108.579E-03    -54.1196E-03    -54.4503E-03    -54.4426E-03     108.572E-03    -54.1208E-03    -1.79371E-03    -52.8298E+06    -58.6148E+06    -215.696E+06    -58.7275E+06    -215.584E+06    -52.8298E+06     3.16317E+06         28.2616
             935     1.89536E-03     17.8746E-03     485.254E-03     452.181E-03        -1.58950     456.359E-03        -1.58785     479.423E-03    -33.5578E-03     108.200E-03    -53.9751E-03    -54.2284E-03    -54.2247E-03     108.196E-03    -53.9751E-03    -1.17132E-03    -56.0433E+06    -64.4003E+06    -220.849E+06    -64.4394E+06    -220.810E+06    -56.0433E+06     2.21791E+06         28.0913
             936     947.614E-06     17.8741E-03     510.615E-03     463.898E-03        -1.62620     481.253E-03        -1.62205     489.116E-03     14.4841E-03     107.648E-03    -53.5106E-03    -54.1390E-03    -53.9582E-03     107.647E-03    -53.6900E-03    -469.840E-06    -63.9914E+06    -70.1658E+06    -223.659E+06    -69.2562E+06    -223.607E+06    -64.9523E+06     2.79020E+06         27.9665
             937     16.0732E-03     17.2045E-03     463.512E-03     443.723E-03        -1.56258     446.494E-03        -1.56243     460.592E-03    -7.69697E-03     121.338E-03    -56.7746E-03    -64.5928E-03    -55.7958E-03     112.541E-03    -56.7746E-03     74.9565E-03     161.666E+06     123.993E+06    -6.96733E+06    -6.92520E+06     161.623E+06     123.993E+06     404.271E+03         49.6130
             938     15.1267E-03     17.0903E-03     461.840E-03     440.729E-03        -1.55947     440.676E-03        -1.55942     461.840E-03    -2.19273E-03     125.896E-03    -56.6748E-03    -69.2865E-03    -57.2501E-03     113.860E-03    -56.6748E-03     93.4830E-03     155.019E+06     106.291E+06    -16.0658E+06    -16.0284E+06     154.982E+06     106.291E+06     676.990E+03         46.6654
             939     14.1829E-03     16.9928E-03     466.724E-03     453.434E-03        -1.56973     456.964E-03        -1.56939     462.858E-03    -9.33564E-03     122.852E-03    -56.2751E-03    -66.7017E-03    -59.0968E-03     115.247E-03    -56.2751E-03     73.5823E-03     141.039E+06     60.1093E+06    -24.3027E+06    -24.2552E+06     140.992E+06     60.1093E+06     2.10626E+06         43.0371
             940     13.2417E-03     16.9203E-03     467.162E-03     456.167E-03        -1.57261     459.530E-03        -1.57210     463.296E-03     13.1487E-03     118.314E-03    -55.7406E-03    -62.8611E-03    -59.3763E-03     114.829E-03    -55.7406E-03     47.6594E-03     122.357E+06     5.81046E+06    -26.7238E+06    -26.6457E+06     122.279E+06     5.81046E+06     2.60210E+06         39.5622
             941     12.2999E-03     16.8760E-03     467.587E-03     456.495E-03        -1.57492     459.935E-03        -1.57440     463.625E-03    -1.79959E-03     115.163E-03    -55.3773E-03    -60.0884E-03    -59.0767E-03     114.151E-03    -55.3773E-03     25.3724E-03     57.9545E+06    -15.7819E+06    -28.0911E+06    -27.6303E+06     57.4938E+06    -15.7819E+06     2.56587E+06         36.7381
             942     11.3572E-03     16.8483E-03     467.754E-03     460.052E-03        -1.58064     463.651E-03        -1.58028     463.793E-03    -17.1765E-03     114.395E-03    -55.1112E-03    -59.4725E-03    -59.1083E-03     114.031E-03    -55.1112E-03     15.5916E-03    -4.93602E+06    -22.3233E+06    -46.0362E+06    -31.0551E+06    -28.6800E+06    -13.5604E+06     3.90407E+06         34.5700
             943     10.4152E-03     16.8228E-03     464.675E-03     445.614E-03        -1.56586     445.386E-03        -1.56563     464.675E-03     37.6404E-03     113.443E-03    -54.7549E-03    -58.7478E-03    -58.5839E-03     113.279E-03    -54.7549E-03     9.66697E-03    -16.0966E+06    -32.3291E+06    -87.3022E+06    -33.0476E+06    -86.5837E+06    -16.0966E+06     4.90055E+06         32.9500
             944     9.47127E-03     16.8051E-03     466.538E-03     446.508E-03        -1.56658     446.307E-03        -1.56638     466.538E-03     33.0341E-03     112.150E-03    -54.3946E-03    -57.7407E-03    -57.7053E-03     112.115E-03    -54.3946E-03     3.23004E-03    -16.9882E+06    -33.2035E+06    -126.557E+06    -33.5271E+06    -126.234E+06    -16.9882E+06     4.85494E+06         31.7323
             945     8.52714E-03     16.7937E-03     475.117E-03     461.159E-03        -1.58871     468.482E-03        -1.58838     467.464E-03    -3.40462E-03     111.147E-03    -54.1364E-03    -56.9426E-03    -56.9264E-03     111.131E-03    -54.1364E-03    -1.02107E-03    -15.7251E+06    -34.2876E+06    -150.851E+06    -34.5867E+06    -150.552E+06    -15.7251E+06     5.46144E+06         30.7634
             946     7.58171E-03     16.7839E-03     475.391E-03     464.658E-03        -1.59055     472.116E-03        -1.58970     467.084E-03    -514.077E-06     110.137E-03    -53.9371E-03    -56.0695E-03    -56.0422E-03     110.109E-03    -53.9371E-03    -3.00630E-03    -16.3849E+06    -36.1530E+06    -172.457E+06    -36.4535E+06    -172.157E+06    -16.3849E+06     6.25108E+06         29.9734
             947     6.63574E-03     16.7762E-03     473.373E-03     456.318E-03        -1.57920     461.656E-03        -1.57834     467.174E-03    -25.0008E-03     108.998E-03    -53.6777E-03    -55.2898E-03    -55.2469E-03     108.955E-03    -53.6777E-03    -4.34569E-03    -19.8935E+06    -40.0426E+06    -191.144E+06    -40.3445E+06    -190.842E+06    -19.8935E+06     6.22565E+06         29.3452
             948     5.68922E-03     16.7717E-03     483.883E-03     451.090E-03        -1.58252     466.813E-03        -1.58202     467.667E-03    -31.8699E-03     108.059E-03    -53.3797E-03    -54.6558E-03    -54.6066E-03     108.009E-03    -53.3797E-03    -5.09551E-03    -26.0303E+06    -45.3052E+06    -200.952E+06    -45.6065E+06    -200.650E+06    -26.0303E+06     6.31095E+06         28.8483
             949     4.74234E-03     16.7668E-03     483.032E-03     452.261E-03        -1.58098     466.684E-03        -1.58027     467.902E-03    -36.3259E-03     107.329E-03    -53.0962E-03    -54.1703E-03    -54.1257E-03     107.284E-03    -53.0962E-03    -5.01140E-03    -33.8498E+06    -48.5661E+06    -208.297E+06    -48.7701E+06    -208.093E+06    -33.8498E+06     5.51169E+06         28.4761
             950     3.79454E-03     16.7656E-03     474.908E-03     448.069E-03        -1.57303     451.302E-03        -1.57180     470.447E-03    -79.1798E-03     106.438E-03    -52.8646E-03    -53.5420E-03    -53.5021E-03     106.400E-03    -52.8659E-03    -4.65082E-03    -38.3577E+06    -50.4234E+06    -210.787E+06    -50.6173E+06    -210.593E+06    -38.3577E+06     5.39910E+06         28.2100
             951     2.84637E-03     16.7635E-03     480.410E-03     460.959E-03        -1.59187     465.866E-03        -1.59062     474.248E-03    -22.6374E-03     105.714E-03    -52.7237E-03    -52.9568E-03    -52.9264E-03     105.684E-03    -52.7249E-03    -4.05890E-03    -43.1950E+06    -54.4154E+06    -212.044E+06    -54.6618E+06    -211.798E+06    -43.1950E+06     5.92973E+06         28.0020
             952     1.89731E-03     16.7625E-03     495.587E-03     469.871E-03        -1.60776     492.964E-03        -1.60514     469.871E-03    -60.5075E-03     105.364E-03    -52.6092E-03    -52.7374E-03    -52.7188E-03     105.345E-03    -52.6092E-03    -3.14690E-03    -51.1809E+06    -60.0409E+06    -218.237E+06    -60.1718E+06    -218.106E+06    -51.1809E+06     3.76716E+06         27.8295
             953     949.127E-06     16.7625E-03     486.667E-03     446.527E-03        -1.56603     478.205E-03        -1.56101     449.966E-03    -2.76269E-03     105.022E-03    -52.2514E-03    -52.7716E-03    -52.7658E-03     105.016E-03    -52.2514E-03    -1.15363E-03    -59.5873E+06    -65.2210E+06    -219.885E+06    -65.1097E+06    -219.854E+06    -59.7294E+06     1.66981E+06         27.7068
             954     16.0726E-03     16.0830E-03     466.303E-03     453.880E-03        -1.57505     457.019E-03        -1.57492     463.030E-03    -2.83207E-03     122.655E-03    -56.7209E-03    -65.9742E-03    -57.4097E-03     114.090E-03    -56.7209E-03     74.8191E-03     160.717E+06     123.705E+06    -7.27861E+06    -7.23410E+06     160.672E+06     123.705E+06     1.09564E+06         49.4780
             955     15.1300E-03     15.9680E-03     467.803E-03     452.609E-03        -1.57448     456.766E-03        -1.57443     463.594E-03     776.955E-06     127.743E-03    -56.5029E-03    -71.3186E-03    -59.6273E-03     116.052E-03    -56.5029E-03     93.2099E-03     154.461E+06     107.097E+06    -16.0146E+06    -15.9569E+06     154.403E+06     107.097E+06     3.03037E+06         46.5375
             956     14.1892E-03     15.8686E-03     468.787E-03     453.727E-03        -1.57482     458.232E-03        -1.57465     464.107E-03    -2.03116E-03     124.238E-03    -55.9101E-03    -68.4263E-03    -61.3382E-03     117.150E-03    -55.9101E-03     71.4163E-03     141.458E+06     61.2516E+06    -22.3255E+06    -22.3010E+06     141.433E+06     61.2516E+06     1.20729E+06         42.9152
             957     13.2494E-03     15.7958E-03     466.037E-03     457.562E-03        -1.57809     458.761E-03        -1.57781     464.559E-03     16.1745E-03     119.123E-03    -55.1897E-03    -64.2289E-03    -61.3816E-03     116.276E-03    -55.1897E-03     42.9682E-03     121.350E+06     4.86936E+06    -25.8263E+06    -25.7560E+06     121.279E+06     4.86936E+06     1.41456E+06         39.4365
             958     12.3086E-03     15.7549E-03     467.195E-03     459.457E-03        -1.58324     461.076E-03        -1.58263     464.967E-03    -20.9311E-03     115.877E-03    -54.6444E-03    -61.5624E-03    -60.8697E-03     115.184E-03    -54.6444E-03     20.8194E-03     57.4272E+06    -16.6792E+06    -28.3566E+06    -27.7827E+06     56.8533E+06    -16.6792E+06     4.26691E+06         36.5984
             959     11.3676E-03     15.7264E-03     467.118E-03     455.566E-03        -1.57944     456.646E-03        -1.57894     465.543E-03    -35.4400E-03     114.774E-03    -54.1817E-03    -60.7410E-03    -60.5576E-03     114.591E-03    -54.1817E-03     10.2972E-03    -4.94315E+06    -21.4954E+06    -45.8227E+06    -29.2396E+06    -28.5480E+06    -14.4737E+06     5.34613E+06         34.4095
             960     10.4262E-03     15.7029E-03     472.207E-03     457.301E-03        -1.58730     463.269E-03        -1.58716     466.101E-03     1.71302E-03     113.273E-03    -53.6285E-03    -59.7046E-03    -59.6475E-03     113.216E-03    -53.6285E-03     3.25318E-03    -16.5478E+06    -29.6866E+06    -85.7788E+06    -30.3530E+06    -85.1124E+06    -16.5478E+06     4.64032E+06         32.7644
             961     9.48371E-03     15.6875E-03     475.896E-03     460.548E-03        -1.59547     470.200E-03        -1.59528     466.062E-03    -12.5745E-03     111.319E-03    -53.0517E-03    -58.2579E-03    -58.2038E-03     111.265E-03    -53.0517E-03    -3.33613E-03    -20.0191E+06    -31.7565E+06    -125.466E+06    -32.0307E+06    -125.192E+06    -20.0191E+06     4.28049E+06         31.5228
             962     8.53926E-03     15.6767E-03     469.765E-03     459.670E-03        -1.58675     462.865E-03        -1.58622     466.038E-03    -23.8932E-03     109.693E-03    -52.5924E-03    -56.9878E-03    -56.8772E-03     109.582E-03    -52.5924E-03    -7.54429E-03    -19.7716E+06    -33.4541E+06    -151.776E+06    -33.6962E+06    -151.534E+06    -19.7716E+06     4.81734E+06         30.5295
             963     7.59460E-03     15.6694E-03     466.661E-03     460.149E-03        -1.58254     459.301E-03        -1.58169     466.661E-03     9.21991E-03     108.116E-03    -52.2213E-03    -55.7416E-03    -55.5901E-03     107.964E-03    -52.2213E-03    -9.32488E-03    -18.2075E+06    -35.5608E+06    -172.377E+06    -36.0073E+06    -171.930E+06    -18.2075E+06     7.03229E+06         29.7104
             964     6.64777E-03     15.6637E-03     468.748E-03     446.367E-03        -1.57300     445.744E-03        -1.57237     468.748E-03     14.1126E-03     106.401E-03    -51.8417E-03    -54.4739E-03    -54.2976E-03     106.225E-03    -51.8417E-03    -10.1728E-03    -21.2203E+06    -39.0452E+06    -189.486E+06    -39.5503E+06    -188.981E+06    -21.2203E+06     8.00356E+06         29.0547
             965     5.70010E-03     15.6598E-03     474.085E-03     430.322E-03        -1.56569     429.691E-03        -1.56506     474.085E-03     3.18591E-03     104.897E-03    -51.4649E-03    -53.3574E-03    -53.1797E-03     104.719E-03    -51.4649E-03    -10.1868E-03    -26.0719E+06    -41.7236E+06    -199.384E+06    -42.0522E+06    -199.055E+06    -26.0719E+06     6.90424E+06         28.5360
             966     4.75107E-03     15.6570E-03     489.307E-03     455.114E-03        -1.60359     464.177E-03        -1.60265     479.305E-03    -9.59096E-03     103.695E-03    -51.1415E-03    -52.5042E-03    -52.3516E-03     103.542E-03    -51.1415E-03    -9.35958E-03    -30.6148E+06    -45.1259E+06    -205.586E+06    -45.3697E+06    -205.342E+06    -30.6148E+06     6.14268E+06         28.1436
             967     3.80196E-03     15.6551E-03     501.944E-03     474.588E-03        -1.62911     496.008E-03        -1.62725     478.667E-03    -25.3388E-03     102.740E-03    -50.8838E-03    -51.8575E-03    -51.7405E-03     102.623E-03    -50.8838E-03    -8.21730E-03    -35.7373E+06    -49.6188E+06    -209.620E+06    -49.8080E+06    -209.431E+06    -35.7373E+06     5.46421E+06         27.8591
             968     2.85233E-03     15.6546E-03     492.767E-03     470.303E-03        -1.61302     487.197E-03        -1.61153     474.383E-03    -4.07824E-03     101.850E-03    -50.6534E-03    -51.1939E-03    -51.1154E-03     101.772E-03    -50.6534E-03    -6.71133E-03    -39.9223E+06    -52.7270E+06    -209.368E+06    -52.9206E+06    -209.175E+06    -39.9223E+06     5.15268E+06         27.6459
             969     1.90200E-03     15.6541E-03     489.773E-03     463.835E-03        -1.59091     480.645E-03        -1.58741     469.462E-03    -16.7398E-03     101.146E-03    -50.4797E-03    -50.6607E-03    -50.6185E-03     101.104E-03    -50.4797E-03    -4.91008E-03    -46.9150E+06    -56.5578E+06    -212.308E+06    -56.7333E+06    -212.132E+06    -46.9150E+06     4.42743E+06         27.4806
             970     950.585E-06     15.6547E-03     481.590E-03     455.138E-03        -1.57139     469.124E-03        -1.56799     464.203E-03    -5.72681E-03     100.809E-03    -50.3138E-03    -50.5026E-03    -50.4888E-03     100.795E-03    -50.3138E-03    -2.35356E-03    -56.7796E+06    -63.3274E+06    -215.771E+06    -61.6013E+06    -215.702E+06    -58.5754E+06     1.45042E+06         27.3629
             971     16.0752E-03     14.9597E-03     464.851E-03     451.832E-03        -1.56963     451.694E-03        -1.56914     464.497E-03     27.7918E-03     124.870E-03    -56.5803E-03    -68.3115E-03    -60.0267E-03     116.585E-03    -56.5803E-03     74.7783E-03     159.138E+06     123.852E+06    -7.17512E+06    -7.12178E+06     159.085E+06     123.852E+06     733.183E+03         49.3258
             972     15.1342E-03     14.8423E-03     469.353E-03     455.163E-03        -1.57373     459.205E-03        -1.57356     465.145E-03    -1.75104E-03     130.059E-03    -56.1902E-03    -73.9347E-03    -62.7537E-03     118.878E-03    -56.1902E-03     92.4303E-03     156.346E+06     110.351E+06    -13.1671E+06    -13.1124E+06     156.291E+06     110.351E+06     2.79902E+06         46.3965
             973     14.1963E-03     14.7402E-03     469.660E-03     453.086E-03        -1.57131     456.605E-03        -1.57097     465.805E-03    -21.6967E-03     125.859E-03    -55.3499E-03    -70.5731E-03    -64.0574E-03     119.343E-03    -55.3499E-03     68.9155E-03     142.552E+06     61.4643E+06    -19.8468E+06    -19.7681E+06     142.473E+06     61.4643E+06     2.22259E+06         42.7853
             974     13.2590E-03     14.6698E-03     467.354E-03     454.553E-03        -1.57658     454.961E-03        -1.57634     466.701E-03    -23.8297E-03     120.371E-03    -54.3885E-03    -66.2427E-03    -63.9300E-03     118.058E-03    -54.3885E-03     38.2643E-03     119.836E+06     2.19516E+06    -25.5104E+06    -25.1582E+06     119.708E+06     1.97102E+06     2.62355E+06         39.3094
             975     12.3210E-03     14.6307E-03     468.454E-03     452.907E-03        -1.57721     453.195E-03        -1.57685     467.800E-03    -30.9368E-03     117.144E-03    -53.6091E-03    -63.9154E-03    -63.5050E-03     116.733E-03    -53.6091E-03     15.2440E-03     56.0391E+06    -17.5458E+06    -26.7999E+06    -26.0561E+06     55.5195E+06    -17.7699E+06     3.92816E+06         36.4632
             976     11.3829E-03     14.6033E-03     469.170E-03     452.276E-03        -1.57533     451.806E-03        -1.57486     469.170E-03    -54.3399E-03     115.260E-03    -52.8714E-03    -62.5685E-03    -62.5086E-03     115.200E-03    -52.8714E-03     3.70695E-03    -4.27914E+06    -18.9274E+06    -42.1512E+06    -25.5930E+06    -26.4970E+06    -13.2678E+06     4.89892E+06         34.2562
             977     10.4429E-03     14.5831E-03     479.919E-03     462.634E-03        -1.59511     472.505E-03        -1.59491     469.843E-03    -33.7956E-03     112.997E-03    -52.0563E-03    -60.9934E-03    -60.9224E-03     112.926E-03    -52.0563E-03    -4.42164E-03    -15.2603E+06    -26.5211E+06    -83.6635E+06    -27.2683E+06    -82.9162E+06    -15.2603E+06     5.03508E+06         32.5843
             978     9.50141E-03     14.5700E-03     483.038E-03     466.476E-03        -1.60123     480.113E-03        -1.60106     469.235E-03    -23.8266E-03     110.341E-03    -51.2445E-03    -59.0638E-03    -58.8385E-03     110.116E-03    -51.2445E-03    -11.2953E-03    -19.2151E+06    -29.1564E+06    -124.285E+06    -29.5661E+06    -123.875E+06    -19.2151E+06     5.43162E+06         31.3082
             979     8.55782E-03     14.5638E-03     472.648E-03     462.646E-03        -1.59049     465.538E-03        -1.58965     468.921E-03    -62.3623E-03     107.751E-03    -50.5622E-03    -57.0429E-03    -56.6888E-03     107.397E-03    -50.5622E-03    -14.8141E-03    -20.0301E+06    -32.0050E+06    -152.127E+06    -32.3603E+06    -151.772E+06    -20.0301E+06     6.05197E+06         30.2761
             980     7.61117E-03     14.5568E-03     471.666E-03     463.896E-03        -1.59351     465.371E-03        -1.59271     469.391E-03    -48.4556E-03     105.418E-03    -49.9679E-03    -55.3292E-03    -54.8837E-03     104.973E-03    -49.9679E-03    -16.3919E-03    -18.4677E+06    -34.3799E+06    -174.115E+06    -34.9115E+06    -173.584E+06    -18.4677E+06     7.78015E+06         29.4168
             981     6.66417E-03     14.5546E-03     476.863E-03     458.471E-03        -1.59434     465.259E-03        -1.59426     469.997E-03     12.4259E-03     102.916E-03    -49.3776E-03    -53.4772E-03    -52.9975E-03     102.436E-03    -49.3776E-03    -16.8220E-03    -21.0922E+06    -36.4581E+06    -187.503E+06    -37.0759E+06    -186.885E+06    -21.0922E+06     8.82105E+06         28.7228
             982     5.71457E-03     14.5524E-03     485.536E-03     444.270E-03        -1.59460     457.970E-03        -1.59422     471.456E-03     29.2516E-03     100.699E-03    -48.8710E-03    -51.7225E-03    -51.2960E-03     100.272E-03    -48.8710E-03    -15.7753E-03    -24.8942E+06    -40.5703E+06    -196.565E+06    -41.0206E+06    -196.115E+06    -24.8942E+06     7.80440E+06         28.1692
             983     4.76420E-03     14.5516E-03     488.070E-03     453.652E-03        -1.61018     468.306E-03        -1.60980     473.039E-03     32.9419E-03     99.0161E-03    -48.4723E-03    -50.4722E-03    -50.1156E-03     98.6595E-03    -48.4723E-03    -14.2912E-03    -28.9699E+06    -44.8438E+06    -203.284E+06    -45.1514E+06    -202.976E+06    -28.9699E+06     6.93746E+06         27.7412
             984     3.81215E-03     14.5508E-03     493.469E-03     469.258E-03        -1.62267     490.973E-03        -1.62192     471.007E-03     59.2661E-03     97.5726E-03    -48.1539E-03    -49.4080E-03    -49.1396E-03     97.3043E-03    -48.1539E-03    -12.2602E-03    -35.4987E+06    -47.9162E+06    -206.925E+06    -48.1437E+06    -206.697E+06    -35.4987E+06     5.88299E+06         27.4285
             985     2.85988E-03     14.5515E-03     489.074E-03     464.591E-03        -1.60402     488.098E-03        -1.60304     464.591E-03     41.8644E-03     96.5686E-03    -47.9054E-03    -48.6244E-03    -48.4487E-03     96.3929E-03    -47.9054E-03    -9.77760E-03    -42.2687E+06    -51.9977E+06    -207.114E+06    -52.1719E+06    -206.940E+06    -42.2687E+06     4.84127E+06         27.2062
             986     1.90677E-03     14.5517E-03     470.786E-03     454.081E-03        -1.57320     463.557E-03        -1.57160     459.708E-03     46.6093E-03     95.7795E-03    -47.6772E-03    -48.0663E-03    -47.9792E-03     95.6923E-03    -47.6772E-03    -6.74812E-03    -47.7841E+06    -56.2654E+06    -206.815E+06    -56.4314E+06    -206.649E+06    -47.7841E+06     3.70229E+06         27.0434
             987     954.036E-06     14.5518E-03     487.486E-03     432.517E-03        -1.57146     479.283E-03        -1.56889     438.144E-03     17.4728E-03     95.1374E-03    -47.4663E-03    -47.6784E-03    -47.6259E-03     95.1115E-03    -47.4930E-03    -3.29821E-03    -53.2840E+06    -60.2398E+06    -210.506E+06    -58.5537E+06    -210.397E+06    -55.0797E+06     2.20612E+06         26.9270
             988     16.0783E-03     13.8342E-03     465.806E-03     449.631E-03        -1.56654     449.047E-03        -1.56596     465.806E-03    -6.96956E-03     128.219E-03    -56.3799E-03    -71.8228E-03    -63.5242E-03     119.920E-03    -56.3799E-03     75.7524E-03     157.619E+06     122.902E+06    -8.74475E+06    -8.64968E+06     157.523E+06     122.902E+06    -564.115E+03         49.1579
             989     15.1421E-03     13.7127E-03     467.073E-03     448.797E-03        -1.56794     448.500E-03        -1.56764     467.073E-03    -13.5259E-03     132.809E-03    -55.7482E-03    -77.0915E-03    -66.2294E-03     121.947E-03    -55.7482E-03     92.2902E-03     154.722E+06     109.399E+06    -15.0353E+06    -14.9254E+06     154.612E+06     109.399E+06     827.690E+03         46.2459
             990     14.2071E-03     13.6113E-03     468.387E-03     452.654E-03        -1.57819     452.149E-03        -1.57768     468.387E-03    -25.7738E-03     127.729E-03    -54.6502E-03    -73.1302E-03    -67.2871E-03     121.885E-03    -54.6502E-03     66.1285E-03     142.555E+06     62.8903E+06    -20.3338E+06    -20.2379E+06     142.459E+06     62.8903E+06     2.95679E+06         42.6547
             991     13.2722E-03     13.5416E-03     469.674E-03     453.354E-03        -1.58051     452.803E-03        -1.57996     469.674E-03    -22.1142E-03     122.303E-03    -53.4023E-03    -69.1256E-03    -67.2072E-03     120.385E-03    -53.4023E-03     33.9056E-03     120.244E+06     1.82189E+06    -24.4588E+06    -24.0959E+06     120.105E+06     1.59775E+06     3.06297E+06         39.1924
             992     12.3382E-03     13.5042E-03     471.138E-03     451.505E-03        -1.58041     451.014E-03        -1.57992     471.138E-03    -19.5464E-03     118.445E-03    -52.2973E-03    -66.6012E-03    -66.4089E-03     118.253E-03    -52.2973E-03     9.59029E-03     56.1858E+06    -20.3124E+06    -26.0241E+06    -25.3733E+06     55.7591E+06    -20.5366E+06     3.20676E+06         36.3475
             993     11.4018E-03     13.4813E-03     476.122E-03     461.966E-03        -1.59655     465.353E-03        -1.59607     472.247E-03    -47.3732E-03     115.805E-03    -51.2367E-03    -64.8431E-03    -64.7996E-03     115.761E-03    -51.2367E-03    -1.84106E-03    -4.11384E+06    -20.3016E+06    -41.4605E+06    -25.9580E+06    -25.4878E+06    -14.4302E+06     4.19567E+06         34.1286
             994     10.4640E-03     13.4631E-03     480.437E-03     464.213E-03        -1.59879     471.901E-03        -1.59864     472.591E-03    -19.0409E-03     112.773E-03    -50.1209E-03    -62.7093E-03    -62.4881E-03     112.552E-03    -50.1209E-03    -11.1294E-03    -14.2036E+06    -26.1646E+06    -82.9610E+06    -27.0987E+06    -82.0269E+06    -14.2036E+06     5.75212E+06         32.4289
             995     9.52356E-03     13.4554E-03     478.464E-03     463.580E-03        -1.59395     469.169E-03        -1.59389     472.816E-03     2.56051E-03     109.146E-03    -49.0292E-03    -60.0628E-03    -59.5363E-03     108.620E-03    -49.0292E-03    -18.3282E-03    -17.2400E+06    -28.3564E+06    -123.627E+06    -28.9780E+06    -123.005E+06    -17.2400E+06     7.05212E+06         31.1089
             996     8.57907E-03     13.4523E-03     476.393E-03     468.914E-03        -1.59817     471.733E-03        -1.59768     473.081E-03    -29.1211E-03     105.703E-03    -48.0604E-03    -57.4858E-03    -56.7357E-03     104.953E-03    -48.0604E-03    -21.7496E-03    -18.8502E+06    -30.3607E+06    -151.385E+06    -30.9251E+06    -150.821E+06    -18.8502E+06     7.66933E+06         30.0301
             997     7.63382E-03     13.4486E-03     477.368E-03     465.288E-03        -1.59792     468.683E-03        -1.59741     473.459E-03    -26.0189E-03     102.185E-03    -47.1771E-03    -54.8912E-03    -53.9978E-03     101.292E-03    -47.1771E-03    -23.3153E-03    -18.0972E+06    -33.1098E+06    -175.306E+06    -33.6366E+06    -174.779E+06    -18.0972E+06     8.15847E+06         29.1217
             998     6.68434E-03     13.4499E-03     482.880E-03     466.829E-03        -1.61178     475.876E-03        -1.61154     473.590E-03    -6.99022E-03     98.7798E-03    -46.3481E-03    -52.3209E-03    -51.3837E-03     97.8426E-03    -46.3481E-03    -23.4732E-03    -19.5107E+06    -36.1943E+06    -186.323E+06     -36.876E+06    -185.641E+06    -19.5107E+06     9.69689E+06         28.3743
             999     5.73325E-03     13.4509E-03     500.030E-03     471.035E-03        -1.63284     499.720E-03        -1.63253     471.035E-03    -40.5978E-03     95.7763E-03    -45.6681E-03    -49.9991E-03    -49.1703E-03     94.9476E-03    -45.6681E-03    -21.6169E-03    -23.3514E+06    -39.2950E+06    -192.662E+06    -39.9133E+06    -192.043E+06    -23.3514E+06     9.41799E+06         27.7748
            1000     4.77986E-03     13.4514E-03     490.568E-03     464.693E-03        -1.60848     488.456E-03        -1.60812     466.442E-03    -39.4651E-03     93.2574E-03    -45.1386E-03    -48.0937E-03    -47.4163E-03     92.5801E-03    -45.1386E-03    -19.2408E-03    -29.7325E+06    -42.4083E+06    -200.469E+06    -42.7392E+06    -200.138E+06    -29.7325E+06     6.85660E+06         27.3032
            1001     3.82591E-03     13.4530E-03     470.372E-03     456.368E-03        -1.57743     461.752E-03        -1.57702     464.580E-03    -20.7581E-03     91.2433E-03    -44.7233E-03    -46.5086E-03    -46.0036E-03     90.7383E-03    -44.7233E-03    -16.3768E-03    -35.2541E+06    -45.9051E+06    -204.161E+06    -46.1648E+06    -203.901E+06    -35.2541E+06     6.04390E+06         26.9526
            1002     2.86973E-03     13.4547E-03     475.998E-03     453.229E-03        -1.57678     463.421E-03        -1.57619     465.215E-03     1.80710E-03     89.8457E-03    -44.4564E-03    -45.3503E-03    -45.0293E-03     89.5247E-03    -44.4564E-03    -12.9061E-03    -39.1225E+06    -48.8496E+06    -203.747E+06    -49.0926E+06    -203.504E+06    -39.1225E+06     5.48127E+06         26.7053
            1003     1.91388E-03     13.4559E-03     476.452E-03     458.577E-03        -1.58697     469.701E-03        -1.58574     464.099E-03    -36.1582E-03     88.9229E-03    -44.2091E-03    -44.6865E-03    -44.5252E-03     88.7616E-03    -44.2091E-03    -8.91659E-03    -46.0929E+06    -52.4161E+06    -202.149E+06    -52.6349E+06    -201.930E+06    -46.0929E+06     4.08845E+06         26.5263
            1004     956.739E-06     13.4567E-03     491.598E-03     436.410E-03        -1.59220     488.959E-03        -1.58957     436.410E-03    -49.2028E-03     88.1778E-03    -43.9521E-03    -44.2219E-03    -44.0996E-03     88.1279E-03    -44.0244E-03    -4.57293E-03    -51.3580E+06    -57.5207E+06    -206.857E+06    -55.2151E+06    -206.636E+06    -53.8840E+06     1.58019E+06         26.4036
            1005     16.0830E-03     12.7079E-03     467.943E-03     450.800E-03        -1.56790     450.468E-03        -1.56757     467.943E-03    -8.83851E-03     132.396E-03    -56.1676E-03    -76.1847E-03    -67.6300E-03     123.841E-03    -56.1676E-03     77.9020E-03     158.589E+06     124.663E+06    -7.12285E+06    -6.92158E+06     158.387E+06     124.663E+06     558.645E+03         48.9712
            1006     15.1488E-03     12.5764E-03     469.212E-03     450.520E-03        -1.57220     450.321E-03        -1.57200     469.212E-03    -10.3867E-03     136.238E-03    -55.2530E-03    -80.9835E-03    -70.0800E-03     125.334E-03    -55.2530E-03     93.7705E-03     152.704E+06     108.020E+06    -16.5508E+06    -16.2868E+06     152.440E+06     108.020E+06     475.880E+03         46.0834
            1007     14.2181E-03     12.4826E-03     470.612E-03     451.476E-03        -1.57547     450.931E-03        -1.57493     470.612E-03    -34.0024E-03     130.600E-03    -53.8704E-03    -76.7729E-03    -71.2492E-03     125.077E-03    -53.8704E-03     65.6611E-03     140.273E+06     62.1141E+06    -22.3837E+06    -22.2369E+06     140.127E+06     62.1141E+06     1.19771E+06         42.5232
            1008     13.2881E-03     12.4068E-03     472.014E-03     454.623E-03        -1.58318     453.820E-03        -1.58237     472.014E-03    -9.46009E-03     124.812E-03    -52.3299E-03    -72.7310E-03    -70.9021E-03     122.983E-03    -52.3299E-03     32.0175E-03     121.039E+06     3.80763E+06    -24.4690E+06    -24.3362E+06     120.906E+06     3.80763E+06     3.01721E+06         39.0885
            1009     12.3566E-03     12.3780E-03     477.506E-03     462.471E-03        -1.59332     466.205E-03        -1.59252     472.964E-03    -9.35192E-03     119.940E-03    -50.8788E-03    -69.5205E-03    -69.4345E-03     119.854E-03    -50.8788E-03     5.68844E-03     57.7674E+06    -19.4174E+06    -26.6275E+06    -26.1770E+06     57.3169E+06    -19.4174E+06     3.47949E+06         36.2591
            1010     11.4222E-03     12.3550E-03     481.585E-03     466.800E-03        -1.59944     474.698E-03        -1.59892     473.167E-03    -40.3432E-03     116.565E-03    -49.4849E-03    -67.3667E-03    -67.2622E-03     116.460E-03    -49.4849E-03    -5.94262E-03    -2.76300E+06    -21.0652E+06    -43.0578E+06    -27.3416E+06    -25.1959E+06    -14.3485E+06     4.23938E+06         34.0355
            1011     10.4869E-03     12.3433E-03     477.349E-03     461.356E-03        -1.59532     465.187E-03        -1.59528     473.473E-03     4.27435E-03     112.579E-03    -48.0597E-03    -64.5554E-03    -64.1075E-03     112.131E-03    -48.0597E-03    -16.8012E-03    -13.1942E+06    -27.1680E+06    -83.1123E+06    -28.1226E+06    -82.1577E+06    -13.1942E+06     5.64733E+06         32.3101
            1012     9.54682E-03     12.3421E-03     475.901E-03     464.930E-03        -1.59758     466.557E-03        -1.59753     474.223E-03     8.55697E-03     108.093E-03    -46.6146E-03    -61.4222E-03    -60.5676E-03     107.238E-03    -46.6146E-03    -23.7551E-03    -15.8496E+06    -28.6304E+06    -123.125E+06    -29.2816E+06    -122.473E+06    -15.8496E+06     7.02818E+06         30.9506
            1013     8.60496E-03     12.3427E-03     478.086E-03     468.522E-03        -1.60565     471.579E-03        -1.60540     474.774E-03    -22.0667E-03     103.605E-03    -45.2635E-03    -58.2338E-03    -57.0556E-03     102.426E-03    -45.2635E-03    -27.3300E-03    -17.3958E+06    -29.7934E+06    -151.480E+06    -30.4327E+06    -150.841E+06    -17.3958E+06     8.06605E+06         29.8249
            1014     7.65752E-03     12.3458E-03     477.264E-03     463.085E-03        -1.60428     464.471E-03        -1.60403     475.630E-03    -26.2897E-03     98.8144E-03    -44.0583E-03    -54.6460E-03    -53.2481E-03     97.4165E-03    -44.0583E-03    -29.0023E-03    -16.1030E+06    -31.8123E+06    -174.638E+06    -32.4934E+06    -173.957E+06    -16.1030E+06     9.44986E+06         28.8634
            1015     6.70773E-03     12.3504E-03     484.422E-03     469.140E-03        -1.61270     477.103E-03        -1.61249     476.252E-03    -19.3025E-03     94.3962E-03    -43.0016E-03    -51.2689E-03    -49.8423E-03     92.9696E-03    -43.0016E-03    -28.5607E-03    -17.2182E+06    -34.3762E+06    -185.561E+06    -35.0540E+06    -184.883E+06    -17.2182E+06     10.0126E+06         28.0562
            1016     5.75476E-03     12.3558E-03     495.433E-03     471.783E-03        -1.62256     491.958E-03        -1.62207     474.772E-03    -21.1587E-03     90.4142E-03    -42.0862E-03    -48.2495E-03    -46.9717E-03     89.1364E-03    -42.0862E-03    -26.3662E-03    -21.2108E+06    -36.5854E+06    -188.273E+06    -37.1806E+06    -187.678E+06    -21.2108E+06     9.45107E+06         27.4007
            1017     4.79930E-03     12.3593E-03     487.317E-03     465.433E-03        -1.60650     479.386E-03        -1.60582     472.679E-03    -1.80375E-03     86.8401E-03    -41.3571E-03    -45.4647E-03    -44.4229E-03     85.7982E-03    -41.3571E-03    -23.2475E-03    -28.4735E+06    -39.3697E+06    -196.204E+06    -39.7866E+06    -195.787E+06    -28.4735E+06     7.72245E+06         26.8766
            1018     3.84090E-03     12.3631E-03     476.433E-03     454.640E-03        -1.58457     455.858E-03        -1.58365     474.287E-03    -48.0376E-03     84.1934E-03    -40.8062E-03    -43.3389E-03    -42.5661E-03     83.4206E-03    -40.8062E-03    -19.6041E-03    -33.7786E+06    -41.9065E+06    -202.122E+06    -42.1795E+06    -201.849E+06    -33.7786E+06     5.81592E+06         26.4732
            1019     2.88228E-03     12.3653E-03     480.748E-03     456.384E-03        -1.59984     455.480E-03        -1.59894     480.748E-03    -39.2360E-03     82.2212E-03    -40.4150E-03    -41.7940E-03    -41.3057E-03     81.7330E-03    -40.4150E-03    -15.2920E-03    -33.6667E+06    -43.6587E+06    -200.030E+06    -43.8620E+06    -199.826E+06    -33.6667E+06     4.70523E+06         26.1848
            1020     1.92135E-03     12.3686E-03     488.915E-03     477.494E-03        -1.63510     478.000E-03        -1.63390     487.212E-03    -44.8605E-03     80.8517E-03    -40.1289E-03    -40.7257E-03    -40.4777E-03     80.6037E-03    -40.1289E-03    -10.6433E-03    -36.6510E+06    -47.3572E+06    -198.160E+06    -47.5581E+06    -197.959E+06    -36.6510E+06     4.44237E+06         25.9810
            1021     961.430E-06     12.3691E-03     509.903E-03     470.594E-03        -1.65845     507.652E-03        -1.65695     471.338E-03    -6.17242E-03     79.9862E-03    -39.8628E-03    -40.1159E-03    -39.9570E-03     79.9005E-03    -39.9360E-03    -5.90689E-03    -45.9734E+06    -54.1396E+06    -202.931E+06    -51.8236E+06    -202.721E+06    -48.4993E+06     1.92686E+06         25.8464
            1022     16.0848E-03     11.5703E-03     469.506E-03     446.082E-03        -1.56444     445.810E-03        -1.56417     469.506E-03     655.223E-06     136.304E-03    -55.9755E-03    -80.2162E-03    -71.7391E-03     127.827E-03    -55.9755E-03     78.8531E-03     157.650E+06     125.117E+06    -6.49962E+06    -6.34975E+06     157.500E+06     125.117E+06     442.270E+03         48.7599
            1023     15.1561E-03     11.4415E-03     471.100E-03     446.073E-03        -1.56851     445.890E-03        -1.56832     471.100E-03    -16.0580E-03     139.598E-03    -54.8098E-03    -84.7967E-03    -73.9177E-03     128.719E-03    -54.8098E-03     95.3055E-03     154.729E+06     110.898E+06    -13.9834E+06    -13.6598E+06     154.406E+06     110.898E+06     2.47766E+06         45.9010
            1024     14.2282E-03     11.3431E-03     472.667E-03     453.863E-03        -1.57669     453.359E-03        -1.57619     472.667E-03    -39.5119E-03     133.714E-03    -53.1492E-03    -80.6466E-03    -75.2575E-03     128.325E-03    -53.1492E-03     65.6971E-03     140.292E+06     63.1118E+06    -22.3725E+06    -22.1044E+06     140.024E+06     63.1118E+06     1.56386E+06         42.3803
            1025     13.3018E-03     11.2732E-03     474.044E-03     464.447E-03        -1.58873     464.135E-03        -1.58812     473.749E-03    -27.3012E-03     127.149E-03    -51.3019E-03    -76.0794E-03    -74.4258E-03     125.495E-03    -51.3019E-03     30.3163E-03     120.198E+06     5.56633E+06    -26.6011E+06    -26.4841E+06     120.081E+06     5.56633E+06     1.78095E+06         38.9882
            1026     12.3732E-03     11.2467E-03     478.980E-03     472.310E-03        -1.60330     476.667E-03        -1.60272     474.036E-03    -23.6325E-03     121.662E-03    -49.5258E-03    -72.5985E-03    -72.5394E-03     121.603E-03    -49.5258E-03     3.65184E-03     58.5091E+06    -16.9155E+06    -26.8706E+06    -26.4445E+06     58.0830E+06    -16.9155E+06     2.78313E+06         36.1936
            1027     11.4439E-03     11.2298E-03     478.799E-03     465.204E-03        -1.59424     469.411E-03        -1.59380     474.151E-03    -47.8602E-03     117.406E-03    -47.8163E-03    -69.9115E-03    -69.7643E-03     117.259E-03    -47.8163E-03    -8.28808E-03    -1.78527E+06    -20.0346E+06    -42.5157E+06    -26.3654E+06    -25.1251E+06    -12.8451E+06     4.49286E+06         33.9811
            1028     10.5086E-03     11.2248E-03     474.914E-03     462.423E-03        -1.58948     462.230E-03        -1.58929     474.914E-03    -22.1486E-03     112.614E-03    -46.0752E-03    -66.5677E-03    -65.9583E-03     112.005E-03    -46.0752E-03    -19.9875E-03    -11.4323E+06    -27.0309E+06    -83.1412E+06    -28.2803E+06    -81.8918E+06    -11.4323E+06     5.88001E+06         32.2454
            1029     9.57132E-03     11.2292E-03     475.862E-03     467.954E-03        -1.60216     467.684E-03        -1.60189     475.862E-03    -25.7470E-03     107.304E-03    -44.2584E-03    -62.9447E-03    -61.8161E-03     106.176E-03    -44.2584E-03    -27.4458E-03    -14.2268E+06    -29.4210E+06    -122.900E+06    -29.9995E+06    -122.321E+06    -14.2268E+06     6.43927E+06         30.8637
            1030     8.62800E-03     11.2361E-03     476.862E-03     465.691E-03        -1.60674     465.419E-03        -1.60647     476.862E-03    -36.9746E-03     101.489E-03    -42.5416E-03    -58.8813E-03    -57.3545E-03     99.9624E-03    -42.5416E-03    -30.9929E-03    -15.8786E+06    -31.0285E+06    -151.214E+06    -31.6087E+06    -150.634E+06    -15.8786E+06     7.63166E+06         29.7006
            1031     7.68245E-03     11.2457E-03     481.363E-03     470.538E-03        -1.61749     474.009E-03        -1.61729     477.697E-03    -33.3993E-03     95.8253E-03    -41.0376E-03    -54.6820E-03    -52.8824E-03     94.0256E-03    -41.0376E-03    -32.6610E-03    -13.9357E+06    -31.3959E+06    -173.491E+06    -32.0176E+06    -172.869E+06    -13.9357E+06     8.97506E+06         28.6926
            1032     6.73095E-03     11.2574E-03     486.981E-03     473.117E-03        -1.62563     482.359E-03        -1.62546     477.569E-03    -30.3865E-03     90.1734E-03    -39.6965E-03    -50.3954E-03    -48.5894E-03     88.3674E-03    -39.6965E-03    -31.6250E-03    -15.7272E+06    -32.1438E+06    -183.673E+06    -32.6790E+06    -183.137E+06    -15.7272E+06     8.74802E+06         27.8357
            1033     5.77625E-03     11.2658E-03     483.683E-03     463.623E-03        -1.60870     468.882E-03        -1.60821     477.937E-03    -20.5609E-03     84.9819E-03    -38.5441E-03    -46.4637E-03    -44.8419E-03     83.3600E-03    -38.5441E-03    -28.9664E-03    -17.7996E+06    -33.3451E+06    -185.410E+06    -33.8166E+06    -184.939E+06    -17.7996E+06     8.26446E+06         27.1264
            1034     4.81795E-03     11.2748E-03     480.708E-03     460.201E-03        -1.59678     459.662E-03        -1.59624     480.708E-03     8.77247E-03     80.6001E-03    -37.6014E-03    -43.0137E-03    -41.6959E-03     79.2822E-03    -37.6014E-03    -25.3074E-03    -21.1567E+06    -34.9548E+06    -192.110E+06    -35.4182E+06    -191.647E+06    -21.1567E+06     8.51006E+06         26.5511
            1035     3.85757E-03     11.2811E-03     485.440E-03     464.422E-03        -1.60464     463.777E-03        -1.60400     485.440E-03    -20.6619E-03     77.1089E-03    -36.8338E-03    -40.2584E-03    -39.3002E-03     76.1507E-03    -36.8338E-03    -21.0276E-03    -27.8747E+06    -38.4013E+06    -197.330E+06    -38.6924E+06    -197.039E+06    -27.8747E+06     6.20678E+06         26.0994
            1036     2.89418E-03     11.2867E-03     499.494E-03     474.637E-03        -1.62409     484.700E-03        -1.62348     488.814E-03    -39.3723E-03     74.5137E-03    -36.2535E-03    -38.2702E-03    -37.6516E-03     73.8951E-03    -36.2535E-03    -16.4927E-03    -32.0961E+06    -42.4824E+06    -198.252E+06    -42.6238E+06    -198.110E+06    -32.0961E+06     3.46666E+06         25.7684
            1037     1.93097E-03     11.2902E-03     504.496E-03     481.891E-03        -1.64491     499.925E-03        -1.64454     486.087E-03     1.59156E-03     72.5386E-03    -35.8596E-03    -36.6955E-03    -36.3839E-03     72.2270E-03    -35.8596E-03    -11.3301E-03    -34.6453E+06    -44.5324E+06    -196.080E+06    -44.6114E+06    -196.001E+06    -34.6453E+06     2.11366E+06         25.5398
            1038     965.090E-06     11.2929E-03     508.131E-03     457.608E-03        -1.64730     507.039E-03        -1.64695     458.353E-03     1.32314E-03     71.3731E-03    -35.5034E-03    -35.8866E-03    -35.7550E-03     71.2692E-03    -35.5310E-03    -6.27627E-03    -41.3006E+06    -47.2089E+06    -196.555E+06    -47.2685E+06    -196.495E+06    -41.3006E+06     766.227E+03         25.3984
            1039     16.0890E-03     10.4311E-03     471.861E-03     450.165E-03        -1.56837     449.913E-03        -1.56811     471.861E-03    -30.8008E-03     139.764E-03    -55.8247E-03    -83.8061E-03    -75.5250E-03     131.483E-03    -55.8247E-03     78.4097E-03     155.655E+06     123.875E+06    -9.34129E+06    -9.32171E+06     155.635E+06     123.875E+06    -505.415E+03         48.5166
            1040     15.1609E-03     10.3012E-03     473.534E-03     449.557E-03        -1.57311     449.249E-03        -1.57280     473.534E-03    -46.8281E-03     142.822E-03    -54.4431E-03    -88.3650E-03    -77.2653E-03     131.722E-03    -54.4431E-03     97.9335E-03     152.515E+06     111.500E+06    -17.2675E+06    -17.0769E+06     152.324E+06     111.500E+06     1.05150E+06         45.6852
            1041     14.2380E-03     10.2004E-03     474.986E-03     461.363E-03        -1.58523     460.938E-03        -1.58481     474.986E-03    -54.0512E-03     136.529E-03    -52.5586E-03    -84.1193E-03    -78.6893E-03     131.099E-03    -52.5586E-03     66.3272E-03     141.972E+06     68.3206E+06    -21.1815E+06    -20.9085E+06     141.699E+06     68.3206E+06     2.23447E+06         42.2047
            1042     13.3141E-03     10.1371E-03     475.991E-03     472.534E-03        -1.60032     472.360E-03        -1.59985     475.696E-03    -57.0711E-03     128.748E-03    -50.4206E-03    -78.6065E-03    -77.1508E-03     127.292E-03    -50.4206E-03     29.2161E-03     120.738E+06     8.06291E+06    -25.4043E+06    -24.2245E+06     120.561E+06     7.06022E+06     1.20232E+06         38.8644
            1043     12.3883E-03     10.1135E-03     476.379E-03     475.763E-03        -1.60697     476.096E-03        -1.60678     475.862E-03    -36.3923E-03     122.750E-03    -48.4011E-03    -74.8147E-03    -74.7482E-03     122.684E-03    -48.4011E-03     3.60107E-03      57.538E+06    -16.6432E+06    -28.0884E+06    -26.4184E+06     56.8706E+06    -17.6459E+06     2.48173E+06         36.1229
            1044     11.4586E-03     10.1049E-03     477.185E-03     470.748E-03        -1.60550     471.757E-03        -1.60537     476.050E-03    -30.9389E-03     118.069E-03    -46.4565E-03    -71.9086E-03    -71.7628E-03     117.923E-03    -46.4565E-03    -8.58791E-03    -1.30911E+06    -20.8269E+06    -43.6013E+06    -28.4922E+06    -24.9712E+06    -12.2739E+06     4.67027E+06         33.9494
            1045     10.5274E-03     10.1047E-03     477.753E-03     462.534E-03        -1.60400     463.200E-03        -1.60375     476.839E-03    -19.1664E-03     112.594E-03    -44.4357E-03    -68.1861E-03    -67.5845E-03     111.992E-03    -44.4357E-03    -19.9161E-03    -9.04289E+06    -28.0619E+06    -83.0951E+06    -29.3608E+06    -81.7962E+06    -9.04289E+06     5.65174E+06         32.2352
            1046     9.59076E-03     10.1173E-03     481.215E-03     465.372E-03        -1.60966     468.351E-03        -1.60934     477.918E-03    -24.0450E-03     106.385E-03    -42.3457E-03    -63.9229E-03    -62.8091E-03     105.271E-03    -42.3457E-03    -27.2586E-03    -9.59719E+06    -30.2278E+06    -122.343E+06    -30.8487E+06    -121.722E+06    -9.59719E+06     6.44891E+06         30.8597
            1047     8.65004E-03     10.1334E-03     487.290E-03     473.259E-03        -1.61920     482.207E-03        -1.61904     478.178E-03    -16.0066E-03     99.6740E-03    -40.3622E-03    -59.2156E-03    -57.7266E-03     98.1850E-03    -40.3622E-03    -30.4564E-03    -11.6000E+06    -31.7444E+06    -150.307E+06    -32.1709E+06    -149.880E+06    -11.6000E+06     6.50051E+06         29.6888
            1048     7.70220E-03     10.1495E-03     487.372E-03     470.014E-03        -1.61554     479.382E-03        -1.61542     477.890E-03    -14.4759E-03     93.1697E-03    -38.5862E-03    -54.4764E-03    -52.7193E-03     91.4126E-03    -38.5862E-03    -31.9497E-03    -11.7924E+06    -33.0098E+06    -173.136E+06    -33.4033E+06    -172.743E+06    -11.7924E+06     7.00141E+06         28.6602
            1049     6.75147E-03     10.1678E-03     482.515E-03     460.841E-03        -1.60475     464.211E-03        -1.60446     478.849E-03    -17.8165E-03     86.7071E-03    -36.9523E-03    -49.6759E-03    -47.8859E-03     84.9171E-03    -36.9523E-03    -31.0203E-03    -12.8063E+06    -34.1199E+06    -180.313E+06    -34.4714E+06    -179.962E+06    -12.8063E+06     6.77715E+06         27.7770
            1050     5.79469E-03     10.1836E-03     481.782E-03     459.475E-03        -1.60191     458.822E-03        -1.60125     481.782E-03     1.78391E-03     80.5070E-03    -35.5389E-03    -44.9932E-03    -43.3489E-03     78.8626E-03    -35.5389E-03    -28.5307E-03    -15.7110E+06    -35.5214E+06    -184.057E+06    -35.8069E+06    -183.771E+06    -15.7110E+06     6.20691E+06         27.0406
            1051     4.83475E-03     10.1966E-03     493.553E-03     467.721E-03        -1.61774     475.910E-03        -1.61693     484.555E-03     22.4788E-03     75.2756E-03    -34.3844E-03    -40.9462E-03    -39.5902E-03     73.9196E-03    -34.3844E-03    -24.9207E-03    -17.9021E+06    -36.7281E+06    -189.665E+06    -37.0181E+06    -189.375E+06    -17.9021E+06     6.32195E+06         26.4424
            1052     3.87092E-03     10.2075E-03     507.429E-03     475.702E-03        -1.64591     499.194E-03        -1.64551     483.536E-03     25.0425E-03     71.0381E-03    -33.4335E-03    -37.6492E-03    -36.6753E-03     70.0641E-03    -33.4335E-03    -20.4159E-03    -21.3170E+06    -37.1646E+06    -191.669E+06    -37.3732E+06    -191.460E+06    -21.3170E+06     5.25880E+06         25.9711
            1053     2.90606E-03     10.2144E-03     504.482E-03     475.735E-03        -1.64777     502.646E-03        -1.64773     477.534E-03     15.5799E-03     67.7785E-03    -32.6977E-03    -35.1152E-03    -34.4948E-03     67.1582E-03    -32.6977E-03    -15.8043E-03    -26.3254E+06    -37.6433E+06    -194.864E+06    -37.7156E+06    -194.792E+06    -26.3254E+06     2.11417E+06         25.6182
            1054     1.93766E-03     10.2216E-03     489.864E-03     464.255E-03        -1.62542     483.612E-03        -1.62500     470.082E-03     8.24556E-03     65.3855E-03    -32.1769E-03    -33.2288E-03    -32.9163E-03     65.0729E-03    -32.1769E-03    -10.8020E-03    -31.9110E+06    -40.0209E+06    -194.797E+06    -40.0592E+06    -194.759E+06    -31.9110E+06    -712.721E+03         25.3744
            1055     969.579E-06     10.2245E-03     492.078E-03     442.192E-03        -1.62429     485.441E-03        -1.62348     448.020E-03    -42.3568E-03     63.8989E-03    -31.6530E-03    -32.2598E-03    -32.1616E-03     63.8007E-03    -31.6530E-03    -5.56734E-03    -39.8692E+06    -44.3351E+06    -195.950E+06    -44.4174E+06    -195.867E+06    -39.8692E+06    -753.006E+03         25.2295
            1056     16.0899E-03     9.29110E-03     474.589E-03     450.443E-03        -1.57000     450.099E-03        -1.56965     474.589E-03    -18.2859E-03     143.728E-03    -55.8010E-03    -87.9231E-03    -79.5094E-03     135.314E-03    -55.8010E-03     79.5607E-03     157.079E+06     126.813E+06    -9.02959E+06    -8.98782E+06     157.037E+06     126.813E+06     1.57399E+06         48.2293
            1057     15.1658E-03     9.15757E-03     475.963E-03     459.790E-03        -1.58711     459.504E-03        -1.58683     475.963E-03    -42.6296E-03     146.195E-03    -54.2050E-03    -92.0555E-03    -80.4453E-03     134.585E-03    -54.2050E-03     101.740E-03     152.786E+06     113.308E+06    -17.1296E+06    -17.0867E+06     152.743E+06     113.308E+06    -538.222E+03         45.4189
            1058     14.2437E-03     9.05509E-03     476.856E-03     469.423E-03        -1.59644     469.059E-03        -1.59608     476.856E-03    -47.7658E-03     138.113E-03    -52.1444E-03    -86.1849E-03    -80.5278E-03     132.456E-03    -52.1444E-03     68.0840E-03     140.281E+06     66.3859E+06    -23.5980E+06    -23.3390E+06     140.023E+06     66.3859E+06    -1.38201E+06         41.9701
            1059     13.3225E-03     8.99813E-03     477.378E-03     471.897E-03        -1.60110     471.460E-03        -1.60066     477.378E-03    -56.3521E-03     129.371E-03    -49.8779E-03    -79.8879E-03    -78.3976E-03     127.881E-03    -49.8779E-03     30.6019E-03     118.711E+06     7.03876E+06    -27.2146E+06    -25.6362E+06     118.135E+06     6.03606E+06     1.90927E+06         38.6782
            1060     12.3965E-03     8.98160E-03     479.370E-03     475.448E-03        -1.60870     477.049E-03        -1.60856     477.631E-03    -30.4838E-03     123.039E-03    -47.7520E-03    -75.7978E-03    -75.6953E-03     122.937E-03    -47.7520E-03     6.31786E-03     57.1661E+06    -14.1560E+06    -30.5460E+06    -28.5876E+06     56.2104E+06    -15.1587E+06     4.44448E+06         36.0008
            1061     11.4696E-03     8.97669E-03     483.789E-03     477.406E-03        -1.61982     483.674E-03        -1.61970     477.406E-03    -28.0957E-03     117.728E-03    -45.6936E-03    -72.2823E-03    -72.1909E-03     117.636E-03    -45.6936E-03    -5.30901E-03     974.539E+03    -19.3024E+06    -44.6760E+06    -30.4609E+06    -24.1176E+06    -8.42538E+06     4.23784E+06         33.8996
            1062     10.5377E-03     8.98611E-03     489.083E-03     469.511E-03        -1.62148     481.392E-03        -1.62124     476.964E-03     8.33899E-03     111.557E-03    -43.5809E-03    -67.9806E-03    -67.5993E-03     111.176E-03    -43.5809E-03    -15.2457E-03    -5.06352E+06    -30.8221E+06    -83.1437E+06    -32.0273E+06    -81.9384E+06    -5.06352E+06     4.60145E+06         32.2522
            1063     9.60106E-03     9.00659E-03     487.476E-03     468.358E-03        -1.61728     478.879E-03        -1.61703     476.705E-03     9.00132E-03     104.956E-03    -41.4487E-03    -63.4179E-03    -62.7209E-03     104.259E-03    -41.4487E-03    -21.0618E-03    -3.57565E+06    -31.9833E+06    -121.265E+06    -32.4267E+06    -120.822E+06    -3.57565E+06     4.55392E+06         30.9307
            1064     8.65916E-03     9.03069E-03     485.516E-03     472.388E-03        -1.61651     481.263E-03        -1.61628     476.404E-03     7.06668E-03     98.2205E-03    -39.3641E-03    -58.7347E-03    -57.8119E-03     97.2977E-03    -39.3641E-03    -23.4214E-03    -4.90089E+06    -32.7420E+06    -150.087E+06    -32.9752E+06    -149.854E+06    -4.90089E+06     4.67194E+06         29.8032
            1065     7.71372E-03     9.05561E-03     485.022E-03     466.642E-03        -1.60993     475.145E-03        -1.60967     476.264E-03     2.49166E-03     91.4712E-03    -37.4377E-03    -53.9574E-03    -52.8530E-03     90.3668E-03    -37.4377E-03    -24.6406E-03    -4.23331E+06    -33.9361E+06    -171.490E+06     -34.121E+06    -171.305E+06    -4.23331E+06     4.33949E+06         28.8028
            1066     6.76140E-03     9.08025E-03     482.799E-03     463.107E-03        -1.60328     468.341E-03        -1.60273     477.015E-03     20.2949E-03     84.8825E-03    -35.6616E-03    -49.2144E-03    -48.0469E-03     83.7150E-03    -35.6616E-03    -24.3810E-03    -3.14603E+06    -34.9582E+06    -177.951E+06    -35.0901E+06    -177.820E+06    -3.14603E+06     3.62398E+06         27.9329
            1067     5.80620E-03     9.10403E-03     482.514E-03     467.412E-03        -1.61117     470.829E-03        -1.61046     478.394E-03     56.7272E-03     78.4310E-03    -33.9909E-03    -44.4430E-03    -43.3321E-03     77.3202E-03    -33.9909E-03    -22.8289E-03    -7.20386E+06    -36.3483E+06    -182.209E+06    -36.4551E+06    -182.102E+06    -7.20386E+06     2.83571E+06         27.2054
            1068     4.84474E-03     9.12351E-03     494.144E-03     474.441E-03        -1.63802     489.953E-03        -1.63741     478.014E-03     44.8623E-03     72.4202E-03    -32.5483E-03    -39.8666E-03    -38.9231E-03     71.4766E-03    -32.5483E-03    -20.1353E-03    -14.9762E+06    -36.4273E+06    -187.804E+06    -36.5065E+06    -187.725E+06    -14.9762E+06     1.33156E+06         26.6151
            1069     3.88085E-03     9.13725E-03     509.423E-03     472.447E-03        -1.65884     508.814E-03        -1.65823     472.447E-03     11.4271E-03     67.4205E-03    -31.4261E-03    -35.9703E-03    -35.2752E-03     66.7254E-03    -31.4261E-03    -16.6051E-03    -18.1745E+06    -34.9709E+06    -188.858E+06    -35.0508E+06    -188.778E+06    -18.1745E+06     137.630E+03         26.1494
            1070     2.91212E-03     9.15045E-03     490.920E-03     463.576E-03        -1.64204     490.210E-03        -1.64133     463.576E-03     14.8671E-03     63.6470E-03    -30.5763E-03    -33.0756E-03    -32.6403E-03     63.2116E-03    -30.5763E-03    -12.6754E-03    -21.4141E+06    -35.2045E+06    -191.227E+06    -35.2422E+06    -191.189E+06    -21.4141E+06    -795.493E+03         25.7985
            1071     1.94333E-03     9.15710E-03     465.688E-03     450.866E-03        -1.61040     455.411E-03        -1.60973     460.469E-03     8.24242E-03     61.0874E-03    -29.9227E-03    -31.1694E-03    -30.9457E-03     60.8637E-03    -29.9227E-03    -8.80119E-03    -27.4596E+06    -37.3722E+06    -194.878E+06    -37.4226E+06    -194.828E+06    -27.4596E+06    -1.49271E+06         25.5540
            1072     971.662E-06     9.16326E-03     495.613E-03     428.506E-03        -1.61308     485.497E-03        -1.61257     438.109E-03    -49.7454E-03     59.2632E-03    -29.2990E-03    -29.9617E-03    -29.7941E-03     59.1907E-03    -29.3941E-03    -4.38911E-03    -35.9755E+06    -41.1445E+06    -198.756E+06    -41.2125E+06    -198.688E+06    -35.9755E+06    -676.932E+03         25.4082
            1073     16.0861E-03     8.14155E-03     475.442E-03     449.093E-03        -1.56072     448.838E-03        -1.56047     475.442E-03    -13.6301E-03     147.934E-03    -56.0152E-03    -91.9558E-03    -83.0824E-03     139.060E-03    -56.0152E-03     82.0327E-03     158.651E+06     130.060E+06    -7.48825E+06    -7.41185E+06     158.575E+06     130.060E+06     2.20522E+06         47.8869
            1074     15.1669E-03     8.00943E-03     476.769E-03     457.631E-03        -1.58302     457.357E-03        -1.58275     476.769E-03    -43.4001E-03     149.588E-03    -54.2738E-03    -95.4322E-03    -82.9622E-03     137.118E-03    -54.2738E-03     106.836E-03     154.322E+06     115.982E+06    -15.0892E+06    -15.0618E+06     154.295E+06     115.982E+06    -969.685E+03         45.0899
            1075     14.2463E-03     7.90977E-03     477.675E-03     468.229E-03        -1.60554     467.869E-03        -1.60518     477.675E-03    -49.5667E-03     138.653E-03    -52.1621E-03    -86.7247E-03    -80.5507E-03     132.479E-03    -52.1621E-03     71.6011E-03     137.270E+06     65.3924E+06    -24.8338E+06    -24.3839E+06     136.820E+06     65.3924E+06     424.917E+03         41.6651
            1076     13.3216E-03     7.85866E-03     479.332E-03     472.926E-03        -1.61689     473.671E-03        -1.61647     478.168E-03    -55.3465E-03     128.615E-03    -49.9624E-03    -79.0290E-03    -77.1793E-03     126.765E-03    -49.9624E-03     35.4300E-03     115.289E+06     5.25424E+06    -33.0702E+06    -32.2111E+06     114.430E+06     5.25424E+06     2.54252E+06         38.4189
            1077     12.3974E-03     7.84762E-03     483.940E-03     476.118E-03        -1.62391     481.678E-03        -1.62373     478.202E-03    -27.6385E-03     121.850E-03    -47.9490E-03    -74.3381E-03    -74.0381E-03     121.550E-03    -47.9490E-03     13.5478E-03     56.6269E+06    -11.9283E+06    -34.6912E+06    -33.4318E+06     55.3675E+06    -11.9283E+06     4.09265E+06         35.8057
            1078     11.4673E-03     7.85205E-03     488.465E-03     477.638E-03        -1.62875     488.370E-03        -1.62865     477.638E-03    -21.9379E-03     115.432E-03    -46.0540E-03    -69.6370E-03    -69.5276E-03     115.323E-03    -46.0540E-03     4.50122E-03     4.01004E+06    -19.3739E+06    -45.1116E+06    -34.2950E+06    -23.1829E+06    -2.99753E+06     4.35888E+06         33.7985
            1079     10.5335E-03     7.86794E-03     495.683E-03     476.355E-03        -1.63403     495.488E-03        -1.63383     476.355E-03     1.03917E-03     109.154E-03    -44.1904E-03    -64.9883E-03    -64.8541E-03     109.020E-03    -44.1904E-03    -2.33115E-03     1.70195E+06    -35.0561E+06    -81.1298E+06    -36.0354E+06    -80.1504E+06     1.70195E+06     1.89237E+06         32.2722
            1080     9.59533E-03     7.89804E-03     488.059E-03     472.773E-03        -1.62869     485.495E-03        -1.62834     474.984E-03    -12.7281E-03     103.396E-03    -42.3581E-03    -61.0027E-03    -60.7779E-03     103.171E-03    -42.3581E-03    -5.81024E-03     4.75792E+06    -36.2196E+06    -120.650E+06    -36.3624E+06    -120.507E+06     4.75792E+06     393.887E+03         31.0717
            1081     8.65333E-03     7.92960E-03     475.069E-03     464.131E-03        -1.61276     463.772E-03        -1.61240     475.069E-03    -15.1567E-03     97.8063E-03    -40.5025E-03    -57.2808E-03    -56.9880E-03     97.5136E-03    -40.5025E-03    -6.97845E-03     6.40809E+06    -35.0646E+06    -149.575E+06    -35.2155E+06    -149.424E+06     6.40809E+06     22.6077E+03         30.0519
            1082     7.70631E-03     7.96135E-03     481.451E-03     467.154E-03        -1.61588     472.210E-03        -1.61536     475.881E-03    -22.5335E-03     92.2267E-03    -38.6680E-03    -53.6191E-03    -53.2900E-03     91.8975E-03    -38.6680E-03    -8.17934E-03     6.77154E+06    -34.9711E+06    -169.832E+06    -35.0504E+06    -169.752E+06     6.77154E+06    -735.180E+03         29.1411
            1083     6.75710E-03     7.99396E-03     490.458E-03     475.030E-03        -1.62764     489.725E-03        -1.62691     475.030E-03    -12.7327E-03     86.3663E-03    -36.8382E-03    -49.6342E-03    -49.2827E-03     86.0148E-03    -36.8382E-03    -9.14696E-03     2.86675E+06    -34.9801E+06    -177.308E+06    -35.0928E+06    -177.195E+06     2.86675E+06    -1.83919E+06         28.3343
            1084     5.80155E-03     8.02471E-03     493.115E-03     472.312E-03        -1.63145     492.634E-03        -1.63097     472.312E-03     3.03344E-03     80.3568E-03    -35.0200E-03    -45.3769E-03    -45.0293E-03     80.0092E-03    -35.0200E-03    -9.40980E-03    -2.69217E+06    -34.1303E+06    -180.789E+06    -34.2183E+06    -180.701E+06    -2.69217E+06    -2.27665E+06         27.6468
            1085     4.84385E-03     8.05007E-03     486.747E-03     468.985E-03        -1.62435     486.345E-03        -1.62395     468.985E-03     978.072E-06     74.3582E-03    -33.3738E-03    -41.0024E-03    -40.6989E-03     74.0547E-03    -33.3738E-03    -8.99035E-03    -9.55569E+06    -34.2705E+06    -186.530E+06    -34.3975E+06    -186.403E+06    -9.55569E+06    -3.54238E+06         27.0862
            1086     3.87931E-03     8.07137E-03     480.054E-03     463.480E-03        -1.61128     476.843E-03        -1.61060     466.007E-03    -17.8356E-03     68.8815E-03    -31.9797E-03    -36.8833E-03    -36.6482E-03     68.6464E-03    -31.9797E-03    -7.98240E-03    -17.5922E+06    -35.3214E+06    -189.177E+06    -35.4718E+06    -189.027E+06    -17.5922E+06    -4.58306E+06         26.6438
            1087     2.91310E-03     8.08628E-03     480.214E-03     459.769E-03        -1.60772     476.587E-03        -1.60662     462.296E-03     9.77089E-03     64.5146E-03    -30.9086E-03    -33.6091E-03    -33.4563E-03     64.3618E-03    -30.9086E-03    -6.40876E-03    -24.2456E+06    -37.4215E+06    -191.204E+06    -37.5720E+06    -191.054E+06    -24.2456E+06    -4.54129E+06         26.3102
            1088     1.94270E-03     8.09772E-03     483.164E-03     450.023E-03        -1.60478     478.181E-03        -1.60357     453.798E-03     14.8584E-03     61.5142E-03    -30.1210E-03    -31.3979E-03    -31.3164E-03     61.4327E-03    -30.1210E-03    -4.64567E-03    -31.2653E+06    -40.1658E+06    -198.080E+06    -40.2661E+06    -197.980E+06    -31.2653E+06    -2.88334E+06         26.0770
            1089     972.691E-06     8.10415E-03     482.290E-03     414.449E-03        -1.57054     477.273E-03        -1.56930     418.224E-03    -180.796E-06     59.5411E-03    -29.4634E-03    -30.0743E-03    -29.9513E-03     59.5132E-03    -29.5585E-03    -2.47708E-03    -37.2599E+06    -42.6862E+06    -200.570E+06    -41.3630E+06    -200.539E+06    -38.6143E+06    -548.219E+03         25.9371
            1090     16.0792E-03     6.99291E-03     478.173E-03     459.545E-03        -1.57952     461.147E-03        -1.57881     475.864E-03    -60.5507E-03     152.206E-03    -56.6689E-03    -95.5562E-03    -85.1153E-03     141.765E-03    -56.6689E-03     88.5154E-03     159.515E+06     131.891E+06    -6.97459E+06    -6.91782E+06     159.458E+06     131.891E+06     2.23798E+06         47.4765
            1091     15.1582E-03     6.85583E-03     479.098E-03     464.320E-03        -1.60019     466.242E-03        -1.59964     476.632E-03    -64.4509E-03     152.991E-03    -54.9315E-03    -98.1211E-03    -83.4739E-03     138.343E-03    -54.9315E-03     116.423E-03     150.974E+06     116.284E+06    -17.1449E+06    -16.8872E+06     150.716E+06     116.284E+06     2.64355E+06         44.6864
            1092     14.2377E-03     6.76733E-03     479.217E-03     469.665E-03        -1.61478     471.313E-03        -1.61432     477.104E-03    -49.2335E-03     138.887E-03    -52.9602E-03    -86.1756E-03    -78.8784E-03     131.590E-03    -52.9602E-03     78.2732E-03     137.553E+06     72.4359E+06    -27.9378E+06    -27.3428E+06     136.958E+06     72.4359E+06     4.05632E+06         41.3004
            1093     13.3120E-03     6.72092E-03     482.490E-03     475.780E-03        -1.62808     480.921E-03        -1.62784     477.104E-03    -24.7665E-03     125.855E-03    -51.0453E-03    -75.1487E-03    -72.1342E-03     122.841E-03    -51.0453E-03     46.6347E-03     115.055E+06     11.3144E+06    -34.7629E+06    -33.5405E+06     113.833E+06     11.3144E+06     4.95313E+06         38.1223
            1094     12.3805E-03     6.71721E-03     483.226E-03     473.755E-03        -1.62587     479.853E-03        -1.62558     476.846E-03     1.49141E-03     118.123E-03    -49.4893E-03    -68.8138E-03    -67.4211E-03     116.731E-03    -49.4893E-03     29.5670E-03     54.5434E+06    -13.5626E+06    -42.3311E+06    -40.5962E+06     52.8085E+06    -13.5626E+06     5.31908E+06         35.5739
            1095     11.4463E-03     6.73100E-03     482.410E-03     467.369E-03        -1.61967     472.398E-03        -1.61923     476.936E-03    -14.9573E-03     112.064E-03    -48.1982E-03    -64.0107E-03    -62.9009E-03     110.954E-03    -48.1982E-03     24.1233E-03     8.04758E+06    -24.1317E+06    -49.0069E+06    -44.0214E+06    -20.2713E+06    -798.269E+03     2.28783E+06         33.6560
            1096     10.5061E-03     6.75533E-03     485.322E-03     467.394E-03        -1.62808     475.162E-03        -1.62772     477.199E-03    -32.6279E-03     106.985E-03    -47.0613E-03    -59.9778E-03    -58.9068E-03     105.914E-03    -47.0613E-03     21.5551E-03     8.19493E+06    -41.0892E+06    -78.9529E+06    -43.2906E+06    -76.7515E+06     8.19493E+06    -3.20496E+06         32.2838
            1097     9.56352E-03     6.79025E-03     488.687E-03     472.222E-03        -1.63880     483.788E-03        -1.63854     476.867E-03    -31.8834E-03     103.733E-03    -45.9385E-03    -57.7887E-03    -56.6883E-03     102.633E-03    -45.9385E-03     20.9668E-03     13.6737E+06    -39.0586E+06    -120.664E+06    -40.4786E+06    -119.244E+06     13.6737E+06    -7.87179E+06         31.2715
            1098     8.61900E-03     6.82677E-03     489.930E-03     469.155E-03        -1.63733     482.697E-03        -1.63702     476.077E-03    -14.9322E-03     101.150E-03    -44.6535E-03    -56.5805E-03    -55.4814E-03     100.051E-03    -44.6535E-03     20.7918E-03     15.1836E+06    -36.1207E+06    -151.814E+06    -37.0398E+06    -150.895E+06     15.1836E+06    -8.77763E+06         30.4341
            1099     7.67407E-03     6.86428E-03     486.028E-03     464.992E-03        -1.62565     474.843E-03        -1.62524     475.766E-03    -7.66631E-03     98.0245E-03    -43.2000E-03    -54.9708E-03    -54.0531E-03     97.1068E-03    -43.2000E-03     18.3300E-03     11.3457E+06    -34.6236E+06    -171.459E+06    -35.2001E+06    -170.882E+06     11.3457E+06    -7.58817E+06         29.6825
            1100     6.72580E-03     6.90252E-03     487.513E-03     470.221E-03        -1.62258     482.005E-03        -1.62224     475.390E-03    -17.0143E-03     93.9976E-03    -41.5554E-03    -52.5388E-03    -51.8356E-03     93.2944E-03    -41.5554E-03     15.1200E-03     3.87115E+06    -35.3346E+06    -177.681E+06    -35.7132E+06    -177.302E+06     3.87115E+06    -7.09141E+06         28.9948
            1101     5.77621E-03     6.93912E-03     494.841E-03     473.113E-03        -1.63026     494.492E-03        -1.62991     473.113E-03    -31.4970E-03     89.1896E-03    -39.7915E-03    -49.4040E-03    -48.8963E-03     88.6819E-03    -39.7915E-03     11.9808E-03    -5.37216E+06    -36.4389E+06    -182.148E+06    -36.8829E+06    -181.704E+06    -5.37216E+06    -7.59570E+06         28.3836
            1102     4.82092E-03     6.97122E-03     485.447E-03     469.697E-03        -1.62279     484.734E-03        -1.62208     469.697E-03    -30.8452E-03     83.8847E-03    -38.0794E-03    -45.8281E-03    -45.4871E-03     83.5437E-03    -38.0794E-03     8.82186E-03    -12.5874E+06    -37.3776E+06    -187.655E+06    -37.8544E+06    -187.178E+06    -12.5874E+06    -8.07157E+06         27.8745
            1103     3.86447E-03     6.99897E-03     471.611E-03     464.838E-03        -1.61040     467.386E-03        -1.60943     468.094E-03    -42.0241E-03     78.5440E-03    -36.4727E-03    -42.0959E-03    -41.8803E-03     78.3284E-03    -36.4727E-03     6.18501E-03    -19.8633E+06    -38.8715E+06    -190.838E+06    -39.2936E+06    -190.416E+06    -19.8633E+06    -7.75400E+06         27.4736
            1104     2.90153E-03     7.01924E-03     475.480E-03     459.013E-03        -1.61335     464.903E-03        -1.61240     468.638E-03    -9.70680E-03     73.5415E-03    -35.1006E-03    -38.4437E-03    -38.3204E-03     73.4182E-03    -35.1006E-03     4.04093E-03    -29.9832E+06    -40.4238E+06    -195.298E+06    -40.7285E+06    -194.993E+06    -29.9832E+06    -6.67230E+06         27.1718
            1105     1.93695E-03     7.03327E-03     493.301E-03     448.644E-03        -1.61269     472.852E-03        -1.61138     467.781E-03    -24.0098E-03     69.6334E-03    -34.1066E-03    -35.5254E-03    -35.4736E-03     69.5816E-03    -34.1066E-03     2.15972E-03    -37.0466E+06    -43.4298E+06    -201.943E+06    -43.5657E+06    -201.807E+06    -37.0466E+06    -4.11130E+06         26.9603
            1106     968.037E-06     7.04267E-03     495.115E-03     438.878E-03        -1.59176     480.587E-03        -1.59000     451.647E-03    -41.3020E-03     67.3533E-03    -33.3765E-03    -33.9773E-03    -33.9597E-03     67.3357E-03    -33.3765E-03     1.15749E-03    -41.3132E+06    -47.6385E+06    -204.618E+06    -46.3319E+06    -204.570E+06    -42.6676E+06    -1.47846E+06         26.8337
            1107     16.0584E-03     5.84200E-03     477.950E-03     461.049E-03        -1.59161     462.376E-03        -1.59063     475.641E-03    -70.5856E-03     157.010E-03    -58.0194E-03    -99.0424E-03    -86.5493E-03     144.517E-03    -58.0194E-03     98.5530E-03     158.038E+06     131.693E+06    -7.56975E+06    -7.27812E+06     157.746E+06     131.693E+06     4.20580E+06         46.9961
            1108     15.1355E-03     5.70213E-03     483.106E-03     473.207E-03        -1.62007     479.911E-03        -1.61945     475.781E-03    -58.1470E-03     156.183E-03    -56.3538E-03    -100.078E-03    -83.2131E-03     139.319E-03    -56.3538E-03     125.570E-03     152.253E+06     120.225E+06    -18.8121E+06    -18.3019E+06     151.743E+06     120.225E+06     6.67950E+06         44.2174
            1109     14.2136E-03     5.62123E-03     484.838E-03     475.238E-03        -1.62842     484.273E-03        -1.62785     475.238E-03    -53.7522E-03     136.140E-03    -54.6791E-03    -81.8414E-03    -74.0291E-03     128.328E-03    -54.6791E-03     79.8846E-03     135.595E+06     77.6295E+06    -29.5260E+06    -28.5185E+06     134.588E+06     77.6295E+06     6.25055E+06         40.9138
            1110     13.2796E-03     5.59486E-03     482.861E-03     474.588E-03        -1.62646     482.530E-03        -1.62613     474.588E-03    -27.3586E-03     119.335E-03    -53.3217E-03    -66.2897E-03    -61.8361E-03     114.978E-03    -53.4178E-03     55.5810E-03     111.221E+06     16.5922E+06    -42.2913E+06    -40.4757E+06     109.405E+06     16.5922E+06     12.1075E+06         37.8500
            1111     12.3376E-03     5.59343E-03     480.430E-03     471.103E-03        -1.62511     476.829E-03        -1.62460     474.194E-03     10.2666E-03     111.723E-03    -51.8581E-03    -59.9865E-03    -55.3550E-03     108.080E-03    -52.8470E-03     48.0700E-03     60.3513E+06    -7.76691E+06    -49.5011E+06    -48.2404E+06     59.0906E+06    -7.76691E+06     9.27942E+06         35.3868
            1112     11.3925E-03     5.61618E-03     477.151E-03     461.577E-03        -1.62079     463.543E-03        -1.62020     474.604E-03     15.4095E-03     108.629E-03    -50.5423E-03    -58.0882E-03    -52.2747E-03     104.965E-03    -52.6921E-03     46.8753E-03     15.1768E+06    -18.1808E+06    -56.7831E+06    -49.2883E+06    -13.2244E+06     2.72560E+06    -5.03511E+06         33.5420
            1113     10.4456E-03     5.64434E-03     478.086E-03     462.446E-03        -1.62434     463.866E-03        -1.62339     475.710E-03     13.2185E-03     107.567E-03    -50.7828E-03    -56.7905E-03    -50.4627E-03     103.212E-03    -52.7555E-03     50.3211E-03     13.3448E+06    -34.3979E+06    -83.0113E+06    -44.4250E+06    -72.9842E+06     13.3448E+06    -14.4123E+06         32.3008
            1114     9.49777E-03     5.68195E-03     485.846E-03     472.781E-03        -1.63955     481.756E-03        -1.63879     476.109E-03     30.5241E-03     109.073E-03    -51.9916E-03    -57.0723E-03    -51.6306E-03     104.347E-03    -52.7072E-03     52.9457E-03     18.9508E+06    -36.2836E+06    -124.954E+06    -40.3865E+06    -120.851E+06     18.9508E+06    -17.9746E+06         31.5046
            1115     8.55207E-03     5.71787E-03     491.068E-03     475.102E-03        -1.64265     490.619E-03        -1.64220     475.102E-03     36.1932E-03     110.822E-03    -52.3373E-03    -58.5721E-03    -54.1019E-03     106.351E-03    -52.3373E-03     52.5058E-03     17.7793E+06    -37.6679E+06    -159.835E+06    -40.3327E+06    -157.170E+06     17.7793E+06    -17.1220E+06         30.9145
            1116     7.60799E-03     5.75783E-03     486.722E-03     468.730E-03        -1.63069     480.995E-03        -1.63013     473.900E-03     13.4129E-03     110.781E-03    -51.6096E-03    -59.2694E-03    -55.5872E-03     107.099E-03    -51.6096E-03     48.0470E-03     10.1034E+06    -38.7904E+06    -176.183E+06    -40.4325E+06    -174.541E+06     10.1034E+06    -14.3713E+06         30.3912
            1117     6.66548E-03     5.79846E-03     480.200E-03     468.074E-03        -1.62288     474.361E-03        -1.62247     473.504E-03     1.02993E-03     109.183E-03    -50.5056E-03    -58.7102E-03    -55.7562E-03     106.229E-03    -50.5056E-03     42.7940E-03     1.52214E+06    -37.9163E+06    -180.893E+06    -39.3310E+06    -179.478E+06     1.52214E+06    -13.3733E+06         29.8977
            1118     5.72091E-03     5.84022E-03     478.736E-03     467.601E-03        -1.61508     472.241E-03        -1.61467     473.691E-03     12.1752E-03     106.405E-03    -49.1525E-03    -57.2867E-03    -55.0189E-03     104.137E-03    -49.1525E-03     36.9988E-03    -6.97114E+06    -38.2193E+06    -185.599E+06    -39.3632E+06    -184.455E+06    -6.97114E+06    -12.6298E+06         29.4340
            1119     4.77625E-03     5.87648E-03     479.147E-03     467.779E-03        -1.61837     472.405E-03        -1.61787     474.027E-03    -11.6380E-03     102.528E-03    -47.6161E-03    -54.9062E-03    -53.2765E-03     100.898E-03    -47.6161E-03     30.6629E-03    -19.4006E+06    -40.2290E+06    -191.002E+06    -41.2025E+06    -190.028E+06    -19.4006E+06    -11.9774E+06         29.0219
            1120     3.82622E-03     5.91040E-03     477.379E-03     467.181E-03        -1.62980     469.062E-03        -1.62913     474.825E-03    -40.6359E-03     97.9326E-03    -46.0498E-03    -51.8904E-03    -50.8260E-03     96.8682E-03    -46.0498E-03     24.1328E-03    -29.7158E+06    -42.6493E+06    -195.862E+06    -43.3947E+06    -195.116E+06    -29.7158E+06    -10.4530E+06         28.6841
            1121     2.87549E-03     5.93700E-03     479.795E-03     453.626E-03        -1.61713     452.990E-03        -1.61649     479.795E-03    -12.0265E-03     93.0866E-03    -44.6260E-03    -48.4696E-03    -47.8472E-03     92.4641E-03    -44.6260E-03     17.8384E-03    -34.2500E+06    -44.2937E+06    -200.915E+06    -44.6299E+06    -200.579E+06    -34.2500E+06    -6.90972E+06         28.4271
            1122     1.91875E-03     5.95597E-03     495.195E-03     450.887E-03        -1.61413     450.250E-03        -1.61349     495.195E-03    -11.0022E-03     88.7552E-03    -43.4417E-03    -45.3014E-03    -45.0011E-03     88.4549E-03    -43.4417E-03     11.7644E-03    -39.2661E+06    -47.4136E+06    -205.471E+06    -47.5769E+06    -205.307E+06    -39.2661E+06    -4.64863E+06         28.2485
            1123     961.001E-06     5.96733E-03     552.412E-03     460.861E-03        -1.66401     526.287E-03        -1.66325     486.224E-03    -30.7542E-03     85.7999E-03    -42.3205E-03    -43.4797E-03    -43.3788E-03     85.6990E-03    -42.3205E-03     6.47946E-03    -47.7275E+06    -54.5328E+06    -211.994E+06    -54.6668E+06    -211.860E+06    -47.7275E+06    -2.32039E+06         28.1431
            1124     16.0212E-03     4.68020E-03     474.461E-03     460.043E-03        -1.59353     458.443E-03        -1.59144     473.963E-03    -107.246E-03     161.881E-03    -60.2717E-03    -101.660E-03    -86.6717E-03     146.893E-03    -60.2717E-03     111.451E-03     157.353E+06     130.131E+06    -12.4703E+06    -11.7542E+06     156.637E+06     130.131E+06     4.66190E+06         46.4773
            1125     15.1053E-03     4.54548E-03     483.593E-03     471.510E-03        -1.62122     479.788E-03        -1.61999     474.084E-03    -83.4964E-03     157.503E-03    -58.8760E-03    -98.8353E-03    -78.6308E-03     137.299E-03    -58.8760E-03     136.746E-03     148.772E+06     121.120E+06    -19.4039E+06    -17.8286E+06     147.197E+06     121.120E+06     7.68039E+06         43.7143
            1126     14.1790E-03     4.48098E-03     490.634E-03     473.248E-03        -1.63709     489.989E-03        -1.63644     473.248E-03    -59.1124E-03     129.857E-03    -55.8406E-03    -74.3274E-03    -60.5870E-03     118.268E-03    -57.9920E-03     91.1581E-03     132.288E+06     83.6932E+06    -35.5883E+06    -33.1004E+06     129.800E+06     83.6932E+06     16.8365E+06         40.5512
            1127     13.2343E-03     4.48347E-03     485.134E-03     472.217E-03        -1.63921     484.796E-03        -1.63887     472.217E-03    -26.8936E-03     115.330E-03    -54.8985E-03    -60.6814E-03    -44.3542E-03     102.126E-03    -58.0216E-03     84.3571E-03     113.304E+06     34.5882E+06    -48.4106E+06    -46.6760E+06     111.570E+06     34.5882E+06     16.0135E+06         37.6617
            1128     12.2743E-03     4.48250E-03     485.290E-03     471.245E-03        -1.64467     484.751E-03        -1.64413     471.245E-03     14.0031E-03     114.230E-03    -55.6269E-03    -58.7992E-03    -40.9226E-03     99.5260E-03    -58.7992E-03     88.8415E-03     74.7111E+06     10.1989E+06    -48.7082E+06    -47.1440E+06     73.1469E+06     10.1989E+06     2.44628E+06         35.3219
            1129     11.3164E-03     4.50885E-03     487.767E-03     466.743E-03        -1.64390     483.970E-03        -1.64356     470.202E-03     32.0130E-03     114.229E-03    -54.3761E-03    -59.8767E-03    -42.9502E-03     102.803E-03    -59.8767E-03     81.4428E-03     26.3729E+06    -7.01841E+06    -59.2978E+06    -43.3212E+06    -3.65432E+06     7.03226E+06    -15.3848E+06         33.5564
            1130     10.3566E-03     4.53818E-03     479.967E-03     465.199E-03        -1.63154     474.952E-03        -1.63085     469.528E-03     39.8664E-03     116.317E-03    -55.1023E-03    -61.1665E-03    -44.6097E-03     105.825E-03    -61.1665E-03     80.9606E-03     11.1419E+06    -26.7101E+06    -91.0523E+06    -42.0041E+06    -75.7583E+06     11.1419E+06    -24.9024E+06         32.4005
            1131     9.40329E-03     4.56932E-03     473.280E-03     461.705E-03        -1.61636     464.536E-03        -1.61568     469.762E-03     52.5153E-03     121.196E-03    -58.3956E-03    -62.7826E-03    -49.1049E-03     111.447E-03    -62.3235E-03     80.9393E-03     20.6639E+06    -34.9699E+06    -135.227E+06    -42.2035E+06    -127.993E+06     20.6639E+06    -24.4726E+06         31.7718
            1132     8.45679E-03     4.60007E-03     472.801E-03     463.357E-03        -1.61600     465.020E-03        -1.61540     470.544E-03     57.9154E-03     125.643E-03    -61.0843E-03    -64.6174E-03    -54.4579E-03     117.410E-03    -63.0111E-03     76.6589E-03     19.6667E+06    -39.1685E+06    -169.662E+06    -43.5536E+06    -165.277E+06     19.6667E+06    -23.0161E+06         31.4243
            1133     7.51634E-03     4.63792E-03     477.098E-03     470.657E-03        -1.62913     476.323E-03        -1.62835     470.657E-03     16.8836E-03     127.912E-03    -62.2008E-03    -65.8645E-03    -58.2185E-03     121.289E-03    -63.2242E-03     70.0239E-03     6.09456E+06    -39.2842E+06    -182.007E+06    -43.1310E+06    -178.160E+06     6.09456E+06    -22.6122E+06         31.1708
            1134     6.57767E-03     4.67880E-03     479.547E-03     469.541E-03        -1.62965     478.586E-03        -1.62895     469.802E-03     12.6195E-03     129.002E-03    -62.7997E-03    -66.4230E-03    -60.7141E-03     123.554E-03    -63.0601E-03     64.1116E-03    -7.45404E+06    -38.6301E+06    -187.757E+06    -41.6809E+06    -184.706E+06    -7.45404E+06    -20.8219E+06         30.9534
            1135     5.64193E-03     4.72010E-03     474.013E-03     462.465E-03        -1.61490     466.317E-03        -1.61433     469.595E-03     39.2536E-03     129.113E-03    -62.5952E-03    -66.7414E-03    -62.3856E-03     124.757E-03    -62.5952E-03     57.5652E-03    -17.8079E+06    -39.6994E+06    -192.248E+06    -41.6805E+06    -190.267E+06    -17.8079E+06    -17.0920E+06         30.7450
            1136     4.70502E-03     4.75958E-03     471.362E-03     458.712E-03        -1.60416     458.457E-03        -1.60391     471.362E-03     17.3005E-03     128.138E-03    -61.8297E-03    -66.4020E-03    -63.1114E-03     124.847E-03    -61.8297E-03     49.9240E-03    -27.7865E+06    -41.8190E+06    -197.078E+06    -43.1028E+06    -195.794E+06    -27.7865E+06    -13.8052E+06         30.5315
            1137     3.76967E-03     4.79573E-03     475.754E-03     452.729E-03        -1.60105     452.574E-03        -1.60089     475.754E-03     7.73603E-03     125.794E-03    -60.8737E-03    -64.9700E-03    -62.7120E-03     123.536E-03    -60.8737E-03     40.9504E-03    -34.8598E+06    -43.8949E+06    -203.048E+06    -44.6407E+06    -202.302E+06    -34.8598E+06    -10.6373E+06         30.3294
            1138     2.82961E-03     4.82734E-03     485.867E-03     453.655E-03        -1.61570     455.436E-03        -1.61509     483.475E-03     31.4645E-03     122.673E-03    -59.8596E-03    -62.8681E-03    -61.4982E-03     121.303E-03    -59.8596E-03     31.3890E-03    -39.4246E+06    -48.7398E+06    -207.816E+06    -49.0720E+06    -207.484E+06    -39.4246E+06    -6.95172E+06         30.1589
            1139     1.88940E-03     4.85066E-03     514.759E-03     463.054E-03        -1.65215     488.949E-03        -1.65151     488.225E-03     25.0168E-03     119.542E-03    -58.8608E-03    -60.6795E-03    -60.0014E-03     118.864E-03    -58.8608E-03     21.5089E-03    -45.0361E+06    -55.2872E+06    -211.274E+06    -55.4464E+06    -211.115E+06    -45.0361E+06    -3.98237E+06         30.0292
            1140     944.977E-06     4.86616E-03     552.617E-03     425.447E-03        -1.65419     539.338E-03        -1.65351     438.042E-03     32.7956E-03     116.695E-03    -57.6051E-03    -59.0942E-03    -58.4860E-03     116.458E-03    -57.9765E-03     12.1687E-03    -53.9422E+06    -60.5087E+06    -216.445E+06    -60.7397E+06    -216.214E+06    -53.9422E+06    -2.90038E+06         29.9482
            1141     15.9722E-03     3.51369E-03     487.562E-03     465.708E-03        -1.62001     477.798E-03        -1.61684     472.309E-03    -157.927E-03     166.097E-03    -63.8565E-03    -102.351E-03    -80.9976E-03     144.744E-03    -63.8565E-03     138.830E-03     155.274E+06     129.987E+06    -9.54508E+06    -7.93526E+06     153.664E+06     129.987E+06     9.81809E+06         46.0136
            1142     15.0437E-03     3.39125E-03     498.967E-03     471.208E-03        -1.64673     497.595E-03        -1.64536     471.208E-03    -77.1756E-03     155.733E-03    -62.3576E-03    -93.4350E-03    -68.9294E-03     131.976E-03    -63.1066E-03     145.440E-03     141.764E+06     114.292E+06    -30.1233E+06    -27.5943E+06     139.235E+06     114.292E+06     14.0381E+06         43.2796
            1143     14.0945E-03     3.36531E-03     489.417E-03     469.685E-03        -1.64945     488.977E-03        -1.64901     469.685E-03    -10.9269E-03     122.061E-03    -53.6615E-03    -68.4728E-03    -45.2222E-03     108.483E-03    -63.3339E-03     95.0271E-03     130.217E+06     95.0950E+06    -38.7315E+06    -36.6056E+06     128.091E+06     95.0950E+06     17.3245E+06         40.3283
            1144     13.1207E-03     3.38910E-03     480.585E-03     468.624E-03        -1.64446     480.553E-03        -1.64443     468.624E-03     5.83206E-03     113.807E-03    -49.2967E-03    -64.6489E-03    -33.3201E-03     97.8304E-03    -64.6489E-03     94.5124E-03     124.989E+06     62.3222E+06    -34.3608E+06    -33.2695E+06     123.898E+06     62.3222E+06     8.75246E+06         37.6796
            1145     12.1465E-03     3.37544E-03     479.707E-03     467.744E-03        -1.64535     479.542E-03        -1.64518     467.744E-03     18.1319E-03     117.179E-03    -50.7476E-03    -66.5409E-03    -34.3144E-03     100.746E-03    -66.5409E-03     95.3513E-03     88.5459E+06     20.7258E+06    -31.0026E+06    -29.3316E+06     86.8750E+06     20.7258E+06    -7.18065E+06         35.5005
            1146     11.1909E-03     3.39487E-03     483.986E-03     466.574E-03        -1.64615     483.800E-03        -1.64596     466.574E-03     6.06828E-03     118.896E-03    -50.3594E-03    -68.6884E-03    -38.3735E-03     106.910E-03    -68.6884E-03     84.1105E-03     23.2417E+06    -8.19941E+06    -47.7598E+06    -31.2918E+06     173.932E+03    -1.59960E+06    -18.4353E+06         33.8307
            1147     10.2425E-03     3.42366E-03     475.638E-03     464.571E-03        -1.63210     474.662E-03        -1.63199     465.441E-03     4.60582E-03     126.987E-03    -56.1621E-03    -70.9959E-03    -44.0789E-03     114.904E-03    -70.9959E-03     90.3644E-03    -4.14689E+06    -25.9350E+06    -94.9750E+06    -39.2485E+06    -81.6150E+06    -4.19342E+06    -25.6395E+06         32.7155
            1148     9.29340E-03     3.44282E-03     466.857E-03     457.310E-03        -1.61595     458.721E-03        -1.61587     465.367E-03     6.68578E-03     135.582E-03    -62.6605E-03    -73.0678E-03    -51.7268E-03     124.648E-03    -73.0678E-03     89.8965E-03    -472.012E+03    -34.5095E+06    -146.409E+06    -43.7366E+06    -137.182E+06    -472.012E+03    -29.5495E+06         32.1281
            1149     8.35146E-03     3.46620E-03     470.830E-03     458.722E-03        -1.62128     463.284E-03        -1.62092     465.909E-03     25.9313E-03     140.389E-03    -65.8466E-03    -74.7087E-03    -57.3564E-03     131.898E-03    -74.7087E-03     81.3742E-03    -1.59219E+06    -35.4652E+06    -177.436E+06    -42.5664E+06    -170.335E+06    -1.59219E+06    -30.5657E+06         31.9161
            1150     7.41282E-03     3.50008E-03     470.841E-03     460.491E-03        -1.62294     464.569E-03        -1.62247     466.287E-03     13.1003E-03     144.366E-03    -68.4109E-03    -76.1151E-03    -61.5605E-03     137.516E-03    -76.1151E-03     74.7575E-03    -13.4385E+06    -36.1405E+06    -191.220E+06    -41.8882E+06    -185.472E+06    -13.4385E+06    -29.0909E+06         31.9222
            1151     6.47944E-03     3.53493E-03     472.234E-03     459.277E-03        -1.62087     464.212E-03        -1.62028     466.706E-03     22.0826E-03     148.705E-03    -71.4082E-03    -77.4106E-03    -65.7274E-03     142.901E-03    -77.2867E-03     70.2508E-03    -25.8128E+06    -39.5271E+06    -198.318E+06    -43.3054E+06    -194.539E+06    -25.8128E+06    -24.0263E+06         32.0332
            1152     5.54816E-03     3.57509E-03     471.477E-03     461.822E-03        -1.61893     465.684E-03        -1.61837     467.059E-03     23.4849E-03     152.720E-03    -74.0018E-03    -78.8366E-03    -69.8073E-03     147.900E-03    -78.2106E-03     65.2213E-03    -33.8950E+06    -42.7013E+06    -201.253E+06    -45.0141E+06    -198.941E+06    -33.8950E+06    -18.7809E+06         32.1686
            1153     4.62171E-03     3.61149E-03     468.216E-03     459.098E-03        -1.60551     459.096E-03        -1.60535     468.062E-03    -5.49758E-03     155.967E-03    -75.9985E-03    -80.0388E-03    -73.4189E-03     152.198E-03    -78.8490E-03     58.4640E-03    -39.3143E+06    -45.1959E+06    -206.419E+06    -46.4467E+06    -205.168E+06    -39.3143E+06    -13.8481E+06         32.2753
            1154     3.69580E-03     3.64875E-03     472.402E-03     454.723E-03        -1.60049     456.129E-03        -1.60033     470.833E-03    -3.06283E-03     157.884E-03    -77.5252E-03    -80.4433E-03    -76.1145E-03     155.207E-03    -79.1774E-03     49.6594E-03    -40.7206E+06    -49.3248E+06    -211.118E+06    -49.8901E+06    -210.552E+06    -40.7206E+06    -8.89637E+06         32.3404
            1155     2.77315E-03     3.68135E-03     484.045E-03     462.178E-03        -1.62428     472.587E-03        -1.62357     472.926E-03     3.73626E-03     158.694E-03    -78.5026E-03    -80.2315E-03    -77.9033E-03     157.032E-03    -79.1687E-03     39.0869E-03    -45.3886E+06    -54.4855E+06    -214.289E+06    -54.6935E+06    -214.081E+06    -45.3886E+06    -5.17467E+06         32.3702
            1156     1.84868E-03     3.70601E-03     500.394E-03     460.897E-03        -1.64962     493.528E-03        -1.64841     466.550E-03    -22.9351E-03     158.385E-03    -78.6900E-03    -79.6712E-03    -78.6407E-03     157.568E-03    -78.9033E-03     27.0503E-03    -50.5624E+06    -58.7905E+06    -216.990E+06    -58.9052E+06    -216.875E+06    -50.5624E+06    -3.33096E+06         32.3664
            1157     925.754E-06     3.72280E-03     524.789E-03     399.035E-03        -1.61466     515.183E-03        -1.61071     404.688E-03     65.4275E-03     157.418E-03    -78.0514E-03    -79.4012E-03    -78.0559E-03     157.139E-03    -79.1180E-03     14.9953E-03    -56.7808E+06    -64.7683E+06    -221.515E+06    -61.7303E+06    -221.333E+06    -60.0005E+06    -3.06778E+06         32.3556
            1158     15.8755E-03     2.32905E-03     517.078E-03     466.294E-03        -1.67807     511.168E-03        -1.67420     468.325E-03    -141.561E-03     167.464E-03    -68.8293E-03    -98.7097E-03    -70.3025E-03     139.057E-03    -68.8293E-03     162.727E-03     153.590E+06     125.117E+06    -18.2188E+06    -16.3931E+06     151.764E+06     125.117E+06      15.448E+06         45.8032
            1159     14.9538E-03     2.24888E-03     505.781E-03     465.294E-03        -1.68714     505.199E-03        -1.68674     465.471E-03    -5.90879E-03     149.840E-03    -63.4841E-03    -86.3116E-03    -59.4823E-03     128.519E-03    -68.9926E-03     132.870E-03     143.206E+06     120.344E+06    -23.4650E+06    -22.0192E+06     141.760E+06     120.344E+06     13.1712E+06         43.1803
            1160     14.0016E-03     2.26161E-03     473.751E-03     460.603E-03        -1.65406     470.337E-03        -1.65396     463.918E-03     23.6570E-03     124.036E-03    -54.0441E-03    -69.9324E-03    -40.8849E-03     110.876E-03    -69.9324E-03     92.8742E-03     137.507E+06     107.436E+06    -21.9247E+06    -20.9369E+06     136.519E+06     107.436E+06     2.99038E+06         40.4903
            1161     13.0445E-03     2.28267E-03     467.079E-03     454.072E-03        -1.63354     457.117E-03        -1.63349     463.984E-03     11.2852E-03     124.887E-03    -53.3146E-03    -71.5024E-03    -39.3398E-03     110.912E-03    -71.5024E-03     95.4242E-03     131.633E+06     56.8869E+06    -17.9339E+06    -15.8714E+06     130.396E+06     56.0623E+06    -6.58562E+06         38.1033
            1162     12.0876E-03     2.26028E-03     467.169E-03     457.628E-03        -1.62820     460.341E-03        -1.62815     464.402E-03     8.29362E-03     123.298E-03    -49.6786E-03    -73.6004E-03    -39.3970E-03     113.016E-03    -73.6004E-03     79.2952E-03     89.4476E+06     234.245E+03    -24.7437E+06    -17.3703E+06     88.3613E+06    -6.05278E+06    -6.27796E+06         36.0964
            1163     11.1161E-03     2.28421E-03     467.782E-03     462.829E-03        -1.62493     466.063E-03        -1.62489     464.510E-03     11.1474E-03     120.892E-03    -44.7041E-03    -76.3391E-03    -38.8032E-03     114.991E-03    -76.3391E-03     60.9228E-03     18.2749E+06    -26.1284E+06    -50.5634E+06    -25.7291E+06     3.69667E+06    -36.3845E+06    -9.94051E+06         34.5148
            1164     10.1446E-03     2.29360E-03     469.781E-03     462.608E-03        -1.62362     467.938E-03        -1.62346     464.289E-03     29.3744E-03     131.771E-03    -52.5218E-03    -79.4415E-03    -45.4791E-03     124.728E-03    -79.4415E-03     68.9000E-03    -15.6649E+06    -41.6344E+06    -96.2383E+06    -29.0007E+06    -82.4010E+06    -42.1360E+06    -21.1297E+06         33.4023
            1165     9.19845E-03     2.29724E-03     472.322E-03     463.694E-03        -1.62688     472.127E-03        -1.62668     463.694E-03     10.9851E-03     142.684E-03    -60.5196E-03    -82.3276E-03    -54.1855E-03     136.350E-03    -82.3276E-03     67.6359E-03    -18.2607E+06    -48.3324E+06    -147.349E+06    -31.8752E+06    -139.700E+06    -42.3671E+06    -29.3436E+06         32.7609
            1166     8.25846E-03     2.31764E-03     471.390E-03     462.595E-03        -1.62764     470.903E-03        -1.62739     462.832E-03     14.0407E-03     149.142E-03    -64.3933E-03    -85.0456E-03    -59.4750E-03     144.223E-03    -85.0456E-03     61.8579E-03    -24.7244E+06    -47.2760E+06    -184.164E+06    -36.3823E+06    -176.760E+06    -43.0218E+06    -32.3569E+06         32.5483
            1167     7.32157E-03     2.34229E-03     466.149E-03     453.117E-03        -1.61379     456.074E-03        -1.61345     462.848E-03     15.7587E-03     155.926E-03    -68.3379E-03    -87.7952E-03    -64.0832E-03     151.672E-03    -87.7952E-03     59.6368E-03    -31.5794E+06    -47.1125E+06    -203.177E+06    -40.4481E+06    -198.220E+06    -43.2006E+06    -27.9683E+06         32.6959
            1168     6.38814E-03     2.37201E-03     464.738E-03     445.514E-03        -1.60299     445.182E-03        -1.60266     464.738E-03     15.0691E-03     164.025E-03    -73.5641E-03    -90.4555E-03    -69.7480E-03     160.209E-03    -90.4555E-03     58.4395E-03    -39.6609E+06    -47.5180E+06    -209.549E+06    -44.5159E+06    -206.493E+06    -45.7193E+06    -21.8438E+06         33.0793
            1169     5.46199E-03     2.40135E-03     467.593E-03     451.039E-03        -1.60849     450.824E-03        -1.60827     467.593E-03     22.0957E-03     172.471E-03    -79.4200E-03    -93.0309E-03    -76.1119E-03     169.163E-03    -93.0309E-03     56.1347E-03    -44.9255E+06    -49.1657E+06    -211.817E+06    -48.2342E+06    -210.200E+06    -47.4741E+06    -15.7061E+06         33.5617
            1170     4.54013E-03     2.43167E-03     472.422E-03     462.571E-03        -1.61763     465.429E-03        -1.61746     469.394E-03    -10.7588E-03     180.577E-03    -85.2196E-03    -95.2987E-03    -82.5658E-03     177.923E-03    -95.2987E-03     51.6380E-03    -48.5996E+06    -52.3668E+06    -215.434E+06    -51.8966E+06    -214.638E+06    -49.8658E+06    -10.0898E+06         34.0351
            1171     3.62534E-03     2.46148E-03     482.956E-03     467.935E-03        -1.63337     482.638E-03        -1.63306     467.935E-03    -32.4107E-03     187.827E-03    -90.5868E-03    -97.2219E-03    -88.6638E-03     185.904E-03    -97.2219E-03     44.9449E-03    -50.9441E+06    -55.1380E+06    -219.068E+06    -55.5529E+06    -218.653E+06    -50.9441E+06    -6.75502E+06         34.4445
            1172     2.71430E-03     2.48852E-03     483.858E-03     462.627E-03        -1.63094     483.565E-03        -1.63064     462.627E-03    -29.3236E-03     193.720E-03    -94.9248E-03    -98.7536E-03    -93.7051E-03     192.501E-03    -98.7536E-03     36.3201E-03    -50.8821E+06    -57.6702E+06    -219.393E+06    -57.8598E+06    -219.203E+06    -50.8821E+06    -4.61008E+06         34.7805
            1173     1.80892E-03     2.51107E-03     469.725E-03     447.089E-03        -1.59888     455.226E-03        -1.59778     460.487E-03    -8.84086E-03     197.819E-03    -97.9553E-03    -99.7913E-03    -97.3369E-03     197.200E-03    -99.7913E-03     25.9247E-03    -50.7155E+06    -58.9032E+06    -220.953E+06    -58.9780E+06    -220.878E+06    -50.7155E+06    -2.73249E+06         35.0268
            1174     902.758E-06     2.52717E-03     501.540E-03     425.823E-03        -1.60087     481.533E-03        -1.59696     441.918E-03     71.5875E-03     200.433E-03    -99.6245E-03    -100.824E-03    -99.4797E-03     200.222E-03    -100.758E-03     14.5257E-03    -57.8435E+06    -66.4755E+06    -227.816E+06    -63.3207E+06    -227.751E+06    -61.0631E+06    -1.66551E+06         35.1774
            1175     15.7935E-03     1.14826E-03     512.724E-03     455.087E-03        -1.74780     503.878E-03        -1.74472     460.855E-03    -85.8327E-03     171.399E-03    -68.6936E-03    -102.585E-03    -74.7116E-03     148.996E-03    -74.1640E-03     143.503E-03     156.118E+06     137.294E+06    -7.38420E+06    -5.82458E+06     154.558E+06     137.294E+06     14.6774E+06         46.1335
            1176     14.8496E-03     1.11871E-03     476.254E-03     450.533E-03        -1.68625     467.594E-03        -1.68611     459.052E-03     24.8135E-03     137.849E-03    -57.6906E-03    -80.0302E-03    -51.7767E-03     126.756E-03    -74.8502E-03     86.6093E-03     155.395E+06     133.836E+06    -65.2558E+03     617.389E+03     154.713E+06     133.836E+06     3.76547E+06         43.7506
            1177     13.8906E-03     1.14960E-03     459.596E-03     453.057E-03        -1.65047     453.569E-03        -1.65033     458.946E-03     24.6268E-03     131.945E-03    -55.8137E-03    -76.1002E-03    -47.2805E-03     123.411E-03    -76.1002E-03     71.0443E-03     149.107E+06     95.7466E+06    -5.21825E+06    -4.24128E+06     148.130E+06     95.7466E+06     -7.1824E+06         41.3109
            1178     12.9390E-03     1.14204E-03     460.182E-03     448.273E-03        -1.62814     448.767E-03        -1.62799     459.532E-03     29.8560E-03     136.474E-03    -59.0068E-03    -77.5148E-03    -49.0547E-03     126.522E-03    -77.5148E-03     77.6654E-03     126.520E+06     29.4184E+06    -13.1173E+06    -11.0694E+06     125.297E+06     28.5937E+06    -7.17068E+06         39.1174
            1179     11.9929E-03     1.13329E-03     461.346E-03     446.008E-03        -1.61570     446.669E-03        -1.61549     460.467E-03     33.9813E-03     134.191E-03    -54.9361E-03    -79.3586E-03    -47.9488E-03     127.203E-03    -79.3586E-03     63.2918E-03     81.8062E+06    -14.4765E+06    -43.5365E+06    -16.6778E+06     80.6485E+06    -40.1775E+06    -1.53540E+06         37.2415
            1180     11.0475E-03     1.16319E-03     462.438E-03     448.752E-03        -1.61014     449.380E-03        -1.60989     461.560E-03     40.1698E-03     135.245E-03    -53.6821E-03    -81.7357E-03    -50.1492E-03     131.712E-03    -81.7357E-03     48.3448E-03     21.8896E+06    -33.6393E+06    -77.7970E+06    -17.9085E+06     6.15884E+06    -77.7970E+06    -5.55027E+06         35.7286
            1181     10.1018E-03     1.15461E-03     465.734E-03     453.219E-03        -1.61135     456.417E-03        -1.61119     462.377E-03     27.1133E-03     140.066E-03    -55.4586E-03    -84.6662E-03    -52.6145E-03     137.222E-03    -84.6662E-03     44.2056E-03    -14.4483E+06    -66.0821E+06    -101.038E+06    -18.0219E+06    -78.1827E+06    -85.3633E+06    -13.0244E+06         34.6253
            1182     9.14736E-03     1.14772E-03     469.732E-03     456.859E-03        -1.61415     463.792E-03        -1.61394     462.595E-03    -6.47441E-03     143.558E-03    -55.4894E-03    -87.9961E-03    -53.7336E-03     141.803E-03    -87.9961E-03     33.6696E-03    -18.5488E+06    -84.9523E+06    -139.941E+06    -21.8714E+06    -136.618E+06    -84.9523E+06    -16.8925E+06         33.9424
            1183     8.19975E-03     1.15738E-03     466.480E-03     456.478E-03        -1.61101     459.907E-03        -1.61066     462.699E-03    -14.2874E-03     150.686E-03    -59.0294E-03    -91.7812E-03    -57.6499E-03     149.307E-03    -91.7812E-03     29.7901E-03    -27.3256E+06    -80.8764E+06    -186.740E+06    -30.7573E+06    -183.308E+06    -80.8764E+06    -20.1321E+06         33.6729
            1184     7.25922E-03     1.17440E-03     464.569E-03     456.374E-03        -1.61186     457.327E-03        -1.61149     463.248E-03    -5.48704E-03     161.364E-03    -65.7460E-03    -95.7428E-03    -64.3498E-03     159.968E-03    -95.7428E-03     31.7474E-03    -36.2506E+06    -72.4153E+06    -213.002E+06    -38.7365E+06    -210.516E+06    -72.4153E+06    -17.7784E+06         33.8058
            1185     6.32583E-03     1.19044E-03     468.968E-03     452.370E-03        -1.61404     457.005E-03        -1.61387     464.165E-03     3.17214E-03     173.178E-03    -73.6312E-03    -99.6944E-03    -72.2658E-03     171.813E-03    -99.6944E-03     32.9926E-03    -43.9352E+06    -65.4846E+06    -217.682E+06    -45.3669E+06    -216.251E+06    -65.4846E+06    -12.8721E+06         34.2763
            1186     5.39930E-03     1.20734E-03     476.431E-03     452.448E-03        -1.62019     463.764E-03        -1.61988     464.805E-03     38.7537E-03     185.286E-03    -81.7978E-03    -103.625E-03    -80.5822E-03     184.070E-03    -103.625E-03     32.1462E-03    -49.9898E+06    -58.9520E+06    -220.015E+06    -50.7319E+06    -219.273E+06    -58.9520E+06    -9.12590E+06         34.9512
            1187     4.48223E-03     1.22397E-03     477.578E-03     459.797E-03        -1.62502     472.724E-03        -1.62443     464.057E-03     31.6348E-03     197.385E-03    -90.0782E-03    -107.269E-03    -89.0870E-03     196.394E-03    -107.269E-03     30.0598E-03    -53.6058E+06    -56.7286E+06    -222.628E+06    -54.9953E+06    -222.219E+06    -55.7478E+06    -5.55033E+06         35.6855
            1188     3.57266E-03     1.24005E-03     477.808E-03     457.215E-03        -1.61657     472.772E-03        -1.61617     461.855E-03    -3.15115E-03     208.924E-03    -98.2656E-03    -110.588E-03    -97.5332E-03     208.192E-03    -110.588E-03     26.7023E-03    -55.6523E+06    -57.8679E+06    -223.921E+06    -58.2524E+06    -223.518E+06    -55.6702E+06    -3.86101E+06         36.3814
            1189     2.67156E-03     1.25653E-03     472.747E-03     449.657E-03        -1.60153     461.989E-03        -1.60136     460.243E-03    -11.1796E-03     219.213E-03    -105.669E-03    -113.473E-03    -105.197E-03     218.742E-03    -113.473E-03     21.7471E-03    -57.0478E+06    -60.9427E+06    -224.094E+06    -61.2617E+06    -223.775E+06    -57.0478E+06    -3.31308E+06         36.9977
            1190     1.77484E-03     1.26981E-03     465.893E-03     449.166E-03        -1.58980     451.603E-03        -1.58921     462.858E-03     13.4948E-03     227.719E-03    -111.886E-03    -115.752E-03    -111.640E-03     227.472E-03    -115.752E-03     15.4455E-03    -56.1410E+06    -65.4268E+06    -223.989E+06    -65.5304E+06    -223.885E+06    -56.1410E+06    -2.93220E+06         37.4965
            1191     886.959E-06     1.27926E-03     489.357E-03     442.981E-03        -1.59800     478.423E-03        -1.59751     453.423E-03     12.9030E-03     233.495E-03    -115.887E-03    -117.586E-03    -116.455E-03     233.407E-03    -116.929E-03     8.64090E-03    -64.5994E+06    -72.3957E+06    -231.811E+06    -72.3794E+06    -231.735E+06    -64.6917E+06     421.914E+03         37.8221
            1192     945.080E-06     62.6385E-03     742.483E-03     13.8434E-03        -1.20920     706.331E-03        -1.19457     35.3635E-03     230.482E-03     113.164E-03    -56.1040E-03    -57.0234E-03    -56.8447E-03     113.162E-03    -56.2801E-03     1.15725E-03    -53.7548E+06    -60.8540E+06    -224.581E+06    -60.4657E+06    -224.533E+06    -54.1912E+06    -378.352E+03         28.4563
            1193     1.89037E-03     62.6383E-03     360.130E-03     320.831E-03        -1.14083     318.238E-03        -1.13823     360.130E-03    -14.9140E-03     113.190E-03    -56.5002E-03    -56.6510E-03    -56.5288E-03     113.189E-03    -56.6210E-03     848.458E-06    -47.7158E+06    -55.2860E+06    -226.267E+06    -55.2959E+06    -226.257E+06    -47.7158E+06    -744.703E+03         28.5956
            1194     2.83577E-03     62.6402E-03     345.536E-03     318.229E-03        -1.12839     316.194E-03        -1.12567     344.844E-03    -19.6294E-03     113.366E-03    -56.5524E-03    -56.7765E-03    -56.6613E-03     113.359E-03    -56.6609E-03     1.89836E-03    -42.6983E+06    -52.2234E+06    -222.724E+06    -52.2313E+06    -222.716E+06    -42.6983E+06    -103.095E+03         28.7700
            1195     3.78049E-03     62.6434E-03     343.559E-03     316.954E-03        -1.13015     321.771E-03        -1.12941     338.004E-03    -54.4874E-03     113.534E-03    -56.6325E-03    -56.8516E-03    -56.7437E-03     113.516E-03    -56.7226E-03     3.41389E-03    -37.2384E+06    -50.2223E+06    -219.922E+06    -50.2285E+06    -219.916E+06    -37.2384E+06    -124.638E+03         28.9716
            1196     4.72579E-03     62.6472E-03     343.217E-03     314.236E-03        -1.12811     321.826E-03        -1.12716     334.674E-03     16.1122E-03     113.514E-03    -56.7222E-03    -56.8146E-03    -56.7273E-03     113.481E-03    -56.7767E-03     4.67326E-03    -33.2388E+06    -47.6838E+06    -215.926E+06    -47.6934E+06    -215.917E+06    -33.2388E+06     16.2233E+03         29.2369
            1197     5.67088E-03     62.6526E-03     335.610E-03     312.241E-03        -1.11653     314.674E-03        -1.11529     331.929E-03     2.58064E-03     113.549E-03    -56.7225E-03    -56.8312E-03    -56.6744E-03     113.489E-03    -56.8194E-03     6.30210E-03    -27.8479E+06    -44.8983E+06    -210.761E+06    -44.9065E+06    -210.753E+06    -27.8479E+06     882.034E+03         29.6025
            1198     6.61653E-03     62.6599E-03     334.375E-03     312.567E-03        -1.11108     316.171E-03        -1.10980     329.492E-03     3.57863E-03     113.630E-03    -56.7129E-03    -56.8561E-03    -56.6299E-03     113.534E-03    -56.8430E-03     8.04324E-03    -20.8846E+06    -42.6714E+06    -201.807E+06    -42.6842E+06    -201.794E+06    -20.8846E+06     545.394E+03         30.0723
            1199     7.56080E-03     62.6695E-03     342.903E-03     323.428E-03        -1.13009     335.369E-03        -1.12801     328.888E-03    -23.4404E-03     113.582E-03    -56.6921E-03    -56.8442E-03    -56.5407E-03     113.417E-03    -56.8305E-03     10.4575E-03    -15.5405E+06    -40.0191E+06    -185.558E+06    -40.0459E+06    -185.531E+06    -15.5405E+06    -517.111E+03         30.6569
            1200     8.50610E-03     62.6825E-03     344.414E-03     329.126E-03        -1.13966     341.709E-03        -1.13772     329.894E-03    -27.9167E-03     113.418E-03    -56.5924E-03    -56.7675E-03    -56.3508E-03     113.164E-03    -56.7551E-03     13.0893E-03    -12.3804E+06    -36.5097E+06    -159.368E+06    -36.5316E+06    -159.346E+06    -12.3804E+06    -379.041E+03         31.3799
            1201     9.45175E-03     62.6968E-03     335.754E-03     323.379E-03        -1.12727     328.226E-03        -1.12673     330.366E-03     25.3322E-03     113.307E-03    -56.4852E-03    -56.7133E-03    -56.1452E-03     112.873E-03    -56.6188E-03     16.9209E-03    -10.7172E+06    -33.5268E+06    -127.102E+06    -33.5440E+06    -127.085E+06    -10.7172E+06     731.604E+03         32.2877
            1202     10.3969E-03     62.7182E-03     330.565E-03     321.094E-03        -1.11976     321.740E-03        -1.11961     329.765E-03    -27.8377E-03     113.347E-03    -56.4695E-03    -56.8291E-03    -56.0432E-03     112.614E-03    -56.5224E-03     22.1566E-03    -10.7002E+06    -31.6305E+06    -84.2636E+06    -31.6882E+06    -84.2059E+06    -10.7002E+06     1.09224E+06         33.4851
            1203     11.3423E-03     62.7453E-03     336.254E-03     319.830E-03        -1.12376     326.835E-03        -1.12365     329.137E-03    -21.2296E-03     113.284E-03    -56.4936E-03    -56.9119E-03    -55.9282E-03     112.301E-03    -56.4936E-03     25.7731E-03    -3.18943E+06    -17.8807E+06    -43.4500E+06    -30.0613E+06    -26.3624E+06    -8.09653E+06     1.26274E+06         35.1050
            1204     12.2882E-03     62.7728E-03     337.101E-03     319.531E-03        -1.12387     327.675E-03        -1.12374     328.832E-03    -21.7352E-03     113.742E-03    -56.4443E-03    -57.5919E-03    -55.7676E-03     111.917E-03    -56.4443E-03     34.4031E-03     57.7898E+06    -10.7705E+06    -28.7975E+06    -28.7082E+06     57.7005E+06    -10.7705E+06     1.03866E+06         37.2947
            1205     13.2327E-03     62.8189E-03     333.292E-03     322.264E-03        -1.11859     326.891E-03        -1.11847     328.544E-03    -12.1036E-03     116.100E-03    -56.4535E-03    -59.9202E-03    -55.4548E-03     111.635E-03    -56.4535E-03     54.0832E-03     124.848E+06     7.57946E+06    -27.0233E+06    -26.9905E+06     124.816E+06     7.57946E+06     785.478E+03         40.1575
            1206     14.1790E-03     62.8916E-03     330.760E-03     318.273E-03        -1.11096     320.636E-03        -1.11053     327.964E-03     38.0776E-03     119.732E-03    -56.6475E-03    -63.2132E-03    -54.8078E-03     111.326E-03    -56.6475E-03     76.0630E-03     146.485E+06     62.7577E+06    -22.5912E+06    -22.5666E+06     146.460E+06     62.7577E+06     1.35180E+06         43.6819
            1207     15.1275E-03     62.9886E-03     326.913E-03     313.205E-03        -1.10279     312.678E-03        -1.10226     326.913E-03     16.2733E-03     123.171E-03    -56.8330E-03    -66.4389E-03    -54.2480E-03     110.980E-03    -56.8330E-03     92.8000E-03     160.198E+06     109.667E+06    -14.8273E+06    -14.7832E+06     160.154E+06     109.667E+06     1.30031E+06         47.4086
            1208     16.0735E-03     63.0957E-03     325.546E-03     305.435E-03        -1.09519     305.086E-03        -1.09484     325.546E-03    -10.0347E-03     120.044E-03    -56.8350E-03    -63.2702E-03    -54.6871E-03     111.461E-03    -56.8350E-03     73.4080E-03     165.148E+06     126.354E+06    -7.13823E+06    -7.09146E+06     165.101E+06     126.354E+06    -26.5897E+03         50.5050
            1209     945.484E-06     63.7572E-03     609.311E-03     40.1691E-03        -1.09358     584.059E-03        -1.08083     52.6689E-03     221.731E-03     113.077E-03    -56.1487E-03    -56.9064E-03    -56.8981E-03     113.074E-03    -56.1538E-03     377.344E-06    -52.0693E+06    -60.8574E+06    -224.818E+06    -58.0847E+06    -224.781E+06    -54.8790E+06     1.35491E+06         28.4533
            1210     1.89046E-03     63.7574E-03     341.159E-03     302.352E-03        -1.09813     322.806E-03        -1.09647     319.045E-03    -16.3588E-03     113.325E-03    -56.6193E-03    -56.6872E-03    -56.6787E-03     113.322E-03    -56.6245E-03     1.24684E-03    -49.3743E+06    -57.0988E+06    -227.531E+06    -57.1136E+06    -227.517E+06    -49.3743E+06     696.471E+03         28.5960
            1211     2.83504E-03     63.7593E-03     349.050E-03     319.129E-03        -1.12801     343.550E-03        -1.12670     323.321E-03    -44.9846E-03     113.419E-03    -56.6319E-03    -56.7589E-03    -56.6809E-03     113.411E-03    -56.7016E-03     2.31459E-03    -43.9374E+06    -53.7250E+06    -223.039E+06    -53.7279E+06    -223.036E+06    -43.9374E+06     660.886E+03         28.7726
            1212     3.78092E-03     63.7619E-03     353.322E-03     329.547E-03        -1.14559     352.613E-03        -1.14488     329.547E-03    -39.4582E-03     113.342E-03    -56.5688E-03    -56.7245E-03    -56.5497E-03     113.323E-03    -56.7245E-03     3.49553E-03    -37.5198E+06    -50.2821E+06    -219.982E+06    -50.2861E+06    -219.978E+06    -37.5198E+06      709.34E+03         28.9729
            1213     4.72591E-03     63.7667E-03     338.901E-03     313.968E-03        -1.11711     319.655E-03        -1.11515     331.252E-03     39.9643E-03     113.514E-03    -56.6700E-03    -56.8371E-03    -56.7138E-03     113.484E-03    -56.7624E-03     4.57533E-03    -30.8032E+06    -48.0002E+06    -215.975E+06    -48.0029E+06    -215.973E+06    -30.8032E+06     402.136E+03         29.2386
            1214     5.67110E-03     63.7714E-03     327.459E-03     298.310E-03        -1.08969     296.092E-03        -1.08747     327.459E-03     25.7649E-03     113.675E-03    -56.7906E-03    -56.9180E-03    -56.8255E-03     113.623E-03    -56.8316E-03     5.83181E-03    -25.6299E+06    -44.6693E+06    -210.823E+06    -44.6736E+06    -210.819E+06    -25.6299E+06     236.735E+03         29.6067
            1215     6.61545E-03     63.7797E-03     332.435E-03     312.591E-03        -1.10607     319.274E-03        -1.10477     324.456E-03     8.83023E-03     113.578E-03    -56.7134E-03    -56.8845E-03    -56.6327E-03     113.484E-03    -56.8713E-03     7.91112E-03    -19.1736E+06    -40.1713E+06    -202.192E+06    -40.1803E+06    -202.183E+06    -19.1736E+06     716.080E+03         30.0763
            1216     7.56097E-03     63.7887E-03     339.459E-03     324.861E-03        -1.12480     337.587E-03        -1.12293     324.861E-03    -15.1684E-03     113.509E-03    -56.6246E-03    -56.8509E-03    -56.4604E-03     113.343E-03    -56.8496E-03     10.4769E-03    -12.9352E+06    -37.3576E+06    -184.537E+06     -37.403E+06    -184.491E+06    -12.9352E+06     620.679E+03         30.6590
            1217     8.50659E-03     63.8014E-03     332.048E-03     317.583E-03        -1.11233     322.066E-03        -1.11020     325.430E-03    -9.87249E-03     113.391E-03    -56.5843E-03    -56.7523E-03    -56.3373E-03     113.144E-03    -56.7523E-03     12.9083E-03    -12.7301E+06    -36.4610E+06    -159.782E+06    -36.5062E+06    -159.736E+06    -12.7301E+06     273.525E+03         31.3806
            1218     9.45140E-03     63.8164E-03     324.365E-03     309.407E-03        -1.09643     308.401E-03        -1.09542     324.365E-03     35.3498E-03     113.444E-03    -56.5515E-03    -56.7851E-03    -56.2842E-03     113.010E-03    -56.6180E-03     16.8979E-03    -12.2760E+06    -34.5260E+06    -128.076E+06    -34.5320E+06    -128.070E+06    -12.2760E+06     309.237E+03         32.2875
            1219     10.3965E-03     63.8378E-03     328.281E-03     313.680E-03        -1.10275     318.575E-03        -1.10261     323.244E-03    -24.6644E-03     113.362E-03    -56.5300E-03    -56.7661E-03    -56.0569E-03     112.653E-03    -56.5300E-03     21.8293E-03    -10.8609E+06    -32.1285E+06    -84.8120E+06    -32.1868E+06    -84.7537E+06    -10.8609E+06     1.04617E+06         33.4847
            1220     11.3429E-03     63.8635E-03     338.229E-03     320.975E-03        -1.11940     335.604E-03        -1.11923     323.428E-03    -5.09770E-03     113.024E-03    -56.4610E-03    -56.6681E-03    -55.6736E-03     112.062E-03    -56.4933E-03     25.4104E-03    -2.93645E+06    -18.2811E+06    -44.6289E+06    -30.6094E+06    -26.9141E+06    -8.32293E+06     1.51010E+06         35.1053
            1221     12.2880E-03     63.8937E-03     335.834E-03     320.715E-03        -1.11501     332.216E-03        -1.11480     324.117E-03    -167.116E-06     113.695E-03    -56.4032E-03    -57.5573E-03    -55.6619E-03     111.832E-03    -56.4356E-03     34.7421E-03     58.4567E+06    -11.0276E+06    -29.6025E+06    -29.5325E+06     58.3867E+06    -11.0276E+06     1.34218E+06         37.2969
            1222     13.2337E-03     63.9387E-03     325.765E-03     311.201E-03        -1.09340     312.953E-03        -1.09320     323.813E-03    -17.6667E-03     116.266E-03    -56.4396E-03    -60.0662E-03    -55.4554E-03     111.655E-03    -56.4396E-03     54.9508E-03     124.709E+06     6.56235E+06    -27.8653E+06    -27.8348E+06     124.678E+06     6.56235E+06     1.23009E+06         40.1617
            1223     14.1786E-03     64.0121E-03     324.602E-03     312.501E-03        -1.09085     313.997E-03        -1.09050     322.759E-03     14.7949E-03     119.834E-03    -56.6446E-03    -63.3077E-03    -54.8166E-03     111.343E-03    -56.6446E-03     76.5608E-03     146.238E+06     62.5374E+06    -22.9815E+06    -22.9431E+06     146.200E+06     62.5374E+06     589.094E+03         43.6877
            1224     15.1253E-03     64.1035E-03     328.271E-03     319.367E-03        -1.10026     325.056E-03        -1.09977     322.092E-03     1.60946E-03     123.324E-03    -56.8190E-03    -66.5946E-03    -54.4169E-03     111.146E-03    -56.8190E-03     92.8266E-03     160.193E+06     109.799E+06    -15.1894E+06    -15.1522E+06     160.156E+06     109.799E+06    -81.1309E+03         47.4169
            1225     16.0739E-03     64.2175E-03     330.379E-03     313.873E-03        -1.09810     322.037E-03        -1.09767     321.790E-03    -7.29444E-03     120.110E-03    -56.8122E-03    -63.3533E-03    -54.7970E-03     111.554E-03    -56.8122E-03     73.2108E-03     165.553E+06     126.300E+06    -7.30112E+06    -7.28472E+06     165.537E+06     126.300E+06    -15.2671E+03         50.5169
            1226     945.073E-06     64.8752E-03     503.243E-03     110.192E-03        -1.05831     488.107E-03        -1.04318     110.192E-03     252.793E-03     113.164E-03    -56.4252E-03    -56.7164E-03    -56.4326E-03     113.162E-03    -56.7072E-03     90.4908E-06    -54.6584E+06    -63.9912E+06    -228.285E+06    -61.2143E+06    -228.252E+06    -57.4682E+06     1.20824E+06         28.4560
            1227     1.89060E-03     64.8765E-03     348.768E-03     308.865E-03        -1.10499     347.492E-03        -1.10371     308.865E-03     74.0109E-03     113.244E-03    -56.5347E-03    -56.6907E-03    -56.5641E-03     113.240E-03    -56.6580E-03     1.23400E-03    -47.1229E+06    -56.9443E+06    -227.379E+06    -56.9797E+06    -227.344E+06    -47.1229E+06     2.24306E+06         28.5982
            1228     2.83597E-03     64.8784E-03     352.723E-03     314.207E-03        -1.11654     343.688E-03        -1.11545     322.149E-03     22.9442E-03     113.457E-03    -56.6480E-03    -56.8042E-03    -56.7255E-03     113.450E-03    -56.7194E-03     2.19236E-03    -42.1064E+06    -53.3496E+06    -224.044E+06    -53.3579E+06    -224.036E+06    -42.1064E+06     1.00641E+06         28.7767
            1229     3.78034E-03     64.8809E-03     344.210E-03     310.046E-03        -1.10481     327.909E-03        -1.10446     325.989E-03    -14.8464E-03     113.573E-03    -56.6893E-03    -56.8240E-03    -56.7422E-03     113.556E-03    -56.7548E-03     3.20914E-03    -37.9514E+06    -50.1546E+06    -219.872E+06    -50.1587E+06    -219.868E+06    -37.9514E+06     737.569E+03         28.9775
            1230     4.72586E-03     64.8855E-03     334.511E-03     308.213E-03        -1.09754     315.955E-03        -1.09605     325.274E-03     60.2948E-03     113.602E-03    -56.6391E-03    -56.9022E-03    -56.6993E-03     113.570E-03    -56.8104E-03     4.58220E-03    -31.2541E+06    -47.0996E+06    -215.642E+06    -47.1034E+06    -215.638E+06    -31.2541E+06     660.781E+03         29.2384
            1231     5.67026E-03     64.8916E-03     331.745E-03     312.191E-03        -1.09982     318.220E-03        -1.09795     323.850E-03     28.1523E-03     113.602E-03    -56.6648E-03    -56.9536E-03    -56.6851E-03     113.547E-03    -56.8790E-03     6.00389E-03    -23.6428E+06    -44.0318E+06    -210.644E+06    -44.0337E+06    -210.642E+06    -23.6428E+06     214.596E+03         29.6019
            1232     6.61598E-03     64.8979E-03     327.287E-03     310.185E-03        -1.09582     314.007E-03        -1.09510     322.745E-03    -895.116E-06     113.582E-03    -56.6515E-03    -56.9052E-03    -56.5845E-03     113.482E-03    -56.8725E-03     8.13933E-03    -18.8261E+06    -41.2831E+06    -202.783E+06    -41.2862E+06    -202.780E+06    -18.8261E+06     308.858E+03         30.0732
            1233     7.56128E-03     64.9083E-03     325.405E-03     309.262E-03        -1.09232     311.467E-03        -1.09059     321.465E-03    -34.5098E-03     113.655E-03    -56.6554E-03    -56.8828E-03    -56.5327E-03     113.499E-03    -56.8501E-03     10.2442E-03    -13.6361E+06    -38.4261E+06    -184.910E+06    -38.4520E+06    -184.884E+06    -13.6361E+06     1.31445E+06         30.6599
            1234     8.50584E-03     64.9206E-03     322.435E-03     310.906E-03        -1.08877     310.286E-03        -1.08595     320.227E-03     630.647E-06     113.527E-03    -56.6512E-03    -56.7832E-03    -56.4165E-03     113.292E-03    -56.7832E-03     12.5434E-03    -10.0066E+06    -34.9986E+06    -158.805E+06    -35.0324E+06    -158.771E+06    -10.0066E+06     1.31326E+06         31.3828
            1235     9.45140E-03     64.9357E-03     323.456E-03     309.551E-03        -1.08782     312.238E-03        -1.08630     319.256E-03     49.0891E-03     113.503E-03    -56.5772E-03    -56.8058E-03    -56.3073E-03     113.065E-03    -56.6378E-03     16.9845E-03    -11.0693E+06    -33.1635E+06    -129.140E+06    -33.1879E+06    -129.116E+06    -11.0693E+06     996.678E+03         32.2891
            1236     10.3967E-03     64.9576E-03     329.813E-03     316.583E-03        -1.09968     327.109E-03        -1.09960     319.209E-03    -13.3833E-03     113.474E-03    -56.5467E-03    -56.8697E-03    -56.1901E-03     112.795E-03    -56.5467E-03     21.4229E-03    -10.5211E+06    -32.0444E+06    -85.5109E+06    -32.0979E+06    -85.4574E+06    -10.5211E+06     1.40124E+06         33.4852
            1237     11.3414E-03     64.9824E-03     330.967E-03     314.500E-03        -1.09760     325.619E-03        -1.09751     319.749E-03     7.87076E-03     113.061E-03    -56.4863E-03    -56.7264E-03    -55.7592E-03     112.126E-03    -56.5186E-03     25.0250E-03    -2.30931E+06    -18.9160E+06    -44.3082E+06    -30.3764E+06    -27.2816E+06    -7.87547E+06     1.49397E+06         35.1052
            1238     12.2881E-03     65.0127E-03     322.869E-03     304.551E-03        -1.07931     307.866E-03        -1.07918     319.421E-03     17.1921E-03     113.248E-03    -56.3990E-03    -57.1188E-03    -55.2369E-03     111.399E-03    -56.4313E-03     34.5401E-03     57.6613E+06    -11.9761E+06    -28.6197E+06    -28.5543E+06     57.5960E+06    -11.9761E+06     1.31428E+06         37.2991
            1239     13.2338E-03     65.0588E-03     318.572E-03     303.211E-03        -1.07262     303.371E-03        -1.07242     318.208E-03    -11.4577E-03     115.446E-03    -56.3843E-03    -59.2595E-03    -54.7542E-03     110.940E-03    -56.3843E-03     54.1142E-03     125.555E+06     6.64131E+06    -25.9342E+06    -25.9041E+06     125.525E+06     6.64131E+06     794.551E+03         40.1686
            1240     14.1816E-03     65.1303E-03     321.517E-03     311.914E-03        -1.08354     315.618E-03        -1.08302     317.291E-03     9.54797E-03     119.780E-03    -56.5983E-03    -63.2685E-03    -54.8882E-03     111.400E-03    -56.5983E-03     76.0449E-03     147.509E+06     63.9458E+06    -22.2769E+06    -22.2395E+06     147.472E+06     63.9458E+06     105.570E+03         43.7005
            1241     15.1270E-03     65.2249E-03     325.155E-03     313.466E-03        -1.08769     321.104E-03        -1.08712     316.956E-03     8.59386E-03     124.391E-03    -56.8197E-03    -67.6654E-03    -55.4871E-03     112.213E-03    -56.8197E-03     93.3803E-03     160.156E+06     111.341E+06    -15.9951E+06    -15.9593E+06     160.120E+06     111.341E+06    -414.291E+03         47.4323
            1242     16.0714E-03     65.3348E-03     329.123E-03     313.412E-03        -1.09260     325.192E-03        -1.09216     316.903E-03    -38.7814E-03     120.507E-03    -56.8424E-03    -63.7385E-03    -55.2276E-03     111.996E-03    -56.8424E-03     73.1020E-03     165.426E+06     126.358E+06    -7.79249E+06    -7.76433E+06     165.397E+06     126.358E+06     167.908E+03         50.5303
            1243     945.073E-06     65.9947E-03     450.146E-03     201.804E-03        -1.09655     433.640E-03        -1.08854     210.297E-03     155.505E-03     113.488E-03    -56.3999E-03    -57.0467E-03    -56.7644E-03     113.487E-03    -56.6816E-03     207.463E-06    -57.3809E+06    -67.3245E+06    -231.753E+06    -64.7456E+06    -231.682E+06    -60.0304E+06     1.54947E+06         28.4617
            1244     1.89001E-03     65.9948E-03     341.062E-03     312.426E-03        -1.09562     328.526E-03        -1.09393     323.274E-03     871.625E-06     113.392E-03    -56.5558E-03    -56.7715E-03    -56.5531E-03     113.389E-03    -56.7715E-03     985.005E-06    -50.0982E+06    -59.4407E+06    -227.557E+06    -59.4737E+06    -227.524E+06    -50.0982E+06     1.57259E+06         28.6024
            1245     2.83518E-03     65.9977E-03     328.279E-03     308.533E-03        -1.07904     311.851E-03        -1.07682     322.741E-03    -43.6176E-03     113.493E-03    -56.6174E-03    -56.8276E-03    -56.6621E-03     113.486E-03    -56.7756E-03     2.19331E-03    -44.5578E+06    -54.1161E+06    -222.772E+06    -54.1291E+06    -222.759E+06    -44.5578E+06     1.20349E+06         28.7793
            1246     3.78046E-03     66.0003E-03     317.834E-03     294.065E-03        -1.05684     293.485E-03        -1.05626     317.834E-03    -42.8559E-03     113.774E-03    -56.7868E-03    -56.8862E-03    -56.8404E-03     113.759E-03    -56.8171E-03     3.18256E-03    -38.6059E+06    -50.9804E+06    -220.198E+06    -50.9812E+06    -220.198E+06    -38.6059E+06     360.241E+03         28.9812
            1247     4.72484E-03     66.0048E-03     329.283E-03     303.043E-03        -1.07826     317.193E-03        -1.07809     314.960E-03     5.01480E-03     113.571E-03    -56.5995E-03    -56.8923E-03    -56.5858E-03     113.540E-03    -56.8752E-03     4.52036E-03    -31.1087E+06    -47.5554E+06    -216.342E+06    -47.5575E+06    -216.340E+06    -31.1087E+06     566.305E+03         29.2421
            1248     5.67128E-03     66.0103E-03     339.056E-03     316.928E-03        -1.10702     338.556E-03        -1.10652     316.928E-03    -13.3837E-03     113.483E-03    -56.5709E-03    -56.8960E-03    -56.5186E-03     113.430E-03    -56.8960E-03     5.90625E-03    -24.1593E+06    -44.8218E+06    -210.675E+06    -44.8345E+06    -210.662E+06    -24.1593E+06     1.17159E+06         29.6056
            1249     6.61583E-03     66.0176E-03     326.194E-03     307.060E-03        -1.08591     314.419E-03        -1.08547     318.389E-03    -5.90673E-03     113.781E-03    -56.7480E-03    -56.9291E-03    -56.6859E-03     113.686E-03    -56.8964E-03     7.93499E-03    -18.0425E+06    -42.8205E+06    -203.402E+06    -42.8410E+06    -203.382E+06    -18.0425E+06     1.61971E+06         30.0765
            1250     7.56022E-03     66.0281E-03     316.986E-03     300.958E-03        -1.06918     299.837E-03        -1.06806     316.986E-03    -35.0634E-03     113.711E-03    -56.6847E-03    -56.8879E-03    -56.5590E-03     113.553E-03    -56.8552E-03     10.3178E-03    -14.2495E+06    -39.9163E+06    -184.664E+06    -39.9266E+06    -184.654E+06    -14.2495E+06     785.075E+03         30.6633
            1251     8.50602E-03     66.0395E-03     318.729E-03     310.917E-03        -1.07701     310.961E-03        -1.07394     315.615E-03     23.5517E-03     113.619E-03    -56.6490E-03    -56.8637E-03    -56.4906E-03     113.374E-03    -56.7767E-03     12.8363E-03    -11.3970E+06    -36.6542E+06    -158.982E+06    -36.6669E+06    -158.969E+06    -11.3970E+06     754.952E+03         31.3877
            1252     9.45096E-03     66.0552E-03     324.582E-03     315.634E-03        -1.08492     322.113E-03        -1.08246     315.634E-03     43.6147E-03     113.609E-03    -56.6381E-03    -56.8618E-03    -56.3827E-03     113.171E-03    -56.6794E-03     17.0262E-03    -10.1507E+06    -33.5445E+06    -129.984E+06    -33.5803E+06    -129.948E+06    -10.1507E+06     1.77356E+06         32.2933
            1253     10.3959E-03     66.0771E-03     324.543E-03     309.808E-03        -1.07976     317.954E-03        -1.07934     315.977E-03    -30.5846E-03     113.438E-03    -56.5834E-03    -56.8424E-03    -56.1409E-03     112.747E-03    -56.5940E-03     21.5707E-03    -9.66874E+06    -30.7367E+06    -85.3219E+06    -30.8003E+06    -85.2584E+06    -9.66874E+06     1.07816E+06         33.4879
            1254     11.3418E-03     66.1021E-03     318.114E-03     299.002E-03        -1.06314     301.705E-03        -1.06311     315.381E-03     1.62687E-03     113.269E-03    -56.5545E-03    -56.8464E-03    -55.8937E-03     112.316E-03    -56.5545E-03     25.3089E-03    -2.07836E+06    -17.0520E+06    -42.9070E+06    -27.7482E+06    -27.9537E+06    -6.33551E+06     892.317E+03         35.1078
            1255     12.2866E-03     66.1316E-03     317.654E-03     297.721E-03        -1.06163     301.137E-03        -1.06154     314.149E-03     13.3304E-03     113.159E-03    -56.4635E-03    -56.9453E-03    -55.1089E-03     111.323E-03    -56.4635E-03     34.3994E-03     57.3246E+06    -9.11799E+06    -26.3901E+06    -26.2977E+06     57.2321E+06    -9.11799E+06     1.91498E+06         37.3027
            1256     13.2340E-03     66.1769E-03     320.476E-03     307.269E-03        -1.07333     314.118E-03        -1.07319     313.487E-03     3.77606E-03     115.343E-03    -56.4061E-03    -59.1337E-03    -54.6569E-03     110.866E-03    -56.4061E-03     53.9252E-03     126.025E+06     10.7087E+06    -25.9209E+06    -25.8857E+06     125.990E+06     10.7087E+06     1.31206E+06         40.1747
            1257     14.1794E-03     66.2493E-03     318.767E-03     307.312E-03        -1.07201     312.212E-03        -1.07141     313.264E-03     29.0991E-03     119.815E-03    -56.6059E-03    -63.2740E-03    -55.1218E-03     111.662E-03    -56.6059E-03     75.1279E-03     149.233E+06     66.6457E+06    -22.0109E+06    -21.9691E+06     149.192E+06     66.6457E+06    -156.469E+03         43.7088
            1258     15.1266E-03     66.3443E-03     314.626E-03     300.773E-03        -1.06259     302.229E-03        -1.06202     312.607E-03     28.6060E-03     124.279E-03    -56.8280E-03    -67.5344E-03    -55.4511E-03     112.195E-03    -56.8280E-03     92.8664E-03     160.526E+06     111.449E+06    -15.9677E+06    -15.9071E+06     160.466E+06     111.449E+06    -73.9387E+03         47.4417
            1259     16.0716E-03     66.4583E-03     315.174E-03     294.931E-03        -1.05668     298.203E-03        -1.05632     311.542E-03    -38.2404E-03     120.447E-03    -56.8548E-03    -63.6535E-03    -55.0958E-03     111.889E-03    -56.8548E-03     72.9272E-03     164.717E+06     125.897E+06    -8.09068E+06    -8.04325E+06     164.669E+06     125.897E+06     584.636E+03         50.5407
            1260     944.912E-06     67.1142E-03     392.692E-03     239.924E-03        -1.07447     318.268E-03        -1.07202     311.900E-03     99.4700E-03     113.460E-03    -56.2748E-03    -57.1730E-03    -56.7310E-03     113.459E-03    -56.7150E-03     180.796E-06    -58.1703E+06    -64.5876E+06    -232.501E+06    -61.7291E+06    -232.434E+06    -61.0952E+06     728.117E+03         28.4644
            1261     1.88980E-03     67.1141E-03     314.824E-03     297.686E-03        -1.05027     298.972E-03        -1.04852     311.783E-03    -2.60407E-03     113.730E-03    -56.7041E-03    -56.9919E-03    -56.8903E-03     113.726E-03    -56.8017E-03     1.38244E-03    -53.2785E+06    -59.1444E+06    -228.225E+06    -58.8838E+06    -228.211E+06    -53.5539E+06     303.073E+03         28.6067
            1262     2.83513E-03     67.1164E-03     311.945E-03     297.916E-03        -1.04484     300.766E-03        -1.04317     307.431E-03    -25.9846E-03     113.665E-03    -56.6440E-03    -56.9688E-03    -56.7329E-03     113.657E-03    -56.8714E-03     2.34059E-03    -45.2900E+06    -55.8297E+06    -222.052E+06    -55.8432E+06    -222.038E+06    -45.2900E+06     760.574E+03         28.7820
            1263     3.77991E-03     67.1201E-03     312.430E-03     298.199E-03        -1.04543     303.896E-03        -1.04472     306.025E-03    -86.9145E-06     113.581E-03    -56.6183E-03    -56.8903E-03    -56.6021E-03     113.565E-03    -56.8903E-03     3.28972E-03     -37.301E+06    -52.5162E+06    -220.149E+06    -52.5234E+06    -220.142E+06     -37.301E+06     909.995E+03         28.9846
            1264     4.72545E-03     67.1239E-03     315.782E-03     299.120E-03        -1.05191     308.820E-03        -1.05184     306.017E-03    -8.10730E-03     113.662E-03    -56.6647E-03    -56.9907E-03    -56.6909E-03     113.633E-03    -56.9357E-03     4.37288E-03    -30.5655E+06    -49.0852E+06    -217.121E+06    -49.0883E+06    -217.117E+06    -30.5655E+06     626.074E+03         29.2471
            1265     5.66978E-03     67.1291E-03     325.507E-03     304.514E-03        -1.07028     322.324E-03        -1.07008     307.496E-03    -15.0779E-03     113.711E-03    -56.7261E-03    -57.0154E-03    -56.7312E-03     113.661E-03    -56.9604E-03     5.77820E-03    -24.5957E+06    -44.9799E+06    -211.939E+06    -44.9920E+06    -211.927E+06    -24.5957E+06     1.08265E+06         29.6099
            1266     6.61516E-03     67.1376E-03     327.427E-03     308.441E-03        -1.08016     325.766E-03        -1.07987     309.809E-03     4.17053E-03     113.599E-03    -56.6088E-03    -56.9667E-03    -56.5204E-03     113.511E-03    -56.9667E-03     7.66442E-03    -16.8661E+06    -40.7117E+06    -204.222E+06    -40.7402E+06    -204.194E+06    -16.8661E+06     2.00399E+06         30.0801
            1267     7.56109E-03     67.1465E-03     319.961E-03     307.256E-03        -1.06926     314.347E-03        -1.06747     311.080E-03    -43.6326E-03     113.590E-03    -56.6001E-03    -56.9208E-03    -56.4470E-03     113.437E-03    -56.9208E-03     10.1048E-03    -10.7500E+06    -37.8274E+06    -183.793E+06    -37.8593E+06    -183.761E+06    -10.7500E+06     1.72174E+06         30.6663
            1268     8.50588E-03     67.1594E-03     314.954E-03     308.659E-03        -1.06248     309.376E-03        -1.05936     311.114E-03    -5.25544E-03     113.702E-03    -56.7269E-03    -56.9121E-03    -56.5694E-03     113.458E-03    -56.8252E-03     12.8206E-03    -9.46423E+06    -35.7118E+06    -159.883E+06    -35.7312E+06    -159.864E+06    -9.46423E+06     1.06515E+06         31.3895
            1269     9.45056E-03     67.1751E-03     316.446E-03     309.227E-03        -1.06213     312.575E-03        -1.06004     311.008E-03     16.2760E-03     113.567E-03    -56.6686E-03    -56.8246E-03    -56.3431E-03     113.131E-03    -56.7139E-03     16.9871E-03    -9.71175E+06    -33.4547E+06    -129.781E+06    -33.4711E+06    -129.765E+06    -9.71175E+06     879.192E+03         32.2942
            1270     10.3963E-03     67.1960E-03     313.841E-03     302.769E-03        -1.05322     305.252E-03        -1.05258     310.720E-03    -37.9746E-03     113.341E-03    -56.6010E-03    -56.7011E-03    -55.9812E-03     112.642E-03    -56.6219E-03     21.6708E-03    -8.33503E+06    -30.8847E+06    -84.4293E+06    -30.9678E+06    -84.3462E+06    -8.33503E+06     704.920E+03         33.4903
            1271     11.3414E-03     67.2221E-03     312.371E-03     298.846E-03        -1.05022     301.168E-03        -1.05015     309.976E-03     15.8475E-03     113.163E-03    -56.5301E-03    -56.7062E-03    -55.7039E-03     112.196E-03    -56.5645E-03     25.4940E-03    -2.37223E+06    -17.3479E+06    -45.6717E+06    -29.8585E+06    -29.9030E+06    -5.63038E+06     1.50151E+06         35.1123
            1272     12.2876E-03     67.2508E-03     315.288E-03     304.442E-03        -1.06088     310.093E-03        -1.06076     309.510E-03     15.5028E-03     113.368E-03    -56.4629E-03    -57.1306E-03    -55.3167E-03     111.578E-03    -56.4870E-03     34.0955E-03     57.2430E+06    -7.95174E+06    -28.4877E+06    -28.3813E+06     57.1366E+06    -7.95174E+06     2.00182E+06         37.3072
            1273     13.2336E-03     67.2947E-03     316.081E-03     305.934E-03        -1.06408     312.435E-03        -1.06396     309.456E-03    -4.06793E-03     115.823E-03    -56.4534E-03    -59.5986E-03    -55.0333E-03     111.258E-03    -56.4534E-03     54.3447E-03     127.093E+06     11.5053E+06    -25.6436E+06    -25.6222E+06     127.071E+06     11.5053E+06     1.52915E+06         40.1787
            1274     14.1796E-03     67.3712E-03     312.032E-03     296.763E-03        -1.04904     299.546E-03        -1.04871     308.913E-03     14.6200E-03     120.193E-03    -56.6420E-03    -63.6313E-03    -55.2028E-03     111.764E-03    -56.6420E-03     76.5143E-03     149.286E+06     66.7198E+06    -21.9063E+06    -21.8438E+06     149.224E+06     66.7198E+06     1.00636E+06         43.7111
            1275     15.1238E-03     67.4625E-03     307.736E-03     296.328E-03        -1.04409     295.673E-03        -1.04343     307.736E-03    -3.25300E-03     124.222E-03    -56.8458E-03    -67.4640E-03    -55.0108E-03     111.769E-03    -56.8458E-03     94.1177E-03     161.185E+06     112.151E+06    -15.7913E+06    -15.7083E+06     161.102E+06     112.151E+06     716.381E+03         47.4431
            1276     16.0728E-03     67.5776E-03     306.620E-03     293.086E-03        -1.03694     292.656E-03        -1.03638     306.487E-03    -24.1982E-03     120.210E-03    -56.8625E-03    -63.4399E-03    -54.7174E-03     111.488E-03    -56.8625E-03     73.0513E-03     165.125E+06     125.833E+06    -7.73639E+06    -7.70157E+06     165.090E+06     125.833E+06     295.104E+03         50.5468
            1277     945.694E-06     68.2319E-03     393.361E-03     197.139E-03        -1.02696     206.197E-03        -1.02525     382.599E-03     86.8778E-03     113.548E-03    -56.3265E-03    -57.2119E-03    -56.7744E-03     113.546E-03    -56.7618E-03     491.360E-06    -60.3748E+06    -65.2859E+06    -232.136E+06    -64.7516E+06    -232.105E+06    -60.9407E+06    -1.29950E+06         28.4727
            1278     1.89047E-03     68.2349E-03     313.459E-03     294.022E-03        -1.03593     308.721E-03        -1.03444     297.271E-03     39.7604E-03     113.874E-03    -56.7951E-03    -57.0762E-03    -56.9981E-03     113.871E-03    -56.8699E-03     1.17663E-03    -53.2745E+06    -60.3704E+06    -228.935E+06    -60.1147E+06    -228.915E+06    -53.5498E+06    -357.012E+03         28.6144
            1279     2.83415E-03     68.2356E-03     310.614E-03     294.741E-03        -1.03331     303.927E-03        -1.03255     300.674E-03     4.92715E-03     113.751E-03    -56.7246E-03    -57.0457E-03    -56.8142E-03     113.743E-03    -56.9482E-03     2.21573E-03    -45.8304E+06    -57.0454E+06    -223.970E+06    -57.0695E+06    -223.946E+06    -45.8304E+06     1.20630E+06         28.7853
            1280     3.77996E-03     68.2390E-03     317.702E-03     300.016E-03        -1.04581     314.526E-03        -1.04531     302.699E-03     14.6646E-03     113.611E-03    -56.6652E-03    -56.9601E-03    -56.6492E-03     113.595E-03    -56.9601E-03     3.26994E-03    -37.6989E+06    -53.3242E+06    -219.764E+06    -53.3469E+06    -219.741E+06    -37.6989E+06     1.59727E+06         28.9848
            1281     4.72495E-03     68.2429E-03     315.033E-03     298.542E-03        -1.04131     308.132E-03        -1.04041     304.544E-03     31.8011E-03     113.784E-03    -56.7506E-03    -57.0596E-03    -56.7760E-03     113.754E-03    -57.0047E-03     4.43113E-03    -29.7822E+06    -49.1665E+06    -216.708E+06    -49.1710E+06    -216.703E+06    -29.7822E+06     114.021E+03         29.2483
            1282     5.66976E-03     68.2495E-03     307.684E-03     289.170E-03        -1.02830     291.877E-03        -1.02723     303.908E-03     17.9814E-03     113.869E-03    -56.7698E-03    -57.0981E-03    -56.7723E-03     113.817E-03    -57.0431E-03     5.93232E-03    -22.7427E+06    -45.4026E+06    -213.224E+06    -45.4122E+06    -213.214E+06    -22.7427E+06     462.278E+03         29.6113
            1283     6.61480E-03     68.2557E-03     315.075E-03     294.308E-03        -1.04178     305.192E-03        -1.04063     303.043E-03     23.0565E-03     113.704E-03    -56.6547E-03    -57.0476E-03    -56.5653E-03     113.615E-03    -57.0476E-03     7.72521E-03    -17.3260E+06    -41.3613E+06    -205.085E+06    -41.3783E+06    -205.068E+06    -17.3260E+06     1.30331E+06         30.0798
            1284     7.55987E-03     68.2664E-03     315.661E-03     303.713E-03        -1.04934     312.865E-03        -1.04654     303.713E-03    -24.1269E-03     113.670E-03    -56.6337E-03    -56.9971E-03    -56.4795E-03     113.515E-03    -56.9971E-03     10.1347E-03    -11.5222E+06    -37.0110E+06    -184.045E+06    -37.0546E+06    -184.001E+06    -11.5222E+06     2.10955E+06         30.6634
            1285     8.50491E-03     68.2792E-03     312.075E-03     304.475E-03        -1.04517     309.414E-03        -1.04251     304.475E-03    -23.2486E-03     113.521E-03    -56.6061E-03    -56.8874E-03    -56.3655E-03     113.280E-03    -56.8874E-03     12.7142E-03    -8.34009E+06    -34.5347E+06    -159.688E+06    -34.5774E+06    -159.645E+06    -8.34009E+06     2.17114E+06         31.3859
            1286     9.45082E-03     68.2943E-03     309.611E-03     302.967E-03        -1.04182     306.710E-03        -1.04070     304.749E-03     19.5666E-03     113.359E-03    -56.5572E-03    -56.7610E-03    -56.1446E-03     112.923E-03    -56.7373E-03     16.9312E-03    -9.40992E+06    -32.6508E+06    -129.008E+06    -32.6669E+06    -128.992E+06    -9.40992E+06     933.044E+03         32.2930
            1287     10.3957E-03     68.3159E-03     305.681E-03     300.976E-03        -1.03637     301.737E-03        -1.03605     304.604E-03    -24.5520E-03     113.324E-03    -56.5868E-03    -56.6924E-03    -55.9553E-03     112.632E-03    -56.6317E-03     21.5836E-03    -8.54457E+06    -31.1849E+06    -86.1465E+06    -31.3259E+06    -86.0055E+06    -8.54457E+06     1.75645E+06         33.4903
            1288     11.3418E-03     68.3406E-03     311.846E-03     302.716E-03        -1.04331     309.816E-03        -1.04313     304.562E-03    -4.13825E-03     113.076E-03    -56.5360E-03    -56.6492E-03    -55.6711E-03     112.133E-03    -56.5704E-03     25.1588E-03    -1.23651E+06    -19.4226E+06    -46.9650E+06    -30.1397E+06    -30.5743E+06    -6.91019E+06     2.61563E+06         35.1131
            1289     12.2874E-03     68.3704E-03     311.846E-03     299.645E-03        -1.04296     306.623E-03        -1.04278     304.685E-03    -9.36294E-03     113.540E-03    -56.4417E-03    -57.3505E-03    -55.5379E-03     111.752E-03    -56.4659E-03     34.0875E-03     58.2759E+06    -10.9651E+06    -28.6115E+06    -28.5251E+06     58.1894E+06    -10.9651E+06     1.34556E+06         37.3093
            1290     13.2323E-03     68.4150E-03     303.946E-03     289.310E-03        -1.02974     289.146E-03        -1.02957     303.946E-03    -23.7999E-03     115.921E-03    -56.4662E-03    -59.6678E-03    -55.1249E-03     111.379E-03    -56.4662E-03     54.2607E-03     126.961E+06     9.40490E+06    -26.3874E+06    -26.3745E+06     126.948E+06     9.40490E+06     876.867E+03         40.1808
            1291     14.1793E-03     68.4886E-03     304.906E-03     290.240E-03        -1.03059     292.093E-03        -1.03015     302.619E-03     2.78297E-03     119.888E-03    -56.6760E-03    -63.2993E-03    -54.7690E-03     111.358E-03    -56.6760E-03     76.7506E-03     149.037E+06     65.9217E+06    -21.6902E+06    -21.6471E+06     148.993E+06     65.9217E+06     1.86186E+06         43.7117
            1292     15.1279E-03     68.5843E-03     303.897E-03     296.753E-03        -1.03215     298.275E-03        -1.03139     301.610E-03    -11.9635E-03     124.026E-03    -56.8469E-03    -67.2596E-03    -54.9261E-03     111.693E-03    -56.8469E-03     93.7126E-03     161.843E+06     112.530E+06    -14.7383E+06    -14.6806E+06     161.786E+06     112.530E+06     1.43993E+06         47.4437
            1293     16.0721E-03     68.6948E-03     308.879E-03     299.088E-03        -1.03878     306.206E-03        -1.03818     301.161E-03    -28.4597E-03     120.315E-03    -56.8582E-03    -63.5080E-03    -54.9661E-03     111.773E-03    -56.8582E-03     72.7762E-03     165.933E+06     126.389E+06    -7.72379E+06    -7.69518E+06     165.904E+06     126.389E+06     84.1005E+03         50.5513
            1294     944.231E-06     69.3535E-03     461.412E-03     98.7228E-03    -988.694E-03     112.294E-03    -984.281E-03     443.427E-03     3.46000E-03     114.095E-03    -56.5911E-03    -57.4660E-03    -57.4298E-03     114.093E-03    -56.6254E-03     832.593E-06    -61.8693E+06    -65.3754E+06    -230.724E+06    -64.9189E+06    -230.700E+06    -62.3498E+06    -337.174E+03         28.4799
            1295     1.88885E-03     69.3531E-03     310.295E-03     284.233E-03        -1.02223     309.141E-03        -1.02108     284.233E-03     22.0646E-03     113.902E-03    -56.8018E-03    -57.0795E-03    -56.8156E-03     113.900E-03    -57.0635E-03     911.872E-06    -54.9860E+06    -63.3290E+06    -230.128E+06    -63.3449E+06    -230.112E+06    -54.9860E+06    -231.936E+03         28.6146
            1296     2.83538E-03     69.3558E-03     312.343E-03     290.431E-03        -1.02509     309.194E-03        -1.02462     293.114E-03    -43.2949E-03     113.715E-03    -56.7200E-03    -57.0176E-03    -56.7131E-03     113.708E-03    -57.0176E-03     2.08743E-03    -47.3081E+06    -58.1192E+06    -226.199E+06    -58.1445E+06    -226.174E+06    -47.3081E+06     846.934E+03         28.7785
            1297     3.77934E-03     69.3579E-03     322.362E-03     295.679E-03        -1.04104     319.144E-03        -1.04051     298.363E-03    -43.7027E-03     113.865E-03    -56.8268E-03    -57.0008E-03    -56.8082E-03     113.846E-03    -57.0008E-03     3.44552E-03    -40.0542E+06    -53.5178E+06    -219.764E+06    -53.5471E+06    -219.735E+06    -40.0542E+06     910.633E+03         28.9787
            1298     4.72418E-03     69.3633E-03     320.634E-03     299.301E-03        -1.04215     316.214E-03        -1.04075     302.321E-03     22.7765E-03     113.814E-03    -56.7307E-03    -57.0437E-03    -56.6966E-03     113.780E-03    -57.0437E-03     4.77983E-03    -30.3297E+06    -50.6949E+06    -215.946E+06    -50.7343E+06    -215.907E+06    -30.3297E+06     1.38682E+06         29.2499
            1299     5.66970E-03     69.3681E-03     308.230E-03     287.888E-03        -1.01832     291.681E-03        -1.01665     302.764E-03     14.4618E-03     113.784E-03    -56.6970E-03    -57.0584E-03    -56.6418E-03     113.729E-03    -57.0584E-03     6.07538E-03    -24.5673E+06    -48.3084E+06    -214.348E+06    -48.3476E+06    -214.309E+06    -24.5673E+06     1.14983E+06         29.6168
            1300     6.61471E-03     69.3761E-03     301.322E-03     283.732E-03        -1.00804     282.618E-03        -1.00615     300.546E-03     21.2696E-03     113.886E-03    -56.7929E-03    -57.0450E-03    -56.6932E-03     113.786E-03    -57.0450E-03     8.14629E-03    -22.6522E+06    -44.9655E+06    -204.877E+06    -44.9737E+06    -204.869E+06    -22.6522E+06     531.341E+03         30.0835
            1301     7.55951E-03     69.3855E-03     306.827E-03     294.330E-03        -1.02200     299.850E-03        -1.01999     299.288E-03     10.1200E-03     113.741E-03    -56.6862E-03    -56.9812E-03    -56.5150E-03     113.570E-03    -56.9812E-03     10.7171E-03    -19.1774E+06    -41.8420E+06    -186.105E+06    -41.8697E+06    -186.077E+06    -19.1774E+06     1.47721E+06         30.6648
            1302     8.50519E-03     69.3987E-03     309.653E-03     298.701E-03        -1.02826     306.332E-03        -1.02591     299.671E-03     18.9545E-03     113.435E-03    -56.4682E-03    -56.8710E-03    -56.2178E-03     113.184E-03    -56.8710E-03     12.9939E-03    -14.1432E+06    -38.8375E+06    -159.366E+06    -38.8941E+06    -159.309E+06    -14.1432E+06     2.51243E+06         31.3856
            1303     9.45010E-03     69.4133E-03     304.032E-03     294.529E-03        -1.01968     297.081E-03        -1.01806     299.859E-03     53.6706E-03     113.295E-03    -56.4632E-03    -56.7546E-03    -56.0262E-03     112.858E-03    -56.7546E-03     16.9427E-03    -12.4014E+06    -36.1928E+06    -127.354E+06    -36.2306E+06    -127.316E+06    -12.4014E+06     1.41045E+06         32.2908
            1304     10.3964E-03     69.4352E-03     300.221E-03     290.170E-03        -1.01271     291.070E-03        -1.01266     299.267E-03    -13.8931E-03     113.334E-03    -56.5702E-03    -56.7654E-03    -55.9921E-03     112.644E-03    -56.6539E-03     21.5493E-03    -11.8328E+06    -33.1261E+06    -88.8084E+06    -33.2140E+06    -88.7205E+06    -11.8328E+06     1.22485E+06         33.4865
            1305     11.3412E-03     69.4600E-03     303.561E-03     291.696E-03        -1.01529     296.418E-03        -1.01512     298.673E-03    -23.0000E-03     113.228E-03    -56.5930E-03    -56.7826E-03    -55.8589E-03     112.304E-03    -56.5930E-03     24.9305E-03    -2.41618E+06    -19.1843E+06    -47.6744E+06    -30.1812E+06    -30.4087E+06    -8.68502E+06     2.24704E+06         35.1103
            1306     12.2869E-03     69.4895E-03     303.113E-03     289.464E-03        -1.01338     294.046E-03        -1.01308     298.224E-03    -5.40206E-03     113.509E-03    -56.4894E-03    -57.3020E-03    -55.4781E-03     111.685E-03    -56.4894E-03     34.2858E-03     59.7359E+06    -11.4612E+06    -29.0125E+06    -28.8975E+06     59.6208E+06    -11.4612E+06     2.02927E+06         37.3098
            1307     13.2335E-03     69.5353E-03     299.789E-03     284.691E-03        -1.01015     286.532E-03        -1.00959     297.392E-03    -16.7967E-03     115.897E-03    -56.4858E-03    -59.6096E-03    -55.1856E-03     111.473E-03    -56.4858E-03     53.8305E-03     127.561E+06     10.3276E+06    -27.7396E+06    -27.6994E+06     127.521E+06     10.3276E+06     878.193E+03         40.1827
            1308     14.1792E-03     69.6069E-03     303.241E-03     290.452E-03        -1.02005     295.939E-03        -1.01893     296.633E-03     12.0828E-03     119.825E-03    -56.6977E-03    -63.1921E-03    -54.8874E-03     111.521E-03    -56.6977E-03     75.6292E-03     148.613E+06     65.8924E+06    -23.1690E+06    -23.1459E+06      148.59E+06     65.8924E+06     583.166E+03         43.7122
            1309     15.1243E-03     69.7031E-03     303.849E-03     294.594E-03        -1.02296     301.218E-03        -1.02212     296.388E-03     26.5232E-03     123.604E-03    -56.8598E-03    -66.8235E-03    -54.5509E-03     111.332E-03    -56.8598E-03     93.2503E-03     161.478E+06     110.866E+06    -15.1385E+06    -15.1146E+06     161.454E+06     110.866E+06     1.04197E+06         47.4450
            1310     16.0724E-03     69.8151E-03     307.085E-03     287.187E-03        -1.01998     297.854E-03        -1.01982     296.250E-03    -27.4207E-03     120.310E-03    -56.8729E-03    -63.4619E-03    -54.8568E-03     111.705E-03    -56.8729E-03     73.1932E-03     166.357E+06     126.917E+06    -7.35173E+06    -7.32050E+06     166.326E+06     126.917E+06     820.566E+03         50.5580
            1311     945.010E-06     70.4731E-03     580.781E-03    -17.7809E-03    -989.600E-03    -21.3696E-03    -975.747E-03     570.516E-03    -39.3575E-03     114.093E-03    -56.7001E-03    -57.3452E-03    -57.2441E-03     114.091E-03    -56.7995E-03     947.211E-06    -62.1502E+06    -64.8591E+06    -231.663E+06    -64.7020E+06    -231.630E+06    -62.3402E+06    -52.8271E+03         28.4782
            1312     1.88982E-03     70.4734E-03     293.157E-03     276.090E-03    -989.400E-03     288.846E-03    -986.494E-03     277.495E-03     63.2454E-03     113.993E-03    -56.8157E-03    -57.1331E-03    -56.8784E-03     113.991E-03    -57.0679E-03     1.25055E-03    -54.5830E+06    -61.4000E+06    -229.972E+06    -61.4065E+06    -229.966E+06    -54.5830E+06     159.748E+03         28.6090
            1313     2.83373E-03     70.4742E-03     304.968E-03     283.804E-03        -1.00400     304.651E-03        -1.00368     283.804E-03    -39.2486E-03     113.941E-03    -56.7824E-03    -57.1412E-03    -56.8388E-03     113.932E-03    -57.0760E-03     2.32017E-03    -45.5448E+06    -58.0929E+06    -226.878E+06    -58.1074E+06    -226.863E+06    -45.5448E+06    -166.796E+03         28.7721
            1314     3.77971E-03     70.4785E-03     309.718E-03     289.688E-03        -1.01476     309.122E-03        -1.01416     289.688E-03    -47.8301E-03     113.876E-03    -56.7234E-03    -57.0574E-03    -56.7047E-03     113.857E-03    -57.0574E-03     3.47333E-03    -39.3540E+06    -54.3104E+06    -221.276E+06    -54.3393E+06    -221.247E+06    -39.3540E+06     1.14469E+06         28.9771
            1315     4.72479E-03     70.4818E-03     306.353E-03     293.308E-03        -1.01393     305.619E-03        -1.01319     293.308E-03     8.03604E-03     113.777E-03    -56.6827E-03    -57.0346E-03    -56.6487E-03     113.743E-03    -57.0346E-03     4.71559E-03    -34.1409E+06    -51.1019E+06    -216.933E+06    -51.1526E+06    -216.882E+06    -34.1409E+06     2.63076E+06         29.2548
            1316     5.66965E-03     70.4882E-03     311.288E-03     292.331E-03        -1.01477     307.121E-03        -1.01373     295.453E-03    -5.89174E-03     113.739E-03    -56.7367E-03    -57.0329E-03    -56.6800E-03     113.682E-03    -57.0329E-03     6.17567E-03    -26.1079E+06    -47.4292E+06    -213.505E+06    -47.4763E+06    -213.458E+06    -26.1079E+06     2.00284E+06         29.6232
            1317     6.61477E-03     70.4949E-03     304.020E-03     288.189E-03        -1.00419     294.882E-03        -1.00313     296.268E-03    -9.42889E-03     113.744E-03    -56.7317E-03    -57.0342E-03    -56.6312E-03     113.644E-03    -57.0342E-03     8.16953E-03    -21.8649E+06    -44.9692E+06    -205.170E+06    -44.9882E+06    -205.151E+06    -21.8649E+06     1.12988E+06         30.0908
            1318     7.56006E-03     70.5055E-03     301.942E-03     291.099E-03        -1.00411     295.074E-03        -1.00219     296.056E-03    -32.4958E-03     113.732E-03    -56.6834E-03    -56.9809E-03    -56.5152E-03     113.564E-03    -56.9809E-03     10.6353E-03    -18.5122E+06    -42.6347E+06    -188.110E+06    -42.6498E+06    -188.095E+06    -18.5122E+06     1.39193E+06         30.6735
            1319     8.50479E-03     70.5173E-03     301.069E-03     292.901E-03        -1.00612     294.928E-03        -1.00296     295.883E-03     4.48777E-03     113.599E-03    -56.5810E-03    -56.8569E-03    -56.3321E-03     113.350E-03    -56.8569E-03     12.9530E-03    -14.5724E+06    -39.1332E+06    -158.993E+06    -39.1684E+06    -158.958E+06    -14.5724E+06     1.81085E+06         31.3903
            1320     9.45063E-03     70.5331E-03     295.240E-03     287.007E-03    -994.492E-03     285.104E-03    -992.589E-03     295.240E-03     42.3355E-03     113.441E-03    -56.5579E-03    -56.7657E-03    -56.1249E-03     113.008E-03    -56.7657E-03     16.9061E-03    -11.2914E+06    -36.4371E+06    -125.974E+06    -36.5215E+06    -125.890E+06    -11.2914E+06     1.84466E+06         32.2893
            1321     10.3952E-03     70.5540E-03     297.411E-03     286.247E-03    -995.122E-03     288.994E-03    -994.847E-03     294.389E-03    -19.9429E-03     113.382E-03    -56.6235E-03    -56.7738E-03    -56.0160E-03     112.688E-03    -56.6878E-03     21.5948E-03    -11.6936E+06    -35.4661E+06    -89.4305E+06    -35.5329E+06    -89.3636E+06    -11.6936E+06     1.21986E+06         33.4830
            1322     11.3412E-03     70.5802E-03     296.779E-03     283.871E-03    -992.831E-03     286.758E-03    -992.695E-03     293.756E-03     6.00720E-03     113.185E-03    -56.5864E-03    -56.7245E-03    -55.7768E-03     112.253E-03    -56.6022E-03     25.0445E-03    -4.84182E+06    -21.7705E+06    -49.8754E+06    -33.9596E+06    -31.3846E+06    -11.1436E+06     968.368E+03         35.1093
            1323     12.2867E-03     70.6082E-03     292.891E-03     281.294E-03    -987.413E-03     280.815E-03    -986.934E-03     292.891E-03     33.2206E-03     113.447E-03    -56.4875E-03    -57.2067E-03    -55.3323E-03     111.588E-03    -56.5032E-03     34.5300E-03     59.8759E+06    -12.7116E+06    -30.5203E+06    -30.4607E+06     59.8163E+06    -12.7116E+06     1.19834E+06         37.3119
            1324     13.2322E-03     70.6548E-03     294.747E-03     287.550E-03    -997.400E-03     289.388E-03    -996.643E-03     292.153E-03    -1.62757E-03     116.045E-03    -56.4944E-03    -59.7687E-03    -55.1701E-03     111.446E-03    -56.4944E-03     54.8545E-03     128.713E+06     9.21296E+06    -26.7682E+06    -26.7098E+06     128.654E+06     9.21296E+06     975.580E+03         40.1872
            1325     14.1774E-03     70.7275E-03     296.393E-03     291.397E-03        -1.00371     294.876E-03        -1.00267     291.874E-03     8.57094E-03     120.088E-03    -56.6936E-03    -63.4596E-03    -55.0435E-03     111.672E-03    -56.6936E-03     76.3044E-03     149.102E+06     66.3310E+06    -22.9743E+06    -22.9319E+06     149.060E+06     66.3310E+06     512.932E+03         43.7192
            1326     15.1257E-03     70.8207E-03     298.752E-03     291.253E-03        -1.00556     297.186E-03        -1.00447     291.730E-03     10.9894E-03     123.999E-03    -56.8786E-03    -67.1951E-03    -54.6794E-03     111.483E-03    -56.8786E-03     94.2468E-03     161.015E+06     111.158E+06    -16.1471E+06    -16.1284E+06     160.997E+06     111.158E+06     280.530E+03         47.4549
            1327     16.0725E-03     70.9345E-03     297.114E-03     284.128E-03    -995.482E-03     289.367E-03    -995.004E-03     291.398E-03    -32.0523E-03     120.403E-03    -56.9007E-03    -63.5666E-03    -54.7352E-03     111.572E-03    -56.9007E-03     73.8826E-03     166.479E+06     126.536E+06    -7.56771E+06    -7.54904E+06     166.461E+06     126.536E+06     739.704E+03         50.5707
            1328     944.582E-06     71.5919E-03     695.732E-03    -106.777E-03        -1.00758    -130.751E-03    -983.610E-03     695.732E-03    -63.6400E-03     113.829E-03    -56.6679E-03    -57.1231E-03    -56.7586E-03     113.829E-03    -57.0316E-03     297.314E-06    -57.7377E+06    -62.2863E+06    -230.552E+06    -61.2090E+06    -230.517E+06    -58.8509E+06     62.8039E+03         28.4758
            1329     1.88988E-03     71.5933E-03     295.628E-03     278.785E-03    -985.373E-03     287.670E-03    -982.070E-03     283.440E-03     50.7645E-03     113.951E-03    -56.8512E-03    -57.0494E-03    -56.9432E-03     113.948E-03    -56.9549E-03     1.22168E-03    -53.6996E+06    -60.1316E+06    -230.284E+06    -60.1365E+06    -230.279E+06    -53.6996E+06    -3.71915E+03         28.6069
            1330     2.83499E-03     71.5946E-03     303.037E-03     280.427E-03    -992.889E-03     296.584E-03    -992.243E-03     286.235E-03    -24.1804E-03     114.043E-03    -56.9099E-03    -57.1160E-03    -56.9781E-03     114.033E-03    -57.0383E-03     2.39458E-03    -45.6278E+06    -56.8938E+06    -227.910E+06    -56.9051E+06    -227.899E+06    -45.6278E+06     601.323E+03         28.7736
            1331     3.77909E-03     71.5972E-03     291.717E-03     275.687E-03    -977.880E-03     280.045E-03    -977.610E-03     287.089E-03     2.76437E-03     113.914E-03    -56.8020E-03    -57.0788E-03    -56.7955E-03     113.895E-03    -57.0664E-03     3.52920E-03    -37.9633E+06    -53.1130E+06    -223.396E+06    -53.1334E+06    -223.376E+06    -37.9633E+06     1.67195E+06         28.9795
            1332     4.72437E-03     71.6017E-03     290.058E-03     280.410E-03    -975.963E-03     284.022E-03    -975.520E-03     286.004E-03     31.2790E-03     113.802E-03    -56.7363E-03    -57.0378E-03    -56.7034E-03     113.769E-03    -57.0378E-03     4.65102E-03    -32.9373E+06    -48.9286E+06    -217.461E+06    -48.9474E+06    -217.442E+06    -32.9373E+06     1.56371E+06         29.2552
            1333     5.66958E-03     71.6074E-03     300.630E-03     286.876E-03    -990.720E-03     300.032E-03    -990.122E-03     286.876E-03     13.4599E-03     113.837E-03    -56.8063E-03    -57.0402E-03    -56.7518E-03     113.782E-03    -57.0402E-03     6.06424E-03    -24.8272E+06    -44.9058E+06    -213.692E+06    -44.9341E+06    -213.664E+06    -24.8272E+06     2.05096E+06         29.6244
            1334     6.61463E-03     71.6147E-03     304.448E-03     288.998E-03    -994.127E-03     303.999E-03    -993.677E-03     288.998E-03     4.82426E-03     113.836E-03    -56.8054E-03    -57.0677E-03    -56.7128E-03     113.743E-03    -57.0677E-03     7.86158E-03    -17.2096E+06    -42.0031E+06    -205.527E+06    -42.0668E+06    -205.464E+06    -17.2096E+06     2.88626E+06         30.0957
            1335     7.55977E-03     71.6246E-03     296.410E-03     285.097E-03    -983.158E-03     289.228E-03    -980.837E-03     289.959E-03    -46.1760E-03     113.663E-03    -56.6622E-03    -57.0059E-03    -56.5055E-03     113.506E-03    -57.0059E-03     10.2471E-03    -12.9655E+06    -39.7191E+06    -187.828E+06    -39.7658E+06    -187.781E+06    -12.9655E+06     2.01669E+06         30.6796
            1336     8.50521E-03     71.6374E-03     291.172E-03     282.472E-03    -977.018E-03     280.641E-03    -973.360E-03     289.345E-03    -7.05454E-03     113.556E-03    -56.6150E-03    -56.8662E-03    -56.3701E-03     113.311E-03    -56.8662E-03     12.8301E-03    -12.4996E+06    -36.8821E+06    -158.946E+06    -36.8923E+06    -158.936E+06    -12.4996E+06     969.263E+03         31.3952
            1337     9.44979E-03     71.6518E-03     295.538E-03     285.942E-03    -985.188E-03     290.557E-03    -983.109E-03     288.845E-03     30.0653E-03     113.576E-03    -56.6802E-03    -56.7886E-03    -56.2433E-03     113.139E-03    -56.7886E-03     16.9929E-03    -9.69205E+06    -34.2369E+06    -128.033E+06    -34.3379E+06    -127.932E+06    -9.69205E+06     2.46522E+06         32.2919
            1338     10.3957E-03     71.6742E-03     297.624E-03     285.408E-03    -988.069E-03     293.557E-03    -987.614E-03     289.021E-03    -33.1614E-03     113.362E-03    -56.6345E-03    -56.7189E-03    -55.9462E-03     112.662E-03    -56.7074E-03     21.6853E-03    -7.67363E+06    -32.3776E+06    -88.6767E+06    -32.6093E+06    -88.4449E+06    -7.67363E+06     3.08590E+06         33.4836
            1339     11.3409E-03     71.6987E-03     295.959E-03     281.589E-03    -981.630E-03     288.282E-03    -981.429E-03     289.065E-03    -15.8949E-06     113.022E-03    -56.5414E-03    -56.6256E-03    -55.6284E-03     112.068E-03    -56.5841E-03     25.3103E-03    -3.04964E+06    -21.3588E+06    -46.4960E+06    -30.9595E+06    -29.7240E+06    -10.2209E+06     399.851E+03         35.1108
            1340     12.2870E-03     71.7283E-03     294.538E-03     281.030E-03    -981.213E-03     286.358E-03    -980.803E-03     288.800E-03     19.4259E-03     113.355E-03    -56.4490E-03    -57.1338E-03    -55.2384E-03     111.476E-03    -56.4647E-03     34.7650E-03     58.8817E+06    -14.1526E+06    -29.1054E+06    -28.9949E+06     58.7712E+06    -14.1526E+06    -431.672E+03         37.3167
            1341     13.2336E-03     71.7731E-03     290.299E-03     278.237E-03    -977.454E-03     279.910E-03    -977.062E-03     288.234E-03    -759.305E-06     115.856E-03    -56.4491E-03    -59.5722E-03    -54.8458E-03     111.130E-03    -56.4491E-03     55.4389E-03     128.058E+06     8.23495E+06    -26.6165E+06    -26.5709E+06     128.012E+06     8.23495E+06     876.359E+03         40.1961
            1342     14.1806E-03     71.8483E-03     287.505E-03     277.034E-03    -973.778E-03     276.792E-03    -973.338E-03     287.308E-03     3.74063E-03     120.052E-03    -56.6448E-03    -63.4426E-03    -55.0484E-03     111.658E-03    -56.6448E-03     76.3621E-03     149.919E+06     67.3469E+06    -22.0786E+06    -22.0392E+06     149.880E+06     67.3469E+06     637.849E+03         43.7327
            1343     15.1254E-03     71.9386E-03     288.298E-03     282.733E-03    -981.323E-03     283.865E-03    -980.608E-03     286.451E-03    -3.01094E-03     124.505E-03    -56.8654E-03    -67.6702E-03    -55.3099E-03     112.145E-03    -56.8654E-03     93.9064E-03     162.030E+06     113.071E+06    -15.5398E+06    -15.5230E+06     162.013E+06     113.071E+06     474.037E+03         47.4709
            1344     16.0710E-03     72.0555E-03     290.333E-03     285.594E-03    -980.596E-03     289.290E-03    -979.979E-03     286.021E-03    -11.8888E-03     120.406E-03    -56.8958E-03    -63.5606E-03    -54.7459E-03     111.592E-03    -56.8958E-03     73.8996E-03     166.198E+06     125.710E+06    -8.50897E+06    -8.50154E+06     166.191E+06     125.710E+06     457.250E+03         50.5874
            1345     945.389E-06     72.7123E-03     800.998E-03    -171.368E-03        -1.03977    -235.887E-03    -945.752E-03     771.498E-03    -142.833E-03     113.819E-03    -56.6294E-03    -57.1761E-03    -56.8758E-03     113.817E-03    -56.9279E-03     539.255E-06    -56.6266E+06    -60.2687E+06    -229.816E+06    -59.1840E+06    -229.787E+06    -57.7398E+06     1.43844E+06         28.4741
            1346     1.88960E-03     72.7121E-03     320.383E-03     274.099E-03        -1.00377     315.512E-03        -1.00215     277.349E-03    -9.54041E-03     113.952E-03    -56.9169E-03    -57.0115E-03    -56.9662E-03     113.949E-03    -56.9599E-03     1.08604E-03    -52.3996E+06    -57.8044E+06    -230.559E+06    -57.8232E+06    -230.540E+06    -52.3996E+06     1.26943E+06         28.6045
            1347     2.83450E-03     72.7143E-03     300.676E-03     276.381E-03    -982.126E-03     288.726E-03    -980.937E-03     287.142E-03    -26.3850E-03     113.900E-03    -56.8762E-03    -57.0170E-03    -56.8822E-03     113.893E-03    -57.0046E-03     2.02461E-03    -45.8607E+06    -55.1834E+06    -229.005E+06    -55.1922E+06    -228.996E+06    -45.8607E+06     803.301E+03         28.7758
            1348     3.77991E-03     72.7169E-03     285.120E-03     267.936E-03    -953.937E-03     266.964E-03    -952.965E-03     285.120E-03    -8.22155E-03     113.848E-03    -56.7942E-03    -57.0159E-03    -56.7878E-03     113.829E-03    -57.0035E-03     3.43519E-03    -38.3750E+06    -52.0497E+06    -224.324E+06    -52.0614E+06    -224.313E+06    -38.3750E+06      950.12E+03         28.9820
            1349     4.72455E-03     72.7213E-03     284.316E-03     275.828E-03    -958.055E-03     276.454E-03    -956.615E-03     282.251E-03     10.1449E-03     113.949E-03    -56.8331E-03    -57.0418E-03    -56.8104E-03     113.911E-03    -57.0261E-03     5.07727E-03    -29.7950E+06    -48.7722E+06    -217.710E+06    -48.7899E+06    -217.692E+06    -29.7950E+06     1.60900E+06         29.2533
            1350     5.66937E-03     72.7269E-03     288.586E-03     282.107E-03    -966.338E-03     287.584E-03    -965.336E-03     282.107E-03     14.4528E-03     114.023E-03    -56.9194E-03    -57.0835E-03    -56.8762E-03     113.964E-03    -57.0678E-03     6.31173E-03    -23.4647E+06    -45.5165E+06    -214.633E+06    -45.5382E+06    -214.611E+06    -23.4647E+06     1.90601E+06         29.6216
            1351     6.61432E-03     72.7344E-03     294.818E-03     283.283E-03    -975.469E-03     293.746E-03    -974.397E-03     283.283E-03     16.9132E-03     113.990E-03    -56.8873E-03    -57.0889E-03    -56.7916E-03     113.894E-03    -57.0889E-03     8.00782E-03    -17.9206E+06    -41.3021E+06    -206.797E+06    -41.3607E+06    -206.738E+06    -17.9206E+06     2.78416E+06         30.0944
            1352     7.55923E-03     72.7441E-03     291.016E-03     277.011E-03    -967.489E-03     282.390E-03    -965.747E-03     283.895E-03    -1.09259E-03     113.752E-03    -56.6767E-03    -57.0261E-03    -56.5235E-03     113.599E-03    -57.0261E-03     10.1551E-03    -11.5448E+06    -37.2226E+06    -186.269E+06    -37.2896E+06    -186.202E+06    -11.5448E+06     2.69940E+06         30.6797
            1353     8.50466E-03     72.7562E-03     285.498E-03     276.480E-03    -959.972E-03     276.430E-03    -957.788E-03     283.365E-03     8.40375E-03     113.526E-03    -56.5690E-03    -56.9026E-03    -56.3226E-03     113.279E-03    -56.9026E-03     12.8332E-03    -11.2857E+06    -35.1669E+06    -159.639E+06    -35.2013E+06    -159.605E+06    -11.2857E+06     1.77110E+06         31.3978
            1354     9.45040E-03     72.7724E-03     292.179E-03     283.291E-03    -973.673E-03     290.751E-03    -972.245E-03     283.291E-03     32.8360E-03     113.502E-03    -56.5914E-03    -56.7897E-03    -56.1662E-03     113.077E-03    -56.7897E-03     16.8181E-03    -11.2150E+06    -33.7102E+06    -131.130E+06    -33.8008E+06    -131.040E+06    -11.2150E+06     2.67324E+06         32.2960
            1355     10.3953E-03     72.7925E-03     290.316E-03     276.847E-03    -968.631E-03     283.259E-03    -968.288E-03     283.562E-03    -9.24769E-03     113.221E-03    -56.4805E-03    -56.6841E-03    -55.7974E-03     112.538E-03    -56.6841E-03     21.3677E-03    -7.72674E+06    -30.5312E+06    -87.0727E+06    -30.7535E+06    -86.8505E+06    -7.72674E+06     2.51049E+06         33.4878
            1356     11.3416E-03     72.8184E-03     287.312E-03     276.582E-03    -966.020E-03     280.278E-03    -965.701E-03     283.296E-03    -10.4424E-03     112.930E-03    -56.4659E-03    -56.6487E-03    -55.5792E-03     111.973E-03    -56.5777E-03     25.3432E-03    -714.558E+03    -18.0351E+06    -42.6164E+06    -27.6720E+06    -26.5643E+06    -7.12973E+06     619.570E+03         35.1162
            1357     12.2872E-03     72.8466E-03     289.067E-03     282.785E-03    -973.360E-03     288.393E-03    -973.085E-03     283.184E-03    -7.74039E-03     113.389E-03    -56.4543E-03    -57.1982E-03    -55.3602E-03     111.551E-03    -56.4543E-03     34.4617E-03     58.3216E+06    -11.6045E+06    -27.1278E+06    -26.9478E+06     58.1415E+06    -11.6045E+06     10.5298E+03         37.3243
            1358     13.2330E-03     72.8928E-03     286.589E-03     275.549E-03    -963.899E-03     278.542E-03    -963.233E-03     282.931E-03    -21.0238E-03     115.750E-03    -56.4199E-03    -59.4252E-03    -54.8543E-03     111.179E-03    -56.4199E-03     54.5015E-03     126.929E+06     10.8350E+06    -26.1381E+06    -26.0827E+06     126.874E+06     10.8350E+06     803.751E+03         40.2065
            1359     14.1792E-03     72.9657E-03     287.598E-03     272.422E-03    -962.173E-03     277.120E-03    -961.492E-03     282.218E-03    -18.8291E-03     120.094E-03    -56.6333E-03    -63.4795E-03    -55.0902E-03     111.705E-03    -56.6333E-03     76.2699E-03     149.789E+06     68.6777E+06    -22.5276E+06    -22.4879E+06     149.749E+06     68.6777E+06     1.14546E+06         43.7453
            1360     15.1255E-03     73.0612E-03     285.053E-03     272.689E-03    -960.863E-03     276.140E-03    -960.725E-03     281.465E-03     7.28060E-03     124.434E-03    -56.8625E-03    -67.6134E-03    -55.3737E-03     112.194E-03    -56.8625E-03     93.5225E-03     161.736E+06     112.275E+06    -15.7863E+06    -15.7727E+06     161.723E+06     112.275E+06     932.451E+03         47.4852
            1361     16.0724E-03     73.1723E-03     282.457E-03     269.285E-03    -951.257E-03     270.805E-03    -950.933E-03     280.611E-03    -6.91241E-03     120.197E-03    -56.8843E-03    -63.3350E-03    -54.7347E-03     111.597E-03    -56.8843E-03     73.1127E-03     166.912E+06     126.082E+06    -7.39726E+06    -7.38654E+06     166.902E+06     126.082E+06     317.388E+03         50.6049
            1362     944.498E-06     73.8314E-03     928.475E-03    -245.189E-03        -1.08457    -368.441E-03    -931.818E-03     898.975E-03    -185.944E-03     113.931E-03    -56.4841E-03    -57.4498E-03    -57.4199E-03     113.930E-03    -56.5127E-03     564.876E-06    -59.2413E+06    -62.7490E+06    -233.070E+06    -62.7646E+06    -233.055E+06    -59.2413E+06     534.482E+03         28.4748
            1363     1.88989E-03     73.8323E-03     303.635E-03     254.346E-03    -958.285E-03     286.461E-03    -956.807E-03     270.042E-03     2.09546E-03     113.930E-03    -56.8868E-03    -57.0277E-03    -56.9067E-03     113.927E-03    -57.0053E-03     1.00969E-03    -51.4769E+06    -57.2543E+06    -230.271E+06    -57.2780E+06    -230.247E+06    -51.4769E+06     1.64446E+06         28.6061
            1364     2.83448E-03     73.8338E-03     289.788E-03     268.423E-03    -953.962E-03     282.145E-03    -953.160E-03     275.265E-03    -24.2520E-03     113.825E-03    -56.8154E-03    -56.9972E-03    -56.8088E-03     113.819E-03    -56.9972E-03     2.09551E-03    -46.6305E+06    -55.0592E+06    -229.354E+06    -55.0749E+06    -229.338E+06    -46.6305E+06     1.25220E+06         28.7805
            1365     3.77943E-03     73.8359E-03     292.552E-03     271.662E-03    -955.169E-03     285.920E-03    -954.320E-03     277.444E-03    -9.28964E-03     113.775E-03    -56.7774E-03    -56.9793E-03    -56.7604E-03     113.758E-03    -56.9793E-03     3.27353E-03    -38.9356E+06    -52.7578E+06    -224.982E+06    -52.7733E+06    -224.967E+06    -38.9356E+06     1.21328E+06         28.9862
            1366     4.72506E-03     73.8408E-03     284.698E-03     276.005E-03    -950.413E-03     280.621E-03    -949.011E-03     278.681E-03     14.7005E-03     113.883E-03    -56.8075E-03    -57.0248E-03    -56.7865E-03     113.846E-03    -57.0091E-03     4.94018E-03    -29.6127E+06    -49.1044E+06    -218.877E+06    -49.1265E+06    -218.855E+06    -29.6127E+06     1.89962E+06         29.2522
            1367     5.66966E-03     73.8470E-03     281.853E-03     275.423E-03    -948.508E-03     277.561E-03    -947.553E-03     278.759E-03     10.5244E-03     113.970E-03    -56.8771E-03    -57.0593E-03    -56.8310E-03     113.908E-03    -57.0436E-03     6.44925E-03    -22.9509E+06    -45.4283E+06    -214.774E+06    -45.4536E+06    -214.749E+06    -22.9509E+06     2.05360E+06         29.6159
            1368     6.61440E-03     73.8537E-03     282.135E-03     270.742E-03    -946.784E-03     273.693E-03    -945.898E-03     278.298E-03     5.36165E-03     113.932E-03    -56.8480E-03    -57.0502E-03    -56.7432E-03     113.827E-03    -57.0502E-03     8.37631E-03    -19.6059E+06    -41.9126E+06    -207.137E+06    -41.9333E+06    -207.116E+06    -19.6059E+06     1.41125E+06         30.0886
            1369     7.55960E-03     73.8637E-03     283.832E-03     269.605E-03    -951.374E-03     274.241E-03    -949.870E-03     277.693E-03    -11.5989E-03     113.898E-03    -56.7812E-03    -57.0054E-03    -56.6178E-03     113.732E-03    -57.0019E-03     10.6098E-03    -15.1835E+06    -37.7172E+06    -186.975E+06    -37.7634E+06    -186.929E+06    -15.1835E+06     2.02516E+06         30.6780
            1370     8.50452E-03     73.8755E-03     285.286E-03     275.614E-03    -956.395E-03     281.974E-03    -955.105E-03     277.636E-03    -17.4123E-03     113.749E-03    -56.6811E-03    -56.9062E-03    -56.4255E-03     113.490E-03    -56.9028E-03     13.1861E-03    -10.7789E+06    -35.1316E+06    -161.413E+06    -35.2757E+06    -161.269E+06    -10.7789E+06     3.82027E+06         31.4013
            1371     9.44955E-03     73.8918E-03     284.433E-03     278.071E-03    -954.845E-03     283.797E-03    -954.209E-03     278.071E-03     4.70792E-03     113.366E-03    -56.4330E-03    -56.7891E-03    -56.0018E-03     112.935E-03    -56.7891E-03     16.9314E-03    -10.2313E+06    -33.4770E+06    -131.111E+06    -33.6233E+06    -130.965E+06    -10.2313E+06     3.06024E+06         32.3030
            1372     10.3957E-03     73.9120E-03     286.463E-03     274.422E-03    -957.510E-03     281.941E-03    -956.981E-03     278.416E-03     2.04688E-03     113.118E-03    -56.3881E-03    -56.7279E-03    -55.7263E-03     112.429E-03    -56.7006E-03     21.4478E-03    -8.54776E+06    -31.0875E+06    -85.0344E+06    -31.2123E+06    -84.9095E+06    -8.54776E+06     1.26314E+06         33.4967
            1373     11.3413E-03     73.9368E-03     283.673E-03     267.903E-03    -950.847E-03     272.930E-03    -950.452E-03     278.251E-03     5.80397E-03     113.037E-03    -56.5232E-03    -56.7033E-03    -55.6557E-03     112.075E-03    -56.6080E-03     25.4299E-03    -451.681E+03    -18.0644E+06    -43.2197E+06    -29.3700E+06    -26.0841E+06    -6.28174E+06     1.09348E+06         35.1258
            1374     12.2873E-03     73.9670E-03     277.649E-03     267.855E-03    -944.814E-03     267.306E-03    -944.120E-03     277.505E-03     14.4092E-03     113.605E-03    -56.4827E-03    -57.3614E-03    -55.5334E-03     111.777E-03    -56.4827E-03     34.4253E-03     58.5112E+06    -10.3464E+06    -28.5666E+06    -28.4749E+06     58.4196E+06    -10.3464E+06     895.268E+03         37.3335
            1375     13.2331E-03     74.0114E-03     281.063E-03     273.589E-03    -953.503E-03     276.666E-03    -952.401E-03     276.884E-03    -560.747E-06     116.029E-03    -56.4629E-03    -59.6943E-03    -55.2301E-03     111.565E-03    -56.4629E-03     54.0169E-03     126.186E+06     10.3182E+06    -27.1599E+06    -27.0999E+06     126.126E+06     10.3182E+06     839.588E+03         40.2158
            1376     14.1795E-03     74.0855E-03     284.408E-03     273.052E-03    -953.025E-03     280.189E-03    -952.395E-03     276.641E-03    -20.5578E-03     120.036E-03    -56.6738E-03    -63.4209E-03    -55.0064E-03     111.621E-03    -56.6738E-03     76.2269E-03     149.464E+06     67.2948E+06    -22.4952E+06    -22.4440E+06     149.413E+06     67.2948E+06     1.42564E+06         43.7565
            1377     15.1256E-03     74.1808E-03     279.519E-03     262.518E-03    -934.595E-03     265.965E-03    -934.453E-03     275.931E-03     897.683E-06     123.950E-03    -56.8795E-03    -67.1315E-03    -54.9113E-03     111.730E-03    -56.8795E-03     93.2871E-03     162.252E+06     112.098E+06    -15.4205E+06    -15.3814E+06     162.212E+06     112.098E+06     544.584E+03         47.5006
            1378     16.0710E-03     74.2927E-03     274.585E-03     258.041E-03    -924.088E-03     257.838E-03    -923.885E-03     274.585E-03    -22.0975E-03     120.149E-03    -56.8975E-03    -63.2887E-03    -54.8118E-03     111.672E-03    -56.8975E-03     72.6798E-03     167.332E+06     126.393E+06    -7.64780E+06    -7.60617E+06     167.290E+06     126.393E+06     257.007E+03         50.6236
            1379     944.994E-06     74.9520E-03         1.07143    -316.563E-03        -1.14827    -462.173E-03        -1.00266         1.07143    -140.002E-03     113.829E-03    -56.4210E-03    -57.4166E-03    -57.1600E-03     113.829E-03    -56.6771E-03     434.286E-06    -59.9606E+06    -62.6996E+06    -235.302E+06    -62.7038E+06    -235.298E+06    -59.9606E+06     121.043E+03         28.4853
            1380     1.88932E-03     74.9513E-03     289.526E-03     233.168E-03    -912.239E-03     227.765E-03    -906.837E-03     289.526E-03     103.782E-03     113.817E-03    -56.8279E-03    -56.9731E-03    -56.8467E-03     113.815E-03    -56.9518E-03     1.15638E-03    -52.9532E+06    -59.4802E+06    -232.703E+06    -59.4961E+06    -232.687E+06    -52.9532E+06     1.04277E+06         28.6159
            1381     2.83501E-03     74.9534E-03     284.437E-03     250.175E-03    -915.899E-03     261.920E-03    -915.569E-03     272.361E-03     4.09288E-03     113.803E-03    -56.8415E-03    -56.9542E-03    -56.8342E-03     113.796E-03    -56.9542E-03     2.18171E-03    -46.8699E+06    -56.3567E+06    -229.362E+06    -56.3798E+06    -229.339E+06    -46.8699E+06     1.88888E+06         28.7855
            1382     3.77979E-03     74.9556E-03     296.405E-03     273.476E-03    -951.582E-03     296.257E-03    -951.434E-03     273.476E-03     14.5738E-03     113.895E-03    -56.9082E-03    -56.9923E-03    -56.9194E-03     113.877E-03    -56.9629E-03     3.43929E-03    -40.0340E+06    -52.8617E+06    -225.373E+06    -52.8748E+06    -225.360E+06    -40.0340E+06     1.43776E+06         28.9871
            1383     4.72409E-03     74.9602E-03     287.663E-03     271.249E-03    -942.534E-03     281.683E-03    -942.115E-03     276.810E-03     42.5921E-03     113.836E-03    -56.7833E-03    -57.0270E-03    -56.7766E-03     113.800E-03    -56.9976E-03     4.91400E-03    -32.2585E+06    -49.4878E+06    -220.623E+06    -49.5163E+06    -220.595E+06    -32.2585E+06     2.06786E+06         29.2516
            1384     5.66981E-03     74.9661E-03     275.950E-03     260.378E-03    -922.615E-03     259.917E-03    -922.154E-03     275.950E-03     17.8372E-03     113.768E-03    -56.6914E-03    -57.0214E-03    -56.6322E-03     113.709E-03    -57.0214E-03     6.30170E-03    -24.5073E+06    -45.8682E+06    -215.142E+06    -45.9032E+06    -215.107E+06    -24.5073E+06     2.37555E+06         29.6150
            1385     6.61504E-03     74.9738E-03     273.264E-03     255.295E-03    -915.074E-03     254.716E-03    -914.495E-03     273.264E-03     18.9154E-03     113.788E-03    -56.7048E-03    -57.0316E-03    -56.6089E-03     113.692E-03    -57.0316E-03     8.00875E-03    -18.7479E+06    -43.0546E+06    -206.142E+06    -43.0826E+06    -206.114E+06    -18.7479E+06     1.61857E+06         30.0886
            1386     7.56002E-03     74.9829E-03     275.580E-03     262.871E-03    -926.493E-03     265.527E-03    -925.092E-03     271.523E-03    -15.4031E-03     113.769E-03    -56.7041E-03    -56.9678E-03    -56.5366E-03     113.598E-03    -56.9643E-03     10.6588E-03    -16.5229E+06    -41.7834E+06    -189.693E+06    -41.8351E+06    -189.641E+06    -16.5229E+06     2.18553E+06         30.6806
            1387     8.50496E-03     74.9960E-03     280.794E-03     270.765E-03    -938.716E-03     278.093E-03    -936.710E-03     271.460E-03    -1.96500E-03     113.674E-03    -56.7064E-03    -56.8646E-03    -56.4422E-03     113.407E-03    -56.8612E-03     13.4431E-03    -12.3999E+06    -38.5112E+06    -163.120E+06    -38.6515E+06    -162.979E+06    -12.3999E+06     3.71042E+06         31.4074
            1388     9.45041E-03     75.0102E-03     280.555E-03     272.090E-03    -940.355E-03     278.901E-03    -938.702E-03     272.090E-03     5.00519E-03     113.408E-03    -56.5464E-03    -56.7970E-03    -56.1318E-03     112.978E-03    -56.7814E-03     16.9088E-03    -8.91634E+06    -34.0331E+06    -128.357E+06    -34.1628E+06    -128.227E+06    -8.91634E+06     2.77415E+06         32.3120
            1389     10.3961E-03     75.0305E-03     282.141E-03     272.713E-03    -946.877E-03     281.360E-03    -946.097E-03     272.713E-03    -16.4815E-03     113.301E-03    -56.5450E-03    -56.7737E-03    -55.9251E-03     112.619E-03    -56.7116E-03     21.3753E-03    -8.36462E+06    -31.3772E+06    -84.3459E+06    -31.4818E+06    -84.2412E+06    -8.36462E+06     1.55914E+06         33.5069
            1390     11.3414E-03     75.0567E-03     284.991E-03     266.830E-03    -943.594E-03     278.358E-03    -943.315E-03     273.185E-03     7.09924E-03     113.241E-03    -56.6382E-03    -56.7699E-03    -55.8285E-03     112.300E-03    -56.6382E-03     25.1708E-03    -984.919E+03    -17.5545E+06    -44.9379E+06    -30.5844E+06    -26.6224E+06    -6.27058E+06     1.65865E+06         35.1347
            1391     12.2870E-03     75.0853E-03     280.671E-03     263.921E-03    -935.242E-03     270.764E-03    -934.586E-03     273.172E-03     20.1088E-03     113.711E-03    -56.5122E-03    -57.4378E-03    -55.5902E-03     111.863E-03    -56.5122E-03     34.5359E-03     58.7955E+06    -9.63840E+06    -29.3584E+06    -29.2727E+06     58.7099E+06    -9.63840E+06     1.33979E+06         37.3416
            1392     13.2322E-03     75.1323E-03     276.919E-03     259.839E-03    -927.944E-03     263.500E-03    -927.285E-03     272.598E-03     19.8934E-03     116.117E-03    -56.5057E-03    -59.7941E-03    -55.3127E-03     111.636E-03    -56.5057E-03     54.2290E-03     125.895E+06     8.61828E+06    -27.1012E+06    -27.0621E+06     125.856E+06     8.61828E+06     933.867E+03         40.2247
            1393     14.1773E-03     75.2039E-03     273.675E-03     248.390E-03    -910.200E-03     250.567E-03    -909.989E-03     271.287E-03     1.16523E-03     120.080E-03    -56.7033E-03    -63.4456E-03    -54.9535E-03     111.588E-03    -56.7033E-03     76.5168E-03     148.965E+06     64.7899E+06    -22.7587E+06    -22.7044E+06     148.911E+06     64.7899E+06     334.485E+03         43.7686
            1394     15.1247E-03     75.3001E-03     271.577E-03     252.300E-03    -908.666E-03     254.082E-03    -908.494E-03     269.623E-03     5.48315E-03     123.853E-03    -56.8782E-03    -67.0629E-03    -54.6426E-03     111.433E-03    -56.8782E-03     93.9520E-03     162.925E+06     112.362E+06    -15.1520E+06    -15.0755E+06     162.849E+06     112.362E+06     302.119E+03         47.5171
            1395     16.0727E-03     75.4115E-03     274.210E-03     263.005E-03    -915.682E-03     268.486E-03    -915.602E-03     268.648E-03    -2.70378E-03     120.180E-03    -56.8887E-03    -63.3675E-03    -54.7799E-03     111.592E-03    -56.8887E-03     73.0594E-03     168.309E+06     127.120E+06    -7.63994E+06    -7.57882E+06     168.248E+06     127.120E+06     960.425E+03         50.6425
            1396     945.076E-06     76.0705E-03         1.18317    -303.833E-03        -1.26149    -561.916E-03    -989.998E-03         1.16976    -127.797E-03     113.570E-03    -56.5871E-03    -56.9679E-03    -56.7395E-03     113.569E-03    -56.8145E-03     604.326E-06    -61.8449E+06    -64.1628E+06    -236.298E+06    -64.0449E+06    -236.280E+06    -61.9809E+06     1.37607E+06         28.4913
            1397     1.89046E-03     76.0714E-03     311.384E-03     254.936E-03    -943.972E-03     262.591E-03    -935.841E-03     295.598E-03     95.2609E-03     113.719E-03    -56.8230E-03    -56.8665E-03    -56.8548E-03     113.718E-03    -56.8329E-03     934.156E-06    -56.0528E+06    -62.1715E+06    -235.087E+06    -62.1898E+06    -235.069E+06    -56.0528E+06     551.298E+03         28.6211
            1398     2.83466E-03     76.0724E-03     286.282E-03     249.320E-03    -909.228E-03     251.673E-03    -907.559E-03     282.260E-03    -33.4506E-03     113.800E-03    -56.8583E-03    -56.8928E-03    -56.8517E-03     113.792E-03    -56.8906E-03     2.25784E-03    -48.3562E+06    -58.1800E+06    -230.066E+06    -58.2107E+06    -230.035E+06    -48.3562E+06     1.25715E+06         28.7857
            1399     3.77971E-03     76.0760E-03     283.633E-03     257.176E-03    -914.512E-03     264.912E-03    -914.428E-03     275.813E-03     4.04817E-03     113.889E-03    -56.8628E-03    -56.9508E-03    -56.8721E-03     113.869E-03    -56.9214E-03     3.65141E-03    -41.4755E+06    -54.8580E+06    -225.604E+06    -54.8855E+06    -225.576E+06    -41.4755E+06     1.97968E+06         28.9845
            1400     4.72491E-03     76.0796E-03     281.402E-03     264.424E-03    -922.680E-03     271.033E-03    -922.019E-03     274.132E-03     45.4829E-03     113.923E-03    -56.8398E-03    -56.9937E-03    -56.8344E-03     113.885E-03    -56.9611E-03     5.02057E-03    -34.5616E+06    -52.2623E+06    -222.003E+06    -52.2951E+06    -221.970E+06    -34.5616E+06     2.27072E+06         29.2524
            1401     5.66941E-03     76.0857E-03     273.651E-03     257.195E-03    -909.557E-03     257.637E-03    -908.905E-03     272.556E-03     31.9315E-03     113.830E-03    -56.7759E-03    -57.0210E-03    -56.7184E-03     113.769E-03    -57.0179E-03     6.40404E-03    -25.1938E+06    -48.5024E+06    -215.397E+06    -48.5324E+06    -215.367E+06    -25.1938E+06     2.14815E+06         29.6208
            1402     6.61452E-03     76.0930E-03     270.180E-03     255.151E-03    -904.998E-03     254.567E-03    -904.413E-03     270.180E-03     29.3825E-03     113.783E-03    -56.6814E-03    -57.0777E-03    -56.5907E-03     113.692E-03    -57.0777E-03     7.81173E-03    -16.0561E+06    -44.0406E+06    -206.697E+06    -44.0846E+06    -206.653E+06    -16.0561E+06     2.52523E+06         30.0944
            1403     7.55990E-03     76.1024E-03     268.558E-03     261.865E-03    -910.630E-03     260.644E-03    -909.409E-03     268.558E-03    -3.57893E-03     113.736E-03    -56.5816E-03    -57.0112E-03    -56.4274E-03     113.581E-03    -57.0112E-03     10.1183E-03    -12.2619E+06    -40.3046E+06    -191.304E+06    -40.3842E+06    -191.225E+06    -12.2619E+06     3.44138E+06         30.6840
            1404     8.50566E-03     76.1149E-03     270.593E-03     264.387E-03    -915.024E-03     265.050E-03    -912.982E-03     267.887E-03     17.2064E-03     113.423E-03    -56.5249E-03    -56.8767E-03    -56.2844E-03     113.183E-03    -56.8767E-03     12.7036E-03    -12.2275E+06    -37.3602E+06    -162.524E+06    -37.4146E+06    -162.470E+06    -12.2275E+06     2.44802E+06         31.4094
            1405     9.45069E-03     76.1300E-03     271.891E-03     263.085E-03    -912.941E-03     265.668E-03    -911.227E-03     267.594E-03     30.4031E-03     113.397E-03    -56.6099E-03    -56.8287E-03    -56.2513E-03     112.981E-03    -56.7717E-03     16.5645E-03    -10.1066E+06    -34.1063E+06    -127.182E+06    -34.1421E+06    -127.147E+06    -10.1066E+06     1.48972E+06         32.3151
            1406     10.3953E-03     76.1502E-03     269.629E-03     257.481E-03    -906.193E-03     259.611E-03    -905.770E-03     267.076E-03    -15.1027E-03     113.539E-03    -56.6895E-03    -56.8607E-03    -56.1762E-03     112.854E-03    -56.6895E-03     21.4417E-03    -9.46870E+06    -31.5028E+06    -85.0015E+06    -31.6123E+06    -84.8920E+06    -9.46870E+06     1.76933E+06         33.5109
            1407     11.3409E-03     76.1760E-03     279.726E-03     261.628E-03    -922.210E-03     274.204E-03    -921.964E-03     266.904E-03    -9.14590E-03     113.379E-03    -56.6272E-03    -56.8979E-03    -55.9352E-03     112.417E-03    -56.6272E-03     25.4509E-03    -1.81850E+06    -17.0073E+06    -44.0528E+06    -29.2676E+06    -26.4024E+06    -7.20869E+06     2.02555E+06         35.1385
            1408     12.2862E-03     76.2054E-03     281.262E-03     266.161E-03    -926.776E-03     279.673E-03    -926.496E-03     267.470E-03    -4.35045E-03     113.601E-03    -56.5072E-03    -57.3333E-03    -55.4404E-03     111.708E-03    -56.5072E-03     34.9416E-03     58.8583E+06    -9.73106E+06    -27.9295E+06    -27.8283E+06     58.7572E+06    -9.73106E+06     1.80763E+06         37.3475
            1409     13.2326E-03     76.2515E-03     269.084E-03     252.667E-03    -901.168E-03     254.270E-03    -900.839E-03     267.152E-03    -5.68390E-03     116.024E-03    -56.4737E-03    -59.7538E-03    -55.1248E-03     111.395E-03    -56.4737E-03     55.0468E-03     126.345E+06     8.43603E+06    -26.4088E+06    -26.3601E+06     126.297E+06     8.43603E+06     983.088E+03         40.2342
            1410     14.1796E-03     76.3241E-03     273.049E-03     243.132E-03    -892.396E-03     250.083E-03    -892.050E-03     265.752E-03    -3.78652E-03     120.072E-03    -56.6750E-03    -63.4591E-03    -55.0466E-03     111.659E-03    -56.6750E-03     76.3182E-03     149.861E+06     65.3275E+06    -22.4654E+06    -22.3883E+06     149.784E+06     65.3275E+06     669.366E+03         43.7805
            1411     15.1256E-03     76.4183E-03     274.012E-03     252.833E-03    -898.566E-03     261.742E-03    -898.224E-03     264.762E-03     29.2123E-03     123.976E-03    -56.8603E-03    -67.1909E-03    -54.7801E-03     111.565E-03    -56.8603E-03     93.8532E-03     161.799E+06     110.897E+06    -16.2914E+06    -16.2005E+06     161.708E+06     110.897E+06     912.059E+03         47.5302
            1412     16.0712E-03     76.5319E-03     269.847E-03     255.382E-03    -893.645E-03     260.583E-03    -893.285E-03     264.286E-03     29.1588E-03     120.175E-03    -56.8789E-03    -63.3663E-03    -54.6585E-03     111.467E-03    -56.8789E-03     73.2173E-03     168.311E+06     126.493E+06    -7.52053E+06    -7.47993E+06     168.270E+06     126.493E+06     582.781E+03         50.6583
            1413     945.025E-06     77.1905E-03         1.22088    -265.587E-03        -1.33334    -707.091E-03    -871.069E-03         1.20011    -123.265E-03     113.491E-03    -56.5412E-03    -56.9302E-03    -56.9160E-03     113.490E-03    -56.5547E-03     525.203E-06    -64.3454E+06    -67.6493E+06    -237.406E+06    -66.5641E+06    -237.382E+06    -65.4543E+06     402.035E+03         28.4843
            1414     1.88956E-03     77.1902E-03     309.968E-03     257.297E-03    -934.426E-03     299.188E-03    -923.647E-03     257.297E-03     26.8413E-03     113.654E-03    -56.7798E-03    -56.8293E-03    -56.8136E-03     113.652E-03    -56.7933E-03     974.719E-06    -58.1454E+06    -64.0684E+06    -235.349E+06    -64.0859E+06    -235.332E+06    -58.1454E+06     572.003E+03         28.6178
            1415     2.83518E-03     77.1922E-03     313.056E-03     259.216E-03    -938.474E-03     296.685E-03    -934.745E-03     271.859E-03    -96.2316E-03     113.784E-03    -56.8276E-03    -56.8925E-03    -56.8452E-03     113.776E-03    -56.8665E-03     2.22553E-03    -49.5539E+06    -60.6554E+06    -232.239E+06    -60.6854E+06    -232.209E+06    -49.5539E+06     1.22783E+06         28.7860
            1416     3.78004E-03     77.1950E-03     282.288E-03     240.183E-03    -890.592E-03     249.228E-03    -890.339E-03     272.990E-03    -14.4602E-03     113.845E-03    -56.8426E-03    -56.9549E-03    -56.8607E-03     113.826E-03    -56.9176E-03     3.53606E-03    -41.0992E+06    -56.9043E+06    -226.734E+06    -56.9409E+06    -226.698E+06    -41.0992E+06     2.31511E+06         28.9836
            1417     4.72474E-03     77.1995E-03     268.713E-03     243.573E-03    -879.672E-03     243.954E-03    -878.959E-03     267.619E-03     12.1329E-03     113.965E-03    -56.8832E-03    -56.9961E-03    -56.8906E-03     113.932E-03    -56.9556E-03     4.70497E-03    -34.1809E+06    -52.6901E+06    -222.110E+06    -52.7177E+06    -222.083E+06    -34.1809E+06     2.03809E+06         29.2492
            1418     5.66988E-03     77.2051E-03     270.874E-03     258.031E-03    -899.578E-03     263.104E-03    -898.817E-03     265.039E-03     3.49635E-03     113.847E-03    -56.8073E-03    -56.9945E-03    -56.7529E-03     113.790E-03    -56.9914E-03     6.17739E-03    -26.2673E+06    -48.8231E+06    -215.591E+06    -48.8464E+06    -215.567E+06    -26.2673E+06     1.84130E+06         29.6183
            1419     6.61471E-03     77.2125E-03     270.401E-03     260.232E-03    -903.011E-03     265.321E-03    -902.547E-03     264.847E-03    -17.0720E-03     113.771E-03    -56.7269E-03    -57.0431E-03    -56.6272E-03     113.672E-03    -57.0431E-03     8.17611E-03    -19.6431E+06    -45.3210E+06    -208.726E+06    -45.3622E+06    -208.685E+06    -19.6431E+06     2.46633E+06         30.0916
            1420     7.55962E-03     77.2219E-03     265.199E-03     257.804E-03    -896.747E-03     257.557E-03    -895.687E-03     264.387E-03    -37.9343E-03     113.882E-03    -56.7248E-03    -57.0231E-03    -56.5905E-03     113.722E-03    -56.9971E-03     10.3757E-03    -16.5049E+06    -40.8832E+06    -191.907E+06    -40.9391E+06    -191.851E+06    -16.5049E+06     2.70431E+06         30.6784
            1421     8.50435E-03     77.2340E-03     263.453E-03     256.954E-03    -891.858E-03     255.704E-03    -890.608E-03     263.453E-03    -25.7112E-03     113.499E-03    -56.5298E-03    -56.8914E-03    -56.3239E-03     113.267E-03    -56.8653E-03     12.4983E-03    -14.9703E+06    -36.7422E+06    -160.409E+06    -36.7789E+06    -160.372E+06    -14.9703E+06     1.89851E+06         31.4024
            1422     9.45047E-03     77.2488E-03     264.603E-03     256.993E-03    -889.501E-03     258.492E-03    -889.114E-03     262.717E-03     11.3660E-03     113.217E-03    -56.4135E-03    -56.7908E-03    -56.0268E-03     112.789E-03    -56.7495E-03     16.7124E-03    -12.7108E+06    -34.6531E+06    -127.692E+06    -34.6722E+06    -127.673E+06    -12.7108E+06     1.14954E+06         32.3099
            1423     10.3962E-03     77.2707E-03     263.856E-03     250.632E-03    -881.052E-03     252.487E-03    -881.021E-03     261.971E-03    -7.05203E-03     113.463E-03    -56.5642E-03    -56.9130E-03    -56.1080E-03     112.762E-03    -56.6683E-03     21.7325E-03    -11.2494E+06    -32.4157E+06    -85.4822E+06    -32.5086E+06    -85.3893E+06    -11.2494E+06     1.24148E+06         33.5077
            1424     11.3413E-03     77.2949E-03     267.314E-03     245.287E-03    -879.227E-03     251.377E-03    -879.023E-03     261.020E-03    -20.1435E-03     113.352E-03    -56.6021E-03    -56.9049E-03    -55.9212E-03     112.370E-03    -56.6036E-03     25.6857E-03    -3.05782E+06    -18.7601E+06    -44.1726E+06    -30.1263E+06    -26.9213E+06    -8.94294E+06     1.69017E+06         35.1379
            1425     12.2870E-03     77.3254E-03     266.390E-03     246.162E-03    -881.663E-03     251.611E-03    -880.818E-03     260.096E-03     9.05848E-03     113.524E-03    -56.4934E-03    -57.2632E-03    -55.3941E-03     111.656E-03    -56.4949E-03     34.8382E-03     59.3769E+06    -9.80943E+06    -28.4949E+06    -28.3917E+06     59.2738E+06    -9.80943E+06     2.09095E+06         37.3515
            1426     13.2334E-03     77.3695E-03     266.858E-03     250.814E-03    -889.141E-03     257.117E-03    -887.932E-03     259.347E-03    -5.81013E-03     116.022E-03    -56.4546E-03    -59.7734E-03    -55.1369E-03     111.386E-03    -56.4546E-03     54.9394E-03     127.652E+06     9.74450E+06    -27.0177E+06    -26.9646E+06     127.599E+06     9.74450E+06     1.38925E+06         40.2424
            1427     14.1780E-03     77.4460E-03     282.168E-03     256.125E-03    -908.216E-03     278.250E-03    -907.611E-03     259.437E-03    -30.6350E-03     120.058E-03    -56.6649E-03    -63.4744E-03    -55.1937E-03     111.778E-03    -56.6649E-03     75.8692E-03     149.443E+06     64.8588E+06    -23.2677E+06    -23.1957E+06     149.371E+06     64.8588E+06     1.10894E+06         43.7902
            1428     15.1245E-03     77.5355E-03     279.448E-03     257.587E-03    -903.574E-03     276.680E-03    -903.290E-03     260.070E-03     14.4470E-03     124.086E-03    -56.8803E-03    -67.2493E-03    -54.9478E-03     111.784E-03    -56.8803E-03     93.4341E-03     162.715E+06     110.893E+06    -15.8647E+06    -15.7892E+06     162.639E+06     110.893E+06     1.12287E+06         47.5403
            1429     16.0723E-03     77.6531E-03     264.630E-03     251.089E-03    -877.020E-03     255.337E-03    -876.631E-03     259.993E-03     25.5397E-03     120.097E-03    -56.8911E-03    -63.2594E-03    -54.5065E-03     111.344E-03    -56.8911E-03     73.2224E-03     168.614E+06     125.920E+06    -8.00815E+06    -7.96912E+06     168.575E+06     125.920E+06     198.949E+03         50.6712
            1430     945.015E-06     78.3090E-03         1.28675    -223.824E-03        -1.42767    -819.130E-03    -797.241E-03         1.25162    -184.860E-03     113.368E-03    -56.4842E-03    -56.8726E-03    -56.7993E-03     113.367E-03    -56.5570E-03     603.083E-06    -63.2270E+06    -68.4532E+06    -238.602E+06    -67.4905E+06    -238.592E+06    -64.1999E+06    -501.629E+03         28.4846
            1431     1.89061E-03     78.3097E-03     298.041E-03     230.769E-03    -893.946E-03     288.309E-03    -884.214E-03     230.769E-03     42.1473E-03     113.720E-03    -56.7651E-03    -56.9368E-03    -56.9207E-03     113.717E-03    -56.7786E-03     1.24409E-03    -56.8373E+06    -64.2410E+06    -236.084E+06    -64.2525E+06    -236.072E+06    -56.8373E+06     821.240E+03         28.6157
            1432     2.83466E-03     78.3115E-03     299.116E-03     252.258E-03    -913.626E-03     295.018E-03    -909.529E-03     252.258E-03    -41.2798E-03     113.879E-03    -56.8695E-03    -57.0191E-03    -56.9851E-03     113.872E-03    -56.8968E-03     2.08715E-03    -49.6757E+06    -61.0716E+06    -233.535E+06    -61.0952E+06    -233.512E+06    -49.6757E+06     1.80544E+06         28.7863
            1433     3.77972E-03     78.3144E-03     273.807E-03     244.012E-03    -877.818E-03     257.170E-03    -876.265E-03     259.095E-03     20.6490E-03     113.882E-03    -56.8623E-03    -57.0337E-03    -56.9175E-03     113.864E-03    -56.9602E-03     3.39681E-03    -41.7810E+06    -56.8327E+06    -227.439E+06    -56.8579E+06    -227.413E+06    -41.7810E+06     1.47902E+06         28.9832
            1434     4.72447E-03     78.3197E-03     256.486E-03     233.793E-03    -850.039E-03     233.395E-03    -849.640E-03     256.486E-03    -24.0211E-03     113.830E-03    -56.7662E-03    -57.0181E-03    -56.7706E-03     113.798E-03    -56.9807E-03     4.71139E-03    -33.4583E+06    -51.8975E+06    -222.280E+06    -51.9184E+06    -222.259E+06    -33.4583E+06     1.34489E+06         29.2469
            1435     5.66933E-03     78.3243E-03     265.122E-03     246.737E-03    -873.938E-03     257.089E-03    -873.514E-03     254.346E-03    -28.7671E-03     113.742E-03    -56.7157E-03    -56.9814E-03    -56.6577E-03     113.684E-03    -56.9814E-03     6.17720E-03    -27.6027E+06    -48.5209E+06    -217.358E+06    -48.5741E+06    -217.305E+06    -27.6027E+06     2.65337E+06         29.6152
            1436     6.61503E-03     78.3318E-03     273.294E-03     255.733E-03    -892.837E-03     272.854E-03    -892.397E-03     255.733E-03    -14.7146E-03     113.760E-03    -56.7235E-03    -57.0082E-03    -56.6220E-03     113.658E-03    -57.0082E-03     8.25306E-03    -22.7189E+06    -46.2828E+06    -209.446E+06    -46.3559E+06    -209.373E+06    -22.7189E+06     3.28061E+06         30.0872
            1437     7.56012E-03     78.3416E-03     263.732E-03     251.733E-03    -877.545E-03     257.941E-03    -876.967E-03     256.946E-03    -20.2702E-03     113.711E-03    -56.6644E-03    -56.9691E-03    -56.5201E-03     113.540E-03    -56.9431E-03     10.6708E-03    -19.5039E+06    -43.8929E+06    -190.838E+06    -43.9269E+06    -190.804E+06    -19.5039E+06     1.52487E+06         30.6725
            1438     8.50522E-03     78.3541E-03     256.435E-03     247.955E-03    -864.895E-03     247.538E-03    -864.478E-03     256.435E-03    -26.8020E-03     113.559E-03    -56.5873E-03    -56.8882E-03    -56.4173E-03     113.305E-03    -56.8038E-03     13.1073E-03    -17.7133E+06    -40.5700E+06    -160.384E+06    -40.5808E+06    -160.373E+06    -17.7133E+06     592.085E+03         31.3960
            1439     9.44998E-03     78.3676E-03     263.331E-03     252.777E-03    -874.832E-03     260.054E-03    -874.821E-03     256.044E-03    -2.23026E-03     113.432E-03    -56.5232E-03    -56.8257E-03    -56.1769E-03     112.988E-03    -56.7280E-03     17.0900E-03    -13.1908E+06    -36.6577E+06    -127.618E+06    -36.6752E+06    -127.600E+06    -13.1908E+06     992.611E+03         32.3042
            1440     10.3959E-03     78.3899E-03     263.652E-03     254.345E-03    -877.140E-03     261.619E-03    -877.126E-03     256.365E-03     338.069E-06     113.378E-03    -56.5507E-03    -56.8234E-03    -55.9943E-03     112.674E-03    -56.6758E-03     21.7713E-03    -10.9519E+06    -34.3669E+06    -85.6882E+06    -34.4472E+06    -85.6079E+06    -10.9519E+06     1.05795E+06         33.5042
            1441     11.3412E-03     78.4151E-03     255.669E-03     236.473E-03    -851.705E-03     236.395E-03    -851.628E-03     255.669E-03    -8.54611E-03     113.243E-03    -56.5855E-03    -56.8046E-03    -55.8485E-03     112.309E-03    -56.6079E-03     25.0676E-03    -3.52619E+06    -20.2937E+06    -45.7218E+06    -32.6651E+06    -27.7303E+06    -9.14630E+06     1.20692E+06         35.1384
            1442     12.2872E-03     78.4434E-03     253.808E-03     231.119E-03    -844.196E-03     230.320E-03    -843.397E-03     253.808E-03     25.0234E-03     113.644E-03    -56.4861E-03    -57.3821E-03    -55.5308E-03     111.794E-03    -56.4875E-03     34.5062E-03     59.2127E+06    -10.3142E+06    -29.9875E+06    -29.9074E+06     59.1326E+06    -10.3142E+06     1.34209E+06         37.3550
            1443     13.2321E-03     78.4909E-03     263.266E-03     247.295E-03    -871.361E-03     256.342E-03    -869.949E-03     252.807E-03    -3.16785E-03     116.044E-03    -56.4657E-03    -59.7535E-03    -55.1507E-03     111.441E-03    -56.4657E-03     54.8412E-03     127.753E+06     9.08291E+06    -27.5147E+06    -27.4850E+06     127.723E+06     9.08291E+06     1.72485E+06         40.2477
            1444     14.1799E-03     78.5633E-03     271.397E-03     249.039E-03    -880.836E-03     266.647E-03    -880.062E-03     253.015E-03    -31.5251E-03     120.035E-03    -56.6744E-03    -63.4170E-03    -55.0326E-03     111.650E-03    -56.6744E-03     76.2118E-03     149.494E+06     64.5723E+06    -23.4032E+06    -23.3620E+06     149.453E+06     64.5723E+06     1.32349E+06         43.7971
            1445     15.1252E-03     78.6586E-03     267.525E-03     249.202E-03    -878.921E-03     263.354E-03    -878.726E-03     253.178E-03    -6.97073E-03     124.137E-03    -56.8704E-03    -67.2997E-03    -54.9779E-03     111.815E-03    -56.8704E-03     93.6484E-03     162.845E+06     110.889E+06    -15.9829E+06    -15.9318E+06     162.794E+06     110.889E+06     675.727E+03         47.5492
            1446     16.0709E-03     78.7684E-03     272.237E-03     253.376E-03    -884.408E-03     272.048E-03    -884.219E-03     253.376E-03    -1.78059E-03     120.225E-03    -56.8761E-03    -63.3832E-03    -54.6966E-03     111.538E-03    -56.8761E-03     73.3745E-03     169.396E+06     126.201E+06    -7.71489E+06    -7.67894E+06     169.360E+06     126.201E+06     46.5449E+03         50.6829
            1447     945.585E-06     79.4281E-03         1.41954    -225.509E-03        -1.55125    -915.227E-03    -833.773E-03         1.39178    -269.356E-03     113.641E-03    -56.5697E-03    -57.0734E-03    -56.9511E-03     113.641E-03    -56.6917E-03     238.248E-06    -61.7536E+06    -69.5055E+06    -239.845E+06    -68.0174E+06    -239.824E+06    -63.2625E+06     1.10215E+06         28.4864
            1448     1.88965E-03     79.4295E-03     272.508E-03     232.065E-03    -863.431E-03     255.768E-03    -856.747E-03     242.122E-03     52.7358E-03     113.752E-03    -56.7474E-03    -57.0173E-03    -56.8797E-03     113.750E-03    -56.8828E-03     930.630E-06    -55.6039E+06    -64.6394E+06    -237.378E+06    -64.6612E+06    -237.357E+06    -55.6039E+06     994.799E+03         28.6119
            1449     2.83498E-03     79.4311E-03     251.756E-03     227.710E-03    -834.626E-03     232.924E-03    -831.802E-03     243.718E-03    -19.7432E-03     113.861E-03    -56.8420E-03    -57.0271E-03    -56.9320E-03     113.852E-03    -56.9286E-03     2.30556E-03    -50.8444E+06    -60.6589E+06    -233.926E+06    -60.6720E+06    -233.913E+06    -50.8444E+06     796.028E+03         28.7808
            1450     3.77926E-03     79.4344E-03     263.071E-03     236.009E-03    -850.086E-03     254.383E-03    -848.661E-03     243.272E-03     46.9464E-03     113.856E-03    -56.8195E-03    -57.0004E-03    -56.8349E-03     113.835E-03    -56.9643E-03     3.68162E-03    -42.3548E+06    -56.9571E+06    -227.684E+06    -56.9936E+06    -227.648E+06    -42.3548E+06     1.55042E+06         28.9800
            1451     4.72474E-03     79.4383E-03     267.787E-03     241.637E-03    -863.794E-03     262.785E-03    -863.433E-03     246.278E-03     10.6600E-03     113.705E-03    -56.6758E-03    -56.9759E-03    -56.6410E-03     113.670E-03    -56.9759E-03     4.83823E-03    -33.6098E+06    -54.5037E+06    -223.331E+06    -54.5450E+06    -223.290E+06    -33.6098E+06     2.02862E+06         29.2481
            1452     5.67038E-03     79.4438E-03     261.611E-03     242.030E-03    -858.571E-03     254.924E-03    -858.306E-03     248.453E-03    -6.87892E-03     113.790E-03    -56.7887E-03    -56.9856E-03    -56.7298E-03     113.732E-03    -56.9856E-03     6.25713E-03    -27.9192E+06    -50.9642E+06    -219.863E+06    -51.0153E+06    -219.812E+06    -27.9192E+06     2.62236E+06         29.6174
            1453     6.61475E-03     79.4512E-03     262.772E-03     247.002E-03    -864.269E-03     259.777E-03    -863.970E-03     249.697E-03     18.3965E-03     113.827E-03    -56.8075E-03    -57.0252E-03    -56.7116E-03     113.731E-03    -57.0252E-03     8.04218E-03    -20.9650E+06    -45.3978E+06    -209.123E+06    -45.4646E+06    -209.056E+06    -20.9650E+06     3.00390E+06         30.0885
            1454     7.56000E-03     79.4609E-03     264.390E-03     248.293E-03    -867.340E-03     261.322E-03    -867.009E-03     251.029E-03     21.4635E-03     113.503E-03    -56.5148E-03    -56.9523E-03    -56.3627E-03     113.351E-03    -56.9523E-03     10.0795E-03    -15.4514E+06    -41.5304E+06    -188.273E+06    -41.5768E+06    -188.227E+06    -15.4514E+06     1.95487E+06         30.6739
            1455     8.50591E-03     79.4727E-03     260.278E-03     247.036E-03    -859.779E-03     255.088E-03    -859.376E-03     251.824E-03     17.5677E-03     113.404E-03    -56.5053E-03    -56.8378E-03    -56.3197E-03     113.160E-03    -56.7795E-03     12.7786E-03    -15.8171E+06    -39.3116E+06    -160.170E+06    -39.3328E+06    -160.148E+06    -15.8171E+06     142.325E+03         31.3968
            1456     9.45101E-03     79.4882E-03     259.320E-03     240.816E-03    -851.975E-03     247.904E-03    -851.528E-03     251.785E-03     31.4979E-03     113.625E-03    -56.6815E-03    -56.8827E-03    -56.4200E-03     113.189E-03    -56.7083E-03     16.9966E-03    -14.0086E+06    -37.1629E+06    -128.582E+06    -37.1774E+06    -128.568E+06    -14.0086E+06     152.366E+03         32.3034
            1457     10.3953E-03     79.5085E-03     256.528E-03     237.191E-03    -846.822E-03     242.328E-03    -846.557E-03     251.127E-03     25.8510E-03     113.514E-03    -56.6734E-03    -56.8732E-03    -56.1416E-03     112.803E-03    -56.6944E-03     21.8509E-03    -10.7397E+06    -34.3956E+06    -85.6181E+06    -34.4755E+06    -85.5382E+06    -10.7397E+06     860.091E+03         33.5045
            1458     11.3414E-03     79.5348E-03     250.003E-03     235.695E-03    -840.703E-03     235.507E-03    -840.515E-03     250.003E-03     14.3939E-03     113.292E-03    -56.6068E-03    -56.8433E-03    -55.8758E-03     112.346E-03    -56.6277E-03     25.2706E-03    -3.17103E+06    -19.9153E+06    -44.4110E+06    -31.2898E+06    -27.3640E+06    -8.84349E+06     469.612E+03         35.1417
            1459     12.2863E-03     79.5633E-03     249.967E-03     237.982E-03    -842.462E-03     238.941E-03    -842.326E-03     248.872E-03     13.2685E-03     113.609E-03    -56.4912E-03    -57.3383E-03    -55.4731E-03     111.744E-03    -56.4912E-03     34.5933E-03     57.5972E+06    -12.2066E+06    -29.3145E+06    -29.3021E+06     57.5849E+06    -12.2066E+06     693.854E+03         37.3593
            1460     13.2333E-03     79.6098E-03     252.240E-03     241.849E-03    -847.100E-03     245.373E-03    -846.580E-03     248.197E-03    -14.1900E-03     115.868E-03    -56.4614E-03    -59.5938E-03    -54.9262E-03     111.201E-03    -56.4614E-03     55.1680E-03     127.046E+06     7.68441E+06    -26.9682E+06    -26.9392E+06     127.017E+06     7.68441E+06     1.70576E+06         40.2519
            1461     14.1778E-03     79.6833E-03     250.390E-03     234.788E-03    -838.294E-03     236.995E-03    -837.552E-03     247.442E-03    -2.76034E-03     119.991E-03    -56.6594E-03    -63.3975E-03    -54.9235E-03     111.517E-03    -56.6594E-03     76.5914E-03     150.721E+06     65.0385E+06    -22.4105E+06    -22.3739E+06     150.684E+06     65.0385E+06     1.50750E+06         43.8022
            1462     15.1260E-03     79.7765E-03     248.638E-03     236.037E-03    -837.305E-03     237.772E-03    -836.774E-03     246.372E-03     5.48439E-03     124.064E-03    -56.8472E-03    -67.2709E-03    -54.9756E-03     111.769E-03    -56.8472E-03     93.5611E-03     163.139E+06     111.089E+06    -15.5526E+06    -15.5266E+06     163.113E+06     111.089E+06     129.205E+03         47.5568
            1463     16.0724E-03     79.8902E-03     260.017E-03     238.337E-03    -853.935E-03     252.234E-03    -853.608E-03     245.793E-03    -3.22238E-03     120.343E-03    -56.8653E-03    -63.5352E-03    -54.8848E-03     111.693E-03    -56.8653E-03     73.4213E-03     169.456E+06     126.170E+06    -7.31649E+06    -7.30601E+06     169.446E+06     126.170E+06    -392.256E+03         50.6944
            1464     943.812E-06     80.5484E-03         1.54641    -290.246E-03        -1.60478        -1.03201    -863.016E-03         1.54641    -330.665E-03     114.006E-03    -56.7844E-03    -57.2384E-03    -57.0931E-03     114.005E-03    -56.9288E-03     456.598E-06    -63.5687E+06    -69.9358E+06    -241.200E+06    -67.3207E+06    -241.173E+06    -66.2111E+06     221.861E+03         28.4740
            1465     1.88964E-03     80.5481E-03     246.398E-03     208.548E-03    -800.577E-03     201.979E-03    -794.008E-03     246.398E-03     42.1895E-03     113.706E-03    -56.7397E-03    -57.0034E-03    -56.7365E-03     113.703E-03    -57.0034E-03     1.14660E-03    -55.8463E+06    -64.3947E+06    -237.785E+06    -63.3057E+06    -237.741E+06    -56.9797E+06     1.09611E+06         28.6030
            1466     2.83462E-03     80.5506E-03     248.945E-03     213.431E-03    -800.509E-03     226.441E-03    -798.583E-03     234.009E-03    -42.2313E-03     113.611E-03    -56.6805E-03    -56.9434E-03    -56.6704E-03     113.601E-03    -56.9434E-03     2.54835E-03    -50.0773E+06    -61.1007E+06    -234.126E+06    -61.1302E+06    -234.096E+06    -50.0773E+06     1.42622E+06         28.7748
            1467     3.78022E-03     80.5534E-03     277.558E-03     230.608E-03    -846.106E-03     270.698E-03    -845.597E-03     236.958E-03     38.7282E-03     113.730E-03    -56.7664E-03    -56.9218E-03    -56.7478E-03     113.711E-03    -56.9218E-03     3.51768E-03    -43.4672E+06    -58.8885E+06    -230.623E+06    -58.9369E+06    -230.575E+06    -43.4672E+06     2.43329E+06         28.9768
            1468     4.72504E-03     80.5574E-03     282.674E-03     244.864E-03    -869.415E-03     281.630E-03    -868.371E-03     244.864E-03     63.0847E-03     113.829E-03    -56.8012E-03    -56.9533E-03    -56.7685E-03     113.796E-03    -56.9533E-03     4.63789E-03    -34.1483E+06    -54.7974E+06    -224.104E+06    -54.8569E+06    -224.045E+06    -34.1483E+06     3.11559E+06         29.2450
            1469     5.66942E-03     80.5632E-03     260.382E-03     233.167E-03    -840.085E-03     244.478E-03    -839.251E-03     248.236E-03     31.1389E-03     113.840E-03    -56.8199E-03    -56.9864E-03    -56.7606E-03     113.781E-03    -56.9864E-03     6.28833E-03    -27.3850E+06    -50.7908E+06    -219.378E+06    -50.8171E+06    -219.352E+06    -27.3850E+06     1.91393E+06         29.6128
            1470     6.61489E-03     80.5711E-03     247.606E-03     226.504E-03    -820.917E-03     227.373E-03    -820.719E-03     246.539E-03    -184.949E-06     113.734E-03    -56.7640E-03    -57.0026E-03    -56.6676E-03     113.637E-03    -57.0026E-03     8.05816E-03    -23.2210E+06    -46.6645E+06    -209.811E+06    -46.6773E+06    -209.798E+06    -23.2210E+06     935.394E+03         30.0854
            1471     7.55992E-03     80.5799E-03     261.806E-03     240.794E-03    -849.697E-03     255.932E-03    -848.789E-03     245.760E-03    -17.8925E-03     113.607E-03    -56.6396E-03    -56.9347E-03    -56.4873E-03     113.455E-03    -56.9347E-03     10.1055E-03    -17.8593E+06    -41.0398E+06    -186.572E+06    -41.0690E+06    -186.543E+06    -17.8593E+06     592.048E+03         30.6754
            1472     8.50495E-03     80.5918E-03     268.190E-03     247.416E-03    -863.682E-03     267.082E-03    -862.574E-03     247.416E-03    -2.09510E-03     113.455E-03    -56.5669E-03    -56.7970E-03    -56.3210E-03     113.209E-03    -56.7970E-03     12.8210E-03    -14.9227E+06    -36.3427E+06    -158.600E+06    -36.3705E+06    -158.572E+06    -14.9227E+06     29.6835E+03         31.3992
            1473     9.45040E-03     80.6076E-03     253.708E-03     232.595E-03    -833.527E-03     237.826E-03    -832.964E-03     247.914E-03     23.4733E-03     113.477E-03    -56.6119E-03    -56.7928E-03    -56.2686E-03     113.042E-03    -56.7008E-03     16.9870E-03    -13.5788E+06    -33.3178E+06    -129.497E+06    -33.3485E+06    -129.466E+06    -13.5788E+06    -338.500E+03         32.3039
            1474     10.3960E-03     80.6287E-03     246.093E-03     219.903E-03    -811.076E-03     219.517E-03    -810.690E-03     246.093E-03     17.8120E-03     113.531E-03    -56.6546E-03    -56.9009E-03    -56.2027E-03     112.832E-03    -56.6546E-03     21.6719E-03    -11.1881E+06    -30.6770E+06    -85.7572E+06    -30.7176E+06    -85.7167E+06    -11.1881E+06    -96.2168E+03         33.5051
            1475     11.3409E-03     80.6540E-03     247.414E-03     232.684E-03    -824.456E-03     235.292E-03    -824.030E-03     244.380E-03     4.82120E-03     113.326E-03    -56.6032E-03    -56.8917E-03    -55.9238E-03     112.358E-03    -56.6032E-03     25.5299E-03    -3.28700E+06    -18.3401E+06    -42.9341E+06    -28.6565E+06    -27.1273E+06    -8.77740E+06     201.615E+03         35.1438
            1476     12.2872E-03     80.6833E-03     248.077E-03     242.794E-03    -835.994E-03     246.510E-03    -835.581E-03     243.948E-03     3.80804E-03     113.515E-03    -56.4936E-03    -57.2663E-03    -55.4279E-03     111.676E-03    -56.4936E-03     34.5104E-03     56.4359E+06    -12.4040E+06    -27.7544E+06    -27.7406E+06     56.4221E+06    -12.4040E+06     843.466E+03         37.3632
            1477     13.2324E-03     80.7281E-03     244.647E-03     235.584E-03    -824.033E-03     235.999E-03    -823.352E-03     243.552E-03    -13.5986E-03     115.723E-03    -56.4648E-03    -59.4562E-03    -54.8084E-03     111.075E-03    -56.4648E-03     54.8556E-03     126.179E+06     7.16955E+06    -25.9426E+06    -25.9113E+06     126.148E+06     7.16955E+06     1.62294E+06         40.2575
            1478     14.1811E-03     80.8032E-03     245.061E-03     231.063E-03    -820.748E-03     232.447E-03    -819.705E-03     242.633E-03     3.19821E-03     119.988E-03    -56.6690E-03    -63.3989E-03    -54.8650E-03     111.454E-03    -56.6690E-03     76.8754E-03     151.205E+06     65.2348E+06    -21.5808E+06    -21.5492E+06     151.174E+06     65.2348E+06     1.20904E+06         43.8089
            1479     15.1249E-03     80.8964E-03     243.974E-03     227.298E-03    -817.588E-03     229.036E-03    -816.899E-03     241.547E-03     27.6979E-03     124.120E-03    -56.8621E-03    -67.3381E-03    -55.0420E-03     111.824E-03    -56.8621E-03     93.6052E-03     164.490E+06     112.074E+06    -14.5146E+06    -14.4934E+06     164.469E+06     112.074E+06    -19.8889E+03         47.5654
            1480     16.0719E-03     81.0083E-03     240.070E-03     215.201E-03    -806.971E-03     214.533E-03    -806.303E-03     240.070E-03     23.3882E-03     120.485E-03    -56.8689E-03    -63.6980E-03    -55.0642E-03     111.851E-03    -56.8689E-03     73.4188E-03     169.767E+06     126.021E+06    -7.34265E+06    -7.32963E+06     169.754E+06     126.021E+06    -129.962E+03         50.7067
            1481     945.664E-06     81.6681E-03         1.63761    -268.211E-03        -1.69662        -1.14460    -801.846E-03         1.61923    -265.660E-03     113.538E-03    -56.5894E-03    -56.9645E-03    -56.7188E-03     113.536E-03    -56.8331E-03     1.16174E-03      -63.02E+06    -68.4236E+06    -240.375E+06    -67.0286E+06    -240.367E+06    -64.4234E+06    -707.496E+03         28.4638
            1482     1.88960E-03     81.6679E-03     263.846E-03     207.253E-03    -805.990E-03     227.087E-03    -797.024E-03     235.046E-03     74.1121E-03     113.804E-03    -56.7387E-03    -57.1068E-03    -56.9751E-03     113.801E-03    -56.8670E-03     1.44096E-03    -58.3898E+06    -66.0235E+06    -239.791E+06    -64.9178E+06    -239.763E+06    -59.5232E+06     544.514E+03         28.6017
            1483     2.83496E-03     81.6694E-03     261.551E-03     231.481E-03    -824.181E-03     254.909E-03    -822.254E-03     236.197E-03    -5.18872E-03     113.717E-03    -56.7188E-03    -57.0432E-03    -56.8186E-03     113.709E-03    -56.9349E-03     2.35286E-03    -52.5580E+06    -61.1704E+06    -235.586E+06    -61.2151E+06    -235.541E+06    -52.5580E+06     2.69475E+06         28.7732
            1484     3.77975E-03     81.6730E-03     267.586E-03     232.949E-03    -827.676E-03     257.597E-03    -826.110E-03     241.371E-03     30.1054E-03     113.655E-03    -56.7165E-03    -56.9459E-03    -56.7011E-03     113.640E-03    -56.9459E-03     3.21321E-03    -45.1050E+06    -57.5743E+06    -232.069E+06    -57.6108E+06    -232.033E+06    -45.1050E+06     2.29340E+06         28.9726
            1485     4.72473E-03     81.6769E-03     259.721E-03     228.875E-03    -820.487E-03     243.743E-03    -819.055E-03     243.420E-03     20.8642E-03     113.766E-03    -56.7478E-03    -56.9628E-03    -56.7145E-03     113.732E-03    -56.9628E-03     4.64234E-03    -35.0636E+06    -53.2997E+06    -224.823E+06    -53.3370E+06    -224.786E+06    -35.0636E+06     2.29044E+06         29.2374
            1486     5.67016E-03     81.6828E-03     250.561E-03     223.772E-03    -810.137E-03     230.664E-03    -808.883E-03     242.415E-03     4.02558E-03     113.754E-03    -56.7506E-03    -56.9791E-03    -56.6897E-03     113.694E-03    -56.9791E-03     6.39739E-03    -26.7461E+06    -48.9378E+06    -218.305E+06    -48.9667E+06    -218.276E+06    -26.7461E+06     2.02332E+06         29.6035
            1487     6.61505E-03     81.6901E-03     245.090E-03     223.080E-03    -807.343E-03     227.143E-03    -806.737E-03     240.420E-03    -40.1043E-03     113.626E-03    -56.6515E-03    -56.9661E-03    -56.5536E-03     113.529E-03    -56.9661E-03     8.09744E-03    -24.6055E+06    -45.8598E+06    -207.991E+06    -45.8709E+06    -207.980E+06    -24.6055E+06    -118.410E+03         30.0791
            1488     7.56033E-03     81.6994E-03     249.266E-03     224.275E-03    -814.856E-03     233.543E-03    -813.920E-03     239.062E-03    -51.7636E-03     113.644E-03    -56.6749E-03    -56.8851E-03    -56.5094E-03     113.479E-03    -56.8851E-03     10.5167E-03    -21.8929E+06    -41.6009E+06    -185.237E+06    -41.6483E+06    -185.190E+06    -21.8929E+06    -2.20987E+06         30.6742
            1489     8.50524E-03     81.7116E-03     250.814E-03     225.040E-03    -817.927E-03     236.435E-03    -817.004E-03     238.495E-03    -30.5641E-03     113.584E-03    -56.6856E-03    -56.8138E-03    -56.4627E-03     113.323E-03    -56.7753E-03     13.2650E-03    -18.5453E+06    -36.7383E+06    -158.871E+06    -36.8266E+06    -158.783E+06    -18.5453E+06    -2.41748E+06         31.4009
            1490     9.45061E-03     81.7267E-03     247.087E-03     228.094E-03    -815.734E-03     236.788E-03    -815.472E-03     238.131E-03    -11.2147E-03     113.469E-03    -56.6204E-03    -56.7473E-03    -56.2240E-03     113.007E-03    -56.6825E-03     17.4545E-03    -15.8282E+06    -33.1319E+06    -130.273E+06    -33.1951E+06    -130.210E+06    -15.8282E+06    -1.38870E+06         32.3049
            1491     10.3957E-03     81.7480E-03     247.472E-03     225.170E-03    -809.996E-03     234.609E-03    -809.663E-03     237.700E-03    -26.2370E-03     113.461E-03    -56.6239E-03    -56.8170E-03    -56.1058E-03     112.750E-03    -56.6239E-03     21.9035E-03    -12.7509E+06    -30.6447E+06    -86.2865E+06    -30.6883E+06    -86.2429E+06    -12.7509E+06    -552.111E+03         33.5054
            1492     11.3417E-03     81.7730E-03     247.938E-03     231.353E-03    -813.643E-03     240.745E-03    -812.577E-03     237.481E-03    -48.4005E-03     113.354E-03    -56.5797E-03    -56.9448E-03    -55.9871E-03     112.396E-03    -56.5797E-03     25.3961E-03    -4.76540E+06    -18.0012E+06    -43.7947E+06    -29.2310E+06    -28.3208E+06    -9.00953E+06     563.235E+03         35.1449
            1493     12.2867E-03     81.8023E-03     246.106E-03     237.330E-03    -818.452E-03     244.511E-03    -817.185E-03     237.657E-03    -17.1637E-03     113.586E-03    -56.4700E-03    -57.3679E-03    -55.5783E-03     111.797E-03    -56.4700E-03     34.1219E-03     55.9989E+06    -12.6197E+06    -27.8702E+06    -27.8043E+06     55.9329E+06    -12.6197E+06     1.07362E+06         37.3666
            1494     13.2334E-03     81.8475E-03     244.007E-03     234.475E-03    -812.576E-03     239.646E-03    -811.435E-03     237.695E-03    -15.2646E-03     115.788E-03    -56.4542E-03    -59.5072E-03    -55.0140E-03     111.294E-03    -56.4542E-03     53.9699E-03     126.337E+06     5.88002E+06    -25.6889E+06    -25.6727E+06     126.321E+06     5.88002E+06     884.271E+03         40.2634
            1495     14.1778E-03     81.9208E-03     243.686E-03     233.464E-03    -809.141E-03     238.622E-03    -808.028E-03     237.415E-03    -20.9153E-03     119.718E-03    -56.6669E-03    -63.0918E-03    -54.6358E-03     111.262E-03    -56.6669E-03     76.3249E-03     151.440E+06     64.7250E+06    -21.0836E+06    -21.0663E+06     151.422E+06     64.7250E+06     673.023E+03         43.8174
            1496     15.1269E-03     82.0166E-03     239.174E-03     227.355E-03    -802.782E-03     229.443E-03    -802.442E-03     236.747E-03     21.8933E-03     124.052E-03    -56.8576E-03    -67.2457E-03    -54.9743E-03     111.780E-03    -56.8576E-03     93.5174E-03     164.346E+06     111.438E+06    -14.9290E+06    -14.8932E+06     164.310E+06     111.438E+06     473.958E+03         47.5766
            1497     16.0724E-03     82.1277E-03     239.740E-03     217.806E-03    -795.267E-03     221.379E-03    -794.763E-03     235.663E-03     26.2755E-03     120.631E-03    -56.8830E-03    -63.8142E-03    -55.2441E-03     112.061E-03    -56.8830E-03     73.2705E-03     170.084E+06     125.838E+06    -7.28117E+06    -7.25502E+06     170.058E+06     125.838E+06     535.760E+03         50.7209
            1498     945.369E-06     82.7866E-03         1.70833    -239.221E-03        -1.79378        -1.21953    -789.483E-03         1.68433    -191.332E-03     113.217E-03    -56.2582E-03    -56.9745E-03    -56.7790E-03     113.216E-03    -56.4525E-03     854.549E-06    -63.5745E+06    -69.1422E+06    -240.873E+06    -68.3119E+06    -240.827E+06    -64.4503E+06     1.97079E+06         28.4562
            1499     1.89071E-03     82.7879E-03     275.073E-03     239.448E-03    -835.537E-03     266.229E-03    -826.693E-03     239.448E-03     65.9801E-03     113.803E-03    -56.7342E-03    -57.0864E-03    -57.0515E-03     113.800E-03    -56.7664E-03     1.25183E-03    -57.3778E+06    -66.3498E+06    -241.252E+06    -66.3848E+06    -241.217E+06    -57.3778E+06     750.243E+03         28.5961
            1500     2.83439E-03     82.7891E-03     256.800E-03     229.634E-03    -806.579E-03     239.316E-03    -804.629E-03     245.169E-03    -26.7824E-03     113.956E-03    -56.8510E-03    -57.0899E-03    -57.0319E-03     113.948E-03    -56.9013E-03     2.23396E-03    -52.5701E+06    -60.4450E+06    -237.016E+06    -60.4762E+06    -236.985E+06    -52.5701E+06     -50.557E+03         28.7656
            1501     3.77951E-03     82.7921E-03     239.968E-03     208.004E-03    -770.533E-03     206.329E-03    -768.859E-03     239.968E-03    -19.0914E-03     113.669E-03    -56.6762E-03    -56.9489E-03    -56.6590E-03     113.652E-03    -56.9489E-03     3.36609E-03    -45.4448E+06    -55.2483E+06    -232.263E+06    -55.2789E+06    -232.233E+06    -45.4448E+06     856.025E+03         28.9647
            1502     4.72499E-03     82.7961E-03     235.602E-03     210.746E-03    -773.353E-03     210.738E-03    -771.188E-03     233.445E-03    -7.97764E-03     113.626E-03    -56.5871E-03    -56.9657E-03    -56.5503E-03     113.589E-03    -56.9657E-03     4.91040E-03    -35.1779E+06    -52.0768E+06    -225.707E+06    -52.0975E+06    -225.686E+06    -35.1779E+06     1.47869E+06         29.2323
            1503     5.66984E-03     82.8022E-03     241.633E-03     225.051E-03    -793.811E-03     233.764E-03    -792.211E-03     231.320E-03     11.6982E-03     113.668E-03    -56.6722E-03    -56.9555E-03    -56.6111E-03     113.607E-03    -56.9555E-03     6.42194E-03    -27.2866E+06    -47.3088E+06    -217.523E+06    -47.3237E+06    -217.508E+06    -27.2866E+06     855.050E+03         29.6007
            1504     6.61518E-03     82.8094E-03     241.766E-03     231.377E-03    -802.843E-03     240.443E-03    -802.207E-03     232.065E-03    -41.3208E-03     113.596E-03    -56.6306E-03    -56.9433E-03    -56.5332E-03     113.499E-03    -56.9433E-03     8.06578E-03    -24.4755E+06    -42.2554E+06    -204.509E+06    -42.2736E+06    -204.490E+06    -24.4755E+06    -962.663E+03         30.0770
            1505     7.56049E-03     82.8187E-03     233.310E-03     217.315E-03    -784.340E-03     218.451E-03    -783.930E-03     231.764E-03    -39.1589E-03     113.636E-03    -56.6568E-03    -56.8990E-03    -56.5233E-03     113.464E-03    -56.8604E-03     10.7069E-03    -21.9130E+06    -39.1499E+06    -182.819E+06    -39.2484E+06    -182.721E+06    -21.9130E+06    -3.40476E+06         30.6729
            1506     8.50575E-03     82.8311E-03     229.681E-03     209.304E-03    -771.751E-03     208.535E-03    -770.982E-03     229.681E-03     2.73204E-03     113.707E-03    -56.7262E-03    -56.8888E-03    -56.6206E-03     113.456E-03    -56.7441E-03     13.0271E-03    -19.6207E+06    -36.8538E+06    -159.402E+06    -36.9977E+06    -159.258E+06    -19.6207E+06    -4.10129E+06         31.4032
            1507     9.45072E-03     82.8457E-03     233.742E-03     221.683E-03    -785.440E-03     225.958E-03    -784.270E-03     228.298E-03     39.8840E-03     113.542E-03    -56.6498E-03    -56.8053E-03    -56.3338E-03     113.109E-03    -56.6883E-03     16.8514E-03    -17.3261E+06    -35.1679E+06    -131.869E+06    -35.2516E+06    -131.785E+06    -17.3261E+06    -2.39401E+06         32.3097
            1508     10.3965E-03     82.8677E-03     245.142E-03     228.764E-03    -800.552E-03     244.293E-03    -799.703E-03     228.764E-03     10.8443E-03     113.352E-03    -56.6207E-03    -56.7548E-03    -56.0172E-03     112.653E-03    -56.6592E-03     21.6843E-03    -14.6059E+06    -33.1644E+06    -87.3313E+06    -33.2053E+06    -87.2904E+06    -14.6059E+06    -1.02228E+06         33.5091
            1509     11.3412E-03     82.8931E-03     246.317E-03     229.962E-03    -801.162E-03     245.427E-03    -800.272E-03     229.962E-03    -34.8807E-03     113.268E-03    -56.6022E-03    -56.8463E-03    -55.8931E-03     112.315E-03    -56.6022E-03     25.3237E-03    -6.57953E+06    -20.0257E+06    -44.9874E+06    -30.5424E+06    -30.1855E+06    -10.8648E+06    -335.450E+03         35.1486
            1510     12.2870E-03     82.9225E-03     242.244E-03     230.819E-03    -799.256E-03     241.160E-03    -798.173E-03     230.819E-03    -5.62311E-03     113.760E-03    -56.4749E-03    -57.5252E-03    -55.6931E-03     111.928E-03    -56.4749E-03     34.4888E-03     55.6371E+06    -13.4879E+06    -27.8727E+06    -27.7670E+06     55.5314E+06    -13.4879E+06     352.869E+03         37.3713
            1511     13.2317E-03     82.9669E-03     241.064E-03     229.854E-03    -795.694E-03     238.879E-03    -794.872E-03     231.216E-03    -2.29724E-03     116.194E-03    -56.4479E-03    -59.9228E-03    -55.4406E-03     111.712E-03    -56.4479E-03     54.1786E-03     127.447E+06     5.87819E+06    -25.1085E+06    -25.0966E+06     127.435E+06     5.87819E+06     520.284E+03         40.2687
            1512     14.1794E-03     83.0402E-03     234.747E-03     223.311E-03    -779.488E-03     226.653E-03    -778.986E-03     230.903E-03    -30.3780E-03     119.885E-03    -56.6760E-03    -63.2532E-03    -54.9912E-03     111.623E-03    -56.6760E-03     75.5535E-03     151.808E+06     63.8504E+06    -21.6254E+06    -21.6081E+06     151.790E+06     63.8504E+06     445.452E+03         43.8247
            1513     15.1249E-03     83.1341E-03     236.122E-03     223.429E-03    -780.583E-03     229.315E-03    -780.448E-03     230.102E-03    -14.9939E-03     123.899E-03    -56.8862E-03    -67.0642E-03    -54.7403E-03     111.575E-03    -56.8862E-03     93.4934E-03     164.687E+06     110.839E+06    -15.3948E+06    -15.3680E+06     164.660E+06     110.839E+06     1.14217E+06         47.5884
            1514     16.0709E-03     83.2512E-03     244.761E-03     229.437E-03    -791.836E-03     244.195E-03    -791.713E-03     229.880E-03    -10.5052E-03     120.096E-03    -56.8874E-03    -63.2648E-03    -54.6047E-03     111.436E-03    -56.8874E-03     72.9593E-03     170.090E+06     125.065E+06    -7.58849E+06    -7.57224E+06     170.073E+06     125.065E+06     1.07862E+06         50.7371
            1515     944.726E-06     83.9051E-03         1.74642    -239.580E-03        -1.82885        -1.26077    -796.057E-03         1.73481    -301.496E-03     113.810E-03    -56.4395E-03    -57.3662E-03    -57.2319E-03     113.809E-03    -56.5735E-03     359.539E-06    -66.0052E+06    -70.4607E+06    -244.096E+06    -69.9124E+06    -244.039E+06     -66.611E+06     1.07521E+06         28.4389
            1516     1.88967E-03     83.9072E-03     252.348E-03     234.768E-03    -803.606E-03     245.314E-03    -801.337E-03     239.533E-03     9.38560E-03     113.582E-03    -56.5643E-03    -57.0143E-03    -56.6419E-03     113.579E-03    -56.9340E-03     1.18200E-03    -53.6485E+06    -63.7049E+06    -239.945E+06    -63.7394E+06    -239.910E+06    -53.6485E+06     684.183E+03         28.5723
            1517     2.83513E-03     83.9093E-03     238.342E-03     214.892E-03    -768.725E-03     214.201E-03    -766.822E-03     237.129E-03    -5.26785E-03     113.546E-03    -56.5611E-03    -56.9575E-03    -56.6329E-03     113.537E-03    -56.8773E-03     2.34620E-03    -47.7774E+06    -60.1056E+06    -236.512E+06    -60.1236E+06    -236.494E+06    -47.7774E+06    -818.952E+03         28.7490
            1518     3.77983E-03     83.9110E-03     229.307E-03     199.168E-03    -748.595E-03     197.536E-03    -746.963E-03     229.307E-03    -4.08140E-03     113.651E-03    -56.6521E-03    -56.9273E-03    -56.7097E-03     113.628E-03    -56.8466E-03     3.82506E-03    -44.4600E+06    -56.7572E+06    -233.749E+06    -56.7846E+06    -233.721E+06    -44.4600E+06    -640.776E+03         28.9595
            1519     4.72495E-03     83.9155E-03     231.288E-03     211.877E-03    -764.607E-03     216.858E-03    -762.844E-03     224.544E-03    -1.25738E-03     113.736E-03    -56.6804E-03    -56.9690E-03    -56.7194E-03     113.694E-03    -56.8883E-03     5.28189E-03    -35.5450E+06    -50.9350E+06    -225.594E+06    -50.9632E+06    -225.566E+06    -35.5450E+06    -638.928E+03         29.2350
            1520     5.67041E-03     83.9214E-03     238.466E-03     224.799E-03    -785.289E-03     237.308E-03    -784.131E-03     224.799E-03     21.9893E-03     113.622E-03    -56.6706E-03    -56.9039E-03    -56.6095E-03     113.561E-03    -56.9039E-03     6.41329E-03    -28.5921E+06    -45.0738E+06    -215.535E+06    -45.1207E+06    -215.488E+06    -28.5921E+06    -2.04091E+06         29.6049
            1521     6.61549E-03     83.9287E-03     232.827E-03     220.817E-03    -776.169E-03     227.133E-03    -775.563E-03     225.904E-03    -878.553E-06     113.637E-03    -56.6940E-03    -56.9386E-03    -56.6257E-03     113.542E-03    -56.9115E-03     8.00103E-03    -25.6532E+06    -40.3389E+06    -202.437E+06    -40.4198E+06    -202.356E+06    -25.6532E+06    -3.17765E+06         30.0787
            1522     7.56077E-03     83.9376E-03     226.755E-03     216.399E-03    -763.400E-03     217.048E-03    -762.721E-03     225.427E-03    -4.74967E-03     113.771E-03    -56.7789E-03    -56.9273E-03    -56.6820E-03     113.604E-03    -56.8569E-03     10.5591E-03    -22.1851E+06    -37.9087E+06    -181.141E+06    -38.0043E+06    -181.046E+06    -22.1851E+06    -3.24673E+06         30.6723
            1523     8.50534E-03     83.9514E-03     225.789E-03     216.995E-03    -761.214E-03     217.373E-03    -760.264E-03     224.461E-03     22.3237E-03     113.740E-03    -56.7581E-03    -56.8765E-03    -56.6225E-03     113.493E-03    -56.7657E-03     12.9269E-03    -18.6687E+06    -37.1173E+06    -159.506E+06    -37.2248E+06    -159.399E+06    -18.6687E+06    -3.22275E+06         31.4045
            1524     9.45018E-03     83.9655E-03     226.707E-03     220.389E-03    -762.389E-03     221.722E-03    -760.928E-03     223.913E-03     52.9193E-03     113.613E-03    -56.6662E-03    -56.8630E-03    -56.3873E-03     113.183E-03    -56.7123E-03     16.7933E-03    -17.5441E+06    -34.7669E+06    -132.890E+06    -34.8752E+06    -132.781E+06    -17.5441E+06    -3.18638E+06         32.3145
            1525     10.3952E-03     83.9871E-03     234.428E-03     224.182E-03    -774.118E-03     233.510E-03    -773.200E-03     224.182E-03     35.0946E-03     113.406E-03    -56.6283E-03    -56.7889E-03    -56.0475E-03     112.704E-03    -56.6667E-03     21.7391E-03    -15.5383E+06    -31.4034E+06    -88.4407E+06    -31.5449E+06    -88.2992E+06    -15.5383E+06    -2.40705E+06         33.5148
            1526     11.3416E-03     84.0125E-03     234.850E-03     224.542E-03    -778.162E-03     234.128E-03    -777.821E-03     224.923E-03     6.82465E-03     113.160E-03    -56.6052E-03    -56.7058E-03    -55.7627E-03     112.217E-03    -56.6052E-03     25.1866E-03    -6.35418E+06    -19.9476E+06    -45.4486E+06    -29.1750E+06    -30.9940E+06    -11.5814E+06    -1.44919E+06         35.1539
            1527     12.2873E-03     84.0413E-03     231.267E-03     221.687E-03    -771.570E-03     227.311E-03    -771.185E-03     225.257E-03     9.12430E-03     113.706E-03    -56.4886E-03    -57.4647E-03    -55.6084E-03     111.850E-03    -56.4886E-03     34.6084E-03     54.9160E+06    -13.6840E+06    -27.3670E+06    -27.3048E+06     54.8539E+06    -13.6840E+06    -684.477E+03         37.3763
            1528     13.2334E-03     84.0879E-03     228.396E-03     215.708E-03    -760.142E-03     218.878E-03    -759.776E-03     224.861E-03     10.8834E-03     116.336E-03    -56.4561E-03    -60.1012E-03    -55.5766E-03     111.811E-03    -56.4561E-03     54.5728E-03     126.207E+06     6.76657E+06    -25.5638E+06    -25.5380E+06     126.181E+06     6.76657E+06     194.886E+03         40.2736
            1529     14.1767E-03     84.1597E-03     226.672E-03     212.806E-03    -752.645E-03     215.425E-03    -752.533E-03     223.940E-03    -14.0965E-03     120.334E-03    -56.6859E-03    -63.7364E-03    -55.4300E-03     112.027E-03    -56.6859E-03     75.9422E-03     152.121E+06     63.9940E+06    -21.9373E+06    -21.9119E+06     152.096E+06     63.9940E+06     1.57795E+06         43.8313
            1530     15.1235E-03     84.2541E-03     231.898E-03     215.466E-03    -759.054E-03     224.057E-03    -758.893E-03     223.146E-03    -18.0534E-03     124.078E-03    -56.9059E-03    -67.2467E-03    -54.6732E-03     111.504E-03    -56.9059E-03     94.4088E-03     165.442E+06     109.846E+06    -15.4374E+06    -15.4161E+06     165.421E+06     109.846E+06     1.78356E+06         47.6002
            1531     16.0723E-03     84.3677E-03     233.530E-03     215.017E-03    -761.504E-03     225.648E-03    -761.331E-03     222.726E-03    -11.1703E-03     119.810E-03    -56.8964E-03    -62.9852E-03    -54.1216E-03     110.946E-03    -56.8964E-03     73.4845E-03     170.170E+06     123.805E+06    -8.16831E+06    -8.16092E+06     170.163E+06     123.805E+06     522.027E+03         50.7533
            1532     944.313E-06     85.0258E-03         1.77859    -196.999E-03        -1.88629        -1.35249    -709.997E-03         1.75778    -413.746E-03     113.932E-03    -56.6060E-03    -57.2980E-03    -57.0069E-03     113.931E-03    -56.8959E-03     391.174E-06    -66.4936E+06    -69.3357E+06    -242.834E+06    -69.3741E+06    -242.796E+06    -66.4936E+06    -2.36468E+06         28.4205
            1533     1.88933E-03     85.0263E-03     250.469E-03     206.620E-03    -766.802E-03     245.205E-03    -766.303E-03     211.385E-03    -21.4424E-03     113.351E-03    -56.4214E-03    -56.9169E-03    -56.4167E-03     113.346E-03    -56.9169E-03     1.65360E-03    -57.7880E+06    -64.4090E+06    -241.810E+06    -64.4357E+06    -241.784E+06    -57.7880E+06     25.2632E+03         28.5531
            1534     2.83529E-03     85.0276E-03     241.687E-03     214.834E-03    -771.116E-03     232.901E-03    -769.180E-03     221.683E-03     43.5254E-03     113.222E-03    -56.4231E-03    -56.8081E-03    -56.4142E-03     113.213E-03    -56.8081E-03     2.42535E-03    -48.1152E+06    -60.2281E+06    -235.726E+06    -60.2401E+06    -235.714E+06    -48.1152E+06     962.231E+03         28.7334
            1535     3.78112E-03     85.0306E-03     224.103E-03     213.825E-03    -755.491E-03     213.083E-03    -753.019E-03     222.374E-03     24.2693E-03     113.609E-03    -56.6893E-03    -56.8778E-03    -56.7801E-03     113.588E-03    -56.7663E-03     3.58527E-03    -41.9710E+06    -56.1109E+06    -231.365E+06    -56.1512E+06    -231.325E+06    -41.9710E+06    -1.82756E+06         28.9537
            1536     4.72550E-03     85.0352E-03     225.314E-03     212.159E-03    -757.946E-03     215.989E-03    -757.188E-03     220.727E-03    -24.1680E-03     113.739E-03    -56.7724E-03    -56.9063E-03    -56.8453E-03     113.700E-03    -56.7947E-03     5.07020E-03    -38.5430E+06    -51.8601E+06    -224.498E+06    -51.9469E+06    -224.412E+06    -38.5430E+06    -3.69555E+06         29.2361
            1537     5.67004E-03     85.0406E-03     228.170E-03     218.559E-03    -763.551E-03     225.833E-03    -763.316E-03     220.661E-03     8.33542E-03     113.646E-03    -56.7472E-03    -56.8879E-03    -56.7360E-03     113.585E-03    -56.8380E-03     6.40130E-03    -34.1029E+06    -48.2638E+06    -213.300E+06    -48.3742E+06    -213.189E+06    -34.1029E+06    -4.14592E+06         29.6060
            1538     6.61552E-03     85.0477E-03     224.279E-03     216.538E-03    -755.799E-03     219.292E-03    -755.212E-03     220.938E-03     14.5626E-03     113.779E-03    -56.8056E-03    -56.9947E-03    -56.8239E-03     113.677E-03    -56.8741E-03     8.27289E-03    -30.1499E+06    -45.1916E+06    -201.496E+06    -45.3432E+06    -201.344E+06    -30.1499E+06    -4.82481E+06         30.0790
            1539     7.55989E-03     85.0579E-03     222.038E-03     211.605E-03    -748.116E-03     212.593E-03    -747.356E-03     220.291E-03    -3.52451E-03     113.825E-03    -56.8328E-03    -56.9221E-03    -56.7389E-03     113.656E-03    -56.8467E-03     10.6593E-03    -27.0520E+06    -41.6569E+06    -181.330E+06    -41.8289E+06    -181.158E+06    -27.0520E+06    -4.38745E+06         30.6727
            1540     8.50532E-03     85.0704E-03     221.094E-03     214.689E-03    -745.651E-03     215.430E-03    -744.817E-03     219.520E-03     10.3668E-03     113.523E-03    -56.6243E-03    -56.7800E-03    -56.3796E-03     113.274E-03    -56.7752E-03     12.9759E-03    -22.0515E+06    -37.8518E+06    -159.033E+06    -38.0061E+06    -158.879E+06    -22.0515E+06    -3.82030E+06         31.4048
            1541     9.45093E-03     85.0854E-03     226.293E-03     218.936E-03    -753.124E-03     224.973E-03    -752.348E-03     219.480E-03     8.55485E-03     113.484E-03    -56.5450E-03    -56.8247E-03    -56.2330E-03     113.030E-03    -56.6821E-03     17.2632E-03    -20.5884E+06    -35.0862E+06    -132.634E+06    -35.2923E+06    -132.428E+06    -20.5884E+06     -4.2211E+06         32.3165
            1542     10.3961E-03     85.1063E-03     228.295E-03     219.999E-03    -757.577E-03     227.843E-03    -757.125E-03     219.999E-03    -5.53086E-03     113.574E-03    -56.6270E-03    -56.9227E-03    -56.1996E-03     112.851E-03    -56.6270E-03     22.1011E-03    -18.9777E+06    -32.3889E+06    -89.6322E+06    -32.7420E+06    -89.2791E+06    -18.9777E+06    -4.12498E+06         33.5183
            1543     11.3409E-03     85.1314E-03     221.743E-03     214.244E-03    -749.089E-03     215.208E-03    -748.324E-03     220.014E-03    -13.1467E-03     113.352E-03    -56.5902E-03    -56.9179E-03    -55.9578E-03     112.392E-03    -56.5902E-03     25.4264E-03    -7.34255E+06    -20.9515E+06    -46.6390E+06    -29.6792E+06    -31.9552E+06    -13.2986E+06    -2.56190E+06         35.1561
            1544     12.2866E-03     85.1607E-03     219.043E-03     205.246E-03    -736.600E-03     204.472E-03    -735.826E-03     219.043E-03    -10.8857E-03     113.678E-03    -56.4889E-03    -57.4565E-03    -55.5917E-03     111.814E-03    -56.4889E-03     34.7284E-03     53.8015E+06    -14.3790E+06    -28.4338E+06    -28.3427E+06     53.7104E+06    -14.3790E+06    -784.512E+03         37.3780
            1545     13.2322E-03     85.2072E-03     224.976E-03     205.309E-03    -739.995E-03     211.760E-03    -739.405E-03     217.935E-03    -3.93708E-03     115.878E-03    -56.4535E-03    -59.6426E-03    -55.0613E-03     111.297E-03    -56.4535E-03     54.6756E-03     123.723E+06     4.44761E+06    -27.4989E+06    -27.4714E+06     123.696E+06     4.44761E+06     239.088E+03         40.2775
            1546     14.1798E-03     85.2808E-03     233.789E-03     213.076E-03    -755.843E-03     228.697E-03    -755.351E-03     217.676E-03    -10.9876E-03     120.071E-03    -56.6462E-03    -63.5148E-03    -55.0312E-03     111.587E-03    -56.6462E-03     76.6286E-03     150.634E+06     60.7060E+06    -22.5776E+06    -22.5537E+06     150.610E+06     60.7060E+06     1.49547E+06         43.8395
            1547     15.1257E-03     85.3727E-03     226.749E-03     210.835E-03    -743.873E-03     219.656E-03    -743.622E-03     217.677E-03     15.4213E-03     124.313E-03    -56.8579E-03    -67.5459E-03    -55.0327E-03     111.799E-03    -56.8579E-03     94.4440E-03     165.893E+06     108.660E+06    -15.1359E+06    -15.1165E+06     165.873E+06     108.660E+06     1.58117E+06         47.6122
            1548     16.0710E-03     85.4866E-03     216.759E-03     197.370E-03    -719.751E-03     196.546E-03    -718.927E-03     216.759E-03     32.5999E-03     120.057E-03    -56.8750E-03    -63.2488E-03    -54.4902E-03     111.298E-03    -56.8750E-03     73.5597E-03     171.707E+06     124.547E+06    -7.52171E+06    -7.51434E+06     171.699E+06     124.547E+06     409.116E+03         50.7670
            1549     945.345E-06     86.1446E-03         1.83289    -265.892E-03        -1.87406        -1.41387    -711.261E-03         1.81807    -319.703E-03     113.096E-03    -56.3463E-03    -56.7294E-03    -56.5115E-03     113.094E-03    -56.5622E-03     705.386E-06    -65.4826E+06    -69.1988E+06    -240.565E+06    -68.4572E+06    -240.519E+06    -66.2699E+06    -421.093E+03         28.4094
            1550     1.89089E-03     86.1445E-03     236.581E-03     178.310E-03    -715.996E-03     209.402E-03    -713.994E-03     203.488E-03     5.49318E-03     113.411E-03    -56.4648E-03    -56.9211E-03    -56.7590E-03     113.407E-03    -56.6227E-03     1.42488E-03    -60.7184E+06    -67.3226E+06    -243.426E+06    -67.3553E+06    -243.394E+06    -60.7184E+06    -631.540E+03         28.5512
            1551     2.83557E-03     86.1466E-03     242.945E-03     209.558E-03    -754.833E-03     240.405E-03    -752.756E-03     210.022E-03     48.0187E-03     113.591E-03    -56.6526E-03    -56.9244E-03    -56.8367E-03     113.583E-03    -56.7319E-03     2.32493E-03    -53.2835E+06    -62.3028E+06    -233.956E+06    -62.3330E+06    -233.926E+06    -53.2835E+06    -699.825E+03         28.7269
            1552     3.77979E-03     86.1498E-03     235.891E-03     214.907E-03    -762.059E-03     231.208E-03    -759.327E-03     216.858E-03     23.7794E-03     113.588E-03    -56.6557E-03    -56.8783E-03    -56.7312E-03     113.572E-03    -56.7860E-03     3.29877E-03    -45.6181E+06    -57.5028E+06    -227.193E+06    -57.5676E+06    -227.128E+06    -45.6181E+06    -2.85731E+06         28.9438
            1553     4.72531E-03     86.1541E-03     222.371E-03     208.141E-03    -743.250E-03     211.491E-03    -742.215E-03     217.986E-03    -17.4879E-03     113.522E-03    -56.6152E-03    -56.8181E-03    -56.6109E-03     113.487E-03    -56.7872E-03     4.80947E-03    -40.0445E+06    -54.2548E+06    -222.932E+06    -54.3916E+06    -222.795E+06    -40.0445E+06    -4.75227E+06         29.2301
            1554     5.67101E-03     86.1598E-03     216.863E-03     197.414E-03    -724.060E-03     198.038E-03    -723.653E-03     215.832E-03     19.2082E-03     113.714E-03    -56.7643E-03    -56.9099E-03    -56.7985E-03     113.652E-03    -56.8131E-03     6.47890E-03    -35.4149E+06    -50.3899E+06    -211.736E+06    -50.5915E+06    -211.534E+06    -35.4149E+06    -5.56065E+06         29.6050
            1555     6.61527E-03     86.1674E-03     215.004E-03     201.879E-03    -723.970E-03     203.160E-03    -723.800E-03     213.553E-03    -7.88783E-03     113.862E-03    -56.8645E-03    -57.0049E-03    -56.8943E-03     113.751E-03    -56.8645E-03     8.58771E-03    -30.9065E+06    -45.9712E+06    -199.708E+06    -46.2530E+06    -199.427E+06    -30.9065E+06    -6.38103E+06         30.0807
            1556     7.56055E-03     86.1774E-03     217.600E-03     207.229E-03    -728.794E-03     211.745E-03    -728.375E-03     212.665E-03    -32.1342E-03     113.771E-03    -56.8029E-03    -56.8798E-03    -56.6719E-03     113.597E-03    -56.8362E-03     10.8623E-03    -29.2971E+06    -41.8731E+06    -181.305E+06    -42.2477E+06    -180.931E+06    -29.2971E+06    -7.11319E+06         30.6756
            1557     8.50528E-03     86.1899E-03     221.235E-03     208.427E-03    -732.047E-03     216.326E-03    -731.424E-03     212.713E-03    -6.99160E-03     113.509E-03    -56.5854E-03    -56.7549E-03    -56.3418E-03     113.265E-03    -56.7549E-03     12.8207E-03    -25.0915E+06    -38.0198E+06    -159.570E+06    -38.3673E+06    -159.223E+06    -25.0915E+06    -6.31643E+06         31.4068
            1558     9.45083E-03     86.2039E-03     221.027E-03     211.293E-03    -732.890E-03     218.790E-03    -732.459E-03     213.099E-03     250.450E-06     113.441E-03    -56.5328E-03    -56.7747E-03    -56.1894E-03     112.992E-03    -56.6691E-03     17.1397E-03    -21.1129E+06    -34.4608E+06    -131.358E+06    -34.8312E+06    -130.988E+06    -21.1129E+06    -5.69185E+06         32.3163
            1559     10.3962E-03     86.2269E-03     218.002E-03     211.014E-03    -729.298E-03     215.445E-03    -729.074E-03     213.347E-03    -15.3953E-03     113.545E-03    -56.6210E-03    -56.9417E-03    -56.2453E-03     112.848E-03    -56.6210E-03     21.7103E-03    -20.5562E+06    -31.9875E+06    -90.0940E+06    -32.6083E+06    -89.4732E+06    -20.5562E+06    -5.64484E+06         33.5161
            1560     11.3416E-03     86.2510E-03     214.749E-03     207.159E-03    -723.503E-03     208.261E-03    -722.932E-03     213.075E-03    -9.63286E-03     113.269E-03    -56.5163E-03    -56.9342E-03    -55.9243E-03     112.318E-03    -56.5753E-03     25.2507E-03    -10.9623E+06    -22.9179E+06    -48.2314E+06    -30.3104E+06    -34.6500E+06    -17.1512E+06    -4.19946E+06         35.1530
            1561     12.2868E-03     86.2808E-03     213.214E-03     201.619E-03    -717.503E-03     201.504E-03    -716.450E-03     212.274E-03     15.3962E-03     113.494E-03    -56.3947E-03    -57.3475E-03    -55.3274E-03     111.533E-03    -56.4538E-03     35.5127E-03     50.8386E+06    -17.8698E+06    -28.8286E+06    -27.6218E+06     50.6283E+06    -18.8663E+06    -1.35612E+06         37.3770
            1562     13.2329E-03     86.3260E-03     222.671E-03     206.537E-03    -730.058E-03     216.430E-03    -729.084E-03     211.802E-03    -420.328E-06     115.912E-03    -56.4082E-03    -59.6898E-03    -55.0577E-03     111.280E-03    -56.4082E-03     55.1747E-03     122.875E+06     947.103E+03    -26.5475E+06    -25.5220E+06     122.846E+06    -49.3485E+03     902.320E+03         40.2800
            1563     14.1792E-03     86.3985E-03     229.310E-03     209.523E-03    -738.612E-03     226.051E-03    -737.932E-03     212.102E-03    -9.60139E-03     119.988E-03    -56.6165E-03    -63.4546E-03    -55.1776E-03     111.711E-03    -56.6165E-03     75.7437E-03     150.008E+06     57.1226E+06    -22.8711E+06    -22.8437E+06     149.981E+06     57.1226E+06     975.211E+03         43.8445
            1564     15.1257E-03     86.4944E-03     221.477E-03     205.218E-03    -726.114E-03     214.182E-03    -725.732E-03     212.131E-03     20.8842E-03     123.839E-03    -56.8434E-03    -67.1048E-03    -55.0200E-03     111.754E-03    -56.8434E-03     92.6907E-03     165.591E+06     107.862E+06    -15.6726E+06    -15.6613E+06     165.580E+06     107.862E+06     711.384E+03         47.6187
            1565     16.0724E-03     86.6051E-03     219.893E-03     199.883E-03    -716.761E-03     207.360E-03    -715.907E-03     211.562E-03     30.7249E-03     119.926E-03    -56.8735E-03    -63.1358E-03    -54.6191E-03     111.409E-03    -56.8735E-03     72.6989E-03     172.867E+06     125.685E+06    -6.49215E+06    -6.48668E+06     172.862E+06     125.685E+06     454.272E+03         50.7757
            1566     946.290E-06     87.2635E-03         1.85943    -329.421E-03        -1.84080        -1.38357    -786.652E-03         1.85943    -217.696E-03     112.887E-03    -56.1801E-03    -56.6647E-03    -56.6355E-03     112.885E-03    -56.2079E-03     304.971E-06    -66.3942E+06    -72.0769E+06    -242.719E+06    -71.3475E+06    -242.661E+06    -67.1815E+06     1.16359E+06         28.4074
            1567     1.89031E-03     87.2636E-03     224.621E-03     171.735E-03    -696.450E-03     169.830E-03    -694.546E-03     224.621E-03     10.0408E-03     113.688E-03    -56.6208E-03    -57.0217E-03    -57.0197E-03     113.686E-03    -56.6208E-03     934.241E-06    -57.2537E+06    -67.6127E+06    -241.158E+06    -67.6431E+06    -241.127E+06    -57.2537E+06     637.692E+03         28.5549
            1568     2.83492E-03     87.2664E-03     221.709E-03     184.511E-03    -704.804E-03     195.925E-03    -703.299E-03     208.790E-03     37.5834E-03     113.750E-03    -56.6851E-03    -57.0479E-03    -56.9228E-03     113.743E-03    -56.8030E-03     2.15235E-03    -53.2247E+06    -64.7622E+06    -231.181E+06    -64.8114E+06    -231.132E+06    -53.2247E+06    -2.18785E+06         28.7329
            1569     3.78024E-03     87.2692E-03     230.863E-03     204.537E-03    -738.557E-03     224.582E-03    -736.365E-03     208.626E-03     11.0272E-03     113.569E-03    -56.6036E-03    -56.9262E-03    -56.6681E-03     113.552E-03    -56.8447E-03     3.32287E-03    -47.3022E+06    -60.5961E+06    -223.858E+06    -60.7332E+06    -223.721E+06    -47.3022E+06    -4.46852E+06         28.9436
            1570     4.72559E-03     87.2727E-03     219.504E-03     197.991E-03    -721.029E-03     206.311E-03    -720.031E-03     210.185E-03    -21.5200E-03     113.637E-03    -56.6679E-03    -56.8682E-03    -56.6543E-03     113.603E-03    -56.8481E-03     4.72428E-03    -38.0827E+06    -54.0198E+06    -219.501E+06    -54.3400E+06    -219.181E+06    -38.0827E+06    -6.79591E+06         29.2253
            1571     5.67011E-03     87.2794E-03     207.554E-03     181.811E-03    -691.718E-03     181.433E-03    -691.340E-03     207.554E-03     209.173E-06     113.754E-03    -56.7820E-03    -56.9022E-03    -56.7718E-03     113.697E-03    -56.8554E-03     6.20114E-03    -33.1823E+06    -47.4377E+06    -209.630E+06    -47.9584E+06    -209.109E+06    -33.1823E+06    -8.84165E+06         29.6042
            1572     6.61562E-03     87.2868E-03     205.307E-03     189.611E-03    -694.019E-03     190.385E-03    -693.796E-03     204.310E-03    -26.0320E-03     113.803E-03    -56.8313E-03    -56.9533E-03    -56.7797E-03     113.705E-03    -56.9064E-03     8.10244E-03    -29.5422E+06    -41.8864E+06    -197.687E+06    -42.5133E+06    -197.060E+06    -29.5422E+06    -9.68202E+06         30.0817
            1573     7.56034E-03     87.2971E-03     215.449E-03     202.730E-03    -714.173E-03     214.084E-03    -713.958E-03     203.880E-03    -26.4377E-03     113.685E-03    -56.6881E-03    -56.8734E-03    -56.5328E-03     113.529E-03    -56.8734E-03     10.2289E-03    -26.3611E+06    -37.4980E+06    -181.262E+06    -38.0972E+06    -180.663E+06    -26.3611E+06    -9.19141E+06         30.6734
            1574     8.50581E-03     87.3088E-03     221.625E-03     205.330E-03    -722.396E-03     221.373E-03    -722.144E-03     205.330E-03    -5.21292E-03     113.609E-03    -56.6124E-03    -56.8438E-03    -56.4767E-03     113.375E-03    -56.7457E-03     12.5349E-03    -24.8543E+06    -33.8812E+06    -159.673E+06    -34.5577E+06    -158.997E+06    -24.8543E+06    -8.97967E+06         31.4019
            1575     9.45056E-03     87.3237E-03     212.008E-03     204.000E-03    -711.643E-03     209.587E-03    -711.507E-03     206.284E-03     8.07774E-03     113.635E-03    -56.6616E-03    -56.8599E-03    -56.4065E-03     113.189E-03    -56.6684E-03     17.1245E-03    -22.3355E+06    -29.7046E+06    -130.748E+06    -30.5207E+06    -129.932E+06    -22.3355E+06    -8.84145E+06         32.3095
            1576     10.3957E-03     87.3457E-03     206.156E-03     202.786E-03    -703.897E-03     202.651E-03    -703.762E-03     206.156E-03    -13.1336E-03     113.479E-03    -56.6317E-03    -56.8498E-03    -56.1466E-03     112.776E-03    -56.6317E-03     21.7877E-03    -20.9664E+06    -26.4218E+06    -91.2745E+06    -27.1448E+06    -90.3729E+06    -21.1451E+06    -7.36179E+06         33.5085
            1577     11.3408E-03     87.3709E-03     215.077E-03     205.082E-03    -713.119E-03     213.841E-03    -712.968E-03     206.168E-03    -2.59028E-03     113.101E-03    -56.5053E-03    -56.7623E-03    -55.7953E-03     112.193E-03    -56.5644E-03     24.7046E-03    -12.5900E+06    -21.3680E+06    -47.2458E+06    -25.2114E+06    -36.6401E+06    -19.3524E+06    -5.86732E+06         35.1473
            1578     12.2878E-03     87.3982E-03     223.075E-03     206.496E-03    -721.039E-03     222.143E-03    -720.537E-03     206.925E-03     31.4761E-03     113.293E-03    -56.3717E-03    -57.1168E-03    -55.2084E-03     111.444E-03    -56.4308E-03     34.3298E-03     46.6619E+06    -20.4048E+06    -26.6906E+06    -23.9260E+06     45.7830E+06    -22.2904E+06    -2.44375E+06         37.3737
            1579     13.2346E-03     87.4461E-03     218.461E-03     199.031E-03    -710.196E-03     209.366E-03    -709.464E-03     207.393E-03     2.70915E-03     116.142E-03    -56.3877E-03    -59.8960E-03    -55.2916E-03     111.537E-03    -56.3877E-03     54.9663E-03     120.263E+06    -522.358E+03    -25.1330E+06    -23.2035E+06     120.219E+06    -2.40804E+06     1.90733E+06         40.2776
            1580     14.1783E-03     87.5199E-03     210.520E-03     189.994E-03    -695.257E-03     193.347E-03    -694.783E-03     206.693E-03    -5.10815E-03     120.280E-03    -56.6226E-03    -63.7314E-03    -55.4414E-03     111.990E-03    -56.6226E-03     75.9290E-03     151.922E+06     56.8903E+06    -21.3400E+06    -21.2924E+06     151.875E+06     56.8903E+06     2.21370E+06         43.8424
            1581     15.1239E-03     87.6122E-03     209.815E-03     196.811E-03    -702.368E-03     200.797E-03    -702.115E-03     205.576E-03     9.30937E-03     123.817E-03    -56.8795E-03    -67.0777E-03    -54.8317E-03     111.571E-03    -56.8795E-03     93.1919E-03     166.437E+06     107.604E+06    -15.4028E+06    -15.3811E+06     166.415E+06     107.604E+06     459.899E+03         47.6187
            1582     16.0715E-03     87.7246E-03     218.007E-03     205.240E-03    -720.996E-03     217.835E-03    -720.824E-03     205.240E-03     5.09288E-03     119.992E-03    -56.9077E-03    -63.2498E-03    -54.5900E-03     111.333E-03    -56.9077E-03     73.0504E-03     172.717E+06     124.931E+06     -7.3934E+06    -7.38282E+06     172.706E+06     124.931E+06     19.9024E+03         50.7797
            1583     944.333E-06     88.3814E-03         1.83037    -202.946E-03        -1.91519        -1.37309    -706.811E-03         1.79214    -329.754E-03     113.628E-03    -56.5293E-03    -57.0531E-03    -56.9780E-03     113.627E-03    -56.6031E-03     390.087E-06    -70.3889E+06    -75.9264E+06    -243.261E+06    -75.1273E+06     -243.17E+06    -71.2793E+06     3.44356E+03         28.4103
            1584     1.89018E-03     88.3839E-03     256.129E-03     185.870E-03    -732.043E-03     227.801E-03    -731.423E-03     213.579E-03    -7.05893E-03     113.673E-03    -56.6374E-03    -56.9847E-03    -56.7376E-03     113.671E-03    -56.8820E-03     1.17139E-03    -59.0187E+06    -68.3364E+06    -240.629E+06    -68.3861E+06    -240.580E+06    -59.0187E+06     1.19171E+03         28.5524
            1585     2.83481E-03     88.3854E-03     214.744E-03     166.512E-03    -674.628E-03     170.226E-03    -674.023E-03     210.425E-03     15.4054E-03     113.577E-03    -56.6048E-03    -56.9703E-03    -56.6751E-03     113.570E-03    -56.8934E-03     2.06238E-03    -50.0378E+06    -62.8573E+06    -227.358E+06    -62.8994E+06    -227.316E+06    -50.0378E+06    -1.62041E+06         28.7364
            1586     3.78016E-03     88.3876E-03     205.026E-03     167.628E-03    -666.779E-03     171.164E-03    -665.382E-03     200.092E-03    -11.4666E-03     113.750E-03    -56.7658E-03    -56.9756E-03    -56.8402E-03     113.732E-03    -56.8836E-03     3.33893E-03    -43.1309E+06    -58.8283E+06    -218.614E+06    -59.0262E+06    -218.416E+06    -43.1309E+06    -5.33181E+06         28.9485
            1587     4.72448E-03     88.3929E-03     214.480E-03     181.923E-03    -690.463E-03     198.369E-03    -689.031E-03     196.602E-03    -12.5894E-03     113.908E-03    -56.8526E-03    -56.9806E-03    -56.8882E-03     113.876E-03    -56.9131E-03     4.63470E-03    -39.1567E+06    -54.4420E+06    -213.444E+06    -55.0516E+06    -212.834E+06    -39.1567E+06    -9.42688E+06         29.2218
            1588     5.66987E-03     88.3979E-03     217.186E-03     188.069E-03    -693.049E-03     206.742E-03    -692.032E-03     197.496E-03     38.3184E-03     113.784E-03    -56.8004E-03    -56.9155E-03    -56.7402E-03     113.724E-03    -56.9155E-03     6.27685E-03    -38.5289E+06    -49.6987E+06    -205.761E+06    -50.8291E+06    -204.630E+06    -38.5289E+06    -12.9500E+06         29.5927
            1589     6.61448E-03     88.4071E-03     206.477E-03     195.525E-03    -686.923E-03     202.924E-03    -686.394E-03     198.550E-03     3.98487E-03     113.631E-03    -56.6893E-03    -56.9353E-03    -56.5927E-03     113.534E-03    -56.9353E-03     8.07601E-03    -36.0748E+06    -43.9255E+06    -196.941E+06    -45.2554E+06    -195.611E+06    -36.0748E+06    -13.9385E+06         30.0681
            1590     7.55989E-03     88.4158E-03     206.504E-03     198.927E-03    -694.231E-03     205.998E-03    -694.064E-03     199.266E-03    -8.49712E-03     113.474E-03    -56.5002E-03    -56.8610E-03    -56.3441E-03     113.318E-03    -56.8610E-03     10.1707E-03    -31.0936E+06    -38.3262E+06    -181.670E+06    -39.0000E+06    -180.286E+06    -31.8034E+06    -13.5411E+06         30.6592
            1591     8.50509E-03     88.4284E-03     209.194E-03     199.759E-03    -697.572E-03     208.068E-03    -696.785E-03     200.099E-03     28.3738E-03     113.546E-03    -56.5497E-03    -56.9054E-03    -56.4815E-03     113.291E-03    -56.7191E-03     13.0656E-03    -28.0609E+06    -32.6231E+06    -158.384E+06    -32.8676E+06    -156.850E+06    -29.3501E+06    -13.3881E+06         31.3880
            1592     9.45035E-03     88.4437E-03     203.584E-03     199.637E-03    -690.195E-03     201.779E-03    -689.297E-03     200.545E-03     45.7523E-03     113.656E-03    -56.6596E-03    -56.9382E-03    -56.4926E-03     113.210E-03    -56.6596E-03     17.1907E-03    -25.9490E+06    -27.7924E+06    -131.850E+06    -28.7913E+06    -130.271E+06    -26.5284E+06    -12.6106E+06         32.2986
            1593     10.3956E-03     88.4651E-03     200.350E-03     196.880E-03    -683.826E-03     196.547E-03    -683.494E-03     200.350E-03     11.0090E-03     113.383E-03    -56.6244E-03    -56.7505E-03    -56.0507E-03     112.684E-03    -56.6248E-03     21.6918E-03    -23.0766E+06    -24.5305E+06    -94.5236E+06    -25.4813E+06    -92.8028E+06    -23.8466E+06    -10.4378E+06         33.5010
            1594     11.3419E-03     88.4901E-03     210.772E-03     197.823E-03    -692.292E-03     208.051E-03    -692.133E-03     200.386E-03    -14.1114E-03     113.298E-03    -56.5728E-03    -56.8645E-03    -55.9546E-03     112.388E-03    -56.5731E-03     24.7760E-03    -15.0516E+06    -20.0214E+06    -47.4205E+06    -23.3575E+06    -39.1145E+06    -20.0214E+06    -6.71631E+06         35.1414
            1595     12.2860E-03     88.5181E-03     220.023E-03     201.240E-03    -702.971E-03     219.765E-03    -702.712E-03     201.240E-03     9.18029E-03     113.777E-03    -56.4785E-03    -57.4785E-03    -55.7087E-03     112.007E-03    -56.4785E-03     33.7692E-03     41.2652E+06    -21.2329E+06    -26.0908E+06    -24.3868E+06     40.4652E+06    -22.1370E+06    -1.78823E+06         37.3670
            1596     13.2316E-03     88.5641E-03     209.998E-03     192.995E-03    -687.014E-03     200.771E-03    -686.394E-03     201.602E-03    -8.80187E-03     115.855E-03    -56.4176E-03    -59.5917E-03    -54.8975E-03     111.161E-03    -56.4176E-03     55.0578E-03     116.087E+06    -4.15695E+06    -25.2884E+06    -24.3503E+06     116.054E+06    -5.06109E+06     1.87193E+06         40.2694
            1597     14.1796E-03     88.6409E-03     203.466E-03     185.918E-03    -674.208E-03     188.172E-03    -673.708E-03     200.711E-03    -16.8099E-03     119.559E-03    -56.5923E-03    -63.0253E-03    -54.6820E-03     111.216E-03    -56.5923E-03     75.9800E-03     153.550E+06     55.2183E+06    -19.2493E+06    -19.2108E+06     153.511E+06     55.2183E+06     2.24012E+06         43.8347
            1598     15.1268E-03     88.7303E-03     203.663E-03     190.943E-03    -680.141E-03     194.849E-03    -680.059E-03     199.675E-03     12.1372E-03     123.769E-03    -56.8378E-03    -67.0479E-03    -54.7613E-03     111.483E-03    -56.8378E-03     93.2461E-03     168.686E+06     107.414E+06    -13.5181E+06    -13.4678E+06     168.635E+06     107.414E+06     1.52301E+06         47.6152
            1599     16.0723E-03     88.8456E-03     203.400E-03     189.825E-03    -683.985E-03     194.181E-03    -683.906E-03     198.965E-03     12.8767E-03     120.219E-03    -56.8817E-03    -63.4839E-03    -54.6397E-03     111.375E-03    -56.8817E-03     73.9255E-03     172.485E+06     123.990E+06    -7.77123E+06    -7.73008E+06     172.444E+06     123.990E+06     732.730E+03         50.7823
            1600     944.893E-06     89.5023E-03         1.79269    -174.394E-03        -1.89701        -1.41128    -621.897E-03         1.75446    -400.232E-03     113.977E-03    -56.8209E-03    -57.1582E-03    -57.0826E-03     113.976E-03    -56.8947E-03     1.02053E-03    -71.9992E+06    -75.2499E+06    -240.608E+06    -74.2566E+06    -240.527E+06    -73.0743E+06    -1.35691E+06         28.4170
            1601     1.88897E-03     89.5024E-03     240.693E-03     169.077E-03    -691.268E-03     226.333E-03    -690.709E-03     182.879E-03     18.3178E-03     113.702E-03    -56.6710E-03    -57.0009E-03    -56.6904E-03     113.700E-03    -56.9790E-03     1.30478E-03    -65.2259E+06    -70.9454E+06    -240.655E+06    -71.0345E+06    -240.566E+06    -65.2259E+06    -2.89033E+06         28.5540
            1602     2.83530E-03     89.5043E-03     220.895E-03     174.532E-03    -677.315E-03     200.184E-03    -676.702E-03     194.630E-03     18.2811E-03     113.605E-03    -56.6542E-03    -56.9360E-03    -56.6716E-03     113.598E-03    -56.9115E-03     2.07033E-03    -57.7672E+06    -66.0762E+06    -223.633E+06    -66.1734E+06    -223.536E+06    -57.7672E+06    -3.21847E+06         28.7320
            1603     3.77957E-03     89.5077E-03     199.122E-03     162.682E-03    -649.254E-03     167.784E-03    -647.674E-03     192.440E-03    -11.6170E-03     113.848E-03    -56.8447E-03    -56.9910E-03    -56.8968E-03     113.828E-03    -56.9191E-03     3.57343E-03    -48.2243E+06    -60.9707E+06    -211.410E+06    -61.3107E+06    -211.070E+06    -48.2243E+06    -6.29092E+06         28.9421
            1604     4.72458E-03     89.5126E-03     206.992E-03     180.188E-03    -670.723E-03     194.834E-03    -668.224E-03     189.848E-03     9.75632E-03     113.934E-03    -56.8544E-03    -57.0049E-03    -56.8733E-03     113.898E-03    -56.9499E-03     4.91830E-03    -40.9359E+06    -54.6761E+06    -206.215E+06    -55.6846E+06    -205.206E+06    -40.9359E+06    -11.8409E+06         29.2125
            1605     5.66906E-03     89.5178E-03     224.101E-03     192.795E-03    -693.224E-03     222.180E-03    -691.303E-03     192.795E-03     77.1832E-03     113.737E-03    -56.7501E-03    -56.9478E-03    -56.6914E-03     113.671E-03    -56.9402E-03     6.60564E-03    -40.6983E+06    -48.4782E+06    -199.527E+06    -50.2158E+06    -197.789E+06    -40.6983E+06    -15.9940E+06         29.5776
            1606     6.61458E-03     89.5264E-03     210.468E-03     194.798E-03    -678.227E-03     208.575E-03    -677.656E-03     196.120E-03     15.5547E-03     113.441E-03    -56.5084E-03    -56.9099E-03    -56.4011E-03     113.333E-03    -56.9099E-03     8.49211E-03    -40.1590E+06    -44.0403E+06    -194.597E+06    -45.5855E+06    -192.203E+06    -41.0080E+06    -18.6549E+06         30.0523
            1607     7.55986E-03     89.5349E-03     196.887E-03     192.788E-03    -662.434E-03     192.240E-03    -661.702E-03     196.703E-03    -25.5230E-03     113.507E-03    -56.4930E-03    -56.8856E-03    -56.3974E-03     113.337E-03    -56.8110E-03     10.6505E-03    -36.5758E+06    -39.5707E+06    -180.378E+06    -40.9024E+06    -177.487E+06    -38.1347E+06    -19.7906E+06         30.6472
            1608     8.50551E-03     89.5479E-03     197.202E-03     191.961E-03    -664.109E-03     191.627E-03    -662.699E-03     196.127E-03     20.3931E-03     113.550E-03    -56.5806E-03    -56.8698E-03    -56.4793E-03     113.286E-03    -56.7070E-03     13.3332E-03    -33.8764E+06    -35.6267E+06    -159.618E+06    -37.0931E+06    -156.826E+06    -35.2018E+06    -18.3732E+06         31.3767
            1609     9.45032E-03     89.5635E-03     196.760E-03     193.343E-03    -666.710E-03     193.321E-03    -665.612E-03     195.685E-03     40.9624E-03     113.435E-03    -56.5750E-03    -56.7762E-03    -56.2648E-03     112.988E-03    -56.6391E-03     17.2221E-03    -30.1077E+06    -31.3406E+06    -133.845E+06    -33.2637E+06    -131.073E+06    -30.9566E+06    -16.4093E+06         32.2883
            1610     10.3955E-03     89.5842E-03     198.802E-03     192.707E-03    -667.397E-03     195.692E-03    -667.060E-03     195.479E-03     6.00453E-03     113.415E-03    -56.6006E-03    -56.8112E-03    -56.1100E-03     112.714E-03    -56.6010E-03     21.7143E-03    -26.4458E+06    -27.7491E+06    -98.0615E+06    -29.8423E+06    -95.1439E+06    -27.2703E+06    -13.8343E+06         33.4935
            1611     11.3408E-03     89.6091E-03     200.967E-03     186.204E-03    -659.084E-03     191.761E-03    -658.902E-03     195.228E-03    -15.8119E-03     113.396E-03    -56.5704E-03    -56.9915E-03    -56.0364E-03     112.441E-03    -56.5708E-03     25.3685E-03    -20.1086E+06    -23.1490E+06    -52.7783E+06    -27.5743E+06    -45.4074E+06    -23.0542E+06    -7.80823E+06         35.1347
            1612     12.2868E-03     89.6391E-03     198.112E-03     181.967E-03    -651.242E-03     185.137E-03    -650.840E-03     194.540E-03     4.19875E-03     113.807E-03    -56.4640E-03    -57.5548E-03    -55.7224E-03     111.975E-03    -56.4640E-03     34.4827E-03     35.7362E+06    -21.8203E+06    -29.2475E+06    -25.4272E+06     34.8419E+06    -24.7463E+06    -2.01236E+06         37.3600
            1613     13.2322E-03     89.6830E-03     200.992E-03     187.630E-03    -661.706E-03     194.124E-03    -661.064E-03     193.855E-03    -6.05326E-03     115.875E-03    -56.3979E-03    -59.6829E-03    -54.9351E-03     111.127E-03    -56.3979E-03     55.3968E-03     114.052E+06    -5.75056E+06    -25.9193E+06    -22.9815E+06     114.041E+06    -8.67655E+06     789.074E+03         40.2612
            1614     14.1791E-03     89.7579E-03     206.842E-03     193.095E-03    -671.908E-03     205.628E-03    -671.368E-03     193.769E-03    -34.9471E-03     119.468E-03    -56.5718E-03    -62.9891E-03    -54.5923E-03     111.071E-03    -56.5718E-03     76.1927E-03     153.232E+06     51.0430E+06    -19.9049E+06    -19.8709E+06     153.199E+06     51.0430E+06     1.89509E+06         43.8265
            1615     15.1251E-03     89.8514E-03     200.736E-03     189.118E-03    -660.992E-03     196.061E-03    -660.843E-03     193.644E-03    -5.85772E-03     123.226E-03    -56.8008E-03    -66.4597E-03    -54.4701E-03     111.236E-03    -56.8008E-03     91.9792E-03     168.743E+06     105.875E+06    -14.2123E+06    -14.1560E+06     168.686E+06     105.875E+06     2.17696E+06         47.6116
            1616     16.0734E-03     89.9619E-03     192.756E-03     179.394E-03    -640.812E-03     179.331E-03    -640.749E-03     192.756E-03     142.843E-06     119.730E-03    -56.8497E-03    -62.9260E-03    -54.3175E-03     111.121E-03    -56.8497E-03     73.1993E-03     174.016E+06     125.281E+06    -5.89681E+06    -5.85466E+06     173.974E+06     125.281E+06     1.42951E+06         50.7863
            1617     944.826E-06     90.6213E-03         1.80394    -256.527E-03        -1.81831        -1.44742    -627.415E-03         1.80394    -359.905E-03     113.732E-03    -56.7214E-03    -57.0182E-03    -56.8309E-03     113.731E-03    -56.9071E-03     964.627E-06    -73.3764E+06    -75.9055E+06    -236.536E+06    -75.8054E+06    -236.451E+06    -73.5611E+06    -2.08042E+06         28.4238
            1618     1.89013E-03     90.6224E-03     191.382E-03     147.273E-03    -605.132E-03     162.684E-03    -604.174E-03     175.012E-03     1.08221E-03     113.951E-03    -56.8688E-03    -57.0605E-03    -56.9944E-03     113.948E-03    -56.9321E-03     1.30813E-03    -67.7252E+06    -72.3945E+06    -235.997E+06    -72.5834E+06    -235.808E+06    -67.7252E+06    -4.94746E+06         28.5635
            1619     2.83385E-03     90.6230E-03     216.362E-03     177.788E-03    -665.588E-03     212.968E-03    -662.195E-03     177.788E-03     75.7772E-03     113.910E-03    -56.8347E-03    -57.0462E-03    -56.9239E-03     113.900E-03    -56.9477E-03     2.36466E-03    -63.5267E+06    -67.4249E+06    -221.223E+06    -67.5973E+06    -220.844E+06    -63.7337E+06    -7.10906E+06         28.7321
            1620     3.77948E-03     90.6275E-03     213.033E-03     184.814E-03    -671.269E-03     206.693E-03    -666.311E-03     186.196E-03     11.6914E-03     113.697E-03    -56.7239E-03    -56.9404E-03    -56.7033E-03     113.676E-03    -56.9404E-03     3.70075E-03    -56.0506E+06    -61.5500E+06    -203.500E+06    -61.9913E+06    -202.678E+06    -56.4314E+06    -10.0638E+06         28.9339
            1621     4.72436E-03     90.6313E-03     197.056E-03     177.118E-03    -647.987E-03     183.082E-03    -645.118E-03     188.224E-03    -27.4052E-03     113.740E-03    -56.7088E-03    -56.9427E-03    -56.6748E-03     113.698E-03    -56.9351E-03     5.22843E-03    -46.5618E+06    -55.2583E+06    -197.451E+06    -56.8372E+06    -195.699E+06    -46.7355E+06    -15.2709E+06         29.2077
            1622     5.66949E-03     90.6384E-03     199.116E-03     174.995E-03    -644.922E-03     185.461E-03    -643.771E-03     187.500E-03     25.1006E-03     113.674E-03    -56.7285E-03    -56.9279E-03    -56.6719E-03     113.609E-03    -56.9203E-03     6.59158E-03    -43.4784E+06    -49.7297E+06    -193.395E+06    -52.3794E+06    -190.745E+06    -43.4784E+06    -19.0584E+06         29.5801
            1623     6.61474E-03     90.6442E-03     200.106E-03     183.667E-03    -651.417E-03     195.107E-03    -650.522E-03     187.771E-03    -35.4621E-03     113.557E-03    -56.6110E-03    -56.9077E-03    -56.5081E-03     113.454E-03    -56.9077E-03     8.25463E-03    -42.2437E+06    -46.4661E+06    -189.230E+06    -49.1667E+06    -185.680E+06    -43.0928E+06    -22.0476E+06         30.0560
            1624     7.56019E-03     90.6551E-03     197.640E-03     184.796E-03    -651.335E-03     191.529E-03    -648.801E-03     188.372E-03    -86.4242E-03     113.667E-03    -56.5995E-03    -56.9146E-03    -56.5044E-03     113.498E-03    -56.8399E-03     10.6835E-03    -39.7315E+06    -43.1245E+06    -178.023E+06    -46.6738E+06    -173.625E+06    -40.5806E+06    -23.8823E+06         30.6468
            1625     8.50421E-03     90.6671E-03     193.362E-03     184.552E-03    -647.960E-03     187.347E-03    -645.772E-03     188.379E-03    -30.1467E-03     113.475E-03    -56.5427E-03    -56.8048E-03    -56.3567E-03     113.215E-03    -56.7302E-03     13.2220E-03    -36.2599E+06    -38.7797E+06    -161.116E+06    -42.1145E+06    -156.120E+06    -37.9205E+06    -23.9404E+06         31.3708
            1626     9.45038E-03     90.6825E-03     190.987E-03     186.271E-03    -649.532E-03     188.337E-03    -648.795E-03     188.183E-03     178.717E-06     113.251E-03    -56.5181E-03    -56.6479E-03    -56.0690E-03     112.798E-03    -56.6444E-03     17.2992E-03    -31.1966E+06    -34.7507E+06    -136.868E+06    -36.0072E+06    -132.058E+06    -34.7507E+06    -21.6979E+06         32.2789
            1627     10.3961E-03     90.7036E-03     196.140E-03     187.997E-03    -655.476E-03     195.337E-03    -655.012E-03     188.337E-03    -35.1416E-03     113.396E-03    -56.6025E-03    -56.8259E-03    -56.1001E-03     112.686E-03    -56.6174E-03     21.8722E-03    -27.6788E+06    -30.6358E+06    -103.022E+06    -31.8010E+06     -98.995E+06    -30.5410E+06    -16.8424E+06         33.4854
            1628     11.3412E-03     90.7288E-03     193.934E-03     179.126E-03    -641.275E-03     184.568E-03    -641.083E-03     188.300E-03    -22.6220E-03     113.268E-03    -56.5568E-03    -56.8827E-03    -55.9048E-03     112.290E-03    -56.5568E-03     25.6490E-03    -20.3447E+06    -27.6463E+06    -59.6405E+06    -27.8398E+06    -52.2403E+06    -27.5515E+06    -11.8473E+06         35.1293
            1629     12.2867E-03     90.7576E-03     187.261E-03     170.584E-03    -623.814E-03     170.370E-03    -623.601E-03     187.261E-03    -6.55025E-03     113.597E-03    -56.4145E-03    -57.3651E-03    -55.5315E-03     111.763E-03    -56.4145E-03     34.5353E-03     32.8610E+06    -24.1301E+06    -33.3407E+06    -23.3758E+06     28.2017E+06    -29.4356E+06    -5.60111E+06         37.3556
            1630     13.2334E-03     90.8025E-03     193.676E-03     178.753E-03    -638.372E-03     185.348E-03    -637.548E-03     186.257E-03    -28.3587E-03     115.941E-03    -56.3541E-03    -59.7135E-03    -55.1201E-03     111.348E-03    -56.3541E-03     54.6239E-03     110.206E+06    -7.18349E+06    -27.2992E+06    -21.8924E+06     110.105E+06    -12.4890E+06     967.122E+03         40.2566
            1631     14.1785E-03     90.8769E-03     198.072E-03     186.098E-03    -651.026E-03     197.210E-03    -650.164E-03     186.098E-03    -42.5080E-03     119.737E-03    -56.5449E-03    -63.2468E-03    -54.6729E-03     111.164E-03    -56.5449E-03     76.8820E-03     152.815E+06     47.2964E+06    -20.7702E+06    -20.6715E+06     152.717E+06     47.2964E+06     3.41576E+06         43.8246
            1632     15.1259E-03     90.9703E-03     191.480E-03     183.904E-03    -645.169E-03     189.343E-03    -645.012E-03     185.884E-03    -11.4436E-03     123.588E-03    -56.7901E-03    -66.8751E-03    -54.6694E-03     111.382E-03    -56.7901E-03     93.0915E-03     168.722E+06     103.790E+06    -15.7847E+06    -15.7469E+06     168.685E+06     103.790E+06     2.08304E+06         47.6154
            1633     16.0720E-03     91.0800E-03     189.511E-03     181.083E-03    -641.551E-03     185.222E-03    -641.485E-03     185.306E-03    -5.69964E-03     119.764E-03    -56.8434E-03    -62.9904E-03    -54.4852E-03     111.259E-03    -56.8434E-03     72.9132E-03     175.233E+06     124.329E+06    -7.38901E+06    -7.37330E+06     175.217E+06     124.329E+06     1.00065E+06         50.7938
            1634     945.140E-06     91.7411E-03         1.76355    -205.358E-03        -1.80384        -1.37259    -621.029E-03         1.74797    -322.337E-03     113.701E-03    -56.5810E-03    -57.1132E-03    -56.8791E-03     113.700E-03    -56.8139E-03     880.319E-06    -73.9306E+06    -78.0391E+06    -230.835E+06    -77.2552E+06    -230.753E+06    -74.7967E+06    -2.11486E+06         28.4200
            1635     1.88952E-03     91.7418E-03     201.949E-03     159.521E-03    -614.643E-03     175.305E-03    -613.743E-03     185.263E-03     2.18562E-03     113.888E-03    -56.8376E-03    -57.0207E-03    -56.9398E-03     113.884E-03    -56.9142E-03     1.48648E-03    -67.8653E+06    -71.8658E+06    -226.643E+06    -72.3835E+06    -226.125E+06    -67.8653E+06    -7.78037E+06         28.5595
            1636     2.83458E-03     91.7442E-03     198.248E-03     161.934E-03    -613.080E-03     174.559E-03    -609.078E-03     181.620E-03     85.4242E-03     113.941E-03    -56.8667E-03    -57.0610E-03    -56.9938E-03     113.930E-03    -56.9227E-03     2.71572E-03    -65.1484E+06    -68.3607E+06    -216.347E+06    -67.2311E+06    -215.230E+06    -67.3950E+06    -12.2439E+06         28.7325
            1637     3.77893E-03     91.7462E-03     200.632E-03     166.424E-03    -623.744E-03     180.787E-03    -617.953E-03     180.477E-03     18.1018E-03     113.667E-03    -56.7188E-03    -56.9347E-03    -56.7347E-03     113.643E-03    -56.8949E-03     3.95388E-03    -61.3115E+06    -64.1246E+06    -196.508E+06    -63.3834E+06    -194.829E+06    -63.7317E+06    -14.5505E+06         28.9392
            1638     4.72465E-03     91.7514E-03     187.398E-03     163.554E-03    -611.364E-03     169.255E-03    -609.116E-03     179.448E-03    -48.5306E-03     113.596E-03    -56.6197E-03    -56.9055E-03    -56.5769E-03     113.553E-03    -56.9055E-03     5.34869E-03    -52.7110E+06    -58.7757E+06    -188.734E+06    -60.9917E+06    -186.344E+06    -52.8848E+06    -17.2986E+06         29.2183
            1639     5.66956E-03     91.7573E-03     180.806E-03     164.076E-03    -605.008E-03     166.954E-03    -604.568E-03     177.488E-03     10.6822E-03     113.741E-03    -56.7594E-03    -56.9592E-03    -56.7386E-03     113.682E-03    -56.9205E-03     6.34723E-03    -45.2638E+06    -54.8148E+06    -186.761E+06    -58.5058E+06    -183.070E+06    -45.2638E+06    -21.4440E+06         29.5940
            1640     6.61441E-03     91.7640E-03     184.610E-03     173.085E-03    -618.858E-03     179.900E-03    -617.837E-03     176.774E-03    -12.0660E-03     113.831E-03    -56.8216E-03    -56.9752E-03    -56.7615E-03     113.732E-03    -56.9366E-03     8.08904E-03    -43.1780E+06    -49.4961E+06    -182.910E+06    -54.5286E+06    -177.877E+06    -43.1780E+06    -25.2613E+06         30.0671
            1641     7.55885E-03     91.7741E-03     191.573E-03     177.667E-03    -631.057E-03     189.557E-03    -629.042E-03     177.667E-03    -52.2793E-03     113.546E-03    -56.5448E-03    -56.8739E-03    -56.3733E-03     113.375E-03    -56.8739E-03     10.7175E-03    -39.7362E+06    -44.0954E+06    -174.506E+06    -48.8323E+06    -168.109E+06     -41.396E+06    -28.0707E+06         30.6513
            1642     8.50544E-03     91.7866E-03     188.566E-03     178.752E-03    -630.111E-03     186.578E-03    -628.122E-03     178.752E-03    -6.63822E-03     113.289E-03    -56.4407E-03    -56.7502E-03    -56.1976E-03     113.022E-03    -56.7268E-03     13.3668E-03    -35.1893E+06    -41.1256E+06    -159.651E+06    -43.3154E+06    -151.959E+06    -40.6913E+06    -29.7688E+06         31.3695
            1643     9.45017E-03     91.8013E-03     190.133E-03     179.548E-03    -632.494E-03     189.015E-03    -631.377E-03     179.548E-03     5.70226E-03     113.326E-03    -56.5799E-03    -56.7279E-03    -56.2096E-03     112.870E-03    -56.6420E-03     17.3867E-03    -31.1743E+06    -40.6104E+06    -141.714E+06    -38.8347E+06    -134.054E+06    -40.6104E+06    -27.8390E+06         32.2733
            1644     10.3952E-03     91.8231E-03     189.198E-03     175.646E-03    -629.090E-03     183.708E-03    -628.002E-03     180.047E-03    -13.5898E-03     113.274E-03    -56.6058E-03    -56.7462E-03    -56.0254E-03     112.568E-03    -56.6207E-03     21.7900E-03    -26.4154E+06    -36.1766E+06    -110.446E+06    -33.3737E+06    -103.488E+06    -36.1766E+06    -22.7660E+06         33.4804
            1645     11.3412E-03     91.8478E-03     185.293E-03     173.404E-03    -621.222E-03     178.003E-03    -620.486E-03     179.958E-03     2.25354E-03     113.058E-03    -56.5534E-03    -56.6640E-03    -55.7246E-03     112.118E-03    -56.5534E-03     25.1256E-03    -17.9142E+06    -31.3309E+06    -66.8199E+06    -27.8992E+06    -56.8349E+06    -31.3309E+06    -17.5243E+06         35.1281
            1646     12.2875E-03     91.8767E-03     187.252E-03     175.678E-03    -625.433E-03     182.851E-03    -625.138E-03     179.783E-03    -1.51784E-03     113.603E-03    -56.4244E-03    -57.3810E-03    -55.5100E-03     111.732E-03    -56.4244E-03     34.6850E-03     26.6492E+06    -27.4047E+06    -40.4959E+06    -24.7248E+06     17.8920E+06    -34.4187E+06    -9.64508E+06         37.3541
            1647     13.2320E-03     91.9225E-03     185.576E-03     176.571E-03    -625.422E-03     181.441E-03    -624.409E-03     179.694E-03    -26.0857E-03     115.793E-03    -56.3386E-03    -59.5539E-03    -55.0453E-03     111.284E-03    -56.3386E-03     54.3294E-03     102.253E+06    -11.8748E+06    -29.8238E+06    -22.6395E+06     102.083E+06    -18.8888E+06    -143.336E+03         40.2539
            1648     14.1802E-03     91.9942E-03     180.984E-03     177.139E-03    -622.425E-03     177.469E-03    -621.100E-03     179.329E-03    -13.3325E-03     119.448E-03    -56.4855E-03    -62.9530E-03    -54.5241E-03     111.019E-03    -56.4855E-03     76.0329E-03     152.727E+06     42.2094E+06    -19.7604E+06    -19.6160E+06     152.582E+06     42.2094E+06     4.22562E+06         43.8255
            1649     15.1272E-03     92.0901E-03     179.967E-03     175.621E-03    -621.083E-03     176.247E-03    -620.451E-03     178.709E-03     27.3313E-03     123.646E-03    -56.7550E-03    -66.9933E-03    -54.7263E-03     111.379E-03    -56.7550E-03     93.3534E-03     171.100E+06     103.376E+06    -14.2331E+06    -14.1492E+06     171.016E+06     103.376E+06     3.19462E+06         47.6220
            1650     16.0725E-03     92.2012E-03     184.565E-03     176.202E-03    -627.326E-03     182.343E-03    -627.173E-03     178.271E-03     13.0275E-03     120.047E-03    -56.8390E-03    -63.3103E-03    -54.8137E-03     111.551E-03    -56.8390E-03     72.7681E-03     176.732E+06     124.409E+06    -8.50545E+06    -8.48894E+06     176.715E+06     124.409E+06     1.36565E+06         50.8028
            1651     944.390E-06     92.8605E-03         1.70454    -191.673E-03        -1.76293        -1.30429    -634.733E-03         1.68897    -337.742E-03     113.831E-03    -56.5707E-03    -57.2544E-03    -57.2063E-03     113.830E-03    -56.6178E-03     823.200E-06    -72.9238E+06    -76.7825E+06    -223.599E+06    -75.5525E+06    -223.383E+06    -74.3696E+06    -3.32100E+06         28.4136
            1652     1.88989E-03     92.8616E-03     204.057E-03     158.528E-03    -606.672E-03     169.535E-03    -602.100E-03     188.477E-03     18.4649E-03     113.669E-03    -56.7361E-03    -56.9395E-03    -56.7605E-03     113.665E-03    -56.9107E-03     1.52259E-03    -68.0831E+06    -71.9922E+06    -213.508E+06    -72.3103E+06    -212.611E+06    -68.6628E+06    -10.3694E+06         28.5506
            1653     2.83465E-03     92.8636E-03     178.168E-03     147.548E-03    -564.132E-03     144.938E-03    -561.522E-03     178.168E-03    -5.03734E-03     113.661E-03    -56.7545E-03    -56.9335E-03    -56.7950E-03     113.650E-03    -56.8820E-03     2.68593E-03    -64.0638E+06    -68.7450E+06    -207.082E+06    -68.8555E+06    -204.932E+06    -66.1033E+06    -16.7079E+06         28.7320
            1654     3.77984E-03     92.8662E-03     178.354E-03     153.598E-03    -575.428E-03     158.668E-03    -573.187E-03     171.042E-03    -8.75554E-03     113.810E-03    -56.8173E-03    -56.9864E-03    -56.9296E-03     113.787E-03    -56.8513E-03     3.86471E-03    -61.8738E+06    -65.3798E+06    -191.965E+06    -65.5369E+06    -189.109E+06    -64.5721E+06    -18.8006E+06         28.9496
            1655     4.72411E-03     92.8705E-03     182.604E-03     163.771E-03    -595.057E-03     174.724E-03    -593.348E-03     169.942E-03    -14.3487E-03     113.750E-03    -56.7180E-03    -56.9904E-03    -56.7614E-03     113.710E-03    -56.9068E-03     5.18952E-03    -51.5646E+06    -58.3023E+06    -181.442E+06    -60.8769E+06    -178.209E+06    -52.2234E+06    -19.5259E+06         29.2286
            1656     5.66937E-03     92.8767E-03     183.199E-03     170.355E-03    -609.201E-03     181.566E-03    -608.476E-03     171.263E-03     44.5379E-03     113.718E-03    -56.7300E-03    -56.9954E-03    -56.7033E-03     113.653E-03    -56.9568E-03     6.61314E-03    -41.2448E+06    -50.5420E+06    -177.560E+06    -55.2911E+06    -172.811E+06    -41.2448E+06    -23.7598E+06         29.5979
            1657     6.61403E-03     92.8845E-03     184.604E-03     171.961E-03    -614.371E-03     183.371E-03    -614.045E-03     172.868E-03     24.6485E-03     113.781E-03    -56.7930E-03    -56.9854E-03    -56.7268E-03     113.677E-03    -56.9468E-03     8.39590E-03    -39.6863E+06    -44.1783E+06    -175.496E+06    -50.6052E+06    -168.769E+06    -39.9869E+06    -28.8543E+06         30.0702
            1658     7.55965E-03     92.8931E-03     180.572E-03     168.562E-03    -603.688E-03     175.017E-03    -603.273E-03     173.702E-03     14.8146E-03     113.612E-03    -56.6259E-03    -56.8987E-03    -56.4889E-03     113.447E-03    -56.8706E-03     10.5249E-03    -37.3614E+06    -41.5393E+06    -168.711E+06    -46.8110E+06    -159.841E+06    -40.9590E+06    -32.6165E+06         30.6564
            1659     8.50449E-03     92.9052E-03     178.393E-03     165.977E-03    -595.701E-03     169.818E-03    -594.710E-03     173.562E-03     39.4014E-03     113.346E-03    -56.4984E-03    -56.8059E-03    -56.2941E-03     113.090E-03    -56.7545E-03     13.0969E-03    -32.8669E+06    -40.7888E+06    -157.532E+06    -43.0704E+06    -147.329E+06    -40.7888E+06    -34.0666E+06         31.3743
            1660     9.45008E-03     92.9212E-03     181.163E-03     168.093E-03    -602.723E-03     175.021E-03    -601.870E-03     173.381E-03     16.7793E-03     113.291E-03    -56.5290E-03    -56.7258E-03    -56.1630E-03     112.839E-03    -56.6400E-03     17.2770E-03    -29.6089E+06    -42.6653E+06    -144.897E+06    -39.9763E+06    -134.530E+06    -42.6653E+06    -32.8834E+06         32.2752
            1661     10.3955E-03     92.9415E-03     180.730E-03     166.081E-03    -602.042E-03     172.586E-03    -601.144E-03     173.326E-03     16.6110E-03     113.282E-03    -56.5521E-03    -56.7337E-03    -55.9985E-03     112.564E-03    -56.5697E-03     21.9589E-03    -24.7847E+06    -41.5990E+06    -117.649E+06    -36.1113E+06    -106.322E+06    -41.5990E+06    -30.0003E+06         33.4809
            1662     11.3409E-03     92.9672E-03     183.447E-03     168.968E-03    -606.863E-03     178.179E-03    -605.996E-03     173.370E-03     17.0347E-03     113.162E-03    -56.5297E-03    -56.7877E-03    -55.8491E-03     112.224E-03    -56.5297E-03     25.1532E-03    -16.8063E+06    -36.9354E+06    -76.5956E+06    -30.8783E+06    -62.5236E+06    -36.9354E+06    -24.0750E+06         35.1291
            1663     12.2866E-03     92.9951E-03     193.193E-03     174.131E-03    -619.945E-03     192.073E-03    -618.825E-03     174.131E-03     23.2202E-03     113.408E-03    -56.4134E-03    -57.2276E-03    -55.3848E-03     111.565E-03    -56.4134E-03     34.3598E-03     18.3985E+06    -30.7893E+06    -49.4668E+06    -26.4348E+06     5.10746E+06    -40.5302E+06    -14.0647E+06         37.3522
            1664     13.2341E-03     93.0424E-03     186.579E-03     170.333E-03    -611.651E-03     180.721E-03    -610.322E-03     174.862E-03     15.6128E-03     115.609E-03    -56.3134E-03    -59.4469E-03    -54.9841E-03     111.146E-03    -56.3134E-03     54.0313E-03     91.6835E+06    -19.2605E+06    -34.0062E+06    -23.6801E+06     91.0982E+06    -29.0015E+06    -3.11791E+06         40.2482
            1665     14.1785E-03     93.1126E-03     174.476E-03     165.272E-03    -595.769E-03     164.279E-03    -594.776E-03     174.476E-03     7.54633E-03     119.553E-03    -56.4608E-03    -63.1029E-03    -54.8136E-03     111.264E-03    -56.4608E-03     75.5139E-03     151.072E+06     33.0883E+06    -20.1400E+06    -20.0536E+06     150.986E+06     33.0883E+06     3.16735E+06         43.8204
            1666     15.1251E-03     93.2087E-03     173.461E-03     164.678E-03    -586.189E-03     163.847E-03    -585.358E-03     173.461E-03     46.4260E-03     123.366E-03    -56.7309E-03    -66.6618E-03    -54.2762E-03     110.981E-03    -56.7309E-03     93.4997E-03     172.789E+06     101.230E+06    -14.4182E+06    -14.2824E+06     172.653E+06     101.230E+06     4.19296E+06         47.6217
            1667     16.0736E-03     93.3203E-03     174.749E-03     167.659E-03    -583.609E-03     169.297E-03    -583.158E-03     172.661E-03     8.49064E-03     119.865E-03    -56.7963E-03    -63.1189E-03    -54.4083E-03     111.154E-03    -56.7963E-03     73.2577E-03     178.839E+06     126.210E+06    -7.50692E+06    -7.43605E+06     178.768E+06     126.210E+06     2.48521E+06         50.8076
            1668     945.331E-06     93.9806E-03         1.66729    -225.796E-03        -1.69094        -1.31881    -597.929E-03         1.66729    -337.424E-03     113.846E-03    -56.6863E-03    -57.1656E-03    -57.0954E-03     113.845E-03    -56.7552E-03     453.226E-06    -69.7987E+06    -72.7173E+06    -212.534E+06    -71.6121E+06    -212.132E+06    -71.3058E+06    -5.85701E+06         28.4103
            1669     1.88922E-03     93.9809E-03     170.869E-03     138.215E-03    -546.352E-03     135.786E-03    -539.930E-03     166.877E-03     35.4413E-03     113.779E-03    -56.7610E-03    -57.0172E-03    -56.8473E-03     113.776E-03    -56.9279E-03     1.37588E-03    -64.2450E+06    -68.4441E+06    -198.373E+06    -69.0073E+06    -197.230E+06    -64.8247E+06    -11.6448E+06         28.5538
            1670     2.83481E-03     93.9830E-03     179.891E-03     149.161E-03    -566.308E-03     166.253E-03    -563.603E-03     160.095E-03    -9.46617E-03     113.767E-03    -56.7501E-03    -57.0115E-03    -56.8138E-03     113.758E-03    -56.9392E-03     2.33830E-03    -59.5794E+06    -64.3265E+06    -194.142E+06    -66.9431E+06    -191.525E+06    -59.5794E+06    -17.8332E+06         28.7362
            1671     3.77934E-03     93.9864E-03     192.169E-03     160.631E-03    -586.764E-03     187.336E-03    -585.323E-03     164.022E-03     9.70864E-03     113.762E-03    -56.7276E-03    -57.0157E-03    -56.8020E-03     113.741E-03    -56.9204E-03     3.67514E-03    -57.8418E+06    -59.9815E+06    -186.519E+06    -63.4336E+06    -182.156E+06    -58.7528E+06    -22.7456E+06         28.9513
            1672     4.72420E-03     93.9905E-03     182.568E-03     167.381E-03    -590.055E-03     180.732E-03    -589.032E-03     168.194E-03     4.97743E-03     113.751E-03    -56.7022E-03    -56.9792E-03    -56.7444E-03     113.710E-03    -56.8957E-03     5.24171E-03    -50.0141E+06    -55.2859E+06    -175.997E+06    -57.8995E+06    -170.540E+06    -52.8567E+06    -25.0206E+06         29.2262
            1673     5.66910E-03     93.9961E-03     178.372E-03     165.436E-03    -592.143E-03     173.433E-03    -591.521E-03     169.753E-03     34.0378E-03     113.608E-03    -56.6697E-03    -56.9196E-03    -56.5989E-03     113.537E-03    -56.9196E-03     6.88881E-03    -41.9278E+06    -47.9516E+06    -168.659E+06    -52.5098E+06    -162.169E+06    -43.8593E+06    -27.2724E+06         29.5916
            1674     6.61483E-03     94.0042E-03     179.178E-03     166.301E-03    -594.222E-03     174.935E-03    -594.037E-03     170.360E-03    -7.32020E-03     113.678E-03    -56.7463E-03    -56.9507E-03    -56.6408E-03     113.573E-03    -56.9507E-03     8.44520E-03    -37.9809E+06    -40.6064E+06    -166.901E+06    -48.5823E+06    -158.624E+06    -38.2814E+06    -31.1300E+06         30.0656
            1675     7.55919E-03     94.0129E-03     172.581E-03     164.201E-03    -584.922E-03     165.816E-03    -584.305E-03     170.349E-03    -10.9967E-03     113.848E-03    -56.8311E-03    -56.9231E-03    -56.6945E-03     113.684E-03    -56.8950E-03     10.5077E-03    -34.0708E+06    -38.6433E+06    -161.008E+06    -45.6634E+06    -150.077E+06    -37.9815E+06    -35.3135E+06         30.6569
            1676     8.50416E-03     94.0252E-03     169.420E-03     159.718E-03    -574.711E-03     159.028E-03    -574.021E-03     169.420E-03     9.59403E-03     113.558E-03    -56.6466E-03    -56.8143E-03    -56.4136E-03     113.297E-03    -56.7862E-03     13.2432E-03    -30.0902E+06    -39.5123E+06    -155.480E+06    -42.7396E+06    -142.831E+06    -39.5123E+06    -37.7241E+06         31.3789
            1677     9.44961E-03     94.0397E-03     168.051E-03     154.187E-03    -566.415E-03     153.938E-03    -566.165E-03     168.051E-03     6.07657E-03     113.270E-03    -56.5016E-03    -56.6830E-03    -56.0843E-03     112.811E-03    -56.6412E-03     17.4125E-03    -26.1418E+06    -42.7134E+06    -145.697E+06    -39.2704E+06    -132.568E+06    -42.7134E+06    -37.2396E+06         32.2818
            1678     10.3956E-03     94.0616E-03     173.526E-03     157.308E-03    -577.439E-03     163.447E-03    -577.116E-03     167.063E-03    -1.76616E-03     113.214E-03    -56.5326E-03    -56.6767E-03    -55.9547E-03     112.512E-03    -56.5528E-03     21.7317E-03    -21.1218E+06    -44.0774E+06    -121.292E+06    -36.0176E+06    -106.396E+06    -44.0774E+06    -35.2620E+06         33.4854
            1679     11.3411E-03     94.0856E-03     187.910E-03     167.581E-03    -602.414E-03     187.399E-03    -601.903E-03     167.581E-03    -17.4641E-03     113.148E-03    -56.5159E-03    -56.7809E-03    -55.8207E-03     112.190E-03    -56.5185E-03     25.3480E-03    -14.3361E+06    -41.9709E+06    -87.2693E+06    -32.4744E+06    -69.1310E+06    -41.9709E+06    -30.8542E+06         35.1288
            1680     12.2864E-03     94.1155E-03     190.097E-03     167.808E-03    -605.004E-03     187.927E-03    -603.984E-03     168.958E-03     4.33919E-03     113.467E-03    -56.4142E-03    -57.2507E-03    -55.4262E-03     111.642E-03    -56.4142E-03     34.4062E-03     10.7053E+06    -35.1024E+06    -59.8299E+06    -28.4280E+06    -9.59784E+06    -46.2011E+06    -19.7346E+06         37.3460
            1681     13.2319E-03     94.1585E-03     179.764E-03     165.051E-03    -592.561E-03     174.044E-03    -591.350E-03     169.561E-03    -1.27310E-03     115.618E-03    -56.2660E-03    -59.4923E-03    -54.9008E-03     111.026E-03    -56.2660E-03     54.5119E-03     79.6325E+06    -26.5340E+06    -41.0038E+06    -25.8156E+06     78.3588E+06    -40.4484E+06    -6.01410E+06         40.2367
            1682     14.1797E-03     94.2350E-03     171.935E-03     158.238E-03    -576.389E-03     160.621E-03    -575.841E-03     169.004E-03    -12.0990E-03     119.460E-03    -56.3967E-03    -63.0919E-03    -54.6884E-03     111.056E-03    -56.3967E-03     76.1234E-03     147.125E+06     22.9892E+06    -25.2417E+06    -22.3765E+06     147.076E+06     20.1734E+06     1.18546E+06         43.8085
            1683     15.1263E-03     94.3246E-03     167.825E-03     157.140E-03    -571.262E-03     156.918E-03    -571.040E-03     167.825E-03     19.5542E-03     123.324E-03    -56.6969E-03    -66.6548E-03    -54.2626E-03     110.932E-03    -56.6969E-03     93.4659E-03     172.883E+06     95.3867E+06    -16.1869E+06    -16.1041E+06     172.800E+06     95.3867E+06     3.21034E+06         47.6143
            1684     16.0738E-03     94.4392E-03     166.872E-03     162.644E-03    -570.742E-03     162.372E-03    -570.412E-03     166.815E-03    -8.08316E-03     119.431E-03    -56.6248E-03    -62.8483E-03    -53.8688E-03     110.588E-03    -56.7613E-03     73.8050E-03     180.808E+06     125.941E+06      -7.921E+06    -7.84979E+06     180.737E+06     125.941E+06     2.47687E+06         50.8049
            1685     944.055E-06     95.0994E-03         1.54578    -174.085E-03        -1.61151        -1.24903    -519.164E-03         1.52837    -240.233E-03     114.049E-03    -56.9341E-03    -57.1429E-03    -57.0732E-03     114.048E-03    -57.0030E-03     81.6106E-06    -62.6055E+06     -65.623E+06    -198.088E+06    -64.8582E+06    -197.539E+06    -63.9196E+06    -8.08225E+06         28.4053
            1686     1.89023E-03     95.1010E-03     175.252E-03     133.677E-03    -547.849E-03     161.803E-03    -544.916E-03     144.193E-03     43.0362E-03     113.990E-03    -56.8644E-03    -57.1018E-03    -56.9321E-03     113.987E-03    -57.0312E-03     1.23365E-03    -59.5882E+06    -61.6826E+06    -185.644E+06    -62.6064E+06    -184.334E+06    -59.9749E+06    -12.2297E+06         28.5554
            1687     2.83357E-03     95.1029E-03     183.934E-03     153.468E-03    -574.364E-03     182.673E-03    -573.103E-03     153.468E-03     2.98356E-03     113.906E-03    -56.7791E-03    -57.0714E-03    -56.8310E-03     113.897E-03    -57.0108E-03     2.36940E-03    -54.8347E+06    -57.5576E+06    -179.403E+06    -60.3952E+06    -176.566E+06    -54.8347E+06    -17.9825E+06         28.7372
            1688     3.77913E-03     95.1053E-03     188.709E-03     161.512E-03    -582.140E-03     186.947E-03    -580.377E-03     161.512E-03    -10.1480E-03     113.606E-03    -56.6147E-03    -56.9768E-03    -56.5920E-03     113.583E-03    -56.9768E-03     3.81798E-03    -51.2917E+06    -52.8406E+06    -174.436E+06    -57.8225E+06    -169.202E+06    -51.5439E+06    -24.4096E+06         28.9482
            1689     4.72448E-03     95.1102E-03     175.854E-03     164.039E-03    -572.450E-03     173.499E-03    -571.527E-03     165.471E-03    -20.7134E-03     113.490E-03    -56.5454E-03    -56.8785E-03    -56.5014E-03     113.446E-03    -56.8785E-03     5.42479E-03    -49.2127E+06    -52.3002E+06    -169.916E+06    -56.8067E+06    -162.503E+06    -52.1197E+06    -28.7908E+06         29.2222
            1690     5.66943E-03     95.1160E-03     165.799E-03     160.785E-03    -562.530E-03     160.549E-03    -562.293E-03     165.799E-03     3.43503E-03     113.591E-03    -56.6421E-03    -56.8978E-03    -56.6311E-03     113.515E-03    -56.8329E-03     7.11526E-03    -45.1650E+06    -50.2212E+06    -162.228E+06    -54.5963E+06    -153.551E+06    -49.4677E+06    -30.4130E+06         29.5863
            1691     6.61411E-03     95.1232E-03     164.496E-03     153.442E-03    -552.890E-03     153.022E-03    -552.469E-03     164.496E-03    -2.32450E-03     113.697E-03    -56.7506E-03    -56.9369E-03    -56.7023E-03     113.584E-03    -56.8720E-03     8.74840E-03    -38.8512E+06    -43.0389E+06    -158.193E+06    -50.8253E+06    -147.634E+06    -41.6235E+06    -33.4557E+06         30.0583
            1692     7.55962E-03     95.1333E-03     163.273E-03     155.160E-03    -554.315E-03     154.639E-03    -553.607E-03     163.086E-03    -18.1847E-03     113.640E-03    -56.7061E-03    -56.8423E-03    -56.5406E-03     113.474E-03    -56.8423E-03     10.5457E-03    -33.0537E+06    -40.0643E+06    -153.847E+06    -47.2826E+06    -140.280E+06    -39.4024E+06    -37.7310E+06         30.6524
            1693     8.50471E-03     95.1446E-03     165.089E-03     160.322E-03    -564.020E-03     161.775E-03    -562.823E-03     162.439E-03     595.448E-06     113.588E-03    -56.6262E-03    -56.8259E-03    -56.4344E-03     113.326E-03    -56.7559E-03     13.2465E-03    -28.8989E+06    -40.4780E+06    -151.767E+06    -44.4825E+06    -136.184E+06    -40.4780E+06    -40.7272E+06         31.3796
            1694     9.44972E-03     95.1595E-03     166.583E-03     153.487E-03    -557.704E-03     157.098E-03    -556.794E-03     162.062E-03     19.5039E-03     113.500E-03    -56.6226E-03    -56.7991E-03    -56.3046E-03     113.034E-03    -56.6513E-03     17.5692E-03    -24.2541E+06    -43.9868E+06    -145.942E+06    -41.3747E+06    -128.822E+06    -43.9868E+06    -42.0753E+06         32.2862
            1695     10.3947E-03     95.1803E-03     167.441E-03     154.528E-03    -556.987E-03     160.093E-03    -556.765E-03     161.654E-03    -5.84258E-03     113.214E-03    -56.5896E-03    -56.6942E-03    -55.9805E-03     112.503E-03    -56.5921E-03     21.8731E-03    -17.3878E+06    -46.5374E+06    -124.390E+06    -36.7637E+06    -105.014E+06    -46.5374E+06    -40.9557E+06         33.4877
            1696     11.3406E-03     95.2051E-03     174.993E-03     154.669E-03    -559.547E-03     167.583E-03    -559.184E-03     161.717E-03    -16.9628E-03     112.927E-03    -56.5290E-03    -56.5874E-03    -55.6175E-03     111.966E-03    -56.5382E-03     25.3629E-03    -12.0184E+06    -44.6417E+06    -95.5122E+06    -33.0422E+06    -74.4885E+06    -44.6417E+06    -35.8081E+06         35.1238
            1697     12.2873E-03     95.2342E-03     171.509E-03     153.831E-03    -558.711E-03     163.340E-03    -558.526E-03     161.815E-03    -13.3909E-03     113.342E-03    -56.4036E-03    -57.1531E-03    -55.3119E-03     111.508E-03    -56.4103E-03     34.4598E-03     2.66401E+06    -41.0833E+06    -69.6272E+06    -30.8421E+06    -25.3282E+06    -51.8761E+06    -24.9442E+06         37.3335
            1698     13.2333E-03     95.2790E-03     166.385E-03     160.456E-03    -564.716E-03     164.735E-03    -564.216E-03     161.606E-03    -26.5542E-03     115.561E-03    -56.2019E-03    -59.5151E-03    -54.8817E-03     110.928E-03    -56.2019E-03     54.7463E-03     67.9085E+06    -31.7975E+06    -53.8610E+06    -27.5616E+06     63.6726E+06    -53.8610E+06    -11.2184E+06         40.2188
            1699     14.1797E-03     95.3514E-03     171.743E-03     157.615E-03    -561.624E-03     167.369E-03    -561.002E-03     161.367E-03    -14.4412E-03     119.216E-03    -56.2993E-03    -62.9736E-03    -54.5437E-03     110.786E-03    -56.2993E-03     76.1763E-03     141.577E+06     14.4100E+06    -35.2014E+06    -23.8361E+06     141.482E+06     3.13933E+06    -1.87758E+06         43.7895
            1700     15.1264E-03     95.4452E-03     166.682E-03     155.493E-03    -552.274E-03     161.067E-03    -552.103E-03     160.937E-03     7.35979E-03     123.102E-03    -56.6500E-03    -66.5151E-03    -54.2305E-03     110.817E-03    -56.6500E-03     93.0263E-03     171.872E+06     86.4377E+06    -17.6513E+06    -17.6172E+06     171.838E+06     86.4377E+06     1.36046E+06         47.5986
            1701     16.0731E-03     95.5552E-03     160.272E-03     154.787E-03    -542.048E-03     154.685E-03    -541.889E-03     160.214E-03     1.52427E-03     118.889E-03    -56.4006E-03    -62.5378E-03    -53.3660E-03     110.068E-03    -56.7516E-03     73.8984E-03     182.723E+06     126.455E+06    -8.24152E+06    -8.21974E+06     182.701E+06     126.455E+06     1.53443E+06         50.7935
            1702     945.202E-06     96.2210E-03         1.42639    -125.770E-03        -1.53778        -1.11105    -519.820E-03         1.39371    -259.255E-03     114.197E-03    -56.9061E-03    -57.3180E-03    -57.3170E-03     114.196E-03    -56.9061E-03     631.210E-06    -53.4498E+06    -59.8096E+06    -182.516E+06    -57.6121E+06    -181.995E+06    -56.1684E+06    -7.08648E+06         28.3966
            1703     1.88814E-03     96.2207E-03     192.767E-03     144.962E-03    -576.459E-03     184.438E-03    -573.591E-03     150.423E-03     75.7776E-03     114.010E-03    -56.8240E-03    -57.1876E-03    -56.9124E-03     114.007E-03    -57.0961E-03     1.29655E-03    -52.2532E+06    -55.4302E+06    -172.881E+06    -56.6992E+06    -171.226E+06    -52.6399E+06    -13.2929E+06         28.5443
            1704     2.83483E-03     96.2230E-03     169.258E-03     146.842E-03    -551.133E-03     156.499E-03    -550.120E-03     158.588E-03     18.3156E-03     113.583E-03    -56.5616E-03    -56.9864E-03    -56.5497E-03     113.571E-03    -56.9864E-03     2.72562E-03    -48.8797E+06    -50.1601E+06    -164.856E+06    -53.5905E+06    -161.426E+06    -48.8797E+06    -19.0985E+06         28.7266
            1705     3.77914E-03     96.2250E-03     165.318E-03     151.929E-03    -543.563E-03     158.014E-03    -542.543E-03     158.213E-03    -11.6329E-03     113.518E-03    -56.6040E-03    -56.8908E-03    -56.5781E-03     113.492E-03    -56.8908E-03     4.14896E-03    -45.6544E+06    -47.4400E+06    -161.243E+06    -52.5420E+06    -156.141E+06    -45.6544E+06    -23.5045E+06         28.9414
            1706     4.72442E-03     96.2293E-03     168.660E-03     158.365E-03    -549.410E-03     167.135E-03    -548.503E-03     158.983E-03    -6.88584E-03     113.487E-03    -56.6149E-03    -56.8494E-03    -56.5676E-03     113.440E-03    -56.8494E-03     5.60256E-03    -43.3198E+06    -45.6535E+06    -158.949E+06    -52.1262E+06    -151.753E+06    -44.0431E+06    -27.5222E+06         29.2191
            1707     5.66995E-03     96.2354E-03     163.079E-03     153.387E-03    -541.848E-03     156.277E-03    -541.157E-03     159.498E-03     19.4225E-03     113.587E-03    -56.6848E-03    -56.8597E-03    -56.6733E-03     113.511E-03    -56.7948E-03     7.15982E-03    -39.4584E+06    -44.5992E+06    -153.547E+06    -50.6320E+06    -142.727E+06    -44.2455E+06    -33.0384E+06         29.5845
            1708     6.61485E-03     96.2435E-03     158.204E-03     145.578E-03    -531.114E-03     144.413E-03    -529.949E-03     158.204E-03     12.7318E-03     113.530E-03    -56.6491E-03    -56.8597E-03    -56.5992E-03     113.415E-03    -56.7948E-03     8.77336E-03    -34.0487E+06    -41.2681E+06    -151.236E+06    -47.4063E+06    -137.878E+06    -41.2681E+06    -37.1135E+06         30.0532
            1709     7.55932E-03     96.2523E-03     156.805E-03     148.421E-03    -535.164E-03     147.780E-03    -534.336E-03     156.618E-03    -20.4578E-03     113.406E-03    -56.5553E-03    -56.8325E-03    -56.4383E-03     113.231E-03    -56.7749E-03     10.8159E-03    -28.8200E+06    -38.1015E+06    -146.333E+06    -44.3360E+06    -130.817E+06    -38.1015E+06    -39.6528E+06         30.6449
            1710     8.50483E-03     96.2638E-03     158.614E-03     153.870E-03    -540.777E-03     155.137E-03    -539.394E-03     155.963E-03     20.1662E-03     113.562E-03    -56.6240E-03    -56.8795E-03    -56.5237E-03     113.290E-03    -56.7074E-03     13.5149E-03    -24.5205E+06    -37.7786E+06    -144.922E+06    -42.4987E+06    -126.943E+06    -37.7786E+06    -42.9078E+06         31.3747
            1711     9.44967E-03     96.2791E-03     166.610E-03     155.207E-03    -547.426E-03     164.137E-03    -545.983E-03     156.236E-03     20.3121E-03     113.496E-03    -56.6427E-03    -56.8060E-03    -56.3229E-03     113.025E-03    -56.6555E-03     17.6771E-03    -18.6912E+06    -41.9114E+06    -142.689E+06    -39.7522E+06    -121.628E+06    -41.9114E+06    -46.3881E+06         32.2837
            1712     10.3954E-03     96.2993E-03     164.662E-03     154.082E-03    -539.560E-03     161.614E-03    -539.182E-03     156.751E-03    -9.03746E-03     113.323E-03    -56.6000E-03    -56.7946E-03    -56.0468E-03     112.588E-03    -56.6128E-03     22.2287E-03    -13.8238E+06    -48.4537E+06    -127.842E+06    -37.1073E+06    -104.559E+06    -48.4537E+06    -45.8720E+06         33.4823
            1713     11.3409E-03     96.3243E-03     156.273E-03     142.799E-03    -518.731E-03     142.429E-03    -518.361E-03     156.273E-03    -6.41197E-03     113.129E-03    -56.5516E-03    -56.7632E-03    -55.7991E-03     112.172E-03    -56.5583E-03     25.4021E-03    -12.1193E+06    -47.8996E+06    -103.456E+06    -35.4386E+06    -80.1367E+06    -47.8996E+06    -39.5196E+06         35.1107
            1714     12.2864E-03     96.3524E-03     155.246E-03     143.989E-03    -521.857E-03     143.513E-03    -521.233E-03     155.098E-03     1.53108E-03     113.306E-03    -56.4201E-03    -57.1122E-03    -55.3160E-03     111.516E-03    -56.4268E-03     33.9625E-03    -219.287E+03    -46.7051E+06    -75.9477E+06    -32.1682E+06    -36.0841E+06    -54.6197E+06    -31.1058E+06         37.3120
            1715     13.2333E-03     96.3965E-03     156.182E-03     150.623E-03    -531.346E-03     151.956E-03    -530.833E-03     154.335E-03     10.5416E-03     115.175E-03    -56.1685E-03    -59.1918E-03    -54.6608E-03     110.644E-03    -56.1685E-03     54.0714E-03     56.7944E+06    -37.1438E+06    -66.9473E+06    -27.2678E+06     46.9184E+06    -66.9473E+06    -19.4691E+06         40.1914
            1716     14.1796E-03     96.4694E-03     166.145E-03     150.742E-03    -536.415E-03     162.218E-03    -535.895E-03     154.149E-03     15.0905E-03     118.910E-03    -56.1905E-03    -62.7793E-03    -54.1621E-03     110.293E-03    -56.1905E-03     76.7128E-03     132.567E+06     5.08348E+06    -44.4825E+06    -21.7780E+06     131.751E+06    -16.8053E+06    -6.25357E+06         43.7613
            1717     15.1269E-03     96.5610E-03     165.507E-03     153.780E-03    -539.010E-03     164.622E-03    -538.579E-03     154.234E-03     24.3108E-03     122.861E-03    -56.5370E-03    -66.3922E-03    -53.8060E-03     110.275E-03    -56.5370E-03     94.0646E-03     170.839E+06     74.9146E+06    -16.6977E+06    -16.6731E+06     170.815E+06     74.9146E+06     195.146E+03         47.5743
            1718     16.0757E-03     96.6734E-03     157.404E-03     149.835E-03    -533.757E-03     152.598E-03    -533.140E-03     154.024E-03     28.2917E-03     118.616E-03    -56.3305E-03    -62.3455E-03    -53.1753E-03     109.798E-03    -56.6822E-03     73.6510E-03     182.816E+06     124.768E+06    -9.06991E+06    -9.05227E+06     182.798E+06     124.768E+06     353.055E+03         50.7735
            1719     944.516E-06     97.3410E-03         1.33125    -120.839E-03        -1.42965        -1.00626    -528.954E-03         1.31598    -440.752E-03     113.791E-03    -56.5628E-03    -57.2275E-03    -56.9697E-03     113.790E-03    -56.8193E-03     549.358E-06    -43.7518E+06    -49.1363E+06    -168.510E+06    -47.3748E+06    -167.940E+06    -46.0837E+06    -7.52448E+06         28.3826
            1720     1.89019E-03     97.3416E-03     183.093E-03     148.349E-03    -557.290E-03     170.768E-03    -554.789E-03     158.174E-03     32.8647E-03     113.531E-03    -56.4659E-03    -57.0842E-03    -56.6485E-03     113.526E-03    -56.8964E-03     1.66522E-03    -39.4649E+06    -43.9775E+06    -157.744E+06    -45.4913E+06    -156.230E+06    -39.4649E+06    -12.4186E+06         28.5284
            1721     2.83414E-03     97.3409E-03     170.457E-03     149.063E-03    -539.115E-03     157.792E-03    -538.196E-03     160.809E-03     33.5703E-03     113.503E-03    -56.5458E-03    -56.9943E-03    -56.6953E-03     113.488E-03    -56.8301E-03     3.08191E-03    -38.7294E+06    -42.1266E+06    -150.190E+06    -45.4516E+06    -146.865E+06    -38.7294E+06    -17.9591E+06         28.7112
            1722     3.78046E-03     97.3454E-03     159.197E-03     143.310E-03    -517.961E-03     143.558E-03    -517.460E-03     158.448E-03     12.4150E-03     113.561E-03    -56.6771E-03    -56.8927E-03    -56.7512E-03     113.537E-03    -56.7945E-03     4.02661E-03    -36.3452E+06    -39.1896E+06    -149.165E+06    -43.7889E+06    -143.927E+06    -36.9839E+06    -23.4758E+06         28.9272
            1723     4.72499E-03     97.3484E-03     159.944E-03     142.100E-03    -516.287E-03     145.962E-03    -515.825E-03     155.620E-03     4.28339E-03     113.664E-03    -56.7812E-03    -56.8618E-03    -56.7989E-03     113.618E-03    -56.7981E-03     5.47032E-03    -30.2939E+06    -34.4687E+06    -146.980E+06    -39.5625E+06    -139.141E+06    -33.0388E+06    -28.6151E+06         29.2056
            1724     5.66931E-03     97.3561E-03     157.024E-03     136.801E-03    -508.079E-03     139.210E-03    -506.907E-03     153.444E-03     41.5016E-03     113.455E-03    -56.6008E-03    -56.8091E-03    -56.5471E-03     113.378E-03    -56.7857E-03     7.19738E-03    -25.6326E+06    -30.8003E+06    -141.155E+06    -37.0474E+06    -130.094E+06    -30.4466E+06    -33.5431E+06         29.5744
            1725     6.61440E-03     97.3624E-03     151.097E-03     138.016E-03    -503.790E-03     135.557E-03    -501.331E-03     151.097E-03    -4.28529E-03     113.222E-03    -56.4338E-03    -56.7697E-03    -56.3151E-03     113.104E-03    -56.7697E-03     8.88755E-03    -22.9530E+06    -31.7049E+06    -141.838E+06    -37.3186E+06    -127.473E+06    -31.7049E+06    -38.2438E+06         30.0420
            1726     7.56086E-03     97.3723E-03     149.667E-03     147.296E-03    -513.404E-03     145.712E-03    -511.820E-03     149.667E-03    -56.0864E-03     113.430E-03    -56.5828E-03    -56.8104E-03    -56.4592E-03     113.240E-03    -56.7435E-03     11.3030E-03    -18.5779E+06    -31.7329E+06    -138.663E+06    -35.8160E+06    -121.425E+06    -31.7329E+06    -41.9423E+06         30.6280
            1727     8.50506E-03     97.3843E-03     151.964E-03     147.028E-03    -518.514E-03     149.206E-03    -518.052E-03     149.324E-03    -2.23422E-03     113.509E-03    -56.6915E-03    -56.8113E-03    -56.5285E-03     113.226E-03    -56.6915E-03     13.8139E-03    -14.3330E+06    -30.5626E+06    -136.980E+06    -33.4854E+06    -117.828E+06    -30.5626E+06    -44.4822E+06         31.3551
            1728     9.45052E-03     97.3987E-03     157.903E-03     145.692E-03    -521.038E-03     153.499E-03    -520.353E-03     149.410E-03    -10.2987E-03     113.394E-03    -56.6261E-03    -56.7837E-03    -56.2950E-03     112.918E-03    -56.6389E-03     17.7571E-03    -11.4299E+06    -34.6858E+06    -134.367E+06    -33.5839E+06    -112.213E+06    -34.6858E+06    -47.1230E+06         32.2656
            1729     10.3958E-03     97.4191E-03     155.374E-03     144.328E-03    -515.259E-03     149.794E-03    -514.824E-03     149.473E-03    -18.3515E-03     113.420E-03    -56.6041E-03    -56.8907E-03    -56.1411E-03     112.683E-03    -56.6170E-03     22.2822E-03    -10.9316E+06    -43.9364E+06    -127.749E+06    -35.2086E+06    -103.472E+06    -43.9364E+06    -47.3581E+06         33.4660
            1730     11.3409E-03     97.4443E-03     155.891E-03     142.840E-03    -511.210E-03     148.506E-03    -510.250E-03     149.267E-03    -29.7791E-03     113.242E-03    -56.5539E-03    -56.8674E-03    -55.8962E-03     112.271E-03    -56.5539E-03     25.5797E-03    -7.48794E+06    -46.7648E+06    -109.290E+06    -33.7435E+06    -83.0347E+06    -46.7648E+06    -44.1926E+06         35.0892
            1731     12.2868E-03     97.4709E-03     155.590E-03     143.270E-03    -510.683E-03     148.572E-03    -509.409E-03     149.014E-03    -23.6546E-03     113.506E-03    -56.4213E-03    -57.3089E-03    -55.4310E-03     111.628E-03    -56.4213E-03     34.7815E-03     6.45696E+06    -50.6437E+06    -79.6295E+06    -28.4905E+06    -41.5829E+06    -53.7428E+06    -39.4167E+06         37.2801
            1732     13.2322E-03     97.5150E-03     148.494E-03     142.467E-03    -503.054E-03     141.933E-03    -502.520E-03     148.494E-03     4.89961E-03     115.186E-03    -56.1615E-03    -59.2226E-03    -54.6396E-03     110.603E-03    -56.1615E-03     54.5206E-03     48.0872E+06    -41.3162E+06    -70.7541E+06    -23.5681E+06     29.7801E+06    -70.1952E+06    -28.1127E+06         40.1519
            1733     14.1810E-03     97.5851E-03     152.282E-03     140.694E-03    -505.513E-03     144.376E-03    -504.643E-03     147.730E-03    -11.6352E-03     118.537E-03    -56.1081E-03    -62.4945E-03    -53.9487E-03     109.991E-03    -56.1081E-03     76.2667E-03     116.940E+06    -6.82517E+06    -47.7377E+06    -19.9319E+06     114.914E+06    -32.6050E+06    -11.2897E+06         43.7219
            1734     15.1295E-03     97.6799E-03     158.106E-03     144.449E-03    -520.258E-03     154.489E-03    -519.424E-03     147.232E-03    -6.20850E-03     121.940E-03    -56.4113E-03    -65.5798E-03    -53.2121E-03     109.572E-03    -56.4113E-03     92.8482E-03     168.148E+06     60.0776E+06    -14.6683E+06    -14.5796E+06     168.059E+06     60.0776E+06    -1.61234E+06         47.5399
            1735     16.0763E-03     97.7897E-03     168.416E-03     147.411E-03    -536.831E-03     167.281E-03    -535.696E-03     147.411E-03    -4.39971E-03     117.917E-03    -56.2930E-03    -61.6578E-03    -52.6982E-03     109.235E-03    -56.5705E-03     72.9439E-03     183.517E+06     122.022E+06    -7.82810E+06    -7.82128E+06     183.510E+06     122.022E+06    -148.717E+03         50.7427
            1736     944.667E-06     98.4600E-03         1.24583    -199.983E-03        -1.26006    -923.045E-03    -536.993E-03         1.24583    -340.010E-03     113.062E-03    -56.2815E-03    -56.7876E-03    -56.5305E-03     113.062E-03    -56.5380E-03     115.198E-06    -28.4732E+06    -31.6797E+06    -153.167E+06    -32.1927E+06    -152.654E+06    -28.4732E+06    -6.95390E+06         28.3724
            1737     1.89089E-03     98.4594E-03     164.392E-03     123.583E-03    -494.888E-03     128.247E-03    -489.909E-03     154.750E-03     22.1339E-03     113.212E-03    -56.3404E-03    -56.9001E-03    -56.6389E-03     113.207E-03    -56.5969E-03     1.54908E-03    -25.0561E+06    -29.9416E+06    -144.751E+06    -30.1695E+06    -143.353E+06    -26.2265E+06    -12.0003E+06         28.5179
            1738     2.83626E-03     98.4628E-03     164.554E-03     145.652E-03    -517.889E-03     160.268E-03    -517.796E-03     149.846E-03    -6.28688E-03     113.584E-03    -56.6615E-03    -56.9754E-03    -56.9643E-03     113.573E-03    -56.6615E-03     2.65340E-03    -21.2184E+06    -27.8222E+06    -135.694E+06    -26.8667E+06    -132.534E+06    -25.3337E+06    -17.8993E+06         28.6932
            1739     3.77948E-03     98.4640E-03     155.342E-03     135.974E-03    -502.755E-03     140.180E-03    -501.896E-03     150.277E-03    -29.1769E-03     113.583E-03    -56.7223E-03    -56.8852E-03    -56.8536E-03     113.551E-03    -56.7223E-03     4.25289E-03    -19.0647E+06    -23.9803E+06    -135.215E+06    -25.3940E+06    -129.788E+06    -23.0774E+06    -24.3033E+06         28.9046
            1740     4.72456E-03     98.4699E-03     146.278E-03     121.853E-03    -474.250E-03     119.613E-03    -472.010E-03     146.278E-03    -60.8395E-03     113.504E-03    -56.6645E-03    -56.7925E-03    -56.6769E-03     113.446E-03    -56.7221E-03     6.13254E-03    -17.3063E+06    -22.7994E+06    -134.787E+06    -25.6834E+06    -126.410E+06    -22.7994E+06    -29.8789E+06         29.1777
            1741     5.66999E-03     98.4742E-03     158.097E-03     126.520E-03    -483.700E-03     139.236E-03    -481.523E-03     143.204E-03    -563.350E-06     113.176E-03    -56.4165E-03    -56.7277E-03    -56.3538E-03     113.090E-03    -56.7043E-03     7.58796E-03    -14.5663E+06    -21.3859E+06    -130.381E+06    -25.2613E+06    -119.686E+06    -21.3859E+06    -33.3482E+06         29.5402
            1742     6.61624E-03     98.4818E-03     158.008E-03     134.357E-03    -491.844E-03     147.400E-03    -489.994E-03     143.115E-03    -370.407E-06     113.127E-03    -56.4128E-03    -56.6964E-03    -56.2750E-03     112.989E-03    -56.6964E-03     9.59115E-03    -10.9003E+06    -19.1558E+06    -128.502E+06    -24.4160E+06    -114.986E+06    -19.1558E+06    -37.0259E+06         30.0081
            1743     7.56026E-03     98.4911E-03     142.771E-03     134.365E-03    -483.808E-03     133.211E-03    -482.654E-03     142.771E-03    -37.9140E-03     113.316E-03    -56.5598E-03    -56.6876E-03    -56.3542E-03     113.101E-03    -56.6782E-03     11.9902E-03    -7.79353E+06    -21.6268E+06    -128.331E+06    -25.2979E+06    -110.827E+06    -21.6268E+06    -42.2718E+06         30.5944
            1744     8.50617E-03     98.5036E-03     144.410E-03     133.171E-03    -489.222E-03     135.761E-03    -489.171E-03     141.770E-03    -6.53824E-03     113.265E-03    -56.6017E-03    -56.7411E-03    -56.3667E-03     112.956E-03    -56.6666E-03     14.4205E-03    -6.46465E+06    -23.2155E+06    -129.900E+06    -25.8578E+06    -110.507E+06    -23.2155E+06    -44.8729E+06         31.3156
            1745     9.45129E-03     98.5176E-03     146.368E-03     136.240E-03    -496.909E-03     141.132E-03    -496.752E-03     141.319E-03    -12.5986E-03     113.388E-03    -56.5889E-03    -56.8873E-03    -56.3711E-03     112.872E-03    -56.5889E-03     18.4816E-03    -6.40679E+06    -25.9948E+06    -125.298E+06    -26.9825E+06    -104.723E+06    -25.9948E+06    -44.8975E+06         32.2215
            1746     10.3962E-03     98.5388E-03     148.340E-03     138.659E-03    -499.175E-03     145.176E-03    -498.700E-03     141.348E-03     3.38711E-03     113.344E-03    -56.5331E-03    -56.8817E-03    -56.0903E-03     112.552E-03    -56.5331E-03     23.0806E-03    -2.56510E+06    -34.6269E+06    -121.130E+06    -27.3100E+06    -96.3852E+06    -34.6269E+06    -48.0768E+06         33.4245
            1747     11.3421E-03     98.5618E-03     152.826E-03     138.571E-03    -497.884E-03     148.713E-03    -496.866E-03     141.668E-03    -10.0527E-03     112.992E-03    -56.4250E-03    -56.7349E-03    -55.6698E-03     111.927E-03    -56.4250E-03     26.7163E-03     6.09628E+06    -42.9255E+06    -110.652E+06    -23.9447E+06    -80.6112E+06    -42.9255E+06    -50.8925E+06         35.0483
            1748     12.2881E-03     98.5897E-03     148.353E-03     136.503E-03    -486.019E-03     142.268E-03    -485.208E-03     141.777E-03    -22.4818E-03     113.397E-03    -56.2538E-03    -57.3208E-03    -55.3161E-03     111.393E-03    -56.2538E-03     36.0419E-03     14.7921E+06    -50.6656E+06    -82.6387E+06    -20.9082E+06    -46.9384E+06    -50.6656E+06    -45.9652E+06         37.2311
            1749     13.2352E-03     98.6329E-03     141.821E-03     138.330E-03    -483.608E-03     138.274E-03    -483.084E-03     141.353E-03    -18.5330E-03     115.817E-03    -56.0738E-03    -59.8939E-03    -55.1831E-03     111.106E-03    -56.0738E-03     55.5790E-03     39.6319E+06    -42.7558E+06    -69.4698E+06    -20.3322E+06     13.3760E+06    -65.6376E+06    -33.4377E+06         40.0962
            1750     14.1800E-03     98.7045E-03     141.080E-03     136.821E-03    -486.298E-03     135.990E-03    -484.999E-03     140.612E-03    -23.8245E-03     119.061E-03    -56.0190E-03    -63.1085E-03    -54.5557E-03     110.508E-03    -56.0190E-03     76.5865E-03     100.598E+06    -19.9270E+06    -49.8569E+06    -19.7161E+06     96.0257E+06    -45.4953E+06    -16.6922E+06         43.6673
            1751     15.1266E-03     98.7961E-03     145.214E-03     135.360E-03    -486.954E-03     139.698E-03    -485.946E-03     139.869E-03    -13.0173E-03     121.496E-03    -56.2705E-03    -65.2743E-03    -52.8411E-03     109.063E-03    -56.2705E-03     92.8107E-03     161.856E+06     44.9352E+06    -17.2471E+06    -14.3429E+06     161.639E+06     42.2486E+06    -4.55809E+06         47.4903
            1752     16.0785E-03     98.9056E-03     157.346E-03     137.744E-03    -496.737E-03     154.658E-03    -496.027E-03     139.721E-03    -29.0029E-03     116.994E-03    -55.7068E-03    -61.3056E-03    -51.7146E-03     108.140E-03    -56.4439E-03     73.3356E-03     182.902E+06     117.431E+06    -6.66070E+06    -6.63540E+06     182.877E+06     117.431E+06    -419.395E+03         50.6975
            1753     946.654E-06     99.5784E-03         1.12332    -220.257E-03        -1.09509    -776.140E-03    -539.212E-03         1.12332    -181.307E-03     112.526E-03    -55.7594E-03    -56.7925E-03    -56.7912E-03     112.524E-03    -55.7594E-03     607.944E-06    -13.0345E+06    -16.4869E+06    -139.133E+06    -16.8425E+06    -138.777E+06    -13.0345E+06    -4.97475E+06         28.3543
            1754     1.89029E-03     99.5794E-03     157.534E-03     97.8011E-03    -449.881E-03     90.3826E-03    -442.463E-03     157.534E-03     48.0324E-03     113.308E-03    -56.3863E-03    -56.9572E-03    -56.9184E-03     113.303E-03    -56.4196E-03     1.79304E-03    -8.67034E+06    -12.6875E+06    -128.698E+06    -12.4786E+06    -126.975E+06    -10.6019E+06    -13.3216E+06         28.4913
            1755     2.83468E-03     99.5825E-03     142.891E-03     108.589E-03    -448.243E-03     112.975E-03    -446.508E-03     136.770E-03    -25.6373E-03     113.088E-03    -56.4213E-03    -56.6732E-03    -56.5552E-03     113.072E-03    -56.5236E-03     2.99466E-03    -7.62226E+06    -15.3091E+06    -122.730E+06    -11.2749E+06    -119.077E+06    -15.3091E+06    -19.9691E+06         28.6527
            1756     3.78126E-03     99.5843E-03     144.809E-03     127.715E-03    -470.345E-03     136.256E-03    -467.241E-03     133.164E-03     23.6039E-03     113.044E-03    -56.4526E-03    -56.5886E-03    -56.4772E-03     113.002E-03    -56.5216E-03     5.04407E-03    -6.85368E+06    -15.1454E+06    -122.449E+06    -12.2775E+06    -117.025E+06    -15.1454E+06    -24.3351E+06         28.8596
            1757     4.72628E-03     99.5889E-03     142.668E-03     122.048E-03    -460.470E-03     127.385E-03    -456.092E-03     132.953E-03    -8.49778E-03     112.969E-03    -56.3967E-03    -56.5259E-03    -56.3363E-03     112.900E-03    -56.5170E-03     6.81046E-03    -5.62922E+06    -11.1722E+06    -121.327E+06    -13.1543E+06    -113.802E+06    -11.1722E+06    -28.4074E+06         29.1312
            1758     5.67172E-03     99.5936E-03     152.645E-03     127.882E-03    -472.147E-03     145.027E-03    -469.985E-03     133.338E-03     2.58295E-03     112.881E-03    -56.2914E-03    -56.5469E-03    -56.2585E-03     112.778E-03    -56.4762E-03     8.27937E-03    -3.10920E+06    -10.8031E+06    -119.285E+06    -13.5409E+06    -108.854E+06    -10.8031E+06    -33.0659E+06         29.4868
            1759     6.61634E-03     99.6006E-03     156.228E-03     134.270E-03    -484.175E-03     153.886E-03    -483.141E-03     135.578E-03     12.8330E-03     112.893E-03    -56.3470E-03    -56.5473E-03    -56.2470E-03     112.723E-03    -56.4766E-03     10.6379E-03     45.6857E+03    -9.23443E+06    -116.799E+06    -13.2129E+06    -103.540E+06    -9.23443E+06    -36.9117E+06         29.9494
            1760     7.56278E-03     99.6108E-03     142.798E-03     129.387E-03    -470.528E-03     134.696E-03    -469.740E-03     136.700E-03    -36.5197E-03     112.897E-03    -56.3520E-03    -56.5219E-03    -56.1323E-03     112.638E-03    -56.4820E-03     13.1741E-03     2.44344E+06    -7.32320E+06    -115.755E+06    -13.1659E+06    -100.145E+06    -7.32320E+06    -39.8360E+06         30.5318
            1761     8.50781E-03     99.6215E-03     136.378E-03     123.739E-03    -463.515E-03     123.233E-03    -462.445E-03     135.814E-03    -32.8923E-06     112.984E-03    -56.3939E-03    -56.6400E-03    -56.1990E-03     112.608E-03    -56.4589E-03     15.8707E-03     2.86873E+06    -11.0100E+06    -120.146E+06    -14.8144E+06    -102.463E+06    -11.0100E+06    -43.0587E+06         31.2462
            1762     9.45321E-03     99.6378E-03     138.859E-03     128.842E-03    -468.723E-03     132.166E-03    -468.100E-03     134.912E-03     11.0339E-03     113.107E-03    -56.3551E-03    -56.7943E-03    -56.1820E-03     112.494E-03    -56.3551E-03     20.1413E-03     6.51461E+06    -16.6816E+06    -118.095E+06    -13.6436E+06    -97.9364E+06    -16.6816E+06    -45.8124E+06         32.1447
            1763     10.3988E-03     99.6566E-03     143.457E-03     133.326E-03    -476.455E-03     141.390E-03    -476.037E-03     134.976E-03     12.0474E-03     113.056E-03    -56.2884E-03    -56.8148E-03    -55.9232E-03     112.164E-03    -56.2884E-03     24.4877E-03     13.6452E+06    -22.5143E+06    -109.926E+06    -11.6383E+06    -84.6426E+06    -22.5143E+06    -49.6554E+06         33.3415
            1764     11.3448E-03     99.6803E-03     142.049E-03     130.460E-03    -474.661E-03     136.727E-03    -474.084E-03     135.205E-03     4.60699E-03     112.943E-03    -56.2128E-03    -56.8773E-03    -55.7214E-03     111.787E-03    -56.2128E-03     27.8611E-03     16.2395E+06    -33.9023E+06    -105.524E+06    -13.9648E+06    -75.3197E+06    -33.9023E+06    -52.4832E+06         34.9637
            1765     12.2911E-03     99.7073E-03     137.248E-03     129.166E-03    -466.417E-03     130.706E-03    -465.647E-03     134.939E-03     8.64254E-03     113.484E-03    -56.0523E-03    -57.5681E-03    -55.5178E-03     111.434E-03    -56.0523E-03     36.6026E-03     18.2623E+06    -46.7086E+06    -87.3320E+06    -16.6267E+06    -52.4430E+06    -46.7086E+06    -48.8718E+06         37.1471
            1766     13.2366E-03     99.7518E-03     134.806E-03     129.827E-03    -462.330E-03     129.188E-03    -461.223E-03     134.338E-03    -1.32449E-03     115.830E-03    -55.9346E-03    -59.9980E-03    -55.0086E-03     110.840E-03    -55.9346E-03     56.9167E-03     30.8050E+06    -42.1495E+06    -68.3098E+06    -17.6941E+06    -2.90800E+06    -59.0523E+06    -36.7319E+06         40.0155
            1767     14.1830E-03     99.8246E-03     135.977E-03     131.746E-03    -464.151E-03     133.013E-03    -463.183E-03     133.742E-03    -11.4069E-03     119.174E-03    -55.8100E-03    -63.4205E-03    -54.3695E-03     110.123E-03    -55.8100E-03     78.8508E-03     85.6602E+06    -25.4198E+06    -53.0024E+06    -17.7768E+06     78.0172E+06    -53.0024E+06    -20.3991E+06         43.5962
            1768     15.1318E-03     99.9112E-03     138.117E-03     131.551E-03    -464.879E-03     135.365E-03    -463.852E-03     133.276E-03    -8.51225E-03     122.057E-03    -55.9876E-03    -66.1603E-03    -53.1631E-03     109.060E-03    -55.9876E-03     95.1432E-03     153.790E+06     33.4702E+06    -26.2423E+06    -14.9286E+06     153.156E+06     22.7904E+06    -8.21853E+06         47.4283
            1769     16.0788E-03     100.023E-03     135.686E-03     122.655E-03    -452.186E-03     124.736E-03    -451.193E-03     132.612E-03    -5.47196E-03     116.762E-03    -55.0475E-03    -61.7761E-03    -51.3442E-03     107.513E-03    -56.2302E-03     74.8846E-03     179.216E+06     108.396E+06    -7.99301E+06    -7.94861E+06     179.171E+06     108.396E+06    -1.64979E+06         50.6389
            1770     945.846E-06     100.697E-03     956.289E-03    -133.102E-03    -997.448E-03    -664.813E-03    -448.911E-03     939.463E-03    -161.838E-03     112.243E-03    -55.4825E-03    -56.7767E-03    -56.3340E-03     112.240E-03    -55.9222E-03     1.03700E-03     2.70016E+06    -4.29629E+06    -124.229E+06     543.811E+03    -123.333E+06    -3.03670E+06    -9.17718E+06         28.2982
            1771     1.89083E-03     100.700E-03     160.302E-03     100.632E-03    -440.780E-03     117.290E-03    -430.699E-03     133.563E-03     31.6431E-03     112.267E-03    -55.8089E-03    -56.4682E-03    -56.1555E-03     112.257E-03    -56.1117E-03     2.50991E-03     1.45125E+06    -2.39809E+06    -111.753E+06    -597.457E+03    -109.866E+06    -2.23574E+06    -14.0921E+06         28.4237
            1772     2.83726E-03     100.699E-03     136.901E-03     97.9259E-03    -416.372E-03     104.731E-03    -412.203E-03     125.927E-03    -69.8925E-03     112.320E-03    -56.0180E-03    -56.2878E-03    -56.1569E-03     112.292E-03    -56.1203E-03     4.21947E-03     943.057E+03    -4.91268E+06    -109.605E+06    -2.54706E+06    -106.114E+06    -4.91268E+06    -19.1317E+06         28.5794
            1773     3.78205E-03     100.704E-03     147.597E-03     120.320E-03    -449.722E-03     139.963E-03    -446.102E-03     124.334E-03     34.1364E-03     112.248E-03    -55.9846E-03    -56.2886E-03    -56.0897E-03     112.200E-03    -56.1347E-03     5.70379E-03     1.73485E+06    -5.73234E+06    -109.996E+06    -3.69055E+06    -104.571E+06    -5.73234E+06    -23.8312E+06         28.7820
            1774     4.72795E-03     100.707E-03     159.663E-03     129.094E-03    -470.746E-03     157.146E-03    -468.228E-03     129.094E-03     47.3929E-03     112.097E-03    -55.9575E-03    -56.1417E-03    -55.8746E-03     112.012E-03    -56.1394E-03     7.37574E-03     5.03918E+06    -2.58725E+06    -109.003E+06    -2.94990E+06    -101.014E+06    -2.58725E+06    -28.9529E+06         29.0509
            1775     5.67377E-03     100.713E-03     140.086E-03     119.697E-03    -443.821E-03     126.566E-03    -442.099E-03     131.495E-03     40.0158E-03     112.136E-03    -55.9640E-03    -56.1783E-03    -55.8912E-03     111.992E-03    -56.1075E-03     9.72301E-03     8.31679E+06    -211.282E+03    -108.488E+06    -1.91463E+06    -98.2569E+06    -211.282E+03    -32.9855E+06         29.4015
            1776     6.61975E-03     100.720E-03     135.918E-03     113.628E-03    -433.148E-03     117.415E-03    -431.179E-03     130.161E-03     29.0280E-03     112.120E-03    -55.9859E-03    -56.2035E-03    -55.8772E-03     111.894E-03    -56.0867E-03     12.1894E-03     10.1839E+06    -533.661E+03    -105.878E+06    -2.39275E+06    -93.3019E+06    -533.661E+03    -35.8978E+06         29.8530
            1777     7.56506E-03     100.728E-03     143.394E-03     124.967E-03    -449.403E-03     137.734E-03    -448.478E-03     129.701E-03    -39.7886E-03     112.210E-03    -56.0080E-03    -56.2239E-03    -55.8262E-03     111.870E-03    -56.0659E-03     14.9911E-03     11.5131E+06     2.68975E+03    -105.831E+06    -3.21131E+06    -91.1068E+06     2.68975E+03    -38.7795E+06         30.4239
            1778     8.51112E-03     100.742E-03     144.906E-03     126.969E-03    -455.957E-03     139.862E-03    -454.593E-03     130.649E-03    -1.24937E-03     112.302E-03    -56.0583E-03    -56.2758E-03    -55.8016E-03     111.828E-03    -56.0583E-03     17.7461E-03     15.1574E+06    -831.835E+03    -108.798E+06    -1.83166E+06    -91.8094E+06    -831.835E+03    -42.5708E+06         31.1351
            1779     9.45708E-03     100.756E-03     138.395E-03     117.015E-03    -442.470E-03     123.927E-03    -441.746E-03     130.760E-03     24.9739E-03     112.433E-03    -55.9621E-03    -56.4657E-03    -55.7177E-03     111.685E-03    -55.9621E-03     22.1948E-03     20.2507E+06    -8.45731E+06    -109.268E+06    -1.13933E+06    -87.8776E+06    -8.45731E+06    -47.9498E+06         32.0320
            1780     10.4031E-03     100.776E-03     131.086E-03     110.768E-03    -432.092E-03     112.183E-03    -431.968E-03     129.547E-03     8.27037E-03     112.763E-03    -55.8994E-03    -56.9206E-03    -55.8667E-03     111.709E-03    -55.8994E-03     26.5897E-03     21.7490E+06    -13.6903E+06    -102.298E+06    -2.79632E+06    -77.7523E+06    -13.6903E+06    -49.2933E+06         33.2153
            1781     11.3485E-03     100.798E-03     130.793E-03     119.619E-03    -441.048E-03     121.499E-03    -440.468E-03     128.333E-03    -13.6256E-03     113.127E-03    -55.8845E-03    -57.3822E-03    -56.0546E-03     111.800E-03    -55.8845E-03     29.8675E-03     20.4873E+06    -20.0252E+06    -95.5632E+06    -6.27900E+06    -68.7969E+06    -20.0252E+06    -48.7756E+06         34.8285
            1782     12.2936E-03     100.827E-03     136.529E-03     126.085E-03    -451.808E-03     133.596E-03    -450.843E-03     128.053E-03    -9.20090E-03     113.744E-03    -55.7793E-03    -58.0197E-03    -55.7282E-03     111.452E-03    -55.7793E-03     38.7439E-03     21.0961E+06    -38.1299E+06    -85.9117E+06    -10.2375E+06    -54.5782E+06    -38.1299E+06    -48.1113E+06         37.0201
            1783     13.2399E-03     100.869E-03     135.473E-03     124.282E-03    -445.555E-03     130.885E-03    -444.770E-03     128.084E-03     2.27216E-03     115.325E-03    -55.6918E-03    -59.6898E-03    -54.5038E-03     110.139E-03    -55.6918E-03     58.0542E-03     25.6489E+06    -43.5576E+06    -65.1154E+06    -13.1404E+06    -18.3578E+06    -51.5259E+06    -38.8995E+06         39.9034
            1784     14.1898E-03     100.939E-03     130.931E-03     124.159E-03    -435.167E-03     126.832E-03    -434.700E-03     127.792E-03    -5.09968E-03     118.467E-03    -55.4542E-03    -63.0601E-03    -53.6774E-03     109.085E-03    -55.4542E-03     79.9027E-03     72.8252E+06    -26.2561E+06    -59.2644E+06    -13.7718E+06     60.3408E+06    -59.2644E+06    -23.3417E+06         43.5015
            1785     15.1357E-03     101.031E-03     132.176E-03     124.282E-03    -433.912E-03     128.200E-03    -432.990E-03     127.335E-03    -1.63104E-03     121.811E-03    -55.5137E-03    -66.3319E-03    -53.0361E-03     108.515E-03    -55.5137E-03     96.2063E-03     143.803E+06     24.1073E+06    -38.5307E+06    -12.4901E+06     142.802E+06    -932.616E+03    -10.2959E+06         47.3486
            1786     16.0863E-03     101.137E-03     131.273E-03     117.496E-03    -431.696E-03     120.304E-03    -429.961E-03     126.731E-03     23.7412E-03     116.548E-03    -54.8956E-03    -61.6756E-03    -51.4277E-03     107.235E-03    -55.8310E-03     75.2426E-03     175.038E+06     95.0869E+06    -8.21557E+06    -8.13695E+06     174.959E+06     95.0869E+06    -2.92742E+06         50.5658
            1787     944.584E-06     101.816E-03     792.923E-03    -78.3010E-03    -893.541E-03    -605.323E-03    -339.199E-03     765.604E-03    -183.687E-03     111.193E-03    -55.1070E-03    -56.0901E-03    -55.1004E-03     111.187E-03    -56.0901E-03     1.80378E-03     18.4587E+06     8.05860E+06    -104.748E+06     14.2279E+06    -103.708E+06     11.2493E+06    -10.0560E+06         28.1905
            1788     1.89321E-03     101.815E-03     151.593E-03     92.3895E-03    -419.097E-03     143.899E-03    -411.403E-03     92.3895E-03     41.3576E-03     110.782E-03    -55.1846E-03    -55.5624E-03    -55.2258E-03     110.765E-03    -55.5051E-03     3.11057E-03     12.5786E+06     8.14595E+06    -98.8083E+06     10.5042E+06    -96.7339E+06     8.14595E+06    -14.8638E+06         28.3106
            1789     2.83866E-03     101.819E-03     151.951E-03     106.947E-03    -431.647E-03     145.314E-03    -429.024E-03     110.961E-03    -63.1947E-03     111.126E-03    -55.4045E-03    -55.6774E-03    -55.5776E-03     111.090E-03    -55.4685E-03     4.78202E-03     15.0838E+06     11.0168E+06    -96.8184E+06     11.6030E+06    -93.3376E+06     11.0168E+06    -19.2824E+06         28.4627
            1790     3.78462E-03     101.822E-03     144.752E-03     113.150E-03    -431.772E-03     137.441E-03    -430.279E-03     118.969E-03    -31.1987E-03     110.969E-03    -55.3461E-03    -55.6493E-03    -55.4275E-03     110.899E-03    -55.4977E-03     6.68040E-03     18.8974E+06     12.0617E+06    -95.8242E+06     13.2579E+06    -90.1847E+06     12.0617E+06    -24.5864E+06         28.6560
            1791     4.73115E-03     101.825E-03     148.846E-03     121.733E-03    -444.202E-03     146.540E-03    -443.701E-03     123.538E-03    -9.50396E-03     110.782E-03    -55.3277E-03    -55.4794E-03    -55.1952E-03     110.649E-03    -55.4794E-03     9.20457E-03     21.2191E+06     10.3722E+06    -96.6790E+06     13.1688E+06    -88.6288E+06     10.3722E+06    -29.6237E+06         28.9114
            1792     5.67752E-03     101.831E-03     142.625E-03     114.262E-03    -430.711E-03     129.477E-03    -429.361E-03     126.060E-03     10.9924E-03     110.700E-03    -55.3191E-03    -55.4359E-03    -55.1114E-03     110.483E-03    -55.4261E-03     11.8550E-03     22.3661E+06     9.79828E+06    -98.2558E+06     12.3678E+06    -88.2575E+06     9.79828E+06    -33.1643E+06         29.2501
            1793     6.62393E-03     101.837E-03     134.076E-03     109.075E-03    -418.702E-03     116.018E-03    -417.177E-03     125.608E-03     8.03337E-03     110.826E-03    -55.3387E-03    -55.5456E-03    -55.1663E-03     110.490E-03    -55.3815E-03     14.7359E-03     24.1092E+06     8.97017E+06    -96.2114E+06     12.5850E+06    -84.6872E+06     8.97017E+06    -35.3731E+06         29.6921
            1794     7.57052E-03     101.847E-03     132.945E-03     116.018E-03    -425.512E-03     123.626E-03    -424.992E-03     124.817E-03    -27.5858E-03     111.082E-03    -55.3554E-03    -55.7460E-03    -55.2456E-03     110.582E-03    -55.3554E-03     18.0700E-03     25.3132E+06     8.21706E+06    -95.2032E+06     11.8420E+06    -81.7320E+06     8.21706E+06    -37.8659E+06         30.2545
            1795     8.51652E-03     101.859E-03     138.619E-03     115.838E-03    -429.942E-03     129.170E-03    -429.582E-03     124.926E-03    -3.90344E-03     111.280E-03    -55.3672E-03    -55.9461E-03    -55.2629E-03     110.597E-03    -55.3672E-03     21.1645E-03     26.8449E+06     8.02772E+06    -96.9096E+06     9.79238E+06    -79.8571E+06     8.02772E+06    -42.4716E+06         30.9638
            1796     9.46312E-03     101.873E-03     131.752E-03     109.559E-03    -418.380E-03     116.438E-03    -418.155E-03     124.648E-03     7.13709E-03     111.666E-03    -55.3355E-03    -56.2919E-03    -55.3048E-03     110.679E-03    -55.3355E-03     25.4280E-03     27.1584E+06     389.672E+03    -98.3969E+06     6.88090E+06    -78.1194E+06     389.672E+03    -46.0267E+06         31.8588
            1797     10.4094E-03     101.893E-03     124.301E-03     104.671E-03    -406.455E-03     105.489E-03    -406.265E-03     123.294E-03    -5.97681E-03     112.172E-03    -55.2800E-03    -56.9481E-03    -55.5422E-03     110.766E-03    -55.2800E-03     30.5099E-03     25.5323E+06    -8.39045E+06    -96.4378E+06     3.46334E+06    -74.3688E+06    -8.39045E+06    -46.7734E+06         33.0324
            1798     11.3550E-03     101.917E-03     122.015E-03     110.482E-03    -410.793E-03     110.112E-03    -410.272E-03     121.864E-03    -8.77869E-03     112.798E-03    -55.2776E-03    -57.6758E-03    -55.9105E-03     111.032E-03    -55.2776E-03     34.3556E-03     24.6657E+06    -13.7006E+06    -88.1341E+06     394.524E+03    -63.8629E+06    -13.7006E+06    -46.2102E+06         34.6456
            1799     12.3009E-03     101.944E-03     128.978E-03     118.558E-03    -425.038E-03     125.553E-03    -424.437E-03     121.382E-03     373.505E-06     113.849E-03    -55.2569E-03    -58.6295E-03    -55.8508E-03     111.070E-03    -55.2569E-03     42.8480E-03     23.5177E+06    -29.8275E+06    -79.4445E+06    -3.19042E+06    -52.7363E+06    -29.8275E+06    -45.0148E+06         36.8571
            1800     13.2472E-03     101.987E-03     137.289E-03     121.849E-03    -438.252E-03     137.085E-03    -438.048E-03     121.849E-03     12.1670E-03     115.870E-03    -55.1941E-03    -60.6695E-03    -55.1293E-03     110.330E-03    -55.1941E-03     60.6164E-03     24.2991E+06    -43.7307E+06    -64.9222E+06    -6.30471E+06    -29.2848E+06    -48.7643E+06    -39.1902E+06         39.7657
            1801     14.1927E-03     102.054E-03     131.942E-03     120.511E-03    -432.179E-03     129.965E-03    -432.001E-03     122.310E-03     11.8261E-03     118.799E-03    -54.9574E-03    -63.8303E-03    -54.0205E-03     108.989E-03    -54.9574E-03     81.7546E-03     63.2483E+06    -28.4037E+06    -65.2069E+06    -8.77063E+06     43.6153E+06    -65.2069E+06    -25.5914E+06         43.3818
            1802     15.1444E-03     102.148E-03     123.626E-03     115.573E-03    -414.732E-03     116.824E-03    -414.345E-03     121.988E-03     12.2772E-03     121.246E-03    -54.9527E-03    -66.2447E-03    -52.5874E-03     107.589E-03    -54.9527E-03     97.3033E-03     131.588E+06     10.0382E+06    -42.0846E+06    -8.81841E+06     130.091E+06    -21.7315E+06    -11.7185E+06         47.2439
            1803     16.0923E-03     102.252E-03     127.776E-03     116.839E-03    -418.794E-03     122.243E-03    -417.877E-03     121.455E-03     16.7904E-03     115.903E-03    -54.7229E-03    -61.1600E-03    -51.2623E-03     106.577E-03    -55.2941E-03     75.0503E-03     169.448E+06     76.7843E+06    -6.04784E+06    -5.92202E+06     169.322E+06     76.7843E+06    -3.93691E+06         50.4782
            1804     948.491E-06     102.931E-03     657.214E-03    -70.0374E-03    -758.423E-03    -478.471E-03    -325.488E-03     632.713E-03    -209.506E-03     109.044E-03    -53.8402E-03    -55.2014E-03    -54.6502E-03     109.036E-03    -54.3835E-03     2.01101E-03     30.2122E+06     24.3939E+06    -85.9356E+06     25.6015E+06    -85.1972E+06     28.2661E+06    -7.77412E+06         28.0134
            1805     1.89352E-03     102.931E-03     147.682E-03     90.7469E-03    -413.421E-03     145.143E-03    -410.881E-03     90.7469E-03     47.5823E-03     109.175E-03    -54.3396E-03    -54.8066E-03    -54.5718E-03     109.146E-03    -54.5455E-03     4.03742E-03     31.7428E+06     27.3454E+06    -83.4655E+06     28.8866E+06    -81.2908E+06     28.0270E+06    -15.3424E+06         28.1267
            1806     2.84094E-03     102.936E-03     151.503E-03     104.717E-03    -427.858E-03     143.563E-03    -425.164E-03     109.963E-03     40.7997E-03     108.693E-03    -54.1454E-03    -54.5163E-03    -54.1191E-03     108.626E-03    -54.4749E-03     6.40897E-03     32.3717E+06     23.9693E+06    -84.1110E+06     28.3106E+06    -80.0498E+06     23.9693E+06    -21.1518E+06         28.2702
            1807     3.78888E-03     102.936E-03     123.583E-03     97.7431E-03    -388.318E-03     105.782E-03    -387.251E-03     114.478E-03    -7.68829E-03     108.543E-03    -54.1706E-03    -54.3695E-03    -54.0566E-03     108.411E-03    -54.3515E-03     8.94400E-03     32.8411E+06     20.1038E+06    -82.8866E+06     26.8253E+06    -76.8708E+06     20.1038E+06    -25.5972E+06         28.4550
            1808     4.73606E-03     102.941E-03     118.061E-03     101.192E-03    -385.539E-03     105.845E-03    -384.811E-03     112.680E-03    -12.6216E-03     108.602E-03    -54.2569E-03    -54.3476E-03    -54.0856E-03     108.373E-03    -54.2894E-03     11.9787E-03     32.5399E+06     17.9892E+06    -84.9906E+06     25.0401E+06    -77.4908E+06     17.9892E+06    -28.7040E+06         28.6988
            1809     5.68377E-03     102.945E-03     137.107E-03     113.836E-03    -418.238E-03     136.572E-03    -417.703E-03     113.836E-03     8.10563E-03     108.577E-03    -54.1955E-03    -54.4029E-03    -54.0136E-03     108.214E-03    -54.2216E-03     15.1173E-03     33.5772E+06     16.5197E+06    -86.6868E+06     23.6349E+06    -76.7446E+06     16.5197E+06    -32.8910E+06         29.0222
            1810     6.63165E-03     102.953E-03     146.910E-03     117.704E-03    -432.227E-03     146.306E-03    -431.623E-03     117.704E-03    -19.3266E-03     108.712E-03    -54.1865E-03    -54.5275E-03    -53.9836E-03     108.168E-03    -54.1865E-03     18.5902E-03     35.2059E+06     15.6986E+06    -88.4503E+06     23.0343E+06    -76.2787E+06     15.6986E+06    -36.7779E+06         29.4461
            1811     7.57878E-03     102.962E-03     131.026E-03     110.154E-03    -410.037E-03     120.281E-03    -408.849E-03     119.711E-03    -45.6408E-03     109.066E-03    -54.1718E-03    -54.8795E-03    -54.0870E-03     108.273E-03    -54.1718E-03     22.4591E-03     36.3696E+06     16.4738E+06    -87.0870E+06     23.3996E+06    -74.1169E+06     16.4738E+06    -37.8214E+06         29.9892
            1812     8.52664E-03     102.975E-03     118.348E-03     96.1692E-03    -384.508E-03     94.6108E-03    -382.949E-03     118.348E-03    -306.870E-06     109.674E-03    -54.1820E-03    -55.4362E-03    -54.3534E-03     108.591E-03    -54.1820E-03     26.3895E-03     37.4156E+06     19.5490E+06    -83.8746E+06     22.1693E+06    -68.6283E+06     19.5490E+06    -39.9892E+06         30.6827
            1813     9.47283E-03     102.989E-03     119.809E-03     103.790E-03    -388.924E-03     106.159E-03    -387.897E-03     116.412E-03     8.64213E-03     110.517E-03    -54.2085E-03    -56.2292E-03    -54.7025E-03     108.991E-03    -54.2085E-03     31.3526E-03     35.9336E+06     12.8118E+06    -88.3984E+06     19.1523E+06    -71.6171E+06     12.8118E+06    -42.3431E+06         31.5751
            1814     10.4198E-03     103.009E-03     126.125E-03     114.644E-03    -407.903E-03     124.326E-03    -407.598E-03     116.138E-03    -12.7368E-03     111.441E-03    -54.2389E-03    -57.1931E-03    -55.1350E-03     109.383E-03    -54.2389E-03     36.7621E-03     31.7274E+06     711.861E+03    -87.6004E+06     14.0875E+06    -69.9604E+06     711.861E+03    -42.1011E+06         32.7615
            1815     11.3670E-03     103.034E-03     126.735E-03     112.283E-03    -407.789E-03     121.948E-03    -407.320E-03     116.600E-03    -4.23796E-03     112.188E-03    -54.3018E-03    -57.9475E-03    -55.5363E-03     109.777E-03    -54.3018E-03     40.0930E-03     29.1482E+06    -5.30165E+06    -79.8125E+06     8.25208E+06    -58.9165E+06    -5.30165E+06    -42.6273E+06         34.4071
            1816     12.3126E-03     103.062E-03     121.556E-03     109.096E-03    -400.947E-03     113.554E-03    -400.431E-03     116.582E-03     7.39162E-03     113.729E-03    -54.3497E-03    -59.4492E-03    -55.9195E-03     110.199E-03    -54.3497E-03     48.3501E-03     26.2003E+06    -20.8494E+06    -73.7735E+06     3.14978E+06    -50.7230E+06    -20.8494E+06    -41.9209E+06         36.6715
            1817     13.2575E-03     103.105E-03     124.272E-03     107.376E-03    -403.516E-03     115.087E-03    -403.175E-03     116.220E-03     7.83854E-03     116.851E-03    -54.3590E-03    -62.4933E-03    -55.9954E-03     110.353E-03    -54.3590E-03     66.1996E-03     23.0380E+06    -41.8378E+06    -64.0327E+06    -2.17918E+06    -34.9578E+06    -45.6956E+06    -37.6060E+06         39.6261
            1818     14.2049E-03     103.172E-03     124.111E-03     110.276E-03    -407.996E-03     118.373E-03    -407.832E-03     115.851E-03    -6.99595E-03     120.430E-03    -54.2444E-03    -66.1500E-03    -55.3870E-03     109.667E-03    -54.2444E-03     86.5051E-03     53.0373E+06    -30.2384E+06    -65.7838E+06    -5.62805E+06     28.4269E+06    -65.7838E+06    -27.4199E+06         43.2616
            1819     15.1500E-03     103.262E-03     123.634E-03     110.654E-03    -408.166E-03     118.559E-03    -407.845E-03     115.407E-03    -19.6766E-03     122.290E-03    -54.3129E-03    -67.9557E-03    -53.4540E-03     107.788E-03    -54.3129E-03     100.808E-03     118.721E+06     1.09606E+06    -40.9035E+06     -6.7834E+06     116.288E+06    -30.5916E+06    -13.5472E+06         47.1365
            1820     16.1021E-03     103.367E-03     126.456E-03     107.724E-03    -397.089E-03     118.753E-03    -396.678E-03     115.015E-03    -21.8044E-03     115.565E-03    -54.1815E-03    -61.3880E-03    -51.0821E-03     105.728E-03    -54.6501E-03     77.0641E-03     162.984E+06     61.8781E+06    -4.94405E+06    -4.78035E+06     162.820E+06     61.8781E+06    -3.86664E+06         50.3967
            1821     948.050E-06     104.045E-03     590.677E-03    -105.976E-03    -656.897E-03    -322.077E-03    -426.787E-03     576.669E-03    -197.341E-03     105.772E-03    -52.1017E-03    -53.6652E-03    -53.4335E-03     105.756E-03    -52.3173E-03     2.49239E-03     40.8297E+06     39.0360E+06    -67.8623E+06     38.8462E+06    -67.0042E+06     40.1615E+06    -8.01141E+06         27.7324
            1822     1.89691E-03     104.047E-03     147.383E-03     82.9418E-03    -398.402E-03     103.089E-03    -394.077E-03     122.912E-03     21.5633E-03     105.403E-03    -52.3566E-03    -53.0327E-03    -52.5207E-03     105.347E-03    -52.8130E-03     5.61451E-03     42.9334E+06     37.9004E+06    -66.3808E+06     39.8304E+06    -63.9594E+06     38.5820E+06    -15.7610E+06         27.8372
            1823     2.84640E-03     104.046E-03     125.829E-03     93.7593E-03    -384.482E-03     99.6969E-03    -379.956E-03     115.366E-03     21.3529E-03     104.915E-03    -52.2814E-03    -52.6333E-03    -52.1385E-03     104.772E-03    -52.6333E-03     9.09512E-03     41.9777E+06     30.8726E+06    -69.8705E+06     37.7555E+06    -65.6483E+06     30.8726E+06    -21.1454E+06         27.9709
            1824     3.79570E-03     104.050E-03     112.635E-03     95.5012E-03    -373.277E-03     96.3832E-03    -372.452E-03     110.929E-03     14.1258E-03     104.933E-03    -52.3791E-03    -52.5510E-03    -52.1807E-03     104.674E-03    -52.4902E-03     12.5070E-03     41.6313E+06     27.5421E+06    -71.4307E+06     35.5508E+06    -65.3503E+06     27.5421E+06    -25.4437E+06         28.1450
            1825     4.74499E-03     104.052E-03     110.071E-03     88.6561E-03    -358.081E-03     90.8076E-03    -357.599E-03     107.437E-03     14.5137E-03     105.155E-03    -52.4374E-03    -52.7078E-03    -52.2861E-03     104.733E-03    -52.4374E-03     15.9644E-03     44.0493E+06     28.1402E+06    -74.1352E+06     35.8181E+06    -65.9040E+06     28.1402E+06    -29.9759E+06         28.3742
            1826     5.69407E-03     104.059E-03     116.395E-03     92.9736E-03    -367.447E-03     102.592E-03    -366.184E-03     105.513E-03     2.61959E-03     105.342E-03    -52.4011E-03    -52.9492E-03    -52.2921E-03     104.685E-03    -52.4011E-03     19.9929E-03     46.6935E+06     28.1294E+06    -75.7556E+06     36.3377E+06    -65.3998E+06     28.1294E+06    -33.8751E+06         28.6772
            1827     6.64257E-03     104.065E-03     131.997E-03     103.211E-03    -391.927E-03     126.861E-03    -390.234E-03     106.652E-03    -38.8078E-03     105.585E-03    -52.3987E-03    -53.1792E-03    -52.2223E-03     104.628E-03    -52.3987E-03     24.1589E-03     46.2090E+06     28.5298E+06    -79.5134E+06     34.7748E+06    -68.0792E+06     28.5298E+06    -35.9901E+06         29.0755
            1828     7.59264E-03     104.074E-03     128.567E-03     103.276E-03    -386.872E-03     121.448E-03    -385.246E-03     108.769E-03    -55.1533E-03     106.062E-03    -52.3555E-03    -53.6892E-03    -52.3113E-03     104.684E-03    -52.3555E-03     29.0778E-03     44.7207E+06     24.5455E+06    -80.1879E+06     31.9745E+06    -67.4417E+06     24.5455E+06    -37.7205E+06         29.5927
            1829     8.54084E-03     104.088E-03     120.066E-03     96.1030E-03    -369.767E-03     105.152E-03    -367.943E-03     109.194E-03    -16.2106E-03     106.946E-03    -52.3713E-03    -54.5326E-03    -52.7088E-03     105.122E-03    -52.3713E-03     33.7357E-03     44.3680E+06     25.7618E+06    -75.1592E+06     30.4352E+06    -61.2264E+06     25.7618E+06    -38.3325E+06         30.2775
            1830     9.49045E-03     104.101E-03     121.392E-03     101.406E-03    -377.832E-03     112.196E-03    -376.233E-03     109.004E-03    -11.8056E-03     108.584E-03    -52.4696E-03    -56.0280E-03    -53.5646E-03     106.120E-03    -52.4696E-03     39.5340E-03     41.3648E+06     25.0430E+06    -79.8672E+06     27.7013E+06    -66.2037E+06     25.0430E+06    -38.1983E+06         31.1956
            1831     10.4376E-03     104.124E-03     124.024E-03     109.660E-03    -390.037E-03     123.227E-03    -389.240E-03     109.660E-03    -11.4352E-03     110.398E-03    -52.5860E-03    -57.7903E-03    -54.5994E-03     107.207E-03    -52.5860E-03     45.5376E-03     36.4573E+06     11.1536E+06    -80.6797E+06     23.1508E+06    -67.3731E+06     11.1536E+06    -37.0160E+06         32.4359
            1832     11.3829E-03     104.149E-03     122.563E-03     110.239E-03    -388.133E-03     121.473E-03    -387.382E-03     110.579E-03    -12.3381E-03     111.757E-03    -52.7766E-03    -58.9736E-03    -55.2820E-03     108.065E-03    -52.7766E-03     49.2463E-03     32.9486E+06     6.39368E+06    -68.6118E+06     17.4752E+06    -53.1384E+06     6.39368E+06    -36.0321E+06         34.1552
            1833     12.3297E-03     104.178E-03     114.217E-03     104.101E-03    -375.395E-03     107.002E-03    -374.752E-03     110.673E-03    -25.0722E-03     113.868E-03    -52.9187E-03    -60.9704E-03    -55.9591E-03     108.856E-03    -52.9187E-03     57.7081E-03     27.7354E+06    -8.17576E+06    -66.5954E+06     10.1625E+06    -49.0225E+06    -8.17576E+06    -36.5474E+06         36.5029
            1834     13.2762E-03     104.222E-03     109.752E-03     97.4838E-03    -364.674E-03     96.9135E-03    -364.104E-03     109.752E-03    -22.0065E-03     118.065E-03    -53.0289E-03    -65.0603E-03    -56.8506E-03     109.855E-03    -53.0289E-03     75.0834E-03     22.7666E+06    -35.6003E+06    -60.6045E+06     3.32062E+06    -38.4912E+06    -38.2677E+06    -33.6376E+06         39.5198
            1835     14.2201E-03     104.290E-03     108.639E-03     101.157E-03    -368.711E-03     100.423E-03    -367.923E-03     108.585E-03    -11.4993E-03     122.646E-03    -53.0982E-03    -69.5213E-03    -57.2212E-03     110.346E-03    -53.0982E-03     93.7305E-03     45.3968E+06    -30.2907E+06    -62.6839E+06    -4.25331E+06     19.3594E+06    -62.6839E+06    -26.1756E+06         43.1825
            1836     15.1677E-03     104.380E-03     114.533E-03     105.762E-03    -378.402E-03     111.760E-03    -377.758E-03     107.891E-03    -9.72443E-03     124.514E-03    -53.3063E-03    -71.2063E-03    -55.5179E-03     108.826E-03    -53.3063E-03     106.156E-03     106.545E+06    -7.61203E+06    -42.4217E+06    -9.47011E+06     103.320E+06    -37.3379E+06    -14.8532E+06         47.0734
            1837     16.1137E-03     104.480E-03     117.354E-03     102.927E-03    -373.415E-03     110.966E-03    -371.694E-03     107.595E-03     7.61743E-03     116.100E-03    -53.4422E-03    -62.6591E-03    -51.9079E-03     105.596E-03    -53.6893E-03     80.0805E-03     154.503E+06     44.0803E+06    -6.85699E+06    -6.62516E+06     154.271E+06     44.0803E+06    -4.87343E+06         50.3616
            1838     950.706E-06     105.155E-03     500.387E-03    -119.460E-03    -538.899E-03    -212.037E-03    -446.322E-03     500.387E-03    -181.912E-03     99.8279E-03    -49.3443E-03    -50.4873E-03    -49.8933E-03     99.7895E-03    -49.8999E-03     4.31124E-03     55.2857E+06     51.0809E+06    -49.2758E+06     51.5393E+06    -48.5784E+06     54.1300E+06    -4.84349E+06         27.3025
            1839     1.90307E-03     105.154E-03     125.574E-03     54.2600E-03    -337.112E-03     50.6909E-03    -333.543E-03     125.574E-03    -17.0688E-03     99.6334E-03    -49.5729E-03    -50.0593E-03    -49.6480E-03     99.5237E-03    -49.8745E-03     7.78590E-03     56.3483E+06     50.7566E+06    -49.8607E+06     50.5079E+06    -47.4698E+06     54.2060E+06    -14.8699E+06         27.4062
            1840     2.85457E-03     105.154E-03     110.200E-03     74.4502E-03    -341.073E-03     78.6873E-03    -337.935E-03     102.825E-03    -60.3198E-03     99.7159E-03    -49.7197E-03    -50.0024E-03    -49.6688E-03     99.4686E-03    -49.8061E-03     11.8056E-03     56.2417E+06     48.8006E+06    -55.2676E+06     51.2730E+06    -51.1432E+06     49.6448E+06    -20.8792E+06         27.5289
            1841     3.80618E-03     105.156E-03     111.143E-03     99.5327E-03    -369.786E-03     110.123E-03    -369.263E-03     100.030E-03    -15.1797E-03     99.6960E-03    -49.7395E-03    -49.9571E-03    -49.4857E-03     99.2251E-03    -49.7400E-03     16.3851E-03     55.9886E+06     43.3734E+06    -59.1323E+06     49.7457E+06    -52.8894E+06     43.3734E+06    -25.7890E+06         27.6829
            1842     4.75780E-03     105.160E-03     104.231E-03     89.6777E-03    -352.605E-03     92.9789E-03    -352.168E-03     100.493E-03    -7.36141E-03     99.8438E-03    -49.6641E-03    -50.1946E-03    -49.4001E-03     99.0493E-03    -49.6641E-03     21.2729E-03     56.7456E+06     38.9270E+06    -61.8865E+06     47.4272E+06    -52.5681E+06     38.9270E+06    -31.7675E+06         27.8913
            1843     5.70932E-03     105.165E-03     98.1302E-03     80.8010E-03    -336.655E-03     79.3887E-03    -335.242E-03     98.1302E-03    -38.2795E-03     100.220E-03    -49.6169E-03    -50.6229E-03    -49.3965E-03     98.9935E-03    -49.6169E-03     26.5710E-03     55.3140E+06     35.9126E+06    -68.1940E+06     45.2080E+06    -58.0880E+06     35.9126E+06    -33.8005E+06         28.1771
            1844     6.66176E-03     105.172E-03     101.910E-03     89.8090E-03    -346.399E-03     93.6973E-03    -344.701E-03     96.3230E-03    -41.0910E-03     100.955E-03    -49.6106E-03    -51.3518E-03    -49.5752E-03     99.1780E-03    -49.6106E-03     32.1338E-03     51.7314E+06     34.0427E+06    -71.0705E+06     41.9903E+06    -61.3294E+06     34.0427E+06    -33.1600E+06         28.5622
            1845     7.61228E-03     105.181E-03     111.751E-03     96.9088E-03    -359.787E-03     110.625E-03    -358.661E-03     96.9088E-03    -10.3638E-03     101.967E-03    -49.6105E-03    -52.3830E-03    -49.9228E-03     99.5068E-03    -49.6105E-03     38.0949E-03     48.2617E+06     30.3056E+06    -70.9271E+06     37.5707E+06    -60.2362E+06     30.3056E+06    -33.9892E+06         29.0820
            1846     8.56465E-03     105.195E-03     122.899E-03     98.9414E-03    -374.192E-03     122.185E-03    -373.478E-03     98.9414E-03    -12.2783E-03     103.447E-03    -49.6713E-03    -53.7793E-03    -50.5953E-03     100.263E-03    -49.6713E-03     43.7456E-03     41.8937E+06     26.8460E+06    -69.1028E+06     30.6024E+06    -57.8115E+06     26.8460E+06    -33.3887E+06         29.8117
            1847     9.51376E-03     105.211E-03     125.251E-03     101.250E-03    -376.562E-03     124.478E-03    -375.790E-03     101.250E-03    -33.5872E-03     105.828E-03    -49.8550E-03    -55.9490E-03    -51.7563E-03     101.635E-03    -49.8550E-03     50.6938E-03     35.8762E+06     27.7153E+06    -72.4633E+06     24.3963E+06    -60.9834E+06     27.7153E+06    -33.1689E+06         30.8229
            1848     10.4629E-03     105.235E-03     114.204E-03     102.711E-03    -363.415E-03     113.115E-03    -362.326E-03     102.711E-03    -27.9383E-03     108.472E-03    -50.0627E-03    -58.4683E-03    -53.2240E-03     103.228E-03    -50.0627E-03     57.6736E-03     30.3727E+06     13.0107E+06    -77.4712E+06     19.3929E+06    -66.4914E+06     13.0107E+06    -32.4719E+06         32.1686
            1849     11.4118E-03     105.261E-03     107.668E-03     102.782E-03    -356.898E-03     106.455E-03    -356.024E-03     103.121E-03    -19.6380E-03     111.047E-03    -50.3837E-03    -60.6872E-03    -54.8675E-03     105.227E-03    -50.3837E-03     61.7831E-03     26.1008E+06     7.37133E+06    -62.7458E+06     13.9173E+06    -50.5623E+06     7.37133E+06    -29.8092E+06         33.9774
            1850     12.3577E-03     105.292E-03     108.417E-03     101.231E-03    -357.559E-03     106.070E-03    -357.122E-03     103.141E-03    -9.93009E-03     114.700E-03    -50.7566E-03    -63.9264E-03    -56.7084E-03     107.482E-03    -50.7566E-03     69.9164E-03     24.1509E+06     112.059E+03    -57.6611E+06     9.38824E+06    -42.8984E+06     112.059E+03    -31.2413E+06         36.4027
            1851     13.3021E-03     105.339E-03     109.816E-03     99.6448E-03    -359.389E-03     105.549E-03    -358.547E-03     103.069E-03     1.38788E-03     120.174E-03    -51.1175E-03    -69.0869E-03    -58.5355E-03     109.623E-03    -51.1175E-03     86.3592E-03     19.0027E+06    -26.8563E+06    -59.8464E+06     4.85475E+06    -43.4566E+06    -29.0981E+06    -29.6895E+06         39.4836
            1852     14.2465E-03     105.410E-03     106.650E-03     97.7180E-03    -356.405E-03     100.507E-03    -355.317E-03     102.774E-03     15.7618E-03     125.112E-03    -51.4645E-03    -73.6642E-03    -59.2973E-03     110.745E-03    -51.4645E-03     102.731E-03     41.6747E+06    -22.3207E+06    -51.9266E+06    -509.677E+03     13.8264E+06    -45.8892E+06    -21.1049E+06         43.1884
            1853     15.1880E-03     105.497E-03     102.113E-03     93.6369E-03    -350.180E-03     93.1688E-03    -349.658E-03     102.059E-03     14.5642E-03     127.276E-03    -51.8137E-03    -75.4641E-03    -58.1858E-03     109.998E-03    -51.8137E-03     113.108E-03     98.3905E+06    -6.97017E+06    -34.5601E+06    -4.01405E+06     95.4107E+06    -34.5365E+06    -15.1972E+06         47.1051
            1854     16.1356E-03     105.597E-03     109.354E-03     96.2456E-03    -362.892E-03     102.447E-03    -361.206E-03     101.467E-03     32.6498E-03     118.836E-03    -52.3641E-03    -66.4556E-03    -55.4637E-03     107.844E-03    -52.3641E-03     82.2609E-03     143.809E+06     34.3531E+06    -10.5944E+06    -3.41968E+06     142.874E+06     28.1134E+06    -7.30223E+06         50.4100
            1855     956.598E-06     106.255E-03     350.420E-03    -57.8487E-03    -433.463E-03    -146.653E-03    -318.083E-03     323.844E-03    -126.474E-03     91.3495E-03    -45.3174E-03    -46.0323E-03    -45.6341E-03     91.2913E-03    -45.6574E-03     5.28831E-03     64.9850E+06     59.4272E+06    -35.9948E+06     61.9284E+06    -35.5434E+06     62.0324E+06    -4.09351E+06         26.6934
            1856     1.91080E-03     106.254E-03     127.731E-03     58.3467E-03    -332.632E-03     94.3619E-03    -330.607E-03     89.6904E-03     16.5146E-03     92.0211E-03    -45.7588E-03    -46.2616E-03    -46.0689E-03     91.8283E-03    -45.7588E-03     9.86095E-03     67.2062E+06     61.9151E+06    -32.7391E+06     61.9885E+06    -31.0278E+06     65.4214E+06    -12.0269E+06         26.7957
            1857     2.86533E-03     106.255E-03     108.560E-03     65.5573E-03    -324.016E-03     82.9137E-03    -322.533E-03     89.7196E-03    -39.1210E-03     92.2386E-03    -45.8600E-03    -46.3778E-03    -45.9436E-03     91.8044E-03    -45.8600E-03     15.0345E-03     63.5130E+06     58.0154E+06    -40.0535E+06     58.6726E+06    -36.1142E+06     58.9165E+06    -19.2688E+06         26.9153
            1858     3.82057E-03     106.256E-03     104.180E-03     76.5390E-03    -329.333E-03     89.6045E-03    -326.905E-03     88.6862E-03    -612.907E-06     92.1595E-03    -45.8097E-03    -46.3604E-03    -45.5185E-03     91.3176E-03    -45.8097E-03     20.9477E-03     62.4115E+06     47.8601E+06    -45.7820E+06     55.9778E+06    -39.3482E+06     47.8601E+06    -25.3017E+06         27.0618
            1859     4.77646E-03     106.260E-03     107.226E-03     88.3179E-03    -343.411E-03     102.652E-03    -340.554E-03     90.0355E-03     30.9114E-03     92.2893E-03    -45.7009E-03    -46.6115E-03    -45.2112E-03     90.8891E-03    -45.7009E-03     27.2729E-03     58.6284E+06     39.5931E+06    -49.7129E+06     50.5451E+06    -41.6295E+06     39.5931E+06    -28.3518E+06         27.2583
            1860     5.73266E-03     106.264E-03     101.949E-03     86.8316E-03    -337.833E-03     95.7664E-03    -336.441E-03     91.6215E-03     1.90478E-03     93.0367E-03    -45.6322E-03    -47.4211E-03    -45.2941E-03     90.9098E-03    -45.6322E-03     33.7629E-03     51.5504E+06     34.5110E+06    -60.7165E+06     43.0248E+06    -52.1908E+06     34.5110E+06    -29.6401E+06         27.5313
            1861     6.68760E-03     106.271E-03     93.6673E-03     82.4205E-03    -322.429E-03     84.0766E-03    -321.850E-03     91.4322E-03     7.64620E-03     94.4687E-03    -45.6301E-03    -48.8625E-03    -45.8041E-03     91.4103E-03    -45.6301E-03     40.8678E-03     45.8671E+06     30.3834E+06    -65.2590E+06     37.1194E+06    -56.5113E+06     30.3834E+06    -29.8984E+06         27.9238
            1862     7.64328E-03     106.281E-03     99.3358E-03     85.0492E-03    -325.124E-03     92.6255E-03    -324.354E-03     90.9887E-03     17.7965E-03     96.4638E-03    -45.7178E-03    -50.7810E-03    -46.6576E-03     92.3404E-03    -45.7178E-03     48.0354E-03     40.6459E+06     29.5470E+06    -65.0974E+06     32.0654E+06    -56.9452E+06     29.9753E+06    -28.0600E+06         28.5069
            1863     8.59612E-03     106.297E-03     113.497E-03     92.1879E-03    -347.222E-03     112.877E-03    -346.602E-03     92.1879E-03     2.35687E-03     98.9558E-03    -45.8884E-03    -53.0949E-03    -47.8005E-03     93.6614E-03    -45.8884E-03     55.1932E-03     35.7049E+06     28.5417E+06    -62.5142E+06     27.5553E+06    -54.7928E+06     28.9700E+06    -26.2689E+06         29.3577
            1864     9.54985E-03     106.315E-03     113.807E-03     92.2769E-03    -348.421E-03     111.331E-03    -347.770E-03     94.1021E-03     9.69714E-03     102.258E-03    -46.1966E-03    -56.1095E-03    -49.4069E-03     95.5550E-03    -46.1966E-03     63.2802E-03     32.6423E+06     24.4694E+06    -65.3415E+06     21.1914E+06    -57.3182E+06     27.8970E+06    -25.6507E+06         30.5192
            1865     10.5014E-03     106.340E-03     103.588E-03     93.2361E-03    -338.437E-03     100.592E-03    -337.267E-03     95.0613E-03    -12.9015E-03     106.336E-03    -46.5898E-03    -59.7982E-03    -51.8113E-03     98.3490E-03    -46.5898E-03     70.7594E-03     22.6808E+06     11.2915E+06    -73.8966E+06     12.2212E+06    -66.8646E+06     14.7190E+06    -23.8203E+06         31.9994
            1866     11.4491E-03     106.371E-03     107.748E-03     95.5896E-03    -344.925E-03     107.055E-03    -344.232E-03     95.5896E-03    -19.2978E-03     110.404E-03    -47.0881E-03    -63.3274E-03    -54.7929E-03     101.869E-03    -47.0881E-03     74.7993E-03     15.7721E+06     6.08791E+06    -57.2323E+06     4.46644E+06    -45.9267E+06     6.08791E+06    -24.0149E+06         33.8975
            1867     12.3952E-03     106.405E-03     112.119E-03     96.4229E-03    -352.388E-03     111.826E-03    -352.095E-03     96.4229E-03    -704.212E-06     115.930E-03    -47.7587E-03    -68.1407E-03    -58.2267E-03     106.016E-03    -47.7587E-03     82.7809E-03     11.6428E+06    -1.56684E+06    -51.4969E+06    -2.47191E+06    -37.3822E+06    -1.56684E+06    -25.8015E+06         36.3930
            1868     13.3378E-03     106.456E-03     107.102E-03     95.5859E-03    -346.219E-03     104.867E-03    -345.377E-03     96.9788E-03    -918.954E-06     122.922E-03    -48.4988E-03    -74.3896E-03    -61.3008E-03     109.834E-03    -48.4988E-03     97.9426E-03     5.67349E+06    -29.1549E+06    -59.6046E+06    -8.57754E+06    -44.9854E+06    -29.5231E+06    -26.0847E+06         39.5426
            1869     14.2780E-03     106.528E-03     103.064E-03     92.2084E-03    -335.549E-03     96.8098E-03    -333.890E-03     96.8023E-03    -11.1356E-03     127.888E-03    -49.2779E-03    -78.5998E-03    -62.5521E-03     111.840E-03    -49.2779E-03     110.490E-03     35.2193E+06    -24.6306E+06    -43.6444E+06    -8.98795E+06     9.49650E+06    -33.5643E+06    -23.6384E+06         43.3065
            1870     15.2223E-03     106.618E-03     99.0862E-03     88.3498E-03    -331.753E-03     89.9256E-03    -330.278E-03     96.0357E-03    -20.5475E-03     130.582E-03    -50.0270E-03    -80.5441E-03    -62.7522E-03     112.790E-03    -50.0270E-03     117.229E-03     95.9636E+06    -4.05605E+06    -24.9169E+06    -5.65677E+06     91.5086E+06    -18.8612E+06    -17.0979E+06         47.2529
            1871     16.1615E-03     106.716E-03     103.073E-03     90.8885E-03    -344.029E-03     96.2608E-03    -341.701E-03     95.3734E-03    -23.4375E-03     124.282E-03    -50.9084E-03    -73.3658E-03    -62.9564E-03     113.873E-03    -50.9084E-03     80.2999E-03     135.429E+06     25.0111E+06    -11.3966E+06    -4.17617E+06     134.448E+06     18.7714E+06    -7.89793E+06         50.5456
            1872     959.703E-06     107.345E-03     226.676E-03     8.45166E-03    -354.608E-03    -54.4209E-03    -261.431E-03     196.372E-03    -68.5079E-03     81.5024E-03    -40.4273E-03    -41.0774E-03    -40.8884E-03     81.4093E-03    -40.5233E-03     5.87874E-03     66.2045E+06     61.7354E+06    -24.2684E+06     64.7988E+06    -23.8101E+06     62.6829E+06    -5.31819E+06         25.9113
            1873     1.92034E-03     107.346E-03     126.495E-03     80.9847E-03    -332.642E-03     120.953E-03    -327.099E-03     80.9847E-03     81.7484E-03     81.5832E-03    -40.5690E-03    -41.0139E-03    -40.5904E-03     81.2558E-03    -40.6650E-03     12.0529E-03     63.1519E+06     56.1370E+06    -20.6768E+06     61.9226E+06    -19.5045E+06     56.1939E+06    -9.73653E+06         26.0035
            1874     2.88055E-03     107.346E-03     105.969E-03     76.0675E-03    -314.414E-03     89.4504E-03    -312.590E-03     90.7620E-03     21.8089E-03     81.9198E-03    -40.6522E-03    -41.2731E-03    -40.5161E-03     81.1628E-03    -40.6522E-03     18.6791E-03     61.7075E+06     54.3909E+06    -24.1338E+06     58.1769E+06    -20.6600E+06     54.4478E+06    -16.1540E+06         26.1256
            1875     3.84070E-03     107.347E-03     94.4115E-03     66.5630E-03    -300.501E-03     70.5295E-03    -298.379E-03     88.3237E-03     25.0385E-03     82.3785E-03    -40.6150E-03    -41.7944E-03    -40.3879E-03     80.9719E-03    -40.6150E-03     25.7395E-03     60.1107E+06     50.0982E+06    -32.5348E+06     54.3228E+06    -26.7470E+06     50.0982E+06    -22.4179E+06         26.2805
            1876     4.80128E-03     107.349E-03     101.799E-03     79.3496E-03    -323.611E-03     91.9850E-03    -321.087E-03     86.6395E-03     49.9696E-03     83.0134E-03    -40.5332E-03    -42.4998E-03    -40.2298E-03     80.7434E-03    -40.5332E-03     32.9155E-03     53.9184E+06     39.6309E+06    -42.4615E+06     48.4665E+06    -37.0097E+06     39.6309E+06    -22.1358E+06         26.4772
            1877     5.76170E-03     107.353E-03     98.0522E-03     85.7969E-03    -324.434E-03     94.5415E-03    -322.851E-03     87.7251E-03     8.67084E-03     84.3468E-03    -40.5127E-03    -43.8375E-03    -40.4521E-03     80.9614E-03    -40.5127E-03     40.5549E-03     44.5270E+06     32.5487E+06    -51.1856E+06     39.3664E+06    -46.0250E+06     32.5487E+06    -21.4250E+06         26.7601
            1878     6.72237E-03     107.362E-03     95.2230E-03     80.4897E-03    -309.406E-03     86.5310E-03    -308.358E-03     88.1336E-03    -7.10981E-03     86.5502E-03    -40.5949E-03    -45.9680E-03    -41.2092E-03     81.7914E-03    -40.5949E-03     48.7933E-03     33.0580E+06     25.8379E+06    -59.3690E+06     27.7721E+06    -54.0831E+06     25.8379E+06    -20.8941E+06         27.2193
            1879     7.68073E-03     107.374E-03     97.5381E-03     82.2191E-03    -308.338E-03     91.1449E-03    -307.884E-03     88.1585E-03    -2.08739E-03     89.5726E-03    -40.7539E-03    -48.8150E-03    -42.4686E-03     83.2261E-03    -40.7539E-03     57.3732E-03     21.6909E+06     16.1777E+06    -61.7050E+06     14.9206E+06    -57.3145E+06     18.5574E+06    -17.8201E+06         27.9397
            1880     8.63923E-03     107.391E-03     97.8121E-03     84.3635E-03    -309.465E-03     93.3779E-03    -309.230E-03     88.5633E-03    -1.33948E-03     93.4415E-03    -41.0413E-03    -52.3934E-03    -44.4668E-03     85.5149E-03    -41.0413E-03     65.7127E-03     15.8466E+06     5.72468E+06    -56.6211E+06     2.16539E+06    -51.5064E+06     14.2913E+06    -16.6031E+06         28.9576
            1881     9.59430E-03     107.411E-03     98.7136E-03     82.8745E-03    -312.837E-03     92.0282E-03    -312.177E-03     88.8994E-03     27.1688E-03     98.4785E-03    -41.5893E-03    -56.9056E-03    -47.3395E-03     88.9125E-03    -41.5893E-03     74.3618E-03     17.2670E+06    -2.15318E+06    -61.8448E+06    -6.63473E+06    -55.8079E+06     15.7116E+06    -16.9619E+06         30.2763
            1882     10.5469E-03     107.441E-03     96.1095E-03     87.2972E-03    -315.621E-03     93.4491E-03    -314.786E-03     89.1224E-03     9.23127E-03     104.373E-03    -42.3138E-03    -62.0560E-03    -51.1349E-03     93.4523E-03    -42.3138E-03     82.1905E-03     13.8635E+06    -3.34815E+06    -70.5038E+06    -8.22466E+06    -63.9074E+06     12.1435E+06    -18.5867E+06         31.8871
            1883     11.4965E-03     107.476E-03     99.2726E-03     84.5911E-03    -314.803E-03     94.2287E-03    -314.520E-03     89.3521E-03    -11.2784E-03     110.088E-03    -43.1700E-03    -66.9211E-03    -55.6838E-03     98.8504E-03    -43.1700E-03     86.1809E-03     9.90350E+06    -3.37552E+06    -51.9205E+06    -9.69817E+06    -43.0268E+06     7.33241E+06    -17.5772E+06         33.8858
            1884     12.4409E-03     107.518E-03     99.7361E-03     80.5898E-03    -309.408E-03     90.5445E-03    -308.943E-03     89.3161E-03    -17.9535E-03     117.370E-03    -44.2546E-03    -73.1338E-03    -60.8607E-03     105.097E-03    -44.2546E-03     93.4611E-03     4.36907E+06    -7.69181E+06    -43.9505E+06    -15.2538E+06    -31.9796E+06    -39.8320E+03    -17.7914E+06         36.4664
            1885     13.3807E-03     107.574E-03     93.3221E-03     83.4583E-03    -304.551E-03     87.1267E-03    -303.714E-03     88.8165E-03    -36.1862E-03     125.761E-03    -45.4534E-03    -80.2834E-03    -65.6079E-03     111.085E-03    -45.4534E-03     105.934E-03     547.792E+03    -25.0924E+06    -55.8994E+06    -18.3304E+06    -37.4107E+06    -24.7029E+06    -25.1744E+06         39.6956
            1886     14.3178E-03     107.651E-03     97.6169E-03     86.9137E-03    -310.464E-03     94.7284E-03    -308.969E-03     88.3066E-03    -43.5168E-03     131.706E-03    -46.8015E-03    -84.8822E-03    -68.7025E-03     115.527E-03    -46.8015E-03     113.836E-03     32.5759E+06    -22.4605E+06    -42.3272E+06    -18.2189E+06     8.83585E+06    -22.8287E+06    -27.5141E+06         43.5217
            1887     15.2503E-03     107.741E-03     102.336E-03     88.1827E-03    -313.856E-03     100.953E-03    -312.473E-03     88.1827E-03    -36.7338E-03     135.669E-03    -48.1741E-03    -87.4976E-03    -70.8333E-03     119.005E-03    -48.1741E-03     117.239E-03     92.6537E+06    -9.82958E+06    -22.6727E+06    -16.7453E+06     86.7263E+06    -9.82958E+06    -21.6033E+06         47.4792
            1888     16.1831E-03     107.846E-03     96.4730E-03     86.3846E-03    -306.461E-03     92.5770E-03    -304.309E-03     88.1277E-03    -33.6437E-03     132.082E-03    -49.6102E-03    -82.4700E-03    -73.2648E-03     122.877E-03    -49.6102E-03     76.8654E-03     124.858E+06     9.25701E+06    -11.9322E+06    -9.96987E+06     122.896E+06     9.25701E+06    -13.6489E+06         50.7336
            1889     965.636E-06     108.424E-03     204.730E-03     41.9010E-03    -342.231E-03     7.67001E-03    -304.272E-03     201.001E-03    -111.488E-03     69.4746E-03    -34.5378E-03    -34.9412E-03    -34.6933E-03     69.3228E-03    -34.6338E-03     6.95584E-03     66.1776E+06     61.9792E+06    -12.4085E+06     64.6220E+06    -12.1666E+06     63.2930E+06    -3.02841E+06         24.9805
            1890     1.93200E-03     108.424E-03     107.311E-03     79.0734E-03    -292.894E-03     81.7125E-03    -288.063E-03     99.8410E-03     57.1846E-03     69.0740E-03    -34.4194E-03    -34.6576E-03    -34.0478E-03     68.5602E-03    -34.5155E-03     13.9805E-03     59.5100E+06     50.9816E+06    -11.8077E+06     58.2157E+06    -10.8796E+06     51.3479E+06    -7.59344E+06         25.0665
            1891     2.89916E-03     108.424E-03     96.7144E-03     76.8446E-03    -294.035E-03     78.9043E-03    -292.353E-03     92.9732E-03     20.2413E-03     69.4794E-03    -34.3301E-03    -35.1529E-03    -33.9996E-03     68.3261E-03    -34.3301E-03     21.3117E-03     52.7613E+06     41.4415E+06    -11.3630E+06     50.5715E+06    -9.17318E+06     41.4415E+06    -11.2355E+06         25.1859
            1892     3.86567E-03     108.425E-03     87.7503E-03     66.4139E-03    -285.896E-03     64.7680E-03    -284.250E-03     87.7503E-03    -18.2593E-03     70.6147E-03    -34.2966E-03    -36.3317E-03    -34.2533E-03     68.5363E-03    -34.2966E-03     29.0543E-03     41.6731E+06     34.5678E+06    -22.7213E+06     38.6022E+06    -19.6503E+06     34.5678E+06    -13.3457E+06         25.3469
            1893     4.83140E-03     108.426E-03     83.0975E-03     66.9721E-03    -284.601E-03     65.4779E-03    -283.107E-03     83.0975E-03    -17.1750E-03     72.1873E-03    -34.3053E-03    -37.9024E-03    -34.5564E-03     68.8413E-03    -34.3053E-03     37.2853E-03     27.7948E+06     19.6608E+06    -39.2948E+06     25.2583E+06    -36.7583E+06     19.6608E+06    -12.3001E+06         25.5761
            1894     5.79743E-03     108.431E-03     84.2083E-03     76.7325E-03    -295.131E-03     78.6605E-03    -293.942E-03     81.0913E-03    -414.268E-06     74.4202E-03    -34.3772E-03    -40.0509E-03    -35.0745E-03     69.4438E-03    -34.3772E-03     46.1748E-03     12.6132E+06     4.37731E+06    -46.8855E+06     10.7119E+06    -44.9842E+06     4.37731E+06    -8.21899E+06         25.9477
            1895     6.76190E-03     108.441E-03     94.9125E-03     79.8040E-03    -304.965E-03     91.1741E-03    -302.931E-03     81.5085E-03    -25.2928E-03     77.7085E-03    -34.6178E-03    -43.0879E-03    -36.2425E-03     70.8631E-03    -34.6178E-03     55.3904E-03     3.07946E+06    -6.00979E+06    -54.6897E+06    -4.52720E+06    -53.2817E+06     188.929E+03    -5.75426E+06         26.5564
            1896     7.72648E-03     108.453E-03     94.0306E-03     82.5865E-03    -302.491E-03     92.8459E-03    -301.439E-03     82.7183E-03    -29.7708E-03     82.1211E-03    -35.0134E-03    -47.0986E-03    -38.3207E-03     73.3432E-03    -35.0134E-03     64.7055E-03     1.49364E+06    -15.0101E+06    -58.6491E+06    -15.5964E+06    -57.6917E+06     1.12256E+06    -5.49180E+06         27.4488
            1897     8.68763E-03     108.474E-03     83.7700E-03     75.7128E-03    -282.790E-03     74.8504E-03    -280.902E-03     82.7447E-03    -30.0376E-03     87.7021E-03    -35.5891E-03    -52.0906E-03    -41.5352E-03     77.1467E-03    -35.5891E-03     73.6522E-03     5.13368E+06    -20.9811E+06    -53.2655E+06    -23.1286E+06    -51.1180E+06     5.13368E+06    -3.35644E+06         28.6279
            1898     9.64542E-03     108.501E-03     91.5390E-03     75.1839E-03    -285.894E-03     82.2983E-03    -283.553E-03     82.0839E-03    -29.7810E-03     94.8151E-03    -36.4652E-03    -58.3419E-03    -46.0252E-03     82.4984E-03    -36.4652E-03     83.1436E-03     11.3411E+06    -26.1457E+06    -53.7787E+06    -30.6688E+06    -49.2555E+06     11.3411E+06    -6.80334E+06         30.0872
            1899     10.5988E-03     108.535E-03     96.4611E-03     82.3183E-03    -299.067E-03     94.1965E-03    -296.802E-03     82.3183E-03    -33.8396E-03     102.886E-03    -37.5880E-03    -65.2849E-03    -51.7610E-03     89.3624E-03    -37.5880E-03     91.3847E-03     7.16973E+06    -27.4314E+06    -64.7458E+06    -36.2433E+06    -55.9339E+06     7.16973E+06    -15.4172E+06         31.8192
            1900     11.5462E-03     108.579E-03     86.9904E-03     74.8098E-03    -283.417E-03     77.8586E-03    -281.778E-03     82.3026E-03    -28.8537E-03     110.423E-03    -38.9588E-03    -71.3985E-03    -58.1438E-03     97.1681E-03    -38.9588E-03     94.4301E-03     3.44668E+06    -19.5928E+06    -58.6018E+06    -34.5563E+06    -43.6383E+06     3.44668E+06    -17.4346E+06         33.9248
            1901     12.4879E-03     108.629E-03     81.2768E-03     69.7563E-03    -269.117E-03     69.5221E-03    -268.883E-03     81.2768E-03    -12.7541E-03     119.351E-03    -40.6264E-03    -78.6510E-03    -64.8277E-03     105.528E-03    -40.6264E-03     100.891E-03     5.90839E+06    -4.99407E+06    -44.8110E+06    -25.0371E+06    -24.3675E+06     5.50793E+06    -19.4040E+06         36.6010
            1902     13.4230E-03     108.696E-03     89.4081E-03     76.5291E-03    -280.260E-03     84.7945E-03    -279.674E-03     80.5568E-03    -11.3281E-03     129.482E-03    -42.4549E-03    -87.0029E-03    -71.5574E-03     114.036E-03    -42.4549E-03     111.439E-03     5.85069E+06    -9.08318E+06    -48.7079E+06    -18.7661E+06    -24.8489E+06    -8.32543E+06    -26.4055E+06         39.9182
            1903     14.3520E-03     108.777E-03     95.2932E-03     80.0217E-03    -290.221E-03     94.0285E-03    -289.635E-03     80.7001E-03     1.31700E-03     137.295E-03    -44.4523E-03    -92.8544E-03    -77.0596E-03     121.500E-03    -44.4523E-03     116.334E-03     36.3266E+06    -6.46935E+06    -40.7600E+06    -15.8417E+06     11.4083E+06    -6.46935E+06    -29.9842E+06         43.7953
            1904     15.2784E-03     108.875E-03     97.0986E-03     80.4187E-03    -293.578E-03     95.9995E-03    -293.158E-03     81.0970E-03    -6.62190E-03     143.447E-03    -46.4762E-03    -96.9858E-03    -81.2910E-03     127.752E-03    -46.4762E-03     118.702E-03     91.1576E+06     134.238E+03    -18.5621E+06    -8.62533E+06     82.3714E+06    -1.01630E+06    -27.3436E+06         47.7341
            1905     16.1986E-03     108.983E-03     93.0277E-03     79.6236E-03    -289.793E-03     90.8649E-03    -289.373E-03     81.3668E-03     3.07501E-03     142.113E-03    -48.6532E-03    -93.4575E-03    -84.9700E-03     133.625E-03    -48.6532E-03     76.6147E-03     110.423E+06     16.9209E+06     -7.9084E+06    -3.14631E+06     106.811E+06     15.7703E+06    -19.5621E+06         50.9391
            1906     973.127E-06     109.489E-03     163.018E-03     72.0326E-03    -330.285E-03     38.6601E-03    -296.286E-03     162.392E-03    -149.862E-03     54.9886E-03    -27.2395E-03    -27.7489E-03    -27.5353E-03     54.7749E-03    -27.2395E-03     7.54221E-03     53.0918E+06     48.2384E+06    -9.51506E+06     50.8720E+06    -9.34980E+06     50.2930E+06    -2.11184E+06         23.9464
            1907     1.94620E-03     109.487E-03     95.2759E-03     70.5945E-03    -264.489E-03     70.8658E-03    -264.134E-03     94.6495E-03     4.75455E-03     55.4758E-03    -27.3696E-03    -28.1060E-03    -27.3684E-03     54.7382E-03    -27.3696E-03     14.9754E-03     46.4634E+06     40.3395E+06    -4.48997E+06     45.5434E+06    -3.93619E+06     40.7058E+06    -1.79621E+06         24.0422
            1908     2.91922E-03     109.487E-03     84.5318E-03     59.6809E-03    -252.737E-03     59.4777E-03    -252.534E-03     84.5318E-03    -14.2640E-03     56.2949E-03    -27.3245E-03    -28.9645E-03    -27.3706E-03     54.7010E-03    -27.3245E-03     22.6081E-03     33.4043E+06     21.1146E+06    -8.26198E+06     32.1719E+06    -7.02964E+06     21.1146E+06    -623.082E+03         24.1740
            1909     3.89236E-03     109.488E-03     81.1892E-03     58.3717E-03    -254.658E-03     59.9180E-03    -253.092E-03     78.0768E-03    -29.3690E-03     57.7599E-03    -27.3448E-03    -30.4089E-03    -27.6090E-03     54.9599E-03    -27.3448E-03     30.4574E-03     17.2815E+06     3.59345E+06    -24.1361E+06     13.6056E+06    -20.4602E+06     3.59345E+06     3.07954E+06         24.3694
            1910     4.86522E-03     109.490E-03     79.5853E-03     66.3574E-03    -262.570E-03     69.2432E-03    -261.063E-03     75.1929E-03    -23.9723E-03     60.3008E-03    -27.5006E-03    -32.8055E-03    -28.3570E-03     55.8523E-03    -27.5006E-03     39.2871E-03    -1.16248E+06    -9.03157E+06    -44.8493E+06    -7.66533E+06    -39.1778E+06    -8.20026E+06     6.21722E+06         24.6900
            1911     5.83623E-03     109.497E-03     86.5521E-03     72.8386E-03    -278.869E-03     83.6363E-03    -278.384E-03     75.2691E-03     13.2413E-03     63.9026E-03    -27.7811E-03    -36.1262E-03    -29.6232E-03     57.3996E-03    -27.7811E-03     48.9809E-03    -14.7200E+06    -22.3290E+06    -53.3267E+06    -24.9095E+06    -48.0319E+06    -17.4342E+06     7.61540E+06         25.2175
            1912     6.80717E-03     109.507E-03     90.8242E-03     69.6073E-03    -281.546E-03     82.4610E-03    -279.944E-03     76.3684E-03     6.58076E-03     68.7488E-03    -28.2678E-03    -40.4736E-03    -31.7246E-03     59.9998E-03    -28.2678E-03     59.0687E-03    -11.7345E+06    -31.4683E+06    -57.2056E+06    -34.0584E+06    -53.2274E+06    -13.1227E+06     7.39699E+06         26.0006
            1913     7.77392E-03     109.525E-03     80.3824E-03     61.5929E-03    -263.261E-03     63.0512E-03    -260.266E-03     75.9296E-03     4.19131E-03     74.9648E-03    -29.0121E-03    -45.9488E-03    -35.0207E-03     64.0367E-03    -29.0121E-03     69.1656E-03    -279.032E+03    -34.6574E+06    -58.2994E+06    -38.6755E+06    -54.2813E+06    -279.032E+03     3.95973E+06         27.0503
            1914     8.73804E-03     109.551E-03     76.2354E-03     64.0206E-03    -257.581E-03     62.1233E-03    -253.745E-03     74.2965E-03    -20.6182E-03     82.3693E-03    -29.9918E-03    -52.3791E-03    -39.5556E-03     69.5458E-03    -29.9918E-03     78.9619E-03     9.06910E+06    -33.0767E+06    -55.0135E+06    -36.6756E+06    -51.4146E+06     9.06910E+06     610.178E+03         28.3679
            1915     9.69757E-03     109.584E-03     80.6186E-03     67.8634E-03    -262.425E-03     72.6173E-03    -259.895E-03     73.3353E-03    -46.7713E-03     91.5388E-03    -31.2732E-03    -60.2561E-03    -45.6939E-03     76.9766E-03    -31.2732E-03     89.3353E-03     18.6420E+06    -27.3092E+06    -45.5034E+06    -30.3871E+06    -42.4256E+06     18.6420E+06    -264.701E+03         29.9515
            1916     10.6503E-03     109.628E-03     85.3611E-03     70.4974E-03    -268.688E-03     80.4068E-03    -266.505E-03     73.2690E-03    -41.3711E-03     101.996E-03    -32.8783E-03    -69.1049E-03    -53.4258E-03     86.3168E-03    -32.8783E-03     98.6484E-03     19.1021E+06    -22.6938E+06    -49.7287E+06    -29.1905E+06    -43.2320E+06     19.1021E+06    -7.71662E+06         31.7963
            1917     11.5948E-03     109.681E-03     91.5840E-03     70.9609E-03    -273.745E-03     86.5440E-03    -271.437E-03     73.6928E-03    -11.3639E-03     111.785E-03    -34.8083E-03    -76.8818E-03    -61.6691E-03     96.5727E-03    -34.8083E-03     102.575E-03     12.9969E+06    -9.88612E+06    -54.2700E+06    -28.1434E+06    -36.0127E+06     12.9969E+06    -19.4681E+06         34.0047
            1918     12.5322E-03     109.741E-03     95.6427E-03     71.6961E-03    -275.582E-03     92.1301E-03    -274.864E-03     74.4903E-03     10.6567E-03     122.535E-03    -37.0527E-03    -85.3227E-03    -69.8176E-03     107.030E-03    -37.0527E-03     109.195E-03     13.2453E+06     6.60968E+06    -46.9881E+06    -23.0823E+06    -15.6492E+06     11.5984E+06    -27.2041E+06         36.7764
            1919     13.4633E-03     109.820E-03     93.0976E-03     73.8484E-03    -273.126E-03     90.8072E-03    -272.355E-03     75.3670E-03     15.3578E-03     134.781E-03    -39.5140E-03    -95.2031E-03    -78.3812E-03     117.959E-03    -39.5140E-03     119.742E-03     15.6617E+06    -210.938E+03    -48.2392E+06    -15.6718E+06    -16.9057E+06    -210.938E+03    -31.4538E+06         40.1843
            1920     14.3854E-03     109.913E-03     83.3821E-03     72.5008E-03    -262.771E-03     79.1025E-03    -261.651E-03     75.6604E-03     19.8788E-03     144.700E-03    -42.2140E-03    -102.469E-03    -86.1629E-03     128.395E-03    -42.2140E-03     122.585E-03     48.0850E+06     5.78795E+06    -36.3321E+06    -8.08264E+06     19.8355E+06     5.78795E+06    -35.5408E+06         44.1040
            1921     15.3010E-03     110.016E-03     80.0670E-03     67.9761E-03    -256.919E-03     71.9134E-03    -255.957E-03     75.1678E-03    -20.2919E-03     153.142E-03    -44.9921E-03    -108.123E-03    -92.4707E-03     137.490E-03    -44.9921E-03     123.987E-03     92.4386E+06     13.7184E+06    -17.6173E+06    -2.44259E+06     78.4145E+06     12.5679E+06    -34.9792E+06         48.0042
            1922     16.2109E-03     110.138E-03     85.9936E-03     69.1952E-03    -266.598E-03     79.7252E-03    -265.818E-03     74.6835E-03    -16.7461E-03     153.342E-03    -47.9221E-03    -105.417E-03    -96.9448E-03     144.870E-03    -47.9221E-03     79.7905E-03     90.6787E+06     28.8455E+06    -5.51067E+06     1.61276E+06     84.7058E+06     27.6950E+06    -20.1911E+06         51.1517
            1923     981.023E-06     110.537E-03     85.6869E-03     69.8719E-03    -244.891E-03     59.8307E-03    -227.547E-03     78.3845E-03    -90.0606E-03     39.9465E-03    -19.5681E-03    -20.3791E-03    -20.0658E-03     39.6605E-03    -19.5954E-03     7.43724E-03     25.5875E+06     21.8673E+06    -10.1182E+06     23.5711E+06    -9.93834E+06     23.7038E+06    -1.13160E+06         22.9020
            1924     1.96124E-03     110.536E-03     81.9156E-03     67.5994E-03    -235.502E-03     77.9086E-03    -234.782E-03     70.8869E-03     17.8695E-03     41.4619E-03    -19.9569E-03    -21.5075E-03    -20.5672E-03     40.5217E-03    -19.9569E-03     14.7343E-03     21.0790E+06     12.1970E+06    -10.4431E+06     18.8185E+06    -8.33089E+06     12.3453E+06     5.08980E+06         23.0245
            1925     2.94051E-03     110.536E-03     79.5966E-03     60.6762E-03    -233.703E-03     67.7748E-03    -233.151E-03     71.9460E-03     5.58490E-03     43.0860E-03    -20.1892E-03    -22.8973E-03    -20.9021E-03     41.0908E-03    -20.1892E-03     22.1930E-03     14.9905E+06    -4.54477E+06    -25.0399E+06     5.27098E+06    -15.3204E+06    -4.54477E+06     13.7961E+06         23.2050
            1926     3.91983E-03     110.536E-03     78.1170E-03     62.8590E-03    -240.348E-03     69.7353E-03    -240.188E-03     71.0802E-03    -508.554E-06     45.3564E-03    -20.4435E-03    -24.9066E-03    -21.4318E-03     41.8817E-03    -20.4435E-03     30.0985E-03     4.10778E+06    -16.8536E+06    -47.2574E+06    -12.5317E+06    -30.6179E+06    -16.8536E+06     21.9581E+06         23.4905
            1927     4.89821E-03     110.542E-03     75.5609E-03     69.5789E-03    -246.836E-03     73.7666E-03    -246.632E-03     71.1685E-03    -2.44214E-03     48.8524E-03    -20.8315E-03    -28.0109E-03    -22.6372E-03     43.4788E-03    -20.8315E-03     38.9180E-03    -7.73011E+06    -18.5139E+06    -62.6667E+06    -27.4870E+06    -43.7410E+06    -17.6826E+06     25.3882E+06         23.9454
            1928     5.87564E-03     110.548E-03     79.9991E-03     69.1902E-03    -254.592E-03     77.0637E-03    -254.299E-03     71.8331E-03    -13.0509E-03     53.9128E-03    -21.4153E-03    -32.4947E-03    -24.8311E-03     46.2492E-03    -21.4153E-03     48.9170E-03    -9.56264E+06    -20.8725E+06    -65.5050E+06    -37.4218E+06    -47.7188E+06    -10.7995E+06     21.9821E+06         24.6268
            1929     6.84896E-03     110.564E-03     78.8830E-03     63.1580E-03    -247.905E-03     69.4058E-03    -247.267E-03     71.9971E-03     10.0769E-03     60.3693E-03    -22.2080E-03    -38.1545E-03    -28.0152E-03     50.2299E-03    -22.2080E-03     59.7239E-03    -3.82927E+06    -29.6703E+06    -65.2439E+06    -42.9841E+06    -51.9301E+06    -3.82927E+06     16.3155E+06         25.5554
            1930     7.82048E-03     110.587E-03     70.3622E-03     51.4888E-03    -231.085E-03     49.0682E-03    -228.665E-03     70.3622E-03     27.2372E-03     68.2181E-03    -23.2580E-03    -44.9551E-03    -32.3005E-03     55.5636E-03    -23.2580E-03     71.2207E-03     5.08821E+06    -33.1721E+06    -57.8247E+06    -43.3492E+06    -47.6476E+06     5.08821E+06     10.3161E+06         26.7348
            1931     8.78637E-03     110.619E-03     70.1570E-03     56.1803E-03    -236.939E-03     55.7742E-03    -234.594E-03     68.2181E-03    -2.82123E-03     77.7350E-03    -24.6088E-03    -53.1267E-03    -38.3160E-03     62.9243E-03    -24.6088E-03     82.8351E-03     11.4478E+06    -36.1000E+06    -50.3759E+06    -41.7361E+06    -44.7398E+06     11.4478E+06     1.28790E+06         28.1697
            1932     9.74589E-03     110.660E-03     72.4823E-03     63.9389E-03    -243.880E-03     67.9340E-03    -242.814E-03     67.4215E-03     1.19822E-03     89.0610E-03    -26.2992E-03    -62.7537E-03    -45.9633E-03     72.2706E-03    -26.2992E-03     95.1535E-03     16.9806E+06    -26.4955E+06    -46.0889E+06    -33.2558E+06    -39.3286E+06     16.9806E+06    -6.08010E+06         29.8607
            1933     10.6981E-03     110.717E-03     72.9157E-03     61.7229E-03    -240.585E-03     66.5930E-03    -239.814E-03     67.2747E-03     15.9487E-03     101.361E-03    -28.3984E-03    -72.9603E-03    -54.9002E-03     83.3007E-03    -28.3984E-03     106.131E-03     27.1095E+06    -6.49570E+06    -40.9799E+06    -16.7121E+06    -30.7635E+06     27.1095E+06    -11.7758E+06         31.8064
            1934     11.6426E-03     110.783E-03     85.4256E-03     64.8471E-03    -255.471E-03     81.8558E-03    -254.682E-03     67.6273E-03     20.6572E-03     113.079E-03    -30.8568E-03    -82.1756E-03    -64.6690E-03     95.5719E-03    -30.8568E-03     111.382E-03     28.6178E+06     5.57739E+06    -37.3582E+06    -7.36590E+06    -24.4149E+06     28.6178E+06    -18.2552E+06         34.1117
            1935     12.5765E-03     110.857E-03     98.5976E-03     68.9122E-03    -269.976E-03     97.3552E-03    -268.733E-03     68.9122E-03     3.62855E-03     126.229E-03    -33.6331E-03    -92.5425E-03    -74.7283E-03     108.415E-03    -33.6331E-03     119.621E-03     26.4833E+06     16.1522E+06    -32.8229E+06    -9.80639E+06    -5.61786E+06     25.2368E+06    -23.5714E+06         36.9762
            1936     13.5011E-03     110.946E-03     84.8437E-03     68.3651E-03    -256.905E-03     82.2333E-03    -255.751E-03     69.8214E-03    -7.89481E-03     141.305E-03    -36.6782E-03    -104.640E-03    -85.4086E-03     122.073E-03    -36.6782E-03     132.002E-03     29.7321E+06     7.94162E+06    -44.6835E+06    -14.8084E+06    -2.20326E+06     10.0019E+06    -34.1464E+06         40.4727
            1937     14.4173E-03     111.057E-03     71.8317E-03     66.9745E-03    -243.315E-03     67.8616E-03    -241.826E-03     69.4558E-03    -13.6225E-03     153.359E-03    -40.0567E-03    -113.309E-03    -95.3383E-03     135.389E-03    -40.0567E-03     133.413E-03     52.5518E+06     15.3136E+06    -43.5756E+06    -15.8239E+06     24.8002E+06     15.3136E+06    -39.2213E+06         44.4304
            1938     15.3237E-03     111.170E-03     72.1466E-03     61.9869E-03    -236.358E-03     64.4184E-03    -235.143E-03     68.5002E-03    -32.7898E-03     164.040E-03    -43.5873E-03    -120.431E-03    -103.580E-03     147.189E-03    -43.5873E-03     134.305E-03     89.3874E+06     25.1213E+06    -29.3276E+06    -16.0849E+06     76.1446E+06     25.1213E+06    -36.1757E+06         48.2830
            1939     16.2232E-03     111.305E-03     74.5263E-03     56.8414E-03    -232.197E-03     63.0406E-03    -231.500E-03     67.6300E-03    -23.5280E-03     165.660E-03    -47.2263E-03    -118.425E-03    -109.203E-03     156.438E-03    -47.2263E-03     86.3976E-03     80.7518E+06     27.3556E+06    -20.1128E+06    -9.36639E+06     63.1858E+06     34.1752E+06    -24.8946E+06         51.3641
            1940     987.909E-06     111.568E-03     69.8423E-03     46.6024E-03    -200.961E-03     40.6450E-03    -180.120E-03     54.9595E-03    -88.5791E-03     26.7480E-03    -13.0579E-03    -13.6894E-03    -13.3171E-03     26.4029E-03    -13.0852E-03     6.80163E-03    -1.83444E+06    -8.76116E+06    -20.2459E+06    -7.41640E+06    -14.8122E+06    -8.61285E+06     2.32532E+06         21.9644
            1941     1.97408E-03     111.571E-03     71.6950E-03     50.2556E-03    -207.320E-03     69.1716E-03    -206.596E-03     52.0544E-03     11.9084E-03     28.4679E-03    -13.3615E-03    -15.1074E-03    -14.0663E-03     27.4267E-03    -13.3615E-03     12.9350E-03    -4.09082E+06    -21.1674E+06    -38.1925E+06    -18.5661E+06    -23.8655E+06    -21.0191E+06     14.3036E+06         22.1245
            1942     2.96042E-03     111.570E-03     88.5792E-03     60.5910E-03    -235.114E-03     86.2835E-03    -232.819E-03     60.5910E-03    -19.1127E-03     30.7571E-03    -13.7253E-03    -17.0321E-03    -14.8534E-03     28.5785E-03    -13.7253E-03     19.6402E-03    -4.23624E+06    -32.7847E+06    -62.2111E+06    -32.1569E+06    -34.2904E+06    -32.7847E+06     28.2596E+06         22.3797
            1943     3.94508E-03     111.573E-03     88.3505E-03     66.9791E-03    -241.469E-03     86.2533E-03    -239.611E-03     67.2181E-03    -20.1444E-03     34.1300E-03    -14.2141E-03    -19.9025E-03    -16.0398E-03     30.2673E-03    -14.2141E-03     27.5887E-03    -7.12980E+06    -31.9882E+06    -79.8590E+06    -42.5099E+06    -44.4790E+06    -31.9882E+06     35.8802E+06         22.7776
            1944     4.92855E-03     111.579E-03     75.2917E-03     59.4768E-03    -222.118E-03     65.3595E-03    -221.892E-03     69.1830E-03    -650.544E-06     38.8673E-03    -14.8577E-03    -23.9992E-03    -17.9906E-03     32.8587E-03    -14.8577E-03     36.7805E-03    -11.3745E+06    -23.6907E+06    -81.8917E+06    -45.1753E+06    -48.0909E+06    -23.6907E+06     34.7348E+06         23.3645
            1945     5.90924E-03     111.591E-03     66.9338E-03     46.4772E-03    -205.080E-03     45.2275E-03    -203.831E-03     66.9338E-03    -28.3185E-03     45.0498E-03    -15.7007E-03    -29.3474E-03    -20.8095E-03     36.5119E-03    -15.7007E-03     47.2741E-03    -8.23627E+06    -17.4895E+06    -76.4988E+06    -44.1151E+06    -46.4825E+06    -11.6270E+06     31.0479E+06         24.1697
            1946     6.88772E-03     111.611E-03     66.4816E-03     52.4212E-03    -212.361E-03     53.3382E-03    -210.993E-03     64.1963E-03    -9.01935E-03     52.7707E-03    -16.7692E-03    -35.9953E-03    -24.6622E-03     41.4376E-03    -16.7692E-03     59.1313E-03     125.374E+03    -21.1808E+06    -66.6940E+06    -42.8029E+06    -45.0718E+06     125.374E+03     22.5920E+06         25.2093
            1947     7.86075E-03     111.638E-03     71.3170E-03     58.6718E-03    -226.041E-03     66.0796E-03    -225.472E-03     63.3404E-03     295.103E-06     62.3764E-03    -18.1167E-03    -44.2626E-03    -30.0674E-03     48.1813E-03    -18.1167E-03     72.3692E-03     9.89999E+06    -27.4014E+06    -50.0801E+06    -37.9787E+06    -39.5028E+06     9.89999E+06     11.2134E+06         26.4915
            1948     8.82956E-03     111.680E-03     69.4627E-03     58.6323E-03    -228.207E-03     63.1359E-03    -226.474E-03     63.2264E-03    -35.0045E-03     73.6744E-03    -19.8071E-03    -53.8629E-03    -37.1465E-03     56.9581E-03    -19.8071E-03     86.0049E-03     20.9893E+06    -25.5984E+06    -37.6971E+06    -28.8232E+06    -34.4723E+06     20.9893E+06     1.74617E+06         28.0215
            1949     9.78993E-03     111.733E-03     70.8580E-03     62.4350E-03    -230.333E-03     67.8039E-03    -227.990E-03     63.1460E-03    -17.6449E-03     86.7436E-03    -21.8522E-03    -64.8960E-03    -45.6477E-03     67.4953E-03    -21.8522E-03     100.882E-03     27.2065E+06    -12.4180E+06    -36.9038E+06    -22.3914E+06    -26.9304E+06     27.2065E+06    -10.9130E+06         29.8027
            1950     10.7427E-03     111.801E-03     73.8158E-03     60.5005E-03    -229.494E-03     69.3080E-03    -227.767E-03     63.2807E-03    -5.32529E-03     101.058E-03    -24.3017E-03    -76.7568E-03    -55.6908E-03     79.9918E-03    -24.3017E-03     114.775E-03     28.7312E+06    -189.903E+03    -41.7546E+06    -18.2589E+06    -23.6856E+06     28.7312E+06    -20.3183E+06         31.8359
            1951     11.6849E-03     111.883E-03     70.6142E-03     56.1570E-03    -223.785E-03     62.5787E-03    -222.703E-03     63.1105E-03    -14.9582E-03     114.494E-03    -27.1504E-03    -87.3271E-03    -66.8475E-03     94.0145E-03    -27.1504E-03     121.596E-03     27.2365E+06     1.02456E+06    -37.5795E+06    -13.6977E+06    -22.8572E+06     27.2365E+06    -18.3821E+06         34.2280
            1952     12.6184E-03     111.969E-03     71.0595E-03     54.2125E-03    -223.779E-03     61.9404E-03    -222.974E-03     62.5265E-03    -18.5119E-03     129.787E-03    -30.4073E-03    -99.3762E-03    -78.7202E-03     109.131E-03    -30.4073E-03     131.193E-03     35.5767E+06     20.7550E+06    -25.3729E+06    -10.0747E+06     6.03296E+06     35.0006E+06    -18.8231E+06         37.1787
            1953     13.5408E-03     112.079E-03     72.5171E-03     57.8035E-03    -230.040E-03     67.6497E-03    -229.314E-03     61.9441E-03    -12.4616E-03     147.921E-03    -34.0031E-03    -113.965E-03    -91.7776E-03     125.734E-03    -34.0031E-03     145.779E-03     40.0405E+06     24.3518E+06    -29.2348E+06    -10.6499E+06     15.7475E+06     30.0598E+06    -26.9494E+06         40.7588
            1954     14.4491E-03     112.206E-03     74.0040E-03     61.6331E-03    -232.153E-03     73.1431E-03    -231.292E-03     61.6331E-03    -8.79089E-03     162.289E-03    -37.9770E-03    -124.377E-03    -104.061E-03     141.973E-03    -37.9770E-03     146.683E-03     54.9384E+06     29.2161E+06    -35.8362E+06    -15.3931E+06     30.8475E+06     32.8639E+06    -33.8737E+06         44.7485
            1955     15.3484E-03     112.336E-03     71.9777E-03     61.4316E-03    -227.241E-03     71.0621E-03    -226.325E-03     61.4316E-03    -20.4581E-03     175.176E-03    -42.1557E-03    -133.042E-03    -114.550E-03     156.684E-03    -42.1557E-03     146.384E-03     92.7573E+06     40.1179E+06    -26.1640E+06    -11.8361E+06     78.4294E+06     40.1179E+06    -37.0752E+06         48.5452
            1956     16.2377E-03     112.485E-03     67.3893E-03     55.7416E-03    -215.508E-03     60.8930E-03    -214.313E-03     61.0419E-03    -3.99045E-03     178.881E-03    -46.5135E-03    -132.371E-03    -122.330E-03     168.840E-03    -46.5135E-03     94.1724E-03     82.4817E+06     20.5901E+06    -28.9489E+06    -8.14052E+06     39.7512E+06     42.5123E+06    -29.8915E+06         51.5504
            1957     991.843E-06     112.590E-03     95.3750E-03     54.9279E-03    -241.277E-03     49.4507E-03    -212.830E-03     72.4049E-03     20.8130E-03     16.7526E-03    -8.17345E-03    -8.57844E-03    -8.22654E-03     16.4336E-03    -8.20640E-03     5.24108E-03    -25.5398E+06    -49.3412E+06    -62.4902E+06    -54.3067E+06    -33.7233E+06    -49.3412E+06     12.4470E+06         21.2294
            1958     1.98463E-03     112.591E-03     64.9150E-03     33.1942E-03    -185.983E-03     34.4783E-03    -178.029E-03     55.6768E-03     54.3095E-03     18.0950E-03    -8.36452E-03    -9.73039E-03    -8.74189E-03     17.1065E-03    -8.36452E-03     10.0426E-03    -26.3001E+06    -54.8857E+06    -83.5139E+06    -64.0764E+06    -45.7376E+06    -54.8857E+06     26.5412E+06         21.4257
            1959     2.97516E-03     112.594E-03     72.5254E-03     47.1486E-03    -198.831E-03     62.7286E-03    -194.040E-03     52.1541E-03    -24.1603E-03     20.7053E-03    -8.72586E-03    -11.9795E-03    -9.82985E-03     18.5557E-03    -8.72586E-03     15.9946E-03    -24.8410E+06    -51.9178E+06    -97.7853E+06    -65.3456E+06    -57.2807E+06    -51.9178E+06     36.1065E+06         21.7549
            1960     3.96515E-03     112.597E-03     77.9120E-03     55.9333E-03    -209.976E-03     72.7352E-03    -204.799E-03     55.9333E-03    -62.1826E-03     24.8434E-03    -9.28794E-03    -15.5492E-03    -11.6207E-03     20.9149E-03    -9.28794E-03     23.7729E-03    -17.5473E+06    -40.5504E+06    -95.7397E+06    -58.8276E+06    -54.4594E+06    -40.5504E+06     38.9862E+06         22.2475
            1961     4.95261E-03     112.607E-03     80.7037E-03     50.6525E-03    -206.804E-03     68.0643E-03    -202.281E-03     58.7690E-03    -51.0703E-03     30.4490E-03    -10.0676E-03    -20.3754E-03    -14.1252E-03     24.1987E-03    -10.0676E-03     33.2751E-03    -15.8100E+06    -28.1145E+06    -85.6535E+06    -51.3150E+06    -50.1486E+06    -28.1145E+06     34.7212E+06         22.9320
            1962     5.93730E-03     112.623E-03     70.7922E-03     40.9311E-03    -190.526E-03     49.7681E-03    -187.316E-03     58.7446E-03    -33.9790E-03     37.3807E-03    -11.0594E-03    -26.3197E-03    -17.2452E-03     28.3062E-03    -11.0594E-03     44.4301E-03    -12.2999E+06    -17.4858E+06    -75.8898E+06    -42.2933E+06    -48.4473E+06    -14.9349E+06     29.8807E+06         23.8277
            1963     6.91849E-03     112.649E-03     60.4396E-03     46.0288E-03    -187.875E-03     47.8901E-03    -186.492E-03     57.1960E-03     4.78282E-03     46.2426E-03    -12.2892E-03    -33.9481E-03    -21.6261E-03     33.9206E-03    -12.2892E-03     57.7636E-03     3.02507E+06    -10.2306E+06    -57.6602E+06    -32.2611E+06    -35.6297E+06     3.02507E+06     23.0078E+06         24.9496
            1964     7.89586E-03     112.685E-03     68.3552E-03     55.5038E-03    -206.726E-03     66.3070E-03    -206.148E-03     56.9739E-03     18.3275E-03     57.3825E-03    -13.8375E-03    -43.5445E-03    -27.8201E-03     41.6581E-03    -13.8375E-03     73.1287E-03     16.9422E+06    -14.6610E+06    -39.1388E+06    -25.5218E+06    -28.2780E+06     16.9422E+06     10.9861E+06         26.3084
            1965     8.86462E-03     112.736E-03     67.2245E-03     54.3316E-03    -206.850E-03     62.2061E-03    -205.083E-03     57.5834E-03    -16.2975E-03     69.9010E-03    -15.7186E-03    -54.1811E-03    -35.2377E-03     50.9577E-03    -15.7186E-03     89.1486E-03     24.6210E+06    -14.3701E+06    -30.5379E+06    -21.1686E+06    -23.7394E+06     24.6210E+06    -757.297E+03         27.9114
            1966     9.82828E-03     112.799E-03     61.8461E-03     49.8413E-03    -198.456E-03     52.7083E-03    -196.733E-03     57.2560E-03    -35.5972E-03     84.5693E-03    -17.9691E-03    -66.6048E-03    -44.2687E-03     62.2332E-03    -17.9691E-03     107.159E-03     32.7285E+06    -3.76051E+06    -26.4698E+06    -17.5793E+06    -12.6511E+06     32.7285E+06    -8.74461E+06         29.7641
            1967     10.7822E-03     112.882E-03     64.7488E-03     52.4072E-03    -203.120E-03     58.9570E-03    -201.491E-03     56.5701E-03    -38.6121E-03     100.947E-03    -20.6459E-03    -80.3017E-03    -55.5856E-03     76.2310E-03    -20.6459E-03     124.217E-03     33.0199E+06    -1.58740E+06    -33.6983E+06    -18.8019E+06    -16.4838E+06     33.0199E+06    -15.6147E+06         31.8688
            1968     11.7266E-03     112.979E-03     61.7642E-03     51.7110E-03    -200.508E-03     55.3768E-03    -198.294E-03     55.8843E-03    -47.0463E-03     116.409E-03    -23.7761E-03    -92.6216E-03    -68.4590E-03     92.2462E-03    -23.7761E-03     133.352E-03     28.7993E+06     2.49679E+06    -41.4202E+06    -17.0195E+06    -21.9039E+06     28.7993E+06    -21.5030E+06         34.3332
            1969     12.6566E-03     113.086E-03     63.4469E-03     46.6562E-03    -197.784E-03     53.6083E-03    -196.260E-03     54.9701E-03    -35.6782E-03     133.772E-03    -27.4020E-03    -106.357E-03    -82.0992E-03     109.514E-03    -27.4020E-03     144.625E-03     43.8991E+06     30.3473E+06    -24.9784E+06    -6.89436E+06     12.8394E+06     43.3229E+06    -22.3385E+06         37.3581
            1970     13.5748E-03     113.212E-03     69.7170E-03     50.2937E-03    -206.918E-03     64.7633E-03    -206.105E-03     54.4343E-03    -6.30733E-03     154.731E-03    -31.4332E-03    -123.349E-03    -97.3127E-03     128.694E-03    -31.4332E-03     161.871E-03     48.1252E+06     38.8090E+06    -16.7986E+06     708.078E+03     24.0867E+06     45.3408E+06    -23.6970E+06         41.0134
            1971     14.4810E-03     113.364E-03     69.4355E-03     54.3872E-03    -209.415E-03     69.1774E-03    -209.157E-03     54.3872E-03     7.59619E-03     171.287E-03    -35.9214E-03    -135.431E-03    -111.895E-03     147.752E-03    -35.9214E-03     162.574E-03     69.7652E+06     52.5487E+06    -11.4302E+06     8.93695E+06     45.7502E+06     56.1965E+06    -30.5251E+06         45.0278
            1972     15.3707E-03     113.510E-03     66.2137E-03     54.1802E-03    -205.851E-03     64.5212E-03    -204.159E-03     54.1802E-03    -28.5838E-03     187.182E-03    -40.6891E-03    -146.507E-03    -125.311E-03     165.986E-03    -40.6891E-03     162.703E-03     97.1506E+06     58.9626E+06    -2.74905E+06     11.3928E+06     83.0088E+06     58.9626E+06    -34.3006E+06         48.7564
            1973     16.2500E-03     113.679E-03     70.5518E-03     53.9830E-03    -208.634E-03     68.2781E-03    -206.360E-03     53.9830E-03    -15.9651E-03     193.843E-03    -45.7666E-03    -148.088E-03    -136.385E-03     182.140E-03    -45.7666E-03     106.664E-03     80.7963E+06     24.4645E+06    -33.3233E+06     6.83104E+06     11.1376E+06     53.9688E+06    -23.6772E+06         51.6698
            1974     995.513E-06     113.602E-03     103.881E-03     53.8299E-03    -243.159E-03     68.6810E-03    -223.638E-03     69.5081E-03     27.3809E-03     10.1728E-03    -4.90899E-03    -5.26365E-03    -4.95381E-03     9.89588E-03    -4.94194E-03     3.66328E-03    -47.7288E+06    -75.3006E+06    -106.414E+06    -83.8889E+06    -70.2541E+06    -75.3006E+06     25.3400E+06         20.7398
            1975     1.98977E-03     113.605E-03     64.9034E-03     35.7344E-03    -181.004E-03     28.9861E-03    -170.394E-03     61.0417E-03     22.8536E-03     11.2971E-03    -5.08192E-03    -6.21519E-03    -5.26096E-03     10.3428E-03    -5.08192E-03     7.69082E-03    -38.7955E+06    -69.6601E+06    -113.535E+06    -81.8909E+06    -70.4399E+06    -69.6601E+06     35.2815E+06         20.9617
            1976     2.98520E-03     113.608E-03     48.7480E-03     28.7050E-03    -149.297E-03     22.9677E-03    -143.526E-03     48.7143E-03    -21.2219E-03     14.0005E-03    -5.39179E-03    -8.60750E-03    -6.42584E-03     11.8188E-03    -5.39179E-03     13.1938E-03    -38.7815E+06    -60.1944E+06    -110.353E+06    -76.9065E+06    -72.2279E+06    -60.1944E+06     35.4158E+06         21.3401
            1977     3.97800E-03     113.615E-03     47.6470E-03     29.7465E-03    -149.103E-03     30.9510E-03    -145.537E-03     42.8764E-03    -44.6266E-03     18.3592E-03    -5.94766E-03    -12.4101E-03    -8.45900E-03     14.4081E-03    -5.94766E-03     20.4873E-03    -30.2910E+06    -46.9644E+06    -95.9891E+06    -65.6338E+06    -60.6463E+06    -46.9644E+06     32.1857E+06         21.8921
            1978     4.96857E-03     113.628E-03     74.2668E-03     40.8256E-03    -185.365E-03     66.9896E-03    -180.837E-03     43.5754E-03    -53.2324E-03     23.8775E-03    -6.72826E-03    -17.1476E-03    -10.8055E-03     17.5354E-03    -6.72826E-03     29.5573E-03    -22.7365E+06    -32.3692E+06    -79.2808E+06    -51.2776E+06    -50.7397E+06    -32.3692E+06     27.4256E+06         22.6357
            1979     5.95690E-03     113.648E-03     85.1765E-03     48.5430E-03    -203.786E-03     82.9470E-03    -201.557E-03     48.5430E-03    -17.4909E-03     31.3400E-03    -7.72101E-03    -23.6178E-03    -14.1242E-03     21.8464E-03    -7.72101E-03     41.4714E-03    -15.7303E+06    -21.6899E+06    -65.6129E+06    -37.4965E+06    -48.6543E+06    -16.8823E+06     21.7085E+06         23.5884
            1980     6.94185E-03     113.679E-03     64.6721E-03     50.3404E-03    -186.058E-03     61.1070E-03    -183.963E-03     51.8106E-03    -6.10601E-03     41.1002E-03    -8.97500E-03    -32.1227E-03    -18.9216E-03     27.8991E-03    -8.97500E-03     56.2350E-03     1.69833E+06    -10.1700E+06    -45.1517E+06    -24.9598E+06    -30.3618E+06     1.69833E+06     16.6438E+06         24.7644
            1981     7.92032E-03     113.724E-03     57.8274E-03     49.7041E-03    -177.070E-03     53.0125E-03    -174.791E-03     52.2401E-03    -8.63928E-03     52.6993E-03    -10.5432E-03    -42.1536E-03    -24.7884E-03     35.3341E-03    -10.5432E-03     73.2668E-03     16.5347E+06    -5.01862E+06    -30.9680E+06    -16.8855E+06    -19.1011E+06     16.5347E+06     11.5987E+06         26.1748
            1982     8.89502E-03     113.783E-03     56.2277E-03     47.5036E-03    -175.676E-03     50.1260E-03    -173.892E-03     51.8213E-03    -15.4307E-03     66.2648E-03    -12.4392E-03    -53.8252E-03    -32.2528E-03     44.6923E-03    -12.4392E-03     92.0782E-03     27.8287E+06    -2.97134E+06    -22.4046E+06    -14.6063E+06    -10.7696E+06     27.8287E+06     1.89461E+06         27.8285
            1983     9.86055E-03     113.859E-03     51.7823E-03     42.3432E-03    -167.460E-03     41.4256E-03    -165.541E-03     50.7807E-03    -34.1144E-03     82.8561E-03    -14.7378E-03    -68.1165E-03    -42.2809E-03     57.0206E-03    -14.7378E-03     113.613E-03     38.2388E+06     1.70497E+06    -17.4879E+06    -11.5772E+06    -4.20575E+06     38.2388E+06    -7.55417E+06         29.7314
            1984     10.8175E-03     113.958E-03     50.0496E-03     39.3190E-03    -164.579E-03     38.8805E-03    -163.375E-03     49.2841E-03    -28.6107E-03     101.095E-03    -17.5226E-03    -83.5729E-03    -54.8377E-03     72.3597E-03    -17.5226E-03     133.677E-03     43.8343E+06     7.59458E+06    -20.2724E+06    -3.40535E+06    -9.27247E+06     43.8343E+06    -11.9682E+06         31.8865
            1985     11.7608E-03     114.072E-03     56.8091E-03     43.5010E-03    -177.120E-03     50.6203E-03    -175.711E-03     48.2804E-03    -23.7411E-03     118.220E-03    -20.8249E-03    -97.3981E-03    -68.9035E-03     89.7253E-03    -20.8249E-03     145.682E-03     45.1194E+06     19.5504E+06    -26.0002E+06     2.40841E+06    -8.85823E+06     45.1194E+06    -20.8120E+06         34.4038
            1986     12.6923E-03     114.199E-03     62.6209E-03     46.6496E-03    -186.771E-03     59.7159E-03    -185.343E-03     48.1271E-03    -17.1517E-03     137.781E-03    -24.6604E-03    -113.114E-03    -84.2158E-03     108.882E-03    -24.6604E-03     160.028E-03     50.8913E+06     34.2019E+06    -20.1162E+06     3.34393E+06     10.7418E+06     50.8913E+06    -24.5257E+06         37.4866
            1987     13.6105E-03     114.347E-03     57.6865E-03     45.4353E-03    -179.624E-03     54.4409E-03    -178.907E-03     47.9634E-03    -6.70817E-03     162.355E-03    -28.9786E-03    -133.423E-03    -102.110E-03     131.042E-03    -28.9786E-03     181.834E-03     54.4792E+06     43.5618E+06    -11.6225E+06     4.04828E+06     31.6749E+06     50.6954E+06    -23.0027E+06         41.2057
            1988     14.5097E-03     114.528E-03     54.6881E-03     46.3118E-03    -174.747E-03     53.5169E-03    -174.626E-03     47.3623E-03    -4.30253E-03     180.780E-03    -33.8629E-03    -146.966E-03    -119.149E-03     152.964E-03    -33.8629E-03     181.614E-03     78.3370E+06     59.5540E+06    -13.9325E+06     1.39096E+06     63.0135E+06     59.5540E+06    -30.6213E+06         45.2316
            1989     15.3982E-03     114.692E-03     58.3823E-03     46.7448E-03    -178.270E-03     56.9271E-03    -176.814E-03     46.7448E-03    -27.3730E-03     199.635E-03    -39.2046E-03    -160.433E-03    -135.966E-03     175.168E-03    -39.2046E-03     181.214E-03     88.5199E+06     60.3648E+06    -12.3589E+06    -2.09669E+06     78.2576E+06     60.3648E+06    -30.2068E+06         48.8680
            1990     16.2673E-03     114.895E-03     62.7178E-03     41.0370E-03    -179.170E-03     55.9467E-03    -177.741E-03     46.3786E-03    -19.4829E-03     209.302E-03    -45.0072E-03    -164.302E-03    -150.612E-03     195.612E-03    -45.0072E-03     120.336E-03     71.7133E+06     25.8082E+06    -50.4809E+06     792.497E+03    -12.3093E+06     58.5575E+06    -15.7981E+06         51.6655
            1991     996.877E-06     114.610E-03     98.9194E-03     41.3177E-03    -203.963E-03     55.2193E-03    -160.263E-03     41.3177E-03     75.3627E-03     6.10263E-03    -2.90681E-03    -3.19580E-03    -2.99281E-03     5.90707E-03    -2.91425E-03     2.37936E-03    -91.3211E+06    -132.176E+06    -158.313E+06    -133.913E+06    -109.988E+06    -137.910E+06     19.7107E+06         20.4828
            1992     1.99463E-03     114.612E-03     67.4502E-03     43.1272E-03    -178.276E-03     45.7542E-03    -161.204E-03     47.7508E-03     38.7998E-03     7.34113E-03    -3.10632E-03    -4.23497E-03    -3.42727E-03     6.53342E-03    -3.10632E-03     5.72205E-03    -66.8764E+06    -107.642E+06    -136.220E+06    -110.770E+06    -89.2402E+06    -110.729E+06     23.8742E+06         20.7150
            1993     2.99045E-03     114.617E-03     45.0476E-03     26.2158E-03    -141.443E-03     23.4755E-03    -137.488E-03     43.8323E-03    -4.66731E-03     10.2357E-03    -3.47135E-03    -6.76363E-03    -4.60681E-03     8.07893E-03    -3.47135E-03     11.2174E-03    -57.7400E+06    -80.2943E+06    -107.953E+06    -85.2672E+06    -77.6811E+06    -83.0390E+06     22.0053E+06         21.1140
            1994     3.98496E-03     114.627E-03     44.7824E-03     23.2376E-03    -134.907E-03     27.1735E-03    -133.041E-03     38.9804E-03    -14.1871E-03     14.3035E-03    -3.99495E-03    -10.3087E-03    -6.25783E-03     10.2526E-03    -3.99495E-03     18.1873E-03    -43.9617E+06    -62.0018E+06    -85.9817E+06    -64.7195E+06    -63.9217E+06    -63.3040E+06     18.0837E+06         21.6918
            1995     4.97795E-03     114.642E-03     58.8892E-03     26.0522E-03    -151.435E-03     45.1122E-03    -149.827E-03     38.2217E-03    -16.2471E-03     19.6535E-03    -4.69349E-03    -14.9597E-03    -8.44412E-03     13.1379E-03    -4.69349E-03     27.0135E-03    -32.8747E+06    -45.1328E+06    -67.6091E+06    -48.8883E+06    -51.5955E+06    -45.1328E+06     15.3642E+06         22.4636
            1996     5.96916E-03     114.665E-03     67.3587E-03     30.7806E-03    -161.116E-03     57.2770E-03    -160.454E-03     40.2003E-03    -3.54858E-03     27.4395E-03    -5.63289E-03    -21.8038E-03    -11.8606E-03     17.4964E-03    -5.63289E-03     39.5030E-03    -23.8685E+06    -29.5957E+06    -56.4114E+06    -36.6865E+06    -47.1050E+06    -26.0841E+06     12.5405E+06         23.4442
            1997     6.95532E-03     114.703E-03     67.3952E-03     42.7975E-03    -170.579E-03     64.9572E-03    -168.141E-03     42.7975E-03    -34.9529E-03     37.1973E-03    -6.82099E-03    -30.3748E-03    -16.1916E-03     23.0142E-03    -6.82099E-03     54.9692E-03    -7.34623E+06    -15.1006E+06    -44.8515E+06    -29.1913E+06    -29.8018E+06     -8.3053E+06     10.8866E+06         24.6468
            1998     7.93856E-03     114.755E-03     56.7390E-03     43.3109E-03    -162.766E-03     53.4311E-03    -160.524E-03     44.3768E-03    -36.7636E-03     48.8201E-03    -8.27620E-03    -40.5441E-03    -21.5070E-03     29.7830E-03    -8.27620E-03     73.1095E-03     10.9995E+06    -4.50667E+06    -29.7613E+06    -19.8904E+06    -13.4185E+06     10.0404E+06     5.97570E+06         26.0834
            1999     8.91582E-03     114.825E-03     48.9335E-03     43.3586E-03    -153.301E-03     46.1730E-03    -151.606E-03     44.4245E-03    -31.4721E-03     63.2562E-03    -10.0700E-03    -53.1865E-03    -29.1310E-03     39.2007E-03    -10.0700E-03     94.2049E-03     32.7420E+06     8.10277E+06    -11.3276E+06    -4.16528E+06     940.397E+03     32.7420E+06    -2.22933E+06         27.7628
            2000     9.88598E-03     114.914E-03     48.3365E-03     41.9030E-03    -150.782E-03     44.3625E-03    -148.790E-03     43.8851E-03    -35.0695E-03     81.2209E-03    -12.3049E-03    -68.9150E-03    -39.8325E-03     52.1384E-03    -12.3049E-03     118.560E-03     48.3836E+06     17.3793E+06    -8.86686E+06     7.54751E+06     964.962E+03     48.3836E+06    -7.30688E+06         29.6906
            2001     10.8441E-03     115.028E-03     50.7827E-03     36.4276E-03    -150.700E-03     42.2639E-03    -148.943E-03     43.1891E-03    -32.7378E-03     101.032E-03    -15.0486E-03    -85.9843E-03    -52.9750E-03     68.0225E-03    -15.0486E-03     142.406E-03     52.9092E+06     22.8695E+06    -15.9753E+06     9.41519E+06    -2.52095E+06     52.9092E+06    -11.3195E+06         31.8702
            2002     11.7917E-03     115.162E-03     60.6083E-03     38.1691E-03    -160.374E-03     53.9251E-03    -158.470E-03     42.9485E-03    -26.3626E-03     119.639E-03    -18.3585E-03    -101.285E-03    -67.9616E-03     86.3160E-03    -18.3585E-03     157.741E-03     56.0094E+06     28.1257E+06    -14.1738E+06      8.9556E+06     4.99625E+06     56.0094E+06    -17.2943E+06         34.4138
            2003     12.7249E-03     115.308E-03     53.0085E-03     39.5031E-03    -158.070E-03     48.8084E-03    -157.309E-03     42.9424E-03    -956.900E-06     141.333E-03    -22.2812E-03    -119.043E-03    -85.4822E-03     107.772E-03    -22.2812E-03     174.353E-03     56.7824E+06     27.8239E+06    -11.6121E+06     6.88044E+06     9.33133E+06     56.7824E+06    -18.0669E+06         37.5257
            2004     13.6415E-03     115.485E-03     42.3206E-03     37.7093E-03    -147.219E-03     37.3262E-03    -146.715E-03     42.1991E-03     14.2948E-03     168.748E-03    -26.7995E-03    -141.935E-03    -105.604E-03     132.418E-03    -26.7995E-03     199.560E-03     60.9920E+06     44.4347E+06    -4.11501E+06     4.87743E+06     38.5135E+06     57.9208E+06    -17.5366E+06         41.2805
            2005     14.5418E-03     115.694E-03     44.1206E-03     40.1683E-03    -149.358E-03     42.5336E-03    -148.822E-03     41.2189E-03     10.0084E-03     190.398E-03    -31.9834E-03    -158.421E-03    -126.043E-03     158.020E-03    -31.9834E-03     201.122E-03     82.2651E+06     65.5409E+06    -2.08652E+06     4.41517E+06     75.7634E+06     65.5409E+06    -21.3813E+06         45.2894
            2006     15.4172E-03     115.883E-03     47.5767E-03     40.1000E-03    -152.682E-03     46.9556E-03    -152.526E-03     40.5650E-03    -2.81148E-03     213.687E-03    -37.8905E-03    -175.807E-03    -147.580E-03     185.459E-03    -37.8905E-03     201.887E-03     90.2238E+06     62.3601E+06    -4.65621E+06     1.00465E+06     73.9703E+06     72.9528E+06    -20.0288E+06         48.8026
            2007     16.2766E-03     116.120E-03     44.1100E-03     33.2220E-03    -146.382E-03     36.8132E-03    -145.742E-03     39.8786E-03     9.00394E-03     224.007E-03    -44.3702E-03    -179.638E-03    -163.828E-03     208.196E-03    -44.3702E-03     135.472E-03     71.8832E+06     23.1929E+06    -61.3325E+06    -4.14909E+06    -30.3725E+06     68.2652E+06    -11.2828E+06         51.4629
            2008     997.790E-06     115.614E-03     78.5312E-03     37.8810E-03    -173.109E-03     39.9011E-03    -136.492E-03     39.8945E-03     116.329E-03     5.06759E-03    -2.42961E-03    -2.63792E-03    -2.56901E-03     5.00612E-03    -2.43705E-03     1.05392E-03    -121.668E+06    -189.621E+06    -199.533E+06    -190.628E+06    -123.623E+06    -196.571E+06    -1.62449E+06         20.4325
            2009     1.99447E-03     115.617E-03     54.9809E-03     36.7670E-03    -146.732E-03     36.2277E-03    -130.355E-03     39.1431E-03     57.8854E-03     6.13253E-03    -2.62531E-03    -3.50721E-03    -3.09163E-03     5.71694E-03    -2.62531E-03     3.47115E-03    -89.2071E+06    -171.865E+06    -177.057E+06    -169.294E+06    -92.6680E+06    -176.167E+06    -5.75478E+06         20.6623
            2010     2.99134E-03     115.623E-03     48.2166E-03     36.1589E-03    -143.167E-03     43.6039E-03    -141.530E-03     39.1344E-03     19.8656E-03     8.17982E-03    -2.92968E-03    -5.24985E-03    -3.79458E-03     6.72455E-03    -2.92968E-03     8.05327E-03    -74.8129E+06    -144.937E+06    -153.370E+06    -141.111E+06    -79.5286E+06    -152.480E+06    -6.22961E+06         21.0600
            2011     3.98744E-03     115.636E-03     54.3436E-03     36.1478E-03    -148.035E-03     46.9933E-03    -145.212E-03     40.6747E-03    -27.4605E-03     11.2161E-03    -3.24206E-03    -7.97650E-03    -4.71856E-03     7.95820E-03    -3.24206E-03     14.3012E-03    -51.2135E+06    -123.084E+06    -137.384E+06    -113.777E+06    -61.5843E+06    -136.321E+06    -7.59875E+06         21.6374
            2012     4.98256E-03     115.652E-03     45.5500E-03     22.5142E-03    -126.904E-03     22.3358E-03    -120.923E-03     39.7480E-03    -4.30344E-03     16.6963E-03    -3.80777E-03    -12.8898E-03    -6.90210E-03     10.7085E-03    -3.80777E-03     23.7581E-03    -37.0838E+06    -95.5356E+06    -106.306E+06    -85.0587E+06    -50.8475E+06    -103.019E+06    -10.0999E+06         22.4096
            2013     5.97347E-03     115.680E-03     39.0512E-03     19.7408E-03    -112.492E-03     18.0333E-03    -108.212E-03     36.4788E-03     19.1358E-03     24.6361E-03    -4.72131E-03    -19.9121E-03    -10.1731E-03     14.8971E-03    -4.72131E-03     36.8134E-03    -31.3531E+06    -56.4571E+06    -71.9934E+06    -54.1073E+06    -49.4628E+06    -56.2335E+06    -8.17472E+06         23.3906
            2014     6.96278E-03     115.724E-03     49.5762E-03     34.0524E-03    -131.455E-03     44.0769E-03    -127.374E-03     35.4706E-03     8.09941E-03     34.0033E-03    -5.82053E-03    -28.1823E-03    -13.9215E-03     19.7425E-03    -5.82053E-03     52.2795E-03    -9.01640E+06    -19.2331E+06    -50.2958E+06    -26.0516E+06    -33.8312E+06    -18.6625E+06    -2.79457E+06         24.5936
            2015     7.94812E-03     115.781E-03     52.7265E-03     36.5888E-03    -138.050E-03     48.9006E-03    -134.224E-03     36.5888E-03     11.3608E-03     45.6906E-03    -7.13155E-03    -38.5567E-03    -19.0376E-03     26.1715E-03    -7.13155E-03     71.0842E-03     17.1257E+06     6.00331E+06    -22.8596E+06    -6.78138E+06    -6.18614E+06     13.2370E+06    -3.90862E+06         26.0297
            2016     8.92825E-03     115.859E-03     48.9470E-03     37.5417E-03    -135.527E-03     48.4322E-03    -135.012E-03     37.5417E-03    -12.5732E-03     60.7217E-03    -8.76517E-03    -51.9522E-03    -26.5311E-03     35.3006E-03    -8.76517E-03     94.1661E-03     33.2495E+06     10.8800E+06    -7.21716E+06    -1.10820E+06     4.77100E+06     33.2495E+06    -6.85324E+06         27.7072
            2017     9.90022E-03     115.961E-03     51.3003E-03     37.2920E-03    -141.530E-03     49.4051E-03    -140.594E-03     38.2513E-03    -2.12628E-03     79.3311E-03    -10.8257E-03    -68.5052E-03    -36.8240E-03     47.6499E-03    -10.8257E-03     121.255E-03     44.4860E+06      19.715E+06    -15.3686E+06    -845.167E+03     5.19152E+06     44.4860E+06    -8.01397E+06         29.6308
            2018     10.8638E-03     116.090E-03     52.7160E-03     37.0450E-03    -144.812E-03     49.0897E-03    -143.015E-03     38.8743E-03    -8.10801E-03     99.9999E-03    -13.4076E-03    -86.6027E-03    -49.9817E-03     63.3789E-03    -13.4076E-03     148.074E-03     53.3494E+06     29.1299E+06    -21.9874E+06     4.04784E+06     3.09471E+06     53.3494E+06    -10.9772E+06         31.8034
            2019     11.8142E-03     116.243E-03     50.6980E-03     33.9530E-03    -138.177E-03     42.5174E-03    -135.099E-03     39.0552E-03    -14.6099E-03     120.542E-03    -16.6143E-03    -103.933E-03    -66.2775E-03     82.8863E-03    -16.6143E-03     167.367E-03     62.9081E+06     34.2956E+06    -14.4454E+06     6.82247E+06     13.0278E+06     62.9081E+06    -12.6423E+06         34.3353
            2020     12.7481E-03     116.416E-03     42.3357E-03     28.4193E-03    -127.124E-03     30.5123E-03    -125.168E-03     38.2866E-03     3.91930E-03     144.895E-03    -20.5354E-03    -124.351E-03    -86.3030E-03     106.847E-03    -20.5354E-03     187.357E-03     63.2738E+06     31.8641E+06    -16.0576E+06     8.84274E+06     6.96370E+06     63.2738E+06    -12.6680E+06         37.4295
            2021     13.6646E-03     116.617E-03     42.2375E-03     31.4513E-03    -132.663E-03     36.1123E-03    -132.173E-03     37.0863E-03     7.44076E-03     174.738E-03    -25.1990E-03    -149.492E-03    -108.950E-03     134.196E-03    -25.1990E-03     214.353E-03     82.0128E+06     54.1301E+06    -5.60155E+06     14.1321E+06     44.8977E+06     71.5117E+06    -12.9691E+06         41.1572
            2022     14.5631E-03     116.861E-03     42.8392E-03     36.2012E-03    -137.902E-03     41.9998E-03    -137.062E-03     36.2012E-03     2.31289E-03     198.890E-03    -30.6289E-03    -168.226E-03    -131.639E-03     162.303E-03    -30.6289E-03     218.737E-03     95.5024E+06     79.3750E+06     9.34631E+06     14.8728E+06     86.8012E+06     82.5497E+06    -16.2069E+06         45.0932
            2023     15.4391E-03     117.095E-03     36.6830E-03     32.2544E-03    -130.782E-03     33.2746E-03    -130.315E-03     35.1961E-03    -7.88775E-03     226.150E-03    -36.8915E-03    -189.267E-03    -156.310E-03     193.193E-03    -36.8915E-03     224.434E-03     87.3390E+06     60.5471E+06     4.47711E+06     9.49134E+06     57.9844E+06     84.8875E+06    -7.22204E+06         48.4651
            2024     16.2872E-03     117.360E-03     39.6695E-03     30.3521E-03    -135.262E-03     35.0383E-03    -134.423E-03     34.1439E-03    -1.64856E-03     237.062E-03    -43.8327E-03    -193.230E-03    -174.494E-03     218.326E-03    -43.8327E-03     153.681E-03     81.8171E+06     23.2860E+06    -59.2580E+06     1.70047E+06    -37.6724E+06     81.8171E+06     2.82054E+06         50.9868
            2025     995.758E-06     116.620E-03     74.1410E-03     15.9481E-03    -126.344E-03     39.1974E-03    -93.4135E-03     17.9615E-03     76.2258E-03     7.90898E-03    -3.78048E-03    -4.12853E-03    -4.10914E-03     7.90386E-03    -3.79476E-03     269.119E-06    -104.009E+06    -168.145E+06    -172.711E+06    -168.042E+06    -107.103E+06    -169.721E+06    -13.4608E+06         20.5922
            2026     1.99183E-03     116.623E-03     46.8145E-03     27.6373E-03    -118.292E-03     35.9339E-03    -109.788E-03     30.0134E-03     29.0790E-03     8.66204E-03    -4.01427E-03    -4.64774E-03    -4.53875E-03     8.55304E-03    -4.01427E-03     1.49212E-03    -74.0643E+06    -171.773E+06    -174.502E+06    -166.501E+06    -80.2260E+06    -173.612E+06    -22.9302E+06         20.8046
            2027     2.98650E-03     116.630E-03     56.1598E-03     34.0200E-03    -132.503E-03     52.0945E-03    -128.800E-03     34.3826E-03    -16.1985E-03     9.31240E-03    -4.21466E-03    -5.09743E-03    -4.61743E-03     8.83241E-03    -4.21466E-03     4.11031E-03    -61.8450E+06    -162.676E+06    -175.422E+06    -159.947E+06    -72.2585E+06    -167.738E+06    -29.6115E+06         21.1770
            2028     3.98232E-03     116.642E-03     55.5838E-03     32.0736E-03    -130.882E-03     45.6234E-03    -127.024E-03     38.1769E-03    -42.9875E-03     11.0191E-03    -4.38321E-03    -6.63713E-03    -5.10827E-03     9.49027E-03    -4.38321E-03     8.94356E-03    -40.1830E+06    -142.868E+06    -170.327E+06    -145.109E+06    -53.4666E+06    -154.802E+06    -34.5989E+06         21.7279
            2029     4.97707E-03     116.661E-03     40.2559E-03     25.4610E-03    -113.101E-03     22.2239E-03    -107.073E-03     37.4644E-03    -8.38373E-03     15.1846E-03    -4.76139E-03    -10.4243E-03    -6.62532E-03     11.3856E-03    -4.76139E-03     17.5776E-03    -26.7593E+06    -119.090E+06    -149.869E+06    -126.090E+06    -43.0545E+06    -126.573E+06    -38.8878E+06         22.4729
            2030     5.97070E-03     116.695E-03     38.2975E-03     27.7327E-03    -111.770E-03     25.5524E-03    -106.343E-03     35.0509E-03     1.56937E-03     21.6335E-03    -5.38587E-03    -16.2475E-03    -8.97248E-03     14.3584E-03    -5.38587E-03     29.5738E-03    -28.5824E+06    -94.7045E+06    -124.870E+06    -102.716E+06    -50.3884E+06    -95.0515E+06    -39.2149E+06         23.4268
            2031     6.96037E-03     116.740E-03     35.6629E-03     29.7658E-03    -105.166E-03     27.9885E-03    -101.523E-03     33.7968E-03     21.0105E-03     30.3866E-03    -6.17320E-03    -24.2167E-03    -12.2805E-03     18.4504E-03    -6.17320E-03     45.0489E-03    -4.51069E+06    -66.0092E+06    -101.036E+06    -69.3033E+06    -36.2430E+06    -66.0092E+06    -37.5279E+06         24.6026
            2032     7.94689E-03     116.805E-03     39.8848E-03     30.6767E-03    -106.082E-03     32.8851E-03    -101.696E-03     33.2895E-03     37.8020E-03     42.2353E-03    -7.29531E-03    -34.9396E-03    -17.2153E-03     24.5110E-03    -7.29531E-03     64.9095E-03     16.6795E+06    -22.7967E+06    -59.6441E+06    -33.5560E+06    -11.2837E+06    -20.9217E+06    -27.8449E+06         26.0107
            2033     8.92843E-03     116.891E-03     43.2923E-03     33.5112E-03    -113.032E-03     41.4629E-03    -111.202E-03     33.5112E-03     385.474E-06     57.5083E-03    -8.80193E-03    -48.6984E-03    -24.3987E-03     33.2085E-03    -8.80193E-03     89.2183E-03     25.5677E+06     7.52858E+06    -19.2834E+06    -7.58377E+06    -1.12168E+06     22.5183E+06    -13.4566E+06         27.6578
            2034     9.90385E-03     117.004E-03     52.8671E-03     34.3154E-03    -131.284E-03     49.8475E-03    -128.264E-03     34.3154E-03    -20.9320E-03     76.2245E-03    -10.6736E-03    -65.5484E-03    -34.1054E-03     44.7816E-03    -10.6736E-03     117.786E-03     46.9341E+06     26.0579E+06    -13.8817E+06     6.01744E+06     6.15871E+06     46.9341E+06    -7.42417E+06         29.5461
            2035     10.8694E-03     117.148E-03     53.9111E-03     34.1869E-03    -136.312E-03     49.2305E-03    -132.501E-03     35.0568E-03    -23.4101E-03     97.3451E-03    -13.0376E-03    -84.3180E-03    -46.8418E-03     59.8689E-03    -13.0376E-03     146.938E-03     59.6389E+06     34.1125E+06    -20.8025E+06     6.58924E+06     6.72077E+06     59.6389E+06    -6.75850E+06         31.6741
            2036     11.8236E-03     117.319E-03     41.2984E-03     29.5571E-03    -117.323E-03     31.3391E-03    -112.466E-03     34.6594E-03    -20.3381E-03     119.720E-03    -16.0265E-03    -103.699E-03    -63.6149E-03     79.6355E-03    -16.0265E-03     171.182E-03     69.2510E+06     32.6854E+06    -10.9658E+06     4.92171E+06     16.7979E+06     69.2510E+06    -7.87586E+06         34.1466
            2037     12.7614E-03     117.520E-03     37.5629E-03     25.2555E-03    -113.917E-03     25.1373E-03    -109.397E-03     33.1610E-03    -17.0444E-03     146.732E-03    -19.8287E-03    -126.900E-03    -85.6034E-03     105.435E-03    -19.8287E-03     195.655E-03     73.9235E+06     37.3520E+06    -13.9842E+06     11.1889E+06     12.1790E+06     73.9235E+06    -15.3093E+06         37.1565
            2038     13.6786E-03     117.751E-03     39.2989E-03     25.0168E-03    -116.760E-03     31.3698E-03    -115.421E-03     31.6068E-03    -17.6883E-03     179.311E-03    -24.5064E-03    -154.800E-03    -110.958E-03     135.470E-03    -24.5064E-03     225.473E-03     90.3968E+06     51.0402E+06    -8.57752E+06     15.0548E+06     36.4134E+06     81.3913E+06    -9.57769E+06         40.7657
            2039     14.5721E-03     118.028E-03     36.7652E-03     27.2603E-03    -112.655E-03     32.6121E-03    -111.418E-03     30.1771E-03    -21.6206E-03     205.254E-03    -29.9790E-03    -175.272E-03    -134.046E-03     164.028E-03    -29.9790E-03     235.655E-03     117.116E+06     76.9215E+06    -6.72025E+06     671.338E+03     93.9693E+06     92.6766E+06     5.98014E+06         44.5555
            2040     15.4451E-03     118.291E-03     41.1630E-03     26.3017E-03    -113.142E-03     36.6696E-03    -111.125E-03     28.7785E-03    -32.2824E-03     236.515E-03    -36.2018E-03    -200.299E-03    -160.203E-03     196.419E-03    -36.2018E-03     251.898E-03     90.3985E+06     55.0424E+06    -29.3960E+06    -14.5552E+06     55.6354E+06     74.9646E+06    -627.586E+03         47.7789
            2041     16.2971E-03     118.612E-03     44.1821E-03     23.5403E-03    -114.540E-03     38.5490E-03    -113.197E-03     27.8303E-03    -26.7212E-03     248.157E-03    -43.2478E-03    -204.892E-03    -181.356E-03     224.621E-03    -43.2478E-03     177.314E-03     62.9828E+06     10.5265E+06    -71.5604E+06    -8.54361E+06    -52.4903E+06     62.9828E+06    -2.52394E+06         50.1846
            2042     994.126E-06     117.630E-03     85.1686E-03     15.1928E-03    -118.755E-03     30.1242E-03    -73.1417E-03     24.6234E-03     116.495E-03     14.0045E-03    -6.77832E-03    -7.22618E-03    -6.99861E-03     13.9929E-03    -6.99430E-03    -474.967E-06    -74.0125E+06    -111.280E+06    -119.121E+06    -112.238E+06    -81.0677E+06    -111.107E+06    -13.2281E+06         20.9835
            2043     1.98556E-03     117.634E-03     49.2790E-03     27.4652E-03    -102.772E-03     27.6431E-03    -81.1365E-03     27.4652E-03     65.6833E-03     14.4982E-03    -7.06235E-03    -7.43602E-03    -7.40573E-03     14.4679E-03    -7.06235E-03    -965.181E-06    -43.6027E+06    -110.709E+06    -124.033E+06    -110.240E+06    -56.7720E+06    -111.333E+06    -28.1969E+06         21.1598
            2044     2.97885E-03     117.641E-03     42.4103E-03     26.4162E-03    -97.7807E-03     34.5705E-03    -92.0222E-03     28.4974E-03    -36.1852E-03     14.9199E-03    -7.25790E-03    -7.66221E-03    -7.59317E-03     14.8509E-03    -7.25790E-03     181.889E-06    -32.0849E+06    -103.630E+06    -127.050E+06    -105.976E+06    -52.8951E+06    -103.893E+06    -38.1913E+06         21.4784
            2045     3.97091E-03     117.654E-03     42.5590E-03     23.4427E-03    -96.6712E-03     32.3600E-03    -92.7428E-03     29.7133E-03    -37.7504E-03     16.1587E-03    -7.51677E-03    -8.64142E-03    -8.29659E-03     15.8139E-03    -7.51677E-03     3.71263E-03    -19.0632E+06    -87.8296E+06    -125.205E+06    -102.620E+06    -41.6482E+06    -87.8296E+06    -43.1552E+06         21.9737
            2046     4.96229E-03     117.674E-03     39.2234E-03     25.9312E-03    -95.6127E-03     32.9744E-03    -93.5530E-03     30.1205E-03    -26.9360E-03     18.3572E-03    -7.86795E-03    -10.4855E-03    -9.22089E-03     17.0926E-03    -7.86795E-03     9.80573E-03    -10.0259E+06    -75.1258E+06    -124.535E+06    -102.856E+06    -31.7042E+06    -75.1258E+06    -44.7319E+06         22.6617
            2047     5.95259E-03     117.709E-03     36.6295E-03     29.1065E-03    -95.7863E-03     33.2598E-03    -93.6873E-03     30.3771E-03    -28.8184E-03     21.9071E-03    -8.26722E-03    -13.6360E-03    -10.3687E-03     18.6398E-03    -8.26722E-03     18.7749E-03    -9.07207E+06    -74.5275E+06    -131.842E+06    -102.344E+06    -38.5701E+06    -74.5275E+06    -51.5506E+06         23.5573
            2048     6.94309E-03     117.758E-03     33.4427E-03     26.2327E-03    -92.7934E-03     27.9952E-03    -91.2291E-03     30.1160E-03    -18.5659E-03     28.1518E-03    -8.75224E-03    -19.4045E-03    -12.5223E-03     21.2696E-03    -8.75224E-03     32.1802E-03     5.87439E+06    -74.3394E+06    -133.216E+06    -98.5628E+06    -28.7792E+06    -74.3394E+06    -59.4646E+06         24.6750
            2049     7.93035E-03     117.826E-03     36.4429E-03     26.9881E-03    -98.9398E-03     30.8569E-03    -95.9666E-03     29.6009E-03    -10.0986E-03     38.2585E-03    -9.56217E-03    -28.6993E-03    -16.4771E-03     26.0362E-03    -9.56217E-03     51.0196E-03     11.0848E+06    -53.7926E+06    -119.602E+06    -85.9068E+06    -22.6102E+06    -53.7926E+06    -56.3626E+06         26.0253
            2050     8.91270E-03     117.919E-03     41.2376E-03     29.5703E-03    -106.464E-03     36.9189E-03    -102.145E-03     29.5703E-03    -26.7344E-03     52.5660E-03    -10.7483E-03    -41.8134E-03    -22.7152E-03     33.4678E-03    -10.7483E-03     75.5610E-03     15.8678E+06    -22.3582E+06    -86.5554E+06    -58.1151E+06    -14.8136E+06    -20.1170E+06    -43.9439E+06         27.6128
            2051     9.88763E-03     118.040E-03     45.0994E-03     26.3093E-03    -110.618E-03     36.8749E-03    -105.780E-03     29.6958E-03    -52.9566E-03     70.9331E-03    -12.3814E-03    -58.5501E-03    -31.6875E-03     44.0704E-03    -12.3814E-03     104.920E-03     34.5544E+06     2.96709E+06    -57.7231E+06    -29.5850E+06    -7.95572E+06     17.3392E+06    -24.6215E+06         29.4352
            2052     10.8554E-03     118.197E-03     43.3138E-03     26.0217E-03    -105.725E-03     34.9257E-03    -100.723E-03     29.4081E-03    -30.0503E-03     92.2272E-03    -14.5435E-03    -77.6933E-03    -43.7054E-03     58.2394E-03    -14.5435E-03     135.872E-03     55.9237E+06     21.3363E+06    -28.3901E+06    -10.0718E+06     3.01803E+06     55.9237E+06    -9.71507E+06         31.4818
            2053     11.8120E-03     118.386E-03     36.4414E-03     25.7786E-03    -99.0334E-03     28.8791E-03    -94.1955E-03     28.5030E-03    -24.7620E-03     115.736E-03    -17.2528E-03    -98.4949E-03    -60.0240E-03     77.2647E-03    -17.2528E-03     164.268E-03     76.5196E+06     26.7584E+06    -2.81583E+06     3.08066E+06     20.8619E+06     76.5196E+06    -8.98017E+06         33.8445
            2054     12.7525E-03     118.612E-03     32.3640E-03     24.3660E-03    -99.7096E-03     25.3854E-03    -95.4554E-03     27.0903E-03    -43.9837E-03     144.882E-03    -20.7939E-03    -124.086E-03    -82.7509E-03     103.547E-03    -20.7939E-03     193.785E-03     80.6698E+06     30.8640E+06    -12.1124E+06    -1.05099E+06     19.8026E+06     80.6698E+06    -7.82177E+06         36.6953
            2055     13.6704E-03     118.879E-03     28.9546E-03     22.2508E-03    -93.4060E-03     23.4449E-03    -91.0660E-03     25.4205E-03    -22.5810E-03     177.792E-03    -25.2590E-03    -152.549E-03    -107.931E-03     133.174E-03    -25.2590E-03     225.714E-03     82.8146E+06     35.6301E+06    -23.0951E+06    -13.2110E+06     25.7460E+06     82.8146E+06    -5.73841E+06         40.0612
            2056     14.5718E-03     119.188E-03     26.8930E-03     20.5561E-03    -86.8241E-03     22.4839E-03    -85.5847E-03     23.7258E-03    -14.1852E-03     203.760E-03    -30.4685E-03    -173.276E-03    -129.420E-03     159.904E-03    -30.4685E-03     241.339E-03     119.516E+06     60.3536E+06    -11.8562E+06    -787.671E+03     64.7189E+06     104.082E+06     12.2418E+06         43.6118
            2057     15.4553E-03     119.494E-03     38.2872E-03     22.5851E-03    -92.1090E-03     36.1306E-03    -89.9524E-03     22.5851E-03    -22.6144E-03     239.902E-03    -36.2133E-03    -203.646E-03    -156.095E-03     192.351E-03    -36.2133E-03     274.201E-03     133.553E+06     75.1080E+06    -10.9357E+06     15.0071E+06     82.3903E+06     100.327E+06     25.4857E+06         46.7162
            2058     16.3045E-03     119.865E-03     34.4641E-03     19.2876E-03    -87.6525E-03     27.8139E-03    -83.6439E-03     21.9293E-03     2.98204E-03     255.369E-03    -42.9044E-03    -212.463E-03    -182.076E-03     224.982E-03    -42.9044E-03     208.142E-03     90.1660E+06     31.2891E+06    -71.9774E+06     7.54333E+06    -30.4403E+06     72.3746E+06     8.80101E+06         49.0520
            2059     987.940E-06     118.648E-03     97.2113E-03     25.0630E-03    -124.817E-03     48.0664E-03    -85.1024E-03     34.4937E-03     39.8332E-03     23.0973E-03    -11.2319E-03    -11.8644E-03    -11.5741E-03     23.0624E-03    -11.4872E-03    -1.29292E-03    -28.6352E+06    -46.0909E+06    -75.2426E+06    -48.9519E+06    -55.4586E+06    -45.5583E+06    -10.8100E+06         21.5995
            2060     1.97802E-03     118.652E-03     62.0504E-03     26.5159E-03    -96.9462E-03     21.7493E-03    -67.5097E-03     37.3805E-03     86.9658E-03     23.3280E-03    -11.5100E-03    -11.8120E-03    -11.6525E-03     23.2222E-03    -11.5636E-03    -3.74921E-03    -9.26092E+06    -45.3798E+06    -70.3798E+06    -51.6171E+06    -28.0236E+06    -45.3798E+06    -27.3301E+06         21.7409
            2061     2.96592E-03     118.660E-03     29.0848E-03     9.69296E-03    -53.9350E-03     2.34036E-03    -46.5798E-03     29.0822E-03    -7.70700E-03     24.3717E-03    -11.7679E-03    -12.5986E-03    -12.4808E-03     24.2539E-03    -11.7679E-03    -3.93924E-03    -7.34816E+06    -48.4450E+06    -82.5908E+06    -56.3745E+06    -33.5644E+06    -48.4450E+06    -35.4224E+06         21.9885
            2062     3.95342E-03     118.674E-03     29.5145E-03     14.7469E-03    -66.4088E-03     12.4689E-03    -57.8878E-03     23.2715E-03    -20.6733E-03     25.8703E-03    -12.1652E-03    -13.7044E-03    -13.6169E-03     25.7828E-03    -12.1652E-03    -2.03498E-03    -5.11064E+06    -45.2400E+06    -86.3493E+06    -61.7184E+06    -29.7416E+06    -45.2400E+06    -36.7795E+06         22.3972
            2063     4.93912E-03     118.696E-03     38.0166E-03     22.9298E-03    -82.1512E-03     34.0848E-03    -78.2193E-03     22.9298E-03    -19.2734E-03     27.5830E-03    -12.6863E-03    -14.8916E-03    -14.7070E-03     27.3984E-03    -12.6863E-03     1.57044E-03     347.326E+03    -37.6924E+06    -86.0361E+06    -63.6991E+06    -21.9897E+06    -37.6924E+06    -37.4255E+06         22.9955
            2064     5.92434E-03     118.732E-03     34.4100E-03     23.2569E-03    -75.6090E-03     32.3284E-03    -74.7980E-03     24.5275E-03     637.914E-06     29.8101E-03    -13.2761E-03    -16.5228E-03    -15.8429E-03     29.1301E-03    -13.2761E-03     7.18609E-03     9.88974E+06    -28.8591E+06    -92.1467E+06    -64.3200E+06    -17.9370E+06    -28.8591E+06    -44.9941E+06         23.7976
            2065     6.90768E-03     118.782E-03     29.5342E-03     23.4163E-03    -70.4767E-03     20.7124E-03    -62.9255E-03     24.6869E-03     2.31530E-03     33.3039E-03    -13.9288E-03    -19.3692E-03    -17.3411E-03     31.2758E-03    -13.9288E-03     16.2353E-03     15.2732E+06    -24.7029E+06    -101.550E+06    -68.9263E+06    -17.3507E+06    -24.7029E+06    -52.0378E+06         24.8195
            2066     7.88987E-03     118.854E-03     32.8897E-03     24.0848E-03    -73.2022E-03     24.1017E-03    -64.4142E-03     24.0848E-03    -12.1409E-03     39.3026E-03    -14.6830E-03    -24.6193E-03    -19.7313E-03     34.4146E-03    -14.6830E-03     30.3802E-03     12.4136E+06    -28.5055E+06    -111.075E+06    -79.5462E+06    -19.1150E+06    -28.5055E+06    -53.4458E+06         26.0764
            2067     8.86949E-03     118.951E-03     39.8706E-03     24.1978E-03    -87.0169E-03     35.3189E-03    -82.4652E-03     24.1978E-03    -46.4712E-03     49.2625E-03    -15.6359E-03    -33.6212E-03    -23.7508E-03     39.3921E-03    -15.6359E-03     50.9089E-03     9.52577E+06    -32.4140E+06    -122.344E+06    -93.5569E+06    -19.2611E+06    -32.4140E+06    -53.9613E+06         27.5745
            2068     9.84560E-03     119.080E-03     39.4440E-03     21.1490E-03    -87.8535E-03     31.9531E-03    -83.7491E-03     24.5354E-03    -42.7097E-03     64.0624E-03    -16.9779E-03    -47.0780E-03    -30.3344E-03     47.3189E-03    -16.9779E-03     77.8627E-03     6.82507E+06    -24.5242E+06    -117.082E+06    -91.7951E+06    -24.8190E+06    -18.1666E+06    -48.0061E+06         29.3045
            2069     10.8120E-03     119.247E-03     29.5582E-03     17.9447E-03    -75.0764E-03     20.8019E-03    -72.4021E-03     24.0266E-03    -8.01427E-03     83.3461E-03    -18.8045E-03    -64.5445E-03    -40.2915E-03     59.0931E-03    -18.8045E-03     108.770E-03     32.5046E+06    -414.805E+03    -87.1588E+06    -65.2747E+06    -8.82742E+06     19.0330E+06    -41.1217E+06         31.2415
            2070     11.7692E-03     119.452E-03     28.7142E-03     17.5408E-03    -78.5100E-03     21.1434E-03    -76.3591E-03     22.9608E-03    -3.64122E-03     106.860E-03    -21.2329E-03    -85.6344E-03    -55.0468E-03     76.2723E-03    -21.2329E-03     140.370E-03     67.9593E+06     10.9788E+06    -51.1873E+06    -38.4287E+06     7.80049E+06     58.3789E+06    -27.1322E+06         33.4575
            2071     12.7109E-03     119.700E-03     27.0187E-03     12.5763E-03    -70.6433E-03     16.1481E-03    -68.8894E-03     21.6929E-03    -14.3181E-03     136.879E-03    -24.4551E-03    -112.416E-03    -76.3984E-03     100.861E-03    -24.4551E-03     175.072E-03     87.1670E+06     14.3825E+06    -27.1216E+06    -20.6635E+06     7.92446E+06     87.1670E+06    -5.03272E+06         36.0952
            2072     13.6335E-03     119.996E-03     20.9643E-03     12.6243E-03    -63.2658E-03     11.9626E-03    -61.7323E-03     20.0925E-03    -4.33572E-03     167.559E-03    -28.4766E-03    -139.081E-03    -99.1141E-03     127.592E-03    -28.4766E-03     206.301E-03     106.561E+06     39.4712E+06    -16.7602E+06    -6.18945E+06     28.9005E+06     106.561E+06     2.77549E+06         39.1220
            2073     14.5382E-03     120.324E-03     27.6383E-03     17.8481E-03    -73.9874E-03     26.1000E-03    -73.5251E-03     18.9241E-03     133.823E-06     189.956E-03    -32.9917E-03    -156.951E-03    -115.515E-03     148.520E-03    -32.9917E-03     224.851E-03     110.394E+06     50.6211E+06    -10.9114E+06     1.96372E+06     37.7460E+06     110.394E+06     527.538E+03         42.3334
            2074     15.4298E-03     120.662E-03     28.7213E-03     17.0902E-03    -68.9076E-03     26.7108E-03    -68.1053E-03     18.2984E-03     170.038E-06     228.664E-03    -37.7218E-03    -190.947E-03    -138.939E-03     176.656E-03    -37.7218E-03     276.083E-03     114.700E+06     56.3753E+06    -7.79486E+06     8.78503E+06     57.5868E+06     96.9085E+06     18.3790E+06         45.3072
            2075     16.3115E-03     121.089E-03     19.2931E-03     15.3144E-03    -60.7531E-03     14.1040E-03    -57.6006E-03     17.3510E-03     15.9465E-03     252.641E-03    -43.4270E-03    -209.247E-03    -171.043E-03     214.437E-03    -43.4270E-03     237.414E-03     102.665E+06     46.7144E+06    -51.5651E+06     12.0117E+06     929.006E+03     84.8732E+06     28.7738E+06         47.6019
            2076     983.797E-06     119.677E-03     93.2958E-03     9.51253E-03    -89.3191E-03     29.5584E-03    -46.3130E-03     30.2438E-03     12.6610E-03     34.8534E-03    -16.5417E-03    -18.3093E-03    -16.7641E-03     34.7248E-03    -17.9584E-03    -4.32139E-03     19.4218E+06    -435.394E+03    -41.1723E+06     10.2883E+06    -32.0388E+06    -435.394E+03    -12.7033E+06         22.3650
            2077     1.96611E-03     119.681E-03     65.2400E-03     20.5824E-03    -87.6592E-03     38.7347E-03    -72.0184E-03     31.4470E-03     47.6889E-03     35.1125E-03    -17.2342E-03    -17.8661E-03    -17.5667E-03     34.9512E-03    -17.3723E-03    -5.75258E-03     17.1227E+06    -2.65198E+06    -22.6376E+06    -835.095E+03    -6.22273E+06    -1.10910E+06    -16.6006E+06         22.4952
            2078     2.94878E-03     119.690E-03     38.6415E-03     7.07849E-03    -54.3525E-03     9.81825E-03    -48.3009E-03     29.8502E-03     2.91146E-03     37.2213E-03    -17.7572E-03    -19.4503E-03    -19.2451E-03     37.0160E-03    -17.7572E-03    -6.76427E-03     10.8372E+06    -5.87105E+06    -39.8170E+06    -13.4951E+06    -17.0276E+06    -4.32817E+06    -23.2940E+06         22.7028
            2079     3.92855E-03     119.707E-03     26.5119E-03     8.41704E-03    -48.3076E-03    -165.602E-06    -36.7876E-03     23.5746E-03    -24.6224E-03     39.7198E-03    -18.4236E-03    -21.2976E-03    -21.0903E-03     39.5125E-03    -18.4236E-03    -7.04004E-03     7.22218E+06    -11.3237E+06    -49.0521E+06    -21.4056E+06    -20.4243E+06    -11.3237E+06    -27.1883E+06         23.0322
            2080     4.90753E-03     119.730E-03     28.9991E-03     16.0320E-03    -59.3140E-03     16.1648E-03    -50.6713E-03     20.2236E-03    -10.1752E-03     42.3479E-03    -19.2761E-03    -23.0604E-03    -22.8766E-03     42.1642E-03    -19.2761E-03    -6.38802E-03     12.1984E+06    -7.51045E+06    -50.3764E+06    -26.0156E+06    -12.1624E+06    -7.51045E+06    -29.5555E+06         23.5181
            2081     5.88346E-03     119.768E-03     32.8560E-03     19.4461E-03    -60.1938E-03     28.5166E-03    -56.7955E-03     20.3872E-03     9.35485E-03     45.4988E-03    -20.2849E-03    -25.1936E-03    -25.0442E-03     45.3494E-03    -20.2849E-03    -4.22137E-03     20.9629E+06    -485.916E+03    -53.7947E+06    -32.8688E+06    -3.53162E+06     3.08277E+06    -32.0388E+06         24.1780
            2082     6.85715E-03     119.818E-03     33.5853E-03     21.1986E-03    -60.1770E-03     25.5722E-03    -52.1640E-03     21.1986E-03     19.7037E-03     49.1564E-03    -21.4487E-03    -27.7067E-03    -27.4393E-03     48.8891E-03    -21.4487E-03    -171.488E-06     22.0672E+06     1.37567E+06    -63.7180E+06    -42.4494E+06    -7.31912E+06     9.49326E+06    -34.3351E+06         25.0481
            2083     7.82799E-03     119.893E-03     28.7722E-03     20.9900E-03    -53.2404E-03     20.4605E-03    -45.2916E-03     21.3529E-03     18.6942E-03     53.2929E-03    -22.7240E-03    -30.5721E-03    -29.7461E-03     52.4668E-03    -22.7240E-03     6.83317E-03     21.3882E+06    -4.00822E+06    -70.4034E+06    -50.0275E+06    -13.6710E+06     10.6750E+06    -33.3325E+06         26.1701
            2084     8.79674E-03     119.989E-03     27.0792E-03     16.3337E-03    -46.2737E-03     20.2162E-03    -44.2675E-03     21.1906E-03    -20.4978E-03     58.6723E-03    -24.1066E-03    -34.5358E-03    -32.2778E-03     56.4143E-03    -24.1066E-03     18.1575E-03     24.7292E+06    -1.68319E+06    -72.3917E+06    -54.7893E+06    -10.2813E+06     15.7249E+06    -32.3044E+06         27.5518
            2085     9.76087E-03     120.121E-03     29.0946E-03     11.2961E-03    -49.4856E-03     15.8490E-03    -45.5810E-03     20.6371E-03    -23.7316E-03     66.2260E-03    -25.6119E-03    -40.5805E-03    -35.4529E-03     61.0983E-03    -25.6119E-03     34.9178E-03     20.7137E+06    -1.17370E+06    -85.5980E+06    -60.6421E+06    -18.3532E+06     12.9372E+06    -39.8766E+06         29.1719
            2086     10.7234E-03     120.293E-03     27.2937E-03     12.0812E-03    -54.7751E-03     16.5294E-03    -51.5533E-03     19.6237E-03    -18.4306E-03     77.1656E-03    -27.3455E-03    -49.8227E-03    -40.3791E-03     67.7221E-03    -27.3455E-03     57.4163E-03     24.6118E+06     4.13716E+06    -97.9928E+06    -70.3087E+06    -10.0754E+06     11.1403E+06    -47.3458E+06         30.9875
            2087     11.6774E-03     120.509E-03     26.6733E-03     15.4882E-03    -58.5679E-03     22.5137E-03    -57.7016E-03     18.7815E-03    -12.4477E-03     93.7201E-03    -29.5589E-03    -64.1567E-03    -49.7231E-03     79.2865E-03    -29.5589E-03     84.5429E-03     34.9520E+06     828.134E+03    -94.9240E+06    -73.1748E+06    -11.3408E+06     25.3717E+06    -40.7663E+06         33.0463
            2088     12.6194E-03     120.773E-03     27.1293E-03     11.0186E-03    -55.2217E-03     16.0345E-03    -51.1169E-03     18.0086E-03     14.0041E-03     117.490E-03    -32.4374E-03    -85.0471E-03    -64.9236E-03     97.3669E-03    -32.4374E-03     117.303E-03     53.7224E+06     2.83651E+06    -77.4644E+06    -58.9290E+06    -15.6989E+06     53.7224E+06    -31.9371E+06         35.4616
            2089     13.5438E-03     121.093E-03     21.8990E-03     9.79798E-03    -50.2448E-03     10.3708E-03    -45.9319E-03     17.0132E-03     14.0836E-03     139.743E-03    -35.8147E-03    -103.924E-03    -78.5577E-03     114.376E-03    -35.8147E-03     147.250E-03     79.0317E+06     22.2369E+06    -56.6439E+06    -41.0936E+06     6.68656E+06     79.0317E+06    -15.9951E+06         38.1810
            2090     14.4555E-03     121.443E-03     22.3313E-03     9.06370E-03    -52.1897E-03     11.8409E-03    -48.6215E-03     15.9859E-03    -4.61250E-03     156.636E-03    -39.3274E-03    -117.317E-03    -87.8838E-03     127.203E-03    -39.3274E-03     169.095E-03     98.8368E+06     45.8621E+06    -41.5032E+06    -32.8398E+06     37.1986E+06     98.8368E+06    -4.91155E+06         41.0394
            2091     15.3744E-03     121.792E-03     22.6563E-03     7.33441E-03    -48.6881E-03     12.0264E-03    -45.3655E-03     14.6418E-03    -2.33304E-03     192.130E-03    -42.8719E-03    -149.295E-03    -106.554E-03     149.389E-03    -42.8719E-03     225.098E-03     94.8793E+06     37.7176E+06    -40.5599E+06    -25.8032E+06     22.9609E+06     94.8793E+06    -2.33744E+06         43.7690
            2092     16.2692E-03     122.263E-03     15.0925E-03     9.18514E-03    -46.4364E-03     11.0624E-03    -46.1921E-03     12.9709E-03    -6.17938E-03     215.375E-03    -46.5589E-03    -168.835E-03    -124.467E-03     171.007E-03    -46.5589E-03     237.081E-03     64.2917E+06     16.6978E+06    -54.8225E+06    -22.6696E+06    -15.4552E+06     64.2917E+06     10.8381E+06         46.0104
            2093     975.226E-06     120.717E-03     65.2003E-03     3.08271E-03    -51.1291E-03     6.63498E-03    -13.2950E-03     23.8140E-03     31.6891E-03     48.6793E-03    -22.9102E-03    -25.7659E-03    -24.0102E-03     48.5233E-03    -24.5100E-03    -6.47045E-03     45.7813E+06     28.0173E+06    -16.0428E+06     37.1892E+06    -12.4744E+06     33.0409E+06    -13.6941E+06         23.0672
            2094     1.95363E-03     120.723E-03     53.7947E-03     18.0835E-03    -53.3691E-03     29.8098E-03    -29.3842E-03     18.0835E-03     25.2041E-03     49.1694E-03    -24.0055E-03    -25.1556E-03    -24.7074E-03     49.0425E-03    -24.3268E-03    -5.96437E-03     35.4675E+06     25.3219E+06    -1.83694E+06     29.7907E+06     816.850E+03     28.3449E+06    -7.72924E+06         23.2056
            2095     2.92750E-03     120.735E-03     51.4945E-03     18.2574E-03    -66.4208E-03     40.3981E-03    -60.7882E-03     23.7212E-03     17.9896E-03     52.7821E-03    -24.9744E-03    -27.7974E-03    -27.6279E-03     52.6127E-03    -24.9744E-03    -7.19050E-03     32.0846E+06     24.9787E+06    -9.07521E+06     21.9877E+06    -4.16211E+06     30.1625E+06    -9.37008E+06         23.4211
            2096     3.89923E-03     120.755E-03     38.4276E-03     15.8912E-03    -49.6554E-03     9.76479E-03    -29.7068E-03     24.6054E-03    -16.0557E-03     57.2847E-03    -26.1472E-03    -31.1346E-03    -30.8759E-03     57.0259E-03    -26.1472E-03    -9.42662E-03     31.4813E+06     17.2598E+06    -20.0630E+06     12.8741E+06    -10.7602E+06     26.5641E+06    -14.8544E+06         23.7236
            2097     4.86667E-03     120.782E-03     25.1998E-03     15.6323E-03    -34.1938E-03    -9.43620E-03    -3.74936E-03     19.8239E-03    -22.7391E-03     62.2926E-03    -27.6122E-03    -34.6438E-03    -34.2937E-03     61.9425E-03    -27.6122E-03    -11.6004E-03     33.2240E+06     16.0028E+06    -21.2301E+06     4.71961E+06    -5.02200E+06     28.2991E+06    -18.2761E+06         24.1287
            2098     5.83166E-03     120.822E-03     27.4176E-03     15.4761E-03    -39.3101E-03     11.9560E-03    -24.7896E-03     16.4172E-03    -16.4942E-03     68.1086E-03    -29.3603E-03    -38.6911E-03    -38.2471E-03     67.6646E-03    -29.3603E-03    -13.5849E-03     40.1538E+06     15.9220E+06    -17.0562E+06    -1.78150E+06     2.10052E+06     38.7005E+06    -16.7741E+06         24.6512
            2099     6.79101E-03     120.879E-03     35.2100E-03     16.8000E-03    -50.6615E-03     31.5335E-03    -46.9850E-03     16.8000E-03     1.71115E-03     74.8257E-03    -31.4171E-03    -43.3923E-03    -42.8274E-03     74.2608E-03    -31.4171E-03    -15.7127E-03     50.3543E+06     11.8415E+06    -22.2377E+06    -8.25340E+06    -2.14286E+06     50.3543E+06    -14.6623E+06         25.3414
            2100     7.74445E-03     120.956E-03     38.7883E-03     17.9432E-03    -52.9295E-03     32.5147E-03    -47.0189E-03     18.3061E-03    -4.13908E-03     81.7496E-03    -33.7130E-03    -48.0412E-03    -47.3055E-03     81.0138E-03    -33.7130E-03    -17.4988E-03     55.0596E+06     7.38267E+06    -29.6763E+06    -14.0709E+06    -8.22271E+06     55.0596E+06    -16.1454E+06         26.2910
            2101     8.69206E-03     121.055E-03     33.2968E-03     14.0445E-03    -36.5390E-03     21.8221E-03    -29.9213E-03     18.9014E-03    -32.6275E-03     87.8527E-03    -36.1494E-03    -51.6829E-03    -50.6918E-03     86.8616E-03    -36.1494E-03    -17.9462E-03     54.7139E+06     8.41881E+06    -29.1545E+06    -14.4942E+06    -6.24146E+06     54.7139E+06    -17.0635E+06         27.5472
            2102     9.63599E-03     121.185E-03     21.7399E-03     8.42404E-03    -23.3697E-03     4.78057E-03    -16.0134E-03     18.0271E-03    -25.2283E-03     92.9956E-03    -38.7099E-03    -54.2602E-03    -52.7384E-03     91.4739E-03    -38.7099E-03    -16.9814E-03     53.6910E+06     12.5163E+06    -32.1103E+06    -17.2841E+06    -2.30990E+06     53.6910E+06    -18.8065E+06         29.0696
            2103     10.5729E-03     121.353E-03     20.0479E-03     7.97196E-03    -32.6727E-03     6.58229E-03    -27.8452E-03     16.6100E-03    -15.4805E-03     97.5239E-03    -41.4224E-03    -56.1146E-03    -53.5125E-03     94.9218E-03    -41.4224E-03    -13.7632E-03     48.9796E+06     10.2998E+06    -40.2335E+06    -25.7870E+06    -4.14677E+06     48.9796E+06    -17.8947E+06         30.7813
            2104     11.5078E-03     121.568E-03     19.0669E-03     10.2448E-03    -33.7691E-03     12.6594E-03    -32.7459E-03     15.6291E-03     2.30818E-03     103.154E-03    -44.3096E-03    -58.8513E-03    -54.5504E-03     98.8530E-03    -44.3096E-03    -5.56806E-03     43.6785E+06     10.2552E+06    -50.2482E+06    -34.8327E+06    -5.16035E+06     43.6785E+06    -20.3617E+06         32.7060
            2105     12.4326E-03     121.834E-03     26.1499E-03     13.1533E-03    -45.4712E-03     18.6205E-03    -39.7970E-03     15.0086E-03     8.04707E-03     107.881E-03    -43.9942E-03    -63.8853E-03    -54.3125E-03     101.634E-03    -47.3199E-03     12.7874E-03     36.8609E+06     10.8511E+06    -74.9123E+06    -47.7570E+06    -16.3043E+06     36.8609E+06    -23.8940E+06         34.9475
            2106     13.3501E-03     122.155E-03     25.7534E-03     13.3446E-03    -48.7585E-03     18.1456E-03    -42.1992E-03     14.3930E-03     4.65526E-03     107.805E-03    -38.7359E-03    -69.0801E-03    -49.2200E-03     99.3310E-03    -50.1223E-03     36.1066E-03     42.1162E+06     12.0025E+06    -75.0274E+06    -51.0904E+06    -11.9345E+06     42.1162E+06    -23.8524E+06         37.4684
            2107     14.2840E-03     122.497E-03     20.1950E-03     5.92943E-03    -29.5539E-03     3.60968E-03    -20.1162E-03     13.0770E-03    -16.7522E-03     115.751E-03    -40.1535E-03    -75.6012E-03    -52.3562E-03     105.218E-03    -52.8657E-03     49.8520E-03     80.0070E+06     27.5364E+06    -45.4701E+06    -36.3573E+06     18.4236E+06     80.0070E+06    -12.8188E+06         40.0723
            2108     15.1948E-03     122.876E-03     20.1294E-03     3.79501E-03    -30.6712E-03     2.49603E-03    -20.5851E-03     11.3423E-03    -10.9767E-03     125.361E-03    -34.4343E-03    -90.9332E-03    -53.6410E-03     109.168E-03    -55.5334E-03     81.1344E-03     98.2812E+06     29.4283E+06    -34.2715E+06    -17.1255E+06     12.2822E+06     98.2812E+06     5.74627E+06         42.5398
            2109     16.1083E-03     123.319E-03     14.6232E-03     5.43664E-03    -42.1349E-03    -8.49644E-03    -23.0410E-03     9.46238E-03     7.91485E-03     116.123E-03    -17.2290E-03    -98.8973E-03    -34.7671E-03     91.5392E-03    -56.7756E-03     112.113E-03     62.9718E+06     8.08626E+06    -75.9702E+06    -8.84423E+06    -6.39189E+06     10.3240E+06     4.44913E+06         44.7367


